********************************************************************************
Field Output Report, written Mon Aug 12 20:53:36 2024

Source 1
---------

   ODB: G:/Abaqus_calc_2019/1740/Vel_40/odb/zeides_2a_16_red_250_cal_50_vel_40_fric_025.odb
   Step: Step-1
   Frame: Increment   1699675: Step Time =   0.2209

Loc 1 : Nodal values from source 1

Output sorted by column "Nodal Label".

Field Output reported at nodes for region: DIE_2A_16_D0_36-1.Region_1
   Computation algorithm: EXTRAPOLATE_COMPUTE_AVERAGE
   Averaged at nodes
   Averaging regions: ODB_REGIONS

      Node Label     COORD.COOR1     COORD.COOR2
                          @Loc 1          @Loc 1
-------------------------------------------------
               1     19.9925E-03     117.783E-03


Field Output reported at nodes for region: DIE_2A_16_D0_36-1.Region_2
   Computation algorithm: EXTRAPOLATE_COMPUTE_AVERAGE
   Averaged at nodes
   Averaging regions: ODB_REGIONS

      Node Label     COORD.COOR1     COORD.COOR2
                          @Loc 1          @Loc 1
-------------------------------------------------
               1     19.9925E-03     117.783E-03


Field Output reported at nodes for part: WIRE-1
   Computation algorithm: EXTRAPOLATE_COMPUTE_AVERAGE
   Averaged at nodes
   Averaging regions: ODB_REGIONS

      Node Label     COORD.COOR1     COORD.COOR2           S.S11           S.S22           S.S33           S.S12         PE.PE11         PE.PE22         PE.PE33         PE.PE12         LE.LE11         LE.LE22         LE.LE33         LE.LE12
                          @Loc 1          @Loc 1          @Loc 1          @Loc 1          @Loc 1          @Loc 1          @Loc 1          @Loc 1          @Loc 1          @Loc 1          @Loc 1          @Loc 1          @Loc 1          @Loc 1
-------------------------------------------------------------------------------------------------------------------------------------------------------------------------------------------------------------------------------------------------
               1    -48.7636E-09     57.5046E-03    -28.2759E+06    -100.312E+06    -28.3116E+06    -142.994E+03    -26.5334E-03     53.0562E-03    -26.5228E-03     3.37346E-03    -26.4883E-03     52.6368E-03    -26.4779E-03     3.36988E-03
               2     17.5371E-03     58.4413E-03    -4.94698E+06     143.518E+06     84.6531E+06    -518.459E+03    -24.5387E-03     51.0418E-03    -26.5031E-03     10.6266E-03    -25.0259E-03     51.7769E-03    -26.2808E-03     10.7952E-03
               3     17.3283E-03     116.773E-03     21.3465E+06    -24.0218E+06     17.0783E+06     12.3739E+06     17.7786E-03     14.9491E-03    -32.7277E-03     785.341E-06     17.8601E-03     14.7379E-03    -32.6385E-03     944.972E-06
               4    -1.07387E-06     115.229E-03     27.7053E+06     430.890E+03     26.3763E+06    -998.460E+03    -28.1635E-03     57.0717E-03    -28.9082E-03    -917.574E-06    -28.0655E-03     56.9938E-03    -28.8171E-03    -931.342E-06
               5     103.403E-09    -180.411E-18    -11.6957E+06    -74.9162E+06    -11.7615E+06     130.490E+03    -21.4021E-03     42.7580E-03    -21.3559E-03     241.562E-06    -21.3348E-03     42.4175E-03    -21.2892E-03     243.318E-06
               6     17.3780E-03    -180.411E-18     2.96999E+06     109.833E+06     75.2601E+06     18.3619E+06    -41.5815E-03     73.6130E-03    -32.0315E-03     59.3305E-03    -41.9215E-03     74.1055E-03    -31.8188E-03     59.3970E-03
               7     876.515E-06     57.5078E-03    -27.9891E+06    -101.636E+06    -27.2551E+06    -5.78873E+03    -26.5448E-03     53.0778E-03    -26.5330E-03     5.66063E-03    -26.4980E-03     52.6499E-03    -26.4813E-03     5.65766E-03
               8     1.75295E-03     57.5153E-03    -27.1265E+06    -102.028E+06    -24.8867E+06     119.581E+03    -26.5608E-03     53.1079E-03    -26.5471E-03     10.4533E-03    -26.5128E-03     52.6736E-03    -26.4843E-03     10.4494E-03
               9     2.62942E-03     57.5277E-03    -25.9351E+06    -99.4870E+06    -21.8249E+06     154.864E+03    -26.5700E-03     53.1231E-03    -26.5531E-03     15.4841E-03    -26.5248E-03     52.6959E-03    -26.4804E-03     15.4776E-03
              10     3.50597E-03     57.5448E-03    -24.4666E+06    -95.9865E+06    -17.7587E+06     209.609E+03    -26.5939E-03     53.1527E-03    -26.5588E-03     20.5567E-03    -26.5532E-03     52.7359E-03    -26.4729E-03     20.5474E-03
              11     4.38245E-03     57.5667E-03    -22.6152E+06    -92.1189E+06    -12.8798E+06     205.001E+03    -26.6331E-03     53.1997E-03    -26.5665E-03     25.6369E-03    -26.5972E-03     52.7938E-03    -26.4646E-03     25.6231E-03
              12     5.25905E-03     57.5935E-03    -20.5197E+06    -88.4895E+06    -7.71348E+06     252.408E+03    -26.6810E-03     53.2562E-03    -26.5752E-03     30.6778E-03    -26.6493E-03     52.8598E-03    -26.4557E-03     30.6592E-03
              13     6.13554E-03     57.6250E-03    -18.1956E+06    -84.8168E+06    -2.39874E+06     192.662E+03    -26.7252E-03     53.3076E-03    -26.5824E-03     35.6624E-03    -26.6977E-03     52.9214E-03    -26.4450E-03     35.6365E-03
              14     7.01221E-03     57.6613E-03    -15.7794E+06    -79.9601E+06     1.80051E+06     362.887E+03    -26.7887E-03     53.3693E-03    -26.5806E-03     40.5392E-03    -26.7663E-03     53.0018E-03    -26.4327E-03     40.5074E-03
              15     7.88881E-03     57.7020E-03    -13.5136E+06    -72.7849E+06     4.55592E+06     617.241E+03    -26.8865E-03     53.4559E-03    -26.5693E-03     45.2910E-03    -26.8729E-03     53.1226E-03    -26.4214E-03     45.2525E-03
              16     8.76541E-03     57.7475E-03    -11.9174E+06    -67.0459E+06     5.39688E+06     308.877E+03    -26.9680E-03     53.5207E-03    -26.5527E-03     49.8634E-03    -26.9638E-03     53.2206E-03    -26.4113E-03     49.8088E-03
              17     9.64207E-03     57.7968E-03    -10.5331E+06    -61.8058E+06     4.81350E+06     263.453E+03    -27.0588E-03     53.5888E-03    -26.5300E-03     54.2877E-03    -27.0656E-03     53.3248E-03    -26.4010E-03     54.2181E-03
              18     10.5188E-03     57.8507E-03    -9.04574E+06    -53.3884E+06     3.93788E+06     289.748E+03    -27.1265E-03     53.6264E-03    -26.4998E-03     58.8963E-03    -27.1527E-03     53.4194E-03    -26.3896E-03     58.8099E-03
              19     11.3953E-03     57.9091E-03    -7.96217E+06    -42.8794E+06     3.09316E+06     491.861E+03    -27.2538E-03     53.7212E-03    -26.4675E-03     63.5783E-03    -27.3118E-03     53.5898E-03    -26.3783E-03     63.4742E-03
              20     12.2725E-03     57.9715E-03    -7.43923E+06    -32.0368E+06     64.5114E+03      561.59E+03    -27.4089E-03     53.8365E-03    -26.4275E-03     68.4523E-03    -27.5119E-03     53.7991E-03    -26.3700E-03     68.3242E-03
              21     13.1482E-03     58.0392E-03    -7.12488E+06    -13.5564E+06    -3.96522E+06     513.416E+03    -27.3483E-03     53.7152E-03    -26.3669E-03     74.7544E-03    -27.5295E-03     53.8345E-03    -26.3567E-03     74.6005E-03
              22     14.0259E-03     58.1143E-03    -6.15973E+06     20.4261E+06    -6.05336E+06     221.821E+03    -27.3434E-03     53.6227E-03    -26.2793E-03     84.2747E-03    -27.6773E-03     54.0248E-03    -26.3302E-03     84.0971E-03
              23     14.9032E-03     58.1981E-03    -4.95915E+06     75.3481E+06    -9.74334E+06    -18.7322E+03    -28.1244E-03     54.2815E-03    -26.1571E-03     101.040E-03    -28.8290E-03     55.2643E-03    -26.3079E-03     100.863E-03
              24     15.7780E-03     58.3106E-03    -5.20166E+06     134.154E+06     21.1731E+06     1.02997E+06    -28.8510E-03     55.0762E-03    -26.2252E-03     119.994E-03    -30.2652E-03     56.8859E-03    -26.3063E-03     120.070E-03
              25     16.6439E-03     58.4268E-03    -5.43955E+06     150.985E+06     69.7359E+06     611.784E+03    -26.7132E-03     53.1466E-03    -26.4333E-03     69.3127E-03    -27.8830E-03     54.6307E-03    -26.2957E-03     69.5528E-03
              26     17.5296E-03     59.4355E-03    -5.43356E+06     143.018E+06     84.7793E+06     1.49395E+06    -25.5722E-03     52.0589E-03    -26.4867E-03     8.32454E-03    -26.0532E-03     52.7841E-03    -26.2623E-03     8.50806E-03
              27     17.5377E-03     60.4392E-03     1.42096E+06     149.063E+06     91.0866E+06     1.64473E+06    -23.7633E-03     50.2883E-03    -26.5250E-03     9.10584E-03    -24.2287E-03     51.0251E-03    -26.2878E-03     9.30455E-03
              28     17.5305E-03     61.4365E-03     1.27232E+06     149.358E+06     91.6314E+06    -1.14177E+06    -22.8662E-03     49.4247E-03    -26.5584E-03     10.3019E-03    -23.3379E-03     50.1665E-03    -26.3187E-03     10.4733E-03
              29     17.5363E-03     62.4286E-03    -5.41637E+06     142.934E+06     85.0461E+06    -2.06534E+06    -25.4638E-03     51.9407E-03    -26.4768E-03     4.89437E-03    -25.9304E-03     52.6504E-03    -26.2510E-03     5.02038E-03
              30     17.5319E-03     63.4249E-03    -5.53192E+06     142.910E+06     85.2172E+06    -290.094E+03    -28.3308E-03     54.7241E-03    -26.3934E-03     3.54541E-03    -28.7943E-03     55.4305E-03    -26.1665E-03     3.67178E-03
              31     17.5357E-03     64.4453E-03     772.255E+03     149.488E+06     91.5949E+06     2.51981E+06    -24.7248E-03     51.2283E-03    -26.5034E-03     10.1028E-03    -25.2022E-03     51.9750E-03    -26.2633E-03     10.3112E-03
              32     17.5324E-03     65.4315E-03     1.26271E+06     150.128E+06     91.8517E+06    -2.78809E+03    -21.2018E-03     47.7941E-03    -26.5923E-03     13.6269E-03    -21.6861E-03     48.5499E-03    -26.3525E-03     13.8363E-03
              33     17.5353E-03     66.4245E-03    -3.99399E+06     144.278E+06     86.3327E+06    -2.38239E+06    -24.6389E-03     51.1248E-03    -26.4860E-03     4.27597E-03    -25.0987E-03     51.8327E-03    -26.2577E-03     4.40091E-03
              34     17.5331E-03     67.4193E-03    -7.63530E+06     140.812E+06     83.2612E+06     223.018E+03    -29.4758E-03     55.8530E-03    -26.3771E-03     2.68161E-03    -29.9404E-03     56.5497E-03    -26.1539E-03     2.80072E-03
              35     17.5331E-03     68.4411E-03     488.159E+03     148.382E+06     88.5852E+06     3.06241E+06    -24.7737E-03     51.2463E-03    -26.4726E-03     7.10812E-03    -25.2348E-03     51.9800E-03    -26.2456E-03     7.30920E-03
              36     17.5373E-03     69.4262E-03    -2.72864E+06     147.140E+06     86.2378E+06    -3.91640E+06    -23.1360E-03     49.6475E-03    -26.5115E-03     14.3019E-03    -23.6337E-03     50.4090E-03    -26.2897E-03     14.4529E-03
              37     17.5288E-03     70.4260E-03    -5.37671E+06     143.507E+06     85.0632E+06     163.317E+03    -27.3941E-03     53.8540E-03    -26.4598E-03     4.91392E-03    -27.8665E-03     54.5720E-03    -26.2348E-03     5.06117E-03
              38     17.5379E-03     71.4282E-03     420.206E+03     148.487E+06     90.3434E+06     1.93079E+06    -25.3289E-03     51.8300E-03    -26.5011E-03     8.63790E-03    -25.7966E-03     52.5665E-03    -26.2653E-03     8.82182E-03
              39     17.5297E-03     72.4318E-03    -532.637E+03     148.947E+06     90.6349E+06     853.542E+03    -24.2970E-03     50.8386E-03    -26.5417E-03     13.9351E-03    -24.7871E-03     51.5950E-03    -26.3037E-03     14.1296E-03
              40     17.5361E-03     73.4299E-03    -2.64321E+06     146.632E+06     87.6185E+06     572.384E+03    -22.3816E-03     48.9299E-03    -26.5483E-03     12.2505E-03    -22.8668E-03     49.6749E-03    -26.3190E-03     12.4549E-03
              41     17.5339E-03     74.4137E-03    -3.32588E+06     145.887E+06     87.1555E+06    -1.24097E+06    -25.3150E-03     51.7766E-03    -26.4616E-03     7.95323E-03    -25.7887E-03     52.5056E-03    -26.2325E-03     8.10555E-03
              42     17.5328E-03     75.4282E-03     540.590E+03     148.283E+06     89.2155E+06     1.31307E+06    -25.4597E-03     51.9364E-03    -26.4767E-03     2.41655E-03    -25.9051E-03     52.6521E-03    -26.2464E-03     2.57838E-03
              43     17.5360E-03     76.4135E-03    -2.29719E+06     146.352E+06     86.8699E+06    -2.71587E+06    -25.1461E-03     51.6322E-03    -26.4860E-03     5.95420E-03    -25.6091E-03     52.3549E-03    -26.2606E-03     6.07501E-03
              44     17.5302E-03     77.4218E-03    -5.09184E+06     143.534E+06     84.9308E+06    -668.014E+03    -27.6414E-03     54.0724E-03    -26.4309E-03     1.59171E-03    -28.0976E-03     54.7741E-03    -26.2070E-03     1.70983E-03
              45     17.5378E-03     78.4195E-03    -4.65712E+06     144.448E+06     85.3432E+06     336.936E+03    -26.8251E-03     53.2502E-03    -26.4250E-03     6.80541E-03    -27.2976E-03     53.9720E-03    -26.2010E-03     6.95219E-03
              46     17.5302E-03     79.4281E-03    -2.49758E+06     147.080E+06     87.7716E+06     1.82318E+06    -25.4039E-03     51.8876E-03    -26.4837E-03     10.9601E-03    -25.8891E-03     52.6327E-03    -26.2544E-03     11.1533E-03
              47     17.5366E-03     80.4285E-03    -1.95298E+06     147.180E+06     87.7667E+06     516.029E+03    -22.3232E-03     48.8843E-03    -26.5612E-03     14.4662E-03    -22.8176E-03     49.6417E-03    -26.3329E-03     14.6766E-03
              48     17.5315E-03     81.4125E-03    -6.85000E+06     142.692E+06     83.6838E+06    -1.76875E+06    -25.9694E-03     52.4372E-03    -26.4678E-03     7.17784E-03    -26.4517E-03     53.1603E-03    -26.2464E-03     7.31819E-03
              49     17.5349E-03     82.4172E-03    -1.87373E+06     147.365E+06     88.4234E+06     1.67372E+06    -28.1155E-03     54.5326E-03    -26.4170E-03     2.86826E-03    -28.5714E-03     55.2487E-03    -26.1859E-03     3.01728E-03
              50     17.5336E-03     83.4282E-03     3.39633E+06     152.788E+06     93.3391E+06     1.68581E+06    -23.9452E-03     50.4552E-03    -26.5100E-03     13.9989E-03    -24.4260E-03     51.2200E-03    -26.2698E-03     14.1992E-03
              51     17.5344E-03     84.4247E-03      78.378E+03     149.485E+06     89.9629E+06    -2.08174E+06    -22.2418E-03     48.8021E-03    -26.5604E-03     14.1510E-03    -22.7323E-03     49.5634E-03    -26.3274E-03     14.3259E-03
              52     17.5331E-03     85.4060E-03    -7.18752E+06     141.653E+06     82.8473E+06    -2.64097E+06    -26.6587E-03     53.1095E-03    -26.4508E-03     4.81374E-03    -27.1310E-03     53.8194E-03    -26.2315E-03     4.93085E-03
              53     17.5337E-03     86.4165E-03    -3.90825E+06     144.172E+06     85.6026E+06     2.46966E+06    -28.7309E-03     55.1175E-03    -26.3866E-03     4.07283E-03    -29.1902E-03     55.8267E-03    -26.1620E-03     4.22577E-03
              54     17.5350E-03     87.4284E-03     2.21549E+06     150.361E+06     91.1227E+06     1.72703E+06    -23.2816E-03     49.7779E-03    -26.4963E-03     13.6968E-03    -23.7599E-03     50.5339E-03    -26.2619E-03     13.9002E-03
              55     17.5346E-03     88.4153E-03    -2.22542E+06     145.925E+06     86.7354E+06    -1.87646E+06    -22.5358E-03     49.0431E-03    -26.5073E-03     10.9085E-03    -23.0164E-03     49.7827E-03    -26.2820E-03     11.0768E-03
              56     17.5340E-03     89.4038E-03    -6.39643E+06     141.264E+06     82.7532E+06    -1.56025E+06    -28.6857E-03     55.0422E-03    -26.3565E-03     3.08458E-03    -29.1467E-03     55.7424E-03    -26.1383E-03     3.19028E-03
              57     17.5346E-03     90.4209E-03    -1.17377E+06     146.003E+06     87.2948E+06     2.44030E+06    -28.6171E-03     54.9601E-03    -26.3430E-03     7.59952E-03    -29.0807E-03     55.6852E-03    -26.1165E-03     7.75883E-03
              58     17.5356E-03     91.4283E-03     2.49591E+06     151.179E+06     91.8883E+06     970.780E+03    -22.3906E-03     48.8764E-03    -26.4858E-03     16.8566E-03    -22.8852E-03     49.6506E-03    -26.2492E-03     17.0742E-03
              59     17.5348E-03     92.4111E-03    -1.77845E+06     146.095E+06     87.5915E+06    -1.74382E+06    -22.2594E-03     48.7146E-03    -26.4552E-03     11.0463E-03    -22.7401E-03     49.4540E-03    -26.2265E-03     11.2194E-03
              60     17.5372E-03     93.4024E-03    -6.30786E+06     140.794E+06     83.3497E+06    -1.40343E+06    -28.6241E-03     54.8739E-03    -26.2498E-03     3.77753E-03    -29.0848E-03     55.5708E-03    -26.0280E-03     3.87914E-03
              61     17.5357E-03     94.4189E-03    -3.08894E+06     144.256E+06     87.1487E+06     1.20966E+06    -29.2871E-03     55.4885E-03    -26.2015E-03     7.48951E-03    -29.7577E-03     56.2085E-03    -25.9704E-03     7.62435E-03
              62     17.5391E-03     95.4244E-03     249.745E+03     146.707E+06     89.7551E+06     1.64186E+06    -24.1299E-03     50.4071E-03    -26.2772E-03     15.7219E-03    -24.6200E-03     51.1594E-03    -26.0415E-03     15.9290E-03
              63     17.5379E-03     96.4117E-03    -1.55142E+06     143.567E+06     88.3759E+06    -478.644E+03    -24.2554E-03     50.4793E-03    -26.2240E-03     10.6585E-03    -24.7306E-03     51.2029E-03    -25.9880E-03     10.8300E-03
              64     17.5403E-03     97.4083E-03    -2.94881E+06     139.833E+06     86.6142E+06    -2.00419E+06    -27.7161E-03     53.7666E-03    -26.0505E-03     3.60060E-03    -28.1667E-03     54.4523E-03    -25.8159E-03     3.70122E-03
              65     17.5424E-03     98.4108E-03    -6.34298E+06     136.200E+06     84.6431E+06    -2.41288E+06    -32.0078E-03     57.8616E-03    -25.8538E-03     7.74846E-03    -32.4825E-03     58.5526E-03    -25.6188E-03     7.81874E-03
              66     17.5418E-03     99.4315E-03    -1.56814E+06     138.635E+06     88.4060E+06     1.23647E+06    -30.0401E-03     55.8762E-03    -25.8361E-03     12.1670E-03    -30.5206E-03     56.5875E-03    -25.5928E-03     12.3135E-03
              67     17.5462E-03     100.425E-03     331.442E+03     137.979E+06     90.6722E+06    -832.366E+03    -27.2087E-03     53.0316E-03    -25.8229E-03     15.1931E-03    -27.6904E-03     53.7418E-03    -25.5701E-03     15.3437E-03
              68     17.5445E-03     101.420E-03    -3.29771E+06     130.427E+06     87.8818E+06    -2.81690E+06    -33.4339E-03     59.0259E-03    -25.5920E-03     6.95524E-03    -33.8904E-03     59.6792E-03    -25.3369E-03     7.00941E-03
              69     17.5486E-03     102.431E-03    -5.07422E+06     126.661E+06     87.0586E+06    -2.49191E+06    -39.5438E-03     64.9189E-03    -25.3751E-03     7.92655E-03    -40.0120E-03     65.5673E-03    -25.1162E-03     7.92667E-03
              70     17.5466E-03     103.458E-03    -391.469E+03     127.372E+06     91.7641E+06     309.473E+03    -39.4028E-03     64.7505E-03    -25.3477E-03     18.6167E-03    -39.9006E-03     65.4345E-03    -25.0730E-03     18.6708E-03
              71     17.5497E-03     104.471E-03     1.21678E+06     124.935E+06     92.7645E+06     228.681E+03    -36.9926E-03     62.3434E-03    -25.3509E-03     23.6106E-03    -37.5064E-03     63.0362E-03    -25.0700E-03     23.6917E-03
              72     17.5499E-03     105.467E-03     1.35742E+06     118.756E+06     92.6319E+06    -3.60746E+06    -42.7432E-03     67.8905E-03    -25.1473E-03     17.9752E-03    -43.2223E-03     68.5276E-03    -24.8583E-03     17.9330E-03
              73     17.5510E-03     106.493E-03    -3.83852E+06     109.445E+06     89.7450E+06    -2.68815E+06    -51.7747E-03     76.6587E-03    -24.8839E-03     14.3287E-03    -52.2527E-03     77.2523E-03    -24.5884E-03     14.1741E-03
              74     17.5515E-03     107.524E-03    -3.75913E+06     102.417E+06     88.4790E+06    -1.80382E+06    -56.1256E-03     80.8540E-03    -24.7284E-03     22.1205E-03    -56.6382E-03     81.4615E-03    -24.4291E-03     21.9068E-03
              75     17.5529E-03     108.559E-03    -2.53494E+06     96.8414E+06     87.9168E+06    -3.28052E+06    -57.5293E-03     82.1714E-03    -24.6421E-03     27.2149E-03    -58.0659E-03     82.7882E-03    -24.3392E-03     26.9486E-03
              76     17.5535E-03     109.587E-03     2.34173E+06     88.6050E+06     88.3000E+06    -2.84255E+06    -60.9037E-03     85.4159E-03    -24.5122E-03     32.7606E-03    -61.4589E-03     86.0384E-03    -24.2026E-03     32.4038E-03
              77     17.5547E-03     110.628E-03    -3.98067E+06     83.9733E+06     86.8734E+06    -1.33517E+06    -69.2341E-03     93.5002E-03    -24.2661E-03     45.1976E-03    -69.9124E-03     94.2148E-03    -23.9477E-03     44.6463E-03
              78     17.5553E-03     111.691E-03    -767.723E+03     84.7880E+06     89.2180E+06     903.671E+03    -76.7217E-03     100.765E-03    -24.0428E-03     70.7710E-03    -77.5809E-03     101.671E-03    -23.7185E-03     70.0187E-03
              79     17.5572E-03     112.759E-03    -17.6890E+06     65.7982E+06     57.0481E+06    -12.2002E+06    -76.6632E-03     100.542E-03    -23.8789E-03     102.647E-03    -77.7743E-03     101.666E-03    -23.6634E-03     101.588E-03
              80     17.5588E-03     113.820E-03    -1.30417E+06     25.5931E+06     19.3714E+06    -18.5689E+06    -65.2311E-03     89.1900E-03    -23.9589E-03     136.729E-03    -66.2374E-03     90.2327E-03    -23.8972E-03     135.711E-03
              81     17.5609E-03     114.862E-03     7.28371E+06    -1.01801E+06     6.45897E+06    -8.45097E+06    -28.1661E-03     53.1785E-03    -25.0124E-03     141.540E-03    -28.6263E-03     53.6575E-03    -24.9891E-03     141.127E-03
              82     17.5448E-03     115.806E-03    -9.62511E+06    -15.9482E+06     4.01249E+06     1.83780E+06     8.96423E-03     20.3505E-03    -29.3147E-03     63.9840E-03     8.88279E-03     20.3065E-03    -29.2575E-03     64.0135E-03
              83     16.4653E-03     116.580E-03     2.57900E+06     17.7574E+06     45.5789E+06     4.35899E+06     13.3655E-03     20.2842E-03    -33.6497E-03     13.2862E-03     13.2794E-03     20.2965E-03    -33.4513E-03     13.3421E-03
              84     15.5473E-03     116.428E-03    -21.1190E+06     5.97373E+06     54.9909E+06    -5.93248E+06    -7.06035E-03     41.9280E-03    -34.8677E-03     20.1549E-03    -7.25389E-03     41.9140E-03    -34.5707E-03     20.0653E-03
              85     14.6989E-03     116.234E-03    -17.7334E+06    -7.06046E+06     48.7598E+06    -10.6117E+06    -21.7866E-03     56.8648E-03    -35.0782E-03     11.5186E-03    -21.9516E-03     56.7747E-03    -34.7985E-03     11.3603E-03
              86     13.8381E-03     116.078E-03    -5.71747E+06    -539.793E+03     55.3367E+06    -10.2685E+06    -23.6905E-03     58.6691E-03    -34.9786E-03     3.73062E-03    -23.8089E-03     58.5868E-03    -34.6929E-03     3.57754E-03
              87     12.9793E-03     115.948E-03     2.95346E+06    -6.43712E+06     58.7948E+06    -6.38682E+06    -29.8209E-03     64.6291E-03    -34.8082E-03    -3.23408E-03    -29.8896E-03     64.5011E-03    -34.5092E-03    -3.34314E-03
              88     12.1214E-03     115.832E-03     10.3752E+06     999.081E+03     62.3159E+06    -4.21897E+06    -34.6594E-03     69.0184E-03    -34.3590E-03    -6.41376E-03    -34.7056E-03     68.9120E-03    -34.0639E-03    -6.49789E-03
              89     11.2669E-03     115.730E-03     14.7374E+06    -4.29573E+06     59.6735E+06    -2.68769E+06    -36.7147E-03     70.4272E-03    -33.7125E-03    -7.30387E-03    -36.7272E-03     70.2918E-03    -33.4293E-03    -7.36709E-03
              90     10.4106E-03     115.642E-03     18.0951E+06     166.828E+03     60.8258E+06    -1.76058E+06    -36.6570E-03     69.6790E-03    -33.0221E-03    -6.89548E-03    -36.6597E-03     69.5604E-03    -32.7444E-03    -6.94303E-03
              91     9.55188E-03     115.567E-03     20.1739E+06    -1.13219E+06     59.7600E+06    -1.13445E+06    -36.1220E-03     68.4748E-03    -32.3528E-03    -6.24700E-03    -36.1098E-03     68.3493E-03    -32.0816E-03    -6.28263E-03
              92     8.69063E-03     115.501E-03     20.7618E+06     896.376E+03     56.4272E+06    -926.601E+03    -35.3830E-03     67.0803E-03    -31.6973E-03    -5.55081E-03    -35.3653E-03     66.9697E-03    -31.4466E-03    -5.58032E-03
              93     7.82760E-03     115.446E-03     20.8088E+06    -336.358E+03     51.9506E+06    -1.01126E+06    -34.3609E-03     65.4386E-03    -31.0777E-03    -4.85802E-03    -34.3342E-03     65.3287E-03    -30.8477E-03    -4.88568E-03
              94     6.96265E-03     115.397E-03     21.1002E+06     583.287E+03     48.4538E+06    -1.43857E+06    -33.1873E-03     63.7025E-03    -30.5152E-03    -4.16526E-03    -33.1551E-03     63.6022E-03    -30.3043E-03    -4.19587E-03
              95     6.09582E-03     115.357E-03     21.6691E+06    -731.243E+03     43.3210E+06    -1.53963E+06    -32.0993E-03     62.1121E-03    -30.0128E-03    -3.53151E-03    -32.0546E-03     62.0122E-03    -29.8266E-03    -3.56122E-03
              96     5.22759E-03     115.322E-03     22.3214E+06     217.645E+03     39.2359E+06    -1.39721E+06    -31.1071E-03     60.6865E-03    -29.5794E-03    -2.96118E-03    -31.0544E-03     60.5966E-03    -29.4159E-03    -2.98715E-03
              97     4.35800E-03     115.294E-03     23.0855E+06    -239.196E+03     35.9714E+06    -1.58384E+06    -30.2433E-03     59.4654E-03    -29.2220E-03    -2.45978E-03    -30.1813E-03     59.3769E-03    -29.0753E-03    -2.48654E-03
              98     3.48741E-03     115.271E-03     24.1806E+06      -6.859E+03     33.1914E+06    -1.76737E+06    -29.5508E-03     58.4872E-03    -28.9364E-03    -2.02262E-03    -29.4795E-03     58.4024E-03    -28.8055E-03    -2.05035E-03
              99     2.61615E-03     115.253E-03     25.4222E+06    -675.324E+03     30.2977E+06    -1.56329E+06    -29.0231E-03     57.7462E-03    -28.7231E-03    -1.61651E-03    -28.9404E-03     57.6605E-03    -28.6075E-03    -1.64031E-03
             100     1.74417E-03     115.241E-03     26.4442E+06    -304.366E+03     28.4925E+06    -1.19250E+06    -28.6571E-03     57.2509E-03    -28.5938E-03    -1.25251E-03    -28.5672E-03     57.1683E-03    -28.4892E-03    -1.27031E-03
             101     871.933E-06     115.233E-03     27.2719E+06    -659.272E+03     26.8899E+06    -1.05537E+06    -28.3396E-03     57.0699E-03    -28.7302E-03    -996.209E-06    -28.2429E-03     56.9865E-03    -28.6344E-03    -1.01118E-03
             102     425.525E-09     114.226E-03     24.0522E+06    -2.31016E+06     23.6774E+06    -906.581E+03    -25.7151E-03     51.6313E-03    -25.9162E-03     36.2984E-06    -25.6270E-03     51.5494E-03    -25.8293E-03     23.6211E-06
             103    -117.549E-09     113.233E-03     14.4914E+06    -5.99064E+06     15.3174E+06    -1.16175E+06    -21.3391E-03     42.5153E-03    -21.1762E-03     1.12027E-03    -21.2807E-03     42.4416E-03    -21.1120E-03     1.10422E-03
             104     110.403E-09     112.248E-03     915.383E+03    -11.5375E+06     1.29948E+06    -2.16727E+06    -18.1661E-03     36.3508E-03    -18.1848E-03     1.61080E-03    -18.1469E-03     36.2897E-03    -18.1629E-03     1.58194E-03
             105    -130.500E-09     111.266E-03    -17.0388E+06    -18.9804E+06    -16.8288E+06    -2.38974E+06    -16.1765E-03     32.3627E-03    -16.1862E-03     2.21619E-03    -16.2099E-03     32.3169E-03    -16.2181E-03     2.18474E-03
             106     134.576E-09     110.289E-03    -38.7083E+06    -27.3928E+06    -38.3525E+06    -2.64338E+06    -15.0724E-03     30.1639E-03    -15.0914E-03     2.65750E-03    -15.1706E-03     30.1387E-03    -15.1873E-03     2.62299E-03
             107    -171.238E-09     109.311E-03    -60.6317E+06    -36.4356E+06    -60.5749E+06    -2.73023E+06    -14.6752E-03     29.3743E-03    -14.6991E-03     2.98245E-03    -14.8377E-03     29.3679E-03    -14.8613E-03     2.94698E-03
             108     162.163E-09     108.336E-03    -83.6888E+06    -44.9852E+06    -83.7248E+06    -2.54647E+06    -14.7571E-03     29.5409E-03    -14.7838E-03     3.18709E-03    -14.9889E-03     29.5588E-03    -15.0158E-03     3.15410E-03
             109    -205.292E-09     107.358E-03    -99.8179E+06    -49.4523E+06    -101.061E+06    -178.424E+03    -15.1698E-03     30.3697E-03    -15.1999E-03     3.34049E-03    -15.4506E-03     30.4137E-03    -15.4888E-03     3.33814E-03
             110     175.786E-09     106.381E-03    -83.8276E+06    -42.1189E+06    -85.2448E+06     4.49811E+06    -15.9521E-03     31.9202E-03    -15.9681E-03     3.45835E-03    -16.1865E-03     31.9548E-03    -16.2117E-03     3.51641E-03
             111    -196.269E-09     105.400E-03    -48.5836E+06    -23.3926E+06    -48.3382E+06     6.74242E+06    -17.0650E-03     34.1456E-03    -17.0806E-03     3.57758E-03    -17.2039E-03     34.1691E-03    -17.2179E-03     3.66464E-03
             112     186.346E-09     104.418E-03    -25.9409E+06    -5.95574E+06    -24.1663E+06     3.53738E+06    -18.3817E-03     36.7677E-03    -18.3859E-03     3.67852E-03    -18.4678E-03     36.8105E-03    -18.4605E-03     3.72417E-03
             113    -169.246E-09     103.432E-03    -12.8995E+06    -876.176E+03    -12.2821E+06    -465.935E+03    -19.7452E-03     39.4844E-03    -19.7391E-03     3.73046E-03    -19.7907E-03     39.5164E-03    -19.7806E-03     3.72431E-03
             114     164.342E-09     102.445E-03    -6.22271E+06    -4.11012E+06    -6.17027E+06    -1.62146E+06    -21.0228E-03     42.0466E-03    -21.0238E-03     3.74966E-03    -21.0391E-03     42.0440E-03    -21.0396E-03     3.72843E-03
             115    -166.262E-09     101.454E-03    -3.23901E+06    -10.3932E+06    -3.11906E+06    -2.15411E+06    -22.1595E-03     44.3240E-03    -22.1645E-03     3.71035E-03    -22.1562E-03     44.2813E-03    -22.1603E-03     3.68205E-03
             116     155.096E-09     100.462E-03    -2.75915E+06    -18.0834E+06    -2.83139E+06    -2.45100E+06    -23.1373E-03     46.2663E-03    -23.1291E-03     3.65690E-03    -23.1208E-03     46.1840E-03    -23.1130E-03     3.62455E-03
             117    -136.049E-09     99.4682E-03    -4.12737E+06    -26.0805E+06    -4.12741E+06    -2.40634E+06    -23.9408E-03     47.8711E-03    -23.9303E-03     3.60119E-03    -23.9176E-03     47.7527E-03    -23.9071E-03     3.56919E-03
             118     129.770E-09     98.4731E-03    -6.30784E+06    -34.1561E+06    -6.24250E+06    -2.48063E+06    -24.5832E-03     49.1568E-03    -24.5736E-03     3.55702E-03    -24.5562E-03     49.0042E-03    -24.5461E-03     3.52389E-03
             119    -111.405E-09     97.4763E-03    -8.86970E+06    -42.2907E+06    -9.12108E+06    -2.37355E+06    -25.0801E-03     50.1506E-03    -25.0705E-03     3.50839E-03    -25.0499E-03     49.9653E-03    -25.0420E-03     3.47650E-03
             120     101.512E-09     96.4793E-03    -12.1909E+06    -49.9319E+06    -12.1059E+06    -2.13804E+06    -25.4669E-03     50.9184E-03    -25.4514E-03     3.47370E-03    -25.4380E-03     50.7040E-03    -25.4219E-03     3.44472E-03
             121    -68.8678E-09     95.4811E-03    -15.4594E+06    -57.1071E+06    -15.5844E+06    -2.16399E+06    -25.7538E-03     51.4997E-03    -25.7459E-03     3.46674E-03    -25.7257E-03     51.2592E-03    -25.7186E-03     3.43732E-03
             122     43.3912E-09     94.4829E-03    -18.5680E+06    -63.7699E+06    -18.7048E+06    -1.82825E+06    -25.9478E-03     51.9048E-03    -25.9570E-03     3.45971E-03    -25.9211E-03     51.6401E-03    -25.9312E-03     3.43457E-03
             123    -41.0981E-09     93.4840E-03    -21.7405E+06    -69.9217E+06    -21.7080E+06    -1.78030E+06    -26.1026E-03     52.1921E-03    -26.0895E-03     3.42779E-03    -26.0785E-03     51.9056E-03    -26.0651E-03     3.40320E-03
             124     57.0172E-09     92.4854E-03    -24.3023E+06    -75.3750E+06    -24.4647E+06    -1.50901E+06    -26.2139E-03     52.4124E-03    -26.1985E-03     3.39827E-03    -26.1907E-03     52.1063E-03    -26.1763E-03     3.37712E-03
             125    -52.9507E-09     91.4860E-03    -26.6758E+06    -80.1795E+06    -26.5747E+06    -1.46253E+06    -26.2818E-03     52.5700E-03    -26.2881E-03     3.39792E-03    -26.2605E-03     52.2463E-03    -26.2660E-03     3.37735E-03
             126     33.8552E-09     90.4871E-03    -28.3684E+06    -84.8261E+06    -28.6313E+06    -1.20939E+06    -26.3366E-03     52.6729E-03    -26.3363E-03     3.42903E-03    -26.3139E-03     52.3315E-03    -26.3153E-03     3.41173E-03
             127    -22.5864E-09     89.4874E-03    -30.0055E+06    -88.7548E+06    -29.7320E+06    -1.16063E+06    -26.3810E-03     52.7466E-03    -26.3656E-03     3.42286E-03    -26.3593E-03     52.3896E-03    -26.3420E-03     3.40616E-03
             128     36.2121E-09     88.4886E-03    -30.5831E+06    -92.5996E+06    -30.8597E+06    -1.10226E+06    -26.3985E-03     52.7886E-03    -26.3902E-03     3.39961E-03    -26.3724E-03     52.4148E-03    -26.3659E-03     3.38365E-03
             129    -43.6343E-09     87.4888E-03    -31.8231E+06    -95.6951E+06    -31.7206E+06    -859.882E+03    -26.4161E-03     52.8253E-03    -26.4092E-03     3.38920E-03    -26.3905E-03     52.4390E-03    -26.3829E-03     3.37636E-03
             130     59.0773E-09     86.4900E-03    -32.5208E+06    -98.5707E+06    -32.6254E+06    -927.192E+03    -26.4257E-03     52.8592E-03    -26.4335E-03     3.37959E-03    -26.3981E-03     52.4609E-03    -26.4065E-03     3.36588E-03
             131    -94.4577E-09     85.4901E-03    -32.5907E+06    -100.845E+06    -32.7330E+06    -450.657E+03    -26.4421E-03     52.8909E-03    -26.4488E-03     3.42306E-03    -26.4114E-03     52.4815E-03    -26.4190E-03     3.41554E-03
             132     111.076E-09     84.4912E-03    -32.7150E+06    -102.341E+06    -32.6888E+06    -403.783E+03    -26.4469E-03     52.8903E-03    -26.4434E-03     3.42269E-03    -26.4147E-03     52.4735E-03    -26.4110E-03     3.41574E-03
             133    -126.556E-09     83.4914E-03    -32.5171E+06    -103.509E+06    -32.5415E+06    -255.285E+03    -26.4535E-03     52.8908E-03    -26.4373E-03     3.42135E-03    -26.4188E-03     52.4676E-03    -26.4028E-03     3.41635E-03
             134     164.762E-09     82.4924E-03    -32.2004E+06    -104.454E+06    -32.1183E+06    -391.394E+03    -26.4556E-03     52.8937E-03    -26.4381E-03     3.40680E-03    -26.4186E-03     52.4648E-03    -26.4006E-03     3.40003E-03
             135    -176.762E-09     81.4928E-03    -31.9916E+06    -105.568E+06    -32.1206E+06    -214.413E+03    -26.4456E-03     52.8914E-03    -26.4458E-03     3.39915E-03    -26.4060E-03     52.4566E-03    -26.4070E-03     3.39468E-03
             136     181.700E-09     80.4936E-03    -31.7396E+06    -106.045E+06    -31.7193E+06    -170.731E+03    -26.4501E-03     52.9048E-03    -26.4548E-03     3.43036E-03    -26.4090E-03     52.4667E-03    -26.4136E-03     3.42645E-03
             137    -200.036E-09     79.4941E-03    -31.9413E+06    -106.618E+06    -32.0333E+06    -86.6461E+03    -26.4507E-03     52.8941E-03    -26.4434E-03     3.39427E-03    -26.4094E-03     52.4539E-03    -26.4026E-03     3.39142E-03
             138     224.991E-09     78.4951E-03    -32.1921E+06    -106.875E+06    -31.9937E+06    -213.346E+03    -26.4802E-03     52.9378E-03    -26.4576E-03     3.39685E-03    -26.4398E-03     52.4966E-03    -26.4160E-03     3.39236E-03
             139    -213.484E-09     77.4953E-03    -31.8412E+06    -106.868E+06    -32.1261E+06    -10.2743E+03    -26.4927E-03     52.9861E-03    -26.4934E-03     3.40448E-03    -26.4504E-03     52.5446E-03    -26.4529E-03     3.40264E-03
             140     192.310E-09     76.4961E-03    -31.9091E+06    -106.618E+06    -31.7634E+06     246.362E+03    -26.4950E-03     52.9956E-03    -26.5006E-03     3.43279E-03    -26.4539E-03     52.5549E-03    -26.4586E-03     3.43432E-03
             141    -184.693E-09     75.4964E-03    -31.4914E+06    -106.180E+06    -31.6080E+06     33.8189E+03    -26.5043E-03     52.9999E-03    -26.4957E-03     3.41285E-03    -26.4619E-03     52.5606E-03    -26.4541E-03     3.41159E-03
             142     185.472E-09     74.4973E-03    -31.4794E+06    -105.881E+06    -31.2669E+06     152.737E+03    -26.5190E-03     53.0085E-03    -26.4895E-03     3.40377E-03    -26.4776E-03     52.5702E-03    -26.4467E-03     3.40403E-03
             143    -137.351E-09     73.4975E-03    -30.5640E+06    -104.985E+06    -30.8436E+06     221.458E+03    -26.5144E-03     53.0154E-03    -26.5010E-03     3.40246E-03    -26.4703E-03     52.5796E-03    -26.4587E-03     3.40360E-03
             144     104.251E-09     72.4984E-03    -29.8317E+06    -103.797E+06    -29.5973E+06     380.458E+03    -26.5120E-03     53.0287E-03    -26.5167E-03     3.38476E-03    -26.4678E-03     52.5959E-03    -26.4709E-03     3.38795E-03
             145    -81.9776E-09     71.4985E-03    -29.7510E+06    -103.585E+06    -29.6194E+06    -296.868E+03    -26.5226E-03     53.0397E-03    -26.5172E-03     3.43582E-03    -26.4782E-03     52.6080E-03    -26.4719E-03     3.43030E-03
             146     65.3380E-09     70.4993E-03    -30.4332E+06    -104.435E+06    -30.5773E+06    -158.958E+03    -26.5311E-03     53.0515E-03    -26.5204E-03     3.42495E-03    -26.4876E-03     52.6179E-03    -26.4777E-03     3.42119E-03
             147    -36.8343E-09     69.4996E-03    -30.2221E+06    -104.606E+06    -30.2267E+06         398.480    -26.5452E-03     53.0874E-03    -26.5422E-03     3.41657E-03    -26.5008E-03     52.6521E-03    -26.4978E-03     3.41487E-03
             148     8.13397E-09     68.5002E-03    -29.6670E+06    -103.732E+06    -29.8869E+06     401.596E+03    -26.5526E-03     53.1084E-03    -26.5558E-03     3.40445E-03    -26.5073E-03     52.6762E-03    -26.5118E-03     3.40795E-03
             149     7.23976E-09     67.5005E-03    -29.6455E+06    -102.843E+06    -29.3331E+06     181.031E+03    -26.5605E-03     53.1288E-03    -26.5683E-03     3.41071E-03    -26.5171E-03     52.7001E-03    -26.5228E-03     3.41135E-03
             150    -38.0171E-09     66.5010E-03    -28.9137E+06    -102.364E+06    -29.1653E+06    -39.0473E+03    -26.5708E-03     53.1530E-03    -26.5822E-03     3.39686E-03    -26.5247E-03     52.7255E-03    -26.5377E-03     3.39464E-03
             151     40.7061E-09     65.5013E-03    -28.9461E+06    -102.136E+06    -28.7655E+06     24.7560E+03    -26.5888E-03     53.1721E-03    -26.5833E-03     3.39929E-03    -26.5438E-03     52.7452E-03    -26.5370E-03     3.39789E-03
             152    -36.9012E-09     64.5017E-03    -28.6597E+06    -101.766E+06    -28.9289E+06     17.2755E+03    -26.5841E-03     53.1776E-03    -26.5935E-03     3.39887E-03    -26.5379E-03     52.7523E-03    -26.5490E-03     3.39737E-03
             153     8.19340E-09     63.5021E-03    -28.7661E+06    -101.606E+06    -28.4718E+06     44.2718E+03    -26.5932E-03     53.1845E-03    -26.5913E-03     3.40637E-03    -26.5484E-03     52.7596E-03    -26.5447E-03     3.40524E-03
             154     21.7878E-09     62.5023E-03    -28.5400E+06    -101.723E+06    -28.7038E+06    -182.147E+03    -26.5779E-03     53.1545E-03    -26.5765E-03     3.43349E-03    -26.5316E-03     52.7289E-03    -26.5312E-03     3.42944E-03
             155    -56.4926E-09     61.5028E-03    -29.1629E+06    -102.020E+06    -29.1768E+06     100.565E+03    -26.5489E-03     53.1115E-03    -26.5627E-03     3.38820E-03    -26.5045E-03     52.6861E-03    -26.5183E-03     3.38780E-03
             156     61.6676E-09     60.5033E-03    -28.8696E+06    -101.657E+06    -28.8389E+06    -13.7496E+03    -26.5563E-03     53.1094E-03    -26.5531E-03     3.38265E-03    -26.5115E-03     52.6849E-03    -26.5080E-03     3.38076E-03
             157    -66.0904E-09     59.5036E-03    -28.8380E+06    -101.179E+06    -28.9974E+06     222.270E+03    -26.5463E-03     53.0947E-03    -26.5484E-03     3.40105E-03    -26.5017E-03     52.6727E-03    -26.5049E-03     3.40222E-03
             158     59.6798E-09     58.5041E-03    -28.5934E+06    -100.443E+06    -28.4022E+06     130.698E+03    -26.5366E-03     53.0688E-03    -26.5323E-03     3.39058E-03    -26.4928E-03     52.6493E-03    -26.4872E-03     3.39058E-03
             159     50.9502E-09     56.5052E-03    -28.9114E+06    -100.444E+06    -28.8022E+06    -29.0009E+03    -26.5424E-03     53.0667E-03    -26.5243E-03     3.39879E-03    -26.4995E-03     52.6482E-03    -26.4808E-03     3.39671E-03
             160    -25.6008E-09     55.5054E-03    -28.7509E+06    -100.182E+06    -28.9014E+06     102.994E+03    -26.5293E-03     53.0515E-03    -26.5223E-03     3.41646E-03    -26.4859E-03     52.6343E-03    -26.4798E-03     3.41610E-03
             161     5.44613E-09     54.5061E-03    -28.8703E+06    -99.9178E+06    -28.7363E+06     125.861E+03    -26.5111E-03     53.0292E-03    -26.5180E-03     3.41449E-03    -26.4690E-03     52.6132E-03    -26.4750E-03     3.41443E-03
             162    -1.24284E-09     53.5064E-03    -28.4110E+06    -99.5981E+06    -28.4956E+06     33.0613E+03    -26.5208E-03     53.0347E-03    -26.5139E-03     3.43465E-03    -26.4771E-03     52.6193E-03    -26.4708E-03     3.43341E-03
             163     2.74039E-09     52.5071E-03    -28.4457E+06    -99.5306E+06    -28.3811E+06     39.1858E+03    -26.5215E-03     53.0375E-03    -26.5161E-03     3.42371E-03    -26.4782E-03     52.6223E-03    -26.4724E-03     3.42252E-03
             164     606.033E-12     51.5074E-03    -28.5216E+06    -99.5087E+06    -28.5271E+06    -131.589E+03    -26.5099E-03     53.0222E-03    -26.5123E-03     3.40695E-03    -26.4669E-03     52.6074E-03    -26.4693E-03     3.40354E-03
             165    -13.4004E-09     50.5080E-03    -28.6178E+06    -99.5567E+06    -28.7124E+06     90.1316E+03    -26.4995E-03     52.9948E-03    -26.4952E-03     3.41402E-03    -26.4567E-03     52.5802E-03    -26.4529E-03     3.41349E-03
             166     27.3861E-09     49.5085E-03    -28.5953E+06    -99.2503E+06    -28.4391E+06     59.2574E+03    -26.4956E-03     52.9818E-03    -26.4862E-03     3.41147E-03    -26.4535E-03     52.5683E-03    -26.4430E-03     3.41054E-03
             167    -28.4124E-09     48.5091E-03    -28.3054E+06    -99.0320E+06    -28.4307E+06     73.7074E+03    -26.4838E-03     52.9607E-03    -26.4770E-03     3.38906E-03    -26.4405E-03     52.5479E-03    -26.4345E-03     3.38830E-03
             168     34.7024E-09     47.5097E-03    -28.4302E+06    -98.7086E+06    -28.2615E+06    -18.1771E+03    -26.4625E-03     52.9251E-03    -26.4625E-03     3.37738E-03    -26.4206E-03     52.5138E-03    -26.4195E-03     3.37542E-03
             169    -44.3224E-09     46.5103E-03    -28.4332E+06    -98.6490E+06    -28.5709E+06    -14.8511E+03    -26.4366E-03     52.8762E-03    -26.4395E-03     3.39121E-03    -26.3944E-03     52.4656E-03    -26.3981E-03     3.38932E-03
             170     42.0538E-09     45.5109E-03    -28.5389E+06    -98.4435E+06    -28.3966E+06     80.1881E+03    -26.4186E-03     52.8325E-03    -26.4138E-03     3.39984E-03    -26.3775E-03     52.4229E-03    -26.3717E-03     3.39919E-03
             171    -34.9937E-09     44.5118E-03    -28.5278E+06    -98.4859E+06    -28.5539E+06    -162.090E+03    -26.3806E-03     52.7713E-03    -26.3907E-03     3.38139E-03    -26.3391E-03     52.3617E-03    -26.3493E-03     3.37760E-03
             172     4.77653E-09     43.5124E-03    -28.7279E+06    -98.8095E+06    -28.7801E+06    -40.6603E+03    -26.3491E-03     52.7025E-03    -26.3534E-03     3.38822E-03    -26.3078E-03     52.2919E-03    -26.3124E-03     3.38603E-03
             173     12.0037E-09     42.5134E-03    -28.2398E+06    -98.6909E+06    -28.2206E+06     59.7051E+03    -26.3215E-03     52.6343E-03    -26.3128E-03     3.38436E-03    -26.2787E-03     52.2228E-03    -26.2699E-03     3.38347E-03
             174    -18.6573E-09     41.5142E-03    -28.3183E+06    -98.2819E+06    -28.2676E+06     124.219E+03    -26.2717E-03     52.5340E-03    -26.2623E-03     3.36610E-03    -26.2299E-03     52.1247E-03    -26.2200E-03     3.36604E-03
             175     37.2847E-09     40.5154E-03    -28.4141E+06    -97.9205E+06    -28.3824E+06     39.9718E+03    -26.2157E-03     52.4211E-03    -26.2054E-03     3.34565E-03    -26.1747E-03     52.0139E-03    -26.1641E-03     3.34450E-03
             176    -42.5594E-09     39.5164E-03    -28.2575E+06    -97.7726E+06    -28.3144E+06     52.9877E+03    -26.1451E-03     52.2934E-03    -26.1483E-03     3.33915E-03    -26.1036E-03     51.8867E-03    -26.1071E-03     3.33818E-03
             177     36.4644E-09     38.5178E-03    -28.3987E+06    -97.6987E+06    -28.2817E+06    -15.4976E+03    -26.0706E-03     52.1387E-03    -26.0681E-03     3.33402E-03    -26.0300E-03     51.7324E-03    -26.0266E-03     3.33220E-03
             178    -29.5913E-09     37.5192E-03    -28.4093E+06    -97.5882E+06    -28.5523E+06     87.4603E+03    -25.9761E-03     51.9467E-03    -25.9706E-03     3.30724E-03    -25.9353E-03     51.5414E-03    -25.9307E-03     3.30676E-03
             179     25.6939E-09     36.5210E-03    -28.5324E+06    -97.0700E+06    -28.4303E+06     132.553E+03    -25.8671E-03     51.7347E-03    -25.8676E-03     3.25877E-03    -25.8279E-03     51.3320E-03    -25.8276E-03     3.25887E-03
             180    -26.2521E-09     35.5228E-03    -28.2610E+06    -96.7159E+06    -28.2966E+06     55.7890E+03    -25.7502E-03     51.4970E-03    -25.7469E-03     3.22654E-03    -25.7102E-03     51.0955E-03    -25.7071E-03     3.22567E-03
             181     27.4415E-09     34.5250E-03    -28.2977E+06    -96.3354E+06    -28.3125E+06     48.9104E+03    -25.6032E-03     51.2096E-03    -25.6065E-03     3.19450E-03    -25.5639E-03     50.8101E-03    -25.5673E-03     3.19356E-03
             182    -39.2160E-09     33.5275E-03    -28.4664E+06    -96.2069E+06    -28.4725E+06     17.3781E+03    -25.4469E-03     50.8954E-03    -25.4485E-03     3.16612E-03    -25.4085E-03     50.4970E-03    -25.4101E-03     3.16482E-03
             183     43.4717E-09     32.5302E-03    -28.4548E+06    -95.9076E+06    -28.5237E+06     79.2356E+03    -25.2726E-03     50.5429E-03    -25.2703E-03     3.13961E-03    -25.2345E-03     50.1460E-03    -25.2326E-03     3.13913E-03
             184    -49.0351E-09     31.5335E-03    -28.5582E+06    -95.6970E+06    -28.4970E+06     84.1922E+03    -25.0675E-03     50.1310E-03    -25.0636E-03     3.09695E-03    -25.0302E-03     49.7353E-03    -25.0259E-03     3.09658E-03
             185     57.8070E-09     30.5370E-03    -28.0793E+06    -95.2482E+06    -28.1500E+06     98.4044E+03    -24.8450E-03     49.6773E-03    -24.8324E-03     3.03620E-03    -24.8065E-03     49.2827E-03    -24.7943E-03     3.03603E-03
             186    -49.4700E-09     29.5412E-03    -28.0454E+06    -94.6930E+06    -28.0116E+06     172.721E+03    -24.5933E-03     49.1770E-03    -24.5837E-03     2.96871E-03    -24.5556E-03     48.7849E-03    -24.5458E-03     2.96954E-03
             187     54.3362E-09     28.5457E-03    -27.8215E+06    -94.1231E+06    -27.8311E+06     147.619E+03    -24.3172E-03     48.6230E-03    -24.3058E-03     2.92243E-03    -24.2795E-03     48.2332E-03    -24.2682E-03     2.92299E-03
             188    -43.1295E-09     27.5510E-03    -27.7968E+06    -93.6895E+06    -27.8237E+06     177.673E+03    -24.0136E-03     48.0119E-03    -23.9983E-03     2.84260E-03    -23.9764E-03     47.6241E-03    -23.9612E-03     2.84358E-03
             189     54.8542E-09     26.5567E-03    -27.7558E+06    -92.9717E+06    -27.6774E+06     205.510E+03    -23.6998E-03     47.3747E-03    -23.6748E-03     2.76869E-03    -23.6637E-03     46.9902E-03    -23.6382E-03     2.77007E-03
             190    -25.2192E-09     25.5632E-03    -27.4586E+06    -92.0555E+06    -27.5380E+06     185.640E+03    -23.3476E-03     46.6823E-03    -23.3347E-03     2.69314E-03    -23.3115E-03     46.3018E-03    -23.2991E-03     2.69432E-03
             191     14.0849E-09     24.5704E-03    -27.2610E+06    -91.3347E+06    -27.1808E+06     185.185E+03    -22.9786E-03     45.9507E-03    -22.9721E-03     2.58035E-03    -22.9431E-03     45.5730E-03    -22.9360E-03     2.58158E-03
             192     6.42151E-09     23.5784E-03    -26.7247E+06    -90.3611E+06    -26.8908E+06     269.345E+03    -22.6055E-03     45.1980E-03    -22.5925E-03     2.48888E-03    -22.5692E-03     44.8240E-03    -22.5572E-03     2.49126E-03
             193    -8.58628E-09     22.5869E-03    -26.3719E+06    -89.2742E+06    -26.2781E+06     364.418E+03    -22.2019E-03     44.3907E-03    -22.1888E-03     2.40394E-03    -22.1662E-03     44.0207E-03    -22.1525E-03     2.40761E-03
             194     32.2341E-09     21.5967E-03    -25.7152E+06    -88.2502E+06    -25.8340E+06     303.749E+03    -21.7813E-03     43.5385E-03    -21.7572E-03     2.30779E-03    -21.7445E-03     43.1720E-03    -21.7211E-03     2.31073E-03
             195    -17.0575E-09     20.6068E-03    -25.0011E+06    -86.6853E+06    -25.0661E+06     584.542E+03    -21.3294E-03     42.6335E-03    -21.3040E-03     2.18187E-03    -21.2924E-03     42.2727E-03    -21.2674E-03     2.18850E-03
             196     43.7807E-09     19.6184E-03    -24.1432E+06    -84.9738E+06    -24.0097E+06     415.129E+03    -20.8534E-03     41.6635E-03    -20.8101E-03     2.02628E-03    -20.8161E-03     41.3085E-03    -20.7719E-03     2.03079E-03
             197     5.55103E-09     18.6304E-03    -22.9334E+06    -83.1306E+06    -23.1835E+06     604.504E+03    -20.3261E-03     40.5984E-03    -20.2723E-03     1.86820E-03    -20.2866E-03     40.2496E-03    -20.2344E-03     1.87521E-03
             198     35.7295E-09     17.6441E-03    -21.9449E+06    -80.8462E+06    -21.7935E+06     690.975E+03    -19.7073E-03     39.3896E-03    -19.6823E-03     1.68664E-03    -19.6682E-03     39.0488E-03    -19.6422E-03     1.69485E-03
             199    -32.3527E-09     16.6585E-03    -20.2061E+06    -78.4179E+06    -20.3870E+06     686.723E+03    -19.0301E-03     38.0138E-03    -18.9837E-03     1.47605E-03    -18.9879E-03     37.6806E-03    -18.9426E-03     1.48430E-03
             200     108.179E-09     15.6749E-03    -18.5177E+06    -75.8701E+06    -18.5003E+06     889.832E+03    -18.3006E-03     36.4877E-03    -18.1871E-03     1.28475E-03    -18.2564E-03     36.1621E-03    -18.1427E-03     1.29569E-03
             201     16.4650E-09     14.6923E-03    -16.2057E+06    -72.7483E+06    -16.3533E+06     975.249E+03    -17.4499E-03     34.8111E-03    -17.3612E-03     1.05078E-03    -17.4018E-03     34.4946E-03    -17.3140E-03     1.06288E-03
             202     13.8130E-09     13.7121E-03    -13.6026E+06    -69.4554E+06    -13.4970E+06     942.165E+03    -16.4862E-03     32.9441E-03    -16.4579E-03     766.723E-06    -16.4340E-03     32.6361E-03    -16.4049E-03     778.484E-06
             203     7.41287E-09     12.7330E-03    -11.1277E+06    -67.0733E+06    -10.9967E+06     379.732E+03    -15.4284E-03     30.7979E-03    -15.3696E-03     494.504E-06    -15.3709E-03     30.4946E-03    -15.3111E-03     499.069E-06
             204     77.6358E-09     11.7571E-03    -12.5600E+06    -66.3799E+06    -12.4922E+06    -31.0222E+03    -14.2592E-03     28.4414E-03    -14.1822E-03     343.369E-06    -14.2077E-03     28.1458E-03    -14.1302E-03     342.629E-06
             205    -24.5708E-09     10.7825E-03    -17.4399E+06    -66.7311E+06    -17.2865E+06    -313.122E+03    -13.1780E-03     26.3034E-03    -13.1254E-03     314.883E-06    -13.1434E-03     26.0201E-03    -13.0898E-03     310.464E-06
             206     66.9996E-09     9.81085E-03    -21.6513E+06    -67.9444E+06    -21.5985E+06    -373.731E+03    -12.5112E-03     25.0354E-03    -12.5242E-03     527.928E-06    -12.4896E-03     24.7584E-03    -12.5023E-03     522.732E-06
             207    -132.042E-09     8.83859E-03    -23.0112E+06    -69.2312E+06    -22.8126E+06    -420.687E+03    -12.5778E-03     25.1876E-03    -12.6098E-03     845.799E-06    -12.5594E-03     24.9079E-03    -12.5901E-03     840.028E-06
             208     142.292E-09     7.86667E-03    -21.2241E+06    -70.7824E+06    -21.2304E+06    -419.447E+03    -13.3478E-03     26.7248E-03    -13.3770E-03     1.14872E-03    -13.3206E-03     26.4324E-03    -13.3497E-03     1.14302E-03
             209    -204.474E-09     6.89124E-03    -18.2480E+06    -72.2543E+06    -18.2739E+06    -467.786E+03    -14.5544E-03     29.2017E-03    -14.6473E-03     1.32417E-03    -14.5145E-03     28.8934E-03    -14.6075E-03     1.31788E-03
             210     101.659E-09     5.91463E-03    -17.3482E+06    -74.0757E+06    -17.3212E+06    -573.838E+03    -16.0476E-03     32.1396E-03    -16.0920E-03     1.34219E-03    -16.0019E-03     31.8194E-03    -16.0461E-03     1.33454E-03
             211    -77.2825E-09     4.93331E-03    -17.7057E+06    -75.6081E+06    -17.7251E+06    -317.469E+03    -17.5150E-03     35.0377E-03    -17.5226E-03     1.32672E-03    -17.4683E-03     34.7110E-03    -17.4760E-03     1.32243E-03
             212     39.2874E-09     3.95104E-03    -16.7858E+06    -76.4194E+06    -16.7865E+06    -217.372E+03    -18.8093E-03     37.6289E-03    -18.8196E-03     1.15325E-03    -18.7581E-03     37.2954E-03    -18.7684E-03     1.15025E-03
             213    -19.5696E-09     2.96485E-03    -15.5872E+06    -76.6553E+06    -15.7539E+06     83.1250E+03    -19.9131E-03     39.7947E-03    -19.8816E-03     964.423E-06    -19.8571E-03     39.4569E-03    -19.8266E-03     965.362E-06
             214     53.5793E-09     1.97808E-03    -13.7245E+06    -75.6666E+06    -13.7938E+06     332.845E+03    -20.7047E-03     41.3950E-03    -20.6903E-03     664.228E-06    -20.6436E-03     41.0566E-03    -20.6297E-03     668.432E-06
             215    -63.1607E-09     989.159E-06    -12.4802E+06    -75.2981E+06    -12.2852E+06     139.930E+03    -21.2071E-03     42.3980E-03    -21.1909E-03     354.732E-06    -21.1425E-03     42.0575E-03    -21.1251E-03     356.515E-06
             216     880.925E-06    -180.411E-18    -11.9233E+06    -75.8101E+06    -11.9601E+06     144.011E+03    -21.4645E-03     42.8569E-03    -21.3924E-03     302.787E-06    -21.3968E-03     42.5125E-03    -21.3250E-03     304.637E-06
             217     1.76176E-03    -180.411E-18    -12.2757E+06    -76.9454E+06    -12.4646E+06     189.771E+03    -21.6784E-03     43.1561E-03    -21.4778E-03     556.118E-06    -21.6101E-03     42.8073E-03    -21.4107E-03     558.497E-06
             218     2.64231E-03    -180.411E-18    -12.7744E+06    -78.2050E+06    -13.4215E+06     169.314E+03    -22.0479E-03     43.6474E-03    -21.5994E-03     854.015E-06    -21.9790E-03     43.2943E-03    -21.5346E-03     856.100E-06
             219     3.52240E-03    -180.411E-18    -13.0292E+06    -79.4231E+06    -14.4659E+06    -165.999E+03    -22.5419E-03     44.3080E-03    -21.7661E-03     1.11697E-03    -22.4709E-03     43.9507E-03    -21.7044E-03     1.11464E-03
             220     4.40221E-03    -180.411E-18    -12.8961E+06    -80.0595E+06    -16.1287E+06    -501.860E+03    -23.1721E-03     45.1442E-03    -21.9721E-03     1.50267E-03    -23.0971E-03     44.7860E-03    -21.9180E-03     1.49596E-03
             221     5.28090E-03    -180.411E-18    -12.5879E+06    -81.6644E+06    -19.1672E+06    -891.748E+03    -23.9430E-03     46.1599E-03    -22.2168E-03     1.89439E-03    -23.8598E-03     45.7976E-03    -22.1760E-03     1.88253E-03
             222     6.15959E-03    -180.411E-18    -11.7710E+06    -83.3379E+06    -23.9866E+06    -1.54995E+06    -24.8537E-03     47.3503E-03    -22.4967E-03     2.37779E-03    -24.7569E-03     46.9855E-03    -22.4787E-03     2.35734E-03
             223     7.03638E-03    -180.411E-18    -10.1910E+06    -83.1993E+06    -30.2481E+06    -2.55561E+06    -25.8789E-03     48.6878E-03    -22.8089E-03     2.84525E-03    -25.7653E-03     48.3305E-03    -22.8248E-03     2.81155E-03
             224     7.91359E-03    -180.411E-18    -7.68016E+06    -82.2597E+06    -36.8663E+06    -3.53476E+06    -27.0717E-03     50.2325E-03    -23.1608E-03     3.44103E-03    -26.9374E-03     49.8859E-03    -23.2147E-03     3.39438E-03
             225     8.78798E-03    -180.411E-18    -3.82702E+06    -77.7384E+06     -43.821E+06    -4.84082E+06    -28.4561E-03     52.0081E-03    -23.5521E-03     4.34698E-03    -28.2990E-03     51.6886E-03    -23.6529E-03     4.28315E-03
             226     9.66249E-03    -180.411E-18     527.330E+03    -66.2166E+06    -49.2321E+06    -4.88831E+06    -29.9084E-03     53.8960E-03    -23.9876E-03     5.03283E-03    -29.7384E-03     53.6357E-03    -24.1386E-03     4.96760E-03
             227     10.5349E-03    -180.411E-18     5.13322E+06    -52.1108E+06    -50.2727E+06    -5.65503E+06    -31.6890E-03     56.1822E-03    -24.4932E-03     6.91974E-03    -31.5150E-03     55.9873E-03    -24.6765E-03     6.84353E-03
             228     11.4042E-03    -180.411E-18     9.71433E+06    -33.6615E+06    -47.2018E+06    -5.71640E+06    -33.6540E-03     58.7280E-03    -25.0740E-03     7.46426E-03    -33.4884E-03     58.6144E-03    -25.2752E-03     7.38537E-03
             229     12.2769E-03    -180.411E-18     12.8706E+06    -6.82166E+06    -42.0126E+06    -1.94902E+06    -36.3973E-03     62.1347E-03    -25.7374E-03     10.9695E-03    -36.2626E-03     62.1431E-03    -25.9562E-03     10.9381E-03
             230     13.1344E-03    -180.411E-18     14.0840E+06     30.3869E+06    -31.3589E+06    -2.22391E+06    -39.4793E-03     66.0008E-03    -26.5214E-03     14.1203E-03    -39.4082E-03     66.1786E-03    -26.7427E-03     14.0805E-03
             231     14.0064E-03    -180.411E-18     11.2422E+06     68.0651E+06    -10.7088E+06     2.08068E+06    -43.9393E-03     71.4389E-03    -27.4996E-03     18.5288E-03    -43.9680E-03     71.7805E-03    -27.6681E-03     18.5358E-03
             232     14.8537E-03    -180.411E-18     7.60177E+06     90.3739E+06     13.1176E+06     1.08432E+06    -49.7430E-03     78.4572E-03    -28.7142E-03     29.9771E-03    -49.8591E-03     78.8811E-03    -28.7906E-03     29.9671E-03
             233     15.7008E-03    -180.411E-18     6.79133E+06     109.691E+06     50.2750E+06    -6.72454E+06    -54.7724E-03     84.9534E-03    -30.1810E-03     45.2493E-03    -54.9835E-03     85.4311E-03    -30.0985E-03     45.0998E-03
             234     16.5476E-03    -180.411E-18     4.88110E+06     116.100E+06     75.9020E+06     5.75145E+06    -49.3933E-03     80.9014E-03    -31.5081E-03     57.1403E-03    -49.7012E-03     81.4041E-03    -31.3040E-03     57.0787E-03
             235     17.4836E-03     999.236E-06     3.40925E+06     115.353E+06     71.7424E+06     9.28769E+06    -45.8006E-03     75.9721E-03    -30.1715E-03     48.4521E-03    -46.1503E-03     76.5339E-03    -29.9850E-03     48.3439E-03
             236     17.4969E-03     2.05377E-03    -3.95242E+06     122.332E+06     71.9636E+06     3.42716E+06    -63.0947E-03     90.6081E-03    -27.5134E-03     30.4858E-03    -63.5240E-03     91.2625E-03    -27.3252E-03     30.0919E-03
             237     17.5189E-03     3.10941E-03    -5.07455E+06     129.738E+06     81.4751E+06     6.43711E+06    -67.2616E-03     93.7402E-03    -26.4786E-03     22.6778E-03    -67.7463E-03     94.4301E-03    -26.2520E-03     22.2706E-03
             238     17.5288E-03     4.13305E-03     67.2484E+03     135.841E+06     87.0848E+06     2.51817E+06    -59.4910E-03     85.5239E-03    -26.0328E-03     15.2688E-03    -59.9523E-03     86.2143E-03    -25.7944E-03     14.9223E-03
             239     17.5313E-03     5.17042E-03     330.687E+03     138.456E+06     88.8950E+06    -1.03526E+06    -59.7769E-03     85.5613E-03    -25.7844E-03     6.88125E-03    -60.2230E-03     86.2427E-03    -25.5412E-03     6.51458E-03
             240     17.5332E-03     6.20279E-03    -310.424E+03     139.163E+06     88.2841E+06    -901.157E+03    -57.9785E-03     83.7374E-03    -25.7589E-03     8.29862E-03    -58.4340E-03     84.4305E-03    -25.5188E-03     7.95955E-03
             241     17.5315E-03     7.23917E-03    -2.78256E+06     137.388E+06     85.5356E+06     553.796E+03    -55.5228E-03     81.3672E-03    -25.8444E-03     10.8209E-03    -55.9915E-03     82.0664E-03    -25.6119E-03     10.5352E-03
             242     17.5308E-03     8.26501E-03    -2.54028E+06     138.021E+06     84.8039E+06     1.05278E+06    -51.3602E-03     77.3425E-03    -25.9822E-03     10.8365E-03    -51.8261E-03     78.0430E-03    -25.7546E-03     10.6119E-03
             243     17.5312E-03     9.28583E-03    -2.35595E+06     138.835E+06     84.6924E+06     216.191E+03    -47.9142E-03     74.0114E-03    -26.0973E-03     8.86821E-03    -48.3720E-03     74.7080E-03    -25.8717E-03     8.68534E-03
             244     17.5289E-03     10.3068E-03    -1.64309E+06     139.576E+06     84.5615E+06     902.229E+03    -44.8327E-03     71.0061E-03    -26.1734E-03     7.22616E-03    -45.2803E-03     71.6979E-03    -25.9506E-03     7.09696E-03
             245     17.5330E-03     11.3209E-03    -659.257E+03     140.840E+06     85.4280E+06    -806.538E+03    -42.5982E-03     68.8166E-03    -26.2184E-03     7.30409E-03    -43.0435E-03     69.5119E-03    -25.9946E-03     7.18565E-03
             246     17.5280E-03     12.3409E-03    -2.44972E+06     139.573E+06     84.2709E+06     220.542E+03    -41.6733E-03     67.9577E-03    -26.2844E-03     6.12542E-03    -42.1214E-03     68.6483E-03    -26.0619E-03     6.04490E-03
             247     17.5309E-03     13.3521E-03    -3.53506E+06     138.369E+06     82.9191E+06     1.07666E+06    -39.5827E-03     65.9369E-03    -26.3542E-03     4.93421E-03    -40.0280E-03     66.6201E-03    -26.1351E-03     4.89382E-03
             248     17.5287E-03     14.3632E-03    -3.48279E+06     138.340E+06     83.1367E+06     865.678E+03    -38.2394E-03     64.6033E-03    -26.3640E-03     3.17645E-03    -38.6786E-03     65.2802E-03    -26.1438E-03     3.15353E-03
             249     17.5319E-03     15.3762E-03    -1.98829E+06     139.811E+06     84.2092E+06      783.49E+03    -37.1043E-03     63.4615E-03    -26.3572E-03     2.92459E-03    -37.5392E-03     64.1415E-03    -26.1360E-03     2.91751E-03
             250     17.5302E-03     16.3860E-03    -1.04613E+06     141.531E+06     85.6916E+06    -222.893E+03    -35.9708E-03     62.3492E-03    -26.3784E-03     3.35333E-03    -36.4078E-03     63.0365E-03    -26.1536E-03     3.35272E-03
             251     17.5311E-03     17.3975E-03    -1.17840E+06     141.617E+06     85.6039E+06     784.968E+03    -34.6092E-03     61.0156E-03    -26.4064E-03     3.87151E-03    -35.0479E-03     61.7047E-03    -26.1820E-03     3.90327E-03
             252     17.5314E-03     18.4026E-03    -1.91249E+06     140.941E+06     84.8286E+06     91.6700E+03    -33.5174E-03     59.9209E-03    -26.4035E-03     4.06912E-03    -33.9577E-03     60.6088E-03    -26.1810E-03     4.10534E-03
             253     17.5319E-03     19.4118E-03    -3.49830E+06     139.752E+06     83.6238E+06     968.480E+03    -33.3779E-03     59.7625E-03    -26.3846E-03     4.52089E-03    -33.8243E-03     60.4502E-03    -26.1640E-03     4.57651E-03
             254     17.5320E-03     20.4195E-03    -1.44481E+06     141.504E+06     85.1617E+06     236.754E+03    -31.5468E-03     57.9458E-03    -26.3990E-03     4.52064E-03    -31.9895E-03     58.6388E-03    -26.1763E-03     4.58567E-03
             255     17.5337E-03     21.4221E-03    -2.42152E+06     141.526E+06     85.0366E+06    -455.614E+03    -30.7526E-03     57.1581E-03    -26.4055E-03     5.48299E-03    -31.2026E-03     57.8554E-03    -26.1820E-03     5.55360E-03
             256     17.5312E-03     22.4298E-03    -2.65069E+06     141.207E+06     84.1650E+06     1.28638E+06    -30.4435E-03     56.8450E-03    -26.4015E-03     2.99689E-03    -30.8853E-03     57.5347E-03    -26.1816E-03     3.08967E-03
             257     17.5351E-03     23.4270E-03    -4.15629E+06     140.283E+06     82.5787E+06    -2.49077E+06    -31.2714E-03     57.6388E-03    -26.3674E-03     1.34733E-03    -31.7149E-03     58.3265E-03    -26.1519E-03     1.38846E-03
             258     17.5304E-03     24.4375E-03    -5.26011E+06     140.362E+06     82.9151E+06      38.721E+03    -31.8031E-03     58.1798E-03    -26.3767E-03     3.42183E-03    -32.2601E-03     58.8772E-03    -26.1580E-03     3.50345E-03
             259     17.5345E-03     25.4512E-03    -3.32806E+06     142.212E+06     83.9989E+06     1.60563E+06    -27.5706E-03     54.0219E-03    -26.4512E-03     10.4852E-03    -28.0447E-03     54.7465E-03    -26.2326E-03     10.6333E-03
             260     17.5333E-03     26.4403E-03    -4.55275E+06     141.782E+06     83.4561E+06    -1.65963E+06    -28.0039E-03     54.4323E-03    -26.4284E-03     10.1881E-03    -28.4826E-03     55.1566E-03    -26.2102E-03     10.2995E-03
             261     17.5323E-03     27.4497E-03    -159.763E+03     146.129E+06     88.0457E+06     2.14304E+06    -28.1777E-03     54.6218E-03    -26.4441E-03     7.61938E-03    -28.6387E-03     55.3458E-03    -26.2155E-03     7.77333E-03
             262     17.5348E-03     28.4530E-03     2.23131E+06     148.111E+06     90.2175E+06     553.902E+03    -25.0204E-03     51.5380E-03    -26.5176E-03     12.7240E-03    -25.4890E-03     52.2787E-03    -26.2845E-03     12.8843E-03
             263     17.5317E-03     29.4461E-03    -3.87208E+06     141.946E+06     84.3277E+06    -2.11462E+06    -26.5477E-03     53.0088E-03    -26.4611E-03     5.80810E-03    -27.0088E-03     53.7155E-03    -26.2397E-03     5.91273E-03
             264     17.5358E-03     30.4379E-03    -7.84428E+06     139.202E+06     81.1491E+06    -1.49420E+06    -30.9448E-03     57.2788E-03    -26.3340E-03     2.18000E-03    -31.4074E-03     57.9729E-03    -26.1187E-03     2.25859E-03
             265     17.5312E-03     31.4649E-03    -1.11456E+06     146.201E+06     87.5972E+06     2.81051E+06    -28.0623E-03     54.4791E-03    -26.4168E-03     10.5544E-03    -28.5402E-03     55.2195E-03    -26.1892E-03     10.7301E-03
             266     17.5365E-03     32.4624E-03     1.49263E+06     148.651E+06     89.9588E+06    -439.977E+03    -22.0735E-03     48.6416E-03    -26.5682E-03     18.4995E-03    -22.5714E-03     49.4134E-03    -26.3361E-03     18.7027E-03
             267     17.5310E-03     33.4433E-03    -6.47728E+06     141.016E+06     83.0948E+06    -2.36867E+06    -26.2635E-03     52.7306E-03    -26.4671E-03     7.97348E-03    -26.7438E-03     53.4486E-03    -26.2467E-03     8.10325E-03
             268     17.5355E-03     34.4493E-03    -2.62811E+06     144.374E+06     86.6298E+06     3.20287E+06    -28.9596E-03     55.3561E-03    -26.3965E-03     4.93222E-03    -29.4189E-03     56.0675E-03    -26.1689E-03     5.09380E-03
             269     17.5326E-03     35.4661E-03     3.08470E+06     150.164E+06     91.6392E+06     1.42340E+06    -23.7557E-03     50.2689E-03    -26.5131E-03     15.0901E-03    -24.2363E-03     51.0283E-03    -26.2772E-03     15.2867E-03
             270     17.5356E-03     36.4512E-03    -3.21932E+06     144.650E+06     85.9718E+06    -2.15736E+06    -23.1912E-03     49.7127E-03    -26.5215E-03     13.0111E-03    -23.6801E-03     50.4557E-03    -26.2967E-03     13.1744E-03
             271     17.5321E-03     37.4401E-03    -5.41135E+06     142.183E+06     84.2504E+06    -675.348E+03    -28.8267E-03     55.2139E-03    -26.3872E-03     3.22635E-03    -29.2875E-03     55.9173E-03    -26.1643E-03     3.34473E-03
             272     17.5353E-03     38.4588E-03     40.1306E+03     147.707E+06     89.7789E+06     1.33820E+06    -27.5093E-03     53.9465E-03    -26.4373E-03     7.15145E-03    -27.9752E-03     54.6771E-03    -26.2026E-03     7.31023E-03
             273     17.5322E-03     39.4607E-03     592.683E+03     148.752E+06     90.2333E+06     554.905E+03    -21.7816E-03     48.3502E-03    -26.5686E-03     15.6354E-03    -22.2731E-03     49.1105E-03    -26.3340E-03     15.8496E-03
             274     17.5363E-03     40.4435E-03    -3.61024E+06     143.844E+06     85.5682E+06    -925.801E+03    -24.4003E-03     50.8837E-03    -26.4834E-03     8.35459E-03    -24.8709E-03     51.6046E-03    -26.2589E-03     8.51344E-03
             275     17.5316E-03     41.4424E-03    -3.38774E+06     144.350E+06     86.4604E+06    -283.171E+03    -29.1379E-03     55.5164E-03    -26.3785E-03     2.76943E-03    -29.5911E-03     56.2204E-03    -26.1506E-03     2.88260E-03
             276     17.5359E-03     42.4608E-03    -272.381E+03     148.010E+06     89.8136E+06     1.82163E+06    -25.3820E-03     51.8595E-03    -26.4775E-03     11.0655E-03    -25.8614E-03     52.6036E-03    -26.2427E-03     11.2561E-03
             277     17.5324E-03     43.4532E-03     212.780E+03     147.912E+06     89.5768E+06    -356.356E+03    -21.1684E-03     47.7338E-03    -26.5654E-03     14.2414E-03    -21.6561E-03     48.4878E-03    -26.3323E-03     14.4489E-03
             278     17.5364E-03     44.4378E-03    -4.76374E+06     142.826E+06     84.7494E+06    -2.93957E+06    -25.8529E-03     52.2927E-03    -26.4398E-03     5.57450E-03    -26.3185E-03     53.0032E-03    -26.2162E-03     5.69044E-03
             279     17.5316E-03     45.4437E-03    -4.61491E+06     143.311E+06      85.716E+06     1.49478E+06    -29.3976E-03     55.7846E-03    -26.3870E-03     3.85394E-03    -29.8581E-03     56.4901E-03    -26.1595E-03     3.99261E-03
             280     17.5348E-03     46.4614E-03    -745.614E+03     147.065E+06     88.9176E+06     2.46631E+06    -23.9040E-03     50.4289E-03    -26.5249E-03     12.8377E-03    -24.3886E-03     51.1764E-03    -26.2925E-03     13.0531E-03
             281     17.5338E-03     47.4422E-03    -3.32832E+06     145.144E+06     86.8307E+06    -884.354E+03    -23.2238E-03     49.7543E-03    -26.5305E-03     12.5313E-03    -23.7142E-03     50.4968E-03    -26.3020E-03     12.7153E-03
             282     17.5332E-03     48.4420E-03    -2.59756E+06     145.463E+06     87.5922E+06     752.522E+03    -26.6960E-03     53.1378E-03    -26.4418E-03     4.72732E-03    -27.1541E-03     53.8491E-03    -26.2110E-03     4.88018E-03
             283     17.5355E-03     49.4470E-03     940.328E+03     148.592E+06     90.7471E+06    -172.016E+03    -24.8399E-03     51.3091E-03    -26.4693E-03     8.31408E-03    -25.3027E-03     52.0397E-03    -26.2324E-03     8.47227E-03
             284     17.5333E-03     50.4470E-03    -417.730E+03     147.495E+06     89.6008E+06    -257.596E+03    -23.1848E-03     49.7051E-03    -26.5203E-03     9.81164E-03    -23.6594E-03     50.4420E-03    -26.2856E-03     9.99372E-03
             285     17.5346E-03     51.4358E-03    -3.88681E+06     143.790E+06     85.9120E+06    -1.64135E+06    -25.3122E-03     51.7717E-03    -26.4595E-03     5.60389E-03    -25.7762E-03     52.4834E-03    -26.2328E-03     5.73924E-03
             286     17.5340E-03     52.4378E-03    -3.20884E+06     144.569E+06     87.1164E+06    -578.638E+03    -27.6507E-03     54.0658E-03    -26.4151E-03     3.50782E-03    -28.1062E-03     54.7708E-03    -26.1845E-03     3.63152E-03
             287     17.5331E-03     53.4491E-03    -2.94545E+06     145.324E+06     87.3797E+06     2.72110E+06    -25.2857E-03     51.7728E-03    -26.4871E-03     9.37038E-03    -25.7625E-03     52.5019E-03    -26.2566E-03     9.56972E-03
             288     17.5348E-03     54.4398E-03    -1.76117E+06     146.058E+06     88.0488E+06     1.42477E+06    -23.2106E-03     49.7327E-03    -26.5221E-03     10.9602E-03    -23.6871E-03     50.4662E-03    -26.2911E-03     11.1622E-03
             289     17.5336E-03     55.4386E-03     825.524E+03     147.475E+06     89.8894E+06    -1.83378E+06    -23.5540E-03     50.0437E-03    -26.4897E-03     5.69565E-03    -24.0053E-03     50.7608E-03    -26.2553E-03     5.83726E-03
             290     17.5361E-03     56.4303E-03    -4.41199E+06     143.181E+06     85.4666E+06    -2.66361E+06    -27.1495E-03     53.5610E-03    -26.4115E-03     3.97915E-03    -27.6097E-03     54.2663E-03    -26.1854E-03     4.08208E-03
             291     17.5308E-03     57.4401E-03    -3.51130E+06     144.184E+06     85.8049E+06     1.27377E+06    -27.0381E-03     53.4781E-03    -26.4400E-03     3.38036E-03    -27.4954E-03     54.1867E-03    -26.2150E-03     3.53498E-03
             292     876.444E-06     58.5073E-03    -28.1477E+06    -101.841E+06    -27.3374E+06     96.3749E+03    -26.5490E-03     53.0898E-03    -26.5408E-03     5.66498E-03    -26.5025E-03     52.6612E-03    -26.4890E-03     5.66334E-03
             293     1.75295E-03     58.5149E-03    -27.1778E+06    -102.269E+06    -24.8942E+06     161.524E+03    -26.5630E-03     53.1158E-03    -26.5528E-03     10.4381E-03    -26.5149E-03     52.6804E-03    -26.4896E-03     10.4347E-03
             294     2.62944E-03     58.5272E-03    -25.8958E+06    -99.6626E+06    -21.5714E+06     211.346E+03    -26.5792E-03     53.1391E-03    -26.5598E-03     15.4714E-03    -26.5339E-03     52.7106E-03    -26.4856E-03     15.4656E-03
             295     3.50591E-03     58.5443E-03    -24.3099E+06    -96.1850E+06    -17.4531E+06     219.851E+03    -26.6077E-03     53.1748E-03    -26.5670E-03     20.5477E-03    -26.5664E-03     52.7563E-03    -26.4796E-03     20.5385E-03
             296     4.38245E-03     58.5663E-03    -22.5740E+06    -92.2600E+06    -12.6820E+06     273.877E+03    -26.6399E-03     53.2151E-03    -26.5751E-03     25.6129E-03    -26.6038E-03     52.8081E-03    -26.4720E-03     25.6000E-03
             297     5.25896E-03     58.5930E-03    -20.5646E+06    -88.5754E+06    -7.57006E+06     194.692E+03    -26.6878E-03     53.2713E-03    -26.5835E-03     30.6481E-03    -26.6563E-03     52.8744E-03    -26.4631E-03     30.6287E-03
             298     6.13555E-03     58.6246E-03    -18.4499E+06    -84.9109E+06    -2.39742E+06     204.314E+03    -26.7462E-03     53.3376E-03    -26.5914E-03     35.5960E-03    -26.7198E-03     52.9513E-03    -26.4535E-03     35.5701E-03
             299     7.01212E-03     58.6606E-03    -16.2190E+06    -80.2736E+06     1.67720E+06     166.864E+03    -26.8160E-03     53.4079E-03    -26.5918E-03     40.4821E-03    -26.7952E-03     53.0396E-03    -26.4435E-03     40.4476E-03
             300     7.88868E-03     58.7017E-03    -13.9935E+06    -73.3775E+06     3.82149E+06     468.376E+03    -26.8922E-03     53.4712E-03    -26.5790E-03     45.2319E-03    -26.8790E-03     53.1367E-03    -26.4332E-03     45.1915E-03
             301     8.76535E-03     58.7467E-03    -12.1548E+06    -66.7525E+06     5.33947E+06     753.301E+03    -27.0030E-03     53.5682E-03    -26.5652E-03     49.7557E-03    -27.0004E-03     53.2700E-03    -26.4241E-03     49.7066E-03
             302     9.64193E-03     58.7964E-03    -10.6856E+06    -61.3159E+06      4.9931E+06     252.406E+03    -27.1082E-03     53.6545E-03    -26.5462E-03     54.2092E-03    -27.1168E-03     53.3929E-03    -26.4169E-03     54.1392E-03
             303     10.5183E-03     58.8501E-03    -9.50835E+06    -53.5852E+06     3.42516E+06     111.573E+03    -27.1838E-03     53.7014E-03    -26.5176E-03     58.7822E-03    -27.2114E-03     53.4951E-03    -26.4090E-03     58.6932E-03
             304     11.3955E-03     58.9081E-03    -8.40043E+06    -43.6000E+06     2.59252E+06     263.002E+03    -27.2797E-03     53.7678E-03    -26.4881E-03     63.4556E-03    -27.3379E-03     53.6339E-03    -26.3998E-03     63.3484E-03
             305     12.2715E-03     58.9715E-03    -7.37618E+06    -32.2204E+06    -104.724E+03     458.854E+03    -27.4260E-03     53.8746E-03    -26.4486E-03     68.3508E-03    -27.5282E-03     53.8366E-03    -26.3917E-03     68.2213E-03
             306     13.1488E-03     59.0385E-03    -6.79826E+06    -13.2401E+06    -3.66170E+06     330.334E+03    -27.3798E-03     53.7701E-03    -26.3903E-03     74.0713E-03    -27.5584E-03     53.8881E-03    -26.3796E-03     73.9152E-03
             307     14.0260E-03     59.1123E-03    -6.76332E+06     21.8544E+06    -5.59877E+06    -755.924E+03    -27.9173E-03     54.2382E-03    -26.3209E-03     84.4134E-03    -28.2608E-03     54.6515E-03    -26.3708E-03     84.2158E-03
             308     14.9005E-03     59.2008E-03    -7.65286E+06     73.5276E+06    -11.1465E+06    -606.568E+03    -28.2792E-03     54.4955E-03    -26.2164E-03     101.493E-03    -28.9955E-03     55.4781E-03    -26.3676E-03     101.308E-03
             309     15.7800E-03     59.3061E-03    -5.23852E+06     132.671E+06     20.6623E+06     1.04605E+06    -27.6730E-03     53.9264E-03    -26.2534E-03     120.176E-03    -29.0807E-03     55.7256E-03    -26.3349E-03     120.277E-03
             310     16.6695E-03     59.4326E-03    -3.72789E+06     152.633E+06     71.0612E+06     1.67564E+06    -26.4786E-03     52.9019E-03    -26.4232E-03     68.6445E-03    -27.6397E-03     54.3853E-03    -26.2839E-03     68.9121E-03
             311     876.490E-06     59.5069E-03    -28.5966E+06    -102.100E+06    -27.8953E+06     170.612E+03    -26.5512E-03     53.1031E-03    -26.5519E-03     5.67031E-03    -26.5058E-03     52.6747E-03    -26.5019E-03     5.66964E-03
             312     1.75292E-03     59.5144E-03    -27.6479E+06    -102.442E+06    -25.2641E+06     99.0957E+03    -26.5671E-03     53.1267E-03    -26.5595E-03     10.4293E-03    -26.5207E-03     52.6916E-03    -26.4972E-03     10.4251E-03
             313     2.62940E-03     59.5267E-03    -26.2236E+06    -99.9288E+06    -21.6690E+06     197.304E+03    -26.5890E-03     53.1568E-03    -26.5679E-03     15.4625E-03    -26.5448E-03     52.7276E-03    -26.4933E-03     15.4565E-03
             314     3.50590E-03     59.5439E-03    -24.6167E+06    -96.3559E+06    -17.3789E+06     276.899E+03    -26.6170E-03     53.1937E-03    -26.5766E-03     20.5317E-03    -26.5771E-03     52.7747E-03    -26.4881E-03     20.5231E-03
             315     4.38239E-03     59.5658E-03    -22.6623E+06    -92.4571E+06    -12.8116E+06     281.636E+03    -26.6584E-03     53.2430E-03    -26.5846E-03     25.5955E-03    -26.6223E-03     52.8354E-03    -26.4818E-03     25.5826E-03
             316     5.25892E-03     59.5926E-03    -20.6673E+06    -88.6077E+06    -7.49968E+06     325.418E+03    -26.7058E-03     53.3011E-03    -26.5953E-03     30.6128E-03    -26.6749E-03     52.9041E-03    -26.4744E-03     30.5951E-03
             317     6.13545E-03     59.6240E-03    -18.5601E+06     -85.118E+06    -2.25976E+06     346.629E+03    -26.7807E-03     53.3867E-03    -26.6061E-03     35.5678E-03    -26.7548E-03     52.9994E-03    -26.4670E-03     35.5437E-03
             318     7.01195E-03     59.6603E-03    -16.5079E+06    -80.1339E+06     1.46532E+06     268.332E+03    -26.8501E-03     53.4574E-03    -26.6073E-03     40.4246E-03    -26.8306E-03     53.0906E-03    -26.4598E-03     40.3913E-03
             319     7.88860E-03     59.7010E-03    -14.4592E+06    -74.1308E+06     3.39822E+06     310.457E+03    -26.9216E-03     53.5186E-03    -26.5970E-03     45.1764E-03    -26.9091E-03     53.1817E-03    -26.4515E-03     45.1338E-03
             320     8.76512E-03     59.7464E-03    -12.3197E+06    -67.0828E+06     4.83639E+06     710.589E+03    -27.0208E-03     53.6032E-03    -26.5824E-03     49.7686E-03    -27.0178E-03     53.3042E-03    -26.4431E-03     49.7190E-03
             321     9.64161E-03     59.7959E-03    -10.7715E+06    -60.6526E+06     5.17721E+06     497.340E+03    -27.1385E-03     53.7043E-03    -26.5658E-03     54.1740E-03    -27.1488E-03     53.4461E-03    -26.4363E-03     54.1069E-03
             322     10.5186E-03     59.8494E-03    -9.58831E+06    -53.8064E+06     3.26384E+06     96.8412E+03    -27.2766E-03     53.8169E-03    -26.5403E-03     58.7297E-03    -27.3040E-03     53.6098E-03    -26.4320E-03     58.6401E-03
             323     11.3944E-03     59.9081E-03    -8.75198E+06    -43.6070E+06     2.05145E+06     115.552E+03    -27.3240E-03     53.8368E-03    -26.5127E-03     63.4367E-03    -27.3834E-03     53.7043E-03    -26.4265E-03     63.3273E-03
             324     12.2718E-03     59.9702E-03    -8.00751E+06    -32.6205E+06    -887.976E+03    -56.7759E+03    -27.3887E-03     53.8601E-03    -26.4714E-03     68.4213E-03    -27.4916E-03     53.8213E-03    -26.4170E-03     68.2859E-03
             325     13.1479E-03     60.0386E-03    -7.47282E+06    -12.9301E+06    -4.07419E+06     361.442E+03    -27.6624E-03     54.0826E-03    -26.4202E-03     74.0209E-03    -27.8449E-03     54.2045E-03    -26.4110E-03     73.8628E-03
             326     14.0238E-03     60.1113E-03    -8.01096E+06     22.1449E+06    -6.69372E+06     370.147E+03    -27.8045E-03     54.1559E-03    -26.3514E-03     85.1355E-03    -28.1545E-03     54.5754E-03    -26.4053E-03     84.9540E-03
             327     14.9022E-03     60.2015E-03    -8.51822E+06     73.9050E+06    -12.1773E+06    -661.389E+03    -28.3773E-03     54.6201E-03    -26.2428E-03     101.735E-03    -29.0971E-03     55.6073E-03    -26.3985E-03     101.546E-03
             328     15.7771E-03     60.3035E-03    -9.28938E+06     129.319E+06     15.7520E+06    -254.452E+03    -28.2328E-03     54.5232E-03    -26.2904E-03     118.010E-03    -29.6438E-03     56.3139E-03    -26.3857E-03     118.083E-03
             329     16.6437E-03     60.4277E-03    -4.34796E+06     151.377E+06     68.8980E+06     1.15001E+06    -25.6151E-03     52.0774E-03    -26.4623E-03     67.4769E-03    -26.7692E-03     53.5535E-03    -26.3310E-03     67.7402E-03
             330     876.423E-06     60.5064E-03    -28.4569E+06    -102.513E+06    -27.7904E+06     131.150E+03    -26.5611E-03     53.1190E-03    -26.5579E-03     5.65982E-03    -26.5146E-03     52.6882E-03    -26.5070E-03     5.65863E-03
             331     1.75293E-03     60.5140E-03    -27.6077E+06    -102.494E+06    -25.1605E+06     155.810E+03    -26.5798E-03     53.1479E-03    -26.5681E-03     10.4370E-03    -26.5332E-03     52.7124E-03    -26.5053E-03     10.4335E-03
             332     2.62937E-03     60.5263E-03    -26.3291E+06    -100.279E+06    -21.7398E+06     156.869E+03    -26.6033E-03     53.1813E-03    -26.5781E-03     15.4580E-03    -26.5590E-03     52.7506E-03    -26.5032E-03     15.4514E-03
             333     3.50586E-03     60.5434E-03    -24.6322E+06    -96.5940E+06    -17.4150E+06     338.720E+03    -26.6325E-03     53.2205E-03    -26.5879E-03     20.5215E-03    -26.5922E-03     52.8003E-03    -26.4992E-03     20.5137E-03
             334     4.38234E-03     60.5654E-03    -22.8516E+06    -92.4844E+06    -12.7770E+06     281.740E+03    -26.6752E-03     53.2726E-03    -26.5973E-03     25.5806E-03    -26.6401E-03     52.8650E-03    -26.4940E-03     25.5677E-03
             335     5.25884E-03     60.5921E-03    -20.6812E+06    -88.9525E+06    -7.64999E+06     334.296E+03    -26.7377E-03     53.3470E-03    -26.6093E-03     30.6021E-03    -26.7062E-03     52.9485E-03    -26.4886E-03     30.5845E-03
             336     6.13534E-03     60.6236E-03    -18.4147E+06    -85.2627E+06    -2.10742E+06     507.800E+03    -26.8060E-03     53.4291E-03    -26.6231E-03     35.5690E-03    -26.7794E-03     53.0405E-03    -26.4833E-03     35.5470E-03
             337     7.01188E-03     60.6598E-03    -16.2396E+06    -80.0534E+06     1.65039E+06     474.750E+03    -26.8876E-03     53.5133E-03    -26.6257E-03     40.4135E-03    -26.8672E-03     53.1463E-03    -26.4779E-03     40.3827E-03
             338     7.88833E-03     60.7006E-03    -14.2442E+06    -74.3012E+06     3.45031E+06     315.263E+03    -26.9490E-03     53.5657E-03    -26.6167E-03     45.1650E-03    -26.9352E-03     53.2276E-03    -26.4711E-03     45.1223E-03
             339     8.76493E-03     60.7460E-03    -12.3227E+06    -67.8239E+06     4.44000E+06     400.995E+03    -27.0182E-03     53.6184E-03    -26.6002E-03     49.8091E-03    -27.0134E-03     53.3163E-03    -26.4618E-03     49.7557E-03
             340     9.64172E-03     60.7953E-03    -10.5287E+06    -60.5416E+06     5.02068E+06     562.619E+03    -27.1962E-03     53.7797E-03    -26.5836E-03     54.2846E-03    -27.2052E-03     53.5219E-03    -26.4554E-03     54.2183E-03
             341     10.5176E-03     60.8494E-03    -9.40984E+06    -53.4586E+06     3.78800E+06     381.611E+03    -27.2821E-03     53.8442E-03    -26.5621E-03     58.7594E-03    -27.3098E-03     53.6378E-03    -26.4520E-03     58.6735E-03
             342     11.3950E-03     60.9071E-03    -8.44638E+06    -43.9469E+06     2.16498E+06     80.0473E+03    -27.3185E-03     53.8500E-03    -26.5316E-03     63.5280E-03    -27.3758E-03     53.7151E-03    -26.4448E-03     63.4183E-03
             343     12.2709E-03     60.9703E-03    -7.99063E+06    -32.3017E+06    -558.862E+03     172.668E+03    -27.4167E-03     53.9066E-03    -26.4899E-03     68.5808E-03    -27.5202E-03     53.8687E-03    -26.4343E-03     68.4485E-03
             344     13.1481E-03     61.0375E-03    -7.93226E+06    -13.5690E+06    -4.48131E+06     287.388E+03    -27.5743E-03     54.0072E-03    -26.4330E-03     74.7670E-03    -27.7579E-03     54.1275E-03    -26.4242E-03     74.6090E-03
             345     14.0249E-03     61.1123E-03    -7.74495E+06     21.4484E+06    -7.13504E+06     1.31420E+06    -27.7862E-03     54.1440E-03    -26.3578E-03     85.1040E-03    -28.1315E-03     54.5587E-03    -26.4134E-03     84.9351E-03
             346     14.9014E-03     61.1979E-03    -9.90374E+06     75.0768E+06    -13.1825E+06     1.92659E+06    -28.3659E-03     54.6087E-03    -26.2429E-03     102.931E-03    -29.0972E-03     55.6097E-03    -26.4033E-03     102.778E-03
             347     15.7769E-03     61.3097E-03    -11.0920E+06     129.467E+06     11.6625E+06    -202.339E+03    -28.7471E-03     55.0331E-03    -26.2860E-03     119.461E-03    -30.1725E-03     56.8443E-03    -26.3993E-03     119.526E-03
             348     16.6648E-03     61.4232E-03    -4.41183E+06     150.908E+06     66.4601E+06    -1.45651E+06    -25.7497E-03     52.2286E-03    -26.4788E-03     67.5878E-03    -26.9067E-03     53.7128E-03    -26.3590E-03     67.8101E-03
             349     876.489E-06     61.5060E-03    -28.8189E+06    -102.792E+06    -28.1898E+06     52.0911E+03    -26.5691E-03     53.1358E-03    -26.5666E-03     5.66375E-03    -26.5234E-03     52.7046E-03    -26.5168E-03     5.66154E-03
             350     1.75288E-03     61.5136E-03    -27.8262E+06    -102.738E+06    -25.6550E+06     180.541E+03    -26.5936E-03     53.1701E-03    -26.5765E-03     10.4325E-03    -26.5470E-03     52.7344E-03    -26.5155E-03     10.4294E-03
             351     2.62936E-03     61.5259E-03    -26.5019E+06    -100.392E+06    -21.8875E+06     203.540E+03    -26.6174E-03     53.2067E-03    -26.5894E-03     15.4559E-03    -26.5736E-03     52.7759E-03    -26.5148E-03     15.4499E-03
             352     3.50580E-03     61.5430E-03    -24.7725E+06    -96.9537E+06    -17.6283E+06     184.469E+03    -26.6498E-03     53.2500E-03    -26.6003E-03     20.5218E-03    -26.6094E-03     52.8286E-03    -26.5119E-03     20.5120E-03
             353     4.38229E-03     61.5650E-03    -22.7505E+06    -92.6131E+06    -12.6875E+06     394.444E+03    -26.6935E-03     53.3050E-03    -26.6115E-03     25.5870E-03    -26.6578E-03     52.8965E-03    -26.5076E-03     25.5755E-03
             354     5.25876E-03     61.5917E-03    -20.8257E+06    -89.1534E+06    -7.64006E+06     353.655E+03    -26.7571E-03     53.3814E-03    -26.6243E-03     30.6223E-03    -26.7261E-03     52.9821E-03    -26.5031E-03     30.6049E-03
             355     6.13523E-03     61.6233E-03    -18.4805E+06    -85.5538E+06    -2.60718E+06     351.608E+03    -26.8220E-03     53.4580E-03    -26.6360E-03     35.5873E-03    -26.7946E-03     53.0688E-03    -26.4982E-03     35.5632E-03
             356     7.01174E-03     61.6594E-03    -15.9662E+06    -80.2331E+06     1.66883E+06     480.668E+03    -26.8936E-03     53.5335E-03    -26.6399E-03     40.4821E-03    -26.8716E-03     53.1651E-03    -26.4920E-03     40.4515E-03
             357     7.88825E-03     61.7004E-03    -13.8442E+06    -74.1544E+06     3.82474E+06     446.999E+03    -26.9641E-03     53.5954E-03    -26.6313E-03     45.1832E-03    -26.9491E-03     53.2569E-03    -26.4845E-03     45.1422E-03
             358     8.76491E-03     61.7452E-03    -12.1689E+06    -68.1770E+06     4.50350E+06     351.862E+03    -27.0565E-03     53.6718E-03    -26.6153E-03     49.8758E-03    -27.0506E-03     53.3677E-03    -26.4763E-03     49.8216E-03
             359     9.64116E-03     61.7953E-03    -10.7121E+06    -60.9026E+06     4.80683E+06     492.205E+03    -27.1466E-03     53.7424E-03    -26.5958E-03     54.4672E-03    -27.1555E-03     53.4831E-03    -26.4679E-03     54.4004E-03
             360     10.5183E-03     61.8488E-03    -9.37094E+06    -53.2653E+06     4.16510E+06     475.631E+03    -27.2364E-03     53.8072E-03    -26.5708E-03     58.8534E-03    -27.2648E-03     53.6012E-03    -26.4591E-03     58.7689E-03
             361     11.3941E-03     61.9069E-03    -8.69082E+06    -43.7340E+06     2.67205E+06     512.890E+03    -27.3067E-03     53.8450E-03    -26.5383E-03     63.6787E-03    -27.3662E-03     53.7106E-03    -26.4489E-03     63.5748E-03
             362     12.2715E-03     61.9696E-03    -8.28365E+06    -32.5026E+06    -236.954E+03     428.862E+03    -27.3698E-03     53.8635E-03    -26.4937E-03     68.7685E-03    -27.4751E-03     53.8247E-03    -26.4357E-03     68.6397E-03
             363     13.1477E-03     62.0371E-03    -7.78595E+06    -14.0665E+06    -3.97122E+06     187.696E+03    -27.4131E-03     53.8434E-03    -26.4303E-03     74.8012E-03    -27.5954E-03     53.9597E-03    -26.4185E-03     74.6430E-03
             364     14.0248E-03     62.1113E-03    -7.66086E+06     19.6693E+06    -6.72996E+06     867.847E+03    -27.7723E-03     54.1230E-03    -26.3506E-03     85.5059E-03    -28.1171E-03     54.5299E-03    -26.4017E-03     85.3313E-03
             365     14.9006E-03     62.1993E-03    -5.36551E+06     74.1633E+06    -11.3470E+06     2.67067E+06    -27.3967E-03     53.6026E-03    -26.2059E-03     103.285E-03    -28.1003E-03     54.5834E-03    -26.3624E-03     103.157E-03
             366     15.7807E-03     62.3055E-03    -3.23794E+06     134.916E+06     21.3391E+06     1.47229E+06    -27.6983E-03     53.9112E-03    -26.2129E-03     122.647E-03    -29.1140E-03     55.7316E-03    -26.2972E-03     122.758E-03
             367     16.6448E-03     62.4265E-03    -4.45197E+06     152.065E+06     71.1075E+06    -1.49871E+06    -27.1045E-03     53.5036E-03    -26.3991E-03     68.1413E-03    -28.2772E-03     54.9941E-03    -26.2576E-03     68.3534E-03
             368     876.418E-06     62.5056E-03    -28.2538E+06    -102.953E+06    -27.6255E+06     2.66157E+03    -26.5874E-03     53.1701E-03    -26.5828E-03     5.67952E-03    -26.5394E-03     52.7365E-03    -26.5306E-03     5.67667E-03
             369     1.75288E-03     62.5132E-03    -27.4530E+06    -103.108E+06    -25.1874E+06     148.702E+03    -26.6063E-03     53.1993E-03    -26.5930E-03     10.4285E-03    -26.5579E-03     52.7605E-03    -26.5296E-03     10.4249E-03
             370     2.62931E-03     62.5255E-03    -26.1832E+06    -100.549E+06    -21.8000E+06     265.988E+03    -26.6264E-03     53.2284E-03    -26.6020E-03     15.4670E-03    -26.5809E-03     52.7962E-03    -26.5273E-03     15.4619E-03
             371     3.50577E-03     62.5426E-03    -24.6756E+06    -97.0013E+06    -17.4677E+06     201.856E+03    -26.6609E-03     53.2734E-03    -26.6125E-03     20.5355E-03    -26.6202E-03     52.8514E-03    -26.5234E-03     20.5260E-03
             372     4.38222E-03     62.5645E-03    -22.8257E+06    -93.1515E+06    -12.9336E+06     278.902E+03    -26.7076E-03     53.3303E-03    -26.6226E-03     25.6168E-03    -26.6712E-03     52.9196E-03    -26.5191E-03     25.6038E-03
             373     5.25869E-03     62.5914E-03    -20.6382E+06    -89.1838E+06    -7.45206E+06     548.649E+03    -26.7564E-03     53.3921E-03    -26.6357E-03     30.6542E-03    -26.7246E-03     52.9921E-03    -26.5137E-03     30.6394E-03
             374     6.13520E-03     62.6228E-03    -18.5903E+06    -85.5878E+06    -2.51819E+06     281.786E+03    -26.8190E-03     53.4643E-03    -26.6453E-03     35.6430E-03    -26.7922E-03     53.0750E-03    -26.5069E-03     35.6181E-03
             375     7.01168E-03     62.6592E-03    -16.4159E+06    -80.6703E+06     1.18032E+06     318.821E+03    -26.8762E-03     53.5213E-03    -26.6450E-03     40.5282E-03    -26.8551E-03     53.1520E-03    -26.4984E-03     40.4956E-03
             376     7.88830E-03     62.6997E-03    -14.2195E+06    -74.2717E+06     3.72712E+06     472.180E+03    -26.9785E-03     53.6153E-03    -26.6368E-03     45.2664E-03    -26.9651E-03     53.2769E-03    -26.4899E-03     45.2257E-03
             377     8.76462E-03     62.7452E-03    -12.4062E+06    -68.0923E+06     4.74689E+06     340.622E+03    -27.0616E-03     53.6842E-03    -26.6225E-03     49.9444E-03    -27.0575E-03     53.3805E-03    -26.4821E-03     49.8899E-03
             378     9.64155E-03     62.7945E-03    -10.7422E+06    -61.4002E+06     4.77110E+06     476.381E+03    -27.0830E-03     53.6821E-03    -26.5990E-03     54.5046E-03    -27.0913E-03     53.4203E-03    -26.4706E-03     54.4379E-03
             379     10.5178E-03     62.8486E-03    -9.73141E+06    -53.6062E+06     3.80305E+06     728.653E+03    -27.1797E-03     53.7469E-03    -26.5672E-03     58.9325E-03    -27.2088E-03     53.5401E-03    -26.4564E-03     58.8516E-03
             380     11.3950E-03     62.9063E-03    -9.12997E+06    -43.5797E+06     2.79319E+06     1.01085E+06    -27.2608E-03     53.7937E-03    -26.5328E-03     63.6339E-03    -27.3230E-03     53.6606E-03    -26.4424E-03     63.5365E-03
             381     12.2712E-03     62.9690E-03    -8.85141E+06    -32.3444E+06    -424.817E+03     773.692E+03    -27.3295E-03     53.8140E-03    -26.4845E-03     68.7878E-03    -27.4377E-03     53.7771E-03    -26.4269E-03     68.6636E-03
             382     13.1483E-03     63.0366E-03    -8.73367E+06    -13.7880E+06    -4.34924E+06     64.3066E+03    -27.3868E-03     53.8061E-03    -26.4192E-03     74.7417E-03    -27.5741E-03     53.9259E-03    -26.4083E-03     74.5820E-03
             383     14.0249E-03     63.1104E-03    -6.99598E+06     18.6710E+06    -6.74894E+06    -412.659E+03    -27.3450E-03     53.6725E-03    -26.3275E-03     85.6383E-03    -27.6827E-03     54.0713E-03    -26.3782E-03     85.4523E-03
             384     14.9033E-03     63.1986E-03    -5.10505E+06     72.5195E+06    -10.3608E+06    -884.677E+03    -27.1320E-03     53.3056E-03    -26.1736E-03     100.915E-03    -27.8220E-03     54.2649E-03    -26.3232E-03     100.744E-03
             385     15.7816E-03     63.3002E-03    -2.81515E+06     135.446E+06     24.0938E+06     1.44601E+06    -26.5409E-03     52.6976E-03    -26.1567E-03     120.465E-03    -27.9375E-03     54.4942E-03    -26.2286E-03     120.601E-03
             386     16.6730E-03     63.4331E-03    -3.23547E+06     153.465E+06     73.0958E+06     1.88984E+06    -27.2293E-03     53.5448E-03    -26.3154E-03     67.9356E-03    -28.3860E-03     55.0229E-03    -26.1678E-03     68.2091E-03
             387     876.424E-06     63.5053E-03    -28.3209E+06    -103.202E+06    -27.4156E+06     67.4544E+03    -26.5982E-03     53.1951E-03    -26.5970E-03     5.67853E-03    -26.5505E-03     52.7601E-03    -26.5433E-03     5.67651E-03
             388     1.75285E-03     63.5128E-03    -27.3267E+06    -103.509E+06    -24.9745E+06     259.739E+03    -26.6121E-03     53.2170E-03    -26.6049E-03     10.4500E-03    -26.5629E-03     52.7758E-03    -26.5401E-03     10.4479E-03
             389     2.62928E-03     63.5251E-03    -26.0558E+06    -100.697E+06    -21.7498E+06     249.906E+03    -26.6333E-03     53.2442E-03    -26.6109E-03     15.4826E-03    -26.5870E-03     52.8111E-03    -26.5359E-03     15.4773E-03
             390     3.50575E-03     63.5422E-03    -24.4613E+06    -97.2304E+06    -17.5596E+06     350.400E+03    -26.6660E-03     53.2857E-03    -26.6197E-03     20.5641E-03    -26.6237E-03     52.8623E-03    -26.5310E-03     20.5565E-03
             391     4.38218E-03     63.5643E-03    -22.7438E+06    -93.3369E+06    -12.6602E+06     366.004E+03    -26.7028E-03     53.3329E-03    -26.6301E-03     25.6421E-03    -26.6660E-03     52.9208E-03    -26.5251E-03     25.6303E-03
             392     5.25869E-03     63.5909E-03    -20.6683E+06    -89.6476E+06    -7.80504E+06     375.355E+03    -26.7475E-03     53.3857E-03    -26.6382E-03     30.6960E-03    -26.7147E-03     52.9840E-03    -26.5173E-03     30.6789E-03
             393     6.13517E-03     63.6226E-03    -18.4537E+06    -85.5276E+06    -2.52998E+06     687.743E+03    -26.8032E-03     53.4493E-03    -26.6461E-03     35.6711E-03    -26.7758E-03     53.0601E-03    -26.5080E-03     35.6515E-03
             394     7.01174E-03     63.6586E-03    -16.5635E+06    -80.8803E+06     1.30885E+06     453.994E+03    -26.8716E-03     53.5174E-03    -26.6458E-03     40.5426E-03    -26.8511E-03     53.1471E-03    -26.4980E-03     40.5117E-03
             395     7.88820E-03     63.6995E-03    -14.6969E+06    -74.5046E+06     3.30580E+06     424.488E+03    -26.9514E-03     53.5850E-03    -26.6336E-03     45.3674E-03    -26.9393E-03     53.2467E-03    -26.4878E-03     45.3262E-03
             396     8.76491E-03     63.7446E-03    -12.8325E+06    -68.0004E+06     4.50377E+06     389.992E+03    -27.0327E-03     53.6498E-03    -26.6171E-03     49.9761E-03    -27.0305E-03     53.3475E-03    -26.4774E-03     49.9224E-03
             397     9.64121E-03     63.7942E-03    -11.4440E+06    -62.0894E+06     4.15672E+06     500.261E+03    -27.0844E-03     53.6769E-03    -26.5925E-03     54.4910E-03    -27.0943E-03     53.4138E-03    -26.4651E-03     54.4245E-03
             398     10.5183E-03     63.8479E-03    -10.1488E+06    -54.2075E+06     3.10200E+06     970.183E+03    -27.1440E-03     53.7028E-03    -26.5589E-03     58.9898E-03    -27.1731E-03     53.4945E-03    -26.4500E-03     58.9124E-03
             399     11.3945E-03     63.9059E-03    -9.18602E+06    -43.7944E+06     2.33542E+06     1.12559E+06    -27.2532E-03     53.7766E-03    -26.5234E-03     63.5447E-03    -27.3148E-03     53.6433E-03    -26.4349E-03     63.4487E-03
             400     12.2717E-03     63.9683E-03    -8.26605E+06    -31.6654E+06    -278.071E+03     890.705E+03    -27.2933E-03     53.7684E-03    -26.4751E-03     68.6321E-03    -27.3996E-03     53.7338E-03    -26.4186E-03     68.5096E-03
             401     13.1481E-03     64.0361E-03    -7.69263E+06    -12.7205E+06    -3.98549E+06     380.316E+03    -27.3337E-03     53.7412E-03    -26.4075E-03     74.5946E-03    -27.5176E-03     53.8641E-03    -26.3978E-03     74.4395E-03
             402     14.0254E-03     64.1095E-03    -8.59599E+06     19.8232E+06    -7.62806E+06    -1.29202E+06    -27.3816E-03     53.6967E-03    -26.3151E-03     84.6008E-03    -27.7252E-03     54.1023E-03    -26.3695E-03     84.4032E-03
             403     14.9023E-03     64.1964E-03    -9.61371E+06     72.2166E+06    -13.2694E+06    -2.31476E+06    -28.1734E-03     54.3657E-03    -26.1923E-03     100.003E-03    -28.8888E-03     55.3418E-03    -26.3494E-03     99.7978E-03
             404     15.7775E-03     64.3009E-03    -9.08807E+06     130.309E+06     15.1941E+06    -419.484E+03    -28.0833E-03     54.3192E-03    -26.2359E-03     115.463E-03    -29.4744E-03     56.0961E-03    -26.3357E-03     115.535E-03
             405     16.6474E-03     64.4188E-03    -3.74065E+06     152.588E+06     69.2375E+06     1.77390E+06    -25.9576E-03     52.3823E-03    -26.4247E-03     66.1940E-03    -27.0964E-03     53.8489E-03    -26.2943E-03     66.4639E-03
             406     876.429E-06     64.5049E-03    -28.3750E+06    -103.520E+06    -27.6909E+06     133.902E+03    -26.5973E-03     53.1958E-03    -26.5985E-03     5.68190E-03    -26.5490E-03     52.7597E-03    -26.5457E-03     5.68074E-03
             407     1.75284E-03     64.5125E-03    -27.4398E+06    -103.892E+06    -25.2023E+06     228.853E+03    -26.6161E-03     53.2217E-03    -26.6056E-03     10.4650E-03    -26.5666E-03     52.7790E-03    -26.5412E-03     10.4625E-03
             408     2.62930E-03     64.5247E-03    -26.1999E+06    -100.876E+06    -21.9300E+06     340.334E+03    -26.6359E-03     53.2483E-03    -26.6123E-03     15.5041E-03    -26.5898E-03     52.8147E-03    -26.5377E-03     15.4999E-03
             409     3.50571E-03     64.5419E-03    -24.6970E+06    -97.5497E+06    -17.7010E+06     325.211E+03    -26.6591E-03     53.2799E-03    -26.6208E-03     20.5897E-03    -26.6173E-03     52.8555E-03    -26.5321E-03     20.5818E-03
             410     4.38222E-03     64.5638E-03    -22.7309E+06    -93.5756E+06    -12.8095E+06     477.504E+03    -26.6902E-03     53.3187E-03    -26.6285E-03     25.6657E-03    -26.6528E-03     52.9055E-03    -26.5239E-03     25.6553E-03
             411     5.25868E-03     64.5906E-03    -20.8260E+06    -89.7965E+06    -7.72300E+06     497.336E+03    -26.7346E-03     53.3705E-03    -26.6359E-03     30.7106E-03    -26.7025E-03     52.9681E-03    -26.5141E-03     30.6952E-03
             412     6.13523E-03     64.6220E-03    -18.5900E+06    -86.1178E+06    -2.98426E+06     541.363E+03    -26.7900E-03     53.4303E-03    -26.6402E-03     35.6967E-03    -26.7618E-03     53.0390E-03    -26.5033E-03     35.6752E-03
             413     7.01172E-03     64.6584E-03    -16.2132E+06    -80.7363E+06     1.35131E+06     858.620E+03    -26.8637E-03     53.5034E-03    -26.6397E-03     40.5761E-03    -26.8417E-03     53.1333E-03    -26.4923E-03     40.5506E-03
             414     7.88836E-03     64.6989E-03    -14.2983E+06    -74.7064E+06     3.40581E+06     550.646E+03    -26.9197E-03     53.5461E-03    -26.6265E-03     45.3497E-03    -26.9055E-03     53.2061E-03    -26.4804E-03     45.3103E-03
             415     8.76486E-03     64.7443E-03    -12.6206E+06    -68.0642E+06     4.21358E+06     593.258E+03    -26.9955E-03     53.6006E-03    -26.6051E-03     49.9977E-03    -26.9916E-03     53.2981E-03    -26.4671E-03     49.9469E-03
             416     9.64168E-03     64.7937E-03    -11.1897E+06    -62.1562E+06     4.32835E+06     674.203E+03    -27.0892E-03     53.6713E-03    -26.5821E-03     54.4531E-03    -27.0981E-03     53.4072E-03    -26.4541E-03     54.3888E-03
             417     10.5180E-03     64.8473E-03    -9.96707E+06    -54.9942E+06     2.75898E+06     712.403E+03    -27.1583E-03     53.7069E-03    -26.5486E-03     58.9933E-03    -27.1848E-03     53.4948E-03    -26.4406E-03     58.9126E-03
             418     11.3951E-03     64.9054E-03    -8.42065E+06    -43.8991E+06     2.19193E+06     745.672E+03    -27.2510E-03     53.7641E-03    -26.5131E-03     63.6342E-03    -27.3084E-03     53.6294E-03    -26.4263E-03     63.5335E-03
             419     12.2712E-03     64.9678E-03    -7.31582E+06    -31.7210E+06    -214.496E+03     765.898E+03    -27.3274E-03     53.7943E-03    -26.4670E-03     68.5007E-03    -27.4290E-03     53.7580E-03    -26.4114E-03     68.3763E-03
             420     13.1487E-03     65.0350E-03    -7.02587E+06    -12.4730E+06    -3.70581E+06     533.609E+03    -27.3979E-03     53.8021E-03    -26.4042E-03     74.4393E-03    -27.5785E-03     53.9243E-03    -26.3945E-03     74.2863E-03
             421     14.0250E-03     65.1093E-03    -8.19446E+06     21.3701E+06    -7.31930E+06     785.466E+03    -27.7012E-03     54.0240E-03    -26.3228E-03     84.4526E-03    -28.0462E-03     54.4370E-03    -26.3785E-03     84.2788E-03
             422     14.9017E-03     65.1953E-03    -11.5387E+06     73.4215E+06    -14.9418E+06     59.7226E+03    -28.7659E-03     54.9830E-03    -26.2172E-03     102.042E-03    -29.4980E-03     55.9782E-03    -26.3816E-03     101.859E-03
             423     15.7776E-03     65.3038E-03    -12.2682E+06     128.716E+06     11.1494E+06    -1.56745E+06    -29.7230E-03     56.0291E-03    -26.3062E-03     118.611E-03    -31.1484E-03     57.8355E-03    -26.4193E-03     118.629E-03
             424     16.6573E-03     65.4216E-03    -4.87153E+06     151.416E+06     66.9107E+06    -850.114E+03    -25.5348E-03     52.0566E-03    -26.5218E-03     68.9433E-03    -26.6982E-03     53.5462E-03    -26.3997E-03     69.1618E-03
             425     876.423E-06     65.5046E-03    -28.4693E+06    -103.845E+06    -27.7963E+06     57.1406E+03    -26.5973E-03     53.1879E-03    -26.5906E-03     5.68097E-03    -26.5489E-03     52.7504E-03    -26.5377E-03     5.67883E-03
             426     1.75287E-03     65.5121E-03    -27.5790E+06    -104.231E+06    -25.3926E+06     238.906E+03    -26.6133E-03     53.2147E-03    -26.6015E-03     10.4693E-03    -26.5636E-03     52.7708E-03    -26.5373E-03     10.4669E-03
             427     2.62927E-03     65.5244E-03    -26.2985E+06    -101.219E+06    -21.9812E+06     332.827E+03    -26.6264E-03     53.2346E-03    -26.6082E-03     15.5173E-03    -26.5803E-03     52.7995E-03    -26.5332E-03     15.5131E-03
             428     3.50578E-03     65.5415E-03    -24.6816E+06    -97.6810E+06    -17.6792E+06     394.609E+03    -26.6473E-03     53.2623E-03    -26.6150E-03     20.5974E-03    -26.6053E-03     52.8372E-03    -26.5259E-03     20.5904E-03
             429     4.38222E-03     65.5635E-03    -22.9124E+06    -93.9717E+06    -13.0640E+06     409.823E+03    -26.6812E-03     53.3022E-03    -26.6210E-03     25.6787E-03    -26.6438E-03     52.8877E-03    -26.5168E-03     25.6675E-03
             430     5.25875E-03     65.5902E-03    -20.6755E+06    -89.9567E+06    -7.74987E+06     582.580E+03    -26.7242E-03     53.3523E-03    -26.6282E-03     30.7118E-03    -26.6911E-03     52.9490E-03    -26.5065E-03     30.6975E-03
             431     6.13525E-03     65.6217E-03    -18.5257E+06    -86.3255E+06    -2.58385E+06     518.692E+03    -26.7762E-03     53.4104E-03    -26.6341E-03     35.6923E-03    -26.7479E-03     53.0173E-03    -26.4950E-03     35.6706E-03
             432     7.01186E-03     65.6578E-03    -16.1700E+06    -81.2579E+06     982.639E+03     527.932E+03    -26.8439E-03     53.4729E-03    -26.6290E-03     40.6007E-03    -26.8203E-03     53.1006E-03    -26.4828E-03     40.5709E-03
             433     7.88833E-03     65.6987E-03    -13.8255E+06    -74.3713E+06     3.61597E+06     736.588E+03    -26.9175E-03     53.5340E-03    -26.6165E-03     45.3167E-03    -26.9017E-03     53.1946E-03    -26.4705E-03     45.2797E-03
             434     8.76507E-03     65.7436E-03    -11.9491E+06    -68.3801E+06     4.77656E+06     640.314E+03    -26.9789E-03     53.5764E-03    -26.5975E-03     49.9532E-03    -26.9720E-03     53.2705E-03    -26.4572E-03     49.9030E-03
             435     9.64155E-03     65.7934E-03    -10.4702E+06    -62.1859E+06     4.67472E+06     731.038E+03    -27.0751E-03     53.6473E-03    -26.5722E-03     54.4027E-03    -27.0807E-03     53.3815E-03    -26.4435E-03     54.3393E-03
             436     10.5185E-03     65.8467E-03    -9.04043E+06    -55.0028E+06     3.67585E+06     437.572E+03    -27.1616E-03     53.7032E-03    -26.5416E-03     58.9120E-03    -27.1849E-03     53.4885E-03    -26.4303E-03     58.8276E-03
             437     11.3947E-03     65.9050E-03    -7.87382E+06    -44.3513E+06     2.53317E+06     222.297E+03    -27.2412E-03     53.7461E-03    -26.5049E-03     63.6320E-03    -27.2953E-03     53.6074E-03    -26.4165E-03     63.5250E-03
             438     12.2721E-03     65.9672E-03    -6.85855E+06    -32.1681E+06     432.353E+03     477.154E+03    -27.3720E-03     53.8341E-03    -26.4621E-03     68.4608E-03    -27.4717E-03     53.7940E-03    -26.4033E-03     68.3324E-03
             439     13.1479E-03     66.0347E-03    -6.53305E+06    -12.9890E+06    -3.15970E+06     971.009E+03    -27.4251E-03     53.8267E-03    -26.4016E-03     74.5247E-03    -27.6029E-03     53.9444E-03    -26.3891E-03     74.3772E-03
             440     14.0252E-03     66.1082E-03     -5.6927E+06     20.9118E+06    -5.34779E+06     1.36414E+06    -27.7792E-03     54.1056E-03    -26.3265E-03     85.0843E-03    -28.1146E-03     54.5106E-03    -26.3753E-03     84.9168E-03
             441     14.9018E-03     66.1957E-03    -3.59927E+06     73.7672E+06    -11.5653E+06     2.61023E+06    -27.8223E-03     54.0124E-03    -26.1901E-03     103.355E-03    -28.5151E-03     54.9879E-03    -26.3497E-03     103.218E-03
             442     15.7781E-03     66.3041E-03    -4.57022E+06     133.022E+06     18.0131E+06     862.959E+03    -28.1799E-03     54.3937E-03    -26.2137E-03     122.787E-03    -29.6019E-03     56.2192E-03    -26.3099E-03     122.879E-03
             443     16.6507E-03     66.4215E-03    -5.17944E+06     151.818E+06     69.8212E+06    -2.24230E+06    -26.7517E-03     53.1621E-03    -26.4104E-03     67.6136E-03    -27.9299E-03     54.6584E-03    -26.2739E-03     67.8150E-03
             444     876.441E-06     66.5042E-03    -28.7177E+06    -104.150E+06    -27.9192E+06     92.4843E+03    -26.5850E-03     53.1723E-03    -26.5873E-03     5.68459E-03    -26.5372E-03     52.7338E-03    -26.5342E-03     5.68290E-03
             445     1.75285E-03     66.5117E-03    -27.7684E+06    -104.640E+06    -25.3920E+06     229.044E+03    -26.6025E-03     53.1967E-03    -26.5942E-03     10.4789E-03    -26.5533E-03     52.7510E-03    -26.5291E-03     10.4764E-03
             446     2.62934E-03     66.5240E-03    -26.4460E+06    -101.473E+06    -22.2194E+06     325.761E+03    -26.6133E-03     53.2116E-03    -26.5983E-03     15.5161E-03    -26.5672E-03     52.7757E-03    -26.5239E-03     15.5118E-03
             447     3.50577E-03     66.5411E-03    -24.8837E+06    -97.9723E+06    -18.0110E+06     384.390E+03    -26.6371E-03     53.2411E-03    -26.6040E-03     20.5964E-03    -26.5952E-03     52.8153E-03    -26.5160E-03     20.5893E-03
             448     4.38230E-03     66.5630E-03    -22.9669E+06    -94.1251E+06    -13.0730E+06     429.324E+03    -26.6701E-03     53.2813E-03    -26.6112E-03     25.6713E-03    -26.6327E-03     52.8661E-03    -26.5067E-03     25.6604E-03
             449     5.25878E-03     66.5898E-03    -20.9670E+06    -90.4028E+06    -8.01876E+06     426.990E+03    -26.7132E-03     53.3309E-03    -26.6177E-03     30.7118E-03    -26.6805E-03     52.9261E-03    -26.4963E-03     30.6955E-03
             450     6.13534E-03     66.6212E-03    -18.5823E+06    -86.3071E+06    -2.59225E+06     557.778E+03    -26.7699E-03     53.3941E-03    -26.6242E-03     35.6824E-03    -26.7419E-03     53.0013E-03    -26.4851E-03     35.6612E-03
             451     7.01186E-03     66.6574E-03    -16.3706E+06    -81.4560E+06     1.23821E+06     343.203E+03    -26.8257E-03     53.4465E-03    -26.6208E-03     40.5695E-03    -26.8032E-03     53.0732E-03    -26.4728E-03     40.5373E-03
             452     7.88857E-03     66.6981E-03    -14.1230E+06    -74.7537E+06     3.31742E+06     378.913E+03    -26.9048E-03     53.5103E-03    -26.6055E-03     45.3193E-03    -26.8895E-03     53.1699E-03    -26.4600E-03     45.2777E-03
             453     8.76498E-03     66.7433E-03    -12.2335E+06    -68.3603E+06     4.73913E+06     627.966E+03    -27.0092E-03     53.5984E-03    -26.5892E-03     49.9147E-03    -27.0038E-03     53.2931E-03    -26.4486E-03     49.8641E-03
             454     9.64183E-03     66.7926E-03    -10.2675E+06    -62.3130E+06     4.91224E+06     370.983E+03    -27.0585E-03     53.6250E-03    -26.5664E-03     54.3431E-03    -27.0632E-03     53.3577E-03    -26.4366E-03     54.2751E-03
             455     10.5182E-03     66.8465E-03    -8.90789E+06    -54.6948E+06     3.79806E+06     254.194E+03    -27.1151E-03     53.6479E-03    -26.5328E-03     58.8490E-03    -27.1383E-03     53.4343E-03    -26.4216E-03     58.7624E-03
             456     11.3954E-03     66.9040E-03    -8.13494E+06    -44.8117E+06     2.55536E+06     327.897E+03    -27.2022E-03     53.6968E-03    -26.4946E-03     63.6917E-03    -27.2568E-03     53.5561E-03    -26.4051E-03     63.5863E-03
             457     12.2714E-03     66.9671E-03    -7.59971E+06    -32.6103E+06     49.6633E+03     259.071E+03    -27.2803E-03     53.7267E-03    -26.4465E-03     68.6661E-03    -27.3821E-03     53.6857E-03    -26.3879E-03     68.5358E-03
             458     13.1490E-03     67.0336E-03    -6.92482E+06    -13.7897E+06    -3.17851E+06     903.620E+03    -27.3615E-03     53.7449E-03    -26.3834E-03     74.6334E-03    -27.5404E-03     53.8595E-03    -26.3693E-03     74.4850E-03
             459     14.0255E-03     67.1078E-03    -6.55225E+06     21.0434E+06    -5.04043E+06     854.649E+03    -27.4495E-03     53.7470E-03    -26.2975E-03     85.7386E-03    -27.7905E-03     54.1541E-03    -26.3437E-03     85.5676E-03
             460     14.9021E-03     67.1955E-03    -5.95859E+06     72.4046E+06    -9.24861E+06    -380.113E+03    -26.9556E-03     53.1005E-03    -26.1448E-03     101.887E-03    -27.6522E-03     54.0597E-03    -26.2874E-03     101.726E-03
             461     15.7848E-03     67.2981E-03    -1.21111E+06     134.674E+06     23.4158E+06     819.275E+03    -26.4241E-03     52.5306E-03    -26.1065E-03     121.702E-03    -27.8243E-03     54.3365E-03    -26.1830E-03     121.840E-03
             462     16.6665E-03     67.4289E-03    -2.64684E+06     154.124E+06     71.2726E+06     1.28412E+06    -27.9590E-03     54.2323E-03    -26.2733E-03     67.8370E-03    -29.1227E-03     55.7273E-03    -26.1366E-03     68.0995E-03
             463     876.444E-06     67.5038E-03    -29.0414E+06    -104.527E+06    -28.1066E+06     193.015E+03    -26.5734E-03     53.1473E-03    -26.5739E-03     5.69443E-03    -26.5264E-03     52.7077E-03    -26.5207E-03     5.69405E-03
             464     1.75291E-03     67.5113E-03    -27.9740E+06    -104.907E+06    -25.5291E+06     210.785E+03    -26.5896E-03     53.1716E-03    -26.5820E-03     10.4738E-03    -26.5408E-03     52.7251E-03    -26.5169E-03     10.4711E-03
             465     2.62934E-03     67.5236E-03    -26.6275E+06    -101.831E+06    -22.3498E+06     283.511E+03    -26.6036E-03     53.1902E-03    -26.5865E-03     15.5111E-03    -26.5577E-03     52.7530E-03    -26.5120E-03     15.5062E-03
             466     3.50585E-03     67.5407E-03    -25.0193E+06    -98.2377E+06    -18.0446E+06     414.075E+03    -26.6261E-03     53.2191E-03    -26.5931E-03     20.5909E-03    -26.5844E-03     52.7923E-03    -26.5046E-03     20.5842E-03
             467     4.38231E-03     67.5626E-03    -23.2243E+06    -94.3897E+06    -13.1687E+06     429.811E+03    -26.6579E-03     53.2581E-03    -26.6001E-03     25.6630E-03    -26.6213E-03     52.8421E-03    -26.4954E-03     25.6520E-03
             468     5.25887E-03     67.5893E-03    -21.0331E+06    -90.5003E+06    -7.83005E+06     400.298E+03    -26.7031E-03     53.3108E-03    -26.6077E-03     30.6991E-03    -26.6709E-03     52.9054E-03    -26.4851E-03     30.6824E-03
             469     6.13539E-03     67.6208E-03    -18.7721E+06    -86.6981E+06    -2.65381E+06     394.888E+03    -26.7631E-03     53.3771E-03    -26.6140E-03     35.6803E-03    -26.7354E-03     52.9827E-03    -26.4744E-03     35.6569E-03
             470     7.01198E-03     67.6569E-03    -16.4311E+06    -81.1416E+06     1.34841E+06     460.910E+03    -26.8223E-03     53.4334E-03    -26.6111E-03     40.5381E-03    -26.8008E-03     53.0616E-03    -26.4629E-03     40.5075E-03
             471     7.88849E-03     67.6976E-03    -14.5093E+06    -75.3168E+06     3.04097E+06     288.565E+03    -26.8941E-03     53.4901E-03    -26.5961E-03     45.3112E-03    -26.8795E-03     53.1479E-03    -26.4506E-03     45.2685E-03
             472     8.76529E-03     67.7428E-03    -12.3137E+06    -68.3871E+06     4.34498E+06     214.049E+03    -26.9851E-03     53.5622E-03    -26.5772E-03     49.9587E-03    -26.9793E-03     53.2574E-03    -26.4384E-03     49.9030E-03
             473     9.64154E-03     67.7923E-03    -10.6584E+06    -62.4716E+06     4.51587E+06     194.816E+03    -27.0399E-03     53.5939E-03    -26.5540E-03     54.3607E-03    -27.0458E-03     53.3271E-03    -26.4254E-03     54.2903E-03
             474     10.5187E-03     67.8454E-03    -9.42334E+06    -54.8298E+06     3.23213E+06     380.942E+03    -27.0812E-03     53.5996E-03    -26.5184E-03     58.9228E-03    -27.1058E-03     53.3867E-03    -26.4091E-03     58.8382E-03
             475     11.3949E-03     67.9039E-03    -8.33956E+06    -44.3477E+06     2.24116E+06     267.579E+03    -27.0980E-03     53.5741E-03    -26.4760E-03     63.6581E-03    -27.1540E-03     53.4365E-03    -26.3884E-03     63.5522E-03
             476     12.2727E-03     67.9657E-03    -7.57807E+06    -33.4445E+06    -606.502E+03     476.776E+03    -27.1750E-03     53.5963E-03    -26.4214E-03     68.6877E-03    -27.2739E-03     53.5514E-03    -26.3649E-03     68.5611E-03
             477     13.1487E-03     68.0335E-03    -7.24659E+06    -13.5126E+06    -3.71595E+06     374.335E+03    -27.3296E-03     53.6843E-03    -26.3547E-03     74.5755E-03    -27.5106E-03     53.8024E-03    -26.3432E-03     74.4205E-03
             478     14.0260E-03     68.1065E-03    -6.78378E+06     19.9570E+06    -6.56446E+06     713.150E+03    -27.0897E-03     53.3466E-03    -26.2569E-03     84.7068E-03    -27.4245E-03     53.7472E-03    -26.3088E-03     84.5384E-03
             479     14.9050E-03     68.1937E-03    -8.37817E+06     75.2174E+06    -10.6846E+06    -200.868E+03    -28.0142E-03     54.1414E-03    -26.1273E-03     100.493E-03    -28.7291E-03     55.1246E-03    -26.2776E-03     100.316E-03
             480     15.7775E-03     68.2964E-03    -11.6510E+06     131.476E+06     17.0312E+06    -2.04905E+06    -28.5968E-03     54.7852E-03    -26.1884E-03     114.953E-03    -29.9967E-03     56.5609E-03    -26.2769E-03     114.998E-03
             481     16.6571E-03     68.4185E-03    -5.98890E+06     150.631E+06     67.8895E+06     618.001E+03    -26.3621E-03     52.7561E-03    -26.3940E-03     63.8429E-03    -27.4931E-03     54.2041E-03    -26.2643E-03     64.0876E-03
             482     876.460E-06     68.5033E-03    -29.5150E+06    -104.892E+06    -28.8432E+06     263.182E+03    -26.5600E-03     53.1198E-03    -26.5598E-03     5.68451E-03    -26.5138E-03     52.6801E-03    -26.5092E-03     5.68504E-03
             483     1.75290E-03     68.5109E-03    -28.5714E+06    -105.078E+06    -26.2557E+06     124.065E+03    -26.5747E-03     53.1418E-03    -26.5671E-03     10.4672E-03    -26.5276E-03     52.6964E-03    -26.5046E-03     10.4634E-03
             484     2.62941E-03     68.5232E-03    -27.1211E+06    -102.191E+06    -22.5742E+06     197.694E+03    -26.5899E-03     53.1641E-03    -26.5742E-03     15.5084E-03    -26.5456E-03     52.7262E-03    -26.4995E-03     15.5025E-03
             485     3.50586E-03     68.5403E-03    -25.3567E+06    -98.6097E+06    -18.0997E+06     358.098E+03    -26.6145E-03     53.1961E-03    -26.5816E-03     20.5842E-03    -26.5739E-03     52.7680E-03    -26.4924E-03     20.5767E-03
             486     4.38241E-03     68.5621E-03    -23.2558E+06     -94.511E+06    -13.0199E+06     406.541E+03    -26.6490E-03     53.2385E-03    -26.5894E-03     25.6523E-03    -26.6126E-03     52.8217E-03    -26.4838E-03     25.6411E-03
             487     5.25890E-03     68.5889E-03    -21.2233E+06    -90.7689E+06    -7.90288E+06     446.508E+03    -26.6984E-03     53.2957E-03    -26.5972E-03     30.6862E-03    -26.6667E-03     52.8892E-03    -26.4744E-03     30.6701E-03
             488     6.13547E-03     68.6203E-03    -19.0244E+06    -86.7764E+06    -2.88145E+06     422.951E+03    -26.7482E-03     53.3511E-03    -26.6029E-03     35.6548E-03    -26.7213E-03     52.9570E-03    -26.4639E-03     35.6318E-03
             489     7.01202E-03     68.6565E-03    -16.7688E+06    -81.4047E+06     955.493E+03     358.172E+03    -26.8153E-03     53.4150E-03    -26.5996E-03     40.5310E-03    -26.7945E-03     53.0429E-03    -26.4525E-03     40.4991E-03
             490     7.88869E-03     68.6971E-03    -14.3554E+06    -74.7785E+06     3.24939E+06     207.054E+03    -26.8932E-03     53.4797E-03    -26.5865E-03     45.3074E-03    -26.8790E-03     53.1396E-03    -26.4410E-03     45.2635E-03
             491     8.76511E-03     68.7423E-03    -12.6070E+06    -69.0632E+06     3.93343E+06     39.0499E+03    -26.9043E-03     53.4683E-03    -26.5641E-03     49.8984E-03    -26.8983E-03     53.1611E-03    -26.4260E-03     49.8407E-03
             492     9.64230E-03     68.7915E-03    -11.1256E+06    -62.6469E+06     4.15874E+06     279.015E+03    -27.0000E-03     53.5363E-03    -26.5363E-03     54.3717E-03    -27.0074E-03     53.2698E-03    -26.4086E-03     54.3027E-03
             493     10.5184E-03     68.8451E-03    -9.63251E+06    -54.7026E+06     3.25195E+06     112.724E+03    -27.0837E-03     53.5856E-03    -26.5019E-03     58.8008E-03    -27.1096E-03     53.3736E-03    -26.3923E-03     58.7126E-03
             494     11.3958E-03     68.9028E-03    -8.48735E+06    -44.7739E+06     2.00008E+06     146.590E+03    -27.1170E-03     53.5784E-03    -26.4614E-03     63.4544E-03    -27.1727E-03     53.4393E-03    -26.3742E-03     63.3469E-03
             495     12.2719E-03     68.9651E-03    -7.63668E+06    -33.3437E+06    -471.264E+03     225.574E+03    -27.1913E-03     53.6021E-03    -26.4108E-03     68.3246E-03    -27.2909E-03     53.5576E-03    -26.3537E-03     68.1945E-03
             496     13.1497E-03     69.0325E-03    -7.08250E+06    -14.0934E+06    -3.97012E+06     376.819E+03    -27.2056E-03     53.5466E-03    -26.3409E-03     74.2218E-03    -27.3828E-03     53.6600E-03    -26.3301E-03     74.0687E-03
             497     14.0261E-03     69.1060E-03    -7.17803E+06     20.1108E+06    -6.27059E+06     309.639E+03    -27.5959E-03     53.8554E-03    -26.2596E-03     83.6793E-03    -27.9322E-03     54.2559E-03    -26.3097E-03     83.5003E-03
             498     14.9025E-03     69.1905E-03    -6.91764E+06     75.3347E+06    -11.6432E+06     1.50803E+06    -28.5511E-03     54.7013E-03    -26.1501E-03     102.029E-03    -29.2624E-03     55.6892E-03    -26.3076E-03     101.866E-03
             499     15.7787E-03     69.3041E-03    -7.35560E+06     132.763E+06     16.0469E+06     2.87026E+06    -29.3740E-03     55.5996E-03    -26.2256E-03     121.751E-03    -30.7824E-03     57.4060E-03    -26.3272E-03     121.833E-03
             500     16.6456E-03     69.4172E-03    -5.64311E+06     150.936E+06     66.8869E+06    -721.182E+03    -26.3824E-03     52.8219E-03    -26.4395E-03     71.6917E-03    -27.5490E-03     54.3103E-03    -26.3157E-03     71.9129E-03
             501     876.461E-06     69.5029E-03    -29.6887E+06    -105.325E+06    -29.1172E+06     117.472E+03    -26.5494E-03     53.0959E-03    -26.5465E-03     5.68784E-03    -26.5031E-03     52.6547E-03    -26.4963E-03     5.68648E-03
             502     1.75295E-03     69.5104E-03    -28.7736E+06    -105.120E+06    -26.4000E+06     142.563E+03    -26.5603E-03     53.1149E-03    -26.5546E-03     10.4657E-03    -26.5139E-03     52.6698E-03    -26.4925E-03     10.4621E-03
             503     2.62940E-03     69.5228E-03    -27.4830E+06    -102.561E+06    -22.7669E+06     163.819E+03    -26.5779E-03     53.1399E-03    -26.5620E-03     15.5016E-03    -26.5346E-03     52.7009E-03    -26.4872E-03     15.4952E-03
             504     3.50595E-03     69.5398E-03    -25.6988E+06    -98.8254E+06    -18.3243E+06     197.475E+03    -26.6034E-03     53.1729E-03    -26.5695E-03     20.5762E-03    -26.5639E-03     52.7444E-03    -26.4806E-03     20.5666E-03
             505     4.38241E-03     69.5617E-03    -23.6995E+06    -94.8302E+06    -13.5786E+06     294.849E+03    -26.6433E-03     53.2201E-03    -26.5768E-03     25.6438E-03    -26.6078E-03     52.8032E-03    -26.4728E-03     25.6311E-03
             506     5.25899E-03     69.5883E-03    -21.4115E+06    -91.0603E+06    -8.21381E+06     478.487E+03    -26.6918E-03     53.2782E-03    -26.5864E-03     30.6734E-03    -26.6601E-03     52.8710E-03    -26.4643E-03     30.6577E-03
             507     6.13549E-03     69.6199E-03    -19.2025E+06    -86.8630E+06    -3.01137E+06     494.660E+03    -26.7452E-03     53.3387E-03    -26.5935E-03     35.6193E-03    -26.7189E-03     52.9446E-03    -26.4547E-03     35.5973E-03
             508     7.01215E-03     69.6558E-03    -16.9129E+06    -81.2968E+06     910.009E+03     266.528E+03    -26.8070E-03     53.3979E-03    -26.5909E-03     40.4986E-03    -26.7870E-03     53.0267E-03    -26.4440E-03     40.4655E-03
             509     7.88863E-03     69.6967E-03    -14.9949E+06    -74.7959E+06     2.90137E+06     74.5912E+03    -26.8592E-03     53.4353E-03    -26.5761E-03     45.2522E-03    -26.8475E-03     53.0965E-03    -26.4314E-03     45.2067E-03
             510     8.76550E-03     69.7416E-03    -13.0825E+06    -68.9982E+06     3.93544E+06     21.2596E+03    -26.9305E-03     53.4866E-03    -26.5561E-03     49.7260E-03    -26.9272E-03     53.1805E-03    -26.4174E-03     49.6678E-03
             511     9.64190E-03     69.7908E-03    -11.2482E+06    -62.8009E+06     3.97112E+06    -68.7026E+03    -26.9850E-03     53.5142E-03    -26.5292E-03     54.1778E-03    -26.9924E-03     53.2472E-03    -26.4020E-03     54.1044E-03
             512     10.5191E-03     69.8447E-03    -10.0194E+06    -54.6718E+06     3.05600E+06        -148.180    -27.1091E-03     53.6055E-03    -26.4964E-03     58.5227E-03    -27.1368E-03     53.3946E-03    -26.3873E-03     58.4327E-03
             513     11.3953E-03     69.9017E-03    -9.02569E+06    -45.3390E+06     1.70230E+06    -91.2159E+03    -27.2371E-03     53.7003E-03    -26.4632E-03     63.1192E-03    -27.2941E-03     53.5594E-03    -26.3759E-03     63.0080E-03
             514     12.2725E-03     69.9650E-03    -8.45431E+06    -33.4251E+06    -1.14816E+06     124.984E+03    -27.3027E-03     53.7223E-03    -26.4196E-03     67.9955E-03    -27.4056E-03     53.6798E-03    -26.3646E-03     67.8632E-03
             515     13.1486E-03     70.0309E-03    -8.05050E+06    -14.3825E+06    -4.29573E+06     170.246E+03    -27.3242E-03     53.6848E-03    -26.3606E-03     73.4197E-03    -27.5042E-03     53.7976E-03    -26.3495E-03     73.2624E-03
             516     14.0266E-03     70.1053E-03    -7.65346E+06     20.1746E+06    -6.60775E+06     398.019E+03    -27.9269E-03     54.2181E-03    -26.2911E-03     84.1069E-03    -28.2698E-03     54.6245E-03    -26.3423E-03     83.9236E-03
             517     14.9012E-03     70.1928E-03    -7.66699E+06     72.6218E+06    -11.9610E+06     1.24532E+06    -27.7636E-03     53.9360E-03    -26.1724E-03     101.510E-03    -28.4715E-03     54.9092E-03    -26.3264E-03     101.355E-03
             518     15.7818E-03     70.2975E-03    -3.16791E+06     133.583E+06     20.8688E+06     896.551E+03    -27.1373E-03     53.3201E-03    -26.1828E-03     119.503E-03    -28.5244E-03     55.1084E-03    -26.2675E-03     119.604E-03
             519     16.6722E-03     70.4229E-03    -1.91368E+06     154.087E+06     71.6505E+06     206.532E+03    -27.3539E-03     53.7220E-03    -26.3681E-03     66.3018E-03    -28.4982E-03     55.1985E-03    -26.2305E-03     66.5354E-03
             520     876.478E-06     70.5024E-03    -30.1245E+06    -105.499E+06    -29.4412E+06    -114.145E+03    -26.5396E-03     53.0691E-03    -26.5295E-03     5.68760E-03    -26.4947E-03     52.6282E-03    -26.4801E-03     5.68325E-03
             521     1.75295E-03     70.5100E-03    -29.0339E+06    -105.466E+06    -26.6267E+06     141.766E+03    -26.5514E-03     53.0942E-03    -26.5429E-03     10.4541E-03    -26.5055E-03     52.6481E-03    -26.4810E-03     10.4505E-03
             522     2.62947E-03     70.5222E-03    -27.5245E+06    -102.588E+06    -22.8797E+06     117.022E+03    -26.5680E-03     53.1190E-03    -26.5509E-03     15.4955E-03    -26.5247E-03     52.6801E-03    -26.4767E-03     15.4885E-03
             523     3.50593E-03     70.5394E-03    -25.7946E+06    -99.0815E+06    -18.6589E+06     99.9739E+03    -26.5978E-03     53.1562E-03    -26.5584E-03     20.5623E-03    -26.5579E-03     52.7271E-03    -26.4706E-03     20.5515E-03
             524     4.38251E-03     70.5612E-03    -23.8087E+06    -95.1167E+06    -13.7654E+06     219.179E+03    -26.6361E-03     53.2034E-03    -26.5672E-03     25.6341E-03    -26.6005E-03     52.7855E-03    -26.4636E-03     25.6204E-03
             525     5.25897E-03     70.5880E-03    -21.6506E+06    -91.4295E+06    -8.45649E+06     289.449E+03    -26.6867E-03     53.2640E-03    -26.5774E-03     30.6550E-03    -26.6553E-03     52.8557E-03    -26.4557E-03     30.6369E-03
             526     6.13561E-03     70.6193E-03    -19.1567E+06    -87.0112E+06    -3.12380E+06     450.833E+03    -26.7550E-03     53.3409E-03    -26.5859E-03     35.6042E-03    -26.7281E-03     52.9462E-03    -26.4476E-03     35.5815E-03
             527     7.01206E-03     70.6555E-03    -17.0082E+06    -81.1706E+06     778.797E+03     384.920E+03    -26.8127E-03     53.3978E-03    -26.5851E-03     40.4410E-03    -26.7932E-03     53.0275E-03    -26.4388E-03     40.4093E-03
             528     7.88884E-03     70.6960E-03    -14.9825E+06    -74.7352E+06     2.92860E+06     248.433E+03    -26.8697E-03     53.4425E-03    -26.5727E-03     45.1209E-03    -26.8582E-03     53.1040E-03    -26.4280E-03     45.0776E-03
             529     8.76532E-03     70.7411E-03    -13.1823E+06    -68.8248E+06     3.81699E+06    -163.758E+03    -26.9794E-03     53.5349E-03    -26.5555E-03     49.6666E-03    -26.9767E-03     53.2300E-03    -26.4175E-03     49.6057E-03
             530     9.64199E-03     70.7904E-03    -11.7500E+06    -62.7351E+06     3.68428E+06    -257.703E+03    -27.0816E-03     53.6170E-03    -26.5354E-03     54.0139E-03    -27.0914E-03     53.3517E-03    -26.4090E-03     53.9374E-03
             531     10.5186E-03     70.8435E-03    -10.3005E+06    -55.0530E+06     2.63104E+06    -40.0744E+03    -27.1860E-03     53.6954E-03    -26.5094E-03     58.4259E-03    -27.2140E-03     53.4838E-03    -26.4015E-03     58.3350E-03
             532     11.3953E-03     70.9022E-03    -9.57959E+06    -45.1839E+06     1.30687E+06      85.711E+03    -27.3273E-03     53.8091E-03    -26.4819E-03     62.8976E-03    -27.3869E-03     53.6706E-03    -26.3959E-03     62.7878E-03
             533     12.2716E-03     70.9630E-03    -8.87528E+06    -33.9179E+06    -1.74153E+06    -158.458E+03    -27.4352E-03     53.8803E-03    -26.4451E-03     67.7832E-03    -27.5387E-03     53.8369E-03    -26.3917E-03     67.6463E-03
             534     13.1487E-03     71.0320E-03    -7.97960E+06    -14.0518E+06    -4.51799E+06     8.46641E+03    -27.6024E-03     54.0004E-03    -26.3980E-03     73.4379E-03    -27.7841E-03     54.1170E-03    -26.3887E-03     73.2755E-03
             535     14.0240E-03     71.1031E-03    -7.40572E+06     18.8958E+06    -7.68453E+06         623.938    -27.6803E-03     54.0052E-03    -26.3249E-03     84.4637E-03    -28.0188E-03     54.4068E-03    -26.3800E-03     84.2788E-03
             536     14.9030E-03     71.1936E-03    -5.65792E+06     72.7945E+06    -11.5611E+06    -669.127E+03    -27.9771E-03     54.1842E-03    -26.2071E-03     99.9427E-03    -28.6715E-03     55.1505E-03    -26.3622E-03     99.7609E-03
             537     15.7781E-03     71.2932E-03    -6.42628E+06     132.330E+06     19.7341E+06    -103.511E+03    -27.8710E-03     54.1197E-03    -26.2487E-03     117.874E-03    -29.2802E-03     55.9174E-03    -26.3325E-03     117.964E-03
             538     16.6418E-03     71.4210E-03    -4.11978E+06     152.435E+06     71.0452E+06     1.24818E+06    -26.3737E-03     52.8028E-03    -26.4292E-03     68.5229E-03    -27.5422E-03     54.2917E-03    -26.2890E-03     68.7862E-03
             539     876.502E-06     71.5020E-03    -29.3453E+06    -105.649E+06    -28.3560E+06    -19.1358E+03    -26.5313E-03     53.0578E-03    -26.5266E-03     5.68606E-03    -26.4838E-03     52.6134E-03    -26.4726E-03     5.68294E-03
             540     1.75298E-03     71.5094E-03    -28.4266E+06    -105.773E+06    -26.1146E+06     70.7058E+03    -26.5472E-03     53.0835E-03    -26.5363E-03     10.4480E-03    -26.4985E-03     52.6341E-03    -26.4722E-03     10.4434E-03
             541     2.62946E-03     71.5218E-03    -27.2027E+06    -102.640E+06    -23.0917E+06     103.832E+03    -26.5642E-03     53.1058E-03    -26.5416E-03     15.4853E-03    -26.5190E-03     52.6666E-03    -26.4688E-03     15.4781E-03
             542     3.50601E-03     71.5388E-03    -25.6600E+06    -99.2273E+06    -18.5837E+06     85.8052E+03    -26.5940E-03     53.1456E-03    -26.5516E-03     20.5540E-03    -26.5534E-03     52.7155E-03    -26.4634E-03     20.5430E-03
             543     4.38246E-03     71.5607E-03    -23.7648E+06    -95.4214E+06    -13.7189E+06     124.064E+03    -26.6335E-03     53.1948E-03    -26.5613E-03     25.6135E-03    -26.5973E-03     52.7753E-03    -26.4571E-03     25.5986E-03
             544     5.25910E-03     71.5874E-03    -21.6029E+06    -91.6662E+06    -8.27340E+06     266.876E+03    -26.6871E-03     53.2600E-03    -26.5729E-03     30.6352E-03    -26.6554E-03     52.8502E-03    -26.4501E-03     30.6167E-03
             545     6.13554E-03     71.6189E-03    -19.3899E+06    -87.3252E+06    -3.27171E+06     261.835E+03    -26.7579E-03     53.3393E-03    -26.5814E-03     35.5986E-03    -26.7315E-03     52.9436E-03    -26.4431E-03     35.5734E-03
             546     7.01223E-03     71.6549E-03    -16.8987E+06    -81.2016E+06     539.799E+03     397.743E+03    -26.8446E-03     53.4265E-03    -26.5819E-03     40.4033E-03    -26.8242E-03     53.0563E-03    -26.4370E-03     40.3716E-03
             547     7.88862E-03     71.6955E-03    -14.6542E+06    -74.6255E+06     2.78964E+06     158.812E+03    -26.9281E-03     53.5028E-03    -26.5747E-03     45.0723E-03    -26.9149E-03     53.1646E-03    -26.4313E-03     45.0275E-03
             548     8.76531E-03     71.7406E-03    -12.9273E+06    -68.5794E+06     3.79703E+06     42.9808E+03    -27.0079E-03     53.5699E-03    -26.5620E-03     49.6213E-03    -27.0043E-03     53.2659E-03    -26.4249E-03     49.5631E-03
             549     9.64198E-03     71.7898E-03    -11.5455E+06    -62.7466E+06     3.63642E+06    -83.9948E+03    -27.1588E-03     53.7051E-03    -26.5463E-03     54.0359E-03    -27.1676E-03     53.4396E-03    -26.4203E-03     53.9613E-03
             550     10.5182E-03     71.8436E-03    -10.5970E+06    -55.4794E+06     2.16379E+06    -137.670E+03    -27.2851E-03     53.8107E-03    -26.5257E-03     58.5061E-03    -27.3134E-03     53.5982E-03    -26.4190E-03     58.4135E-03
             551     11.3950E-03     71.9007E-03    -9.23583E+06    -45.1690E+06     1.28732E+06    -21.1552E+03    -27.3940E-03     53.8975E-03    -26.5035E-03     63.0846E-03    -27.4523E-03     53.7589E-03    -26.4182E-03     62.9731E-03
             552     12.2714E-03     71.9641E-03    -8.42540E+06    -33.6152E+06    -1.63125E+06    -68.5582E+03    -27.4875E-03     53.9564E-03    -26.4690E-03     67.9339E-03    -27.5894E-03     53.9139E-03    -26.4162E-03     67.7980E-03
             553     13.1477E-03     72.0297E-03    -8.12700E+06    -15.0980E+06    -5.40740E+06    -528.114E+03    -27.5943E-03     54.0130E-03    -26.4187E-03     73.9935E-03    -27.7747E-03     54.1266E-03    -26.4120E-03     73.8248E-03
             554     14.0253E-03     72.1051E-03    -7.88387E+06     19.6471E+06    -7.92011E+06    -428.069E+03    -27.8246E-03     54.1735E-03    -26.3490E-03     84.3361E-03    -28.1663E-03     54.5800E-03    -26.4056E-03     84.1448E-03
             555     14.9008E-03     72.1893E-03    -10.7583E+06     73.0654E+06    -14.8899E+06    -385.823E+03    -28.5050E-03     54.7454E-03    -26.2404E-03     100.948E-03    -29.2284E-03     55.7331E-03    -26.4052E-03     100.763E-03
             556     15.7769E-03     72.2989E-03    -10.0349E+06     130.561E+06     12.9475E+06    -254.462E+03    -28.1488E-03     54.4334E-03    -26.2846E-03     117.581E-03    -29.5519E-03     56.2256E-03    -26.3946E-03     117.660E-03
             557     16.6702E-03     72.4149E-03    -3.57513E+06     152.957E+06     68.4550E+06     643.368E+03    -25.7693E-03     52.2372E-03    -26.4679E-03     69.1868E-03    -26.9201E-03     53.7196E-03    -26.3422E-03     69.4508E-03
             558     876.464E-06     72.5013E-03    -29.3412E+06    -105.896E+06    -28.4640E+06     162.323E+03    -26.5231E-03     53.0460E-03    -26.5228E-03     5.67033E-03    -26.4752E-03     52.6004E-03    -26.4690E-03     5.66954E-03
             559     1.75299E-03     72.5090E-03    -28.3203E+06    -105.934E+06    -26.1829E+06     114.709E+03    -26.5420E-03     53.0719E-03    -26.5299E-03     10.4484E-03    -26.4925E-03     52.6217E-03    -26.4662E-03     10.4445E-03
             560     2.62949E-03     72.5212E-03    -27.0951E+06    -102.777E+06    -22.9603E+06     100.194E+03    -26.5643E-03     53.1013E-03    -26.5370E-03     15.4768E-03    -26.5184E-03     52.6610E-03    -26.4635E-03     15.4695E-03
             561     3.50597E-03     72.5383E-03    -25.5865E+06    -99.4243E+06    -18.6532E+06     165.866E+03    -26.5919E-03     53.1390E-03    -26.5472E-03     20.5434E-03    -26.5505E-03     52.7079E-03    -26.4592E-03     20.5334E-03
             562     4.38257E-03     72.5602E-03    -23.8100E+06    -95.5139E+06    -13.6343E+06     138.487E+03    -26.6355E-03     53.1940E-03    -26.5585E-03     25.6017E-03    -26.5995E-03     52.7739E-03    -26.4536E-03     25.5870E-03
             563     5.25899E-03     72.5869E-03    -21.6977E+06    -92.0552E+06    -8.44847E+06     189.493E+03    -26.6953E-03     53.2660E-03    -26.5707E-03     30.6236E-03    -26.6633E-03     52.8547E-03    -26.4480E-03     30.6041E-03
             564     6.13567E-03     72.6183E-03    -19.3927E+06    -87.3193E+06    -3.44764E+06     274.478E+03    -26.7629E-03     53.3427E-03    -26.5798E-03     35.5733E-03    -26.7363E-03     52.9472E-03    -26.4423E-03     35.5482E-03
             565     7.01208E-03     72.6544E-03    -17.0643E+06    -81.3672E+06     72.7178E+03    -14.6425E+03    -26.8500E-03     53.4300E-03    -26.5800E-03     40.4368E-03    -26.8296E-03     53.0599E-03    -26.4369E-03     40.3998E-03
             566     7.88873E-03     72.6951E-03    -14.7919E+06    -74.3866E+06     2.36234E+06    -18.5384E+03    -26.9644E-03     53.5389E-03    -26.5745E-03     45.1349E-03    -26.9517E-03     53.2027E-03    -26.4334E-03     45.0878E-03
             567     8.76521E-03     72.7400E-03    -12.7093E+06    -68.4951E+06     3.74219E+06    -6.96969E+03    -27.0750E-03     53.6432E-03    -26.5681E-03     49.6778E-03    -27.0704E-03     53.3394E-03    -26.4317E-03     49.6187E-03
             568     9.64159E-03     72.7896E-03    -11.1444E+06    -62.8793E+06     3.53194E+06     91.4655E+03    -27.1442E-03     53.6980E-03    -26.5538E-03     54.1361E-03    -27.1506E-03     53.4314E-03    -26.4288E-03     54.0639E-03
             569     10.5186E-03     72.8427E-03    -9.90474E+06    -55.8127E+06     2.12154E+06    -52.6536E+03    -27.2606E-03     53.7910E-03    -26.5304E-03     58.6966E-03    -27.2849E-03     53.5759E-03    -26.4245E-03     58.6054E-03
             570     11.3946E-03     72.9011E-03    -8.97981E+06    -45.1932E+06     869.123E+03    -308.921E+03    -27.3662E-03     53.8693E-03    -26.5032E-03     63.4772E-03    -27.4224E-03     53.7307E-03    -26.4203E-03     63.3626E-03
             571     12.2715E-03     72.9626E-03    -8.03535E+06    -33.6056E+06     -1.5367E+06    -187.517E+03    -27.4598E-03     53.9275E-03    -26.4677E-03     68.3423E-03    -27.5602E-03     53.8845E-03    -26.4150E-03     68.2052E-03
             572     13.1482E-03     73.0305E-03    -7.81506E+06    -14.8747E+06    -5.28196E+06    -312.303E+03    -27.6506E-03     54.0678E-03    -26.4172E-03     74.3643E-03    -27.8303E-03     54.1823E-03    -26.4107E-03     74.1982E-03
             573     14.0242E-03     73.1029E-03    -8.18979E+06     19.0071E+06    -8.03926E+06    -423.524E+03    -27.9671E-03     54.3206E-03    -26.3536E-03     84.7822E-03    -28.3093E-03     54.7246E-03    -26.4094E-03     84.5900E-03
             574     14.9010E-03     73.1918E-03    -6.27636E+06     72.7140E+06    -14.4506E+06     901.057E+03    -28.2389E-03     54.4726E-03    -26.2337E-03     102.182E-03    -28.9398E-03     55.4512E-03    -26.4023E-03     102.018E-03
             575     15.7785E-03     73.2958E-03    -5.96558E+06     132.445E+06     16.8565E+06    -44.8164E+03    -28.7069E-03     55.0032E-03    -26.2963E-03     118.256E-03    -30.0940E-03     56.7891E-03    -26.3954E-03     118.311E-03
             576     16.6394E-03     73.4131E-03    -5.06449E+06     152.301E+06     70.4185E+06    -811.876E+03    -25.7454E-03     52.2414E-03    -26.4960E-03     68.0079E-03    -26.8979E-03     53.7123E-03    -26.3574E-03     68.2286E-03
             577     876.536E-06     73.5010E-03    -30.2946E+06    -106.110E+06    -29.7451E+06     126.636E+03    -26.5215E-03     53.0317E-03    -26.5103E-03     5.67315E-03    -26.4761E-03     52.5884E-03    -26.4612E-03     5.67190E-03
             578     1.75297E-03     73.5084E-03    -29.3464E+06    -106.010E+06    -27.1480E+06    -43.3177E+03    -26.5361E-03     53.0596E-03    -26.5235E-03     10.4479E-03    -26.4902E-03     52.6119E-03    -26.4629E-03     10.4419E-03
             579     2.62950E-03     73.5208E-03    -27.9391E+06    -103.011E+06    -23.5449E+06     64.1481E+03    -26.5570E-03     53.0895E-03    -26.5325E-03     15.4786E-03    -26.5142E-03     52.6501E-03    -26.4603E-03     15.4709E-03
             580     3.50602E-03     73.5378E-03    -26.2070E+06    -99.5547E+06    -19.1506E+06     65.6773E+03    -26.5929E-03     53.1360E-03    -26.5431E-03     20.5449E-03    -26.5537E-03     52.7059E-03    -26.4565E-03     20.5335E-03
             581     4.38249E-03     73.5597E-03    -24.1960E+06    -95.7204E+06    -14.1312E+06     172.489E+03    -26.6375E-03     53.1928E-03    -26.5554E-03     25.6038E-03    -26.6024E-03     52.7731E-03    -26.4522E-03     25.5894E-03
             582     5.25911E-03     73.5864E-03    -22.1360E+06    -92.1846E+06    -8.78328E+06     183.858E+03    -26.6976E-03     53.2668E-03    -26.5692E-03     30.6335E-03    -26.6671E-03     52.8559E-03    -26.4473E-03     30.6139E-03
             583     6.13550E-03     73.6178E-03    -19.7810E+06    -87.3868E+06    -4.19765E+06     29.0197E+03    -26.7577E-03     53.3338E-03    -26.5761E-03     35.6057E-03    -26.7318E-03     52.9396E-03    -26.4417E-03     35.5775E-03
             584     7.01220E-03     73.6540E-03    -17.4238E+06    -81.1097E+06    -459.721E+03    -144.072E+03    -26.8288E-03     53.4042E-03    -26.5754E-03     40.4887E-03    -26.8097E-03     53.0366E-03    -26.4348E-03     40.4502E-03
             585     7.88873E-03     73.6945E-03    -15.2261E+06    -74.6220E+06     1.68617E+06    -342.541E+03    -26.9444E-03     53.5122E-03    -26.5678E-03     45.2613E-03    -26.9325E-03     53.1764E-03    -26.4291E-03     45.2102E-03
             586     8.76517E-03     73.7399E-03    -13.3388E+06    -68.4831E+06     2.96215E+06    -286.803E+03    -27.0592E-03     53.6184E-03    -26.5592E-03     49.8602E-03    -27.0565E-03     53.3167E-03    -26.4258E-03     49.7977E-03
             587     9.64192E-03     73.7888E-03    -11.3648E+06    -63.2839E+06     3.07163E+06    -328.528E+03    -27.1339E-03     53.6793E-03    -26.5454E-03     54.3339E-03    -27.1402E-03     53.4117E-03    -26.4218E-03     54.2565E-03
             588     10.5181E-03     73.8427E-03    -9.66820E+06    -55.3295E+06     1.93416E+06    -321.561E+03    -27.1788E-03     53.6966E-03    -26.5178E-03     58.8978E-03    -27.2022E-03     53.4836E-03    -26.4139E-03     58.8037E-03
             589     11.3955E-03     73.9000E-03    -8.62333E+06    -45.4155E+06     697.365E+03    -344.889E+03    -27.2386E-03     53.7225E-03    -26.4838E-03     63.5738E-03    -27.2921E-03     53.5821E-03    -26.4020E-03     63.4597E-03
             590     12.2717E-03     73.9630E-03    -8.12283E+06    -34.1663E+06    -2.07899E+06    -488.718E+03    -27.3580E-03     53.7981E-03    -26.4401E-03     68.6132E-03    -27.4570E-03     53.7530E-03    -26.3892E-03     68.4731E-03
             591     13.1483E-03     74.0291E-03    -7.73558E+06    -14.1998E+06    -4.93857E+06     35.8883E+03    -27.6031E-03     53.9906E-03    -26.3875E-03     75.0746E-03    -27.7840E-03     54.1080E-03    -26.3803E-03     74.9137E-03
             592     14.0250E-03     74.1043E-03    -7.31106E+06     19.1428E+06    -7.47244E+06    -134.179E+03    -27.7794E-03     54.0967E-03    -26.3172E-03     85.5362E-03    -28.1173E-03     54.4982E-03    -26.3717E-03     85.3499E-03
             593     14.9021E-03     74.1892E-03    -7.49165E+06     71.4445E+06    -12.7942E+06    -1.38043E+06    -27.7979E-03     53.9883E-03    -26.1904E-03     102.527E-03    -28.5028E-03     54.9573E-03    -26.3471E-03     102.341E-03
             594     15.7789E-03     74.2970E-03    -5.30076E+06     132.218E+06     17.2305E+06     682.759E+03    -27.8072E-03     54.0100E-03    -26.2027E-03     121.548E-03    -29.2106E-03     55.8132E-03    -26.3006E-03     121.639E-03
             595     16.6683E-03     74.4193E-03    -3.14776E+06     153.279E+06     69.0864E+06     972.088E+03    -26.5612E-03     52.9416E-03    -26.3804E-03     69.1159E-03    -27.7176E-03     54.4309E-03    -26.2527E-03     69.3663E-03
             596     876.447E-06     74.5003E-03    -31.0024E+06    -106.293E+06    -30.1800E+06     40.6876E+03    -26.5214E-03     53.0237E-03    -26.5022E-03     5.67860E-03    -26.4787E-03     52.5811E-03    -26.4541E-03     5.67624E-03
             597     1.75301E-03     74.5079E-03    -30.0312E+06    -105.944E+06    -27.5808E+06    -61.3247E+03    -26.5313E-03     53.0513E-03    -26.5200E-03     10.4520E-03    -26.4883E-03     52.6055E-03    -26.4607E-03     10.4458E-03
             598     2.62949E-03     74.5201E-03    -28.6365E+06    -103.246E+06    -24.1605E+06    -131.443E+03    -26.5518E-03     53.0803E-03    -26.5285E-03     15.4849E-03    -26.5112E-03     52.6416E-03    -26.4581E-03     15.4747E-03
             599     3.50601E-03     74.5373E-03    -26.8463E+06    -99.5901E+06    -19.7258E+06    -78.6123E+03    -26.5843E-03     53.1227E-03    -26.5384E-03     20.5599E-03    -26.5474E-03     52.6942E-03    -26.4537E-03     20.5468E-03
             600     4.38255E-03     74.5592E-03    -24.7845E+06    -96.0508E+06    -14.6776E+06    -28.5849E+03    -26.6328E-03     53.1835E-03    -26.5507E-03     25.6371E-03    -26.5994E-03     52.7637E-03    -26.4489E-03     25.6202E-03
             601     5.25901E-03     74.5859E-03    -22.3214E+06    -92.2262E+06    -9.07019E+06     47.0560E+03    -26.6797E-03     53.2433E-03    -26.5636E-03     30.6754E-03    -26.6496E-03     52.8329E-03    -26.4429E-03     30.6541E-03
             602     6.13569E-03     74.6174E-03    -19.9039E+06    -87.2123E+06    -4.23707E+06    -173.241E+03    -26.7385E-03     53.3078E-03    -26.5693E-03     35.6517E-03    -26.7134E-03     52.9148E-03    -26.4352E-03     35.6210E-03
             603     7.01218E-03     74.6533E-03    -17.4520E+06    -80.8908E+06    -898.268E+03    -477.846E+03    -26.8101E-03     53.3749E-03    -26.5647E-03     40.5563E-03    -26.7908E-03     53.0091E-03    -26.4266E-03     40.5136E-03
             604     7.88876E-03     74.6942E-03    -15.1549E+06    -74.7709E+06     1.34020E+06    -585.763E+03    -26.8672E-03     53.4207E-03    -26.5535E-03     45.3530E-03    -26.8541E-03     53.0845E-03    -26.4164E-03     45.2991E-03
             605     8.76557E-03     74.7391E-03    -13.0005E+06    -68.7818E+06     2.70092E+06    -625.002E+03    -26.9631E-03     53.5004E-03    -26.5373E-03     50.0023E-03    -26.9578E-03     53.1970E-03    -26.4052E-03     49.9359E-03
             606     9.64192E-03     74.7887E-03    -11.3567E+06    -63.1030E+06     2.85231E+06    -850.652E+03    -27.0906E-03     53.6090E-03    -26.5185E-03     54.4634E-03    -27.0967E-03     53.3426E-03    -26.3962E-03     54.3795E-03
             607     10.5190E-03     74.8416E-03    -9.76482E+06    -55.2096E+06     1.79484E+06    -876.051E+03    -27.1443E-03     53.6344E-03    -26.4901E-03     58.9948E-03    -27.1681E-03     53.4223E-03    -26.3869E-03     58.8938E-03
             608     11.3950E-03     74.9000E-03    -8.39160E+06    -45.5153E+06     606.832E+03    -806.952E+03    -27.1216E-03     53.5739E-03    -26.4523E-03     63.6744E-03    -27.1735E-03     53.4327E-03    -26.3711E-03     63.5549E-03
             609     12.2725E-03     74.9613E-03    -7.31073E+06    -34.4575E+06    -2.08941E+06    -493.391E+03    -27.2195E-03     53.6204E-03    -26.4010E-03     68.8093E-03    -27.3138E-03     53.5725E-03    -26.3508E-03     68.6700E-03
             610     13.1493E-03     75.0296E-03    -6.82864E+06    -14.8507E+06    -4.98945E+06    -67.0969E+03    -27.3185E-03     53.6549E-03    -26.3364E-03     75.1716E-03    -27.4930E-03     53.7669E-03    -26.3299E-03     75.0118E-03
             611     14.0263E-03     75.1026E-03    -7.22596E+06     19.5285E+06    -7.97793E+06     85.9888E+03    -27.4512E-03     53.6986E-03    -26.2474E-03     85.4769E-03    -27.7883E-03     54.1025E-03    -26.3051E-03     85.2968E-03
             612     14.9030E-03     75.1898E-03    -8.76144E+06     72.4989E+06    -12.7458E+06    -132.597E+03    -27.9495E-03     54.0732E-03    -26.1237E-03     102.088E-03    -28.6669E-03     55.0539E-03    -26.2799E-03     101.915E-03
             613     15.7815E-03     75.2937E-03    -9.64760E+06     130.007E+06     15.5070E+06    -1.65081E+06    -28.3043E-03     54.4706E-03    -26.1664E-03     117.217E-03    -29.7139E-03     56.2624E-03    -26.2633E-03     117.272E-03
             614     16.6523E-03     75.4125E-03    -4.24937E+06     152.180E+06     67.8258E+06    -661.453E+03    -26.8853E-03     53.2622E-03    -26.3769E-03     62.4519E-03    -28.0222E-03     54.7277E-03    -26.2522E-03     62.6682E-03
             615     876.561E-06     75.4999E-03    -31.2654E+06    -106.455E+06    -30.5676E+06     92.2600E+03    -26.5106E-03     53.0131E-03    -26.5024E-03     5.68779E-03    -26.4684E-03     52.5706E-03    -26.4556E-03     5.68611E-03
             616     1.75297E-03     75.5073E-03    -30.2839E+06    -105.834E+06    -27.8689E+06    -59.9591E+03    -26.5264E-03     53.0408E-03    -26.5144E-03     10.4603E-03    -26.4844E-03     52.5964E-03    -26.4564E-03     10.4540E-03
             617     2.62953E-03     75.5197E-03    -28.8125E+06    -103.178E+06    -24.2238E+06    -244.017E+03    -26.5440E-03     53.0677E-03    -26.5237E-03     15.5001E-03    -26.5043E-03     52.6297E-03    -26.4534E-03     15.4884E-03
             618     3.50601E-03     75.5367E-03    -27.0631E+06    -99.7877E+06    -19.8903E+06    -244.087E+03    -26.5701E-03     53.1023E-03    -26.5322E-03     20.5841E-03    -26.5338E-03     52.6733E-03    -26.4477E-03     20.5689E-03
             619     4.38257E-03     75.5586E-03    -24.9530E+06    -96.1239E+06    -14.6422E+06    -231.325E+03    -26.6057E-03     53.1481E-03    -26.5424E-03     25.6717E-03    -26.5731E-03     52.7281E-03    -26.4401E-03     25.6523E-03
             620     5.25916E-03     75.5854E-03    -22.6445E+06    -92.3175E+06    -9.26993E+06    -326.924E+03    -26.6566E-03     53.2083E-03    -26.5517E-03     30.7109E-03    -26.6277E-03     52.7982E-03    -26.4314E-03     30.6849E-03
             621     6.13568E-03     75.6167E-03    -20.0122E+06    -86.7758E+06    -4.53386E+06    -497.457E+03    -26.7166E-03     53.2709E-03    -26.5543E-03     35.6980E-03    -26.6923E-03     52.8807E-03    -26.4221E-03     35.6632E-03
             622     7.01230E-03     75.6530E-03    -17.4646E+06    -80.5126E+06    -1.03677E+06    -965.001E+03    -26.7653E-03     53.3133E-03    -26.5480E-03     40.5861E-03    -26.7464E-03     52.9496E-03    -26.4111E-03     40.5372E-03
             623     7.88903E-03     75.6933E-03    -14.8882E+06     -74.644E+06     1.27882E+06    -1.23530E+06    -26.8128E-03     53.3461E-03    -26.5333E-03     45.3491E-03    -26.7985E-03     53.0102E-03    -26.3971E-03     45.2870E-03
             624     8.76557E-03     75.7387E-03    -12.6278E+06    -69.1471E+06     2.54516E+06    -1.15054E+06    -26.8859E-03     53.3984E-03    -26.5124E-03     49.9918E-03    -26.8780E-03     53.0928E-03    -26.3811E-03     49.9188E-03
             625     9.64265E-03     75.7877E-03    -10.6171E+06    -62.7423E+06     3.14501E+06    -1.21730E+06    -26.9962E-03     53.4847E-03    -26.4884E-03     54.4511E-03    -26.9995E-03     53.2184E-03    -26.3663E-03     54.3629E-03
             626     10.5187E-03     75.8416E-03    -9.14768E+06    -55.5196E+06     1.95004E+06    -1.41917E+06    -27.0335E-03     53.4879E-03    -26.4544E-03     58.8924E-03    -27.0538E-03     53.2730E-03    -26.3509E-03     58.7848E-03
             627     11.3964E-03     75.8985E-03    -7.90962E+06    -45.5069E+06     893.050E+03    -1.17808E+06    -27.0824E-03     53.4962E-03    -26.4139E-03     63.6426E-03    -27.1323E-03     53.3539E-03    -26.3319E-03     63.5185E-03
             628     12.2727E-03     75.9613E-03    -7.12175E+06    -34.6812E+06    -1.69108E+06    -853.823E+03    -27.2546E-03     53.6210E-03    -26.3665E-03     68.7119E-03    -27.3487E-03     53.5717E-03    -26.3143E-03     68.5674E-03
             629     13.1496E-03     76.0280E-03    -6.61472E+06    -16.3399E+06    -5.34360E+06    -372.574E+03    -27.2192E-03     53.5205E-03    -26.3014E-03     74.4320E-03    -27.3891E-03     53.6245E-03    -26.2948E-03     74.2688E-03
             630     14.0269E-03     76.1021E-03    -6.61553E+06     19.3699E+06    -7.41578E+06     418.213E+03    -27.3557E-03     53.5680E-03    -26.2123E-03     84.6065E-03    -27.6882E-03     53.9673E-03    -26.2679E-03     84.4322E-03
             631     14.9047E-03     76.1881E-03    -6.91918E+06     73.0277E+06    -11.8347E+06     871.385E+03    -28.1523E-03     54.2463E-03    -26.0940E-03     101.645E-03    -28.8592E-03     55.2222E-03    -26.2491E-03     101.481E-03
             632     15.7786E-03     76.2956E-03    -7.04015E+06     131.648E+06     16.7373E+06     880.312E+03    -29.0735E-03     55.2308E-03    -26.1573E-03     121.091E-03    -30.4968E-03     57.0479E-03    -26.2543E-03     121.167E-03
             633     16.6546E-03     76.4177E-03    -4.91133E+06     152.043E+06     67.5196E+06    -1.04959E+06    -27.3069E-03     53.6933E-03    -26.3864E-03     68.2410E-03    -28.4765E-03     55.1895E-03    -26.2621E-03     68.4497E-03
             634     876.437E-06     76.4992E-03    -31.4764E+06    -106.626E+06    -30.9013E+06     84.6551E+03    -26.5010E-03     53.0022E-03    -26.5012E-03     5.69313E-03    -26.4591E-03     52.5596E-03    -26.4554E-03     5.69137E-03
             635     1.75305E-03     76.5068E-03    -30.5669E+06    -105.575E+06    -28.5124E+06    -168.753E+03    -26.5106E-03     53.0151E-03    -26.5045E-03     10.4651E-03    -26.4694E-03     52.5733E-03    -26.4496E-03     10.4575E-03
             636     2.62950E-03     76.5191E-03    -29.2169E+06    -103.104E+06    -24.7354E+06    -323.367E+03    -26.5268E-03     53.0386E-03    -26.5118E-03     15.5140E-03    -26.4885E-03     52.6023E-03    -26.4436E-03     15.5013E-03
             637     3.50610E-03     76.5362E-03    -27.3919E+06    -99.7577E+06    -19.8966E+06    -415.350E+03    -26.5508E-03     53.0718E-03    -26.5210E-03     20.6012E-03    -26.5162E-03     52.6435E-03    -26.4361E-03     20.5837E-03
             638     4.38261E-03     76.5581E-03    -25.2559E+06    -96.1866E+06    -14.7119E+06    -451.842E+03    -26.5815E-03     53.1108E-03    -26.5293E-03     25.6742E-03    -26.5502E-03     52.6911E-03    -26.4267E-03     25.6519E-03
             639     5.25924E-03     76.5847E-03    -22.7563E+06    -92.0629E+06    -9.22700E+06    -618.901E+03    -26.6294E-03     53.1660E-03    -26.5365E-03     30.7199E-03    -26.6015E-03     52.7572E-03    -26.4162E-03     30.6901E-03
             640     6.13581E-03     76.6163E-03    -20.1786E+06    -86.3528E+06    -4.68546E+06    -1.07976E+06    -26.6805E-03     53.2163E-03    -26.5358E-03     35.7073E-03    -26.6574E-03     52.8286E-03    -26.4048E-03     35.6650E-03
             641     7.01250E-03     76.6521E-03    -17.5412E+06    -79.8657E+06    -1.30459E+06    -1.45230E+06    -26.7284E-03     53.2546E-03    -26.5262E-03     40.5631E-03    -26.7104E-03     52.8946E-03    -26.3915E-03     40.5080E-03
             642     7.88907E-03     76.6930E-03    -15.2993E+06    -74.4158E+06     823.553E+03    -1.83492E+06    -26.7975E-03     53.3086E-03    -26.5111E-03     45.3049E-03    -26.7849E-03     52.9752E-03    -26.3769E-03     45.2350E-03
             643     8.76598E-03     76.7377E-03    -13.0438E+06    -69.0126E+06     2.02101E+06    -2.02681E+06    -26.8684E-03     53.3592E-03    -26.4908E-03     49.9140E-03    -26.8620E-03     53.0556E-03    -26.3617E-03     49.8296E-03
             644     9.64235E-03     76.7874E-03    -10.8942E+06    -62.9357E+06     2.32517E+06    -2.04338E+06    -26.8802E-03     53.3420E-03    -26.4618E-03     54.3228E-03    -26.8832E-03     53.0762E-03    -26.3432E-03     54.2244E-03
             645     10.5199E-03     76.8404E-03    -9.08115E+06    -55.3827E+06     1.70899E+06    -1.86781E+06    -26.9554E-03     53.3793E-03    -26.4239E-03     58.6588E-03    -26.9751E-03     53.1652E-03    -26.3219E-03     58.5457E-03
             646     11.3960E-03     76.8980E-03    -8.07911E+06    -45.9345E+06     675.604E+03    -1.41754E+06    -27.1452E-03     53.5319E-03    -26.3867E-03     63.3695E-03    -27.1952E-03     53.3882E-03    -26.3050E-03     63.2418E-03
             647     12.2732E-03     76.9603E-03    -7.58599E+06    -35.1247E+06    -2.08992E+06    -1.03760E+06    -27.3380E-03     53.6847E-03    -26.3467E-03     68.4724E-03    -27.4334E-03     53.6345E-03    -26.2952E-03     68.3250E-03
             648     13.1497E-03     77.0277E-03    -7.13585E+06    -16.7894E+06    -5.72666E+06    -857.279E+03    -27.3788E-03     53.6710E-03    -26.2922E-03     73.8387E-03    -27.5501E-03     53.7740E-03    -26.2861E-03     73.6678E-03
             649     14.0267E-03     77.1000E-03    -6.20319E+06     17.8105E+06    -7.70325E+06     45.3888E+03    -27.5889E-03     53.8064E-03    -26.2175E-03     84.3991E-03    -27.9181E-03     54.1991E-03    -26.2729E-03     84.2165E-03
             650     14.9025E-03     77.1886E-03    -6.03514E+06     71.9493E+06    -12.5191E+06     1.25356E+06    -27.6587E-03     53.7471E-03    -26.0884E-03     101.642E-03    -28.3555E-03     54.7142E-03    -26.2466E-03     101.490E-03
             651     15.7826E-03     77.2936E-03    -4.43790E+06     133.326E+06     18.5923E+06     558.525E+03    -27.7189E-03     53.8276E-03    -26.1087E-03     120.077E-03    -29.1187E-03     55.6309E-03    -26.2027E-03     120.175E-03
             652     16.6644E-03     77.4160E-03    -3.53759E+06     153.208E+06     69.6278E+06    -524.560E+03    -27.8068E-03     54.1301E-03    -26.3233E-03     65.3162E-03    -28.9565E-03     55.6092E-03    -26.1922E-03     65.5343E-03
             653     876.577E-06     77.4988E-03    -31.6502E+06    -106.605E+06    -31.2520E+06    -91.1289E+03    -26.4876E-03     52.9791E-03    -26.4915E-03     5.68605E-03    -26.4461E-03     52.5375E-03    -26.4473E-03     5.68200E-03
             654     1.75297E-03     77.5062E-03    -30.8335E+06    -105.347E+06    -28.7872E+06    -256.573E+03    -26.4915E-03     52.9826E-03    -26.4911E-03     10.4733E-03    -26.4516E-03     52.5428E-03    -26.4376E-03     10.4645E-03
             655     2.62962E-03     77.5185E-03    -29.4153E+06    -102.861E+06    -24.9330E+06    -480.133E+03    -26.5100E-03     53.0069E-03    -26.4969E-03     15.5186E-03    -26.4727E-03     52.5724E-03    -26.4298E-03     15.5039E-03
             656     3.50608E-03     77.5356E-03    -27.5513E+06    -99.6570E+06    -20.0519E+06    -608.622E+03    -26.5326E-03     53.0383E-03    -26.5058E-03     20.5914E-03    -26.4986E-03     52.6110E-03    -26.4216E-03     20.5715E-03
             657     4.38275E-03     77.5574E-03    -25.2826E+06    -96.0275E+06    -14.4735E+06    -707.858E+03    -26.5678E-03     53.0834E-03    -26.5156E-03     25.6679E-03    -26.5372E-03     52.6641E-03    -26.4121E-03     25.6423E-03
             658     5.25924E-03     77.5842E-03    -22.8404E+06    -91.6861E+06    -9.36101E+06    -985.965E+03    -26.6068E-03     53.1272E-03    -26.5204E-03     30.7043E-03    -26.5797E-03     52.7207E-03    -26.4011E-03     30.6698E-03
             659     6.13598E-03     77.6155E-03    -20.2446E+06    -85.5432E+06    -5.02553E+06    -1.50560E+06    -26.6450E-03     53.1613E-03    -26.5162E-03     35.6608E-03    -26.6229E-03     52.7782E-03    -26.3880E-03     35.6130E-03
             660     7.01254E-03     77.6517E-03    -17.8031E+06    -79.4984E+06    -1.86009E+06    -2.02520E+06    -26.7133E-03     53.2190E-03    -26.5056E-03     40.5157E-03    -26.6964E-03     52.8620E-03    -26.3739E-03     40.4531E-03
             661     7.88939E-03     77.6920E-03    -15.4199E+06    -73.7897E+06     340.764E+03    -2.25916E+06    -26.8016E-03     53.2935E-03    -26.4919E-03     45.2465E-03    -26.7899E-03     52.9641E-03    -26.3608E-03     45.1709E-03
             662     8.76581E-03     77.7374E-03    -13.3591E+06    -68.7039E+06     1.38771E+06    -2.74447E+06    -26.8407E-03     53.3131E-03    -26.4724E-03     49.8157E-03    -26.8354E-03     53.0124E-03    -26.3465E-03     49.7221E-03
             663     9.64297E-03     77.7862E-03    -11.5939E+06    -62.7812E+06     1.50976E+06    -2.78958E+06    -26.8895E-03     53.3338E-03    -26.4443E-03     54.1507E-03    -26.8951E-03     53.0710E-03    -26.3289E-03     54.0425E-03
             664     10.5193E-03     77.8397E-03    -10.2931E+06    -55.7792E+06     538.676E+03    -2.36665E+06    -27.0189E-03     53.4299E-03    -26.4110E-03     58.4522E-03    -27.0424E-03     53.2173E-03    -26.3125E-03     58.3323E-03
             665     11.3966E-03     77.8973E-03    -9.13850E+06    -46.9247E+06    -692.224E+03    -1.91244E+06    -27.2174E-03     53.5975E-03    -26.3801E-03     63.2065E-03    -27.2694E-03     53.4525E-03    -26.3023E-03     63.0718E-03
             666     12.2729E-03     77.9596E-03    -7.97442E+06    -35.2226E+06    -2.94274E+06    -1.52587E+06    -27.3226E-03     53.6660E-03    -26.3433E-03     68.2236E-03    -27.4179E-03     53.6164E-03    -26.2954E-03     68.0704E-03
             667     13.1499E-03     78.0270E-03    -7.13841E+06    -16.6202E+06    -6.10573E+06    -1.15654E+06    -27.4520E-03     53.7444E-03    -26.2924E-03     73.8084E-03    -27.6227E-03     53.8484E-03    -26.2885E-03     73.6334E-03
             668     14.0261E-03     78.0996E-03    -6.59387E+06     16.0634E+06    -8.98977E+06    -819.563E+03    -27.6648E-03     53.8856E-03    -26.2207E-03     84.6197E-03    -27.9921E-03     54.2725E-03    -26.2794E-03     84.4258E-03
             669     14.9042E-03     78.1875E-03    -4.49341E+06     70.9904E+06    -12.7860E+06    -386.169E+03    -27.7206E-03     53.8180E-03    -26.0974E-03     100.614E-03    -28.3992E-03     54.7698E-03    -26.2577E-03     100.442E-03
             670     15.7806E-03     78.2903E-03    -3.71520E+06     133.746E+06     21.0138E+06     903.697E+03    -27.8303E-03     53.9659E-03    -26.1356E-03     119.845E-03    -29.2248E-03     55.7608E-03    -26.2191E-03     119.948E-03
             671     16.6505E-03     78.4183E-03    -4.83642E+06     152.867E+06     70.9734E+06     1.02273E+06    -27.3889E-03     53.7278E-03    -26.3389E-03     68.7862E-03    -28.5575E-03     55.2161E-03    -26.1987E-03     69.0340E-03
             672     876.436E-06     78.4980E-03    -31.7664E+06    -106.462E+06    -31.1318E+06    -245.350E+03    -26.4781E-03     52.9427E-03    -26.4646E-03     5.67893E-03    -26.4375E-03     52.5018E-03    -26.4199E-03     5.67287E-03
             673     1.75314E-03     78.5056E-03    -30.7642E+06    -104.994E+06    -28.5812E+06    -393.608E+03    -26.4824E-03     52.9578E-03    -26.4755E-03     10.4704E-03    -26.4430E-03     52.5194E-03    -26.4215E-03     10.4598E-03
             674     2.62954E-03     78.5179E-03    -29.3438E+06    -102.490E+06    -24.7040E+06    -617.782E+03    -26.4966E-03     52.9800E-03    -26.4834E-03     15.5065E-03    -26.4599E-03     52.5469E-03    -26.4158E-03     15.4900E-03
             675     3.50624E-03     78.5349E-03    -27.4551E+06    -99.4277E+06    -19.9091E+06    -843.514E+03    -26.5219E-03     53.0145E-03    -26.4926E-03     20.5782E-03    -26.4880E-03     52.5879E-03    -26.4081E-03     20.5552E-03
             676     4.38269E-03     78.5568E-03    -25.2181E+06    -95.7805E+06    -14.6272E+06    -1.01522E+06    -26.5549E-03     53.0562E-03    -26.5013E-03     25.6452E-03    -26.5241E-03     52.6383E-03    -26.3990E-03     25.6156E-03
             677     5.25944E-03     78.5835E-03    -22.6662E+06    -90.9898E+06    -9.57805E+06    -1.39449E+06    -26.5932E-03     53.0983E-03    -26.5050E-03     30.6680E-03    -26.5659E-03     52.6953E-03    -26.3881E-03     30.6282E-03
             678     6.13593E-03     78.6149E-03    -20.1724E+06    -84.7916E+06    -5.58536E+06    -1.91028E+06    -26.6393E-03     53.1391E-03    -26.4998E-03     35.6064E-03    -26.6171E-03     52.7605E-03    -26.3755E-03     35.5534E-03
             679     7.01279E-03     78.6508E-03    -17.7262E+06    -78.6890E+06    -2.22978E+06    -2.46913E+06    -26.7100E-03     53.2012E-03    -26.4912E-03     40.4689E-03    -26.6933E-03     52.8487E-03    -26.3625E-03     40.4005E-03
             680     7.88921E-03     78.6916E-03    -15.4538E+06    -73.4205E+06    -214.755E+03    -2.92794E+06    -26.7826E-03     53.2601E-03    -26.4775E-03     45.1943E-03    -26.7708E-03     52.9335E-03    -26.3497E-03     45.1101E-03
             681     8.76623E-03     78.7363E-03    -13.3938E+06    -67.9376E+06     982.299E+03    -3.10076E+06    -26.8573E-03     53.3167E-03    -26.4594E-03     49.6735E-03    -26.8528E-03     53.0207E-03    -26.3366E-03     49.5751E-03
             682     9.64270E-03     78.7856E-03    -11.7798E+06    -62.8380E+06     940.215E+03    -3.12394E+06    -26.9695E-03     53.4069E-03    -26.4374E-03     54.0455E-03    -26.9751E-03     53.1449E-03    -26.3245E-03     53.9326E-03
             683     10.5196E-03     78.8390E-03    -10.4537E+06    -56.3323E+06    -392.686E+03    -2.85372E+06    -27.1329E-03     53.5445E-03    -26.4115E-03     58.4697E-03    -27.1553E-03     53.3309E-03    -26.3167E-03     58.3430E-03
             684     11.3959E-03     78.8963E-03    -9.07011E+06    -47.1270E+06    -1.40942E+06    -2.67447E+06    -27.2530E-03     53.6393E-03    -26.3863E-03     63.2059E-03    -27.3035E-03     53.4943E-03    -26.3119E-03     63.0613E-03
             685     12.2729E-03     78.9593E-03    -7.95248E+06    -35.9388E+06    -4.01712E+06    -2.21759E+06    -27.2821E-03     53.6299E-03    -26.3478E-03     68.0992E-03    -27.3741E-03     53.5778E-03    -26.3042E-03     67.9375E-03
             686     13.1497E-03     79.0255E-03    -7.79812E+06    -17.3832E+06    -7.50364E+06    -1.34366E+06    -27.4441E-03     53.7381E-03    -26.2940E-03     73.9126E-03    -27.6150E-03     53.8414E-03    -26.2950E-03     73.7354E-03
             687     14.0268E-03     79.0998E-03    -8.09971E+06     16.3295E+06    -10.3082E+06    -1.22285E+06    -27.7480E-03     53.9731E-03    -26.2251E-03     84.0925E-03    -28.0795E-03     54.3637E-03    -26.2886E-03     83.8925E-03
             688     14.9027E-03     79.1853E-03    -10.1268E+06     70.4294E+06    -16.0507E+06    -1.74457E+06    -28.7409E-03     54.8733E-03    -26.1324E-03     100.347E-03    -29.4510E-03     55.8440E-03    -26.3001E-03     100.139E-03
             689     15.7791E-03     79.2918E-03    -9.28223E+06     130.874E+06     14.2913E+06    -551.942E+03    -28.3144E-03     54.5180E-03    -26.2036E-03     116.479E-03    -29.7039E-03     56.2970E-03    -26.3085E-03     116.548E-03
             690     16.6675E-03     79.4130E-03    -4.40915E+06     152.861E+06     68.4332E+06     1.36051E+06    -26.2253E-03     52.6309E-03    -26.4056E-03     67.0357E-03    -27.3662E-03     54.1002E-03    -26.2787E-03     67.3025E-03
             691     876.661E-06     79.4975E-03    -31.6568E+06    -106.065E+06    -31.0319E+06    -263.146E+03    -26.4630E-03     52.9135E-03    -26.4505E-03     5.67285E-03    -26.4226E-03     52.4742E-03    -26.4060E-03     5.66655E-03
             692     1.75299E-03     79.5049E-03    -30.7365E+06    -104.568E+06    -28.5108E+06    -558.353E+03    -26.4750E-03     52.9373E-03    -26.4623E-03     10.4533E-03    -26.4362E-03     52.5008E-03    -26.4087E-03     10.4406E-03
             693     2.62972E-03     79.5173E-03    -29.2482E+06    -102.073E+06    -24.6280E+06    -781.713E+03    -26.4879E-03     52.9601E-03    -26.4722E-03     15.4914E-03    -26.4514E-03     52.5289E-03    -26.4049E-03     15.4728E-03
             694     3.50613E-03     79.5343E-03    -27.3882E+06    -99.0271E+06    -19.7756E+06    -1.02002E+06    -26.5148E-03     52.9974E-03    -26.4826E-03     20.5564E-03    -26.4814E-03     52.5726E-03    -26.3982E-03     20.5310E-03
             695     4.38288E-03     79.5562E-03    -25.1112E+06    -95.2240E+06    -14.8466E+06    -1.41567E+06    -26.5492E-03     53.0393E-03    -26.4901E-03     25.6153E-03    -26.5184E-03     52.6244E-03    -26.3899E-03     25.5804E-03
             696     5.25932E-03     79.5828E-03    -22.6115E+06    -90.1824E+06    -10.2485E+06    -1.94780E+06    -26.5876E-03     53.0795E-03    -26.4920E-03     30.6209E-03    -26.5602E-03     52.6815E-03    -26.3797E-03     30.5739E-03
             697     6.13617E-03     79.6142E-03    -19.9415E+06    -83.9614E+06    -6.10285E+06    -2.49018E+06    -26.6474E-03     53.1360E-03    -26.4886E-03     35.5687E-03    -26.6245E-03     52.7620E-03    -26.3685E-03     35.5080E-03
             698     7.01256E-03     79.6503E-03    -17.5619E+06    -77.8955E+06    -2.76069E+06    -2.92015E+06    -26.7053E-03     53.1866E-03    -26.4813E-03     40.4266E-03    -26.6882E-03     52.8387E-03    -26.3567E-03     40.3523E-03
             699     7.88957E-03     79.6907E-03    -15.4023E+06    -72.6585E+06    -565.188E+03    -3.39390E+06    -26.7728E-03     53.2415E-03    -26.4687E-03     45.1204E-03    -26.7613E-03     52.9191E-03    -26.3439E-03     45.0302E-03
             700     8.76600E-03     79.7357E-03    -13.3943E+06    -67.5621E+06     400.541E+03    -3.69202E+06    -26.9018E-03     53.3542E-03    -26.4524E-03     49.6660E-03    -26.8970E-03     53.0608E-03    -26.3330E-03     49.5599E-03
             701     9.64280E-03     79.7849E-03    -11.5570E+06    -62.6255E+06     504.810E+03    -3.58405E+06    -27.0211E-03     53.4569E-03    -26.4357E-03     54.0356E-03    -27.0255E-03     53.1964E-03    -26.3257E-03     53.9166E-03
             702     10.5194E-03     79.8381E-03    -9.99585E+06    -56.6326E+06    -797.249E+03    -3.47938E+06    -27.1417E-03     53.5543E-03    -26.4126E-03     58.6185E-03    -27.1608E-03     53.3392E-03    -26.3199E-03     58.4837E-03
             703     11.3961E-03     79.8963E-03    -8.80166E+06    -47.1619E+06    -1.87700E+06    -3.31833E+06    -27.2519E-03     53.6383E-03    -26.3864E-03     63.3655E-03    -27.3003E-03     53.4935E-03    -26.3146E-03     63.2127E-03
             704     12.2728E-03     79.9577E-03    -7.82580E+06    -36.7337E+06    -4.52594E+06    -2.83269E+06    -27.3533E-03     53.7041E-03    -26.3508E-03     68.1703E-03    -27.4431E-03     53.6489E-03    -26.3088E-03     68.0001E-03
             705     13.1495E-03     80.0257E-03    -6.50976E+06    -18.3601E+06    -7.52456E+06     -2.0983E+06    -27.5441E-03     53.8468E-03    -26.3028E-03     74.0854E-03    -27.7078E-03     53.9441E-03    -26.3043E-03     73.8975E-03
             706     14.0258E-03     80.0984E-03    -6.50490E+06     15.1755E+06    -10.6186E+06    -575.571E+03    -27.9371E-03     54.1767E-03    -26.2396E-03     84.3131E-03    -28.2596E-03     54.5607E-03    -26.3053E-03     84.1191E-03
             707     14.9028E-03     80.1860E-03    -7.68733E+06     70.7140E+06    -16.0938E+06     877.192E+03    -28.9640E-03     55.1153E-03    -26.1514E-03     102.742E-03    -29.6741E-03     56.0958E-03    -26.3232E-03     102.566E-03
             708     15.7764E-03     80.2940E-03    -9.11673E+06     131.184E+06     13.8179E+06    -688.663E+03    -29.6762E-03     55.9357E-03    -26.2595E-03     118.422E-03    -31.0844E-03     57.7363E-03    -26.3674E-03     118.452E-03
             709     16.6413E-03     80.4070E-03    -6.16718E+06     151.454E+06     67.0127E+06    -1.03186E+06    -25.9784E-03     52.4673E-03    -26.4888E-03     68.4808E-03    -27.1385E-03     53.9488E-03    -26.3644E-03     68.6954E-03
             710     876.429E-06     80.4967E-03    -31.4469E+06    -105.547E+06    -30.9722E+06    -303.729E+03    -26.4508E-03     52.9037E-03    -26.4530E-03     5.68236E-03    -26.4102E-03     52.4667E-03    -26.4092E-03     5.67554E-03
             711     1.75320E-03     80.5044E-03    -30.6004E+06    -103.964E+06    -28.4413E+06    -651.513E+03    -26.4648E-03     52.9207E-03    -26.4559E-03     10.4401E-03    -26.4262E-03     52.4869E-03    -26.4030E-03     10.4262E-03
             712     2.62957E-03     80.5165E-03    -29.2266E+06    -101.625E+06    -24.6597E+06    -974.534E+03    -26.4844E-03     52.9496E-03    -26.4652E-03     15.4734E-03    -26.4485E-03     52.5206E-03    -26.3987E-03     15.4523E-03
             713     3.50632E-03     80.5337E-03    -27.2900E+06    -98.4284E+06    -19.9890E+06    -1.27992E+06    -26.5109E-03     52.9860E-03    -26.4751E-03     20.5400E-03    -26.4776E-03     52.5643E-03    -26.3928E-03     20.5112E-03
             714     4.38273E-03     80.5555E-03    -25.0807E+06    -94.3452E+06    -15.1816E+06    -1.81575E+06    -26.5449E-03     53.0271E-03    -26.4822E-03     25.5873E-03    -26.5148E-03     52.6170E-03    -26.3849E-03     25.5472E-03
             715     5.25954E-03     80.5822E-03    -22.6432E+06    -89.0296E+06    -10.8902E+06    -2.56630E+06    -26.5916E-03     53.0748E-03    -26.4831E-03     30.6011E-03    -26.5652E-03     52.6835E-03    -26.3757E-03     30.5461E-03
             716     6.13594E-03     80.6135E-03    -20.1692E+06    -83.0294E+06    -6.92462E+06    -3.26208E+06    -26.6439E-03     53.1243E-03    -26.4804E-03     35.5572E-03    -26.6224E-03     52.7565E-03    -26.3653E-03     35.4865E-03
             717     7.01288E-03     80.6495E-03    -17.5530E+06    -77.2442E+06    -3.34428E+06    -3.59306E+06    -26.7092E-03     53.1841E-03    -26.4749E-03     40.3853E-03    -26.6922E-03     52.8403E-03    -26.3541E-03     40.3023E-03
             718     7.88926E-03     80.6900E-03    -15.2631E+06    -71.8185E+06    -967.000E+03    -3.89082E+06    -26.7932E-03     53.2577E-03    -26.4645E-03     45.0862E-03    -26.7817E-03     52.9398E-03    -26.3430E-03     44.9895E-03
             719     8.76621E-03     80.7351E-03    -13.3807E+06    -67.2385E+06     12.2895E+03    -4.22676E+06    -26.8846E-03     53.3341E-03    -26.4495E-03     49.6863E-03    -26.8796E-03     53.0429E-03    -26.3325E-03     49.5735E-03
             720     9.64279E-03     80.7842E-03    -11.7394E+06    -62.8089E+06    -126.431E+03    -4.24219E+06    -27.0222E-03     53.4540E-03    -26.4318E-03     54.1272E-03    -27.0263E-03     53.1938E-03    -26.3243E-03     53.9998E-03
             721     10.5194E-03     80.8376E-03    -10.3322E+06    -56.0712E+06    -1.07408E+06    -4.20348E+06    -27.1442E-03     53.5539E-03    -26.4097E-03     58.6558E-03    -27.1655E-03     53.3426E-03    -26.3188E-03     58.5117E-03
             722     11.3963E-03     80.8951E-03    -8.98556E+06    -47.2601E+06    -2.12306E+06    -4.15624E+06    -27.2378E-03     53.6221E-03    -26.3843E-03     63.2635E-03    -27.2864E-03     53.4771E-03    -26.3133E-03     63.1000E-03
             723     12.2728E-03     80.9579E-03    -7.68519E+06    -37.2425E+06    -4.58271E+06    -3.68265E+06    -27.3884E-03     53.7389E-03    -26.3506E-03     68.2238E-03    -27.4770E-03     53.6814E-03    -26.3084E-03     68.0422E-03
             724     13.1494E-03     81.0242E-03    -7.05750E+06    -19.7955E+06    -8.17018E+06    -3.12155E+06    -27.5121E-03     53.8138E-03    -26.3017E-03     74.4242E-03    -27.6759E-03     53.9059E-03    -26.3036E-03     74.2231E-03
             725     14.0264E-03     81.0989E-03    -5.48911E+06     13.1680E+06    -10.1050E+06    -1.71888E+06    -27.9933E-03     54.2352E-03    -26.2419E-03     85.1461E-03    -28.3126E-03     54.6110E-03    -26.3035E-03     84.9360E-03
             726     14.9024E-03     81.1849E-03    -3.66153E+06     68.2375E+06    -14.3759E+06     975.531E+03    -27.7632E-03     53.8840E-03    -26.1209E-03     103.247E-03    -28.4453E-03     54.8371E-03    -26.2864E-03     103.091E-03
             727     15.7820E-03     81.2952E-03    -2.55271E+06     133.642E+06     18.9026E+06     2.36718E+06    -28.2301E-03     54.3834E-03    -26.1532E-03     123.295E-03    -29.6333E-03     56.1966E-03    -26.2488E-03     123.395E-03
             728     16.6659E-03     81.4147E-03    -4.19096E+06     153.909E+06     69.9712E+06     266.238E+03    -27.6743E-03     54.0459E-03    -26.3716E-03     69.8295E-03    -28.8482E-03     55.5484E-03    -26.2388E-03     70.0517E-03
             729     876.651E-06     81.4962E-03    -31.6748E+06    -104.879E+06    -31.1891E+06    -439.771E+03    -26.4516E-03     52.8993E-03    -26.4477E-03     5.67620E-03    -26.4128E-03     52.4662E-03    -26.4056E-03     5.66762E-03
             730     1.75300E-03     81.5036E-03    -30.7841E+06    -103.339E+06    -28.7184E+06    -751.680E+03    -26.4618E-03     52.9150E-03    -26.4532E-03     10.4375E-03    -26.4247E-03     52.4850E-03    -26.4023E-03     10.4223E-03
             731     2.62975E-03     81.5160E-03    -29.3319E+06    -100.826E+06    -24.8686E+06    -1.16863E+06    -26.4813E-03     52.9435E-03    -26.4622E-03     15.4584E-03    -26.4468E-03     52.5190E-03    -26.3978E-03     15.4347E-03
             732     3.50614E-03     81.5329E-03    -27.4193E+06    -97.6516E+06    -20.4246E+06    -1.71732E+06    -26.5052E-03     52.9758E-03    -26.4706E-03     20.5241E-03    -26.4730E-03     52.5588E-03    -26.3913E-03     20.4897E-03
             733     4.38292E-03     81.5549E-03    -25.0635E+06    -93.1446E+06    -15.8176E+06    -2.35721E+06    -26.5407E-03     53.0159E-03    -26.4753E-03     25.5768E-03    -26.5112E-03     52.6128E-03    -26.3830E-03     25.5298E-03
             734     5.25934E-03     81.5814E-03    -22.6743E+06    -87.7362E+06    -11.3811E+06    -3.13663E+06    -26.5876E-03     53.0643E-03    -26.4768E-03     30.5980E-03    -26.5625E-03     52.6803E-03    -26.3736E-03     30.5356E-03
             735     6.13620E-03     81.6129E-03    -20.3247E+06    -81.7875E+06    -7.33923E+06    -3.87219E+06    -26.6414E-03     53.1161E-03    -26.4747E-03     35.5458E-03    -26.6219E-03     52.7553E-03    -26.3633E-03     35.4672E-03
             736     7.01260E-03     81.6487E-03    -17.9830E+06    -76.4674E+06    -4.05590E+06    -4.49671E+06    -26.7146E-03     53.1841E-03    -26.4695E-03     40.4003E-03    -26.6999E-03     52.8458E-03    -26.3528E-03     40.3056E-03
             737     7.88953E-03     81.6895E-03    -15.5652E+06    -71.2153E+06    -1.61291E+06    -4.64605E+06    -26.8003E-03     53.2608E-03    -26.4605E-03     45.1099E-03    -26.7902E-03     52.9473E-03    -26.3427E-03     45.0035E-03
             738     8.76599E-03     81.7341E-03    -13.6354E+06    -66.7195E+06    -386.366E+03    -4.61646E+06    -26.8845E-03     53.3319E-03    -26.4474E-03     49.6693E-03    -26.8810E-03     53.0443E-03    -26.3328E-03     49.5513E-03
             739     9.64284E-03     81.7837E-03    -11.9728E+06    -62.4024E+06    -611.158E+03    -4.86977E+06    -26.9924E-03     53.4206E-03    -26.4282E-03     54.1208E-03    -26.9975E-03     53.1635E-03    -26.3234E-03     53.9852E-03
             740     10.5197E-03     81.8367E-03    -10.3628E+06    -55.7734E+06    -1.71405E+06    -4.95562E+06    -27.1601E-03     53.5647E-03    -26.4047E-03     58.6682E-03    -27.1811E-03     53.3559E-03    -26.3173E-03     58.5142E-03
             741     11.3958E-03     81.8949E-03    -9.36781E+06    -47.3076E+06    -2.79657E+06    -4.67552E+06    -27.2522E-03     53.6336E-03    -26.3814E-03     63.2912E-03    -27.3018E-03     53.4901E-03    -26.3132E-03     63.1208E-03
             742     12.2730E-03     81.9564E-03    -9.04137E+06    -37.8145E+06    -5.87498E+06    -4.34791E+06    -27.3769E-03     53.7239E-03    -26.3470E-03     68.2980E-03    -27.4700E-03     53.6677E-03    -26.3084E-03     68.1076E-03
             743     13.1497E-03     82.0245E-03    -8.70151E+06    -20.5114E+06    -9.58817E+06    -3.64438E+06    -27.5858E-03     53.8867E-03    -26.3008E-03     74.0310E-03    -27.7552E-03     53.9801E-03    -26.3064E-03     73.8220E-03
             744     14.0265E-03     82.0968E-03    -8.93653E+06     11.7868E+06    -12.4976E+06    -3.35962E+06    -27.7412E-03     53.9768E-03    -26.2356E-03     84.9406E-03    -28.0717E-03     54.3537E-03    -26.3022E-03     84.7121E-03
             745     14.9029E-03     82.1871E-03    -7.75223E+06     65.3385E+06    -17.3542E+06    -2.41189E+06    -27.6466E-03     53.7563E-03    -26.1097E-03     100.260E-03    -28.3317E-03     54.6962E-03    -26.2800E-03     100.059E-03
             746     15.7827E-03     82.2854E-03    -4.99035E+06     130.498E+06     15.7684E+06     798.891E+03    -27.0470E-03     53.1643E-03    -26.1173E-03     117.962E-03    -28.4254E-03     54.9425E-03    -26.2205E-03     118.073E-03
             747     16.6552E-03     82.4188E-03    -3.00526E+06     154.417E+06     70.0443E+06     2.23201E+06    -27.3671E-03     53.6801E-03    -26.3130E-03     65.5613E-03    -28.5087E-03     55.1562E-03    -26.1823E-03     65.8270E-03
             748     876.456E-06     82.4954E-03    -31.9151E+06    -104.016E+06    -31.3111E+06    -517.512E+03    -26.4545E-03     52.8982E-03    -26.4437E-03     5.67356E-03    -26.4180E-03     52.4699E-03    -26.4031E-03     5.66397E-03
             749     1.75318E-03     82.5031E-03    -30.9629E+06    -102.552E+06    -28.8721E+06    -950.114E+03    -26.4629E-03     52.9162E-03    -26.4532E-03     10.4348E-03    -26.4276E-03     52.4906E-03    -26.4040E-03     10.4171E-03
             750     2.62957E-03     82.5152E-03    -29.4723E+06    -99.8414E+06    -25.2353E+06    -1.46362E+06    -26.4770E-03     52.9374E-03    -26.4604E-03     15.4597E-03    -26.4441E-03     52.5186E-03    -26.3991E-03     15.4322E-03
             751     3.50631E-03     82.5324E-03    -27.5213E+06    -96.3367E+06    -20.8507E+06    -2.21663E+06    -26.5004E-03     52.9673E-03    -26.4669E-03     20.5171E-03    -26.4700E-03     52.5577E-03    -26.3916E-03     20.4762E-03
             752     4.38274E-03     82.5540E-03    -25.2860E+06    -91.8403E+06    -16.4861E+06    -3.07101E+06    -26.5330E-03     53.0027E-03    -26.4697E-03     25.5781E-03    -26.5056E-03     52.6074E-03    -26.3823E-03     25.5219E-03
             753     5.25955E-03     82.5809E-03    -22.8763E+06    -86.3763E+06    -11.9537E+06    -3.74544E+06    -26.5774E-03     53.0480E-03    -26.4706E-03     30.5947E-03    -26.5545E-03     52.6719E-03    -26.3719E-03     30.5244E-03
             754     6.13598E-03     82.6120E-03    -20.5626E+06    -80.5655E+06    -7.84031E+06    -4.37798E+06    -26.6362E-03     53.1048E-03    -26.4686E-03     35.5493E-03    -26.6189E-03     52.7512E-03    -26.3611E-03     35.4643E-03
             755     7.01287E-03     82.6483E-03    -18.4051E+06    -75.1209E+06    -4.48772E+06    -5.08502E+06    -26.7021E-03     53.1654E-03    -26.4633E-03     40.4116E-03    -26.6908E-03     52.8351E-03    -26.3502E-03     40.3094E-03
             756     7.88933E-03     82.6884E-03    -16.2874E+06    -70.8516E+06    -2.53628E+06    -5.49734E+06    -26.7997E-03     53.2533E-03    -26.4536E-03     45.1520E-03    -26.7925E-03     52.9441E-03    -26.3399E-03     45.0346E-03
             757     8.76618E-03     82.7338E-03    -13.9482E+06    -66.1917E+06    -1.27042E+06    -5.45250E+06    -26.9158E-03     53.3575E-03    -26.4417E-03     49.6894E-03    -26.9134E-03     53.0743E-03    -26.3319E-03     49.5605E-03
             758     9.64275E-03     82.7825E-03    -11.8657E+06    -61.4498E+06    -1.03364E+06    -5.67124E+06    -27.0140E-03     53.4402E-03    -26.4262E-03     54.1400E-03    -27.0195E-03     53.1884E-03    -26.3250E-03     53.9939E-03
             759     10.5193E-03     82.8365E-03    -10.4442E+06    -55.7903E+06    -2.53570E+06    -5.56243E+06    -27.1020E-03     53.5027E-03    -26.4008E-03     58.7063E-03    -27.1220E-03     53.2950E-03    -26.3174E-03     58.5448E-03
             760     11.3966E-03     82.8937E-03    -9.48298E+06    -47.6655E+06    -3.69215E+06    -4.91267E+06    -27.2844E-03     53.6609E-03    -26.3764E-03     63.2738E-03    -27.3330E-03     53.5172E-03    -26.3120E-03     63.1001E-03
             761     12.2727E-03     82.9564E-03    -8.98736E+06    -38.2206E+06    -6.70674E+06    -4.46538E+06    -27.5048E-03     53.8526E-03    -26.3478E-03     68.2656E-03    -27.5962E-03     53.7958E-03    -26.3129E-03     68.0729E-03
             762     13.1493E-03     83.0233E-03    -8.91178E+06    -20.9517E+06    -10.6619E+06    -3.88015E+06    -27.7153E-03     54.0241E-03    -26.3088E-03     74.2561E-03    -27.8842E-03     54.1179E-03    -26.3188E-03     74.0435E-03
             763     14.0250E-03     83.0976E-03    -9.34066E+06     11.3223E+06    -14.1433E+06    -2.91714E+06    -27.7329E-03     53.9775E-03    -26.2446E-03     84.3863E-03    -28.0588E-03     54.3514E-03    -26.3182E-03     84.1649E-03
             764     14.9039E-03     83.1830E-03    -11.6425E+06     64.7857E+06    -21.0266E+06    -3.08587E+06    -28.9553E-03     55.1056E-03    -26.1502E-03     100.736E-03    -29.6653E-03     56.0651E-03    -26.3324E-03     100.509E-03
             765     15.7747E-03     83.2910E-03    -12.5091E+06     125.425E+06     5.99852E+06    -2.04940E+06    -28.6720E-03     54.8928E-03    -26.2208E-03     116.045E-03    -30.0634E-03     56.6676E-03    -26.3546E-03     116.094E-03
             766     16.6600E-03     83.4074E-03    -3.97093E+06     152.722E+06     65.6119E+06     680.542E+03    -25.5010E-03     51.9273E-03    -26.4263E-03     67.9350E-03    -26.6378E-03     53.4020E-03    -26.3139E-03     68.2006E-03
             767     876.612E-06     83.4949E-03    -32.1477E+06    -103.035E+06    -31.5660E+06    -561.511E+03    -26.4552E-03     52.8989E-03    -26.4437E-03     5.67985E-03    -26.4209E-03     52.4763E-03    -26.4055E-03     5.66969E-03
             768     1.75302E-03     83.5023E-03    -31.1723E+06    -101.400E+06    -29.0702E+06    -1.18207E+06    -26.4592E-03     52.9119E-03    -26.4527E-03     10.4359E-03    -26.4263E-03     52.4927E-03    -26.4059E-03     10.4151E-03
             769     2.62972E-03     83.5147E-03    -29.6262E+06    -98.5793E+06    -25.6239E+06    -1.92242E+06    -26.4716E-03     52.9289E-03    -26.4573E-03     15.4572E-03    -26.4406E-03     52.5171E-03    -26.3995E-03     15.4237E-03
             770     3.50617E-03     83.5315E-03    -27.7139E+06    -94.7200E+06    -21.4226E+06    -2.75317E+06    -26.4937E-03     52.9551E-03    -26.4614E-03     20.5232E-03    -26.4658E-03     52.5546E-03    -26.3910E-03     20.4755E-03
             771     4.38290E-03     83.5536E-03    -25.5773E+06    -90.1920E+06    -16.8794E+06    -3.68736E+06    -26.5252E-03     52.9897E-03    -26.4644E-03     25.5779E-03    -26.5011E-03     52.6035E-03    -26.3810E-03     25.5137E-03
             772     5.25938E-03     83.5799E-03    -23.2486E+06    -85.0643E+06    -12.5655E+06    -4.49102E+06    -26.5668E-03     53.0308E-03    -26.4640E-03     30.6036E-03    -26.5467E-03     52.6627E-03    -26.3698E-03     30.5237E-03
             773     6.13620E-03     83.6116E-03    -20.7342E+06    -79.2384E+06    -8.37940E+06    -5.06591E+06    -26.6234E-03     53.0844E-03    -26.4610E-03     35.5588E-03    -26.6081E-03     52.7385E-03    -26.3580E-03     35.4649E-03
             774     7.01268E-03     83.6472E-03    -18.3965E+06    -73.8390E+06    -4.88802E+06    -5.54134E+06    -26.6956E-03     53.1513E-03    -26.4557E-03     40.4083E-03    -26.6856E-03     52.8280E-03    -26.3464E-03     40.3001E-03
             775     7.88957E-03     83.6882E-03    -16.2536E+06    -69.7092E+06    -2.79039E+06    -6.20814E+06    -26.7851E-03     53.2313E-03    -26.4462E-03     45.1769E-03    -26.7790E-03     52.9281E-03    -26.3355E-03     45.0503E-03
             776     8.76608E-03     83.7326E-03    -14.0101E+06    -65.6417E+06    -1.95585E+06    -6.71985E+06    -26.9086E-03     53.3411E-03    -26.4325E-03     49.7985E-03    -26.9063E-03     53.0616E-03    -26.3267E-03     49.6534E-03
             777     9.64275E-03     83.7824E-03    -12.0556E+06    -60.9478E+06    -1.67403E+06    -6.55144E+06    -27.0388E-03     53.4572E-03    -26.4184E-03     54.2476E-03    -27.0451E-03     53.2092E-03    -26.3209E-03     54.0901E-03
             778     10.5197E-03     83.8351E-03    -10.4415E+06    -55.8423E+06    -2.78254E+06    -6.20697E+06    -27.1332E-03     53.5313E-03    -26.3980E-03     58.7117E-03    -27.1529E-03     53.3237E-03    -26.3158E-03     58.5417E-03
             779     11.3959E-03     83.8936E-03    -8.88267E+06    -47.8952E+06    -3.87373E+06    -5.78182E+06    -27.2938E-03     53.6686E-03    -26.3747E-03     63.4786E-03    -27.3388E-03     53.5232E-03    -26.3118E-03     63.2938E-03
             780     12.2728E-03     83.9554E-03    -7.50742E+06    -38.8839E+06    -6.67294E+06    -4.96009E+06    -27.4940E-03     53.8396E-03    -26.3456E-03     68.5608E-03    -27.5772E-03     53.7775E-03    -26.3117E-03     68.3618E-03
             781     13.1492E-03     84.0233E-03    -6.96969E+06    -22.1689E+06    -10.7474E+06    -3.95509E+06    -27.5880E-03     53.8880E-03    -26.3000E-03     74.7649E-03    -27.7448E-03     53.9725E-03    -26.3115E-03     74.5531E-03
             782     14.0267E-03     84.0965E-03      -7.336E+06     10.1514E+06    -14.0552E+06    -2.40600E+06    -28.1380E-03     54.3810E-03    -26.2430E-03     85.0395E-03    -28.4563E-03     54.7500E-03    -26.3174E-03     84.8197E-03
             783     14.9007E-03     84.1835E-03    -8.86124E+06     64.0455E+06    -21.8802E+06    -265.356E+03    -28.8513E-03     54.9966E-03    -26.1453E-03     103.700E-03    -29.5541E-03     55.9587E-03    -26.3347E-03     103.514E-03
             784     15.7797E-03     84.2940E-03    -10.0784E+06     126.426E+06      5.9589E+06    -1.31908E+06    -29.4802E-03     55.7072E-03    -26.2270E-03     118.893E-03    -30.8715E-03     57.4941E-03    -26.3659E-03     118.920E-03
             785     16.6481E-03     84.4032E-03    -5.01599E+06     151.894E+06     64.6712E+06    -2.74905E+06    -26.0845E-03     52.5521E-03    -26.4676E-03     68.1198E-03    -27.2317E-03     54.0333E-03    -26.3572E-03     68.3091E-03
             786     876.491E-06     84.4941E-03    -32.3488E+06    -101.771E+06    -31.8292E+06    -730.727E+03    -26.4487E-03     52.8938E-03    -26.4450E-03     5.68237E-03    -26.4169E-03     52.4781E-03    -26.4097E-03     5.67002E-03
             787     1.75314E-03     84.5019E-03    -31.3479E+06    -99.9121E+06    -29.4615E+06    -1.48919E+06    -26.4535E-03     52.9018E-03    -26.4483E-03     10.4350E-03    -26.4231E-03     52.4908E-03    -26.4053E-03     10.4102E-03
             788     2.62960E-03     84.5138E-03    -29.8674E+06    -96.8534E+06    -25.9618E+06    -2.41267E+06    -26.4643E-03     52.9161E-03    -26.4518E-03     15.4611E-03    -26.4366E-03     52.5138E-03    -26.3979E-03     15.4213E-03
             789     3.50628E-03     84.5312E-03    -27.9367E+06    -92.9885E+06    -21.7628E+06    -3.35810E+06    -26.4834E-03     52.9383E-03    -26.4549E-03     20.5240E-03    -26.4586E-03     52.5473E-03    -26.3884E-03     20.4684E-03
             790     4.38280E-03     84.5526E-03    -25.7761E+06    -88.3301E+06    -17.1967E+06    -4.25891E+06    -26.5149E-03     52.9718E-03    -26.4569E-03     25.5868E-03    -26.4940E-03     52.5957E-03    -26.3774E-03     25.5153E-03
             791     5.25953E-03     84.5796E-03    -23.4713E+06    -83.3383E+06    -12.8383E+06    -5.23316E+06    -26.5580E-03     53.0145E-03    -26.4565E-03     30.6079E-03    -26.5412E-03     52.6557E-03    -26.3658E-03     30.5184E-03
             792     6.13607E-03     84.6105E-03    -21.0013E+06    -77.8752E+06    -8.93478E+06    -6.00335E+06    -26.6076E-03     53.0596E-03    -26.4519E-03     35.5721E-03    -26.5948E-03     52.7217E-03    -26.3532E-03     35.4662E-03
             793     7.01289E-03     84.6470E-03    -18.3450E+06    -72.6974E+06    -5.37138E+06    -6.42853E+06    -26.6884E-03     53.1345E-03    -26.4461E-03     40.4472E-03    -26.6790E-03     52.8175E-03    -26.3409E-03     40.3276E-03
             794     7.88941E-03     84.6869E-03    -15.9644E+06    -68.1096E+06    -2.74877E+06    -6.89321E+06    -26.7694E-03     53.2070E-03    -26.4376E-03     45.1859E-03    -26.7642E-03     52.9113E-03    -26.3295E-03     45.0505E-03
             795     8.76629E-03     84.7325E-03    -14.1902E+06    -64.6305E+06    -2.02340E+06    -7.57307E+06    -26.8609E-03     53.2834E-03    -26.4225E-03     49.8408E-03    -26.8608E-03     53.0093E-03    -26.3183E-03     49.6849E-03
             796     9.64303E-03     84.7811E-03    -12.3711E+06    -60.6584E+06    -2.15426E+06    -7.60438E+06    -27.0334E-03     53.4393E-03    -26.4059E-03     54.3501E-03    -27.0409E-03     53.1938E-03    -26.3108E-03     54.1792E-03
             797     10.5193E-03     84.8352E-03    -10.4660E+06    -55.7465E+06    -3.03978E+06    -7.37987E+06    -27.1619E-03     53.5500E-03    -26.3881E-03     58.7780E-03    -27.1817E-03     53.3436E-03    -26.3073E-03     58.5927E-03
             798     11.3965E-03     84.8921E-03    -8.87203E+06    -48.6942E+06    -4.43118E+06    -7.04323E+06    -27.2309E-03     53.5945E-03    -26.3636E-03     63.7602E-03    -27.2739E-03     53.4459E-03    -26.3023E-03     63.5595E-03
             799     12.2730E-03     84.9556E-03    -7.54784E+06    -39.1268E+06    -6.78112E+06    -6.21833E+06    -27.4029E-03     53.7334E-03    -26.3305E-03     68.7851E-03    -27.4858E-03     53.6702E-03    -26.2967E-03     68.5706E-03
             800     13.1499E-03     85.0218E-03    -6.19998E+06    -23.3041E+06    -10.3188E+06    -5.15153E+06    -27.5702E-03     53.8551E-03    -26.2849E-03     74.5466E-03    -27.7222E-03     53.9323E-03    -26.2937E-03     74.3188E-03
             801     14.0260E-03     85.0965E-03    -4.65410E+06     7.31738E+06    -12.7713E+06    -3.19504E+06    -27.9547E-03     54.1802E-03    -26.2255E-03     85.7536E-03    -28.2593E-03     54.5313E-03    -26.2932E-03     85.5252E-03
             802     14.9037E-03     85.1846E-03    -2.76808E+06     60.9518E+06    -18.3478E+06    -395.130E+03    -27.5738E-03     53.6660E-03    -26.0923E-03     103.248E-03    -28.2327E-03     54.5847E-03    -26.2684E-03     103.077E-03
             803     15.7808E-03     85.2896E-03    -727.379E+03     130.452E+06     15.5319E+06     641.989E+03    -28.0976E-03     54.2087E-03    -26.1111E-03     123.008E-03    -29.4812E-03     56.0078E-03    -26.2216E-03     123.088E-03
             804     16.6602E-03     85.4153E-03    -3.46832E+06     153.629E+06     68.4849E+06    -1.26255E+06    -28.0009E-03     54.3414E-03    -26.3406E-03     68.9050E-03    -29.1673E-03     55.8425E-03    -26.2159E-03     69.1016E-03
             805     876.570E-06     85.4937E-03    -32.3190E+06    -100.044E+06    -31.9914E+06    -967.631E+03    -26.4386E-03     52.8829E-03    -26.4443E-03     5.67572E-03    -26.4088E-03     52.4761E-03    -26.4124E-03     5.66032E-03
             806     1.75306E-03     85.5009E-03    -31.4076E+06    -98.0865E+06    -29.6852E+06    -1.89139E+06    -26.4425E-03     52.8833E-03    -26.4408E-03     10.4370E-03    -26.4148E-03     52.4820E-03    -26.4015E-03     10.4070E-03
             807     2.62970E-03     85.5135E-03    -29.9220E+06    -94.8015E+06    -26.0867E+06    -2.88109E+06    -26.4542E-03     52.8973E-03    -26.4431E-03     15.4662E-03    -26.4295E-03     52.5055E-03    -26.3927E-03     15.4204E-03
             808     3.50623E-03     85.5302E-03    -28.0328E+06    -90.9130E+06    -21.8139E+06    -3.98747E+06    -26.4739E-03     52.9201E-03    -26.4462E-03     20.5310E-03    -26.4526E-03     52.5398E-03    -26.3828E-03     20.4674E-03
             809     4.38290E-03     85.5523E-03    -25.7684E+06    -86.3956E+06    -17.3921E+06    -4.97544E+06    -26.5023E-03     52.9493E-03    -26.4471E-03     25.5918E-03    -26.4839E-03     52.5832E-03    -26.3714E-03     25.5110E-03
             810     5.25948E-03     85.5785E-03    -23.4101E+06    -81.2709E+06    -12.8970E+06    -5.90512E+06    -26.5418E-03     52.9878E-03    -26.4461E-03     30.6222E-03    -26.5275E-03     52.6394E-03    -26.3588E-03     30.5241E-03
             811     6.13621E-03     85.6102E-03    -21.0811E+06    -76.1509E+06    -8.98647E+06    -6.84158E+06    -26.5974E-03     53.0391E-03    -26.4417E-03     35.5873E-03    -26.5874E-03     52.7100E-03    -26.3457E-03     35.4706E-03
             812     7.01284E-03     85.6457E-03    -18.6867E+06    -71.4108E+06    -5.77772E+06    -7.55268E+06    -26.6631E-03     53.0973E-03    -26.4342E-03     40.4854E-03    -26.6566E-03     52.7878E-03    -26.3325E-03     40.3514E-03
             813     7.88963E-03     85.6868E-03    -16.1954E+06    -66.9487E+06    -3.22098E+06    -7.83622E+06    -26.7526E-03     53.1769E-03    -26.4243E-03     45.2232E-03    -26.7496E-03     52.8880E-03    -26.3198E-03     45.0757E-03
             814     8.76625E-03     85.7310E-03    -14.0618E+06    -63.1246E+06    -1.94130E+06    -8.09494E+06    -26.8657E-03     53.2770E-03    -26.4113E-03     49.8613E-03    -26.8673E-03     53.0102E-03    -26.3091E-03     49.6985E-03
             815     9.64295E-03     85.7811E-03    -12.3761E+06     -60.078E+06    -2.43033E+06    -8.60675E+06    -26.9601E-03     53.3524E-03    -26.3923E-03     54.4142E-03    -26.9679E-03     53.1101E-03    -26.2994E-03     54.2307E-03
             816     10.5199E-03     85.8339E-03    -10.9044E+06    -55.7180E+06    -3.97531E+06    -8.65363E+06    -27.1130E-03     53.4815E-03    -26.3684E-03     58.8708E-03    -27.1337E-03     53.2771E-03    -26.2917E-03     58.6692E-03
             817     11.3962E-03     85.8920E-03    -9.55875E+06    -48.5411E+06    -5.11401E+06    -8.15713E+06    -27.2615E-03     53.6074E-03    -26.3459E-03     63.6491E-03    -27.3073E-03     53.4618E-03    -26.2872E-03     63.4337E-03
             818     12.2733E-03     85.9541E-03    -8.42252E+06    -39.7078E+06    -7.81047E+06    -7.59723E+06    -27.4048E-03     53.7199E-03    -26.3151E-03     68.7390E-03    -27.4895E-03     53.6564E-03    -26.2843E-03     68.5068E-03
             819     13.1496E-03     86.0222E-03    -7.77352E+06    -24.3407E+06    -11.5758E+06    -6.48934E+06    -27.6220E-03     53.8950E-03    -26.2730E-03     74.5083E-03    -27.7795E-03     53.9721E-03    -26.2843E-03     74.2623E-03
             820     14.0267E-03     86.0950E-03    -6.64843E+06     5.21206E+06    -14.2198E+06    -5.50912E+06    -27.5864E-03     53.7933E-03    -26.2069E-03     85.3083E-03    -27.8924E-03     54.1355E-03    -26.2759E-03     85.0542E-03
             821     14.9036E-03     86.1838E-03    -4.55896E+06     57.9167E+06    -18.2970E+06    -4.46568E+06    -27.6853E-03     53.7660E-03    -26.0807E-03     100.431E-03    -28.3442E-03     54.6674E-03    -26.2495E-03     100.204E-03
             822     15.7836E-03     86.2854E-03    -2.78079E+06     127.469E+06     15.1239E+06    -952.834E+03    -27.0298E-03     53.1158E-03    -26.0860E-03     117.852E-03    -28.3889E-03     54.8737E-03    -26.1912E-03     117.945E-03
             823     16.6622E-03     86.4144E-03    -3.05140E+06     153.497E+06     68.5328E+06     2.08596E+06    -27.4335E-03     53.7138E-03    -26.2803E-03     65.9075E-03    -28.5659E-03     55.1816E-03    -26.1558E-03     66.1758E-03
             824     876.524E-06     86.4928E-03    -32.1644E+06    -97.8663E+06    -31.7643E+06    -1.28899E+06    -26.4288E-03     52.8602E-03    -26.4314E-03     5.66605E-03    -26.4018E-03     52.4637E-03    -26.4017E-03     5.64649E-03
             825     1.75313E-03     86.5006E-03    -31.1925E+06    -95.8164E+06    -29.4238E+06    -2.29991E+06    -26.4319E-03     52.8617E-03    -26.4298E-03     10.4426E-03    -26.4067E-03     52.4710E-03    -26.3928E-03     10.4074E-03
             826     2.62967E-03     86.5125E-03    -29.6548E+06    -92.4713E+06    -25.9968E+06    -3.47068E+06    -26.4427E-03     52.8739E-03    -26.4311E-03     15.4686E-03    -26.4203E-03     52.4932E-03    -26.3840E-03     15.4152E-03
             827     3.50630E-03     86.5298E-03    -27.7127E+06    -88.5051E+06    -21.6626E+06    -4.59455E+06    -26.4614E-03     52.8954E-03    -26.4341E-03     20.5340E-03    -26.4421E-03     52.5264E-03    -26.3739E-03     20.4625E-03
             828     4.38289E-03     86.5513E-03    -25.5261E+06    -84.1457E+06    -17.1967E+06     -5.7636E+06    -26.4861E-03     52.9210E-03    -26.4349E-03     25.6003E-03    -26.4701E-03     52.5655E-03    -26.3619E-03     25.5093E-03
             829     5.25958E-03     86.5781E-03    -23.1110E+06    -79.2775E+06    -12.8204E+06    -6.65852E+06    -26.5213E-03     52.9538E-03    -26.4325E-03     30.6332E-03    -26.5086E-03     52.6147E-03    -26.3481E-03     30.5254E-03
             830     6.13625E-03     86.6091E-03    -20.7597E+06    -74.1138E+06    -8.70982E+06    -7.44199E+06    -26.5788E-03     53.0067E-03    -26.4280E-03     35.6184E-03    -26.5705E-03     52.6870E-03    -26.3339E-03     35.4940E-03
             831     7.01294E-03     86.6454E-03    -18.5434E+06    -69.5415E+06    -5.62138E+06    -8.38879E+06    -26.6371E-03     53.0564E-03    -26.4192E-03     40.5021E-03    -26.6329E-03     52.7558E-03    -26.3196E-03     40.3574E-03
             832     7.88969E-03     86.6854E-03    -16.2591E+06    -66.0167E+06    -3.71432E+06    -8.96018E+06    -26.7280E-03     53.1344E-03    -26.4064E-03     45.2965E-03    -26.7258E-03     52.8509E-03    -26.3057E-03     45.1347E-03
             833     8.76643E-03     86.7310E-03    -13.8921E+06    -61.8352E+06    -2.39757E+06    -9.09053E+06    -26.8565E-03     53.2488E-03    -26.3923E-03     49.9808E-03    -26.8584E-03     52.9889E-03    -26.2945E-03     49.8053E-03
             834     9.64314E-03     86.7796E-03    -11.9997E+06    -58.8671E+06    -2.44594E+06    -9.34300E+06    -26.9294E-03     53.3042E-03    -26.3748E-03     54.4186E-03    -26.9372E-03     53.0675E-03    -26.2843E-03     54.2257E-03
             835     10.5199E-03     86.8335E-03    -10.6971E+06    -55.3757E+06    -4.31489E+06    -9.46507E+06    -27.0771E-03     53.4262E-03    -26.3491E-03     59.0011E-03    -27.0966E-03     53.2236E-03    -26.2749E-03     58.7895E-03
             836     11.3968E-03     86.8911E-03    -9.49286E+06    -48.1024E+06    -5.68046E+06    -9.18816E+06    -27.3263E-03     53.6538E-03    -26.3274E-03     63.7670E-03    -27.3719E-03     53.5113E-03    -26.2723E-03     63.5380E-03
             837     12.2730E-03     86.9537E-03    -8.48944E+06    -40.4650E+06     -8.8204E+06    -8.58907E+06    -27.4508E-03     53.7518E-03    -26.3010E-03     68.8501E-03    -27.5334E-03     53.6862E-03    -26.2741E-03     68.6049E-03
             838     13.1501E-03     87.0212E-03    -7.53600E+06    -25.5165E+06    -12.8532E+06    -7.54269E+06    -27.5618E-03     53.8192E-03    -26.2574E-03     74.7560E-03    -27.7139E-03     53.8913E-03    -26.2738E-03     74.4979E-03
             839     14.0261E-03     87.0950E-03    -8.10741E+06     4.42209E+06    -16.6966E+06    -6.17098E+06    -27.7633E-03     53.9549E-03    -26.1917E-03     84.7970E-03    -28.0706E-03     54.2976E-03    -26.2698E-03     84.5337E-03
             840     14.9039E-03     87.1811E-03    -10.7517E+06     56.9095E+06    -23.8969E+06    -5.21806E+06    -28.9702E-03     55.0694E-03    -26.0992E-03     101.462E-03    -29.6631E-03     55.9954E-03    -26.2856E-03     101.209E-03
             841     15.7751E-03     87.2886E-03    -12.2129E+06     121.096E+06     3.38523E+06    -2.64037E+06    -29.0771E-03     55.2570E-03    -26.1799E-03     115.668E-03    -30.4515E-03     57.0081E-03    -26.3208E-03     115.695E-03
             842     16.6544E-03     87.4034E-03    -4.96669E+06     150.787E+06     63.1346E+06     719.476E+03    -25.6779E-03     52.0817E-03    -26.4038E-03     66.8938E-03    -26.8053E-03     53.5439E-03    -26.2996E-03     67.1442E-03
             843     876.582E-06     87.4924E-03    -31.4586E+06    -95.1744E+06    -30.9531E+06    -1.51681E+06    -26.4172E-03     52.8287E-03    -26.4115E-03     5.66530E-03    -26.3917E-03     52.4434E-03    -26.3826E-03     5.64280E-03
             844     1.75312E-03     87.4996E-03    -30.4604E+06    -93.1232E+06    -28.8191E+06    -2.75453E+06    -26.4231E-03     52.8378E-03    -26.4147E-03     10.4403E-03    -26.3990E-03     52.4586E-03    -26.3796E-03     10.3992E-03
             845     2.62973E-03     87.5121E-03    -29.0422E+06    -89.7261E+06    -25.5476E+06    -4.03064E+06    -26.4283E-03     52.8449E-03    -26.4166E-03     15.4717E-03    -26.4074E-03     52.4764E-03    -26.3721E-03     15.4110E-03
             846     3.50632E-03     87.5288E-03    -27.1847E+06    -85.9506E+06    -21.3518E+06    -5.27143E+06    -26.4401E-03     52.8584E-03    -26.4182E-03     20.5407E-03    -26.4224E-03     52.5009E-03    -26.3609E-03     20.4604E-03
             847     4.38298E-03     87.5508E-03    -25.0441E+06    -81.5432E+06    -16.7934E+06    -6.42495E+06    -26.4639E-03     52.8820E-03    -26.4181E-03     25.6092E-03    -26.4498E-03     52.5382E-03    -26.3475E-03     25.5097E-03
             848     5.25964E-03     87.5771E-03    -22.7684E+06    -77.1941E+06    -12.5759E+06    -7.46308E+06    -26.5013E-03     52.9163E-03    -26.4150E-03     30.6488E-03    -26.4902E-03     52.5867E-03    -26.3329E-03     30.5306E-03
             849     6.13634E-03     87.6086E-03    -20.2758E+06    -72.0753E+06    -8.66237E+06    -8.23676E+06    -26.5409E-03     52.9485E-03    -26.4076E-03     35.6461E-03    -26.5332E-03     52.6381E-03    -26.3170E-03     35.5115E-03
             850     7.01312E-03     87.6443E-03    -17.8960E+06    -67.4076E+06    -5.36450E+06    -9.01274E+06    -26.6081E-03     53.0056E-03    -26.3974E-03     40.5384E-03    -26.6041E-03     52.7143E-03    -26.3006E-03     40.3858E-03
             851     7.88982E-03     87.6850E-03    -15.7917E+06    -64.3571E+06    -3.47382E+06    -9.90515E+06    -26.6994E-03     53.0837E-03    -26.3843E-03     45.3783E-03    -26.6977E-03     52.8075E-03    -26.2854E-03     45.2044E-03
             852     8.76662E-03     87.7297E-03    -13.7718E+06    -60.8867E+06    -2.82421E+06    -10.2900E+06    -26.7970E-03     53.1629E-03    -26.3659E-03     50.0737E-03    -26.7990E-03     52.9080E-03    -26.2718E-03     49.8831E-03
             853     9.64340E-03     87.7794E-03    -11.7848E+06    -57.7618E+06    -2.65226E+06    -10.3395E+06    -26.9361E-03     53.2846E-03    -26.3485E-03     54.5073E-03    -26.9441E-03     53.0534E-03    -26.2609E-03     54.3016E-03
             854     10.5201E-03     87.8322E-03    -9.87598E+06    -54.2974E+06    -3.88300E+06    -10.4707E+06    -27.0687E-03     53.3953E-03    -26.3266E-03     59.1986E-03    -27.0862E-03     53.1963E-03    -26.2530E-03     58.9742E-03
             855     11.3968E-03     87.8908E-03    -8.41813E+06    -48.1616E+06    -5.71090E+06    -10.2568E+06    -27.2444E-03     53.5457E-03    -26.3013E-03     64.1089E-03    -27.2841E-03     53.4012E-03    -26.2478E-03     63.8670E-03
             856     12.2736E-03     87.9530E-03    -7.22184E+06    -40.8196E+06    -8.64777E+06    -9.61794E+06    -27.4149E-03     53.6873E-03    -26.2724E-03     69.1306E-03    -27.4911E-03     53.6180E-03    -26.2460E-03     68.8725E-03
             857     13.1499E-03     88.0205E-03    -6.50431E+06    -26.4824E+06    -12.8173E+06    -8.66792E+06    -27.5098E-03     53.7367E-03    -26.2269E-03     75.2632E-03    -27.6549E-03     53.8019E-03    -26.2432E-03     74.9918E-03
             858     14.0274E-03     88.0943E-03    -5.76406E+06     2.05526E+06    -16.3002E+06    -6.38074E+06    -27.9872E-03     54.1550E-03    -26.1678E-03     85.6122E-03    -28.2829E-03     54.4848E-03    -26.2439E-03     85.3437E-03
             859     14.9025E-03     88.1814E-03    -6.36328E+06     53.9607E+06    -25.0077E+06    -1.98415E+06    -28.6411E-03     54.6983E-03    -26.0572E-03     104.558E-03    -29.3087E-03     55.6074E-03    -26.2513E-03     104.354E-03
             860     15.7813E-03     88.2917E-03    -8.00560E+06     121.494E+06     2.87618E+06    -1.03663E+06    -29.8681E-03     56.0023E-03    -26.1342E-03     121.763E-03    -31.2595E-03     57.7882E-03    -26.2843E-03     121.789E-03
             861     16.6515E-03     88.4049E-03    -5.29020E+06     150.306E+06     62.2356E+06    -2.30331E+06    -26.7035E-03     53.1021E-03    -26.3985E-03     68.8878E-03    -27.8662E-03     54.5992E-03    -26.2976E-03     69.0716E-03
             862     876.567E-06     88.4914E-03    -30.3531E+06    -91.9392E+06    -30.0937E+06    -1.74849E+06    -26.4020E-03     52.7951E-03    -26.3931E-03     5.66992E-03    -26.3769E-03     52.4232E-03    -26.3663E-03     5.64443E-03
             863     1.75317E-03     88.4992E-03    -29.5660E+06    -89.9838E+06    -27.9806E+06    -3.15719E+06    -26.4033E-03     52.8002E-03    -26.3969E-03     10.4409E-03    -26.3805E-03     52.4342E-03    -26.3635E-03     10.3946E-03
             864     2.62975E-03     88.5111E-03    -28.1845E+06    -86.7341E+06    -24.7615E+06    -4.53887E+06    -26.4041E-03     52.8014E-03    -26.3973E-03     15.4746E-03    -26.3844E-03     52.4456E-03    -26.3545E-03     15.4074E-03
             865     3.50640E-03     88.5283E-03    -26.4546E+06    -83.0638E+06    -20.7588E+06    -5.86626E+06    -26.4140E-03     52.8108E-03    -26.3967E-03     20.5507E-03    -26.3977E-03     52.4658E-03    -26.3417E-03     20.4628E-03
             866     4.38305E-03     88.5498E-03    -24.4296E+06    -78.9133E+06    -16.4586E+06    -7.05153E+06    -26.4357E-03     52.8302E-03    -26.3945E-03     25.6254E-03    -26.4228E-03     52.4981E-03    -26.3270E-03     25.5180E-03
             867     5.25976E-03     88.5765E-03    -22.1922E+06    -74.6228E+06    -12.2000E+06    -8.17923E+06    -26.4659E-03     52.8560E-03    -26.3901E-03     30.6763E-03    -26.4562E-03     52.5379E-03    -26.3107E-03     30.5490E-03
             868     6.13650E-03     88.6075E-03    -19.8299E+06    -69.9363E+06    -8.52224E+06    -9.22308E+06    -26.5018E-03     52.8821E-03    -26.3803E-03     35.6726E-03    -26.4952E-03     52.5816E-03    -26.2928E-03     35.5254E-03
             869     7.01326E-03     88.6437E-03    -17.3674E+06    -65.4323E+06    -5.23158E+06    -9.88551E+06    -26.5680E-03     52.9363E-03    -26.3683E-03     40.6070E-03    -26.5643E-03     52.6539E-03    -26.2744E-03     40.4433E-03
             870     7.89008E-03     88.6839E-03    -15.1690E+06    -62.1512E+06    -2.96436E+06    -10.6043E+06    -26.6541E-03     53.0088E-03    -26.3547E-03     45.4247E-03    -26.6531E-03     52.7419E-03    -26.2574E-03     45.2420E-03
             871     8.76687E-03     88.7291E-03    -13.2343E+06    -59.6123E+06    -2.43707E+06    -11.2833E+06    -26.7303E-03     53.0646E-03    -26.3343E-03     50.1576E-03    -26.7319E-03     52.8147E-03    -26.2409E-03     49.9545E-03
             872     9.64371E-03     88.7781E-03    -11.3402E+06    -56.8461E+06    -2.68372E+06    -11.5648E+06    -26.8793E-03     53.1915E-03    -26.3122E-03     54.7400E-03    -26.8861E-03     52.9641E-03    -26.2268E-03     54.5190E-03
             873     10.5205E-03     88.8318E-03    -9.78418E+06    -53.0610E+06    -3.75070E+06    -11.6461E+06    -27.0421E-03     53.3322E-03    -26.2901E-03     59.3583E-03    -27.0612E-03     53.1390E-03    -26.2177E-03     59.1189E-03
             874     11.3973E-03     88.8895E-03    -8.36135E+06    -48.0725E+06    -5.56751E+06    -11.4900E+06    -27.1111E-03     53.3740E-03    -26.2629E-03     64.3409E-03    -27.1506E-03     53.2293E-03    -26.2089E-03     64.0840E-03
             875     12.2741E-03     88.9526E-03    -7.18929E+06    -41.0922E+06    -8.61088E+06    -10.8553E+06    -27.3252E-03     53.5534E-03    -26.2282E-03     69.3664E-03    -27.4006E-03     53.4823E-03    -26.2012E-03     69.0933E-03
             876     13.1513E-03     89.0194E-03    -6.37225E+06    -27.3249E+06    -12.4378E+06    -9.77282E+06    -27.5283E-03     53.7137E-03    -26.1854E-03     75.1286E-03    -27.6720E-03     53.7739E-03    -26.1988E-03     74.8424E-03
             877     14.0275E-03     89.0937E-03    -5.42396E+06    -1.07370E+06    -16.1959E+06    -7.94946E+06    -27.9115E-03     54.0399E-03    -26.1284E-03     86.0171E-03    -28.2018E-03     54.3541E-03    -26.2000E-03     85.7286E-03
             878     14.9052E-03     89.1815E-03    -3.30699E+06     47.9027E+06    -22.5270E+06    -3.80349E+06    -27.6249E-03     53.6277E-03    -26.0028E-03     102.835E-03    -28.2586E-03     54.4851E-03    -26.1801E-03     102.620E-03
             879     15.7832E-03     89.2873E-03    -602.440E+03     121.918E+06     10.7282E+06     214.265E+03    -27.4590E-03     53.4589E-03    -26.0000E-03     122.808E-03    -28.8244E-03     55.2239E-03    -26.1222E-03     122.906E-03
             880     16.6624E-03     89.4148E-03    -2.95724E+06     152.323E+06     65.5258E+06    -141.959E+03    -28.3202E-03     54.5433E-03    -26.2230E-03     68.3126E-03    -29.4784E-03     56.0418E-03    -26.1120E-03     68.5355E-03
             881     876.601E-06     89.4910E-03    -29.5660E+06    -88.2413E+06    -28.9931E+06    -1.96455E+06    -26.3772E-03     52.7462E-03    -26.3690E-03     5.68497E-03    -26.3552E-03     52.3901E-03    -26.3432E-03     5.65671E-03
             882     1.75319E-03     89.4982E-03    -28.5364E+06    -86.4912E+06    -26.8278E+06    -3.49822E+06    -26.3716E-03     52.7437E-03    -26.3721E-03     10.4445E-03    -26.3504E-03     52.3920E-03    -26.3395E-03     10.3939E-03
             883     2.62984E-03     89.5106E-03    -27.1536E+06    -83.3849E+06    -23.7417E+06    -5.06255E+06    -26.3713E-03     52.7410E-03    -26.3696E-03     15.4830E-03    -26.3528E-03     52.3989E-03    -26.3281E-03     15.4091E-03
             884     3.50648E-03     89.5273E-03    -25.3590E+06    -79.9930E+06    -19.9012E+06    -6.43158E+06    -26.3794E-03     52.7463E-03    -26.3669E-03     20.5651E-03    -26.3632E-03     52.4138E-03    -26.3137E-03     20.4700E-03
             885     4.38319E-03     89.5492E-03    -23.3312E+06    -76.0459E+06    -15.6997E+06    -7.66049E+06    -26.3942E-03     52.7567E-03    -26.3625E-03     25.6569E-03    -26.3811E-03     52.4363E-03    -26.2969E-03     25.5417E-03
             886     5.25992E-03     89.5755E-03    -21.1602E+06    -71.8142E+06    -11.5457E+06    -8.87638E+06    -26.4173E-03     52.7724E-03    -26.3551E-03     30.7126E-03    -26.4074E-03     52.4660E-03    -26.2780E-03     30.5765E-03
             887     6.13670E-03     89.6069E-03    -18.9631E+06    -67.4118E+06    -7.77424E+06    -9.95575E+06    -26.4590E-03     52.8035E-03    -26.3445E-03     35.7273E-03    -26.4528E-03     52.5131E-03    -26.2581E-03     35.5708E-03
             888     7.01352E-03     89.6425E-03    -16.7373E+06    -63.3868E+06    -4.77025E+06    -10.8546E+06    -26.5146E-03     52.8449E-03    -26.3303E-03     40.6959E-03    -26.5114E-03     52.5711E-03    -26.2380E-03     40.5200E-03
             889     7.89033E-03     89.6832E-03    -14.5050E+06    -60.0998E+06    -2.52474E+06    -11.3539E+06    -26.5856E-03     52.8993E-03    -26.3137E-03     45.5392E-03    -26.5848E-03     52.6410E-03    -26.2181E-03     45.3472E-03
             890     8.76722E-03     89.7278E-03    -12.6325E+06    -57.8171E+06    -1.83633E+06    -12.0599E+06    -26.6737E-03     52.9657E-03    -26.2920E-03     50.2368E-03    -26.6757E-03     52.7229E-03    -26.1991E-03     50.0240E-03
             891     9.64421E-03     89.7774E-03    -10.9932E+06    -55.7521E+06    -2.40120E+06    -12.5751E+06    -26.7979E-03     53.0650E-03    -26.2670E-03     54.9213E-03    -26.8049E-03     52.8419E-03    -26.1822E-03     54.6879E-03
             892     10.5210E-03     89.8308E-03    -9.58596E+06    -51.8877E+06    -3.59110E+06    -12.5885E+06    -26.9843E-03     53.2262E-03    -26.2419E-03     59.5113E-03    -27.0042E-03     53.0382E-03    -26.1707E-03     59.2603E-03
             893     11.3978E-03     89.8887E-03    -8.58908E+06    -47.4958E+06    -5.62239E+06    -12.6265E+06    -27.1319E-03     53.3492E-03    -26.2173E-03     64.2197E-03    -27.1735E-03     53.2080E-03    -26.1641E-03     63.9479E-03
             894     12.2750E-03     89.9512E-03    -7.50993E+06    -41.4675E+06    -9.19648E+06    -12.0881E+06    -27.2800E-03     53.4640E-03    -26.1841E-03     69.4056E-03    -27.3550E-03     53.3919E-03    -26.1590E-03     69.1173E-03
             895     13.1510E-03     90.0195E-03    -6.64584E+06    -27.9524E+06    -12.9545E+06    -10.9387E+06    -27.6305E-03     53.7770E-03    -26.1465E-03     75.1490E-03    -27.7750E-03     53.8363E-03    -26.1611E-03     74.8467E-03
             896     14.0283E-03     90.0920E-03    -6.27935E+06    -3.19622E+06    -17.3460E+06    -9.43859E+06    -27.9386E-03     54.0348E-03    -26.0962E-03     85.7419E-03    -28.2284E-03     54.3413E-03    -26.1692E-03     85.4345E-03
             897     14.9041E-03     90.1817E-03    -6.62295E+06     43.0331E+06    -24.8140E+06    -7.27801E+06    -28.2852E-03     54.2832E-03    -25.9980E-03     100.790E-03    -28.9278E-03     55.1270E-03    -26.1749E-03     100.521E-03
             898     15.7821E-03     90.2826E-03    -5.54800E+06     115.599E+06     5.49866E+06    -2.29674E+06    -27.2144E-03     53.2253E-03    -26.0108E-03     116.849E-03    -28.5490E-03     54.9344E-03    -26.1429E-03     116.926E-03
             899     16.6642E-03     90.4099E-03    -2.56819E+06     151.520E+06     63.7908E+06     1.92268E+06    -27.2400E-03     53.4557E-03    -26.2157E-03     66.5027E-03    -28.3569E-03     54.9165E-03    -26.1127E-03     66.7765E-03
             900     876.613E-06     90.4900E-03    -28.1424E+06    -84.1610E+06    -27.7128E+06    -2.09908E+06    -26.3338E-03     52.6692E-03    -26.3354E-03     5.68833E-03    -26.3124E-03     52.3295E-03    -26.3111E-03     5.65837E-03
             901     1.75327E-03     90.4977E-03    -27.2576E+06    -82.6118E+06    -25.5235E+06    -3.89697E+06    -26.3312E-03     52.6645E-03    -26.3334E-03     10.4533E-03    -26.3111E-03     52.3285E-03    -26.3017E-03     10.3975E-03
             902     2.62992E-03     90.5096E-03    -25.8221E+06    -79.6720E+06    -22.4884E+06    -5.54319E+06    -26.3282E-03     52.6580E-03    -26.3298E-03     15.4978E-03    -26.3102E-03     52.3307E-03    -26.2893E-03     15.4178E-03
             903     3.50663E-03     90.5267E-03    -24.0664E+06    -76.6507E+06    -18.7173E+06    -7.09467E+06    -26.3292E-03     52.6546E-03    -26.3255E-03     20.5889E-03    -26.3131E-03     52.3353E-03    -26.2730E-03     20.4854E-03
             904     4.38337E-03     90.5482E-03    -21.9566E+06    -72.9994E+06    -14.6925E+06    -8.38340E+06    -26.3354E-03     52.6530E-03    -26.3176E-03     25.6905E-03    -26.3213E-03     52.3444E-03    -26.2534E-03     25.5661E-03
             905     5.26016E-03     90.5748E-03    -19.7989E+06    -68.8850E+06    -10.5310E+06    -9.50253E+06    -26.3550E-03     52.6624E-03    -26.3073E-03     30.7668E-03    -26.3440E-03     52.3671E-03    -26.2314E-03     30.6228E-03
             906     6.13700E-03     90.6057E-03    -17.6590E+06    -64.7001E+06    -6.79710E+06    -10.5844E+06    -26.3946E-03     52.6887E-03    -26.2942E-03     35.8176E-03    -26.3871E-03     52.4086E-03    -26.2087E-03     35.6533E-03
             907     7.01384E-03     90.6418E-03    -15.6156E+06    -61.0337E+06    -3.89228E+06    -11.5104E+06    -26.4336E-03     52.7107E-03    -26.2771E-03     40.7936E-03    -26.4294E-03     52.4457E-03    -26.1854E-03     40.6096E-03
             908     7.89083E-03     90.6819E-03    -13.6036E+06    -58.3239E+06    -2.00319E+06    -12.2131E+06    -26.4989E-03     52.7549E-03    -26.2559E-03     45.6984E-03    -26.4969E-03     52.5032E-03    -26.1616E-03     45.4959E-03
             909     8.76776E-03     90.7271E-03    -11.7268E+06    -55.5650E+06    -1.19201E+06    -12.6617E+06    -26.6355E-03     52.8684E-03    -26.2330E-03     50.4453E-03    -26.6371E-03     52.6346E-03    -26.1413E-03     50.2252E-03
             910     9.64455E-03     90.7760E-03    -10.2506E+06    -54.0807E+06    -1.73451E+06    -13.2367E+06    -26.7476E-03     52.9575E-03    -26.2099E-03     55.0707E-03    -26.7542E-03     52.7408E-03    -26.1253E-03     54.8291E-03
             911     10.5217E-03     90.8299E-03    -8.95846E+06    -51.5029E+06    -3.64026E+06    -13.4559E+06    -26.9108E-03     53.0931E-03    -26.1822E-03     59.8151E-03    -26.9277E-03     52.9059E-03    -26.1128E-03     59.5538E-03
             912     11.3984E-03     90.8877E-03    -7.91247E+06    -46.2464E+06    -5.35099E+06    -13.2609E+06    -27.2185E-03     53.3801E-03    -26.1617E-03     64.5905E-03    -27.2592E-03     53.2441E-03    -26.1099E-03     64.3104E-03
             913     12.2747E-03     90.9504E-03    -7.32449E+06    -41.2306E+06    -9.27150E+06    -13.0690E+06    -27.3952E-03     53.5345E-03    -26.1393E-03     69.5663E-03    -27.4700E-03     53.4638E-03    -26.1152E-03     69.2648E-03
             914     13.1527E-03     91.0179E-03    -6.85869E+06    -29.5163E+06    -13.8877E+06    -12.0852E+06    -27.7040E-03     53.8129E-03    -26.1089E-03     75.6760E-03    -27.8462E-03     53.8662E-03    -26.1256E-03     75.3594E-03
             915     14.0277E-03     91.0931E-03    -7.36440E+06    -4.67774E+06    -18.3808E+06    -10.0637E+06    -28.2128E-03     54.2844E-03    -26.0717E-03     85.6914E-03    -28.5043E-03     54.5865E-03    -26.1461E-03     85.3744E-03
             916     14.9057E-03     91.1788E-03    -8.63709E+06     40.2987E+06    -27.4179E+06    -7.25285E+06    -29.4843E-03     55.4952E-03    -26.0109E-03     102.086E-03    -30.1402E-03     56.3430E-03    -26.1939E-03     101.802E-03
             917     15.7780E-03     91.2875E-03    -10.2269E+06     108.283E+06    -4.97609E+06    -3.16381E+06    -29.9902E-03     56.0932E-03    -26.1030E-03     115.933E-03    -31.3253E-03     57.7907E-03    -26.2700E-03     115.926E-03
             918     16.6512E-03     91.4000E-03    -4.43312E+06     148.704E+06     57.5890E+06     120.882E+03    -25.9118E-03     52.2710E-03    -26.3592E-03     68.3806E-03    -27.0340E-03     53.7385E-03    -26.2804E-03     68.6107E-03
             919     876.681E-06     91.4894E-03    -26.3014E+06    -79.7114E+06    -25.9733E+06    -2.34039E+06    -26.2779E-03     52.5612E-03    -26.2834E-03     5.68132E-03    -26.2563E-03     52.2386E-03    -26.2595E-03     5.64827E-03
             920     1.75335E-03     91.4967E-03    -25.4495E+06      -78.24E+06    -23.9068E+06    -4.22948E+06    -26.2730E-03     52.5508E-03    -26.2777E-03     10.4708E-03    -26.2526E-03     52.2316E-03    -26.2469E-03     10.4108E-03
             921     2.63008E-03     91.5089E-03    -24.1105E+06    -75.7283E+06    -20.8532E+06    -6.10096E+06    -26.2678E-03     52.5411E-03    -26.2733E-03     15.5219E-03    -26.2493E-03     52.2287E-03    -26.2328E-03     15.4348E-03
             922     3.50682E-03     91.5256E-03    -22.3589E+06    -72.9109E+06    -17.1486E+06    -7.68525E+06    -26.2613E-03     52.5281E-03    -26.2669E-03     20.6246E-03    -26.2444E-03     52.2227E-03    -26.2145E-03     20.5136E-03
             923     4.38363E-03     91.5473E-03    -20.4229E+06    -69.7380E+06    -13.3174E+06    -9.15695E+06    -26.2579E-03     52.5138E-03    -26.2559E-03     25.7383E-03    -26.2428E-03     52.2172E-03    -26.1918E-03     25.6041E-03
             924     5.26050E-03     91.5736E-03    -18.1710E+06    -65.9567E+06    -9.44918E+06    -10.2881E+06    -26.2694E-03     52.5102E-03    -26.2408E-03     30.8525E-03    -26.2560E-03     52.2256E-03    -26.1661E-03     30.6987E-03
             925     6.13740E-03     91.6048E-03    -15.9996E+06    -62.0210E+06    -5.68037E+06    -11.1818E+06    -26.2925E-03     52.5161E-03    -26.2235E-03     35.9323E-03    -26.2822E-03     52.2452E-03    -26.1388E-03     35.7608E-03
             926     7.01440E-03     91.6404E-03    -13.9311E+06    -58.4545E+06    -2.68337E+06    -12.1153E+06    -26.3374E-03     52.5401E-03    -26.2027E-03     40.9312E-03    -26.3301E-03     52.2836E-03    -26.1111E-03     40.7398E-03
             927     7.89138E-03     91.6809E-03    -12.0352E+06    -56.2512E+06    -907.227E+03    -12.9053E+06    -26.4141E-03     52.5933E-03    -26.1793E-03     45.8618E-03    -26.4086E-03     52.3481E-03    -26.0848E-03     45.6508E-03
             928     8.76844E-03     91.7256E-03    -10.1850E+06    -53.8434E+06    -246.115E+03    -13.3752E+06    -26.5280E-03     52.6813E-03    -26.1533E-03     50.7374E-03    -26.5255E-03     52.4522E-03    -26.0617E-03     50.5089E-03
             929     9.64547E-03     91.7752E-03    -8.66441E+06    -52.0410E+06    -550.091E+03    -13.7573E+06    -26.7018E-03     52.8317E-03    -26.1300E-03     55.4045E-03    -26.7049E-03     52.6210E-03    -26.0447E-03     55.1569E-03
             930     10.5223E-03     91.8282E-03    -7.60778E+06    -50.4415E+06    -2.44166E+06    -14.0285E+06    -26.8859E-03     52.9926E-03    -26.1067E-03     60.2094E-03    -26.8993E-03     52.8070E-03    -26.0347E-03     59.9413E-03
             931     11.3995E-03     91.8872E-03    -6.72130E+06    -45.5306E+06    -4.44172E+06    -13.8967E+06    -27.1617E-03     53.2486E-03    -26.0869E-03     65.1603E-03    -27.1983E-03     53.1126E-03    -26.0333E-03     64.8734E-03
             932     12.2763E-03     91.9495E-03    -6.22928E+06    -40.6106E+06    -7.98300E+06    -13.4866E+06    -27.5866E-03     53.6616E-03    -26.0750E-03     70.1101E-03    -27.6593E-03     53.5912E-03    -26.0470E-03     69.8025E-03
             933     13.1516E-03     92.0173E-03    -6.07977E+06    -30.7143E+06    -13.4041E+06    -12.9615E+06    -27.8344E-03     53.8918E-03    -26.0574E-03     76.3354E-03    -27.9715E-03     53.9371E-03    -26.0711E-03     76.0076E-03
             934     14.0297E-03     92.0922E-03    -5.62956E+06    -7.27313E+06    -17.8910E+06    -10.4363E+06    -28.3778E-03     54.4085E-03    -26.0307E-03     86.7068E-03    -28.6582E-03     54.6950E-03    -26.1014E-03     86.3840E-03
             935     14.9036E-03     92.1799E-03    -6.57271E+06     35.4321E+06    -27.6626E+06    -5.32724E+06    -29.2621E-03     55.2256E-03    -25.9635E-03     104.964E-03    -29.9036E-03     56.0497E-03    -26.1436E-03     104.709E-03
             936     15.7810E-03     92.2894E-03    -7.56221E+06     106.783E+06    -4.24879E+06    -2.61428E+06    -30.3805E-03     56.4275E-03    -26.0471E-03     121.871E-03    -31.7444E-03     58.1561E-03    -26.2122E-03     121.863E-03
             937     16.6554E-03     92.4054E-03    -4.44367E+06     148.314E+06     57.2999E+06    -2.23396E+06    -26.7003E-03     53.0196E-03    -26.3193E-03     69.1359E-03    -27.8528E-03     54.5169E-03    -26.2414E-03     69.3152E-03
             938     876.713E-06     92.4883E-03    -24.0700E+06    -74.8013E+06    -23.7497E+06    -2.58149E+06    -26.2069E-03     52.4073E-03    -26.2004E-03     5.69241E-03    -26.1845E-03     52.1028E-03    -26.1757E-03     5.65629E-03
             939     1.75350E-03     92.4958E-03    -23.1903E+06    -73.5438E+06    -21.7729E+06    -4.64130E+06    -26.1936E-03     52.3935E-03    -26.1999E-03     10.4958E-03    -26.1718E-03     52.0914E-03    -26.1685E-03     10.4306E-03
             940     2.63027E-03     92.5078E-03    -21.8450E+06    -71.3148E+06    -18.8071E+06    -6.63100E+06    -26.1812E-03     52.3746E-03    -26.1934E-03     15.5596E-03    -26.1607E-03     52.0779E-03    -26.1523E-03     15.4658E-03
             941     3.50711E-03     92.5247E-03    -20.1635E+06    -69.1120E+06    -15.2051E+06    -8.31835E+06    -26.1665E-03     52.3508E-03    -26.1843E-03     20.6761E-03    -26.1469E-03     52.0583E-03    -26.1308E-03     20.5571E-03
             942     4.38400E-03     92.5461E-03    -18.2250E+06    -65.9756E+06    -11.4825E+06    -9.80167E+06    -26.1551E-03     52.3242E-03    -26.1691E-03     25.8202E-03    -26.1370E-03     52.0405E-03    -26.1044E-03     25.6781E-03
             943     5.26095E-03     92.5725E-03    -16.2847E+06    -63.0127E+06    -8.02078E+06    -11.1062E+06    -26.1521E-03     52.3012E-03    -26.1492E-03     30.9684E-03    -26.1355E-03     52.0264E-03    -26.0743E-03     30.8044E-03
             944     6.13800E-03     92.6034E-03    -14.0551E+06    -59.3337E+06    -4.45507E+06    -11.9934E+06    -26.1619E-03     52.2876E-03    -26.1258E-03     36.0792E-03    -26.1473E-03     52.0255E-03    -26.0416E-03     35.8977E-03
             945     7.01508E-03     92.6392E-03    -11.9010E+06    -55.8576E+06    -1.25221E+06    -12.7565E+06    -26.2157E-03     52.3170E-03    -26.1013E-03     41.1457E-03    -26.2039E-03     52.0683E-03    -26.0093E-03     40.9468E-03
             946     7.89220E-03     92.6794E-03    -10.0033E+06    -53.8337E+06     778.694E+03    -13.4853E+06    -26.2975E-03     52.3739E-03    -26.0764E-03     46.1343E-03    -26.2876E-03     52.1351E-03    -25.9799E-03     45.9167E-03
             947     8.76930E-03     92.7244E-03    -8.42829E+06    -52.0972E+06     1.16444E+06    -14.0697E+06    -26.3951E-03     52.4424E-03    -26.0473E-03     51.0610E-03    -26.3881E-03     52.2172E-03    -25.9537E-03     50.8245E-03
             948     9.64654E-03     92.7736E-03    -7.01003E+06    -50.5677E+06     886.174E+03    -14.2688E+06    -26.5937E-03     52.6159E-03    -26.0222E-03     55.8461E-03    -26.5925E-03     52.4077E-03    -25.9342E-03     55.5931E-03
             949     10.5236E-03     92.8275E-03    -5.93656E+06    -48.5823E+06    -570.406E+03    -14.5069E+06    -26.8641E-03     52.8668E-03    -26.0027E-03     60.6875E-03    -26.8744E-03     52.6852E-03    -25.9265E-03     60.4139E-03
             950     11.4003E-03     92.8854E-03    -5.28914E+06    -45.5249E+06    -3.30468E+06    -14.3647E+06    -27.1074E-03     53.0934E-03    -25.9860E-03     65.7802E-03    -27.1380E-03     52.9532E-03    -25.9289E-03     65.4885E-03
             951     12.2770E-03     92.9491E-03    -5.00152E+06    -40.3148E+06    -6.81380E+06    -13.8250E+06    -27.5052E-03     53.4798E-03    -25.9745E-03     71.0656E-03    -27.5738E-03     53.4072E-03    -25.9429E-03     70.7552E-03
             952     13.1544E-03     93.0169E-03    -5.07165E+06    -29.7754E+06    -11.2768E+06    -13.1940E+06    -27.9449E-03     53.9114E-03    -25.9664E-03     77.1633E-03    -28.0826E-03     53.9580E-03    -25.9723E-03     76.8318E-03
             953     14.0294E-03     93.0913E-03    -4.58517E+06    -10.4669E+06    -16.6533E+06    -11.8752E+06    -28.3870E-03     54.3352E-03    -25.9482E-03     88.0608E-03    -28.6631E-03     54.6061E-03    -26.0096E-03     87.7194E-03
             954     14.9078E-03     93.1808E-03    -2.44751E+06     27.5350E+06    -25.7317E+06    -7.11645E+06    -28.2335E-03     54.0940E-03    -25.8605E-03     104.959E-03    -28.8382E-03     54.8625E-03    -26.0256E-03     104.697E-03
             955     15.7849E-03     93.2869E-03    -909.038E+03     106.004E+06     2.64823E+06    -1.46746E+06    -27.8523E-03     53.7109E-03    -25.8586E-03     124.001E-03    -29.1906E-03     55.4146E-03    -25.9977E-03     124.080E-03
             956     16.6612E-03     93.4115E-03    -3.68846E+06     149.318E+06     60.1092E+06    -585.882E+03    -28.2684E-03     54.3583E-03    -26.0899E-03     68.7151E-03    -29.4173E-03     55.8500E-03    -26.0005E-03     68.9345E-03
             957     876.861E-06     93.4874E-03    -21.3882E+06    -69.3825E+06    -21.0924E+06    -2.84471E+06    -26.0986E-03     52.1897E-03    -26.0911E-03     5.71395E-03    -26.0745E-03     51.9045E-03    -26.0649E-03     5.67451E-03
             958     1.75366E-03     93.4946E-03    -20.5496E+06    -68.3665E+06    -19.2825E+06    -5.09829E+06    -26.0839E-03     52.1742E-03    -26.0903E-03     10.5260E-03    -26.0600E-03     51.8906E-03    -26.0577E-03     10.4550E-03
             959     2.63057E-03     93.5067E-03    -19.3189E+06    -66.6776E+06    -16.6146E+06    -7.15768E+06    -26.0576E-03     52.1383E-03    -26.0807E-03     15.6135E-03    -26.0343E-03     51.8579E-03    -26.0391E-03     15.5131E-03
             960     3.50750E-03     93.5233E-03    -17.7059E+06    -64.8788E+06    -13.2225E+06    -9.01197E+06    -26.0335E-03     52.1001E-03    -26.0666E-03     20.7552E-03    -26.0106E-03     51.8224E-03    -26.0129E-03     20.6276E-03
             961     4.38453E-03     93.5448E-03    -15.8464E+06    -62.2685E+06    -9.71651E+06    -10.5195E+06    -26.0122E-03     52.0585E-03    -26.0463E-03     25.9378E-03    -25.9901E-03     51.7872E-03    -25.9816E-03     25.7868E-03
             962     5.26162E-03     93.5710E-03    -13.8826E+06    -59.5855E+06    -6.12081E+06    -11.7258E+06    -25.9959E-03     52.0179E-03    -26.0220E-03     31.1169E-03    -25.9749E-03     51.7538E-03    -25.9461E-03     30.9455E-03
             963     6.13879E-03     93.6019E-03    -12.0478E+06    -56.5912E+06    -3.03473E+06    -12.7981E+06    -26.0020E-03     51.9944E-03    -25.9924E-03     36.2976E-03    -25.9833E-03     51.7408E-03    -25.9081E-03     36.1065E-03
             964     7.01603E-03     93.6375E-03    -10.1181E+06    -53.4049E+06    -43.7596E+03    -13.4586E+06    -26.0327E-03     51.9945E-03    -25.9618E-03     41.4486E-03    -26.0171E-03     51.7535E-03    -25.8700E-03     41.2417E-03
             965     7.89332E-03     93.6779E-03    -8.31703E+06    -51.5805E+06     2.12997E+06    -13.9931E+06    -26.1234E-03     52.0558E-03    -25.9325E-03     46.5258E-03    -26.1100E-03     51.8236E-03    -25.8350E-03     46.3028E-03
             966     8.77065E-03     93.7226E-03    -6.83017E+06    -50.0260E+06     2.67790E+06    -14.4476E+06    -26.2650E-03     52.1674E-03    -25.9024E-03     51.5117E-03    -26.2549E-03     51.9477E-03    -25.8066E-03     51.2715E-03
             967     9.64780E-03     93.7722E-03    -5.71203E+06    -49.3017E+06     1.92806E+06    -14.7897E+06    -26.4478E-03     52.3236E-03    -25.8758E-03     56.4737E-03    -26.4430E-03     52.1179E-03    -25.7864E-03     56.2154E-03
             968     10.5250E-03     93.8259E-03    -4.85019E+06    -47.4347E+06     308.883E+03    -14.7435E+06    -26.7428E-03     52.5980E-03    -25.8552E-03     61.4404E-03    -26.7501E-03     52.4188E-03    -25.7778E-03     61.1655E-03
             969     11.4022E-03     93.8846E-03    -4.37995E+06    -44.3403E+06    -2.05400E+06    -14.6488E+06    -27.1047E-03     52.9498E-03    -25.8451E-03     66.5298E-03    -27.1344E-03     52.8125E-03    -25.7847E-03     66.2352E-03
             970     12.2792E-03     93.9476E-03    -4.07158E+06    -40.0884E+06    -5.83990E+06    -14.2230E+06    -27.4567E-03     53.2968E-03    -25.8401E-03     71.8168E-03    -27.5221E-03     53.2223E-03    -25.8053E-03     71.5027E-03
             971     13.1553E-03     94.0166E-03    -4.09734E+06    -29.5249E+06    -9.70514E+06    -13.2732E+06    -27.9304E-03     53.7706E-03    -25.8401E-03     77.7235E-03    -28.0666E-03     53.8155E-03    -25.8399E-03     77.3918E-03
             972     14.0327E-03     94.0910E-03    -4.62880E+06    -11.2410E+06    -15.1188E+06    -12.6541E+06    -28.3804E-03     54.2117E-03    -25.8313E-03     88.3058E-03    -28.6582E-03     54.4770E-03    -25.8839E-03     87.9559E-03
             973     14.9073E-03     94.1799E-03    -5.93450E+06     20.9284E+06    -26.5294E+06    -10.0251E+06    -28.6648E-03     54.4325E-03    -25.7677E-03     103.330E-03    -29.2770E-03     55.1749E-03    -25.9221E-03     103.026E-03
             974     15.7861E-03     94.2832E-03    -5.09104E+06     97.8618E+06    -3.56162E+06    -3.14771E+06    -27.8131E-03     53.5846E-03    -25.7715E-03     118.016E-03    -29.1121E-03     55.2231E-03    -25.9238E-03     118.075E-03
             975     16.6701E-03     94.4075E-03    -3.10060E+06     148.742E+06      57.206E+06     1.25409E+06    -28.0574E-03     54.0724E-03    -26.0150E-03     66.2498E-03    -29.1651E-03     55.5313E-03    -25.9402E-03     66.5018E-03
             976     876.925E-06     94.4859E-03    -18.4171E+06    -63.3901E+06    -18.2622E+06    -3.10335E+06    -25.9421E-03     51.8922E-03    -25.9501E-03     5.74362E-03    -25.9159E-03     51.6286E-03    -25.9228E-03     5.70093E-03
             977     1.75396E-03     94.4933E-03    -17.7627E+06    -62.7900E+06    -16.7126E+06    -5.51169E+06    -25.9216E-03     51.8594E-03    -25.9377E-03     10.5688E-03    -25.8956E-03     51.5958E-03    -25.9045E-03     10.4927E-03
             978     2.63095E-03     94.5052E-03    -16.5847E+06    -61.6735E+06    -14.3358E+06    -7.77043E+06    -25.8880E-03     51.8103E-03    -25.9223E-03     15.6877E-03    -25.8616E-03     51.5477E-03    -25.8805E-03     15.5797E-03
             979     3.50809E-03     94.5219E-03    -15.0936E+06    -60.3093E+06    -11.3018E+06    -9.70181E+06    -25.8527E-03     51.7547E-03    -25.9021E-03     20.8714E-03    -25.8261E-03     51.4932E-03    -25.8492E-03     20.7353E-03
             980     4.38524E-03     94.5432E-03    -13.3404E+06    -58.3711E+06    -7.91376E+06    -11.2961E+06    -25.8159E-03     51.6922E-03    -25.8763E-03     26.0920E-03    -25.7895E-03     51.4342E-03    -25.8119E-03     25.9316E-03
             981     5.26253E-03     94.5693E-03    -11.4782E+06    -56.2702E+06    -4.56695E+06    -12.4354E+06    -25.7898E-03     51.6351E-03    -25.8453E-03     31.3312E-03    -25.7637E-03     51.3817E-03    -25.7699E-03     31.1515E-03
             982     6.13989E-03     94.6001E-03    -9.69140E+06    -53.5489E+06    -1.36119E+06    -13.2790E+06    -25.7798E-03     51.5899E-03    -25.8101E-03     36.5894E-03    -25.7559E-03     51.3455E-03    -25.7252E-03     36.3930E-03
             983     7.01733E-03     94.6357E-03    -8.10414E+06    -50.9869E+06     1.25048E+06    -14.0387E+06    -25.8031E-03     51.5753E-03    -25.7722E-03     41.8225E-03    -25.7825E-03     51.3413E-03    -25.6803E-03     41.6093E-03
             984     7.89489E-03     94.6758E-03    -6.58443E+06    -49.5021E+06     3.26353E+06    -14.3675E+06    -25.8930E-03     51.6299E-03    -25.7369E-03     47.0302E-03    -25.8752E-03     51.4035E-03    -25.6392E-03     46.8039E-03
             985     8.77227E-03     94.7209E-03    -5.30665E+06    -48.2102E+06     3.77341E+06    -14.6480E+06    -26.0524E-03     51.7553E-03    -25.7029E-03     52.1439E-03    -26.0384E-03     51.5404E-03    -25.6065E-03     51.9029E-03
             986     9.64985E-03     94.7700E-03    -4.40308E+06    -47.4471E+06     3.23087E+06    -14.8948E+06    -26.2974E-03     51.9746E-03    -25.6772E-03     57.2337E-03    -26.2902E-03     51.7739E-03    -25.5858E-03     56.9757E-03
             987     10.5272E-03     94.8244E-03    -3.81389E+06    -46.4401E+06     1.31906E+06    -14.9482E+06    -26.6279E-03     52.2881E-03    -25.6602E-03     62.2824E-03    -26.6325E-03     52.1104E-03    -25.5807E-03     62.0066E-03
             988     11.4042E-03     94.8829E-03    -3.26652E+06    -42.9447E+06    -739.213E+03    -14.7366E+06    -27.0668E-03     52.7245E-03    -25.6578E-03     67.4467E-03    -27.0948E-03     52.5906E-03    -25.5944E-03     67.1522E-03
             989     12.2807E-03     94.9469E-03    -3.18848E+06    -39.7392E+06    -4.62882E+06    -14.4122E+06    -27.5577E-03     53.2250E-03    -25.6673E-03     72.7972E-03    -27.6212E-03     53.1496E-03    -25.6282E-03     72.4812E-03
             990     13.1579E-03     95.0153E-03    -3.15518E+06    -30.3412E+06    -9.08574E+06    -13.4855E+06    -28.0501E-03     53.7324E-03    -25.6823E-03     78.8509E-03    -28.1820E-03     53.7717E-03    -25.6791E-03     78.5174E-03
             991     14.0332E-03     95.0911E-03    -4.23158E+06    -11.7152E+06    -13.3912E+06    -11.9145E+06    -28.5932E-03     54.2908E-03    -25.6976E-03     88.6953E-03    -28.8704E-03     54.5502E-03    -25.7414E-03     88.3554E-03
             992     14.9114E-03     95.1788E-03    -6.47007E+06     16.5283E+06    -26.4020E+06    -8.93060E+06    -29.9821E-03     55.6650E-03    -25.6829E-03     104.529E-03    -30.6009E-03     56.3961E-03    -25.8295E-03     104.224E-03
             993     15.7829E-03     95.2860E-03    -8.12231E+06     90.3897E+06    -10.2847E+06    -4.57015E+06    -30.7899E-03     56.5718E-03    -25.7819E-03     118.319E-03    -32.1024E-03     58.2058E-03    -25.9526E-03     118.286E-03
             994     16.6516E-03     95.4014E-03    -4.34774E+06     146.087E+06     52.5875E+06    -409.775E+03    -27.3120E-03     53.4004E-03    -26.0885E-03     69.2194E-03    -28.4373E-03     54.8765E-03    -26.0311E-03     69.4245E-03
             995     877.160E-06     95.4844E-03    -15.2597E+06    -56.9598E+06    -15.1464E+06    -3.36418E+06    -25.7361E-03     51.4767E-03    -25.7407E-03     5.77680E-03    -25.7079E-03     51.2362E-03    -25.7117E-03     5.73086E-03
             996     1.75427E-03     95.4915E-03    -14.6420E+06    -56.7178E+06    -13.8798E+06    -5.96315E+06    -25.7003E-03     51.4263E-03    -25.7261E-03     10.6350E-03    -25.6715E-03     51.1845E-03    -25.6920E-03     10.5533E-03
             997     2.63156E-03     95.5035E-03    -13.6396E+06    -56.2201E+06    -11.8918E+06    -8.39815E+06    -25.6598E-03     51.3644E-03    -25.7045E-03     15.7894E-03    -25.6302E-03     51.1212E-03    -25.6627E-03     15.6737E-03
             998     3.50881E-03     95.5199E-03    -12.2809E+06    -55.4837E+06    -9.26150E+06    -10.4559E+06    -25.6082E-03     51.2858E-03    -25.6776E-03     21.0208E-03    -25.5773E-03     51.0413E-03    -25.6257E-03     20.8756E-03
             999     4.38626E-03     95.5412E-03    -10.7587E+06    -54.3188E+06    -6.30605E+06    -12.0206E+06    -25.5544E-03     51.1984E-03    -25.6441E-03     26.2993E-03    -25.5231E-03     50.9544E-03    -25.5813E-03     26.1303E-03
            1000     5.26375E-03     95.5671E-03    -9.15986E+06    -52.9172E+06    -3.18296E+06    -13.1546E+06    -25.5140E-03     51.1197E-03    -25.6057E-03     31.6206E-03    -25.4831E-03     50.8776E-03    -25.5316E-03     31.4325E-03
            1001     6.14137E-03     95.5978E-03    -7.43498E+06    -50.6863E+06    -182.100E+03    -13.9171E+06    -25.4927E-03     51.0553E-03    -25.5626E-03     36.9500E-03    -25.4631E-03     50.8199E-03    -25.4793E-03     36.7467E-03
            1002     7.01912E-03     95.6332E-03    -5.81207E+06    -48.4614E+06     2.63836E+06    -14.3461E+06    -25.5205E-03     51.0402E-03    -25.5196E-03     42.3010E-03    -25.4938E-03     50.8131E-03    -25.4278E-03     42.0854E-03
            1003     7.89679E-03     95.6735E-03    -4.44325E+06    -47.6071E+06     4.60185E+06    -14.6985E+06    -25.5968E-03     51.0759E-03    -25.4792E-03     47.6230E-03    -25.5724E-03     50.8534E-03    -25.3807E-03     47.3944E-03
            1004     8.77475E-03     95.7182E-03    -3.35133E+06    -46.4431E+06     5.19598E+06    -14.6732E+06    -25.7953E-03     51.2373E-03    -25.4419E-03     52.9061E-03    -25.7756E-03     51.0257E-03    -25.3438E-03     52.6669E-03
            1005     9.65229E-03     95.7680E-03    -2.62215E+06    -45.6112E+06     4.94605E+06    -14.7186E+06    -26.1083E-03     51.5272E-03    -25.4188E-03     58.1005E-03    -26.0968E-03     51.3300E-03    -25.3242E-03     57.8469E-03
            1006     10.5297E-03     95.8221E-03    -2.12409E+06    -45.0253E+06     3.18757E+06    -14.8720E+06    -26.4981E-03     51.9071E-03    -25.4090E-03     63.3767E-03    -26.4984E-03     51.7308E-03    -25.3247E-03     63.1040E-03
            1007     11.4070E-03     95.8813E-03    -2.03484E+06    -42.6653E+06     500.431E+03    -14.5788E+06    -26.9894E-03     52.4035E-03    -25.4141E-03     68.7528E-03    -27.0129E-03     52.2668E-03    -25.3468E-03     68.4628E-03
            1008     12.2843E-03     95.9454E-03    -2.21198E+06    -39.0103E+06    -3.08501E+06    -14.0623E+06    -27.6008E-03     53.0385E-03    -25.4377E-03     74.1764E-03    -27.6628E-03     52.9631E-03    -25.3933E-03     73.8666E-03
            1009     13.1601E-03     96.0148E-03    -3.09311E+06    -30.8115E+06    -7.82764E+06    -13.3288E+06    -28.2849E-03     53.7603E-03    -25.4754E-03     80.2588E-03    -28.4181E-03     53.7958E-03    -25.4654E-03     79.9278E-03
            1010     14.0372E-03     96.0907E-03    -4.09394E+06    -13.9422E+06    -11.9445E+06    -10.9173E+06    -29.1436E-03     54.6717E-03    -25.5281E-03     89.9853E-03    -29.4221E-03     54.9208E-03    -25.5617E-03     89.6541E-03
            1011     14.9107E-03     96.1790E-03    -5.57747E+06     12.8246E+06    -23.5245E+06    -7.39328E+06    -30.4798E-03     56.0368E-03    -25.5570E-03     107.174E-03    -31.1006E-03     56.7516E-03    -25.6851E-03     106.882E-03
            1012     15.7876E-03     96.2898E-03    -6.54289E+06     86.8848E+06    -12.2429E+06    -4.31503E+06    -31.6130E-03     57.2771E-03    -25.6641E-03     122.299E-03    -32.9465E-03     58.9312E-03    -25.8418E-03     122.253E-03
            1013     16.6658E-03     96.4066E-03    -3.86068E+06     144.169E+06     48.6512E+06    -1.66278E+06    -28.0963E-03     54.0946E-03    -25.9983E-03     68.6585E-03    -29.2342E-03     55.5897E-03    -25.9585E-03     68.8299E-03
            1014     877.341E-06     96.4822E-03    -11.9693E+06    -50.0153E+06    -11.8578E+06    -3.60710E+06    -25.4501E-03     50.8986E-03    -25.4486E-03     5.81215E-03    -25.4203E-03     50.6832E-03    -25.4180E-03     5.76325E-03
            1015     1.75484E-03     96.4895E-03    -11.4272E+06    -50.1711E+06    -10.9352E+06    -6.40712E+06    -25.4107E-03     50.8463E-03    -25.4356E-03     10.7228E-03    -25.3796E-03     50.6282E-03    -25.4010E-03     10.6357E-03
            1016     2.63225E-03     96.5011E-03    -10.5982E+06    -50.3527E+06    -9.34850E+06    -9.00739E+06    -25.3536E-03     50.7639E-03    -25.4103E-03     15.9253E-03    -25.3209E-03     50.5419E-03    -25.3687E-03     15.8022E-03
            1017     3.50989E-03     96.5176E-03    -9.52339E+06    -50.3579E+06    -7.31348E+06    -11.1762E+06    -25.2817E-03     50.6570E-03    -25.3754E-03     21.2148E-03    -25.2472E-03     50.4312E-03    -25.3251E-03     21.0609E-03
            1018     4.38756E-03     96.5386E-03    -8.26270E+06    -50.2722E+06    -4.81717E+06    -12.7058E+06    -25.2140E-03     50.5476E-03    -25.3336E-03     26.5739E-03    -25.1781E-03     50.3179E-03    -25.2728E-03     26.3970E-03
            1019     5.26541E-03     96.5644E-03    -6.89522E+06    -49.3197E+06    -2.10207E+06    -13.8006E+06    -25.1569E-03     50.4429E-03    -25.2860E-03     31.9787E-03    -25.1211E-03     50.2136E-03    -25.2150E-03     31.7836E-03
            1020     6.14335E-03     96.5949E-03    -5.57459E+06    -48.0133E+06     653.112E+03    -14.4706E+06    -25.1332E-03     50.3692E-03    -25.2361E-03     37.4248E-03    -25.0990E-03     50.1430E-03    -25.1551E-03     37.2160E-03
            1021     7.02134E-03     96.6303E-03    -4.32539E+06    -46.2416E+06     3.25398E+06    -14.7077E+06    -25.1530E-03     50.3395E-03    -25.1865E-03     42.9111E-03    -25.1224E-03     50.1200E-03    -25.0969E-03     42.6928E-03
            1022     7.89954E-03     96.6704E-03    -3.08433E+06    -45.5067E+06     5.49023E+06    -14.9315E+06    -25.2627E-03     50.4062E-03    -25.1435E-03     48.3557E-03    -25.2353E-03     50.1903E-03    -25.0456E-03     48.1262E-03
            1023     8.77749E-03     96.7153E-03    -2.01554E+06    -45.3919E+06     6.17228E+06    -14.7298E+06    -25.4872E-03     50.5945E-03    -25.1072E-03     53.8693E-03    -25.4630E-03     50.3840E-03    -25.0076E-03     53.6319E-03
            1024     9.65548E-03     96.7653E-03    -1.25440E+06    -43.9077E+06     6.06734E+06    -14.5431E+06    -25.8193E-03     50.9036E-03    -25.0843E-03     59.2691E-03    -25.8040E-03     50.7104E-03    -24.9885E-03     59.0208E-03
            1025     10.5334E-03     96.8195E-03    -819.757E+03    -43.8742E+06     4.92116E+06    -14.5190E+06    -26.3048E-03     51.3876E-03    -25.0828E-03     64.7474E-03    -26.3019E-03     51.2118E-03    -24.9934E-03     64.4822E-03
            1026     11.4107E-03     96.8795E-03    -873.101E+03    -42.1870E+06     2.16906E+06    -14.0286E+06    -26.9284E-03     52.0289E-03    -25.1004E-03     70.2300E-03    -26.9483E-03     51.8896E-03    -25.0272E-03     69.9497E-03
            1027     12.2874E-03     96.9437E-03    -1.32767E+06    -38.5337E+06    -1.17723E+06    -13.4148E+06    -27.7032E-03     52.8489E-03    -25.1457E-03     75.7601E-03    -27.7641E-03     52.7716E-03    -25.0937E-03     75.4605E-03
            1028     13.1645E-03     97.0143E-03    -1.96343E+06    -31.1707E+06    -5.24362E+06    -12.3841E+06    -28.5366E-03     53.7517E-03    -25.2152E-03     81.7473E-03    -28.6675E-03     53.7802E-03    -25.1933E-03     81.4290E-03
            1029     14.0392E-03     97.0903E-03    -2.73950E+06    -16.7593E+06    -9.72685E+06    -10.3311E+06    -29.5900E-03     54.8930E-03    -25.3030E-03     91.8948E-03    -29.8644E-03     55.1263E-03    -25.3233E-03     91.5687E-03
            1030     14.9160E-03     97.1809E-03    -3.57902E+06     8.62726E+06    -19.6879E+06    -6.16515E+06    -30.5332E-03     55.8975E-03    -25.3643E-03     108.967E-03    -31.1481E-03     56.5874E-03    -25.4701E-03     108.693E-03
            1031     15.7894E-03     97.2897E-03    -5.40919E+06     85.3026E+06    -8.40024E+06    -3.42123E+06    -30.9013E-03     56.3579E-03    -25.4566E-03     124.551E-03    -32.2454E-03     58.0098E-03    -25.6144E-03     124.554E-03
            1032     16.6599E-03     97.4101E-03    -4.89374E+06     142.402E+06     48.5217E+06    -2.73540E+06    -29.3493E-03     55.1427E-03    -25.7934E-03     66.8818E-03    -30.4899E-03     56.6307E-03    -25.7501E-03     67.0468E-03
            1033     877.769E-06     97.4796E-03    -8.82701E+06    -42.5618E+06    -8.84505E+06    -3.81446E+06    -25.0639E-03     50.1300E-03    -25.0661E-03     5.86522E-03    -25.0336E-03     49.9429E-03    -25.0358E-03     5.81386E-03
            1034     1.75543E-03     97.4866E-03    -8.52677E+06    -43.2517E+06    -8.23712E+06    -6.79965E+06    -25.0182E-03     50.0667E-03    -25.0485E-03     10.8324E-03    -24.9865E-03     49.8751E-03    -25.0146E-03     10.7406E-03
            1035     2.63333E-03     97.4983E-03    -7.94545E+06    -44.1641E+06    -7.25473E+06    -9.52257E+06    -24.9459E-03     49.9625E-03    -25.0167E-03     16.0980E-03    -24.9118E-03     49.7645E-03    -24.9774E-03     15.9689E-03
            1036     3.51122E-03     97.5144E-03    -7.25168E+06    -45.0346E+06    -5.80145E+06    -11.6872E+06    -24.8597E-03     49.8338E-03    -24.9740E-03     21.4646E-03    -24.8238E-03     49.6290E-03    -24.9272E-03     21.3051E-03
            1037     4.38935E-03     97.5353E-03    -6.43735E+06    -46.0158E+06    -4.02631E+06    -13.2855E+06    -24.7735E-03     49.6968E-03    -24.9233E-03     26.9169E-03    -24.7356E-03     49.4844E-03    -24.8674E-03     26.7338E-03
            1038     5.26753E-03     97.5609E-03    -5.50857E+06    -45.7937E+06    -1.92506E+06    -14.2860E+06    -24.7022E-03     49.5685E-03    -24.8662E-03     32.4411E-03    -24.6646E-03     49.3542E-03    -24.8015E-03     32.2413E-03
            1039     6.14589E-03     97.5913E-03    -4.61934E+06    -45.4807E+06     597.164E+03    -14.6964E+06    -24.6722E-03     49.4817E-03    -24.8094E-03     38.0327E-03    -24.6364E-03     49.2663E-03    -24.7338E-03     37.8229E-03
            1040     7.02437E-03     97.6265E-03    -3.81589E+06    -44.0404E+06     3.10945E+06    -14.8384E+06    -24.7043E-03     49.4590E-03    -24.7547E-03     43.6639E-03    -24.6735E-03     49.2493E-03    -24.6698E-03     43.4463E-03
            1041     7.90281E-03     97.6666E-03    -3.16026E+06    -43.6750E+06     5.34087E+06    -14.8311E+06    -24.8432E-03     49.5534E-03    -24.7103E-03     49.3536E-03    -24.8178E-03     49.3462E-03    -24.6156E-03     49.1283E-03
            1042     8.78128E-03     97.7117E-03    -2.51229E+06    -44.2037E+06     6.16425E+06    -14.7926E+06    -25.0857E-03     49.7616E-03    -24.6758E-03     55.0614E-03    -25.0647E-03     49.5568E-03    -24.5773E-03     54.8265E-03
            1043     9.65970E-03     97.7616E-03    -1.80811E+06    -43.1204E+06     6.13861E+06    -14.3920E+06    -25.4949E-03     50.1520E-03    -24.6571E-03     60.6989E-03    -25.4825E-03     49.9623E-03    -24.5613E-03     60.4560E-03
            1044     10.5376E-03     97.8167E-03    -1.58956E+06    -42.6721E+06     5.70553E+06    -14.0706E+06    -26.0973E-03     50.7661E-03    -24.6688E-03     66.3154E-03    -26.1000E-03     50.5951E-03    -24.5761E-03     66.0593E-03
            1045     11.4153E-03     97.8767E-03    -1.49996E+06    -41.6139E+06     3.57091E+06    -13.6173E+06    -26.8760E-03     51.5843E-03    -24.7083E-03     72.0288E-03    -26.9012E-03     51.4462E-03    -24.6280E-03     71.7566E-03
            1046     12.2925E-03     97.9424E-03    -1.75480E+06    -38.6271E+06     483.822E+03    -12.6469E+06    -27.8533E-03     52.6359E-03    -24.7827E-03     77.7957E-03    -27.9185E-03     52.5564E-03    -24.7217E-03     77.5078E-03
            1047     13.1680E-03     98.0132E-03    -2.31735E+06    -31.6507E+06    -3.13960E+06    -11.7811E+06    -28.8779E-03     53.7688E-03    -24.8909E-03     83.6926E-03    -29.0140E-03     53.7934E-03    -24.8573E-03     83.3822E-03
            1048     14.0447E-03     98.0907E-03    -2.23472E+06    -18.3204E+06    -6.48033E+06    -10.3403E+06    -30.0597E-03     55.0857E-03    -25.0260E-03     93.7312E-03    -30.3377E-03     55.3095E-03    -25.0286E-03     93.4034E-03
            1049     14.9181E-03     98.1816E-03    -1.69128E+06     2.87946E+06    -14.7193E+06    -7.09513E+06    -30.8696E-03     56.0077E-03    -25.1381E-03     109.268E-03    -31.4775E-03     56.6626E-03    -25.2135E-03     108.983E-03
            1050     15.7950E-03     98.2905E-03    -731.646E+03     82.6147E+06    -2.34054E+06    -1.79900E+06    -30.1142E-03     55.3423E-03    -25.2281E-03     124.708E-03    -31.4166E-03     56.9421E-03    -25.3585E-03     124.758E-03
            1051     16.6755E-03     98.4130E-03    -3.22615E+06     143.028E+06     50.7770E+06    -618.252E+03    -30.6216E-03     56.1884E-03    -25.5668E-03     69.6876E-03    -31.7415E-03     57.6576E-03    -25.5156E-03     69.8909E-03
            1052     878.080E-06     98.4759E-03    -6.20128E+06    -34.7999E+06    -6.24835E+06    -3.98517E+06    -24.5606E-03     49.1268E-03    -24.5662E-03     5.94125E-03    -24.5321E-03     48.9709E-03    -24.5380E-03     5.88795E-03
            1053     1.75638E-03     98.4830E-03    -6.09819E+06    -35.9714E+06    -6.15209E+06    -7.00360E+06    -24.5005E-03     49.0423E-03    -24.5418E-03     10.9667E-03    -24.4702E-03     48.8805E-03    -24.5115E-03     10.8728E-03
            1054     2.63459E-03     98.4944E-03    -6.00370E+06    -37.7873E+06    -5.82666E+06    -9.79981E+06    -24.4188E-03     48.9212E-03    -24.5024E-03     16.3045E-03    -24.3863E-03     48.7501E-03    -24.4680E-03     16.1727E-03
            1055     3.51307E-03     98.5105E-03    -5.80611E+06    -39.7105E+06    -5.29142E+06    -11.9213E+06    -24.3185E-03     48.7696E-03    -24.4511E-03     21.7643E-03    -24.2836E-03     48.5885E-03    -24.4116E-03     21.6029E-03
            1056     4.39156E-03     98.5311E-03    -5.61390E+06    -41.5544E+06    -4.25564E+06    -13.4568E+06    -24.2132E-03     48.6048E-03    -24.3916E-03     27.3298E-03    -24.1771E-03     48.4135E-03    -24.3445E-03     27.1459E-03
            1057     5.27035E-03     98.5565E-03    -5.47827E+06    -42.5599E+06    -2.88666E+06    -14.3111E+06    -24.1295E-03     48.4554E-03    -24.3259E-03     32.9975E-03    -24.0946E-03     48.2583E-03    -24.2707E-03     32.7994E-03
            1058     6.14918E-03     98.5867E-03    -5.29838E+06    -43.0409E+06    -892.412E+03    -14.5724E+06    -24.0966E-03     48.3581E-03    -24.2616E-03     38.7562E-03    -24.0650E-03     48.1575E-03    -24.1960E-03     38.5504E-03
            1059     7.02812E-03     98.6218E-03    -5.15356E+06    -42.3206E+06     1.55442E+06    -14.3438E+06    -24.1454E-03     48.3490E-03    -24.2036E-03     44.6043E-03    -24.1207E-03     48.1513E-03    -24.1270E-03     44.3959E-03
            1060     7.90713E-03     98.6619E-03    -5.16554E+06    -41.9377E+06     4.06739E+06    -14.1368E+06    -24.3050E-03     48.4643E-03    -24.1593E-03     50.5225E-03    -24.2893E-03     48.2695E-03    -24.0706E-03     50.3094E-03
            1061     8.78609E-03     98.7071E-03    -5.24390E+06    -42.5623E+06     5.47541E+06    -14.1376E+06    -24.6363E-03     48.7684E-03    -24.1321E-03     56.4378E-03    -24.6291E-03     48.5756E-03    -24.0354E-03     56.2149E-03
            1062     9.66468E-03     98.7574E-03    -5.41304E+06    -42.4662E+06     5.16261E+06    -13.9656E+06    -25.1583E-03     49.2840E-03    -24.1257E-03     62.3554E-03    -25.1623E-03     49.1030E-03    -24.0304E-03     62.1216E-03
            1063     10.5432E-03     98.8130E-03    -5.29798E+06    -41.4979E+06     5.27871E+06    -13.4430E+06    -25.8931E-03     50.0512E-03    -24.1580E-03     68.2070E-03    -25.9143E-03     49.8909E-03    -24.0638E-03     67.9626E-03
            1064     11.4208E-03     98.8738E-03    -5.30713E+06    -41.0747E+06     3.72015E+06    -13.3323E+06    -26.8751E-03     51.1043E-03    -24.2292E-03     74.0853E-03    -26.9201E-03     50.9738E-03    -24.1433E-03     73.8193E-03
            1065     12.2976E-03     98.9404E-03    -5.11375E+06    -39.1948E+06     583.094E+03    -12.7206E+06    -28.0421E-03     52.3833E-03    -24.3411E-03     79.9323E-03    -28.1236E-03     52.3058E-03    -24.2740E-03     79.6451E-03
            1066     13.1744E-03     99.0128E-03    -4.96488E+06    -31.6502E+06    -2.11624E+06    -11.4743E+06    -29.3961E-03     53.8967E-03    -24.5005E-03     85.7612E-03    -29.5494E-03     53.9262E-03    -24.4580E-03     85.4535E-03
            1067     14.0483E-03     99.0909E-03    -5.82463E+06    -19.6278E+06    -5.22132E+06    -10.4879E+06    -30.7398E-03     55.4379E-03    -24.6981E-03     95.5124E-03    -31.0412E-03     55.6641E-03    -24.6873E-03     95.1789E-03
            1068     14.9237E-03     99.1838E-03    -6.73904E+06    -1.06099E+06    -12.7595E+06    -8.25830E+06    -32.2447E-03     57.1421E-03    -24.8975E-03     109.904E-03    -32.8891E-03     57.7960E-03    -24.9500E-03     109.587E-03
            1069     15.7964E-03     99.2901E-03    -6.23333E+06     76.5781E+06    -3.78135E+06    -4.14612E+06    -32.4625E-03     57.5630E-03    -25.1004E-03     119.167E-03    -33.7601E-03     59.1212E-03    -25.2213E-03     119.118E-03
            1070     16.6711E-03     99.4085E-03    -3.48082E+06     140.745E+06     49.7891E+06    -155.669E+03    -30.9111E-03     56.4342E-03    -25.5230E-03     66.4904E-03    -32.0052E-03     57.8713E-03    -25.4731E-03     66.6614E-03
            1071     878.769E-06     99.4713E-03    -4.21895E+06    -26.8164E+06    -4.35818E+06    -4.01186E+06    -23.9151E-03     47.8366E-03    -23.9215E-03     6.02075E-03    -23.8911E-03     47.7150E-03    -23.8983E-03     5.96741E-03
            1072     1.75741E-03     99.4781E-03    -4.40648E+06    -28.6855E+06    -4.84688E+06    -7.02636E+06    -23.8475E-03     47.7405E-03    -23.8930E-03     11.1162E-03    -23.8212E-03     47.6107E-03    -23.8692E-03     11.0226E-03
            1073     2.63636E-03     99.4895E-03    -4.78161E+06    -31.3846E+06    -5.31684E+06    -9.65118E+06    -23.7524E-03     47.5994E-03    -23.8469E-03     16.5471E-03    -23.7237E-03     47.4577E-03    -23.8211E-03     16.4180E-03
            1074     3.51527E-03     99.5052E-03    -5.36883E+06    -34.5500E+06    -5.75615E+06    -11.6789E+06    -23.6383E-03     47.4261E-03    -23.7878E-03     22.1072E-03    -23.6078E-03     47.2706E-03    -23.7587E-03     21.9501E-03
            1075     4.39452E-03     99.5257E-03    -6.08680E+06    -37.3796E+06    -5.77805E+06    -12.9220E+06    -23.5221E-03     47.2415E-03    -23.7195E-03     27.7960E-03    -23.4918E-03     47.0737E-03    -23.6853E-03     27.6207E-03
            1076     5.27377E-03     99.5509E-03    -7.02815E+06    -39.7125E+06    -5.15947E+06    -13.4276E+06    -23.4331E-03     47.0810E-03    -23.6479E-03     33.6143E-03    -23.4064E-03     46.9032E-03    -23.6059E-03     33.4297E-03
            1077     6.15330E-03     99.5809E-03    -8.13630E+06    -40.8488E+06    -3.74937E+06    -13.4462E+06    -23.3988E-03     46.9776E-03    -23.5789E-03     39.5544E-03    -23.3797E-03     46.7955E-03    -23.5266E-03     39.3658E-03
            1078     7.03287E-03     99.6159E-03    -9.21656E+06    -41.2177E+06    -1.52997E+06    -12.9702E+06    -23.4664E-03     46.9869E-03    -23.5205E-03     45.6242E-03    -23.4583E-03     46.8041E-03    -23.4550E-03     45.4367E-03
            1079     7.91246E-03     99.6560E-03    -10.1998E+06    -40.2868E+06     1.31796E+06    -12.4925E+06    -23.6932E-03     47.1740E-03    -23.4808E-03     51.7766E-03    -23.6999E-03     46.9976E-03    -23.4010E-03     51.5883E-03
            1080     8.79185E-03     99.7014E-03    -11.1288E+06    -41.1545E+06     3.30233E+06    -12.4972E+06    -24.1362E-03     47.6046E-03    -23.4684E-03     57.9901E-03    -24.1561E-03     47.4292E-03    -23.3761E-03     57.7921E-03
            1081     9.67105E-03     99.7522E-03    -11.7021E+06    -40.7360E+06     3.67681E+06    -12.6834E+06    -24.7944E-03     48.2788E-03    -23.4844E-03     64.1531E-03    -24.8288E-03     48.1164E-03    -23.3900E-03     63.9397E-03
            1082     10.5495E-03     99.8084E-03    -11.6319E+06    -40.4559E+06     3.65354E+06    -13.1442E+06    -25.7192E-03     49.2646E-03    -23.5454E-03     70.3263E-03    -25.7702E-03     49.1201E-03    -23.4516E-03     70.0893E-03
            1083     11.4274E-03     99.8705E-03    -11.0336E+06    -40.5618E+06     2.48576E+06    -13.0360E+06    -26.9632E-03     50.6213E-03    -23.6581E-03     76.4737E-03    -27.0354E-03     50.5031E-03    -23.5709E-03     76.2141E-03
            1084     12.3044E-03     99.9382E-03    -10.2846E+06    -38.2976E+06     44.9017E+03    -13.2216E+06    -28.3996E-03     52.2236E-03    -23.8240E-03     82.3898E-03    -28.5086E-03     52.1600E-03    -23.7533E-03     82.0968E-03
            1085     13.1795E-03     100.012E-03    -8.90866E+06    -32.8106E+06    -2.34794E+06    -12.5392E+06    -29.9450E-03     53.9902E-03    -24.0452E-03     88.4791E-03    -30.1190E-03     54.0230E-03    -23.9965E-03     88.1566E-03
            1086     14.0546E-03     100.093E-03    -7.74639E+06    -21.3258E+06    -4.41805E+06    -9.99479E+06    -31.6418E-03     55.9551E-03    -24.3133E-03     97.8082E-03    -31.9571E-03     56.1801E-03    -24.2933E-03     97.4753E-03
            1087     14.9275E-03     100.184E-03    -8.38975E+06    -3.37068E+06    -10.6918E+06    -7.44663E+06    -34.0393E-03     58.6520E-03    -24.6127E-03     113.262E-03    -34.7085E-03     59.3106E-03    -24.6491E-03     112.931E-03
            1088     15.7974E-03     100.298E-03    -9.52850E+06     72.6714E+06    -4.14109E+06    -4.81231E+06    -35.8786E-03     60.8345E-03    -24.9559E-03     124.379E-03    -37.2564E-03     62.4483E-03    -25.0681E-03     124.252E-03
            1089     16.6624E-03     100.412E-03    -4.78052E+06     137.416E+06     49.1832E+06    -2.16362E+06    -31.7123E-03     57.1969E-03    -25.4846E-03     70.6902E-03    -32.8682E-03     58.6810E-03    -25.4310E-03     70.7995E-03
            1090     879.325E-06     100.465E-03    -3.01703E+06    -18.9601E+06    -3.32311E+06    -3.88766E+06    -23.1111E-03     46.2295E-03    -23.1184E-03     6.10524E-03    -23.0940E-03     46.1440E-03    -23.1031E-03     6.05385E-03
            1091     1.75891E-03     100.472E-03    -3.76109E+06    -21.6726E+06    -4.56391E+06    -6.69699E+06    -23.0388E-03     46.1247E-03    -23.0860E-03     11.2741E-03    -23.0198E-03     46.0286E-03    -23.0719E-03     11.1854E-03
            1092     2.63837E-03     100.483E-03    -4.89115E+06    -25.4894E+06    -6.18418E+06    -9.00413E+06    -22.9320E-03     45.9655E-03    -23.0336E-03     16.7984E-03    -22.9110E-03     45.8546E-03    -23.0204E-03     16.6787E-03
            1093     3.51820E-03     100.499E-03    -6.49723E+06    -29.8984E+06    -7.75489E+06    -10.5090E+06    -22.8117E-03     45.7797E-03    -22.9680E-03     22.4678E-03    -22.7906E-03     45.6517E-03    -22.9540E-03     22.3272E-03
            1094     4.39797E-03     100.519E-03    -8.68650E+06    -34.0865E+06    -9.01270E+06    -11.1967E+06    -22.6963E-03     45.5910E-03    -22.8947E-03     28.2828E-03    -22.6788E-03     45.4478E-03    -22.8777E-03     28.1316E-03
            1095     5.27813E-03     100.544E-03    -11.1723E+06    -37.5421E+06    -9.13586E+06    -11.1406E+06    -22.6109E-03     45.4329E-03    -22.8220E-03     34.2562E-03    -22.6017E-03     45.2772E-03    -22.7970E-03     34.1034E-03
            1096     6.15824E-03     100.574E-03    -13.7666E+06    -39.3020E+06    -7.91045E+06    -10.7056E+06    -22.6024E-03     45.3589E-03    -22.7564E-03     40.3755E-03    -22.6070E-03     45.1980E-03    -22.7190E-03     40.2250E-03
            1097     7.03856E-03     100.609E-03    -16.0977E+06    -40.1923E+06    -5.41806E+06    -10.2396E+06    -22.7198E-03     45.4275E-03    -22.7077E-03     46.6440E-03    -22.7410E-03     45.2645E-03    -22.6532E-03     46.4949E-03
            1098     7.91874E-03     100.649E-03    -17.7892E+06    -39.1379E+06    -2.15609E+06    -9.90659E+06    -23.0296E-03     45.7119E-03    -22.6823E-03     53.0750E-03    -23.0696E-03     45.5561E-03    -22.6106E-03     52.9237E-03
            1099     8.79878E-03     100.695E-03    -18.7547E+06    -39.3884E+06     715.074E+03    -10.1607E+06    -23.5926E-03     46.2845E-03    -22.6919E-03     59.5805E-03    -23.6480E-03     46.1314E-03    -22.6040E-03     59.4165E-03
            1100     9.67819E-03     100.746E-03    -18.9628E+06    -38.4457E+06     1.95649E+06    -11.2088E+06    -24.4127E-03     47.1504E-03    -22.7377E-03     66.0639E-03    -24.4828E-03     47.0110E-03    -22.6447E-03     65.8735E-03
            1101     10.5572E-03     100.803E-03    -18.3983E+06    -38.5657E+06     2.18104E+06    -12.7627E+06    -25.5783E-03     48.4153E-03    -22.8370E-03     72.6683E-03    -25.6628E-03     48.2912E-03    -22.7435E-03     72.4395E-03
            1102     11.4350E-03     100.867E-03    -16.9391E+06    -39.5932E+06     1.30942E+06    -13.5540E+06    -27.0530E-03     50.0520E-03    -22.9990E-03     79.1529E-03    -27.1539E-03     49.9485E-03    -22.9105E-03     78.8893E-03
            1103     12.3115E-03     100.936E-03    -14.9137E+06    -36.0437E+06     47.8576E+03    -14.1274E+06    -28.7597E-03     51.9837E-03    -23.2240E-03     85.4442E-03    -28.8966E-03     51.9396E-03    -23.1498E-03     85.1403E-03
            1104     13.1873E-03     101.011E-03    -12.7319E+06    -33.6594E+06    -2.46203E+06    -14.6907E+06    -30.5360E-03     54.0484E-03    -23.5124E-03     91.5630E-03    -30.7305E-03     54.0855E-03    -23.4575E-03     91.2116E-03
            1105     14.0609E-03     101.093E-03    -9.52532E+06    -24.6277E+06    -4.38799E+06    -12.1867E+06    -32.7321E-03     56.5909E-03    -23.8587E-03     101.218E-03    -33.0620E-03     56.8123E-03    -23.8312E-03     100.848E-03
            1106     14.9330E-03     101.189E-03    -6.94258E+06    -7.71538E+06    -8.78721E+06    -7.30483E+06    -34.5231E-03     58.7500E-03    -24.2269E-03     117.206E-03    -35.1948E-03     59.3952E-03    -24.2496E-03     116.873E-03
            1107     15.8053E-03     101.304E-03    -6.12239E+06     72.0621E+06     2.17337E+06    -4.41467E+06    -35.5202E-03     60.1147E-03    -24.5945E-03     130.233E-03    -36.9337E-03     61.7559E-03    -24.6792E-03     130.141E-03
            1108     16.6808E-03     101.423E-03    -4.54428E+06     136.692E+06     52.9517E+06    -3.41336E+06    -34.7534E-03     59.9423E-03    -25.1888E-03     70.4701E-03    -35.9390E-03     61.4436E-03    -25.1157E-03     70.5524E-03
            1109     880.321E-06     101.457E-03    -3.72793E+06    -11.7700E+06    -4.02164E+06    -3.42412E+06    -22.1344E-03     44.2835E-03    -22.1491E-03     6.18626E-03    -22.1303E-03     44.2359E-03    -22.1467E-03     6.14122E-03
            1110     1.76049E-03     101.464E-03    -5.09582E+06    -15.4319E+06    -6.21405E+06    -5.77456E+06    -22.0636E-03     44.1736E-03    -22.1101E-03     11.4224E-03    -22.0579E-03     44.1130E-03    -22.1114E-03     11.3463E-03
            1111     2.64102E-03     101.475E-03    -7.33962E+06    -20.7330E+06    -9.09995E+06    -7.38264E+06    -21.9599E-03     44.0150E-03    -22.0551E-03     17.0286E-03    -21.9537E-03     43.9355E-03    -22.0599E-03     16.9309E-03
            1112     3.52147E-03     101.490E-03    -10.4838E+06    -26.6773E+06    -12.0455E+06    -7.94241E+06    -21.8427E-03     43.8310E-03    -21.9883E-03     22.7971E-03    -21.8397E-03     43.7309E-03    -21.9946E-03     22.6911E-03
            1113     4.40232E-03     101.510E-03    -14.3206E+06    -32.1632E+06    -13.9486E+06    -7.66291E+06    -21.7425E-03     43.6615E-03    -21.9191E-03     28.7327E-03    -21.7484E-03     43.5429E-03    -21.9214E-03     28.6289E-03
            1114     5.28307E-03     101.535E-03    -18.4493E+06    -36.3830E+06    -14.2030E+06    -7.04967E+06    -21.6916E-03     43.5475E-03    -21.8559E-03     34.8421E-03    -21.7126E-03     43.4149E-03    -21.8474E-03     34.7443E-03
            1115     6.16416E-03     101.565E-03    -22.0256E+06    -38.3789E+06    -12.4284E+06    -6.55915E+06    -21.7378E-03     43.5440E-03    -21.8062E-03     41.1500E-03    -21.7777E-03     43.4055E-03    -21.7808E-03     41.0557E-03
            1116     7.04505E-03     101.600E-03    -24.4882E+06    -39.0167E+06    -8.97794E+06    -6.54675E+06    -21.9430E-03     43.7222E-03    -21.7792E-03     47.6437E-03    -22.0016E-03     43.5814E-03    -21.7320E-03     47.5453E-03
            1117     7.92596E-03     101.640E-03    -25.5210E+06    -37.7074E+06    -4.72537E+06    -7.05313E+06    -22.3534E-03     44.1337E-03    -21.7803E-03     54.3611E-03    -22.4293E-03     43.9988E-03    -21.7123E-03     54.2500E-03
            1118     8.80640E-03     101.686E-03    -25.2720E+06    -37.2770E+06    -1.06566E+06    -8.13105E+06    -23.0230E-03     44.8412E-03    -21.8182E-03     61.1967E-03    -23.1099E-03     44.7091E-03    -21.7328E-03     61.0628E-03
            1119     9.68651E-03     101.739E-03    -24.2839E+06    -35.1773E+06     1.17044E+06    -10.1121E+06    -24.0460E-03     45.9458E-03    -21.8998E-03     68.0919E-03    -24.1449E-03     45.8302E-03    -21.8077E-03     67.9194E-03
            1120     10.5656E-03     101.797E-03    -22.8588E+06    -35.3232E+06     2.06418E+06    -12.3335E+06    -25.4262E-03     47.4713E-03    -22.0452E-03     75.0960E-03    -25.5363E-03     47.3690E-03    -21.9505E-03     74.8763E-03
            1121     11.4435E-03     101.862E-03    -20.9004E+06    -37.2312E+06     1.11171E+06    -14.4803E+06    -27.1245E-03     49.3838E-03    -22.2593E-03     81.9890E-03    -27.2482E-03     49.2980E-03    -22.1695E-03     81.7161E-03
            1122     12.3204E-03     101.933E-03    -18.1302E+06    -33.9914E+06     18.3179E+03    -16.1907E+06    -29.0834E-03     51.6274E-03    -22.5440E-03     88.5530E-03    -29.2402E-03     51.5992E-03    -22.4683E-03     88.2237E-03
            1123     13.1950E-03     102.011E-03    -14.9569E+06    -32.3972E+06    -1.68124E+06    -16.9572E+06    -31.2930E-03     54.2020E-03    -22.9090E-03     94.6844E-03    -31.5063E-03     54.2521E-03    -22.8487E-03     94.3003E-03
            1124     14.0686E-03     102.095E-03    -11.5723E+06    -27.4698E+06    -4.63629E+06    -16.5322E+06    -33.6757E-03     57.0130E-03    -23.3373E-03     104.730E-03    -34.0224E-03     57.2347E-03    -23.3039E-03     104.296E-03
            1125     14.9401E-03     102.194E-03    -6.58584E+06    -14.9263E+06    -8.64513E+06    -11.7583E+06    -35.3116E-03     59.0975E-03    -23.7859E-03     117.875E-03    -35.9777E-03     59.7124E-03    -23.7979E-03     117.476E-03
            1126     15.8133E-03     102.304E-03    -2.89272E+06     68.5400E+06     5.73792E+06    -4.39592E+06    -35.7146E-03     59.9278E-03    -24.2132E-03     129.022E-03    -37.0958E-03     61.5254E-03    -24.2797E-03     128.935E-03
            1127     16.6796E-03     102.432E-03    -3.73782E+06     135.588E+06     54.9159E+06    -1.82981E+06    -37.6122E-03     62.5096E-03    -24.8974E-03     71.0230E-03    -38.7840E-03     63.9908E-03    -24.8140E-03     71.1066E-03
            1128     881.147E-06     102.448E-03    -7.05935E+06    -6.03301E+06    -7.43820E+06    -2.48111E+06    -20.9980E-03     42.0072E-03    -21.0093E-03     6.24222E-03    -21.0138E-03     41.9981E-03    -21.0275E-03     6.20969E-03
            1129     1.76260E-03     102.454E-03    -9.52100E+06    -11.0590E+06    -10.6383E+06    -3.73702E+06    -20.9350E-03     41.9074E-03    -20.9724E-03     11.5269E-03    -20.9513E-03     41.8814E-03    -20.9958E-03     11.4778E-03
            1130     2.64386E-03     102.465E-03    -13.4043E+06    -18.0989E+06    -14.5764E+06    -4.02950E+06    -20.8495E-03     41.7729E-03    -20.9234E-03     17.1916E-03    -20.8694E-03     41.7231E-03    -20.9506E-03     17.1381E-03
            1131     3.52551E-03     102.480E-03    -18.2596E+06    -25.6216E+06    -17.9966E+06    -3.39770E+06    -20.7611E-03     41.6301E-03    -20.8691E-03     23.0358E-03    -20.7896E-03     41.5550E-03    -20.8954E-03     22.9897E-03
            1132     4.40703E-03     102.500E-03    -23.3331E+06    -31.9706E+06    -19.6297E+06    -2.35837E+06    -20.7009E-03     41.5189E-03    -20.8180E-03     29.0659E-03    -20.7436E-03     41.4221E-03    -20.8360E-03     29.0322E-03
            1133     5.28892E-03     102.524E-03    -27.6144E+06    -35.9852E+06    -18.6648E+06    -1.72850E+06    -20.7151E-03     41.4940E-03    -20.7789E-03     35.3163E-03    -20.7755E-03     41.3826E-03    -20.7800E-03     35.2892E-03
            1134     6.17055E-03     102.554E-03    -30.4928E+06    -37.3986E+06    -15.5066E+06    -2.02267E+06    -20.8438E-03     41.6013E-03    -20.7574E-03     41.8071E-03    -20.9223E-03     41.4837E-03    -20.7365E-03     41.7737E-03
            1135     7.05240E-03     102.589E-03    -31.4594E+06    -37.2114E+06    -10.8965E+06    -3.29228E+06    -21.1523E-03     41.9129E-03    -20.7606E-03     48.5609E-03    -21.2447E-03     41.7931E-03    -20.7155E-03     48.5072E-03
            1136     7.93376E-03     102.630E-03    -30.7583E+06    -35.6390E+06    -5.93576E+06    -5.01986E+06    -21.6665E-03     42.4604E-03    -20.7938E-03     55.5644E-03    -21.7686E-03     42.3439E-03    -20.7272E-03     55.4828E-03
            1137     8.81497E-03     102.677E-03    -28.9670E+06    -34.2834E+06    -1.70275E+06    -7.15715E+06    -22.4771E-03     43.3435E-03    -20.8664E-03     62.7796E-03    -22.5846E-03     43.2313E-03    -20.7832E-03     62.6618E-03
            1138     9.69535E-03     102.730E-03    -26.5418E+06    -31.5418E+06     1.38175E+06    -9.62797E+06    -23.6823E-03     44.6727E-03    -20.9904E-03     70.1619E-03    -23.7967E-03     44.5769E-03    -20.8993E-03     69.9993E-03
            1139     10.5747E-03     102.790E-03    -24.2637E+06    -31.3325E+06     2.74466E+06    -12.2757E+06    -25.2601E-03     46.4444E-03    -21.1844E-03     77.5619E-03    -25.3829E-03     46.3619E-03    -21.0900E-03     77.3464E-03
            1140     11.4530E-03     102.856E-03    -21.7901E+06    -32.8721E+06     2.09544E+06    -15.4818E+06    -27.2418E-03     48.6973E-03    -21.4555E-03     84.9027E-03    -27.3777E-03     48.6331E-03    -21.3657E-03     84.6191E-03
            1141     12.3291E-03     102.931E-03    -19.2235E+06    -31.4895E+06     629.101E+03    -17.8821E+06    -29.5282E-03     51.3379E-03    -21.8097E-03     91.6664E-03    -29.6965E-03     51.3245E-03    -21.7330E-03     91.3156E-03
            1142     13.2043E-03     103.010E-03    -16.8993E+06    -30.2486E+06    -1.23874E+06    -19.2593E+06    -32.1398E-03     54.3972E-03    -22.2575E-03     98.1659E-03    -32.3722E-03     54.4660E-03    -22.1953E-03     97.7482E-03
            1143     14.0762E-03     103.098E-03    -14.0547E+06    -27.1422E+06    -4.46897E+06    -20.1260E+06    -34.8861E-03     57.6692E-03    -22.7832E-03     107.503E-03    -35.2533E-03     57.9033E-03    -22.7458E-03     107.014E-03
            1144     14.9476E-03     103.197E-03    -11.2993E+06    -22.9474E+06    -11.6239E+06    -17.1637E+06    -38.0183E-03     61.3891E-03    -23.3708E-03     119.372E-03    -38.7168E-03     62.0001E-03    -23.3793E-03     118.862E-03
            1145     15.8135E-03     103.312E-03    -7.31568E+06     58.4253E+06    -335.285E+03    -8.46442E+06    -39.0744E-03     63.0519E-03    -23.9775E-03     126.057E-03    -40.4484E-03     64.6082E-03    -24.0533E-03     125.827E-03
            1146     16.6893E-03     103.434E-03    -2.40788E+06     132.682E+06     53.9397E+06    -1.27248E+06    -38.8613E-03     63.6731E-03    -24.8117E-03     72.7172E-03    -40.0155E-03     65.1336E-03    -24.7309E-03     72.7623E-03
            1147     882.441E-06     103.435E-03    -14.4205E+06    -3.51628E+06    -14.1925E+06    -298.629E+03    -19.7296E-03     39.4602E-03    -19.7306E-03     6.24337E-03    -19.7761E-03     39.4841E-03    -19.7755E-03     6.23930E-03
            1148     1.76467E-03     103.442E-03    -18.4033E+06    -10.1706E+06    -18.1365E+06     356.153E+03    -19.6894E-03     39.3980E-03    -19.7085E-03     11.5465E-03    -19.7405E-03     39.4001E-03    -19.7578E-03     11.5507E-03
            1149     2.64727E-03     103.452E-03    -23.7210E+06    -18.6279E+06    -21.7403E+06     1.62974E+06    -19.6450E-03     39.3267E-03    -19.6817E-03     17.2343E-03    -19.7053E-03     39.2996E-03    -19.7290E-03     17.2546E-03
            1150     3.52968E-03     103.467E-03    -29.2056E+06    -26.7952E+06    -23.9475E+06     2.98300E+06    -19.6162E-03     39.2734E-03    -19.6572E-03     23.1261E-03    -19.6890E-03     39.2167E-03    -19.6957E-03     23.1634E-03
            1151     4.41241E-03     103.487E-03    -33.5036E+06    -32.7284E+06    -23.8031E+06     3.58204E+06    -19.6313E-03     39.2714E-03    -19.6401E-03     29.2447E-03    -19.7174E-03     39.1913E-03    -19.6631E-03     29.2890E-03
            1152     5.29490E-03     103.511E-03    -35.7793E+06    -35.5163E+06    -21.1500E+06     2.94267E+06    -19.7220E-03     39.3565E-03    -19.6345E-03     35.6302E-03    -19.8198E-03     39.2624E-03    -19.6369E-03     35.6649E-03
            1153     6.17766E-03     103.541E-03    -35.8986E+06    -35.7082E+06    -16.5452E+06     1.23453E+06    -19.9496E-03     39.5961E-03    -19.6465E-03     42.3267E-03    -20.0554E-03     39.4956E-03    -19.6254E-03     42.3374E-03
            1154     7.05993E-03     103.576E-03    -34.6979E+06    -34.3427E+06    -11.2063E+06    -1.29041E+06    -20.3490E-03     40.0314E-03    -19.6825E-03     49.3483E-03    -20.4604E-03     39.9302E-03    -19.6384E-03     49.3229E-03
            1155     7.94222E-03     103.618E-03    -32.5438E+06    -32.5362E+06    -6.04958E+06    -4.23214E+06    -20.9884E-03     40.7390E-03    -19.7507E-03     56.6463E-03    -21.1026E-03     40.6397E-03    -19.6866E-03     56.5777E-03
            1156     8.82381E-03     103.665E-03    -29.5625E+06    -30.3209E+06    -1.38615E+06    -7.10367E+06    -21.9536E-03     41.8171E-03    -19.8635E-03     64.2886E-03    -22.0689E-03     41.7238E-03    -19.7836E-03     64.1746E-03
            1157     9.70464E-03     103.720E-03    -26.5760E+06    -27.9712E+06     1.81623E+06    -9.75913E+06    -23.2923E-03     43.3248E-03    -20.0325E-03     72.1634E-03    -23.4112E-03     43.2448E-03    -19.9443E-03     72.0027E-03
            1158     10.5846E-03     103.782E-03    -23.6680E+06    -26.9635E+06     3.58469E+06    -12.6700E+06    -25.0996E-03     45.3756E-03    -20.2760E-03     80.0677E-03    -25.2258E-03     45.3117E-03    -20.1847E-03     79.8504E-03
            1159     11.4625E-03     103.851E-03    -20.9608E+06    -27.4512E+06     3.73279E+06    -16.2523E+06    -27.3391E-03     47.9466E-03    -20.6075E-03     87.9695E-03    -27.4809E-03     47.9058E-03    -20.5186E-03     87.6784E-03
            1160     12.3393E-03     103.927E-03    -18.9390E+06    -28.9039E+06     1.64371E+06    -18.5629E+06    -30.0242E-03     51.0583E-03    -21.0340E-03     95.2831E-03    -30.1983E-03     51.0578E-03    -20.9564E-03     94.9235E-03
            1161     13.2128E-03     104.010E-03    -17.2801E+06    -26.6425E+06    -247.656E+03    -20.5131E+06    -33.1049E-03     54.6735E-03    -21.5686E-03     102.198E-03    -33.3513E-03     54.7649E-03    -21.5062E-03     101.760E-03
            1162     14.0849E-03     104.101E-03    -15.4825E+06    -25.2133E+06    -3.51909E+06    -22.3131E+06    -36.5782E-03     58.7883E-03    -22.2101E-03     111.397E-03    -36.9679E-03     59.0441E-03    -22.1687E-03     110.863E-03
            1163     14.9528E-03     104.204E-03    -13.2789E+06    -29.2536E+06    -13.2504E+06    -19.9597E+06    -40.6468E-03     63.5875E-03    -22.9408E-03     124.885E-03    -41.3761E-03     64.2047E-03    -22.9454E-03     124.299E-03
            1164     15.8185E-03     104.325E-03    -11.3952E+06     48.1332E+06    -4.74169E+06    -12.9984E+06    -43.6842E-03     67.4315E-03    -23.7474E-03     130.686E-03    -45.1267E-03     69.0183E-03    -23.8243E-03     130.271E-03
            1165     16.6738E-03     104.441E-03    -4.79112E+06     126.372E+06     51.6622E+06    -4.20657E+06    -40.7583E-03     65.5182E-03    -24.7599E-03     76.1317E-03    -41.9697E-03     67.0112E-03    -24.6778E-03     76.0543E-03
            1166     883.450E-06     104.420E-03    -28.1465E+06    -8.05592E+06    -25.6144E+06     4.89627E+06    -18.3849E-03     36.7717E-03    -18.3869E-03     6.16881E-03    -18.4768E-03     36.8093E-03    -18.4624E-03     6.23198E-03
            1167     1.76716E-03     104.427E-03    -32.8941E+06    -13.9272E+06    -27.9534E+06     7.17404E+06    -18.3942E-03     36.7867E-03    -18.3926E-03     11.4334E-03    -18.4980E-03     36.8052E-03    -18.4644E-03     11.5259E-03
            1168     2.65057E-03     104.437E-03    -37.3002E+06    -22.0729E+06    -29.0368E+06     8.62913E+06    -18.4144E-03     36.8184E-03    -18.4040E-03     17.1144E-03    -18.5269E-03     36.8042E-03    -18.4631E-03     17.2256E-03
            1169     3.53426E-03     104.452E-03    -40.0662E+06    -29.1766E+06    -28.3062E+06     9.13864E+06    -18.4672E-03     36.8869E-03    -18.4197E-03     23.0512E-03    -18.5844E-03     36.8402E-03    -18.4608E-03     23.1687E-03
            1170     4.41767E-03     104.472E-03    -40.9612E+06    -33.0729E+06    -25.7342E+06     8.10587E+06    -18.5697E-03     37.0101E-03    -18.4404E-03     29.2599E-03    -18.6896E-03     36.9417E-03    -18.4617E-03     29.3636E-03
            1171     5.30131E-03     104.496E-03    -40.0231E+06    -33.8682E+06    -21.7654E+06     5.55104E+06    -18.7538E-03     37.2230E-03    -18.4692E-03     35.7818E-03    -18.8739E-03     37.1438E-03    -18.4709E-03     35.8515E-03
            1172     6.18457E-03     104.526E-03    -37.7598E+06    -33.1709E+06    -16.8804E+06     2.37085E+06    -19.0549E-03     37.5680E-03    -18.5131E-03     42.6690E-03    -19.1727E-03     37.4829E-03    -18.4947E-03     42.6959E-03
            1173     7.06792E-03     104.562E-03    -34.5982E+06    -30.8440E+06    -11.1687E+06    -896.025E+03    -19.5456E-03     38.1271E-03    -18.5815E-03     49.9379E-03    -19.6609E-03     38.0424E-03    -18.5424E-03     49.9197E-03
            1174     7.95067E-03     104.604E-03    -31.2484E+06    -28.3288E+06    -5.46744E+06    -4.25094E+06    -20.3126E-03     38.9996E-03    -18.6870E-03     57.6026E-03    -20.4263E-03     38.9175E-03    -18.6279E-03     57.5362E-03
            1175     8.83287E-03     104.653E-03    -28.0994E+06    -26.2620E+06    -900.289E+03    -7.61077E+06    -21.4094E-03     40.2497E-03    -18.8402E-03     65.6758E-03    -21.5227E-03     40.1726E-03    -18.7659E-03     65.5582E-03
            1176     9.71434E-03     104.709E-03    -24.6361E+06    -24.1145E+06     2.58804E+06    -10.4686E+06    -22.9083E-03     41.9631E-03    -19.0549E-03     74.0434E-03    -23.0227E-03     41.8970E-03    -18.9712E-03     73.8768E-03
            1177     10.5942E-03     104.773E-03    -21.1851E+06    -22.2902E+06     5.01603E+06    -13.4067E+06    -24.8329E-03     44.1788E-03    -19.3459E-03     82.6058E-03    -24.9540E-03     44.1311E-03    -19.2578E-03     82.3828E-03
            1178     11.4730E-03     104.843E-03    -18.7029E+06    -22.5758E+06     5.83701E+06    -16.3382E+06    -27.3399E-03     47.0712E-03    -19.7313E-03     91.2616E-03    -27.4796E-03     47.0475E-03    -19.6422E-03     90.9726E-03
            1179     12.3490E-03     104.923E-03    -16.6071E+06    -25.4541E+06     3.95841E+06    -19.0630E+06    -30.4093E-03     50.6330E-03    -20.2238E-03     99.3180E-03    -30.5810E-03     50.6442E-03    -20.1430E-03     98.9533E-03
            1180     13.2232E-03     105.010E-03    -14.1291E+06    -22.6441E+06     2.44734E+06    -21.2993E+06    -33.8810E-03     54.7157E-03    -20.8347E-03     107.094E-03    -34.1258E-03     54.8232E-03    -20.7692E-03     106.643E-03
            1181     14.0933E-03     105.105E-03    -11.8980E+06    -22.4502E+06        -488.688    -23.2277E+06    -37.9162E-03     59.4892E-03    -21.5730E-03     117.513E-03    -38.3109E-03     59.7624E-03    -21.5232E-03     116.955E-03
            1182     14.9612E-03     105.213E-03    -10.1320E+06    -33.8287E+06    -11.6462E+06    -21.8805E+06    -41.9871E-03     64.3840E-03    -22.3969E-03     132.052E-03    -42.7153E-03     64.9902E-03    -22.3913E-03     131.422E-03
            1183     15.8257E-03     105.338E-03    -8.31040E+06     38.8841E+06    -7.21973E+06    -14.2750E+06    -45.5008E-03     68.7763E-03    -23.2756E-03     140.842E-03    -46.9936E-03     70.3990E-03    -23.3560E-03     140.373E-03
            1184     16.6912E-03     105.465E-03    -2.95725E+06     118.876E+06     49.4000E+06    -6.41506E+06    -44.9390E-03     69.3780E-03    -24.4390E-03     79.7199E-03    -46.1888E-03     70.8964E-03    -24.3601E-03     79.5486E-03
            1185     884.805E-06     105.403E-03    -48.5701E+06    -22.1620E+06    -45.5450E+06     9.76609E+06    -17.0855E-03     34.1789E-03    -17.0934E-03     6.00036E-03    -17.2302E-03     34.2045E-03    -17.2186E-03     6.12646E-03
            1186     1.76928E-03     105.409E-03    -48.8682E+06    -22.5764E+06    -40.0828E+06     13.9775E+06    -17.1384E-03     34.2688E-03    -17.1304E-03     11.1736E-03    -17.2919E-03     34.2849E-03    -17.2272E-03     11.3540E-03
            1187     2.65400E-03     105.420E-03    -49.1536E+06    -26.6660E+06    -35.4528E+06     14.6692E+06    -17.2287E-03     34.4077E-03    -17.1790E-03     16.8418E-03    -17.3844E-03     34.3970E-03    -17.2464E-03     17.0312E-03
            1188     3.53842E-03     105.435E-03    -47.8651E+06    -30.6689E+06    -31.5825E+06     12.6258E+06    -17.3602E-03     34.5872E-03    -17.2270E-03     22.8175E-03    -17.5093E-03     34.5489E-03    -17.2710E-03     22.9804E-03
            1189     4.42302E-03     105.455E-03    -44.4117E+06    -31.9643E+06    -27.2955E+06     9.21674E+06    -17.5431E-03     34.8189E-03    -17.2758E-03     29.0968E-03    -17.6794E-03     34.7630E-03    -17.3015E-03     29.2154E-03
            1190     5.30727E-03     105.479E-03    -40.0762E+06    -31.2755E+06    -22.3863E+06     5.49454E+06    -17.8017E-03     35.1339E-03    -17.3322E-03     35.7384E-03    -17.9247E-03     35.0684E-03    -17.3407E-03     35.8082E-03
            1191     6.19158E-03     105.510E-03    -35.9566E+06    -29.7411E+06    -16.9787E+06     1.86412E+06    -18.1863E-03     35.5920E-03    -17.4057E-03     42.7892E-03    -18.2994E-03     35.5210E-03    -17.3953E-03     42.8108E-03
            1192     7.07546E-03     105.546E-03    -32.2224E+06    -27.0048E+06    -11.1094E+06    -1.70024E+06    -18.7559E-03     36.2613E-03    -17.5054E-03     50.3090E-03    -18.8642E-03     36.1915E-03    -17.4751E-03     50.2821E-03
            1193     7.95900E-03     105.589E-03    -28.5122E+06    -24.4230E+06    -5.20861E+06    -4.93821E+06    -19.6086E-03     37.2525E-03    -17.6440E-03     58.3360E-03    -19.7135E-03     37.1846E-03    -17.5932E-03     58.2630E-03
            1194     8.84193E-03     105.638E-03    -24.9414E+06    -21.4646E+06     160.149E+03    -8.30485E+06    -20.8423E-03     38.6771E-03    -17.8348E-03     66.8680E-03    -20.9469E-03     38.6166E-03    -17.7668E-03     66.7443E-03
            1195     9.72352E-03     105.696E-03    -21.4285E+06    -19.8984E+06     3.90047E+06    -11.8038E+06    -22.4145E-03     40.5027E-03    -18.0882E-03     75.7798E-03    -22.5192E-03     40.4493E-03    -18.0087E-03     75.5995E-03
            1196     10.6043E-03     105.761E-03    -17.9273E+06    -18.3288E+06     6.85116E+06    -14.3183E+06    -24.4630E-03     42.8811E-03    -18.4181E-03     85.0653E-03    -24.5741E-03     42.8436E-03    -18.3312E-03     84.8347E-03
            1197     11.4831E-03     105.836E-03    -15.0289E+06    -18.4499E+06     8.67986E+06    -16.6764E+06    -27.1985E-03     46.0462E-03    -18.8477E-03     94.6347E-03    -27.3281E-03     46.0319E-03    -18.7558E-03     94.3457E-03
            1198     12.3597E-03     105.919E-03    -12.4188E+06    -20.5921E+06     7.95744E+06    -19.6797E+06    -30.4776E-03     49.8677E-03    -19.3901E-03     103.559E-03    -30.6403E-03     49.8903E-03    -19.3024E-03     103.190E-03
            1199     13.2332E-03     106.009E-03    -10.3119E+06    -19.5098E+06     6.06769E+06    -21.8833E+06    -34.2786E-03     54.3339E-03    -20.0553E-03     112.315E-03    -34.5166E-03     54.4487E-03    -19.9817E-03     111.857E-03
            1200     14.1046E-03     106.109E-03    -9.45365E+06    -18.9223E+06     4.38504E+06    -23.3627E+06    -38.6044E-03     59.4648E-03    -20.8604E-03     123.401E-03    -39.0062E-03     59.7535E-03    -20.7973E-03     122.837E-03
            1201     14.9716E-03     106.222E-03    -8.54174E+06    -36.4188E+06    -9.25961E+06    -23.3051E+06    -42.8789E-03     64.6302E-03    -21.7513E-03     137.251E-03    -43.6062E-03     65.2251E-03    -21.7324E-03     136.589E-03
            1202     15.8369E-03     106.350E-03    -5.45275E+06     29.2535E+06    -8.48870E+06    -17.2873E+06    -46.6899E-03     69.3824E-03    -22.6925E-03     145.612E-03    -48.1841E-03     70.9864E-03    -22.7695E-03     145.079E-03
            1203     16.6963E-03     106.482E-03    -3.52158E+06     110.680E+06     47.4995E+06    -7.43745E+06    -50.1304E-03     74.1634E-03    -24.0330E-03     80.4527E-03    -51.3930E-03     75.6696E-03    -23.9508E-03     80.1914E-03
            1204     885.517E-06     106.383E-03    -79.8462E+06    -38.7637E+06    -79.4201E+06     7.19139E+06    -15.9593E-03     31.9345E-03    -15.9751E-03     5.78702E-03    -16.1872E-03     31.9716E-03    -16.2003E-03     5.87985E-03
            1205     1.77133E-03     106.390E-03    -70.1311E+06    -33.5691E+06    -64.7993E+06     11.6200E+06    -16.0074E-03     32.0217E-03    -16.0143E-03     10.8075E-03    -16.2155E-03     32.0495E-03    -16.1879E-03     10.9576E-03
            1206     2.65680E-03     106.400E-03    -59.0766E+06    -31.3713E+06    -48.9754E+06     13.0350E+06    -16.1283E-03     32.2088E-03    -16.0805E-03     16.4054E-03    -16.3071E-03     32.2085E-03    -16.1943E-03     16.5738E-03
            1207     3.54237E-03     106.415E-03    -49.9332E+06    -30.5140E+06    -37.6465E+06     10.9182E+06    -16.3198E-03     32.4656E-03    -16.1458E-03     22.3863E-03    -16.4706E-03     32.4399E-03    -16.2174E-03     22.5274E-03
            1208     4.42762E-03     106.435E-03    -43.5013E+06    -29.8447E+06    -30.4380E+06     7.25018E+06    -16.5653E-03     32.7759E-03    -16.2106E-03     28.7149E-03    -16.6954E-03     32.7339E-03    -16.2565E-03     28.8084E-03
            1209     5.31292E-03     106.460E-03    -38.6936E+06    -28.2559E+06    -24.5202E+06     3.59444E+06    -16.8819E-03     33.1674E-03    -16.2855E-03     35.4166E-03    -16.9991E-03     33.1179E-03    -16.3110E-03     35.4625E-03
            1210     6.19791E-03     106.491E-03    -33.9779E+06    -25.8551E+06    -18.2492E+06    -243.439E+03    -17.3345E-03     33.7153E-03    -16.3808E-03     42.6241E-03    -17.4412E-03     33.6624E-03    -16.3853E-03     42.6194E-03
            1211     7.08258E-03     106.528E-03    -28.9946E+06    -23.1566E+06    -11.4515E+06    -3.67237E+06    -17.9784E-03     34.4846E-03    -16.5062E-03     50.3597E-03    -18.0751E-03     34.4293E-03    -16.4879E-03     50.3087E-03
            1212     7.96687E-03     106.571E-03    -24.5570E+06    -20.7500E+06    -4.88695E+06    -6.49286E+06    -18.9137E-03     35.5860E-03    -16.6723E-03     58.7537E-03    -19.0037E-03     35.5293E-03    -16.6310E-03     58.6626E-03
            1213     8.85015E-03     106.623E-03    -20.7450E+06    -17.3171E+06     1.30093E+06    -9.09336E+06    -20.1673E-03     37.0572E-03    -16.8899E-03     67.7417E-03    -20.2571E-03     37.0081E-03    -16.8282E-03     67.6106E-03
            1214     9.73281E-03     106.682E-03    -18.1781E+06    -14.9905E+06     5.97197E+06    -12.2894E+06    -21.7990E-03     38.9683E-03    -17.1694E-03     77.1463E-03    -21.8953E-03     38.9296E-03    -17.0914E-03     76.9635E-03
            1215     10.6139E-03     106.750E-03    -15.8717E+06    -14.5938E+06     8.98938E+06    -15.2964E+06    -24.0154E-03     41.5431E-03    -17.5276E-03     87.2546E-03    -24.1221E-03     41.5155E-03    -17.4385E-03     87.0160E-03
            1216     11.4932E-03     106.826E-03    -12.7346E+06    -14.0520E+06     11.5751E+06    -17.8796E+06    -26.8229E-03     44.8093E-03    -17.9864E-03     97.6982E-03    -26.9483E-03     44.8061E-03    -17.8897E-03     97.3992E-03
            1217     12.3702E-03     106.913E-03    -9.69665E+06    -15.9439E+06     11.7781E+06    -20.6669E+06    -30.3044E-03     48.8649E-03    -18.5606E-03     107.512E-03    -30.4628E-03     48.8984E-03    -18.4645E-03     107.135E-03
            1218     13.2447E-03     107.008E-03    -8.11069E+06    -17.6263E+06     9.39020E+06    -21.5540E+06    -34.5719E-03     53.8417E-03    -19.2698E-03     117.036E-03    -34.8057E-03     53.9572E-03    -19.1856E-03     116.585E-03
            1219     14.1146E-03     107.113E-03    -7.32766E+06    -13.7818E+06     9.34737E+06    -22.8914E+06    -39.4111E-03     59.5532E-03    -20.1422E-03     128.193E-03    -39.8180E-03     59.8586E-03    -20.0648E-03     127.631E-03
            1220     14.9819E-03     107.231E-03    -5.52327E+06    -35.9009E+06    -5.56032E+06     -25.255E+06    -44.6825E-03     65.8141E-03    -21.1316E-03     140.734E-03    -45.4001E-03     66.4015E-03    -21.0993E-03     140.020E-03
            1221     15.8445E-03     107.363E-03    -4.24695E+06     17.2729E+06    -10.3191E+06    -19.3474E+06    -50.0546E-03     72.2779E-03    -22.2233E-03     149.315E-03    -51.5474E-03     73.8478E-03    -22.2938E-03     148.652E-03
            1222     16.7027E-03     107.506E-03    -3.92808E+06     99.4444E+06     44.8887E+06    -7.25037E+06    -54.4018E-03     78.1687E-03    -23.7670E-03     86.8754E-03    -55.6959E-03     79.6730E-03    -23.6810E-03     86.4999E-03
            1223     886.320E-06     107.361E-03    -96.7218E+06    -46.0347E+06    -97.2783E+06    -35.0986E+03    -15.1659E-03     30.3566E-03    -15.1907E-03     5.58608E-03    -15.4417E-03     30.4077E-03    -15.4701E-03     5.58555E-03
            1224     1.77247E-03     107.368E-03    -87.8458E+06    -39.9933E+06    -86.5799E+06     725.272E+03    -15.1654E-03     30.3573E-03    -15.1920E-03     10.4095E-03    -15.4211E-03     30.4103E-03    -15.4395E-03     10.4187E-03
            1225     2.65897E-03     107.379E-03    -75.2012E+06    -34.5199E+06    -72.6906E+06     1.59202E+06    -15.2125E-03     30.4274E-03    -15.2148E-03     15.7742E-03    -15.4331E-03     30.4692E-03    -15.4192E-03     15.7947E-03
            1226     3.54528E-03     107.394E-03    -61.9462E+06    -30.1600E+06    -59.0783E+06     1.41736E+06    -15.3566E-03     30.6062E-03    -15.2497E-03     21.5891E-03    -15.5369E-03     30.6309E-03    -15.4115E-03     21.6074E-03
            1227     4.43159E-03     107.414E-03    -50.1343E+06    -27.8777E+06    -45.3603E+06     93.3277E+03    -15.6128E-03     30.9248E-03    -15.3120E-03     27.8607E-03    -15.7573E-03     30.9239E-03    -15.4257E-03     27.8619E-03
            1228     5.31757E-03     107.439E-03    -39.9636E+06    -25.3022E+06    -32.3307E+06    -2.12346E+06    -15.9964E-03     31.3970E-03    -15.4006E-03     34.6412E-03    -16.1128E-03     31.3754E-03    -15.4676E-03     34.6135E-03
            1229     6.20330E-03     107.471E-03    -31.9272E+06    -22.1603E+06    -21.6783E+06    -4.65362E+06    -16.5095E-03     32.0200E-03    -15.5105E-03     41.9565E-03    -16.6061E-03     31.9874E-03    -15.5405E-03     41.8954E-03
            1230     7.08879E-03     107.508E-03    -26.1569E+06    -20.1245E+06    -12.9692E+06    -6.84498E+06    -17.2353E-03     32.8873E-03    -15.6521E-03     49.9004E-03    -17.3195E-03     32.8448E-03    -15.6498E-03     49.8094E-03
            1231     7.97348E-03     107.553E-03    -21.8508E+06    -17.4915E+06    -5.26236E+06    -8.52325E+06    -18.1918E-03     34.0261E-03    -15.8343E-03     58.5677E-03    -18.2715E-03     33.9814E-03    -15.8035E-03     58.4520E-03
            1232     8.85778E-03     107.605E-03    -18.3342E+06    -13.8686E+06     1.89100E+06    -10.4877E+06    -19.4211E-03     35.4856E-03    -16.0645E-03     67.9072E-03    -19.5032E-03     35.4479E-03    -16.0084E-03     67.7609E-03
            1233     9.74086E-03     107.666E-03    -14.6984E+06    -10.9038E+06     8.43082E+06    -12.5254E+06    -21.1247E-03     37.4822E-03    -16.3575E-03     77.8638E-03    -21.2106E-03     37.4527E-03    -16.2782E-03     77.6818E-03
            1234     10.6226E-03     107.736E-03    -12.2146E+06    -10.0313E+06     12.6700E+06    -15.2387E+06    -23.4082E-03     40.1376E-03    -16.7294E-03     88.7673E-03    -23.5049E-03     40.1186E-03    -16.6338E-03     88.5346E-03
            1235     11.5026E-03     107.816E-03    -10.6927E+06    -9.47867E+06     15.0799E+06    -18.1793E+06    -26.3190E-03     43.5191E-03    -17.2001E-03     99.9886E-03    -26.4407E-03     43.5256E-03    -17.0954E-03     99.6925E-03
            1236     12.3803E-03     107.906E-03    -9.61197E+06    -11.3344E+06     15.3977E+06    -20.7161E+06    -30.0540E-03     47.8493E-03    -17.7952E-03     110.867E-03    -30.2183E-03     47.8947E-03    -17.6879E-03     110.497E-03
            1237     13.2542E-03     108.006E-03    -7.99845E+06    -16.8555E+06     12.2808E+06    -21.8615E+06    -34.8960E-03     53.4392E-03    -18.5433E-03     121.519E-03    -35.1299E-03     53.5497E-03    -18.4458E-03     121.067E-03
            1238     14.1250E-03     108.116E-03    -6.08566E+06    -8.12162E+06     14.1359E+06    -23.1554E+06    -40.5472E-03     60.0335E-03    -19.4863E-03     133.056E-03    -40.9581E-03     60.3536E-03    -19.3950E-03     132.485E-03
            1239     14.9900E-03     108.241E-03    -6.35151E+06    -33.4585E+06    -720.532E+03    -25.6766E+06    -47.2005E-03     67.8042E-03    -20.6037E-03     146.402E-03    -47.9311E-03     68.3965E-03    -20.5496E-03     145.644E-03
            1240     15.8493E-03     108.380E-03     -7.2675E+06     3.48422E+06    -7.60061E+06    -19.7389E+06    -54.3756E-03     76.2743E-03    -21.8987E-03     156.114E-03    -55.9189E-03     77.8276E-03    -21.9313E-03     155.295E-03
            1241     16.7031E-03     108.530E-03    -5.02649E+06     87.0235E+06     46.1630E+06    -8.12265E+06    -57.6766E-03     81.2993E-03    -23.6227E-03     93.0116E-03    -59.0298E-03     82.8107E-03    -23.5108E-03     92.4905E-03
            1242     886.586E-06     108.338E-03    -82.8710E+06    -42.5172E+06    -82.3185E+06    -3.83193E+06    -14.7572E-03     29.5320E-03    -14.7748E-03     5.34658E-03    -14.9905E-03     29.5590E-03    -15.0046E-03     5.29691E-03
            1243     1.77339E-03     108.345E-03    -80.4878E+06    -37.9935E+06    -78.6194E+06    -6.23706E+06    -14.7503E-03     29.5151E-03    -14.7649E-03     9.94067E-03    -14.9837E-03     29.5559E-03    -14.9862E-03     9.85982E-03
            1244     2.66003E-03     108.355E-03    -76.0174E+06    -33.0125E+06    -73.3479E+06    -8.17905E+06    -14.7405E-03     29.5007E-03    -14.7602E-03     14.9845E-03    -14.9665E-03     29.5523E-03    -14.9688E-03     14.8785E-03
            1245     3.54693E-03     108.371E-03    -68.9933E+06    -28.3084E+06    -65.9906E+06    -9.55540E+06    -14.7659E-03     29.5255E-03    -14.7597E-03     20.4067E-03    -14.9742E-03     29.5798E-03    -14.9485E-03     20.2828E-03
            1246     4.43381E-03     108.391E-03    -59.8438E+06    -25.4847E+06    -55.8571E+06    -10.7046E+06    -14.9012E-03     29.6808E-03    -14.7797E-03     26.3478E-03    -15.0826E-03     29.7213E-03    -14.9352E-03     26.2091E-03
            1247     5.32062E-03     108.417E-03    -50.0568E+06    -22.4160E+06    -45.2467E+06    -11.8311E+06    -15.1923E-03     30.0137E-03    -14.8214E-03     32.9610E-03    -15.3448E-03     30.0400E-03    -14.9425E-03     32.8077E-03
            1248     6.20717E-03     108.448E-03    -40.3890E+06    -19.3325E+06    -34.3461E+06    -12.7720E+06    -15.7094E-03     30.6082E-03    -14.8987E-03     40.3212E-03    -15.8340E-03     30.6204E-03    -14.9839E-03     40.1554E-03
            1249     7.09311E-03     108.487E-03    -31.1487E+06    -18.1150E+06    -21.3585E+06    -13.0990E+06    -16.4716E-03     31.5073E-03    -15.0357E-03     48.4712E-03    -16.5713E-03     31.4940E-03    -15.0711E-03     48.3001E-03
            1250     7.97868E-03     108.532E-03    -22.5996E+06    -15.6719E+06    -8.27333E+06    -13.2629E+06    -17.4525E-03     32.6762E-03    -15.2237E-03     57.3125E-03    -17.5335E-03     32.6453E-03    -15.2096E-03     57.1369E-03
            1251     8.86334E-03     108.586E-03    -16.0599E+06    -11.7268E+06     2.46970E+06    -12.9188E+06    -18.7075E-03     34.1633E-03    -15.4559E-03     66.9213E-03    -18.7805E-03     34.1306E-03    -15.4032E-03     66.7459E-03
            1252     9.74720E-03     108.648E-03    -12.9627E+06    -8.42326E+06     10.2822E+06    -12.8683E+06    -20.3777E-03     36.1223E-03    -15.7447E-03     77.4047E-03    -20.4583E-03     36.0972E-03    -15.6622E-03     77.2222E-03
            1253     10.6297E-03     108.721E-03    -11.0477E+06    -5.06518E+06     15.9133E+06    -14.8245E+06    -22.6704E-03     38.7795E-03    -16.1091E-03     88.9726E-03    -22.7683E-03     38.7741E-03    -16.0062E-03     88.7510E-03
            1254     11.5103E-03     108.804E-03    -9.52803E+06    -5.81030E+06     18.7163E+06    -17.0823E+06    -25.6945E-03     42.2701E-03    -16.5755E-03     101.052E-03    -25.8137E-03     42.2806E-03    -16.4597E-03     100.778E-03
            1255     12.3883E-03     108.898E-03    -9.19025E+06    -7.23052E+06     19.5240E+06    -18.6445E+06    -29.6650E-03     46.8391E-03    -17.1741E-03     113.239E-03    -29.8288E-03     46.8883E-03    -17.0527E-03     112.905E-03
            1256     13.2635E-03     109.003E-03    -9.32086E+06    -12.7309E+06     16.2456E+06    -22.0177E+06    -35.0403E-03     52.9827E-03    -17.9424E-03     125.703E-03    -35.2810E-03     53.0984E-03    -17.8292E-03     125.257E-03
            1257     14.1326E-03     109.120E-03    -7.73053E+06    -4.95486E+06     17.6661E+06    -24.2884E+06    -41.4521E-03     60.3858E-03    -18.9337E-03     138.327E-03    -41.8654E-03     60.7035E-03    -18.8270E-03     137.741E-03
            1258     14.9979E-03     109.251E-03    -6.19875E+06    -31.5514E+06     5.20766E+06    -24.0775E+06    -49.0399E-03     69.1841E-03    -20.1442E-03     153.702E-03    -49.7596E-03     69.7557E-03    -20.0634E-03     152.940E-03
            1259     15.8563E-03     109.401E-03    -5.52585E+06    -6.92266E+06    -7.53544E+06    -20.1685E+06    -57.5067E-03     79.0489E-03    -21.5423E-03     167.644E-03    -59.0949E-03     80.6163E-03    -21.5619E-03     166.707E-03
            1260     16.7044E-03     109.562E-03    -1.18335E+06     73.6116E+06     42.8012E+06    -9.46539E+06    -61.2989E-03     84.6996E-03    -23.4007E-03     102.682E-03    -62.7162E-03     86.2509E-03    -23.2917E-03     102.006E-03
            1261     886.907E-06     109.315E-03    -60.1338E+06    -34.6598E+06    -59.2970E+06    -4.33552E+06    -14.6968E-03     29.3966E-03    -14.6998E-03     4.97831E-03    -14.8612E-03     29.3965E-03    -14.8588E-03     4.92197E-03
            1262     1.77362E-03     109.321E-03    -58.3291E+06    -31.0789E+06    -55.1207E+06    -7.70308E+06    -14.7456E-03     29.4627E-03    -14.7171E-03     9.24581E-03    -14.9123E-03     29.4718E-03    -14.8630E-03     9.14567E-03
            1263     2.66047E-03     109.332E-03    -55.7077E+06    -27.1365E+06    -49.2311E+06    -10.8540E+06    -14.7868E-03     29.5355E-03    -14.7487E-03     13.9004E-03    -14.9548E-03     29.5522E-03    -14.8747E-03     13.7592E-03
            1264     3.54720E-03     109.347E-03    -53.2087E+06    -23.4564E+06    -44.1906E+06    -13.4262E+06    -14.8119E-03     29.5828E-03    -14.7709E-03     18.8545E-03    -14.9802E-03     29.6071E-03    -14.8807E-03     18.6799E-03
            1265     4.43405E-03     109.368E-03    -50.9501E+06    -21.0068E+06    -40.7678E+06    -15.6960E+06    -14.8406E-03     29.6205E-03    -14.7799E-03     24.2476E-03    -15.0062E-03     29.6489E-03    -14.8794E-03     24.0435E-03
            1266     5.32100E-03     109.393E-03    -47.8180E+06    -18.2308E+06    -37.1285E+06    -17.8411E+06    -14.9567E-03     29.7443E-03    -14.7876E-03     30.2713E-03    -15.1161E-03     29.7769E-03    -14.8775E-03     30.0393E-03
            1267     6.20795E-03     109.425E-03    -43.2666E+06    -15.9416E+06    -31.6303E+06    -19.6117E+06    -15.2649E-03     30.0826E-03    -14.8177E-03     37.2011E-03    -15.4131E-03     30.1124E-03    -14.8900E-03     36.9461E-03
            1268     7.09466E-03     109.464E-03    -37.1226E+06    -16.0218E+06    -23.9535E+06    -20.5539E+06    -15.8221E-03     30.7126E-03    -14.8905E-03     45.1468E-03    -15.9511E-03     30.7223E-03    -14.9332E-03     44.8791E-03
            1269     7.98068E-03     109.511E-03    -29.7642E+06    -14.1236E+06    -14.4838E+06    -20.5885E+06    -16.6989E-03     31.7117E-03    -15.0128E-03     54.1447E-03    -16.8086E-03     31.7077E-03    -15.0216E-03     53.8751E-03
            1270     8.86602E-03     109.566E-03    -21.3798E+06    -12.6469E+06    -2.85046E+06    -18.9331E+06    -17.9369E-03     33.1409E-03    -15.2041E-03     64.0518E-03    -18.0261E-03     33.1176E-03    -15.1690E-03     63.8006E-03
            1271     9.75042E-03     109.630E-03    -13.0238E+06    -8.74303E+06     9.78893E+06    -15.6735E+06    -19.6196E-03     35.0885E-03    -15.4689E-03     75.0021E-03    -19.6963E-03     35.0595E-03    -15.3884E-03     74.7870E-03
            1272     10.6335E-03     109.704E-03    -8.53930E+06    -1.93532E+06     18.9201E+06    -14.1491E+06    -21.8555E-03     37.6609E-03    -15.8054E-03     87.1557E-03    -21.9438E-03     37.6573E-03    -15.6957E-03     86.9491E-03
            1273     11.5148E-03     109.790E-03    -8.65505E+06    -3.74087E+06     22.3211E+06    -13.9630E+06    -24.8402E-03     41.0820E-03    -16.2418E-03     100.161E-03    -24.9530E-03     41.0862E-03    -16.1122E-03     99.9368E-03
            1274     12.3938E-03     109.887E-03    -9.65410E+06    -2.18183E+06     23.8305E+06    -16.0387E+06    -29.0283E-03     45.8398E-03    -16.8115E-03     113.966E-03    -29.1927E-03     45.8933E-03    -16.6752E-03     113.679E-03
            1275     13.2685E-03     109.999E-03    -9.85364E+06    -6.11310E+06     22.2757E+06    -20.0443E+06    -34.6467E-03     52.2147E-03    -17.5680E-03     128.401E-03    -34.8854E-03     52.3326E-03    -17.4335E-03     127.997E-03
            1276     14.1397E-03     110.124E-03    -10.9140E+06    -1.80553E+06     22.2015E+06    -22.9688E+06    -41.3737E-03     59.9262E-03    -18.5525E-03     142.971E-03    -41.7802E-03     60.2239E-03    -18.4231E-03     142.418E-03
            1277     15.0037E-03     110.262E-03    -8.63259E+06    -27.5651E+06     11.3324E+06    -27.2400E+06    -49.2630E-03     69.0290E-03    -19.7660E-03     161.148E-03    -49.9560E-03     69.5615E-03    -19.6568E-03     160.357E-03
            1278     15.8619E-03     110.422E-03    -3.63376E+06    -18.4869E+06    -10.0789E+06    -23.3142E+06    -57.6095E-03     78.7285E-03    -21.1190E-03     179.295E-03    -59.1355E-03     80.2064E-03    -21.1373E-03     178.319E-03
            1279     16.7164E-03     110.595E-03    -2.91791E+06     56.9549E+06     34.4705E+06    -8.95442E+06    -65.4374E-03     88.4750E-03    -23.0376E-03     115.864E-03    -66.8782E-03     90.0106E-03    -22.9436E-03     115.083E-03
            1280     886.541E-06     110.291E-03    -37.9937E+06    -26.1275E+06    -36.7209E+06    -4.37884E+06    -15.1166E-03     30.2209E-03    -15.1043E-03     4.43967E-03    -15.2155E-03     30.1986E-03    -15.1949E-03     4.38251E-03
            1281     1.77316E-03     110.298E-03    -36.6740E+06    -23.2061E+06    -32.8059E+06    -7.72033E+06    -15.2110E-03     30.3550E-03    -15.1440E-03     8.22231E-03    -15.3133E-03     30.3398E-03    -15.2212E-03     8.12145E-03
            1282     2.65955E-03     110.308E-03    -35.1182E+06    -20.3076E+06    -27.8821E+06    -10.5564E+06    -15.3297E-03     30.5333E-03    -15.2036E-03     12.3287E-03    -15.4357E-03     30.5233E-03    -15.2626E-03     12.1906E-03
            1283     3.54594E-03     110.324E-03    -33.0884E+06    -17.4482E+06    -22.5837E+06    -12.8720E+06    -15.4565E-03     30.7257E-03    -15.2692E-03     16.6838E-03    -15.5645E-03     30.7197E-03    -15.3088E-03     16.5151E-03
            1284     4.43221E-03     110.344E-03    -30.6487E+06    -15.0156E+06    -17.2262E+06    -15.3014E+06    -15.5688E-03     30.9026E-03    -15.3337E-03     21.3819E-03    -15.6762E-03     30.8977E-03    -15.3537E-03     21.1812E-03
            1285     5.31848E-03     110.370E-03    -28.6698E+06    -12.7664E+06    -12.2689E+06    -17.7232E+06    -15.6622E-03     31.0533E-03    -15.3911E-03     26.6283E-03    -15.7705E-03     31.0500E-03    -15.3924E-03     26.3958E-03
            1286     6.20469E-03     110.402E-03    -27.8897E+06    -11.3711E+06    -8.91183E+06    -19.5828E+06    -15.7441E-03     31.1790E-03    -15.4349E-03     32.6465E-03    -15.8558E-03     31.1771E-03    -15.4225E-03     32.3895E-03
            1287     7.09106E-03     110.441E-03    -27.9214E+06    -11.7721E+06    -7.85436E+06    -21.5906E+06    -15.9230E-03     31.3896E-03    -15.4666E-03     39.7221E-03    -16.0362E-03     31.3846E-03    -15.4483E-03     39.4390E-03
            1288     7.97748E-03     110.488E-03    -27.0930E+06    -11.1486E+06    -6.49825E+06    -23.4035E+06    -16.3620E-03     31.8699E-03    -15.5079E-03     48.1363E-03    -16.4746E-03     31.8655E-03    -15.4849E-03     47.8293E-03
            1289     8.86344E-03     110.544E-03    -24.3556E+06    -12.4721E+06    -1.96010E+06    -23.8120E+06    -17.2697E-03     32.8710E-03    -15.6013E-03     57.9241E-03    -17.3746E-03     32.8509E-03    -15.5577E-03     57.6104E-03
            1290     9.74833E-03     110.609E-03    -18.7394E+06    -11.1365E+06     5.53722E+06    -22.1050E+06    -18.7376E-03     34.5030E-03    -15.7654E-03     69.2729E-03    -18.8305E-03     34.4738E-03    -15.6944E-03     68.9777E-03
            1291     10.6320E-03     110.686E-03    -11.2577E+06    -4.83922E+06     16.0365E+06    -16.8106E+06    -20.7988E-03     36.8191E-03    -16.0203E-03     82.0951E-03    -20.8859E-03     36.8026E-03    -15.9168E-03     81.8606E-03
            1292     11.5141E-03     110.774E-03    -5.67710E+06    -4.00906E+06     25.1241E+06    -12.1397E+06    -23.7563E-03     40.1473E-03    -16.3910E-03     96.1217E-03    -23.8456E-03     40.1295E-03    -16.2514E-03     95.9320E-03
            1293     12.3937E-03     110.876E-03    -5.50960E+06     2.11681E+06     30.0932E+06    -10.9810E+06    -27.8956E-03     44.7880E-03    -16.8924E-03     111.646E-03    -28.0338E-03     44.8271E-03    -16.7370E-03     111.441E-03
            1294     13.2701E-03     110.993E-03    -9.17325E+06     1.86168E+06     31.4375E+06    -14.6987E+06    -33.3784E-03     50.9623E-03    -17.5839E-03     128.186E-03    -33.6041E-03     51.0713E-03    -17.4161E-03     127.876E-03
            1295     14.1411E-03     111.124E-03    -10.7854E+06     2.57996E+06     30.2090E+06    -19.5899E+06    -39.8913E-03     58.3707E-03    -18.4794E-03     144.937E-03    -40.2587E-03     58.6219E-03    -18.3164E-03     144.464E-03
            1296     15.0083E-03     111.272E-03    -12.3320E+06    -14.4321E+06     22.6588E+06    -27.5647E+06    -47.1532E-03     66.7408E-03    -19.5877E-03     165.502E-03    -47.7995E-03     67.2272E-03    -19.4356E-03     164.762E-03
            1297     15.8700E-03     111.439E-03    -12.1165E+06    -31.2603E+06    -2.13924E+06    -29.7387E+06    -56.4401E-03     77.2934E-03    -20.8533E-03     187.550E-03    -57.8274E-03     78.5344E-03    -20.8011E-03     186.510E-03
            1298     16.7223E-03     111.624E-03    -5.45118E+06     31.3165E+06     34.6410E+06    -11.9771E+06    -69.2987E-03     92.0711E-03    -22.7724E-03     134.107E-03    -70.7030E-03     93.4716E-03    -22.6367E-03     133.158E-03
            1299     885.783E-06     111.269E-03    -16.9897E+06    -17.9495E+06    -15.8929E+06    -3.94795E+06    -16.2210E-03     32.4225E-03    -16.2015E-03     3.69291E-03    -16.2571E-03     32.3804E-03    -16.2303E-03     3.64094E-03
            1300     1.77135E-03     111.276E-03    -16.4767E+06    -15.9679E+06    -13.1448E+06    -6.80799E+06    -16.3552E-03     32.6080E-03    -16.2528E-03     6.82214E-03    -16.3957E-03     32.5712E-03    -16.2715E-03     6.73235E-03
            1301     2.65690E-03     111.287E-03    -15.4294E+06    -13.8686E+06    -8.92539E+06    -9.45057E+06    -16.5612E-03     32.9007E-03    -16.3396E-03     10.1968E-03    -16.6058E-03     32.8670E-03    -16.3417E-03     10.0718E-03
            1302     3.54218E-03     111.302E-03    -13.9544E+06    -11.7233E+06    -3.69010E+06    -11.8243E+06    -16.8089E-03     33.2598E-03    -16.4510E-03     13.7372E-03    -16.8571E-03     33.2274E-03    -16.4322E-03     13.5805E-03
            1303     4.42728E-03     111.323E-03    -12.7379E+06    -9.53173E+06     1.45932E+06    -13.6762E+06    -17.0572E-03     33.6311E-03    -16.5739E-03     17.5730E-03    -17.1104E-03     33.6008E-03    -16.5343E-03     17.3911E-03
            1304     5.31210E-03     111.349E-03    -12.1886E+06    -7.90869E+06     5.29438E+06    -15.0729E+06    -17.2359E-03     33.9271E-03    -16.6912E-03     21.8703E-03    -17.2949E-03     33.8991E-03    -16.6356E-03     21.6693E-03
            1305     6.19696E-03     111.381E-03    -11.7309E+06    -6.97884E+06     8.51128E+06    -16.3300E+06    -17.3195E-03     34.1122E-03    -16.7927E-03     26.8031E-03    -17.3829E-03     34.0841E-03    -16.7230E-03     26.5849E-03
            1306     7.08182E-03     111.420E-03    -11.2795E+06    -6.67676E+06     11.8659E+06    -17.9310E+06    -17.3240E-03     34.1978E-03    -16.8738E-03     32.5916E-03    -17.3911E-03     34.1664E-03    -16.7885E-03     32.3520E-03
            1307     7.96680E-03     111.467E-03    -12.3326E+06    -7.03834E+06     13.2549E+06    -19.5120E+06    -17.3207E-03     34.2462E-03    -16.9255E-03     39.5769E-03    -17.3952E-03     34.2131E-03    -16.8311E-03     39.3166E-03
            1308     8.85206E-03     111.522E-03    -14.6609E+06    -9.25019E+06     12.1685E+06    -21.0086E+06    -17.5446E-03     34.5034E-03    -16.9588E-03     48.2011E-03    -17.6268E-03     34.4651E-03    -16.8633E-03     47.9212E-03
            1309     9.73724E-03     111.589E-03    -16.9193E+06    -10.1182E+06     11.6154E+06    -22.2472E+06    -18.2515E-03     35.2608E-03    -17.0093E-03     58.7951E-03    -18.3444E-03     35.2239E-03    -16.9120E-03     58.4981E-03
            1310     10.6217E-03     111.666E-03    -15.5491E+06    -9.51705E+06     15.2209E+06    -21.0591E+06    -19.6972E-03     36.8226E-03    -17.1253E-03     71.5614E-03    -19.7928E-03     36.7850E-03    -17.0129E-03     71.2765E-03
            1311     11.5047E-03     111.758E-03    -8.83602E+06    -7.35224E+06     24.4382E+06    -16.8556E+06    -22.1609E-03     39.5131E-03    -17.3522E-03     86.5649E-03    -22.2481E-03     39.4721E-03    -17.2066E-03     86.3254E-03
            1312     12.3852E-03     111.863E-03    -723.146E+03    -1.88518E+06     35.8349E+06    -9.95207E+06    -25.9116E-03     43.6329E-03    -17.7213E-03     103.788E-03    -26.0039E-03     43.6124E-03    -17.5384E-03     103.617E-03
            1313     13.2628E-03     111.984E-03     1.96900E+06     8.41532E+06     44.9514E+06    -6.19098E+06    -31.0903E-03     49.3558E-03    -18.2655E-03     122.261E-03    -31.2457E-03     49.4181E-03    -18.0558E-03     122.095E-03
            1314     14.1368E-03     112.123E-03    -2.51550E+06     11.4362E+06     43.6927E+06    -11.7993E+06    -37.0297E-03     56.0184E-03    -18.9888E-03     140.239E-03    -37.3112E-03     56.2055E-03    -18.7832E-03     139.919E-03
            1315     15.0057E-03     112.276E-03    -7.57226E+06     768.290E+03     38.3159E+06    -20.3239E+06    -43.5772E-03     63.4880E-03    -19.9108E-03     161.502E-03    -44.0957E-03     63.8719E-03    -19.7094E-03     160.935E-03
            1316     15.8712E-03     112.451E-03    -13.6954E+06    -30.2075E+06     13.0118E+06    -26.9423E+06    -54.1750E-03     75.2013E-03    -21.0263E-03     189.478E-03    -55.3187E-03     76.1531E-03    -20.8976E-03     188.519E-03
            1317     16.7254E-03     112.657E-03    -17.8281E+06     5.36247E+06     22.6357E+06    -21.1580E+06    -68.9424E-03     91.6934E-03    -22.7511E-03     153.753E-03    -70.2989E-03     92.9451E-03    -22.6198E-03     152.616E-03
            1318     883.996E-06     112.250E-03     964.079E+03    -10.9704E+06     1.70172E+06    -3.24448E+06    -18.2305E-03     36.4336E-03    -18.2031E-03     2.71877E-03    -18.2126E-03     36.3747E-03    -18.1801E-03     2.67540E-03
            1319     1.76805E-03     112.257E-03     1.13360E+06    -9.68309E+06      3.8421E+06    -5.64489E+06    -18.4205E-03     36.6925E-03    -18.2720E-03     5.03565E-03    -18.4068E-03     36.6367E-03    -18.2404E-03     4.95998E-03
            1320     2.65172E-03     112.268E-03     1.55648E+06    -8.19011E+06     7.83084E+06    -7.89506E+06    -18.7111E-03     37.1053E-03    -18.3942E-03     7.48291E-03    -18.7035E-03     37.0509E-03    -18.3454E-03     7.37668E-03
            1321     3.53515E-03     112.284E-03     1.80577E+06    -6.71915E+06     11.9052E+06    -9.65589E+06    -19.0569E-03     37.6057E-03    -18.5488E-03     10.0542E-03    -19.0564E-03     37.5526E-03    -18.4822E-03     9.92354E-03
            1322     4.41817E-03     112.305E-03     2.00635E+06    -5.47707E+06     15.4980E+06    -10.8711E+06    -19.4065E-03     38.1272E-03    -18.7207E-03     12.8636E-03    -19.4125E-03     38.0753E-03    -18.6382E-03     12.7154E-03
            1323     5.30098E-03     112.332E-03     2.39912E+06    -4.15233E+06     19.2756E+06    -11.8478E+06    -19.7276E-03     38.6287E-03    -18.9011E-03     16.0220E-03    -19.7397E-03     38.5779E-03    -18.8022E-03     15.8595E-03
            1324     6.18340E-03     112.363E-03     2.38827E+06    -3.51139E+06     22.7994E+06    -12.7328E+06    -19.9657E-03     39.0444E-03    -19.0787E-03     19.6708E-03    -19.9846E-03     38.9924E-03    -18.9631E-03     19.4951E-03
            1325     7.06570E-03     112.402E-03     1.25462E+06    -3.22214E+06     25.2575E+06    -13.2210E+06    -20.0546E-03     39.2919E-03    -19.2372E-03     23.9881E-03    -20.0841E-03     39.2402E-03    -19.1081E-03     23.8045E-03
            1326     7.94806E-03     112.448E-03    -288.968E+03    -3.78702E+06     26.8071E+06    -13.6673E+06    -19.9762E-03     39.3408E-03    -19.3646E-03     29.2263E-03    -20.0158E-03     39.2871E-03    -19.2246E-03     29.0360E-03
            1327     8.83062E-03     112.504E-03    -1.74923E+06    -5.09581E+06     27.7557E+06    -14.8877E+06    -19.7856E-03     39.2400E-03    -19.4544E-03     35.7832E-03    -19.8329E-03     39.1814E-03    -19.3057E-03     35.5766E-03
            1328     9.71365E-03     112.569E-03    -3.18080E+06    -6.80499E+06     28.2667E+06    -16.2452E+06    -19.7254E-03     39.2393E-03    -19.5139E-03     44.0522E-03    -19.7793E-03     39.1747E-03    -19.3581E-03     43.8279E-03
            1329     10.5969E-03     112.648E-03    -5.62603E+06    -8.04451E+06     28.5094E+06    -17.7058E+06    -20.0464E-03     39.6127E-03    -19.5664E-03     54.5966E-03    -20.1125E-03     39.5468E-03    -19.4040E-03     54.3528E-03
            1330     11.4799E-03     112.739E-03    -6.64901E+06    -8.84862E+06     30.9604E+06    -19.0073E+06    -21.0206E-03     40.6711E-03    -19.6505E-03     68.1531E-03    -21.0972E-03     40.6024E-03    -19.4733E-03     67.8905E-03
            1331     12.3624E-03     112.847E-03    -1.68445E+06    -10.4991E+06     37.1691E+06    -15.7906E+06    -23.3505E-03     43.1669E-03    -19.8164E-03     85.4591E-03    -23.4173E-03     43.0827E-03    -19.6129E-03     85.2299E-03
            1332     13.2417E-03     112.973E-03     8.41289E+06     3.38741E+06     50.4827E+06    -7.80949E+06    -27.3658E-03     47.4876E-03    -20.1218E-03     105.407E-03    -27.4457E-03     47.4637E-03    -19.8865E-03     105.256E-03
            1333     14.1169E-03     113.117E-03     14.6146E+06     18.9657E+06     62.0938E+06    -2.47645E+06    -32.5567E-03     53.1605E-03    -20.6038E-03     124.530E-03    -32.7038E-03     53.2476E-03    -20.3420E-03     124.396E-03
            1334     14.9895E-03     113.274E-03     8.78672E+06     12.2540E+06     57.2224E+06    -5.37684E+06    -39.2305E-03     60.4949E-03    -21.2644E-03     146.713E-03    -39.5423E-03     60.7163E-03    -21.0088E-03     146.430E-03
            1335     15.8563E-03     113.458E-03     1.55459E+06    -14.9307E+06     35.8729E+06    -14.4381E+06    -47.9061E-03     70.0050E-03    -22.0989E-03     181.283E-03    -48.6393E-03     70.5885E-03    -21.9001E-03     180.660E-03
            1336     16.7149E-03     113.681E-03    -487.828E+03    -4.40526E+06     20.4475E+06    -19.1867E+06    -58.9711E-03     82.2299E-03    -23.2588E-03     169.635E-03    -59.9915E-03     83.1782E-03    -23.1495E-03     168.706E-03
            1337     881.459E-06     113.236E-03     14.5657E+06    -5.53450E+06     15.8587E+06    -2.26644E+06    -21.4249E-03     42.6910E-03    -21.2661E-03     1.67891E-03    -21.3676E-03     42.6187E-03    -21.1999E-03     1.64779E-03
            1338     1.76258E-03     113.243E-03     14.6023E+06    -4.67092E+06     17.6378E+06    -4.13881E+06    -21.6452E-03     43.0729E-03    -21.4277E-03     2.87385E-03    -21.5917E-03     43.0023E-03    -21.3539E-03     2.81687E-03
            1339     2.64354E-03     113.255E-03     14.3876E+06    -3.92108E+06     20.2307E+06    -5.60777E+06    -21.9582E-03     43.5425E-03    -21.5843E-03     4.21304E-03    -21.9109E-03     43.4724E-03    -21.4983E-03     4.13522E-03
            1340     3.52404E-03     113.271E-03     14.1265E+06    -3.13768E+06     23.2125E+06    -6.64922E+06    -22.3578E-03     44.1280E-03    -21.7702E-03     5.68597E-03    -22.3174E-03     44.0581E-03    -21.6701E-03     5.59266E-03
            1341     4.40419E-03     113.293E-03     13.8234E+06    -2.29317E+06     26.6754E+06    -7.62378E+06    -22.8255E-03     44.8138E-03    -21.9883E-03     7.30969E-03    -22.7933E-03     44.7438E-03    -21.8717E-03     7.20159E-03
            1342     5.28378E-03     113.319E-03     13.2685E+06    -1.71106E+06     30.1258E+06    -8.15697E+06    -23.3126E-03     45.5449E-03    -22.2323E-03     9.17353E-03    -23.2895E-03     45.4741E-03    -22.0985E-03     9.05619E-03
            1343     6.16292E-03     113.352E-03     12.2182E+06    -1.34421E+06     32.9068E+06    -8.15150E+06    -23.7635E-03     46.2536E-03    -22.4901E-03     11.3631E-03    -23.7508E-03     46.1826E-03    -22.3414E-03     11.2434E-03
            1344     7.04164E-03     113.391E-03     11.2007E+06    -1.47036E+06     35.3034E+06    -8.08161E+06    -24.1280E-03     46.8799E-03    -22.7519E-03     13.9847E-03    -24.1245E-03     46.8068E-03    -22.5895E-03     13.8635E-03
            1345     7.91997E-03     113.437E-03     10.5942E+06    -1.38828E+06     38.3828E+06    -8.52808E+06    -24.3585E-03     47.3691E-03    -23.0106E-03     17.1692E-03    -24.3636E-03     47.2935E-03    -22.8320E-03     17.0398E-03
            1346     8.79813E-03     113.491E-03     9.60816E+06    -2.22146E+06     40.9225E+06    -9.17539E+06    -24.3989E-03     47.6509E-03    -23.2521E-03     21.1308E-03    -24.4126E-03     47.5697E-03    -23.0582E-03     20.9911E-03
            1347     9.67626E-03     113.556E-03     7.72784E+06    -3.55951E+06     42.1778E+06    -10.2167E+06    -24.1709E-03     47.6311E-03    -23.4602E-03     26.2647E-03    -24.1952E-03     47.5451E-03    -23.2554E-03     26.1100E-03
            1348     10.5546E-03     113.633E-03     6.72390E+06    -4.98284E+06     44.1585E+06    -11.2549E+06    -23.7430E-03     47.3751E-03    -23.6321E-03     32.9860E-03    -23.7746E-03     47.2817E-03    -23.4138E-03     32.8171E-03
            1349     11.4337E-03     113.724E-03     5.51337E+06    -5.32607E+06     45.7278E+06    -13.0626E+06    -23.4489E-03     47.2172E-03    -23.7682E-03     41.9387E-03    -23.4901E-03     47.1230E-03    -23.5399E-03     41.7460E-03
            1350     12.3131E-03     113.830E-03     3.56976E+06    -11.1440E+06     44.4323E+06    -15.9841E+06    -23.5712E-03     47.4602E-03    -23.8890E-03     54.2133E-03    -23.6143E-03     47.3441E-03    -23.6558E-03     53.9819E-03
            1351     13.1934E-03     113.957E-03     6.09206E+06    -5.35647E+06     50.4548E+06    -15.0885E+06    -23.9175E-03     47.9402E-03    -24.0227E-03     70.1503E-03    -23.9707E-03     47.8477E-03    -23.7715E-03     69.9264E-03
            1352     14.0728E-03     114.104E-03     15.8786E+06     9.52900E+06     64.4822E+06    -6.18586E+06    -25.8252E-03     50.0253E-03    -24.2001E-03     89.2601E-03    -25.8901E-03     49.9940E-03    -23.9145E-03     89.1331E-03
            1353     14.9474E-03     114.268E-03     24.6647E+06     14.1492E+06     73.0127E+06     4.39846E+06    -31.0377E-03     55.5257E-03    -24.4881E-03     114.517E-03    -31.1432E-03     55.5598E-03    -24.1793E-03     114.468E-03
            1354     15.8166E-03     114.457E-03     24.9708E+06     4.81400E+06     65.0849E+06    -124.376E+03    -36.2696E-03     61.1371E-03    -24.8675E-03     149.297E-03    -36.5548E-03     61.3407E-03    -24.5852E-03     149.083E-03
            1355     16.6937E-03     114.678E-03     15.2495E+06    -3.92562E+06     30.8205E+06    -8.41071E+06    -33.0986E-03     58.1370E-03    -25.0385E-03     155.332E-03    -33.5376E-03     58.5344E-03    -24.9008E-03     154.933E-03
            1356     877.585E-06     114.229E-03     23.8088E+06    -1.91142E+06     24.4773E+06    -1.32248E+06    -25.8481E-03     51.7523E-03    -25.9042E-03     89.7723E-06    -25.7630E-03     51.6716E-03    -25.8135E-03     71.0418E-06
            1357     1.75484E-03     114.237E-03     23.2654E+06    -1.49457E+06     25.9399E+06    -2.22984E+06    -26.1166E-03     52.0714E-03    -25.9548E-03     223.026E-06    -26.0369E-03     51.9915E-03    -25.8566E-03     191.125E-06
            1358     2.63173E-03     114.249E-03     22.6082E+06    -1.37097E+06     27.7314E+06    -2.90830E+06    -26.4489E-03     52.5548E-03    -26.1058E-03     412.934E-06    -26.3754E-03     52.4739E-03    -25.9980E-03     370.678E-06
            1359     3.50838E-03     114.266E-03     21.8557E+06    -949.026E+03     30.5420E+06    -3.46546E+06    -26.9219E-03     53.2337E-03    -26.3118E-03     655.527E-06    -26.8569E-03     53.1520E-03    -26.1894E-03     604.353E-06
            1360     4.38437E-03     114.288E-03     20.9142E+06    -450.952E+03     33.8628E+06    -3.70665E+06    -27.5372E-03     54.1124E-03    -26.5752E-03     937.043E-06    -27.4826E-03     54.0298E-03    -26.4356E-03     880.870E-06
            1361     5.25971E-03     114.315E-03     19.7926E+06    -438.855E+03     36.7892E+06    -3.72517E+06    -28.2533E-03     55.1444E-03    -26.8912E-03     1.27527E-03    -28.2088E-03     55.0593E-03    -26.7353E-03     1.21679E-03
            1362     6.13430E-03     114.348E-03     19.0836E+06    -601.375E+03     40.0838E+06    -3.54901E+06    -29.0357E-03     56.2927E-03    -27.2570E-03     1.69088E-03    -28.9996E-03     56.2030E-03    -27.0834E-03     1.63238E-03
            1363     7.00798E-03     114.388E-03     18.7324E+06    -232.073E+03     44.3660E+06    -3.65069E+06    -29.8566E-03     57.5267E-03    -27.6700E-03     2.22073E-03    -29.8296E-03     57.4332E-03    -27.4750E-03     2.15836E-03
            1364     7.88079E-03     114.434E-03     18.0403E+06    -203.716E+03     48.0777E+06    -3.58094E+06    -30.6733E-03     58.7936E-03    -28.1202E-03     2.91971E-03    -30.6558E-03     58.6959E-03    -27.9057E-03     2.85542E-03
            1365     8.75255E-03     114.490E-03     17.1080E+06    -303.094E+03     51.2643E+06    -3.67429E+06    -31.3366E-03     59.9343E-03    -28.5976E-03     3.85361E-03    -31.3290E-03     59.8329E-03    -28.3657E-03     3.78508E-03
            1366     9.62338E-03     114.553E-03     16.3763E+06    -1.34873E+06     54.2011E+06    -4.02701E+06    -31.6445E-03     60.7290E-03    -29.0846E-03     5.22334E-03    -31.6443E-03     60.6192E-03    -28.8353E-03     5.14729E-03
            1367     10.4940E-03     114.629E-03     15.0174E+06    -2.20601E+06     55.7941E+06    -5.33909E+06    -31.6398E-03     61.1986E-03    -29.5588E-03     7.22929E-03    -31.6489E-03     61.0841E-03    -29.2984E-03     7.13357E-03
            1368     11.3641E-03     114.717E-03     12.7695E+06    -3.54259E+06     56.1702E+06    -5.91273E+06    -31.3663E-03     61.3851E-03    -30.0188E-03     10.0990E-03    -31.3868E-03     61.2667E-03    -29.7513E-03     9.99327E-03
            1369     12.2336E-03     114.822E-03     9.82857E+06    -3.52674E+06     57.1354E+06    -8.64857E+06    -29.8836E-03     60.3206E-03    -30.4370E-03     14.6289E-03    -29.9217E-03     60.2060E-03    -30.1605E-03     14.4871E-03
            1370     13.1030E-03     114.944E-03     5.31397E+06    -7.08331E+06     55.6803E+06    -11.3717E+06    -26.3139E-03     57.0274E-03    -30.7135E-03     21.8386E-03    -26.3682E-03     56.9045E-03    -30.4325E-03     21.6651E-03
            1371     13.9784E-03     115.085E-03     614.549E+03    -445.435E+03     56.3078E+06    -11.3922E+06    -22.7443E-03     53.5480E-03    -30.8037E-03     34.3079E-03    -22.8346E-03     53.4666E-03    -30.5224E-03     34.1376E-03
            1372     14.8577E-03     115.251E-03     4.50075E+06     1.46493E+06     62.8633E+06    -4.01110E+06    -23.5430E-03     54.4313E-03    -30.8882E-03     52.0816E-03    -23.6396E-03     54.3559E-03    -30.5826E-03     51.9949E-03
            1373     15.7367E-03     115.443E-03     8.48424E+06     10.9240E+06     67.4359E+06     1.19593E+06    -18.1587E-03     48.9937E-03    -30.8350E-03     72.2831E-03    -18.2980E-03     49.0097E-03    -30.5260E-03     72.2354E-03
            1374     16.6073E-03     115.657E-03    -1.50313E+06     7.24719E+06     36.2715E+06    -73.8890E+03    -875.912E-06     30.8838E-03    -30.0079E-03     73.3946E-03    -1.02109E-03     30.9426E-03    -29.8348E-03     73.3570E-03
            1375     16.6662E-03     57.4333E-03    -4.86897E+06     151.210E+06     69.1685E+06    -367.649E+03    -27.4489E-03     53.7896E-03    -26.3407E-03     64.6229E-03    -28.5976E-03     55.2571E-03    -26.2070E-03     64.8466E-03
            1376     15.7815E-03     57.3048E-03    -5.91320E+06     133.497E+06     19.8026E+06    -1.33529E+06    -27.8383E-03     53.9701E-03    -26.1317E-03     118.080E-03    -29.2424E-03     55.7692E-03    -26.2177E-03     118.149E-03
            1377     14.9048E-03     57.2033E-03    -6.09703E+06     74.5351E+06    -10.6235E+06     919.706E+03    -27.3540E-03     53.4655E-03    -26.1116E-03     101.526E-03    -28.0591E-03     54.4444E-03    -26.2639E-03     101.372E-03
            1378     14.0253E-03     57.1141E-03    -6.90740E+06     20.4255E+06    -6.24934E+06     1.31332E+06    -27.2182E-03     53.4802E-03    -26.2620E-03     85.3590E-03    -27.5593E-03     53.8874E-03    -26.3128E-03     85.1958E-03
            1379     13.1497E-03     57.0403E-03    -7.16979E+06    -12.9682E+06    -3.34104E+06     467.908E+03    -27.4056E-03     53.7598E-03    -26.3542E-03     74.7748E-03    -27.5889E-03     53.8813E-03    -26.3417E-03     74.6194E-03
            1380     12.2718E-03     56.9720E-03    -7.51340E+06    -32.0483E+06     120.274E+03     393.363E+03    -27.2792E-03     53.6941E-03    -26.4150E-03     68.7269E-03    -27.3819E-03     53.6561E-03    -26.3570E-03     68.5979E-03
            1381     11.3957E-03     56.9097E-03    -8.24401E+06    -42.2023E+06     3.33490E+06     397.179E+03    -27.2682E-03     53.7269E-03    -26.4587E-03     63.6417E-03    -27.3291E-03     53.5990E-03    -26.3689E-03     63.5361E-03
            1382     10.5189E-03     56.8512E-03    -9.29560E+06    -53.2288E+06     3.96672E+06     494.868E+03    -27.1277E-03     53.6171E-03    -26.4894E-03     59.0344E-03    -27.1553E-03     53.4113E-03    -26.3789E-03     58.9509E-03
            1383     9.64214E-03     56.7976E-03    -10.4453E+06    -61.8164E+06     4.83588E+06     176.713E+03    -26.9962E-03     53.5178E-03    -26.5215E-03     54.4356E-03    -27.0025E-03     53.2534E-03    -26.3926E-03     54.3652E-03
            1384     8.76543E-03     56.7478E-03    -11.9364E+06    -67.1635E+06     5.19919E+06     134.272E+03    -26.9540E-03     53.5008E-03    -26.5468E-03     49.9688E-03    -26.9494E-03     53.2004E-03    -26.4061E-03     49.9121E-03
            1385     7.88886E-03     56.7027E-03    -13.6990E+06    -73.0479E+06     4.35835E+06     407.701E+03    -26.8749E-03     53.4399E-03    -26.5649E-03     45.3488E-03    -26.8615E-03     53.1059E-03    -26.4174E-03     45.3076E-03
            1386     7.01217E-03     56.6618E-03    -15.6509E+06    -79.3170E+06     1.92230E+06     610.087E+03    -26.7909E-03     53.3670E-03    -26.5761E-03     40.5896E-03    -26.7689E-03     53.0024E-03    -26.4288E-03     40.5610E-03
            1387     6.13566E-03     56.6256E-03    -18.1341E+06    -84.7640E+06    -2.57564E+06     428.577E+03    -26.7272E-03     53.3039E-03    -26.5767E-03     35.7068E-03    -26.6993E-03     52.9181E-03    -26.4404E-03     35.6839E-03
            1388     5.25899E-03     56.5940E-03    -20.4719E+06    -88.2327E+06    -7.81772E+06     340.241E+03    -26.6749E-03     53.2442E-03    -26.5693E-03     30.7008E-03    -26.6432E-03     52.8493E-03    -26.4508E-03     30.6834E-03
            1389     4.38253E-03     56.5672E-03    -22.6082E+06    -91.9902E+06    -12.9317E+06     292.437E+03    -26.6292E-03     53.1904E-03    -26.5613E-03     25.6532E-03    -26.5933E-03     52.7852E-03    -26.4598E-03     25.6406E-03
            1390     3.50595E-03     56.5453E-03    -24.5027E+06    -95.7978E+06    -17.5919E+06     242.203E+03    -26.5889E-03     53.1434E-03    -26.5544E-03     20.5716E-03    -26.5489E-03     52.7273E-03    -26.4679E-03     20.5626E-03
            1391     2.62947E-03     56.5281E-03    -26.2103E+06    -99.2790E+06    -21.9162E+06     208.774E+03    -26.5655E-03     53.1129E-03    -26.5474E-03     15.4936E-03    -26.5218E-03     52.6873E-03    -26.4750E-03     15.4878E-03
            1392     1.75296E-03     56.5158E-03    -27.6046E+06    -101.775E+06    -25.4711E+06     127.695E+03    -26.5466E-03     53.0875E-03    -26.5409E-03     10.4530E-03    -26.5005E-03     52.6560E-03    -26.4807E-03     10.4492E-03
            1393     876.443E-06     56.5083E-03    -28.5307E+06    -101.448E+06    -27.9273E+06     11.7911E+03    -26.5392E-03     53.0701E-03    -26.5309E-03     5.67124E-03    -26.4944E-03     52.6449E-03    -26.4820E-03     5.66851E-03
            1394     16.6561E-03     56.4337E-03    -3.00466E+06     152.688E+06     68.5452E+06    -939.471E+03    -27.4749E-03     53.7833E-03    -26.3084E-03     68.6373E-03    -28.6496E-03     55.2906E-03    -26.1827E-03     68.8633E-03
            1395     15.7821E-03     56.3097E-03    -4.92747E+06     132.500E+06     18.2182E+06     1.09533E+06    -27.4071E-03     53.5323E-03    -26.1252E-03     122.887E-03    -28.8331E-03     55.3584E-03    -26.2191E-03     123.006E-03
            1396     14.9014E-03     56.2038E-03    -7.73996E+06     73.0925E+06    -11.2030E+06     1.31313E+06    -27.4898E-03     53.6238E-03    -26.1340E-03     102.988E-03    -28.2004E-03     54.5989E-03    -26.2847E-03     102.842E-03
            1397     14.0268E-03     56.1152E-03    -6.89386E+06     21.8339E+06    -5.71939E+06     998.186E+03    -27.6603E-03     53.9299E-03    -26.2695E-03     86.0320E-03    -28.0058E-03     54.3450E-03    -26.3198E-03     85.8601E-03
            1398     13.1486E-03     56.0408E-03    -6.88720E+06    -12.5575E+06    -3.12456E+06     545.529E+03    -27.3742E-03     53.7241E-03    -26.3499E-03     75.1357E-03    -27.5559E-03     53.8458E-03    -26.3373E-03     74.9826E-03
            1399     12.2727E-03     55.9731E-03    -7.33383E+06    -31.4941E+06     216.071E+03     323.717E+03    -27.3172E-03     53.7274E-03    -26.4102E-03     68.9355E-03    -27.4201E-03     53.6918E-03    -26.3528E-03     68.8057E-03
            1400     11.3954E-03     55.9099E-03     -8.0738E+06    -42.9487E+06     3.05542E+06     418.442E+03    -27.2092E-03     53.6643E-03    -26.4551E-03     63.7468E-03    -27.2672E-03     53.5323E-03    -26.3659E-03     63.6423E-03
            1401     10.5189E-03     55.8521E-03    -9.03197E+06    -52.6496E+06     4.31309E+06     514.921E+03    -27.1166E-03     53.6064E-03    -26.4898E-03     59.0459E-03    -27.1443E-03     53.4026E-03    -26.3788E-03     58.9627E-03
            1402     9.64212E-03     55.7981E-03    -10.3175E+06    -61.0521E+06     4.83254E+06     228.019E+03    -27.0242E-03     53.5436E-03    -26.5194E-03     54.5651E-03    -27.0309E-03     53.2829E-03    -26.3917E-03     54.4956E-03
            1403     8.76551E-03     55.7485E-03    -11.9429E+06    -67.3941E+06     4.77302E+06     170.074E+03    -26.9445E-03     53.4881E-03    -26.5436E-03     50.0227E-03    -26.9390E-03     53.1871E-03    -26.4046E-03     49.9666E-03
            1404     7.88876E-03     55.7032E-03    -13.8727E+06    -73.1871E+06     3.78644E+06     366.635E+03    -26.8633E-03     53.4256E-03    -26.5622E-03     45.3594E-03    -26.8497E-03     53.0919E-03    -26.4171E-03     45.3178E-03
            1405     7.01224E-03     55.6624E-03    -16.0602E+06    -79.3194E+06     1.61487E+06     561.506E+03    -26.8041E-03     53.3787E-03    -26.5746E-03     40.6156E-03    -26.7837E-03     53.0151E-03    -26.4282E-03     40.5864E-03
            1406     6.13557E-03     55.6261E-03    -18.1982E+06    -84.2945E+06    -2.39793E+06     636.305E+03    -26.7402E-03     53.3145E-03    -26.5743E-03     35.7172E-03    -26.7134E-03     52.9309E-03    -26.4377E-03     35.6970E-03
            1407     5.25911E-03     55.5945E-03    -20.4918E+06    -88.0543E+06    -7.84216E+06     436.282E+03    -26.6705E-03     53.2357E-03    -26.5652E-03     30.7185E-03    -26.6391E-03     52.8416E-03    -26.4470E-03     30.7024E-03
            1408     4.38246E-03     55.5678E-03    -22.5622E+06    -91.7652E+06    -12.7374E+06     352.720E+03    -26.6213E-03     53.1798E-03    -26.5585E-03     25.6604E-03    -26.5858E-03     52.7754E-03    -26.4564E-03     25.6485E-03
            1409     3.50599E-03     55.5457E-03    -24.5163E+06    -95.6296E+06    -17.4453E+06     349.235E+03    -26.5906E-03     53.1419E-03    -26.5513E-03     20.5814E-03    -26.5511E-03     52.7265E-03    -26.4643E-03     20.5739E-03
            1410     2.62946E-03     55.5287E-03    -26.1923E+06    -98.9929E+06    -21.7838E+06     309.930E+03    -26.5634E-03     53.1061E-03    -26.5427E-03     15.5001E-03    -26.5202E-03     52.6817E-03    -26.4701E-03     15.4956E-03
            1411     1.75297E-03     55.5163E-03    -27.5056E+06    -101.496E+06    -25.2195E+06     193.361E+03    -26.5412E-03     53.0773E-03    -26.5361E-03     10.4526E-03    -26.4955E-03     52.6467E-03    -26.4751E-03     10.4497E-03
            1412     876.492E-06     55.5088E-03    -28.4368E+06    -101.185E+06    -27.7814E+06     131.059E+03    -26.5310E-03     53.0588E-03    -26.5278E-03     5.67909E-03    -26.4864E-03     52.6346E-03    -26.4787E-03     5.67792E-03
            1413     16.6563E-03     55.4302E-03    -5.05287E+06     150.478E+06     67.4386E+06    -1.24853E+06    -26.0817E-03     52.4952E-03    -26.4135E-03     66.6999E-03    -27.2464E-03     53.9807E-03    -26.2872E-03     66.9162E-03
            1414     15.7777E-03     55.3121E-03    -9.77180E+06     130.508E+06     14.0772E+06     343.407E+03    -28.6480E-03     54.8655E-03    -26.2176E-03     120.728E-03    -30.0814E-03     56.6868E-03    -26.3223E-03     120.803E-03
            1415     14.9036E-03     55.2035E-03    -7.84360E+06     74.5224E+06    -12.6050E+06     638.131E+03    -28.3469E-03     54.5154E-03    -26.1685E-03     103.162E-03    -29.0657E-03     55.5074E-03    -26.3282E-03     102.993E-03
            1416     14.0251E-03     55.1163E-03    -7.14891E+06     21.6757E+06    -6.88368E+06     481.451E+03    -27.7680E-03     54.0489E-03    -26.2809E-03     85.8069E-03    -28.1116E-03     54.4640E-03    -26.3364E-03     85.6283E-03
            1417     13.1493E-03     55.0415E-03    -7.33677E+06    -12.0437E+06    -4.00941E+06     625.968E+03    -27.5140E-03     53.8685E-03    -26.3545E-03     75.2942E-03    -27.6981E-03     53.9955E-03    -26.3465E-03     75.1414E-03
            1418     12.2720E-03     54.9735E-03    -7.62477E+06    -31.4516E+06    -380.616E+03     234.000E+03    -27.3772E-03     53.7877E-03    -26.4105E-03     68.9345E-03    -27.4809E-03     53.7537E-03    -26.3557E-03     68.8033E-03
            1419     11.3958E-03     54.9109E-03    -7.97970E+06    -43.0804E+06     2.55363E+06     280.443E+03    -27.1942E-03     53.6486E-03    -26.4543E-03     63.8496E-03    -27.2509E-03     53.5165E-03    -26.3675E-03     63.7436E-03
            1420     10.5187E-03     54.8525E-03    -8.81488E+06    -52.7497E+06     4.08073E+06     569.142E+03    -27.1210E-03     53.6120E-03    -26.4909E-03     59.0665E-03    -27.1471E-03     53.4077E-03    -26.3813E-03     58.9840E-03
            1421     9.64216E-03     54.7988E-03    -10.3361E+06    -60.3490E+06     4.62526E+06     569.235E+03    -27.0565E-03     53.5749E-03    -26.5184E-03     54.5493E-03    -27.0642E-03     53.3182E-03    -26.3928E-03     54.4839E-03
            1422     8.76542E-03     54.7490E-03    -12.2592E+06    -67.5248E+06     4.22901E+06     298.995E+03    -26.9495E-03     53.4903E-03    -26.5407E-03     50.0246E-03    -26.9446E-03     53.1899E-03    -26.4039E-03     49.9701E-03
            1423     7.88890E-03     54.7038E-03    -14.1971E+06    -73.2627E+06     3.48374E+06     499.584E+03    -26.8679E-03     53.4278E-03    -26.5599E-03     45.3781E-03    -26.8554E-03     53.0947E-03    -26.4156E-03     45.3382E-03
            1424     7.01215E-03     54.6629E-03    -16.2603E+06    -79.1653E+06     1.28530E+06     493.511E+03    -26.8074E-03     53.3783E-03    -26.5708E-03     40.6150E-03    -26.7878E-03     53.0162E-03    -26.4260E-03     40.5848E-03
            1425     6.13570E-03     54.6266E-03    -18.4078E+06    -84.1652E+06    -2.37121E+06     462.475E+03    -26.7375E-03     53.3093E-03    -26.5719E-03     35.7062E-03    -26.7120E-03     52.9266E-03    -26.4350E-03     35.6838E-03
            1426     5.25902E-03     54.5951E-03    -20.4759E+06    -87.6587E+06    -7.44435E+06     514.737E+03    -26.6706E-03     53.2340E-03    -26.5634E-03     30.7227E-03    -26.6403E-03     52.8414E-03    -26.4438E-03     30.7076E-03
            1427     4.38256E-03     54.5682E-03    -22.6466E+06    -91.5819E+06    -12.7847E+06     412.466E+03    -26.6196E-03     53.1739E-03    -26.5543E-03     25.6678E-03    -26.5847E-03     52.7706E-03    -26.4526E-03     25.6567E-03
            1428     3.50597E-03     54.5463E-03    -24.5382E+06    -95.4172E+06    -17.4847E+06      373.96E+03    -26.5827E-03     53.1299E-03    -26.5473E-03     20.5895E-03    -26.5435E-03     52.7156E-03    -26.4607E-03     20.5822E-03
            1429     2.62949E-03     54.5291E-03    -26.1087E+06    -98.7309E+06    -21.6725E+06     299.490E+03    -26.5593E-03     53.0992E-03    -26.5399E-03     15.5081E-03    -26.5162E-03     52.6758E-03    -26.4673E-03     15.5035E-03
            1430     1.75297E-03     54.5169E-03    -27.4181E+06    -101.120E+06    -25.0467E+06     221.344E+03    -26.5439E-03     53.0757E-03    -26.5317E-03     10.4630E-03    -26.4985E-03     52.6466E-03    -26.4706E-03     10.4604E-03
            1431     876.492E-06     54.5092E-03    -28.4252E+06    -100.911E+06    -27.6497E+06     137.326E+03    -26.5234E-03     53.0458E-03    -26.5224E-03     5.69055E-03    -26.4793E-03     52.6227E-03    -26.4731E-03     5.68947E-03
            1432     16.6549E-03     54.4336E-03    -4.87010E+06     151.388E+06     68.9456E+06     889.791E+03    -26.0577E-03     52.5141E-03    -26.4564E-03     68.8355E-03    -27.2224E-03     53.9991E-03    -26.3241E-03     69.0801E-03
            1433     15.7790E-03     54.3103E-03    -9.26184E+06     131.231E+06     15.3957E+06    -918.425E+03    -28.9108E-03     55.1629E-03    -26.2521E-03     119.508E-03    -30.3346E-03     56.9751E-03    -26.3520E-03     119.556E-03
            1434     14.9012E-03     54.2042E-03    -9.83028E+06     73.7610E+06    -14.1174E+06    -1.29372E+06    -28.4688E-03     54.6501E-03    -26.1814E-03     102.212E-03    -29.1956E-03     55.6449E-03    -26.3446E-03     102.016E-03
            1435     14.0260E-03     54.1168E-03    -8.43787E+06     21.3991E+06    -7.68209E+06    -25.5817E+03    -27.8669E-03     54.1541E-03    -26.2872E-03     85.4789E-03    -28.2165E-03     54.5719E-03    -26.3444E-03     85.2928E-03
            1436     13.1485E-03     54.0418E-03    -7.60753E+06    -12.0750E+06    -4.36551E+06     330.755E+03    -27.5769E-03     53.9322E-03    -26.3553E-03     75.0451E-03    -27.7624E-03     54.0605E-03    -26.3486E-03     74.8876E-03
            1437     12.2725E-03     53.9743E-03    -7.77320E+06    -30.9351E+06    -397.631E+03     186.606E+03    -27.3441E-03     53.7546E-03    -26.4104E-03     68.7074E-03    -27.4491E-03     53.7233E-03    -26.3563E-03     68.5756E-03
            1438     11.3953E-03     53.9114E-03    -8.58347E+06    -43.3655E+06     1.94878E+06     146.244E+03    -27.2112E-03     53.6644E-03    -26.4532E-03     63.7647E-03    -27.2697E-03     53.5329E-03    -26.3681E-03     63.6567E-03
            1439     10.5189E-03     53.8533E-03    -9.62647E+06    -53.3225E+06     3.30594E+06     498.135E+03    -27.1371E-03     53.6252E-03    -26.4881E-03     59.0870E-03    -27.1654E-03     53.4204E-03    -26.3803E-03     59.0034E-03
            1440     9.64209E-03     53.7992E-03    -10.8706E+06    -60.0492E+06     4.75251E+06     811.638E+03    -27.0489E-03     53.5666E-03    -26.5177E-03     54.5124E-03    -27.0599E-03     53.3120E-03    -26.3911E-03     54.4500E-03
            1441     8.76556E-03     53.7498E-03    -12.5058E+06    -67.0857E+06     4.24162E+06     601.978E+03    -26.9545E-03     53.4929E-03    -26.5384E-03     50.0038E-03    -26.9516E-03     53.1951E-03    -26.4018E-03     49.9531E-03
            1442     7.88875E-03     53.7043E-03    -14.3526E+06    -73.3514E+06     3.36101E+06     323.484E+03    -26.8800E-03     53.4362E-03    -26.5562E-03     45.4059E-03    -26.8680E-03     53.1031E-03    -26.4122E-03     45.3636E-03
            1443     7.01235E-03     53.6634E-03    -16.2551E+06    -78.9397E+06     1.51285E+06     441.338E+03    -26.8015E-03     53.3689E-03    -26.5674E-03     40.6120E-03    -26.7825E-03     53.0076E-03    -26.4218E-03     40.5812E-03
            1444     6.13559E-03     53.6271E-03    -18.4544E+06    -84.0008E+06    -2.66713E+06     373.151E+03    -26.7255E-03     53.2921E-03    -26.5667E-03     35.7196E-03    -26.7001E-03     52.9107E-03    -26.4314E-03     35.6960E-03
            1445     5.25914E-03     53.5956E-03    -20.6385E+06    -87.5774E+06    -7.54006E+06     385.159E+03    -26.6676E-03     53.2276E-03    -26.5600E-03     30.7270E-03    -26.6381E-03     52.8358E-03    -26.4408E-03     30.7102E-03
            1446     4.38250E-03     53.5688E-03    -22.5806E+06    -91.2506E+06    -12.5676E+06     445.608E+03    -26.6162E-03     53.1679E-03    -26.5518E-03     25.6854E-03    -26.5817E-03     52.7659E-03    -26.4496E-03     25.6747E-03
            1447     3.50603E-03     53.5468E-03    -24.4426E+06    -95.2066E+06    -17.4212E+06     317.338E+03    -26.5792E-03     53.1234E-03    -26.5442E-03     20.6042E-03    -26.5400E-03     52.7100E-03    -26.4578E-03     20.5962E-03
            1448     2.62945E-03     53.5297E-03    -26.0301E+06    -98.4659E+06    -21.6503E+06     278.837E+03    -26.5540E-03     53.0912E-03    -26.5372E-03     15.5169E-03    -26.5109E-03     52.6690E-03    -26.4650E-03     15.5120E-03
            1449     1.75299E-03     53.5173E-03    -27.2958E+06    -100.818E+06    -24.9921E+06     178.342E+03    -26.5387E-03     53.0695E-03    -26.5308E-03     10.4689E-03    -26.4932E-03     52.6417E-03    -26.4700E-03     10.4658E-03
            1450     876.481E-06     53.5098E-03    -28.1434E+06    -100.616E+06    -27.4405E+06     88.0194E+03    -26.5271E-03     53.0479E-03    -26.5208E-03     5.69691E-03    -26.4823E-03     52.6256E-03    -26.4713E-03     5.69519E-03
            1451     16.6544E-03     53.4302E-03    -4.03130E+06     152.194E+06     70.1216E+06     858.168E+03    -26.6399E-03     53.0474E-03    -26.4075E-03     67.4537E-03    -27.8001E-03     54.5303E-03    -26.2717E-03     67.7044E-03
            1452     15.7789E-03     53.3114E-03    -5.14999E+06     132.150E+06     18.9487E+06    -513.518E+03    -28.1930E-03     54.4013E-03    -26.2083E-03     117.833E-03    -29.5946E-03     56.1988E-03    -26.2977E-03     117.907E-03
            1453     14.9030E-03     53.2044E-03    -6.18196E+06     73.1598E+06    -11.6356E+06    -369.055E+03    -28.0702E-03     54.2308E-03    -26.1606E-03     101.037E-03    -28.7746E-03     55.2068E-03    -26.3159E-03     100.858E-03
            1454     14.0253E-03     53.1172E-03    -7.21358E+06     20.9135E+06    -6.76706E+06    -469.584E+03    -27.7159E-03     53.9913E-03    -26.2755E-03     85.1742E-03    -28.0594E-03     54.4032E-03    -26.3292E-03     84.9833E-03
            1455     13.1495E-03     53.0425E-03    -7.25271E+06    -12.2497E+06    -3.96107E+06     61.1022E+03    -27.5084E-03     53.8559E-03    -26.3475E-03     74.7820E-03    -27.6921E-03     53.9819E-03    -26.3390E-03     74.6211E-03
            1456     12.2721E-03     52.9749E-03    -7.81586E+06    -30.6557E+06     11.4293E+03     485.584E+03    -27.2904E-03     53.6962E-03    -26.4058E-03     68.6552E-03    -27.3965E-03     53.6657E-03    -26.3500E-03     68.5275E-03
            1457     11.3958E-03     52.9122E-03    -8.99366E+06    -43.5516E+06     2.14013E+06     402.012E+03    -27.2150E-03     53.6648E-03    -26.4499E-03     63.7472E-03    -27.2757E-03     53.5328E-03    -26.3630E-03     63.6422E-03
            1458     10.5188E-03     52.8538E-03    -10.0717E+06    -53.5091E+06     3.20956E+06     337.685E+03    -27.1188E-03     53.6021E-03    -26.4833E-03     59.0753E-03    -27.1490E-03     53.3973E-03    -26.3751E-03     58.9896E-03
            1459     9.64224E-03     52.7999E-03    -11.0690E+06    -59.9984E+06     4.92278E+06     559.812E+03    -27.0206E-03     53.5358E-03    -26.5151E-03     54.5365E-03    -27.0329E-03     53.2814E-03    -26.3875E-03     54.4710E-03
            1460     8.76543E-03     52.7502E-03    -12.3243E+06    -66.5830E+06     4.73705E+06     618.156E+03    -26.9610E-03     53.4979E-03    -26.5369E-03     50.0354E-03    -26.9586E-03     53.2016E-03    -26.3988E-03     49.9848E-03
            1461     7.88901E-03     52.7049E-03    -14.1762E+06    -72.9363E+06     3.43798E+06     384.996E+03    -26.8788E-03     53.4309E-03    -26.5522E-03     45.4292E-03    -26.8666E-03     53.0995E-03    -26.4087E-03     45.3878E-03
            1462     7.01219E-03     52.6640E-03    -16.3836E+06    -79.0998E+06     1.31915E+06     247.283E+03    -26.7905E-03     53.3543E-03    -26.5638E-03     40.6425E-03    -26.7717E-03     52.9926E-03    -26.4187E-03     40.6092E-03
            1463     6.13575E-03     52.6277E-03    -18.4893E+06    -83.7073E+06    -2.57573E+06     373.472E+03    -26.7235E-03     53.2876E-03    -26.5641E-03     35.7423E-03    -26.6989E-03     52.9076E-03    -26.4288E-03     35.7188E-03
            1464     5.25905E-03     52.5961E-03    -20.6350E+06    -87.5582E+06    -7.86250E+06     280.504E+03    -26.6583E-03     53.2146E-03    -26.5563E-03     30.7465E-03    -26.6283E-03     52.8233E-03    -26.4387E-03     30.7284E-03
            1465     4.38257E-03     52.5693E-03    -22.6652E+06    -91.1059E+06    -12.7535E+06     333.212E+03    -26.6135E-03     53.1630E-03    -26.5495E-03     25.7058E-03    -26.5795E-03     52.7621E-03    -26.4483E-03     25.6937E-03
            1466     3.50597E-03     52.5473E-03    -24.4724E+06    -94.8986E+06    -17.4645E+06     353.417E+03    -26.5828E-03     53.1245E-03    -26.5417E-03     20.6122E-03    -26.5441E-03     52.7127E-03    -26.4560E-03     20.6047E-03
            1467     2.62953E-03     52.5301E-03    -26.0934E+06    -98.2255E+06    -21.7326E+06     219.006E+03    -26.5507E-03     53.0847E-03    -26.5340E-03     15.5198E-03    -26.5082E-03     52.6639E-03    -26.4624E-03     15.5142E-03
            1468     1.75295E-03     52.5178E-03    -27.3109E+06    -100.527E+06    -25.0943E+06     110.318E+03    -26.5323E-03     53.0608E-03    -26.5285E-03     10.4770E-03    -26.4872E-03     52.6346E-03    -26.4686E-03     10.4730E-03
            1469     876.496E-06     52.5102E-03    -28.1202E+06    -100.450E+06    -27.4272E+06     7.26335E+03    -26.5258E-03     53.0471E-03    -26.5213E-03     5.69532E-03    -26.4811E-03     52.6255E-03    -26.4720E-03     5.69254E-03
            1470     16.6629E-03     52.4382E-03    -3.14152E+06      152.59E+06     70.6058E+06     356.477E+03    -27.2240E-03     53.5459E-03    -26.3219E-03     66.7098E-03    -28.3810E-03     55.0288E-03    -26.1856E-03     66.9578E-03
            1471     15.7808E-03     52.3099E-03    -4.96771E+06     132.865E+06     19.9052E+06     420.896E+03    -27.2438E-03     53.3837E-03    -26.1399E-03     120.036E-03    -28.6536E-03     55.1897E-03    -26.2258E-03     120.147E-03
            1472     14.9035E-03     52.2070E-03    -6.12525E+06     73.1387E+06    -11.1703E+06     203.364E+03    -27.6870E-03     53.8179E-03    -26.1308E-03     101.891E-03    -28.3898E-03     54.7909E-03    -26.2839E-03     101.725E-03
            1473     14.0264E-03     52.1173E-03    -6.09415E+06     20.5719E+06    -6.50094E+06     483.703E+03    -27.5660E-03     53.8267E-03    -26.2607E-03     85.9073E-03    -27.9052E-03     54.2361E-03    -26.3142E-03     85.7297E-03
            1474     13.1490E-03     52.0434E-03    -7.32486E+06    -12.1749E+06    -3.80302E+06     231.078E+03    -27.3953E-03     53.7379E-03    -26.3425E-03     74.9053E-03    -27.5793E-03     53.8636E-03    -26.3333E-03     74.7476E-03
            1475     12.2725E-03     51.9756E-03    -7.90114E+06    -31.0420E+06     71.4222E+03     632.346E+03    -27.3079E-03     53.7122E-03    -26.4043E-03     68.8619E-03    -27.4144E-03     53.6802E-03    -26.3475E-03     68.7359E-03
            1476     11.3955E-03     51.9127E-03    -8.54179E+06    -43.0549E+06     2.84003E+06     745.565E+03    -27.2147E-03     53.6638E-03    -26.4491E-03     63.8522E-03    -27.2751E-03     53.5328E-03    -26.3601E-03     63.7516E-03
            1477     10.5191E-03     51.8545E-03    -9.61077E+06    -52.9721E+06     3.50249E+06     261.585E+03    -27.1125E-03     53.5933E-03    -26.4809E-03     59.1966E-03    -27.1415E-03     53.3901E-03    -26.3726E-03     59.1101E-03
            1478     9.64213E-03     51.8005E-03    -10.7243E+06    -60.3145E+06     4.94210E+06     214.107E+03    -27.0227E-03     53.5358E-03    -26.5131E-03     54.6141E-03    -27.0328E-03     53.2794E-03    -26.3853E-03     54.5441E-03
            1479     8.76561E-03     51.7508E-03    -12.2465E+06    -66.3728E+06     4.82981E+06     506.284E+03    -26.9516E-03     53.4869E-03    -26.5353E-03     50.1109E-03    -26.9493E-03     53.1915E-03    -26.3972E-03     50.0590E-03
            1480     7.88881E-03     51.7054E-03    -14.0777E+06    -72.6471E+06     3.54818E+06     533.247E+03    -26.8774E-03     53.4285E-03    -26.5510E-03     45.4412E-03    -26.8653E-03     53.0982E-03    -26.4075E-03     45.4017E-03
            1481     7.01236E-03     51.6645E-03    -16.2756E+06    -78.8111E+06     1.24205E+06     344.203E+03    -26.7921E-03     53.3537E-03    -26.5616E-03     40.6687E-03    -26.7730E-03     52.9934E-03    -26.4175E-03     40.6367E-03
            1482     6.13562E-03     51.6282E-03    -18.6105E+06    -83.7402E+06    -2.73134E+06     182.640E+03    -26.7186E-03     53.2811E-03    -26.5625E-03     35.7551E-03    -26.6942E-03     52.9013E-03    -26.4277E-03     35.7291E-03
            1483     5.25916E-03     51.5967E-03    -20.7377E+06    -87.3596E+06    -7.75366E+06     290.922E+03    -26.6606E-03     53.2162E-03    -26.5556E-03     30.7613E-03    -26.6316E-03     52.8259E-03    -26.4376E-03     30.7433E-03
            1484     4.38250E-03     51.5698E-03    -22.7756E+06    -91.0624E+06    -13.0500E+06     277.356E+03    -26.6167E-03     53.1628E-03    -26.5461E-03     25.7072E-03    -26.5828E-03     52.7626E-03    -26.4463E-03     25.6944E-03
            1485     3.50605E-03     51.5478E-03    -24.5557E+06    -94.6628E+06    -17.5565E+06     272.681E+03    -26.5768E-03     53.1157E-03    -26.5389E-03     20.6130E-03    -26.5387E-03     52.7053E-03    -26.4538E-03     20.6045E-03
            1486     2.62945E-03     51.5307E-03    -26.0477E+06    -97.9062E+06    -21.6612E+06     180.222E+03    -26.5534E-03     53.0844E-03    -26.5311E-03     15.5228E-03    -26.5112E-03     52.6651E-03    -26.4597E-03     15.5166E-03
            1487     1.75302E-03     51.5183E-03    -27.2996E+06    -100.308E+06    -25.0745E+06     51.9417E+03    -26.5341E-03     53.0568E-03    -26.5227E-03     10.4760E-03    -26.4893E-03     52.6316E-03    -26.4630E-03     10.4713E-03
            1488     876.472E-06     51.5108E-03    -28.1848E+06    -100.389E+06    -27.5604E+06    -14.6084E+03    -26.5159E-03     53.0311E-03    -26.5153E-03     5.69053E-03    -26.4714E-03     52.6102E-03    -26.4667E-03     5.68747E-03
            1489     16.6555E-03     51.4372E-03    -4.38740E+06     152.135E+06     70.8070E+06    -1.19849E+06    -27.0579E-03     53.4384E-03    -26.3805E-03     68.4389E-03    -28.2358E-03     54.9356E-03    -26.2407E-03     68.6503E-03
            1490     15.7810E-03     51.3140E-03    -5.05693E+06     133.071E+06     20.0967E+06     593.120E+03    -28.2088E-03     54.3894E-03    -26.1806E-03     122.401E-03    -29.6382E-03     56.2149E-03    -26.2657E-03     122.486E-03
            1491     14.9022E-03     51.2068E-03    -6.30866E+06     72.9351E+06    -12.2566E+06     1.25267E+06    -27.9132E-03     54.0532E-03    -26.1400E-03     103.301E-03    -28.6226E-03     55.0347E-03    -26.2979E-03     103.146E-03
            1492     14.0258E-03     51.1185E-03    -7.11045E+06     21.1370E+06    -6.70939E+06     501.868E+03    -27.7162E-03     53.9818E-03    -26.2656E-03     85.8113E-03    -28.0607E-03     54.3956E-03    -26.3195E-03     85.6324E-03
            1493     13.1491E-03     51.0441E-03    -6.83813E+06    -12.0175E+06    -3.60166E+06     580.033E+03    -27.3133E-03     53.6596E-03    -26.3463E-03     75.1502E-03    -27.4950E-03     53.7848E-03    -26.3370E-03     74.9981E-03
            1494     12.2722E-03     50.9760E-03    -7.45613E+06    -31.4092E+06     112.986E+03     693.763E+03    -27.3317E-03     53.7427E-03    -26.4110E-03     68.9886E-03    -27.4355E-03     53.7083E-03    -26.3541E-03     68.8632E-03
            1495     11.3958E-03     50.9136E-03    -8.26082E+06    -42.3336E+06     2.96681E+06     762.397E+03    -27.2205E-03     53.6753E-03    -26.4548E-03     63.9859E-03    -27.2807E-03     53.5473E-03    -26.3666E-03     63.8855E-03
            1496     10.5187E-03     50.8549E-03    -9.27877E+06    -52.4230E+06     3.63927E+06     491.606E+03    -27.1503E-03     53.6361E-03    -26.4858E-03     59.3141E-03    -27.1786E-03     53.4349E-03    -26.3782E-03     59.2305E-03
            1497     9.64230E-03     50.8012E-03    -10.8606E+06    -60.4683E+06     4.65483E+06     268.797E+03    -27.0706E-03     53.5850E-03    -26.5145E-03     54.6825E-03    -27.0808E-03     53.3285E-03    -26.3878E-03     54.6131E-03
            1498     8.76543E-03     50.7513E-03    -12.4655E+06    -66.4079E+06     4.59456E+06     476.634E+03    -26.9618E-03     53.4963E-03    -26.5344E-03     50.1362E-03    -26.9601E-03     53.2012E-03    -26.3971E-03     50.0841E-03
            1499     7.88898E-03     50.7060E-03    -14.2418E+06    -72.3971E+06     3.42040E+06     435.226E+03    -26.8759E-03     53.4256E-03    -26.5497E-03     45.4472E-03    -26.8648E-03     53.0970E-03    -26.4069E-03     45.4064E-03
            1500     7.01222E-03     50.6651E-03    -16.0983E+06    -78.5716E+06     1.38231E+06     344.872E+03    -26.7995E-03     53.3601E-03    -26.5606E-03     40.6542E-03    -26.7801E-03     53.0006E-03    -26.4164E-03     40.6221E-03
            1501     6.13575E-03     50.6288E-03    -18.3056E+06    -83.5085E+06    -2.60487E+06     299.139E+03    -26.7205E-03     53.2809E-03    -26.5605E-03     35.7499E-03    -26.6951E-03     52.9017E-03    -26.4259E-03     35.7254E-03
            1502     5.25904E-03     50.5972E-03    -20.6343E+06    -87.3685E+06    -7.65947E+06     238.315E+03    -26.6716E-03     53.2243E-03    -26.5527E-03     30.7568E-03    -26.6421E-03     52.8336E-03    -26.4344E-03     30.7381E-03
            1503     4.38263E-03     50.5703E-03    -22.6799E+06    -90.8754E+06    -12.7358E+06     297.551E+03    -26.6155E-03     53.1580E-03    -26.5425E-03     25.6858E-03    -26.5819E-03     52.7582E-03    -26.4415E-03     25.6732E-03
            1504     3.50598E-03     50.5484E-03    -24.5671E+06    -94.4530E+06    -17.6867E+06     188.779E+03    -26.5721E-03     53.1047E-03    -26.5326E-03     20.6096E-03    -26.5342E-03     52.6956E-03    -26.4485E-03     20.5999E-03
            1505     2.62954E-03     50.5311E-03    -26.0959E+06    -97.6522E+06    -21.8304E+06     63.3644E+03    -26.5506E-03     53.0745E-03    -26.5239E-03     15.5117E-03    -26.5088E-03     52.6568E-03    -26.4536E-03     15.5040E-03
            1506     1.75298E-03     50.5189E-03    -27.3289E+06    -100.157E+06    -25.1300E+06     70.9142E+03    -26.5304E-03     53.0449E-03    -26.5145E-03     10.4658E-03    -26.4858E-03     52.6206E-03    -26.4552E-03     10.4613E-03
            1507     876.531E-06     50.5112E-03    -28.2698E+06    -100.284E+06    -27.5796E+06     63.5734E+03    -26.5102E-03     53.0128E-03    -26.5026E-03     5.69395E-03    -26.4663E-03     52.5925E-03    -26.4541E-03     5.69191E-03
            1508     16.6543E-03     50.4314E-03    -4.20172E+06     151.657E+06     67.9536E+06    -1.03105E+06    -26.1835E-03     52.6232E-03    -26.4397E-03     67.4985E-03    -27.3413E-03     54.1074E-03    -26.3137E-03     67.7158E-03
            1509     15.7782E-03     50.3164E-03    -9.32309E+06     130.137E+06     14.6980E+06    -706.144E+03    -29.0973E-03     55.3264E-03    -26.2292E-03     119.557E-03    -30.5197E-03     57.1352E-03    -26.3309E-03     119.605E-03
            1510     14.9026E-03     50.2059E-03    -8.93518E+06     73.3196E+06    -12.8948E+06     683.660E+03    -28.4140E-03     54.5761E-03    -26.1622E-03     102.935E-03    -29.1403E-03     55.5684E-03    -26.3200E-03     102.765E-03
            1511     14.0262E-03     50.1198E-03    -7.53339E+06     22.0246E+06    -7.07760E+06     394.819E+03    -27.6558E-03     53.9275E-03    -26.2717E-03     85.4476E-03    -28.0010E-03     54.3447E-03    -26.3281E-03     85.2688E-03
            1512     13.1489E-03     50.0447E-03    -7.82466E+06    -12.1347E+06    -4.43657E+06     351.709E+03    -27.3910E-03     53.7427E-03    -26.3517E-03     75.3252E-03    -27.5766E-03     53.8703E-03    -26.3449E-03     75.1697E-03
            1513     12.2722E-03     49.9769E-03    -7.80983E+06    -31.6609E+06    -405.530E+03     679.047E+03    -27.2920E-03     53.7087E-03    -26.4167E-03     69.0077E-03    -27.3961E-03     53.6739E-03    -26.3615E-03     68.8826E-03
            1514     11.3951E-03     49.9140E-03    -8.26344E+06    -42.3092E+06     2.88629E+06     554.262E+03    -27.2689E-03     53.7307E-03    -26.4618E-03     63.9148E-03    -27.3290E-03     53.6029E-03    -26.3740E-03     63.8116E-03
            1515     10.5189E-03     49.8557E-03    -9.25706E+06    -52.1171E+06     3.70074E+06     727.330E+03    -27.1896E-03     53.6795E-03    -26.4898E-03     59.2271E-03    -27.2185E-03     53.4797E-03    -26.3824E-03     59.1464E-03
            1516     9.64197E-03     49.8016E-03    -10.7531E+06    -60.2421E+06     4.75572E+06     680.841E+03    -27.0977E-03     53.6136E-03    -26.5158E-03     54.6123E-03    -27.1079E-03     53.3579E-03    -26.3891E-03     54.5481E-03
            1517     8.76568E-03     49.7520E-03    -12.5675E+06    -66.2777E+06     4.56927E+06     410.841E+03    -26.9887E-03     53.5215E-03    -26.5328E-03     50.0746E-03    -26.9877E-03     53.2274E-03    -26.3956E-03     50.0214E-03
            1518     7.88881E-03     49.7065E-03    -14.2700E+06    -72.0879E+06     3.34367E+06     223.700E+03    -26.8776E-03     53.4232E-03    -26.5456E-03     45.4479E-03    -26.8670E-03     53.0963E-03    -26.4037E-03     45.4044E-03
            1519     7.01238E-03     49.6656E-03    -16.2179E+06    -78.5142E+06     1.27869E+06     179.643E+03    -26.7992E-03     53.3554E-03    -26.5562E-03     40.6182E-03    -26.7803E-03     52.9966E-03    -26.4125E-03     40.5839E-03
            1520     6.13565E-03     49.6294E-03    -18.3088E+06    -83.4046E+06    -2.26703E+06     289.929E+03    -26.7357E-03     53.2920E-03    -26.5562E-03     35.7354E-03    -26.7111E-03     52.9128E-03    -26.4201E-03     35.7107E-03
            1521     5.25923E-03     49.5976E-03    -20.4701E+06    -87.2204E+06    -7.51609E+06     336.624E+03    -26.6675E-03     53.2128E-03    -26.5453E-03     30.7264E-03    -26.6376E-03     52.8224E-03    -26.4267E-03     30.7089E-03
            1522     4.38254E-03     49.5709E-03    -22.6258E+06    -90.7285E+06    -12.7585E+06     254.184E+03    -26.6118E-03     53.1455E-03    -26.5336E-03     25.6678E-03    -26.5781E-03     52.7464E-03    -26.4331E-03     25.6546E-03
            1523     3.50611E-03     49.5488E-03    -24.4116E+06    -94.0980E+06    -17.4829E+06     175.555E+03    -26.5720E-03     53.0947E-03    -26.5227E-03     20.5917E-03    -26.5341E-03     52.6868E-03    -26.4383E-03     20.5818E-03
            1524     2.62951E-03     49.5317E-03    -26.0466E+06    -97.6145E+06    -21.9106E+06     107.148E+03    -26.5344E-03     53.0473E-03    -26.5128E-03     15.5040E-03    -26.4923E-03     52.6297E-03    -26.4431E-03     15.4969E-03
            1525     1.75304E-03     49.5193E-03    -27.3722E+06    -100.020E+06    -25.2712E+06     99.2760E+03    -26.5170E-03     53.0223E-03    -26.5053E-03     10.4645E-03    -26.4726E-03     52.5989E-03    -26.4469E-03     10.4603E-03
            1526     876.484E-06     49.5118E-03    -28.2399E+06    -100.079E+06    -27.5977E+06     83.4403E+03    -26.5043E-03     52.9980E-03    -26.4936E-03     5.68556E-03    -26.4606E-03     52.5787E-03    -26.4456E-03     5.68376E-03
            1527     16.6568E-03     49.4367E-03    -3.89367E+06     152.056E+06     69.4331E+06     783.063E+03    -26.1842E-03     52.5767E-03    -26.3926E-03     67.4673E-03    -27.3398E-03     54.0570E-03    -26.2603E-03     67.7232E-03
            1528     15.7789E-03     49.3124E-03    -8.74086E+06     130.177E+06     16.0098E+06     129.352E+03    -28.1788E-03     54.3833E-03    -26.2045E-03     118.536E-03    -29.5926E-03     56.1818E-03    -26.3005E-03     118.623E-03
            1529     14.9032E-03     49.2084E-03    -8.98597E+06     72.9723E+06    -13.0543E+06    -1.06197E+06    -28.1357E-03     54.2969E-03    -26.1612E-03     101.816E-03    -28.8538E-03     55.2800E-03    -26.3192E-03     101.626E-03
            1530     14.0249E-03     49.1196E-03    -8.66932E+06     21.6226E+06    -7.76685E+06     170.699E+03    -27.5612E-03     53.8409E-03    -26.2797E-03     85.8653E-03    -27.9113E-03     54.2595E-03    -26.3373E-03     85.6845E-03
            1531     13.1491E-03     49.0457E-03    -8.39935E+06    -12.2309E+06    -4.70738E+06     327.306E+03    -27.5524E-03     53.9111E-03    -26.3588E-03     75.1148E-03    -27.7407E-03     54.0399E-03    -26.3524E-03     74.9574E-03
            1532     12.2720E-03     48.9776E-03    -8.64928E+06    -31.7001E+06    -917.140E+03     57.8120E+03    -27.3501E-03     53.7653E-03    -26.4151E-03     68.9653E-03    -27.4579E-03     53.7324E-03    -26.3612E-03     68.8318E-03
            1533     11.3957E-03     48.9145E-03    -8.97294E+06    -42.5915E+06     2.42137E+06     292.157E+03    -27.2769E-03     53.7345E-03    -26.4577E-03     63.8412E-03    -27.3393E-03     53.6069E-03    -26.3708E-03     63.7345E-03
            1534     10.5187E-03     48.8563E-03    -9.72212E+06    -52.0701E+06     3.71100E+06     556.774E+03    -27.2100E-03     53.6953E-03    -26.4853E-03     59.1139E-03    -27.2414E-03     53.4966E-03    -26.3772E-03     59.0306E-03
            1535     9.64239E-03     48.8021E-03    -10.6876E+06    -59.8626E+06     4.85343E+06     689.600E+03    -27.0804E-03     53.5899E-03    -26.5096E-03     54.5398E-03    -27.0908E-03     53.3359E-03    -26.3830E-03     54.4757E-03
            1536     8.76543E-03     48.7526E-03    -12.0249E+06    -66.0432E+06     4.79369E+06     416.202E+03    -26.9891E-03     53.5160E-03    -26.5268E-03     50.0229E-03    -26.9862E-03     53.2219E-03    -26.3897E-03     49.9697E-03
            1537     7.88911E-03     48.7070E-03    -13.9962E+06    -71.8084E+06     3.61847E+06     292.607E+03    -26.8896E-03     53.4284E-03    -26.5388E-03     45.3832E-03    -26.8784E-03     53.1021E-03    -26.3963E-03     45.3405E-03
            1538     7.01227E-03     48.6663E-03    -16.2782E+06    -78.3876E+06     1.34080E+06     179.968E+03    -26.8011E-03     53.3482E-03    -26.5472E-03     40.6012E-03    -26.7828E-03     52.9900E-03    -26.4032E-03     40.5670E-03
            1539     6.13587E-03     48.6297E-03    -18.6112E+06    -83.4436E+06    -2.59373E+06     187.682E+03    -26.7341E-03     53.2783E-03    -26.5443E-03     35.6958E-03    -26.7104E-03     52.8999E-03    -26.4093E-03     35.6697E-03
            1540     5.25916E-03     48.5983E-03    -20.7760E+06    -87.0972E+06    -7.81644E+06     253.785E+03    -26.6572E-03     53.1894E-03    -26.5322E-03     30.6988E-03    -26.6286E-03     52.8005E-03    -26.4149E-03     30.6803E-03
            1541     4.38270E-03     48.5714E-03    -22.6128E+06    -90.4580E+06    -12.9232E+06     188.748E+03    -26.6049E-03     53.1246E-03    -26.5196E-03     25.6588E-03    -26.5713E-03     52.7270E-03    -26.4203E-03     25.6448E-03
            1542     3.50609E-03     48.5494E-03    -24.4199E+06    -94.0199E+06    -17.5362E+06     149.224E+03    -26.5562E-03     53.0654E-03    -26.5092E-03     20.5723E-03    -26.5184E-03     52.6581E-03    -26.4252E-03     20.5621E-03
            1543     2.62959E-03     48.5322E-03    -25.9667E+06    -97.4200E+06    -21.7175E+06     217.465E+03    -26.5205E-03     53.0213E-03    -26.5008E-03     15.5033E-03    -26.4786E-03     52.6044E-03    -26.4305E-03     15.4976E-03
            1544     1.75301E-03     48.5199E-03    -27.2138E+06    -99.8894E+06    -25.0889E+06     129.163E+03    -26.5041E-03     52.9977E-03    -26.4936E-03     10.4607E-03    -26.4594E-03     52.5746E-03    -26.4348E-03     10.4569E-03
            1545     876.541E-06     48.5123E-03    -28.0504E+06    -99.8407E+06    -27.4423E+06     77.1677E+03    -26.4911E-03     52.9747E-03    -26.4836E-03     5.66822E-03    -26.4469E-03     52.5561E-03    -26.4354E-03     5.66634E-03
            1546     16.6596E-03     48.4409E-03    -3.43982E+06     152.674E+06     70.6022E+06     600.017E+03    -26.9271E-03     53.2858E-03    -26.3587E-03     68.0150E-03    -28.0927E-03     54.7764E-03    -26.2221E-03     68.2624E-03
            1547     15.7807E-03     48.3131E-03    -5.34365E+06     131.844E+06     18.7679E+06     704.375E+03    -27.3710E-03     53.5535E-03    -26.1826E-03     121.366E-03    -28.7870E-03     55.3642E-03    -26.2722E-03     121.469E-03
            1548     14.9021E-03     48.2096E-03    -6.99020E+06     73.2131E+06    -11.9407E+06     463.613E+03    -27.8702E-03     54.0412E-03    -26.1710E-03     102.359E-03    -28.5794E-03     55.0202E-03    -26.3268E-03     102.191E-03
            1549     14.0261E-03     48.1205E-03    -7.97349E+06     21.3099E+06    -6.95590E+06    -289.051E+03    -27.8340E-03     54.1259E-03    -26.2918E-03     85.9364E-03    -28.1837E-03     54.5431E-03    -26.3459E-03     85.7462E-03
            1550     13.1485E-03     48.0460E-03    -7.89332E+06    -12.7551E+06    -4.29802E+06    -111.516E+03    -27.5517E-03     53.9131E-03    -26.3613E-03     75.0236E-03    -27.7375E-03     54.0380E-03    -26.3529E-03     74.8603E-03
            1551     12.2726E-03     47.9781E-03    -8.05604E+06    -31.1404E+06    -21.7402E+03     116.913E+03    -27.4549E-03     53.8694E-03    -26.4145E-03     68.9182E-03    -27.5625E-03     53.8379E-03    -26.3578E-03     68.7844E-03
            1552     11.3953E-03     47.9153E-03    -9.04181E+06    -42.4050E+06     2.57716E+06     199.788E+03    -27.2998E-03     53.7496E-03    -26.4499E-03     63.9671E-03    -27.3633E-03     53.6231E-03    -26.3624E-03     63.8591E-03
            1553     10.5192E-03     47.8565E-03    -9.91817E+06    -52.6126E+06     3.26882E+06     167.601E+03    -27.2107E-03     53.6850E-03    -26.4742E-03     59.0817E-03    -27.2417E-03     53.4845E-03    -26.3672E-03     58.9934E-03
            1554     9.64216E-03     47.8030E-03    -10.8833E+06    -59.8774E+06     4.57226E+06     244.117E+03    -27.0735E-03     53.5713E-03    -26.4978E-03     54.5038E-03    -27.0846E-03     53.3179E-03    -26.3723E-03     54.4340E-03
            1555     8.76582E-03     47.7528E-03    -12.2260E+06    -65.6382E+06     4.78938E+06     460.729E+03    -26.9713E-03     53.4872E-03    -26.5158E-03     50.0269E-03    -26.9699E-03     53.1954E-03    -26.3790E-03     49.9744E-03
            1556     7.88896E-03     47.7078E-03    -14.0292E+06    -71.7285E+06     3.69543E+06     399.503E+03    -26.8979E-03     53.4254E-03    -26.5275E-03     45.3331E-03    -26.8872E-03     53.0995E-03    -26.3847E-03     45.2917E-03
            1557     7.01256E-03     47.6666E-03    -16.1784E+06    -78.1091E+06     1.44798E+06     350.498E+03    -26.8055E-03     53.3387E-03    -26.5332E-03     40.5796E-03    -26.7873E-03     52.9815E-03    -26.3892E-03     40.5476E-03
            1558     6.13583E-03     47.6305E-03    -18.4562E+06    -83.3618E+06    -2.67941E+06     178.498E+03    -26.7156E-03     53.2443E-03    -26.5286E-03     35.6659E-03    -26.6912E-03     52.8661E-03    -26.3944E-03     35.6398E-03
            1559     5.25934E-03     47.5988E-03    -20.5704E+06    -86.9638E+06    -7.80752E+06     104.058E+03    -26.6517E-03     53.1681E-03    -26.5164E-03     30.6848E-03    -26.6224E-03     52.7796E-03    -26.3995E-03     30.6643E-03
            1560     4.38271E-03     47.5720E-03    -22.6116E+06    -90.3676E+06    -13.0543E+06     136.721E+03    -26.5852E-03     53.0883E-03    -26.5030E-03     25.6377E-03    -26.5516E-03     52.6914E-03    -26.4045E-03     25.6230E-03
            1561     3.50618E-03     47.5500E-03    -24.4019E+06    -93.9582E+06    -17.6564E+06     168.561E+03    -26.5365E-03     53.0302E-03    -26.4937E-03     20.5663E-03    -26.4985E-03     52.6233E-03    -26.4104E-03     20.5564E-03
            1562     2.62958E-03     47.5328E-03    -25.9388E+06    -97.2478E+06    -21.5482E+06     136.200E+03    -26.5139E-03     52.9995E-03    -26.4856E-03     15.4924E-03    -26.4723E-03     52.5831E-03    -26.4147E-03     15.4857E-03
            1563     1.75310E-03     47.5205E-03    -27.1428E+06    -99.6407E+06    -24.8453E+06     117.763E+03    -26.4893E-03     52.9653E-03    -26.4760E-03     10.4480E-03    -26.4449E-03     52.5429E-03    -26.4164E-03     10.4441E-03
            1564     876.511E-06     47.5129E-03    -28.0406E+06    -99.6763E+06    -27.2739E+06     21.6768E+03    -26.4692E-03     52.9362E-03    -26.4670E-03     5.66282E-03    -26.4254E-03     52.5182E-03    -26.4182E-03     5.66022E-03
            1565     16.6562E-03     47.4386E-03    -4.33794E+06     151.695E+06     68.9346E+06     315.470E+03    -26.5381E-03     52.9949E-03    -26.4568E-03     71.4466E-03    -27.7139E-03     54.4941E-03    -26.3258E-03     71.6768E-03
            1566     15.7789E-03     47.3183E-03    -6.87484E+06     132.286E+06     16.6015E+06     1.39892E+06    -29.0768E-03     55.3228E-03    -26.2459E-03     122.357E-03    -30.5014E-03     57.1444E-03    -26.3448E-03     122.426E-03
            1567     14.9016E-03     47.2077E-03    -7.51545E+06     74.2556E+06    -12.8562E+06     607.573E+03    -28.3413E-03     54.5233E-03    -26.1820E-03     102.859E-03    -29.0599E-03     55.5161E-03    -26.3430E-03     102.690E-03
            1568     14.0254E-03     47.1218E-03    -6.48997E+06     21.4660E+06    -6.55016E+06    -27.8977E+03    -27.9767E-03     54.2666E-03    -26.2899E-03     85.2376E-03    -28.3186E-03     54.6807E-03    -26.3444E-03     85.0497E-03
            1569     13.1492E-03     47.0462E-03    -7.06213E+06    -12.7357E+06    -4.14425E+06    -57.2051E+03    -27.5405E-03     53.8949E-03    -26.3544E-03     75.1206E-03    -27.7229E-03     54.0190E-03    -26.3464E-03     74.9583E-03
            1570     12.2719E-03     46.9789E-03    -7.62634E+06    -31.2240E+06     58.3794E+03     111.755E+03    -27.4763E-03     53.8835E-03    -26.4071E-03     68.7129E-03    -27.5815E-03     53.8505E-03    -26.3505E-03     68.5789E-03
            1571     11.3960E-03     46.9156E-03    -8.04872E+06    -42.3155E+06     2.91882E+06     235.603E+03    -27.3384E-03     53.7780E-03    -26.4396E-03     63.8565E-03    -27.3979E-03     53.6502E-03    -26.3520E-03     63.7485E-03
            1572     10.5188E-03     46.8573E-03    -9.15881E+06    -52.5450E+06     3.60651E+06     248.825E+03    -27.1762E-03     53.6397E-03    -26.4636E-03     59.0516E-03    -27.2038E-03     53.4378E-03    -26.3561E-03     58.9647E-03
            1573     9.64262E-03     46.8033E-03    -10.7228E+06    -59.8811E+06     4.76414E+06     365.543E+03    -27.0878E-03     53.5751E-03    -26.4873E-03     54.5129E-03    -27.0984E-03     53.3212E-03    -26.3611E-03     54.4445E-03
            1574     8.76567E-03     46.7537E-03    -12.4625E+06    -65.4864E+06     4.81373E+06     329.253E+03    -26.9860E-03     53.4882E-03    -26.5022E-03     50.0033E-03    -26.9860E-03     53.1976E-03    -26.3651E-03     49.9490E-03
            1575     7.88927E-03     46.7081E-03    -14.1168E+06    -71.6017E+06     3.72129E+06     216.308E+03    -26.8820E-03     53.3941E-03    -26.5122E-03     45.3150E-03    -26.8719E-03     53.0689E-03    -26.3693E-03     45.2712E-03
            1576     7.01254E-03     46.6674E-03    -15.9403E+06    -78.0793E+06     1.62817E+06     287.902E+03    -26.7944E-03     53.3124E-03    -26.5180E-03     40.5456E-03    -26.7753E-03     52.9548E-03    -26.3735E-03     40.5127E-03
            1577     6.13603E-03     46.6310E-03    -18.1003E+06    -82.9702E+06    -2.28505E+06     261.539E+03    -26.7085E-03     53.2214E-03    -26.5129E-03     35.6652E-03    -26.6834E-03     52.8441E-03    -26.3777E-03     35.6402E-03
            1578     5.25937E-03     46.5994E-03    -20.4209E+06    -86.9125E+06    -7.75253E+06     106.572E+03    -26.6356E-03     53.1346E-03    -26.4990E-03     30.6677E-03    -26.6056E-03     52.7460E-03    -26.3821E-03     30.6473E-03
            1579     4.38283E-03     46.5726E-03    -22.4514E+06    -90.3442E+06    -12.8729E+06     157.409E+03    -26.5687E-03     53.0548E-03    -26.4861E-03     25.6177E-03    -26.5345E-03     52.6575E-03    -26.3870E-03     25.6033E-03
            1580     3.50620E-03     46.5506E-03    -24.3210E+06    -93.7626E+06    -17.5082E+06     187.287E+03    -26.5279E-03     53.0031E-03    -26.4751E-03     20.5557E-03    -26.4901E-03     52.5968E-03    -26.3915E-03     20.5461E-03
            1581     2.62968E-03     46.5334E-03    -25.9343E+06    -97.0853E+06    -21.5936E+06     90.3046E+03    -26.4955E-03     52.9600E-03    -26.4644E-03     15.4724E-03    -26.4541E-03     52.5445E-03    -26.3940E-03     15.4651E-03
            1582     1.75309E-03     46.5211E-03    -27.2210E+06    -99.5094E+06    -24.8763E+06     22.1808E+03    -26.4680E-03     52.9225E-03    -26.4545E-03     10.4389E-03    -26.4242E-03     52.5010E-03    -26.3951E-03     10.4338E-03
            1583     876.576E-06     46.5135E-03    -28.1065E+06    -99.5368E+06    -27.4359E+06     22.6494E+03    -26.4474E-03     52.8921E-03    -26.4447E-03     5.66563E-03    -26.4040E-03     52.4751E-03    -26.3968E-03     5.66307E-03
            1584     16.6478E-03     46.4318E-03    -5.70033E+06     150.587E+06     69.4032E+06     545.438E+03    -26.3597E-03     52.8096E-03    -26.4499E-03     67.3957E-03    -27.5141E-03     54.2774E-03    -26.3129E-03     67.6351E-03
            1585     15.7780E-03     46.3168E-03    -8.92927E+06     131.681E+06     17.8742E+06    -1.02950E+06    -28.9814E-03     55.2122E-03    -26.2309E-03     116.220E-03    -30.3880E-03     57.0024E-03    -26.3195E-03     116.265E-03
            1586     14.9029E-03     46.2087E-03    -7.15261E+06     74.7763E+06    -11.9150E+06    -290.346E+03    -28.2478E-03     54.3974E-03    -26.1496E-03     101.043E-03    -28.9629E-03     55.3871E-03    -26.3072E-03     100.862E-03
            1587     14.0259E-03     46.1218E-03    -7.23446E+06     21.2139E+06    -7.25992E+06     135.746E+03    -27.5865E-03     53.8482E-03    -26.2617E-03     84.9153E-03    -27.9285E-03     54.2608E-03    -26.3182E-03     84.7335E-03
            1588     13.1489E-03     46.0472E-03    -7.14451E+06    -12.3577E+06    -4.19375E+06     275.695E+03    -27.5935E-03     53.9290E-03    -26.3356E-03     74.7163E-03    -27.7765E-03     54.0550E-03    -26.3282E-03     74.5573E-03
            1589     12.2729E-03     45.9791E-03    -7.69897E+06    -31.6029E+06    -388.018E+03     151.771E+03    -27.3723E-03     53.7598E-03    -26.3876E-03     68.7006E-03    -27.4762E-03     53.7253E-03    -26.3325E-03     68.5679E-03
            1590     11.3956E-03     45.9163E-03    -8.68408E+06    -42.2017E+06     2.75884E+06     188.922E+03    -27.2892E-03     53.7150E-03    -26.4258E-03     63.7485E-03    -27.3517E-03     53.5888E-03    -26.3382E-03     63.6401E-03
            1591     10.5194E-03     45.8579E-03    -9.52595E+06    -52.3723E+06     3.61661E+06     364.325E+03    -27.1630E-03     53.6141E-03    -26.4511E-03     59.0625E-03    -27.1926E-03     53.4135E-03    -26.3433E-03     58.9771E-03
            1592     9.64229E-03     45.8040E-03    -10.5434E+06    -59.6707E+06     4.99964E+06     313.162E+03    -27.0979E-03     53.5719E-03    -26.4740E-03     54.4882E-03    -27.1082E-03     53.3185E-03    -26.3472E-03     54.4192E-03
            1593     8.76612E-03     45.7541E-03    -11.8151E+06    -65.3085E+06     5.28972E+06     208.449E+03    -26.9908E-03     53.4781E-03    -26.4874E-03     49.9382E-03    -26.9885E-03     53.1867E-03    -26.3491E-03     49.8824E-03
            1594     7.88928E-03     45.7089E-03    -13.6909E+06    -71.5179E+06     4.03430E+06     148.511E+03    -26.8628E-03     53.3589E-03    -26.4962E-03     45.3281E-03    -26.8511E-03     53.0330E-03    -26.3524E-03     45.2837E-03
            1595     7.01273E-03     45.6678E-03    -15.8718E+06    -78.0648E+06     1.52621E+06     197.103E+03    -26.7796E-03     53.2802E-03    -26.5006E-03     40.5333E-03    -26.7600E-03     52.9227E-03    -26.3568E-03     40.4994E-03
            1596     6.13607E-03     45.6317E-03    -18.0888E+06    -82.8308E+06    -2.25367E+06     278.463E+03    -26.7020E-03     53.1971E-03    -26.4952E-03     35.6446E-03    -26.6770E-03     52.8205E-03    -26.3601E-03     35.6199E-03
            1597     5.25952E-03     45.6000E-03    -20.3107E+06    -86.6960E+06    -7.61011E+06     260.264E+03    -26.6191E-03     53.0997E-03    -26.4805E-03     30.6375E-03    -26.5891E-03     52.7118E-03    -26.3634E-03     30.6191E-03
            1598     4.38287E-03     45.5733E-03    -22.5189E+06    -90.3318E+06    -12.8390E+06     216.026E+03    -26.5632E-03     53.0292E-03    -26.4659E-03     25.6008E-03    -26.5295E-03     52.6320E-03    -26.3665E-03     25.5872E-03
            1599     3.50633E-03     45.5512E-03    -24.4143E+06    -93.5503E+06    -17.4365E+06     239.389E+03    -26.5136E-03     52.9656E-03    -26.4520E-03     20.5318E-03    -26.4766E-03     52.5604E-03    -26.3682E-03     20.5228E-03
            1600     2.62972E-03     45.5341E-03    -26.0335E+06    -96.8174E+06    -21.8278E+06     119.340E+03    -26.4683E-03     52.9072E-03    -26.4389E-03     15.4565E-03    -26.4274E-03     52.4935E-03    -26.3699E-03     15.4496E-03
            1601     1.75315E-03     45.5217E-03    -27.3046E+06    -99.4390E+06    -25.1898E+06    -1.66304E+03    -26.4427E-03     52.8724E-03    -26.4297E-03     10.4273E-03    -26.3989E-03     52.4517E-03    -26.3719E-03     10.4218E-03
            1602     876.560E-06     45.5142E-03    -28.1904E+06    -99.4641E+06    -27.4840E+06     3.92305E+03    -26.4260E-03     52.8458E-03    -26.4199E-03     5.66322E-03    -26.3830E-03     52.4294E-03    -26.3722E-03     5.66042E-03
            1603     16.6698E-03     45.4451E-03    -3.13739E+06     152.791E+06     71.1843E+06     1.13951E+06    -27.6252E-03     53.9122E-03    -26.2870E-03     66.6151E-03    -28.7781E-03     55.3900E-03    -26.1481E-03     66.8786E-03
            1604     15.7818E-03     45.3126E-03    -4.43109E+06     133.004E+06     21.4388E+06    -274.980E+03    -26.6872E-03     52.7968E-03    -26.1096E-03     119.309E-03    -28.0886E-03     54.5920E-03    -26.1889E-03     119.422E-03
            1605     14.9047E-03     45.2130E-03    -7.06113E+06     73.6013E+06    -10.5995E+06    -377.764E+03    -27.6033E-03     53.7151E-03    -26.1118E-03     101.755E-03    -28.3116E-03     54.6905E-03    -26.2613E-03     101.581E-03
            1606     14.0258E-03     45.1215E-03    -6.84241E+06     21.8468E+06    -6.12430E+06     459.274E+03    -27.5705E-03     53.8103E-03    -26.2398E-03     86.0097E-03    -27.9159E-03     54.2268E-03    -26.2922E-03     85.8311E-03
            1607     13.1501E-03     45.0481E-03    -7.31523E+06    -12.9668E+06    -4.03999E+06     300.107E+03    -27.4376E-03     53.7549E-03    -26.3173E-03     74.7802E-03    -27.6196E-03     53.8766E-03    -26.3081E-03     74.6229E-03
            1608     12.2724E-03     44.9799E-03    -7.89785E+06    -31.3873E+06    -51.0329E+03     437.735E+03    -27.3362E-03     53.7109E-03    -26.3748E-03     69.0130E-03    -27.4423E-03     53.6778E-03    -26.3181E-03     68.8841E-03
            1609     11.3963E-03     44.9168E-03    -8.69136E+06    -42.1664E+06     3.09234E+06     387.729E+03    -27.2508E-03     53.6660E-03    -26.4152E-03     63.8085E-03    -27.3134E-03     53.5391E-03    -26.3260E-03     63.7032E-03
            1610     10.5191E-03     44.8587E-03    -9.65401E+06    -52.0350E+06     3.60547E+06     47.9971E+03    -27.2113E-03     53.6483E-03    -26.4370E-03     59.0898E-03    -27.2422E-03     53.4498E-03    -26.3295E-03     59.0001E-03
            1611     9.64302E-03     44.8043E-03    -10.5439E+06    -59.5397E+06     4.82044E+06    -195.847E+03    -27.0845E-03     53.5409E-03    -26.4564E-03     54.4921E-03    -27.0946E-03     53.2882E-03    -26.3307E-03     54.4168E-03
            1612     8.76595E-03     44.7549E-03    -11.8771E+06    -65.5448E+06     4.99647E+06     26.7767E+03    -26.9586E-03     53.4291E-03    -26.4705E-03     49.9482E-03    -26.9558E-03     53.1370E-03    -26.3333E-03     49.8902E-03
            1613     7.88951E-03     44.7093E-03    -13.6834E+06    -71.4808E+06     4.05130E+06     374.227E+03    -26.8714E-03     53.3512E-03    -26.4798E-03     45.3075E-03    -26.8596E-03     53.0254E-03    -26.3361E-03     45.2660E-03
            1614     7.01280E-03     44.6687E-03    -15.9947E+06    -77.8065E+06     1.52426E+06     330.369E+03    -26.7760E-03     53.2576E-03    -26.4816E-03     40.5110E-03    -26.7573E-03     52.9016E-03    -26.3380E-03     40.4789E-03
            1615     6.13624E-03     44.6322E-03    -18.3186E+06    -82.8726E+06    -2.74033E+06     218.924E+03    -26.6854E-03     53.1583E-03    -26.4730E-03     35.5978E-03    -26.6608E-03     52.7825E-03    -26.3399E-03     35.5723E-03
            1616     5.25958E-03     44.6008E-03    -20.5039E+06    -86.6026E+06    -7.67523E+06     349.044E+03    -26.6128E-03     53.0712E-03    -26.4584E-03     30.6028E-03    -26.5838E-03     52.6842E-03    -26.3415E-03     30.5856E-03
            1617     4.38302E-03     44.5738E-03    -22.5788E+06    -90.1306E+06    -12.8569E+06     372.380E+03    -26.5501E-03     52.9912E-03    -26.4410E-03     25.5671E-03    -26.5169E-03     52.5951E-03    -26.3419E-03     25.5556E-03
            1618     3.50640E-03     44.5520E-03    -24.4847E+06    -93.3712E+06    -17.5333E+06     216.167E+03    -26.4873E-03     52.9127E-03    -26.4255E-03     20.5008E-03    -26.4507E-03     52.5087E-03    -26.3422E-03     20.4916E-03
            1619     2.62980E-03     44.5348E-03    -26.0221E+06    -96.5707E+06    -21.8157E+06     161.306E+03    -26.4453E-03     52.8572E-03    -26.4119E-03     15.4376E-03    -26.4047E-03     52.4447E-03    -26.3432E-03     15.4312E-03
            1620     1.75320E-03     44.5225E-03    -27.3036E+06    -99.2746E+06    -25.2178E+06     64.2127E+03    -26.4179E-03     52.8189E-03    -26.4010E-03     10.4102E-03    -26.3743E-03     52.3991E-03    -26.3436E-03     10.4056E-03
            1621     876.602E-06     44.5149E-03    -28.2086E+06    -99.4227E+06    -27.5516E+06    -57.6307E+03    -26.3932E-03     52.7869E-03    -26.3937E-03     5.65091E-03    -26.3503E-03     52.3708E-03    -26.3463E-03     5.64733E-03
            1622     16.6529E-03     44.4424E-03    -4.04336E+06     152.169E+06     70.5517E+06    -927.747E+03    -27.2743E-03     53.6325E-03    -26.3582E-03     69.7973E-03    -28.4597E-03     55.1392E-03    -26.2202E-03     70.0142E-03
            1623     15.7818E-03     44.3203E-03    -3.55126E+06     133.502E+06     21.0578E+06     1.84478E+06    -28.0872E-03     54.2519E-03    -26.1647E-03     124.383E-03    -29.5179E-03     56.0827E-03    -26.2478E-03     124.487E-03
            1624     14.9010E-03     44.2108E-03    -4.70493E+06     74.2848E+06    -10.3962E+06     1.30962E+06    -27.9866E-03     54.1189E-03    -26.1324E-03     103.886E-03    -28.6916E-03     55.1011E-03    -26.2852E-03     103.729E-03
            1625     14.0275E-03     44.1234E-03    -6.02984E+06     21.7469E+06    -5.89188E+06     621.288E+03    -27.8645E-03     54.1130E-03    -26.2485E-03     86.1072E-03    -28.2066E-03     54.5280E-03    -26.3008E-03     85.9285E-03
            1626     13.1487E-03     44.0486E-03    -6.53753E+06    -12.8716E+06    -3.79705E+06     820.536E+03    -27.4212E-03     53.7400E-03    -26.3188E-03     75.5034E-03    -27.6003E-03     53.8612E-03    -26.3096E-03     75.3537E-03
            1627     12.2732E-03     43.9804E-03    -7.11275E+06    -31.3607E+06     111.424E+03     495.940E+03    -27.4731E-03     53.8459E-03    -26.3728E-03     69.0306E-03    -27.5759E-03     53.8119E-03    -26.3165E-03     68.9016E-03
            1628     11.3958E-03     43.9178E-03    -7.78043E+06    -41.9235E+06     3.29748E+06     418.966E+03    -27.3067E-03     53.7127E-03    -26.4060E-03     63.9233E-03    -27.3654E-03     53.5854E-03    -26.3174E-03     63.8183E-03
            1629     10.5198E-03     43.8588E-03    -8.84938E+06    -51.0857E+06     4.12611E+06     188.358E+03    -27.2145E-03     53.6404E-03    -26.4259E-03     59.1559E-03    -27.2434E-03     53.4446E-03    -26.3184E-03     59.0681E-03
            1630     9.64263E-03     43.8054E-03    -10.5222E+06    -59.6536E+06     4.33081E+06    -107.270E+03    -27.0923E-03     53.5339E-03    -26.4417E-03     54.5103E-03    -27.1013E-03     53.2813E-03    -26.3182E-03     54.4362E-03
            1631     8.76633E-03     43.7553E-03    -12.3670E+06    -66.0678E+06     4.44628E+06     39.6952E+03    -26.9798E-03     53.4340E-03    -26.4541E-03     49.9545E-03    -26.9779E-03     53.1407E-03    -26.3182E-03     49.8967E-03
            1632     7.88954E-03     43.7102E-03    -14.2435E+06    -71.3908E+06     3.61338E+06     373.729E+03    -26.8800E-03     53.3396E-03    -26.4596E-03     45.2531E-03    -26.8705E-03     53.0156E-03    -26.3174E-03     45.2117E-03
            1633     7.01303E-03     43.6691E-03    -16.1441E+06    -77.6791E+06     1.53603E+06     352.104E+03    -26.7737E-03     53.2337E-03    -26.4600E-03     40.4576E-03    -26.7560E-03     52.8785E-03    -26.3163E-03     40.4258E-03
            1634     6.13635E-03     43.6331E-03    -18.3971E+06    -82.6372E+06    -2.61162E+06     345.796E+03    -26.6775E-03     53.1264E-03    -26.4490E-03     35.5469E-03    -26.6538E-03     52.7517E-03    -26.3155E-03     35.5231E-03
            1635     5.25975E-03     43.6013E-03    -20.6811E+06    -86.6753E+06    -7.92592E+06     303.991E+03    -26.6008E-03     53.0312E-03    -26.4304E-03     30.5615E-03    -26.5721E-03     52.6444E-03    -26.3144E-03     30.5438E-03
            1636     4.38313E-03     43.5747E-03    -22.6253E+06    -89.8991E+06    -12.7858E+06     339.531E+03    -26.5243E-03     52.9365E-03    -26.4123E-03     25.5162E-03    -26.4917E-03     52.5416E-03    -26.3130E-03     25.5042E-03
            1637     3.50649E-03     43.5526E-03    -24.3810E+06    -93.1036E+06    -17.5973E+06     254.618E+03    -26.4620E-03     52.8567E-03    -26.3947E-03     20.4621E-03    -26.4252E-03     52.4539E-03    -26.3124E-03     20.4535E-03
            1638     2.62989E-03     43.5356E-03    -26.0236E+06    -96.4722E+06    -21.7751E+06     184.705E+03    -26.4188E-03     52.7994E-03    -26.3806E-03     15.4035E-03    -26.3784E-03     52.3873E-03    -26.3119E-03     15.3975E-03
            1639     1.75325E-03     43.5232E-03    -27.3446E+06    -98.9904E+06    -25.1449E+06     179.017E+03    -26.3862E-03     52.7545E-03    -26.3683E-03     10.3887E-03    -26.3434E-03     52.3361E-03    -26.3109E-03     10.3856E-03
            1640     876.640E-06     43.5158E-03    -28.3290E+06    -99.3107E+06    -27.7252E+06     31.8123E+03    -26.3613E-03     52.7191E-03    -26.3578E-03     5.64294E-03    -26.3189E-03     52.3040E-03    -26.3113E-03     5.64052E-03
            1641     16.6545E-03     43.4358E-03    -5.17517E+06     150.515E+06     67.2300E+06    -1.36149E+06    -25.8629E-03     52.3585E-03    -26.4955E-03     69.2910E-03    -27.0276E-03     53.8443E-03    -26.3701E-03     69.4928E-03
            1642     15.7768E-03     43.3215E-03    -10.0883E+06     130.524E+06     13.9560E+06    -1.20334E+06    -30.0823E-03     56.3486E-03    -26.2663E-03     119.824E-03    -31.5101E-03     58.1635E-03    -26.3711E-03     119.836E-03
            1643     14.9041E-03     43.2100E-03    -8.39867E+06     74.6164E+06    -13.2150E+06     769.659E+03    -28.7690E-03     54.9318E-03    -26.1627E-03     103.305E-03    -29.4979E-03     55.9341E-03    -26.3248E-03     103.132E-03
            1644     14.0248E-03     43.1246E-03    -7.20758E+06     21.5242E+06    -7.38278E+06     959.924E+03    -27.8575E-03     54.1165E-03    -26.2590E-03     85.3665E-03    -28.2004E-03     54.5316E-03    -26.3167E-03     85.1934E-03
            1645     13.1498E-03     43.0488E-03    -7.16333E+06    -11.9214E+06    -4.28635E+06     571.202E+03    -27.6776E-03     54.0003E-03    -26.3227E-03     75.4438E-03    -27.8619E-03     54.1293E-03    -26.3165E-03     75.2887E-03
            1646     12.2723E-03     42.9811E-03    -7.07814E+06    -31.0996E+06    -196.584E+03     497.096E+03    -27.5098E-03     53.8773E-03    -26.3675E-03     68.7954E-03    -27.6117E-03     53.8442E-03    -26.3131E-03     68.6666E-03
            1647     11.3966E-03     42.9181E-03    -7.66341E+06    -41.7864E+06     2.92140E+06     274.015E+03    -27.3558E-03     53.7522E-03    -26.3964E-03     63.8718E-03    -27.4139E-03     53.6263E-03    -26.3101E-03     63.7645E-03
            1648     10.5192E-03     42.8598E-03    -8.81363E+06    -51.0051E+06     4.09152E+06     529.384E+03    -27.2127E-03     53.6284E-03    -26.4157E-03     59.1246E-03    -27.2413E-03     53.4328E-03    -26.3085E-03     59.0415E-03
            1649     9.64313E-03     42.8056E-03    -10.4575E+06    -59.1434E+06     4.74582E+06     613.854E+03    -27.1287E-03     53.5590E-03    -26.4303E-03     54.4079E-03    -27.1388E-03     53.3083E-03    -26.3056E-03     54.3428E-03
            1650     8.76627E-03     42.7562E-03    -12.4160E+06    -66.0721E+06     4.27033E+06     217.282E+03    -27.0203E-03     53.4556E-03    -26.4353E-03     49.8755E-03    -27.0183E-03     53.1625E-03    -26.3001E-03     49.8200E-03
            1651     7.88984E-03     42.7106E-03    -14.1764E+06    -71.5768E+06     3.48372E+06     197.824E+03    -26.8845E-03     53.3210E-03    -26.4366E-03     45.1945E-03    -26.8742E-03     52.9962E-03    -26.2948E-03     45.1508E-03
            1652     7.01314E-03     42.6700E-03    -16.2141E+06    -77.5155E+06     1.35012E+06     355.599E+03    -26.7712E-03     53.2044E-03    -26.4332E-03     40.3871E-03    -26.7537E-03     52.8503E-03    -26.2905E-03     40.3554E-03
            1653     6.13655E-03     42.6336E-03    -18.4354E+06    -82.5754E+06    -2.38828E+06     350.910E+03    -26.6747E-03     53.0954E-03    -26.4208E-03     35.4891E-03    -26.6516E-03     52.7207E-03    -26.2862E-03     35.4654E-03
            1654     5.25993E-03     42.6022E-03    -20.5936E+06    -86.4026E+06    -7.74072E+06     331.389E+03    -26.5808E-03     52.9792E-03    -26.3984E-03     30.4961E-03    -26.5524E-03     52.5934E-03    -26.2820E-03     30.4789E-03
            1655     4.38326E-03     42.5754E-03    -22.6490E+06    -89.8283E+06    -12.8807E+06     196.970E+03    -26.4976E-03     52.8749E-03    -26.3773E-03     25.4564E-03    -26.4651E-03     52.4804E-03    -26.2786E-03     25.4427E-03
            1656     3.50665E-03     42.5535E-03    -24.4462E+06    -92.9053E+06    -17.5153E+06     268.818E+03    -26.4331E-03     52.7916E-03    -26.3585E-03     20.4084E-03    -26.3971E-03     52.3898E-03    -26.2759E-03     20.3999E-03
            1657     2.62997E-03     42.5363E-03    -25.9973E+06    -96.3211E+06    -21.8110E+06     255.603E+03    -26.3825E-03     52.7248E-03    -26.3423E-03     15.3624E-03    -26.3422E-03     52.3135E-03    -26.2740E-03     15.3574E-03
            1658     1.75334E-03     42.5241E-03    -27.2257E+06    -98.7276E+06    -25.1042E+06     177.685E+03    -26.3473E-03     52.6773E-03    -26.3300E-03     10.3608E-03    -26.3043E-03     52.2599E-03    -26.2729E-03     10.3578E-03
            1659     876.642E-06     42.5165E-03    -27.9804E+06    -99.0473E+06    -27.3930E+06     116.968E+03    -26.3267E-03     52.6451E-03    -26.3184E-03     5.62948E-03    -26.2834E-03     52.2304E-03    -26.2712E-03     5.62817E-03
            1660     16.6520E-03     42.4378E-03    -3.50885E+06     152.128E+06     68.7457E+06     896.573E+03    -26.2617E-03     52.6561E-03    -26.3944E-03     67.1580E-03    -27.4036E-03     54.1264E-03    -26.2662E-03     67.4195E-03
            1661     15.7792E-03     42.3165E-03    -9.06244E+06     130.246E+06     14.0541E+06     -908.05E+03    -28.1408E-03     54.3348E-03    -26.1940E-03     116.389E-03    -29.5390E-03     56.1222E-03    -26.2995E-03     116.461E-03
            1662     14.9015E-03     42.2124E-03    -10.9332E+06     72.6575E+06    -15.1407E+06    -1.16961E+06    -28.3729E-03     54.5142E-03    -26.1413E-03     100.959E-03    -29.0991E-03     55.5035E-03    -26.3065E-03     100.765E-03
            1663     14.0267E-03     42.1241E-03    -9.35659E+06     21.6381E+06    -8.08044E+06    -315.409E+03    -27.8090E-03     54.0570E-03    -26.2479E-03     85.3517E-03    -28.1627E-03     54.4777E-03    -26.3061E-03     85.1618E-03
            1664     13.1491E-03     42.0497E-03    -7.97256E+06    -11.6280E+06    -4.56511E+06     68.3405E+03    -27.7174E-03     54.0272E-03    -26.3098E-03     74.8560E-03    -27.9053E-03     54.1587E-03    -26.3042E-03     74.6936E-03
            1665     12.2734E-03     41.9814E-03    -8.08323E+06    -30.8738E+06    -634.385E+03     182.004E+03    -27.4162E-03     53.7704E-03    -26.3542E-03     68.8042E-03    -27.5223E-03     53.7401E-03    -26.3009E-03     68.6722E-03
            1666     11.3959E-03     41.9188E-03    -8.67847E+06    -41.8364E+06     2.40515E+06     280.393E+03    -27.3871E-03     53.7711E-03    -26.3840E-03     63.7527E-03    -27.4494E-03     53.6471E-03    -26.2987E-03     63.6453E-03
            1667     10.5200E-03     41.8602E-03    -9.50855E+06    -51.5268E+06     3.62011E+06     510.177E+03    -27.2702E-03     53.6686E-03    -26.3983E-03     58.9634E-03    -27.3008E-03     53.4720E-03    -26.2917E-03     58.8798E-03
            1668     9.64295E-03     41.8064E-03    -10.5012E+06    -58.6698E+06     5.13641E+06     624.558E+03    -27.1337E-03     53.5438E-03    -26.4101E-03     54.3108E-03    -27.1452E-03     53.2948E-03    -26.2841E-03     54.2460E-03
            1669     8.76669E-03     41.7566E-03    -11.9136E+06    -65.4521E+06     4.65748E+06     498.520E+03    -27.0207E-03     53.4320E-03    -26.4113E-03     49.7343E-03    -27.0176E-03     53.1407E-03    -26.2758E-03     49.6824E-03
            1670     7.88994E-03     41.7115E-03    -14.0512E+06    -71.6983E+06     3.42568E+06     291.292E+03    -26.8862E-03     53.2951E-03    -26.4089E-03     45.0994E-03    -26.8750E-03     52.9695E-03    -26.2674E-03     45.0570E-03
            1671     7.01340E-03     41.6706E-03    -16.1924E+06    -77.4161E+06     1.37310E+06     323.648E+03    -26.7740E-03     53.1758E-03    -26.4019E-03     40.3037E-03    -26.7565E-03     52.8221E-03    -26.2593E-03     40.2717E-03
            1672     6.13676E-03     41.6345E-03    -18.3829E+06    -82.4664E+06    -2.58176E+06     326.063E+03    -26.6659E-03     53.0499E-03    -26.3840E-03     35.3950E-03    -26.6424E-03     52.6759E-03    -26.2507E-03     35.3711E-03
            1673     5.26011E-03     41.6029E-03    -20.5515E+06    -86.1694E+06    -7.74682E+06     279.266E+03    -26.5581E-03     52.9171E-03    -26.3589E-03     30.3999E-03    -26.5298E-03     52.5323E-03    -26.2429E-03     30.3820E-03
            1674     4.38348E-03     41.5763E-03    -22.5910E+06    -89.6606E+06    -12.9942E+06     270.397E+03    -26.4677E-03     52.8022E-03    -26.3345E-03     25.3841E-03    -26.4350E-03     52.4087E-03    -26.2367E-03     25.3714E-03
            1675     3.50677E-03     41.5543E-03    -24.4692E+06    -92.8337E+06    -17.5469E+06     191.850E+03    -26.3941E-03     52.7086E-03    -26.3145E-03     20.3487E-03    -26.3582E-03     52.3072E-03    -26.2321E-03     20.3393E-03
            1676     2.63012E-03     41.5373E-03    -25.9394E+06    -96.1039E+06    -21.6417E+06     196.281E+03    -26.3399E-03     52.6377E-03    -26.2977E-03     15.3164E-03    -26.2999E-03     52.2271E-03    -26.2290E-03     15.3106E-03
            1677     1.75338E-03     41.5250E-03    -27.1049E+06    -98.5200E+06    -25.0294E+06     156.649E+03    -26.3036E-03     52.5874E-03    -26.2837E-03     10.3305E-03    -26.2604E-03     52.1708E-03    -26.2267E-03     10.3272E-03
            1678     876.726E-06     41.5175E-03    -27.9791E+06    -98.7660E+06    -27.3496E+06     107.295E+03    -26.2810E-03     52.5509E-03    -26.2699E-03     5.61025E-03    -26.2382E-03     52.1375E-03    -26.2229E-03     5.60883E-03
            1679     16.6690E-03     41.4492E-03    -3.37891E+06     152.537E+06     71.1549E+06     958.707E+03    -27.6990E-03     53.9778E-03    -26.2788E-03     67.4649E-03    -28.8665E-03     55.4685E-03    -26.1393E-03     67.7232E-03
            1680     15.7812E-03     41.3166E-03    -4.09936E+06     133.103E+06     21.0540E+06     1.57647E+06    -26.5818E-03     52.6857E-03    -26.1039E-03     120.831E-03    -27.9929E-03     54.4933E-03    -26.1857E-03     120.971E-03
            1681     14.9049E-03     41.2144E-03    -5.47086E+06     73.1955E+06    -10.9738E+06     72.4225E+03    -27.5186E-03     53.6323E-03    -26.1137E-03     101.801E-03    -28.2152E-03     54.6011E-03    -26.2667E-03     101.634E-03
            1682     14.0256E-03     41.1242E-03    -6.78697E+06     21.1264E+06    -6.62579E+06    -664.099E+03    -27.9022E-03     54.1386E-03    -26.2364E-03     86.0631E-03    -28.2474E-03     54.5539E-03    -26.2903E-03     85.8667E-03
            1683     13.1505E-03     41.0501E-03    -7.57496E+06    -12.1303E+06    -4.24665E+06    -255.611E+03    -27.6011E-03     53.8982E-03    -26.2971E-03     74.8233E-03    -27.7854E-03     54.0249E-03    -26.2898E-03     74.6579E-03
            1684     12.2726E-03     40.9825E-03    -7.86341E+06    -30.9357E+06    -401.110E+03     167.706E+03    -27.4919E-03     53.8331E-03    -26.3412E-03     68.9240E-03    -27.5976E-03     53.8022E-03    -26.2869E-03     68.7912E-03
            1685     11.3968E-03     40.9189E-03    -8.68188E+06    -41.8626E+06     2.70496E+06     413.070E+03    -27.4111E-03     53.7779E-03    -26.3668E-03     63.6870E-03    -27.4735E-03     53.6530E-03    -26.2800E-03     63.5815E-03
            1686     10.5198E-03     40.8611E-03    -9.68708E+06    -51.4249E+06     3.27429E+06     265.991E+03    -27.3080E-03     53.6816E-03    -26.3736E-03     58.8744E-03    -27.3392E-03     53.4863E-03    -26.2686E-03     58.7875E-03
            1687     9.64364E-03     40.8068E-03    -10.7649E+06    -59.1136E+06     4.61147E+06     242.141E+03    -27.1544E-03     53.5347E-03    -26.3804E-03     54.2484E-03    -27.1656E-03     53.2845E-03    -26.2560E-03     54.1790E-03
            1688     8.76677E-03     40.7574E-03    -12.2241E+06    -65.0505E+06     4.83750E+06     693.164E+03    -27.0044E-03     53.3851E-03    -26.3807E-03     49.6209E-03    -27.0036E-03     53.0959E-03    -26.2444E-03     49.5717E-03
            1689     7.89030E-03     40.7121E-03    -14.0903E+06    -71.0987E+06     3.42910E+06     494.539E+03    -26.8919E-03     53.2651E-03    -26.3732E-03     44.9786E-03    -26.8816E-03     52.9425E-03    -26.2326E-03     44.9390E-03
            1690     7.01363E-03     40.6714E-03    -16.2343E+06    -77.5327E+06     1.31631E+06     206.529E+03    -26.7704E-03     53.1324E-03    -26.3620E-03     40.1717E-03    -26.7529E-03     52.7782E-03    -26.2195E-03     40.1382E-03
            1691     6.13704E-03     40.6352E-03    -18.3255E+06    -82.2090E+06    -2.60622E+06     306.664E+03    -26.6404E-03     52.9801E-03    -26.3398E-03     35.2687E-03    -26.6168E-03     52.6073E-03    -26.2070E-03     35.2446E-03
            1692     5.26039E-03     40.6039E-03    -20.5212E+06    -86.1487E+06    -7.89253E+06     295.706E+03    -26.5265E-03     52.8381E-03    -26.3117E-03     30.3055E-03    -26.4978E-03     52.4536E-03    -26.1964E-03     30.2879E-03
            1693     4.38366E-03     40.5771E-03    -22.5292E+06    -89.4070E+06    -12.9028E+06     273.518E+03    -26.4299E-03     52.7153E-03    -26.2855E-03     25.3027E-03    -26.3973E-03     52.3228E-03    -26.1877E-03     25.2901E-03
            1694     3.50699E-03     40.5554E-03    -24.2575E+06    -92.6718E+06    -17.4798E+06     165.934E+03    -26.3500E-03     52.6131E-03    -26.2631E-03     20.2819E-03    -26.3134E-03     52.2121E-03    -26.1809E-03     20.2722E-03
            1695     2.63022E-03     40.5382E-03    -25.8647E+06    -96.0178E+06    -21.5816E+06     153.536E+03    -26.2915E-03     52.5364E-03    -26.2449E-03     15.2631E-03    -26.2513E-03     52.1261E-03    -26.1761E-03     15.2568E-03
            1696     1.75352E-03     40.5261E-03    -27.1792E+06    -98.3007E+06    -24.9639E+06     187.649E+03    -26.2512E-03     52.4806E-03    -26.2294E-03     10.2976E-03    -26.2088E-03     52.0652E-03    -26.1723E-03     10.2947E-03
            1697     876.729E-06     40.5185E-03    -28.0730E+06    -98.5140E+06    -27.4314E+06     114.465E+03    -26.2254E-03     52.4391E-03    -26.2137E-03     5.58980E-03    -26.1833E-03     52.0272E-03    -26.1673E-03     5.58849E-03
            1698     16.6505E-03     40.4430E-03    -4.38149E+06     151.597E+06     70.2970E+06    -805.025E+03    -27.1668E-03     53.5704E-03    -26.4036E-03     70.3941E-03    -28.3532E-03     55.0756E-03    -26.2656E-03     70.6006E-03
            1699     15.7828E-03     40.3236E-03    -5.11023E+06     132.924E+06     20.6091E+06     473.250E+03    -28.8770E-03     55.0687E-03    -26.1916E-03     124.161E-03    -30.3154E-03     56.9008E-03    -26.2739E-03     124.225E-03
            1700     14.9008E-03     40.2135E-03    -4.89888E+06     74.5482E+06    -10.5969E+06     1.39103E+06    -28.1700E-03     54.3009E-03    -26.1309E-03     104.502E-03    -28.8807E-03     55.2896E-03    -26.2849E-03     104.344E-03
            1701     14.0275E-03     40.1250E-03    -5.46807E+06     21.5794E+06    -6.29838E+06     676.746E+03    -28.0365E-03     54.2716E-03    -26.2351E-03     85.8224E-03    -28.3748E-03     54.6854E-03    -26.2900E-03     85.6426E-03
            1702     13.1488E-03     40.0509E-03    -6.62777E+06    -12.3618E+06    -3.98094E+06     97.0588E+03    -27.6745E-03     53.9650E-03    -26.2904E-03     74.9644E-03    -27.8542E-03     54.0888E-03    -26.2828E-03     74.8036E-03
            1703     12.2738E-03     39.9825E-03    -7.40757E+06    -31.0976E+06    -305.620E+03     261.960E+03    -27.6483E-03     53.9739E-03    -26.3256E-03     68.7541E-03    -27.7519E-03     53.9417E-03    -26.2713E-03     68.6215E-03
            1704     11.3965E-03     39.9200E-03    -8.02719E+06    -41.8689E+06     2.74140E+06     342.272E+03    -27.4401E-03     53.7824E-03    -26.3422E-03     63.6500E-03    -27.4992E-03     53.6563E-03    -26.2562E-03     63.5438E-03
            1705     10.5204E-03     39.8612E-03    -9.02124E+06    -51.0548E+06     3.82982E+06     463.072E+03    -27.3225E-03     53.6698E-03    -26.3473E-03     58.7608E-03    -27.3515E-03     53.4744E-03    -26.2410E-03     58.6765E-03
            1706     9.64360E-03     39.8077E-03    -10.6812E+06    -59.3359E+06     4.51138E+06     603.659E+03    -27.1761E-03     53.5242E-03    -26.3481E-03     54.0876E-03    -27.1864E-03     53.2728E-03    -26.2240E-03     54.0227E-03
            1707     8.76727E-03     39.7580E-03    -12.3572E+06    -65.1214E+06     4.74733E+06     425.075E+03    -27.0298E-03     53.3724E-03    -26.3426E-03     49.5334E-03    -27.0293E-03     53.0831E-03    -26.2065E-03     49.4808E-03
            1708     7.89056E-03     39.7129E-03    -13.8925E+06    -70.5831E+06     3.78052E+06     490.537E+03    -26.8999E-03     53.2295E-03    -26.3296E-03     44.8275E-03    -26.8899E-03     52.9087E-03    -26.1882E-03     44.7878E-03
            1709     7.01406E-03     39.6721E-03    -15.9781E+06    -77.2632E+06     1.33433E+06     339.828E+03    -26.7432E-03     53.0556E-03    -26.3124E-03     40.0200E-03    -26.7247E-03     52.7023E-03    -26.1706E-03     39.9884E-03
            1710     6.13735E-03     39.6362E-03    -18.3758E+06    -82.2457E+06    -2.69746E+06     236.906E+03    -26.6007E-03     52.8887E-03    -26.2880E-03     35.1544E-03    -26.5772E-03     52.5158E-03    -26.1556E-03     35.1296E-03
            1711     5.26063E-03     39.6047E-03    -20.4293E+06    -85.9940E+06    -7.88227E+06     284.781E+03    -26.4887E-03     52.7461E-03    -26.2575E-03     30.1996E-03    -26.4597E-03     52.3622E-03    -26.1426E-03     30.1820E-03
            1712     4.38395E-03     39.5782E-03    -22.3619E+06    -89.2371E+06    -12.8230E+06     218.644E+03    -26.3862E-03     52.6149E-03    -26.2286E-03     25.2031E-03    -26.3532E-03     52.2228E-03    -26.1309E-03     25.1899E-03
            1713     3.50715E-03     39.5564E-03    -24.2538E+06    -92.5361E+06    -17.4675E+06     250.618E+03    -26.2998E-03     52.5033E-03    -26.2035E-03     20.1997E-03    -26.2634E-03     52.1029E-03    -26.1215E-03     20.1912E-03
            1714     2.63042E-03     39.5394E-03    -25.9043E+06    -95.8698E+06    -21.6908E+06     238.364E+03    -26.2362E-03     52.4185E-03    -26.1822E-03     15.1992E-03    -26.1962E-03     52.0091E-03    -26.1141E-03     15.1941E-03
            1715     1.75358E-03     39.5272E-03    -27.1744E+06    -98.0842E+06    -24.9673E+06     165.232E+03    -26.1893E-03     52.3546E-03    -26.1653E-03     10.2517E-03    -26.1472E-03     51.9402E-03    -26.1085E-03     10.2485E-03
            1716     876.833E-06     39.5197E-03    -27.9827E+06    -98.2545E+06    -27.3147E+06     90.7066E+03    -26.1571E-03     52.3103E-03    -26.1531E-03     5.56766E-03    -26.1151E-03     51.8993E-03    -26.1066E-03     5.56605E-03
            1717     16.6548E-03     39.4367E-03    -4.51124E+06     150.907E+06      67.337E+06    -440.197E+03    -25.8752E-03     52.3701E-03    -26.4948E-03     69.1948E-03    -27.0292E-03     53.8487E-03    -26.3704E-03     69.4140E-03
            1718     15.7745E-03     39.3232E-03    -10.3628E+06     129.970E+06     12.9919E+06    -954.858E+03    -30.1340E-03     56.3914E-03    -26.2575E-03     118.279E-03    -31.5524E-03     58.1968E-03    -26.3659E-03     118.296E-03
            1719     14.9046E-03     39.2124E-03    -10.0832E+06     74.5661E+06    -14.2990E+06    -185.823E+03    -29.1754E-03     55.3119E-03    -26.1365E-03     102.631E-03    -29.9132E-03     56.3201E-03    -26.3015E-03     102.438E-03
            1720     14.0254E-03     39.1264E-03    -8.05766E+06     22.0080E+06    -7.97561E+06     261.292E+03    -27.9611E-03     54.1751E-03    -26.2140E-03     84.9653E-03    -28.3073E-03     54.5939E-03    -26.2741E-03     84.7820E-03
            1721     13.1507E-03     39.0506E-03    -7.19247E+06    -12.1945E+06    -4.64417E+06     551.891E+03    -27.7780E-03     54.0455E-03    -26.2676E-03     74.7365E-03    -27.9600E-03     54.1722E-03    -26.2627E-03     74.5806E-03
            1722     12.2731E-03     38.9834E-03    -7.74106E+06    -30.9267E+06    -588.882E+03     328.537E+03    -27.6419E-03     53.9407E-03    -26.2988E-03     68.4725E-03    -27.7464E-03     53.9096E-03    -26.2457E-03     68.3410E-03
            1723     11.3973E-03     38.9201E-03    -8.61440E+06    -41.6646E+06     2.35059E+06     139.533E+03    -27.5171E-03     53.8267E-03    -26.3095E-03     63.4376E-03    -27.5789E-03     53.7031E-03    -26.2249E-03     63.3283E-03
            1724     10.5205E-03     38.8620E-03    -9.56212E+06    -51.6356E+06     3.55237E+06     557.239E+03    -27.3142E-03     53.6244E-03    -26.3101E-03     58.5272E-03    -27.3444E-03     53.4270E-03    -26.2036E-03     58.4444E-03
            1725     9.64423E-03     38.8082E-03    -10.4697E+06    -58.7464E+06     4.84610E+06     723.164E+03    -27.1656E-03     53.4736E-03    -26.3080E-03     53.9227E-03    -27.1760E-03     53.2243E-03    -26.1834E-03     53.8595E-03
            1726     8.76750E-03     38.7588E-03    -11.8325E+06    -65.0238E+06     4.80410E+06     350.901E+03    -27.0615E-03     53.3574E-03    -26.2959E-03     49.3788E-03    -27.0586E-03     53.0677E-03    -26.1604E-03     49.3253E-03
            1727     7.89111E-03     38.7135E-03    -13.7473E+06    -70.7783E+06     3.82091E+06     375.182E+03    -26.8777E-03     53.1558E-03    -26.2780E-03     44.6636E-03    -26.8667E-03     52.8335E-03    -26.1363E-03     44.6226E-03
            1728     7.01437E-03     38.6731E-03    -15.8449E+06    -76.8886E+06     1.34905E+06     573.512E+03    -26.7062E-03     52.9630E-03    -26.2568E-03     39.8909E-03    -26.6876E-03     52.6112E-03    -26.1155E-03     39.8625E-03
            1729     6.13770E-03     38.6371E-03    -18.1936E+06    -82.1213E+06    -2.71762E+06     396.370E+03    -26.5741E-03     52.8029E-03    -26.2288E-03     35.0244E-03    -26.5498E-03     52.4304E-03    -26.0969E-03     35.0018E-03
            1730     5.26100E-03     38.6058E-03    -20.5359E+06    -85.7467E+06    -8.05269E+06     256.262E+03    -26.4461E-03     52.6394E-03    -26.1933E-03     30.0652E-03    -26.4177E-03     52.2571E-03    -26.0795E-03     30.0473E-03
            1731     4.38420E-03     38.5793E-03    -22.6172E+06    -89.2230E+06    -13.1556E+06     267.914E+03    -26.3336E-03     52.4943E-03    -26.1607E-03     25.0815E-03    -26.3014E-03     52.1032E-03    -26.0643E-03     25.0690E-03
            1732     3.50744E-03     38.5576E-03    -24.4426E+06    -92.3855E+06    -17.5642E+06     322.587E+03    -26.2413E-03     52.3744E-03    -26.1331E-03     20.0957E-03    -26.2059E-03     51.9752E-03    -26.0515E-03     20.0882E-03
            1733     2.63057E-03     38.5406E-03    -25.9897E+06    -95.6291E+06    -21.6419E+06     234.623E+03    -26.1707E-03     52.2797E-03    -26.1090E-03     15.1176E-03    -26.1315E-03     51.8716E-03    -26.0409E-03     15.1124E-03
            1734     1.75377E-03     38.5285E-03    -27.2137E+06    -97.8323E+06    -25.0935E+06     150.393E+03    -26.1168E-03     52.2053E-03    -26.0886E-03     10.1917E-03    -26.0750E-03     51.7924E-03    -26.0327E-03     10.1885E-03
            1735     876.846E-06     38.5210E-03    -28.0776E+06    -98.0506E+06    -27.4979E+06     52.9115E+03    -26.0816E-03     52.1550E-03    -26.0734E-03     5.54153E-03    -26.0401E-03     51.7455E-03    -26.0280E-03     5.53946E-03
            1736     16.6549E-03     38.4438E-03    -3.44322E+06     151.625E+06     69.1462E+06     1.44140E+06    -26.9980E-03     53.3353E-03    -26.3374E-03     65.8458E-03    -28.1329E-03     54.7960E-03    -26.2065E-03     66.1106E-03
            1737     15.7817E-03     38.3173E-03    -7.83836E+06     131.400E+06     15.7834E+06    -22.3229E+03    -27.6888E-03     53.8197E-03    -26.1309E-03     116.442E-03    -29.0807E-03     55.6043E-03    -26.2312E-03     116.534E-03
            1738     14.9026E-03     38.2149E-03    -8.57809E+06     73.8309E+06    -13.3383E+06    -1.39938E+06    -28.3821E-03     54.4676E-03    -26.0854E-03     100.528E-03    -29.0987E-03     55.4545E-03    -26.2467E-03     100.328E-03
            1739     14.0280E-03     38.1257E-03    -8.41168E+06     21.1573E+06    -7.87674E+06    -357.189E+03    -27.9203E-03     54.1007E-03    -26.1804E-03     85.2967E-03    -28.2687E-03     54.5172E-03    -26.2383E-03     85.1050E-03
            1740     13.1500E-03     38.0518E-03    -8.39127E+06    -12.0172E+06    -5.08616E+06     363.396E+03    -27.7742E-03     54.0043E-03    -26.2300E-03     74.4321E-03    -27.9613E-03     54.1336E-03    -26.2259E-03     74.2736E-03
            1741     12.2744E-03     37.9835E-03    -8.46758E+06    -30.5959E+06    -789.863E+03     229.791E+03    -27.5801E-03     53.8406E-03    -26.2605E-03     68.4280E-03    -27.6878E-03     53.8120E-03    -26.2078E-03     68.2959E-03
            1742     11.3975E-03     37.9207E-03    -9.15579E+06    -41.6651E+06     2.17607E+06     223.673E+03    -27.5046E-03     53.7756E-03    -26.2710E-03     63.3244E-03    -27.5686E-03     53.6529E-03    -26.1865E-03     63.2163E-03
            1743     10.5213E-03     37.8626E-03    -9.93948E+06    -51.7321E+06     3.03742E+06     140.079E+03    -27.3497E-03     53.6149E-03    -26.2652E-03     58.4321E-03    -27.3808E-03     53.4182E-03    -26.1606E-03     58.3439E-03
            1744     9.64447E-03     37.8090E-03    -10.7456E+06    -58.6162E+06     4.63930E+06     247.330E+03    -27.1945E-03     53.4515E-03    -26.2569E-03     53.8227E-03    -27.2060E-03     53.2032E-03    -26.1332E-03     53.7536E-03
            1745     8.76818E-03     37.7593E-03    -12.1269E+06    -64.9836E+06     4.44568E+06     477.796E+03    -27.0203E-03     53.2597E-03    -26.2394E-03     49.1916E-03    -27.0181E-03     52.9709E-03    -26.1054E-03     49.1401E-03
            1746     7.89144E-03     37.7146E-03    -14.0409E+06    -70.9526E+06     3.35430E+06     447.498E+03    -26.8415E-03     53.0604E-03    -26.2189E-03     44.4927E-03    -26.8308E-03     52.7383E-03    -26.0789E-03     44.4530E-03
            1747     7.01482E-03     37.6740E-03    -16.1063E+06    -76.7849E+06     1.25825E+06     523.759E+03    -26.6927E-03     52.8870E-03    -26.1943E-03     39.7284E-03    -26.6753E-03     52.5362E-03    -26.0533E-03     39.6995E-03
            1748     6.13814E-03     37.6382E-03    -18.1973E+06    -81.7624E+06    -2.82223E+06     562.978E+03    -26.5453E-03     52.7043E-03    -26.1591E-03     34.8400E-03    -26.5213E-03     52.3337E-03    -26.0282E-03     34.8196E-03
            1749     5.26135E-03     37.6070E-03    -20.4812E+06    -85.5535E+06    -8.07306E+06     466.047E+03    -26.4003E-03     52.5188E-03    -26.1185E-03     29.8977E-03    -26.3719E-03     52.1374E-03    -26.0051E-03     29.8826E-03
            1750     4.38458E-03     37.5806E-03    -22.6653E+06    -89.0722E+06    -13.1080E+06     392.428E+03    -26.2757E-03     52.3571E-03    -26.0814E-03     24.9322E-03    -26.2439E-03     51.9666E-03    -25.9849E-03     24.9214E-03
            1751     3.50769E-03     37.5589E-03    -24.5412E+06    -92.1516E+06    -17.6552E+06     277.307E+03    -26.1711E-03     52.2199E-03    -26.0487E-03     19.9697E-03    -26.1364E-03     51.8221E-03    -25.9678E-03     19.9617E-03
            1752     2.63085E-03     37.5420E-03    -26.0653E+06    -95.3937E+06    -21.7683E+06     192.210E+03    -26.0893E-03     52.1107E-03    -26.0214E-03     15.0207E-03    -26.0507E-03     51.7041E-03    -25.9541E-03     15.0151E-03
            1753     1.75387E-03     37.5299E-03    -27.3024E+06    -97.6442E+06    -25.1257E+06     136.246E+03    -26.0322E-03     52.0311E-03    -25.9989E-03     10.1267E-03    -25.9911E-03     51.6193E-03    -25.9434E-03     10.1233E-03
            1754     876.987E-06     37.5225E-03    -28.1169E+06    -97.8058E+06    -27.5754E+06     112.809E+03    -25.9929E-03     51.9722E-03    -25.9793E-03     5.50384E-03    -25.9518E-03     51.5641E-03    -25.9346E-03     5.50257E-03
            1755     16.6694E-03     37.4515E-03    -3.35450E+06     152.503E+06     71.7661E+06     400.195E+03    -28.3476E-03     54.6276E-03    -26.2801E-03     68.7292E-03    -29.5216E-03     56.1232E-03    -26.1375E-03     68.9575E-03
            1756     15.7821E-03     37.3205E-03    -2.00261E+06     134.496E+06     22.8839E+06     1.15815E+06    -27.3563E-03     53.4279E-03    -26.0716E-03     122.893E-03    -28.7678E-03     55.2429E-03    -26.1493E-03     122.999E-03
            1757     14.9053E-03     37.2157E-03    -4.20963E+06     73.6026E+06    -10.9366E+06     1.04126E+06    -27.6324E-03     53.6851E-03    -26.0527E-03     102.729E-03    -28.3253E-03     54.6562E-03    -26.2081E-03     102.573E-03
            1758     14.0265E-03     37.1262E-03    -6.65224E+06     20.9450E+06    -6.87946E+06     750.578E+03    -28.1423E-03     54.3056E-03    -26.1633E-03     85.8984E-03    -28.4859E-03     54.7199E-03    -26.2184E-03     85.7183E-03
            1759     13.1517E-03     37.0521E-03    -7.63032E+06    -11.7709E+06    -4.25531E+06     144.680E+03    -27.8046E-03     54.0093E-03    -26.2048E-03     74.6326E-03    -27.9891E-03     54.1374E-03    -26.1979E-03     74.4715E-03
            1760     12.2743E-03     36.9844E-03    -7.99851E+06    -30.6120E+06    -657.124E+03     197.763E+03    -27.6259E-03     53.8545E-03    -26.2286E-03     68.7031E-03    -27.7318E-03     53.8253E-03    -26.1759E-03     68.5705E-03
            1761     11.3981E-03     36.9212E-03    -8.64066E+06    -41.7602E+06     2.30361E+06     272.261E+03    -27.4948E-03     53.7310E-03    -26.2361E-03     63.4400E-03    -27.5559E-03     53.6064E-03    -26.1515E-03     63.3331E-03
            1762     10.5213E-03     36.8633E-03    -9.43645E+06    -51.1689E+06     3.17003E+06    -8.22666E+03    -27.4528E-03     53.6755E-03    -26.2227E-03     58.4031E-03    -27.4824E-03     53.4807E-03    -26.1189E-03     58.3128E-03
            1763     9.64537E-03     36.8095E-03    -10.7434E+06    -59.1588E+06     4.13823E+06     130.967E+03    -27.2615E-03     53.4634E-03    -26.2020E-03     53.6587E-03    -27.2713E-03     53.2131E-03    -26.0799E-03     53.5881E-03
            1764     8.76856E-03     36.7604E-03    -12.4910E+06    -65.0117E+06     4.15656E+06     584.244E+03    -26.9977E-03     53.1752E-03    -26.1775E-03     49.0185E-03    -26.9967E-03     52.8870E-03    -26.0443E-03     48.9687E-03
            1765     7.89199E-03     36.7154E-03    -14.3178E+06    -70.5938E+06     3.08608E+06     551.218E+03    -26.8328E-03     52.9835E-03    -26.1506E-03     44.2975E-03    -26.8235E-03     52.6638E-03    -26.0121E-03     44.2593E-03
            1766     7.01535E-03     36.6751E-03    -16.3439E+06    -76.7804E+06     1.10410E+06     414.773E+03    -26.6767E-03     52.7962E-03    -26.1195E-03     39.4978E-03    -26.6602E-03     52.4459E-03    -25.9790E-03     39.4677E-03
            1767     6.13862E-03     36.6393E-03    -18.4890E+06    -81.6181E+06    -2.86367E+06     487.762E+03    -26.5019E-03     52.5795E-03    -26.0776E-03     34.6276E-03    -26.4794E-03     52.2100E-03    -25.9467E-03     34.6065E-03
            1768     5.26185E-03     36.6083E-03    -20.5362E+06    -85.3912E+06    -7.98541E+06     556.453E+03    -26.3471E-03     52.3781E-03    -26.0310E-03     29.6988E-03    -26.3193E-03     51.9974E-03    -25.9173E-03     29.6850E-03
            1769     4.38496E-03     36.5819E-03    -22.5234E+06    -88.7431E+06    -12.9355E+06     510.730E+03    -26.2067E-03     52.1946E-03    -25.9879E-03     24.7599E-03    -26.1749E-03     51.8053E-03    -25.8912E-03     24.7508E-03
            1770     3.50808E-03     36.5604E-03    -24.4110E+06    -91.8225E+06    -17.6505E+06     318.185E+03    -26.0863E-03     52.0361E-03    -25.9498E-03     19.8282E-03    -26.0513E-03     51.6397E-03    -25.8696E-03     19.8209E-03
            1771     2.63106E-03     36.5436E-03    -26.0323E+06    -95.2109E+06    -21.8814E+06     193.059E+03    -25.9949E-03     51.9140E-03    -25.9191E-03     14.9110E-03    -25.9563E-03     51.5084E-03    -25.8527E-03     14.9054E-03
            1772     1.75410E-03     36.5315E-03    -27.3061E+06    -97.4802E+06    -25.1851E+06     167.091E+03    -25.9316E-03     51.8264E-03    -25.8948E-03     10.0544E-03    -25.8907E-03     51.4155E-03    -25.8398E-03     10.0514E-03
            1773     877.027E-06     36.5241E-03    -28.2088E+06    -97.5188E+06    -27.5544E+06     135.483E+03    -25.8865E-03     51.7619E-03    -25.8754E-03     5.45226E-03    -25.8464E-03     51.3553E-03    -25.8308E-03     5.45130E-03
            1774     16.6453E-03     36.4401E-03    -4.49824E+06     151.169E+06     68.5495E+06    -1.58068E+06    -27.1635E-03     53.5938E-03    -26.4303E-03     70.1476E-03    -28.3327E-03     55.0850E-03    -26.3002E-03     70.3302E-03
            1775     15.7821E-03     36.3260E-03    -7.03049E+06     132.268E+06     15.6257E+06     1.10864E+06    -29.8881E-03     56.0587E-03    -26.1706E-03     122.121E-03    -31.3093E-03     57.8786E-03    -26.2740E-03     122.164E-03
            1776     14.9018E-03     36.2150E-03    -7.82919E+06     74.8527E+06    -14.3151E+06     2.26870E+06    -28.6902E-03     54.7584E-03    -26.0682E-03     104.691E-03    -29.4153E-03     55.7629E-03    -26.2369E-03     104.539E-03
            1777     14.0285E-03     36.1267E-03    -6.74377E+06     22.3847E+06    -7.28376E+06     856.021E+03    -28.2619E-03     54.4182E-03    -26.1563E-03     85.4860E-03    -28.6059E-03     54.8389E-03    -26.2154E-03     85.3069E-03
            1778     13.1503E-03     36.0526E-03    -6.47857E+06    -11.9276E+06    -4.48858E+06     348.061E+03    -27.8779E-03     54.0703E-03    -26.1924E-03     74.8984E-03    -28.0566E-03     54.1967E-03    -26.1882E-03     74.7398E-03
            1779     12.2749E-03     35.9847E-03    -7.09822E+06    -30.8473E+06    -593.703E+03     335.229E+03    -27.8437E-03     54.0512E-03    -26.2075E-03     68.5377E-03    -27.9452E-03     54.0197E-03    -26.1554E-03     68.4055E-03
            1780     11.3981E-03     35.9221E-03    -7.76812E+06    -41.4878E+06     2.32053E+06     340.028E+03    -27.6470E-03     53.8452E-03    -26.1982E-03     63.2816E-03    -27.7041E-03     53.7207E-03    -26.1152E-03     63.1751E-03
            1781     10.5222E-03     35.8635E-03    -9.15152E+06    -51.2393E+06     3.18090E+06     482.189E+03    -27.4888E-03     53.6640E-03    -26.1751E-03     58.1936E-03    -27.5166E-03     53.4681E-03    -26.0717E-03     58.1098E-03
            1782     9.64552E-03     35.8104E-03    -11.0038E+06    -59.2871E+06     3.87727E+06     574.813E+03    -27.2926E-03     53.4386E-03    -26.1460E-03     53.3703E-03    -27.3030E-03     53.1883E-03    -26.0247E-03     53.3054E-03
            1783     8.76926E-03     35.7612E-03    -12.5974E+06    -64.8138E+06     4.04834E+06     519.071E+03    -27.0685E-03     53.1786E-03    -26.1101E-03     48.7837E-03    -27.0681E-03     52.8916E-03    -25.9776E-03     48.7330E-03
            1784     7.89264E-03     35.7165E-03    -14.2639E+06    -70.2123E+06     3.16534E+06     532.360E+03    -26.8429E-03     52.9141E-03    -26.0712E-03     44.0670E-03    -26.8339E-03     52.5960E-03    -25.9329E-03     44.0287E-03
            1785     7.01596E-03     35.6762E-03    -16.3448E+06    -76.7394E+06     1.07625E+06     477.350E+03    -26.6410E-03     52.6722E-03    -26.0312E-03     39.2457E-03    -26.6244E-03     52.3220E-03    -25.8909E-03     39.2166E-03
            1786     6.13922E-03     35.6406E-03    -18.5996E+06    -81.5149E+06    -2.83955E+06     434.169E+03    -26.4547E-03     52.4369E-03    -25.9822E-03     34.3861E-03    -26.4329E-03     52.0680E-03    -25.8512E-03     34.3645E-03
            1787     5.26236E-03     35.6097E-03    -20.7278E+06    -85.2794E+06    -8.13274E+06     440.743E+03    -26.2781E-03     52.2059E-03    -25.9279E-03     29.4784E-03    -26.2511E-03     51.8262E-03    -25.8148E-03     29.4634E-03
            1788     4.38547E-03     35.5835E-03    -22.5893E+06    -88.4791E+06    -13.0754E+06     444.615E+03    -26.1203E-03     51.9991E-03    -25.8787E-03     24.5690E-03    -26.0890E-03     51.6114E-03    -25.7831E-03     24.5591E-03
            1789     3.50843E-03     35.5621E-03    -24.2884E+06    -91.5027E+06    -17.6486E+06     406.963E+03    -25.9888E-03     51.8253E-03    -25.8365E-03     19.6683E-03    -25.9537E-03     51.4303E-03    -25.7568E-03     19.6622E-03
            1790     2.63142E-03     35.5454E-03    -25.9061E+06    -94.9538E+06    -21.7424E+06     296.036E+03    -25.8892E-03     51.6916E-03    -25.8024E-03     14.7872E-03    -25.8505E-03     51.2869E-03    -25.7359E-03     14.7830E-03
            1791     1.75427E-03     35.5333E-03    -27.1914E+06    -97.2662E+06    -25.0829E+06     193.407E+03    -25.8150E-03     51.5901E-03    -25.7751E-03     9.96645E-03    -25.7740E-03     51.1800E-03    -25.7200E-03     9.96387E-03
            1792     877.175E-06     35.5260E-03    -27.9771E+06    -97.2276E+06    -27.4244E+06     110.737E+03    -25.7662E-03     51.5210E-03    -25.7547E-03     5.40158E-03    -25.7255E-03     51.1153E-03    -25.7103E-03     5.40033E-03
            1793     16.6601E-03     35.4361E-03    -5.22623E+06     150.019E+06     67.1919E+06     300.037E+03    -26.1287E-03     52.5578E-03    -26.4291E-03     67.5626E-03    -27.2666E-03     54.0151E-03    -26.3031E-03     67.7981E-03
            1794     15.7755E-03     35.3247E-03    -12.5549E+06     128.832E+06     13.8478E+06    -967.035E+03    -29.5510E-03     55.7508E-03    -26.1998E-03     116.183E-03    -30.9620E-03     57.5344E-03    -26.2992E-03     116.219E-03
            1795     14.9053E-03     35.2134E-03    -9.82865E+06     75.5055E+06    -12.5896E+06    -620.381E+03    -29.2729E-03     55.3549E-03    -26.0820E-03     102.175E-03    -30.0128E-03     56.3645E-03    -26.2402E-03     101.975E-03
            1796     14.0267E-03     35.1281E-03    -7.83789E+06     22.6646E+06    -8.30452E+06        -796.938    -28.1091E-03     54.2467E-03    -26.1376E-03     85.1201E-03    -28.4553E-03     54.6697E-03    -26.2006E-03     84.9320E-03
            1797     13.1516E-03     35.0524E-03    -7.39126E+06    -11.9215E+06    -5.29214E+06     385.023E+03    -28.1297E-03     54.2986E-03    -26.1689E-03     74.4559E-03    -28.3121E-03     54.4277E-03    -26.1673E-03     74.2954E-03
            1798     12.2748E-03     34.9852E-03    -7.56007E+06    -30.6953E+06    -938.063E+03     425.721E+03    -27.9689E-03     54.1380E-03    -26.1691E-03     67.9978E-03    -28.0718E-03     54.1078E-03    -26.1183E-03     67.8662E-03
            1799     11.3992E-03     34.9222E-03    -8.27294E+06    -41.4896E+06     2.07353E+06     440.693E+03    -27.7796E-03     53.9259E-03    -26.1463E-03     62.8392E-03    -27.8387E-03     53.8024E-03    -26.0638E-03     62.7333E-03
            1800     10.5226E-03     34.8644E-03    -9.36561E+06    -51.6965E+06     3.10388E+06     1.00316E+06    -27.4830E-03     53.5969E-03    -26.1139E-03     57.8532E-03    -27.5107E-03     53.3987E-03    -26.0098E-03     57.7765E-03
            1801     9.64635E-03     34.8109E-03    -10.8439E+06    -58.6876E+06     4.37886E+06     1.00297E+06    -27.2950E-03     53.3741E-03    -26.0791E-03     53.0254E-03    -27.3060E-03     53.1255E-03    -25.9564E-03     52.9663E-03
            1802     8.76984E-03     34.7621E-03    -12.5423E+06    -64.4256E+06     4.12647E+06     441.373E+03    -27.1087E-03     53.1402E-03    -26.0314E-03     48.4226E-03    -27.1086E-03     52.8548E-03    -25.8992E-03     48.3709E-03
            1803     7.89337E-03     34.7176E-03    -14.3382E+06    -70.2824E+06     3.10160E+06     391.122E+03    -26.8529E-03     52.8332E-03    -25.9803E-03     43.7596E-03    -26.8440E-03     52.5148E-03    -25.8421E-03     43.7196E-03
            1804     7.01668E-03     34.6775E-03    -16.2209E+06    -76.4743E+06     962.431E+03     505.058E+03    -26.6116E-03     52.5400E-03    -25.9284E-03     38.9626E-03    -26.5945E-03     52.1910E-03    -25.7892E-03     38.9341E-03
            1805     6.13989E-03     34.6421E-03    -18.4004E+06    -81.4089E+06    -2.82858E+06     473.200E+03    -26.3948E-03     52.2662E-03    -25.8714E-03     34.1030E-03    -26.3721E-03     51.8974E-03    -25.7408E-03     34.0821E-03
            1806     5.26302E-03     34.6114E-03    -20.5884E+06    -85.0535E+06    -7.99444E+06     411.869E+03    -26.1957E-03     52.0061E-03    -25.8104E-03     29.2275E-03    -26.1685E-03     51.6270E-03    -25.6972E-03     29.2123E-03
            1807     4.38598E-03     34.5853E-03    -22.6157E+06    -88.3861E+06    -13.1536E+06     373.953E+03    -26.0223E-03     51.7769E-03    -25.7545E-03     24.3465E-03    -25.9911E-03     51.3897E-03    -25.6593E-03     24.3359E-03
            1808     3.50893E-03     34.5640E-03    -24.4243E+06    -91.2635E+06    -17.8054E+06     430.909E+03    -25.8770E-03     51.5834E-03    -25.7064E-03     19.4823E-03    -25.8427E-03     51.1901E-03    -25.6277E-03     19.4766E-03
            1809     2.63172E-03     34.5474E-03    -25.9079E+06    -94.5969E+06    -21.7467E+06     329.725E+03    -25.7655E-03     51.4338E-03    -25.6683E-03     14.6432E-03    -25.7272E-03     51.0308E-03    -25.6023E-03     14.6396E-03
            1810     1.75456E-03     34.5354E-03    -27.1335E+06    -97.0031E+06    -24.8897E+06     185.532E+03    -25.6839E-03     51.3222E-03    -25.6383E-03     9.86662E-03    -25.6432E-03     50.9130E-03    -25.5828E-03     9.86401E-03
            1811     877.257E-06     34.5281E-03    -28.0093E+06    -96.9524E+06    -27.3634E+06     95.6046E+03    -25.6268E-03     51.2421E-03    -25.6152E-03     5.34754E-03    -25.5867E-03     50.8377E-03    -25.5709E-03     5.34614E-03
            1812     16.6569E-03     34.4509E-03    -2.82125E+06     152.599E+06     71.3765E+06     2.21303E+06    -27.7080E-03     54.0039E-03    -26.2959E-03     66.8269E-03    -28.8556E-03     55.4763E-03    -26.1562E-03     67.0910E-03
            1813     15.7832E-03     34.3164E-03    -4.56646E+06     131.819E+06     22.4557E+06    -715.511E+03    -27.4540E-03     53.5549E-03    -26.1009E-03     118.638E-03    -28.8531E-03     55.3407E-03    -26.1731E-03     118.723E-03
            1814     14.9043E-03     34.2185E-03    -6.53347E+06     73.5299E+06    -9.95369E+06    -1.43650E+06    -28.4361E-03     54.4850E-03    -26.0489E-03     101.278E-03    -29.1471E-03     55.4627E-03    -26.1958E-03     101.077E-03
            1815     14.0280E-03     34.1260E-03    -7.26140E+06     22.2855E+06    -7.37825E+06     160.328E+03    -28.4106E-03     54.5205E-03    -26.1099E-03     85.4954E-03    -28.7578E-03     54.9425E-03    -26.1686E-03     85.3050E-03
            1816     13.1518E-03     34.0536E-03    -7.96854E+06    -12.1219E+06    -4.94716E+06     324.916E+03    -28.2596E-03     54.3829E-03    -26.1232E-03     73.8701E-03    -28.4441E-03     54.5103E-03    -26.1188E-03     73.7077E-03
            1817     12.2761E-03     33.9849E-03    -8.38056E+06    -30.2006E+06    -823.537E+03     411.342E+03    -28.0021E-03     54.1133E-03    -26.1111E-03     67.8280E-03    -28.1096E-03     54.0861E-03    -26.0593E-03     67.6964E-03
            1818     11.3996E-03     33.9228E-03    -9.20038E+06    -41.9752E+06     1.88849E+06      699.66E+03    -27.7845E-03     53.8660E-03    -26.0815E-03     62.4541E-03    -27.8466E-03     53.7409E-03    -25.9978E-03     62.3519E-03
            1819     10.5236E-03     33.8649E-03    -9.98117E+06    -51.8549E+06     2.75032E+06     642.042E+03    -27.5589E-03     53.5959E-03    -26.0370E-03     57.5210E-03    -27.5886E-03     53.3981E-03    -25.9336E-03     57.4396E-03
            1820     9.64709E-03     33.8118E-03    -10.5033E+06    -58.3638E+06     4.53024E+06     703.443E+03    -27.3104E-03     53.3012E-03    -25.9908E-03     52.6874E-03    -27.3199E-03     53.0531E-03    -25.8683E-03     52.6248E-03
            1821     8.77074E-03     33.7630E-03    -11.9311E+06    -64.0615E+06     4.52443E+06     722.244E+03    -27.0776E-03     53.0127E-03    -25.9351E-03     48.0147E-03    -27.0751E-03     52.7274E-03    -25.8023E-03     47.9670E-03
            1822     7.89416E-03     33.7188E-03    -13.9924E+06    -70.1633E+06     3.17049E+06     493.538E+03    -26.8383E-03     52.7121E-03    -25.8739E-03     43.3469E-03    -26.8277E-03     52.3936E-03    -25.7360E-03     43.3085E-03
            1823     7.01751E-03     33.6789E-03    -16.2249E+06    -76.3586E+06     814.574E+03     475.140E+03    -26.5706E-03     52.3813E-03    -25.8107E-03     38.6024E-03    -26.5533E-03     52.0330E-03    -25.6724E-03     38.5738E-03
            1824     6.14069E-03     33.6438E-03    -18.4390E+06    -81.2161E+06    -3.09028E+06     520.322E+03    -26.3198E-03     52.0636E-03    -25.7438E-03     33.7895E-03    -26.2971E-03     51.6960E-03    -25.6147E-03     33.7695E-03
            1825     5.26368E-03     33.6132E-03    -20.6604E+06    -84.8731E+06    -8.14707E+06     490.488E+03    -26.1037E-03     51.7792E-03    -25.6755E-03     28.9372E-03    -26.0768E-03     51.4013E-03    -25.5632E-03     28.9232E-03
            1826     4.38664E-03     33.5873E-03    -22.7568E+06    -88.2059E+06    -13.2105E+06     467.402E+03    -25.9118E-03     51.5246E-03    -25.6127E-03     24.0901E-03    -25.8815E-03     51.1386E-03    -25.5179E-03     24.0810E-03
            1827     3.50941E-03     33.5661E-03    -24.5681E+06    -91.0565E+06    -17.7887E+06     374.777E+03    -25.7488E-03     51.3074E-03    -25.5586E-03     19.2706E-03    -25.7155E-03     50.9152E-03    -25.4799E-03     19.2644E-03
            1828     2.63217E-03     33.5497E-03    -26.0909E+06    -94.2454E+06    -21.9692E+06     320.503E+03    -25.6220E-03     51.1363E-03    -25.5143E-03     14.4776E-03    -25.5848E-03     50.7357E-03    -25.4497E-03     14.4740E-03
            1829     1.75478E-03     33.5378E-03    -27.3463E+06    -96.6918E+06    -25.2289E+06     186.348E+03    -25.5307E-03     51.0117E-03    -25.4810E-03     9.75345E-03    -25.4911E-03     50.6049E-03    -25.4273E-03     9.75093E-03
            1830     877.447E-06     33.5306E-03    -28.1616E+06    -96.7463E+06    -27.5377E+06     51.0116E+03    -25.4696E-03     50.9271E-03    -25.4574E-03     5.28953E-03    -25.4303E-03     50.5242E-03    -25.4140E-03     5.28760E-03
            1831     16.6650E-03     33.4474E-03    -3.09456E+06     152.443E+06     70.7503E+06    -205.730E+03    -28.1517E-03     54.5161E-03    -26.3644E-03     70.6407E-03    -29.3308E-03     56.0203E-03    -26.2272E-03     70.8450E-03
            1832     15.7821E-03     33.3253E-03    -1.96979E+06     134.299E+06     20.0037E+06     2.49389E+06    -28.9800E-03     55.0925E-03    -26.1125E-03     123.883E-03    -30.3940E-03     56.9179E-03    -26.2043E-03     123.964E-03
            1833     14.9035E-03     33.2150E-03    -5.40798E+06     73.6822E+06    -13.2968E+06     1.47583E+06    -28.7936E-03     54.8159E-03    -26.0222E-03     103.627E-03    -29.4990E-03     55.8022E-03    -26.1877E-03     103.459E-03
            1834     14.0291E-03     33.1278E-03    -6.80197E+06     22.0042E+06    -7.07720E+06     333.507E+03    -28.9658E-03     55.0437E-03    -26.0780E-03     85.1226E-03    -29.3121E-03     55.4646E-03    -26.1354E-03     84.9286E-03
            1835     13.1526E-03     33.0526E-03    -6.99818E+06    -11.6858E+06    -4.48917E+06     664.213E+03    -28.2911E-03     54.3599E-03    -26.0687E-03     73.9517E-03    -28.4709E-03     54.4864E-03    -26.0641E-03     73.7946E-03
            1836     12.2766E-03     32.9858E-03    -7.66095E+06    -30.5424E+06    -651.783E+03     774.023E+03    -28.1297E-03     54.1768E-03    -26.0471E-03     67.5551E-03    -28.2329E-03     54.1463E-03    -25.9950E-03     67.4278E-03
            1837     11.4006E-03     32.9230E-03    -8.53571E+06    -41.7536E+06     2.00068E+06     916.933E+03    -27.8508E-03     53.8544E-03    -26.0036E-03     62.1437E-03    -27.9095E-03     53.7288E-03    -25.9207E-03     62.0446E-03
            1838     10.5243E-03     32.8657E-03    -9.73103E+06    -51.3137E+06     2.65582E+06     475.646E+03    -27.6290E-03     53.5743E-03    -25.9454E-03     57.1136E-03    -27.6577E-03     53.3786E-03    -25.8436E-03     57.0302E-03
            1839     9.64827E-03     32.8126E-03    -11.1347E+06    -58.6625E+06     3.58917E+06     262.354E+03    -27.3400E-03     53.2236E-03    -25.8836E-03     52.3053E-03    -27.3505E-03     52.9760E-03    -25.7645E-03     52.2373E-03
            1840     8.77173E-03     32.7642E-03    -12.2110E+06    -63.9812E+06     4.17651E+06     661.221E+03    -27.0532E-03     52.8714E-03    -25.8182E-03     47.6471E-03    -27.0514E-03     52.5871E-03    -25.6869E-03     47.5992E-03
            1841     7.89519E-03     32.7200E-03    -13.8941E+06    -69.7540E+06     3.29044E+06     828.168E+03    -26.7810E-03     52.5299E-03    -25.7489E-03     42.9198E-03    -26.7704E-03     52.2128E-03    -25.6112E-03     42.8862E-03
            1842     7.01845E-03     32.6806E-03    -16.1909E+06    -76.2040E+06     914.417E+03     666.688E+03    -26.5025E-03     52.1797E-03    -25.6772E-03     38.1967E-03    -26.4853E-03     51.8318E-03    -25.5387E-03     38.1710E-03
            1843     6.14152E-03     32.6456E-03    -18.5216E+06    -80.9937E+06    -3.15148E+06     553.978E+03    -26.2393E-03     51.8393E-03    -25.5999E-03     33.4241E-03    -26.2171E-03     51.4729E-03    -25.4714E-03     33.4049E-03
            1844     5.26453E-03     32.6153E-03    -20.6757E+06    -84.7601E+06    -8.31230E+06     573.170E+03    -25.9983E-03     51.5201E-03    -25.5218E-03     28.6022E-03    -25.9713E-03     51.1429E-03    -25.4105E-03     28.5896E-03
            1845     4.38730E-03     32.5896E-03    -22.6711E+06    -87.8589E+06    -13.1620E+06     497.129E+03    -25.7844E-03     51.2359E-03    -25.4516E-03     23.8002E-03    -25.7541E-03     50.8514E-03    -25.3571E-03     23.7916E-03
            1846     3.51004E-03     32.5686E-03    -24.5055E+06    -90.8593E+06    -17.7220E+06     403.430E+03    -25.6025E-03     50.9935E-03    -25.3911E-03     19.0309E-03    -25.5692E-03     50.6021E-03    -25.3124E-03     19.0252E-03
            1847     2.63258E-03     32.5523E-03    -26.1397E+06    -93.9502E+06    -21.9964E+06     386.494E+03    -25.4607E-03     50.8019E-03    -25.3412E-03     14.2943E-03    -25.4242E-03     50.4028E-03    -25.2770E-03     14.2917E-03
            1848     1.75515E-03     32.5405E-03    -27.3672E+06    -96.2927E+06    -25.3859E+06     219.522E+03    -25.3569E-03     50.6608E-03    -25.3039E-03     9.62505E-03    -25.3177E-03     50.2562E-03    -25.2516E-03     9.62304E-03
            1849     877.533E-06     32.5334E-03    -28.1826E+06    -96.5624E+06    -27.6480E+06     77.0061E+03    -25.2933E-03     50.5729E-03    -25.2797E-03     5.22678E-03    -25.2542E-03     50.1712E-03    -25.2370E-03     5.22523E-03
            1850     16.6420E-03     32.4360E-03    -5.91399E+06     148.869E+06     66.5654E+06    -1.13057E+06    -26.7303E-03     53.2030E-03    -26.4727E-03     69.8051E-03    -27.8832E-03     54.6704E-03    -26.3471E-03     69.9864E-03
            1851     15.7783E-03     32.3256E-03    -11.3244E+06     130.799E+06     12.4003E+06    -10.1499E+03    -31.0416E-03     57.2193E-03    -26.1778E-03     117.938E-03    -32.4536E-03     59.0188E-03    -26.2890E-03     117.932E-03
            1852     14.9047E-03     32.2139E-03    -8.24273E+06     76.1138E+06    -14.9722E+06     1.37939E+06    -29.9044E-03     55.9026E-03    -25.9982E-03     102.611E-03    -30.6326E-03     56.9152E-03    -26.1715E-03     102.427E-03
            1853     14.0287E-03     32.1269E-03    -7.08605E+06     21.4646E+06    -8.39752E+06     521.458E+03    -28.8791E-03     54.8996E-03    -26.0205E-03     83.7793E-03    -29.2180E-03     55.3139E-03    -26.0834E-03     83.5898E-03
            1854     13.1534E-03     32.0534E-03     -7.1968E+06    -11.4203E+06    -4.88659E+06     675.552E+03    -28.4864E-03     54.4911E-03    -26.0047E-03     73.4759E-03    -28.6670E-03     54.6197E-03    -26.0021E-03     73.3177E-03
            1855     12.2775E-03     31.9854E-03    -7.39382E+06    -30.6580E+06    -941.439E+03     1.01423E+06    -28.2203E-03     54.1879E-03    -25.9676E-03     66.9675E-03    -28.3205E-03     54.1558E-03    -25.9172E-03     66.8433E-03
            1856     11.4017E-03     31.9239E-03    -7.97107E+06    -41.1859E+06     2.04368E+06     819.231E+03    -27.9536E-03     53.8632E-03    -25.9097E-03     61.6509E-03    -28.0100E-03     53.7392E-03    -25.8282E-03     61.5503E-03
            1857     10.5256E-03     31.8661E-03    -9.03853E+06    -51.0234E+06     2.82643E+06     968.561E+03    -27.6411E-03     53.4800E-03    -25.8389E-03     56.6685E-03    -27.6664E-03     53.2839E-03    -25.7377E-03     56.5920E-03
            1858     9.64923E-03     31.8138E-03    -10.7157E+06    -58.1952E+06     3.91826E+06     797.702E+03    -27.3511E-03     53.1175E-03    -25.7664E-03     51.8493E-03    -27.3603E-03     52.8707E-03    -25.6469E-03     51.7887E-03
            1859     8.77292E-03     31.7653E-03    -12.7159E+06    -64.2026E+06     3.70011E+06     484.896E+03    -27.0356E-03     52.7223E-03    -25.6868E-03     47.2285E-03    -27.0350E-03     52.4380E-03    -25.5567E-03     47.1788E-03
            1860     7.89630E-03     31.7217E-03    -14.3180E+06    -69.7926E+06     3.15041E+06     645.039E+03    -26.7186E-03     52.3261E-03    -25.6075E-03     42.5128E-03    -26.7096E-03     52.0094E-03    -25.4698E-03     42.4773E-03
            1861     7.01948E-03     31.6823E-03    -16.0274E+06    -75.8341E+06     1.14600E+06     768.039E+03    -26.4343E-03     51.9598E-03    -25.5255E-03     37.7595E-03    -26.4169E-03     51.6130E-03    -25.3865E-03     37.7354E-03
            1862     6.14259E-03     31.6477E-03    -18.2508E+06    -80.7956E+06    -2.81101E+06     704.928E+03    -26.1441E-03     51.5818E-03    -25.4377E-03     32.9967E-03    -26.1212E-03     51.2154E-03    -25.3081E-03     32.9798E-03
            1863     5.26539E-03     31.6176E-03    -20.4914E+06    -84.4756E+06    -8.14367E+06     579.455E+03    -25.8741E-03     51.2229E-03    -25.3488E-03     28.2300E-03    -25.8467E-03     50.8465E-03    -25.2373E-03     28.2178E-03
            1864     4.38815E-03     31.5922E-03    -22.4586E+06    -87.6488E+06    -13.1372E+06     516.805E+03    -25.6368E-03     50.9065E-03    -25.2697E-03     23.4752E-03    -25.6057E-03     50.5226E-03    -25.1757E-03     23.4672E-03
            1865     3.51065E-03     31.5714E-03    -24.3458E+06    -90.6276E+06    -17.6784E+06     555.995E+03    -25.4368E-03     50.6392E-03    -25.2025E-03     18.7613E-03    -25.4031E-03     50.2487E-03    -25.1242E-03     18.7578E-03
            1866     2.63315E-03     31.5552E-03    -25.9460E+06    -93.6278E+06    -21.8236E+06     452.351E+03    -25.2795E-03     50.4271E-03    -25.1476E-03     14.0856E-03    -25.2426E-03     50.0291E-03    -25.0834E-03     14.0840E-03
            1867     1.75543E-03     31.5436E-03    -27.2197E+06    -95.8509E+06    -25.1778E+06     331.136E+03    -25.1668E-03     50.2727E-03    -25.1059E-03     9.48117E-03    -25.1278E-03     49.8698E-03    -25.0534E-03     9.48070E-03
            1868     877.787E-06     31.5365E-03    -28.1621E+06    -96.2478E+06    -27.5823E+06     175.304E+03    -25.0952E-03     50.1712E-03    -25.0759E-03     5.14959E-03    -25.0566E-03     49.7709E-03    -25.0334E-03     5.14937E-03
            1869     16.6665E-03     31.4409E-03    -3.74431E+06     150.669E+06     69.3907E+06     2.11161E+06    -27.6140E-03     53.9214E-03    -26.3074E-03     65.6742E-03    -28.7244E-03     55.3525E-03    -26.1735E-03     65.9208E-03
            1870     15.7808E-03     31.3200E-03    -9.09787E+06     131.364E+06     17.3724E+06    -824.994E+03    -28.8967E-03     54.9466E-03    -26.0499E-03     114.821E-03    -30.2719E-03     56.7051E-03    -26.1403E-03     114.860E-03
            1871     14.9069E-03     31.2145E-03    -10.2321E+06     75.2458E+06    -13.4850E+06    -1.51227E+06    -29.5422E-03     55.4582E-03    -25.9160E-03     100.011E-03    -30.2702E-03     56.4560E-03    -26.0776E-03     99.7915E-03
            1872     14.0305E-03     31.1269E-03    -8.39703E+06     21.3427E+06    -8.68438E+06     216.164E+03    -28.6067E-03     54.5428E-03    -25.9362E-03     83.7182E-03    -28.9490E-03     54.9563E-03    -25.9983E-03     83.5279E-03
            1873     13.1547E-03     31.0529E-03    -8.06295E+06    -12.1929E+06    -5.27654E+06     528.799E+03    -28.5559E-03     54.4756E-03    -25.9197E-03     72.8082E-03    -28.7384E-03     54.6016E-03    -25.9167E-03     72.6473E-03
            1874     12.2789E-03     30.9861E-03    -8.19764E+06    -30.1079E+06    -1.12418E+06     689.582E+03    -28.2165E-03     54.0883E-03    -25.8718E-03     66.6482E-03    -28.3202E-03     54.0592E-03    -25.8219E-03     66.5206E-03
            1875     11.4029E-03     30.9239E-03    -8.71936E+06    -41.3924E+06     1.73358E+06     767.002E+03    -27.9810E-03     53.7858E-03    -25.8048E-03     61.3247E-03    -28.0398E-03     53.6617E-03    -25.7235E-03     61.2238E-03
            1876     10.5268E-03     30.8673E-03    -9.33630E+06    -50.9827E+06     2.80222E+06     947.161E+03    -27.7015E-03     53.4224E-03    -25.7209E-03     56.2386E-03    -27.7278E-03     53.2264E-03    -25.6194E-03     56.1621E-03
            1877     9.65062E-03     30.8145E-03    -10.1499E+06    -57.8402E+06     4.47619E+06     1.10537E+06    -27.3430E-03     52.9784E-03    -25.6355E-03     51.3777E-03    -27.3502E-03     52.7313E-03    -25.5145E-03     51.3217E-03
            1878     8.77419E-03     30.7669E-03    -11.7890E+06    -63.6663E+06     4.33912E+06     840.381E+03    -27.0079E-03     52.5509E-03    -25.5430E-03     46.7201E-03    -27.0040E-03     52.2665E-03    -25.4118E-03     46.6756E-03
            1879     7.89749E-03     30.7233E-03    -13.8508E+06    -69.9108E+06     3.11868E+06     421.829E+03    -26.6853E-03     52.1336E-03    -25.4482E-03     42.0343E-03    -26.6735E-03     51.8153E-03    -25.3112E-03     41.9964E-03
            1880     7.02077E-03     30.6844E-03    -15.8506E+06    -75.8947E+06     1.16647E+06     653.244E+03    -26.3533E-03     51.7064E-03    -25.3531E-03     37.2605E-03    -26.3347E-03     51.3587E-03    -25.2142E-03     37.2353E-03
            1881     6.14365E-03     30.6500E-03    -17.9551E+06    -80.5128E+06    -2.90238E+06     869.850E+03    -26.0301E-03     51.2824E-03    -25.2523E-03     32.5373E-03    -26.0058E-03     50.9170E-03    -25.1240E-03     32.5229E-03
            1882     5.26649E-03     30.6203E-03    -20.2139E+06    -84.1233E+06    -8.14058E+06     768.076E+03    -25.7327E-03     50.8862E-03    -25.1535E-03     27.8083E-03    -25.7044E-03     50.5111E-03    -25.0429E-03     27.7988E-03
            1883     4.38898E-03     30.5951E-03    -22.4499E+06    -87.4767E+06    -13.2750E+06     708.183E+03    -25.4701E-03     50.5354E-03    -25.0653E-03     23.1126E-03    -25.4390E-03     50.1525E-03    -24.9723E-03     23.1073E-03
            1884     3.51145E-03     30.5746E-03    -24.2921E+06    -90.3384E+06    -17.7054E+06     626.054E+03    -25.2506E-03     50.2414E-03    -24.9908E-03     18.4570E-03    -25.2170E-03     49.8522E-03    -24.9131E-03     18.4546E-03
            1885     2.63366E-03     30.5586E-03    -25.8314E+06    -93.2196E+06    -21.8199E+06     525.196E+03    -25.0771E-03     50.0067E-03    -24.9295E-03     13.8492E-03    -25.0403E-03     49.6105E-03    -24.8660E-03     13.8487E-03
            1886     1.75589E-03     30.5471E-03    -27.0425E+06    -95.4413E+06    -25.0074E+06     382.995E+03    -24.9530E-03     49.8363E-03    -24.8834E-03     9.32068E-03    -24.9139E-03     49.4350E-03    -24.8308E-03     9.32098E-03
            1887     877.914E-06     30.5401E-03    -27.8181E+06    -95.7407E+06    -27.2186E+06     227.547E+03    -24.8738E-03     49.7220E-03    -24.8482E-03     5.05788E-03    -24.8347E-03     49.3232E-03    -24.8052E-03     5.05839E-03
            1888     16.6610E-03     30.4530E-03    -3.73432E+06     151.335E+06     71.7754E+06     998.498E+03    -29.6515E-03     55.8531E-03    -26.2016E-03     68.0781E-03    -30.8076E-03     57.3254E-03    -26.0567E-03     68.2892E-03
            1889     15.7851E-03     30.3178E-03    -306.402E+03     135.965E+06     25.5823E+06     2.61070E+06    -28.2688E-03     54.2034E-03    -25.9346E-03     121.684E-03    -29.6565E-03     55.9986E-03    -26.0034E-03     121.786E-03
            1890     14.9077E-03     30.2162E-03    -3.69230E+06     74.8445E+06    -10.2207E+06     875.188E+03    -28.6735E-03     54.5121E-03    -25.8386E-03     101.215E-03    -29.3608E-03     55.4817E-03    -25.9929E-03     101.040E-03
            1891     14.0313E-03     30.1263E-03    -6.58490E+06     20.7646E+06    -7.66686E+06     459.184E+03    -28.9144E-03     54.7851E-03    -25.8707E-03     84.7553E-03    -29.2528E-03     55.1961E-03    -25.9296E-03     84.5650E-03
            1892     13.1559E-03     30.0532E-03    -7.12787E+06    -12.1192E+06    -4.78719E+06     764.218E+03    -28.5554E-03     54.3950E-03    -25.8396E-03     72.9514E-03    -28.7325E-03     54.5177E-03    -25.8356E-03     72.7946E-03
            1893     12.2799E-03     29.9863E-03    -7.76822E+06    -30.0488E+06    -865.437E+03     771.728E+03    -28.3466E-03     54.1278E-03    -25.7812E-03     66.6593E-03    -28.4483E-03     54.0977E-03    -25.7307E-03     66.5325E-03
            1894     11.4041E-03     29.9247E-03    -8.60991E+06    -41.5169E+06     1.73061E+06     849.616E+03    -28.1160E-03     53.8122E-03    -25.6962E-03     61.0535E-03    -28.1734E-03     53.6866E-03    -25.6149E-03     60.9540E-03
            1895     10.5282E-03     29.8677E-03    -9.57395E+06    -50.8680E+06     2.63622E+06     720.631E+03    -27.7729E-03     53.3660E-03    -25.5931E-03     55.7164E-03    -27.7996E-03     53.1705E-03    -25.4923E-03     55.6375E-03
            1896     9.65205E-03     29.8160E-03    -10.5107E+06    -57.6254E+06     3.85758E+06     667.693E+03    -27.3724E-03     52.8604E-03    -25.4880E-03     50.9037E-03    -27.3803E-03     52.6152E-03    -25.3699E-03     50.8426E-03
            1897     8.77551E-03     29.7683E-03    -11.4580E+06    -63.2118E+06     4.30849E+06     827.273E+03    -27.0176E-03     52.3969E-03    -25.3794E-03     46.1897E-03    -27.0123E-03     52.1141E-03    -25.2495E-03     46.1455E-03
            1898     7.89904E-03     29.7252E-03    -13.2540E+06    -69.5067E+06     3.16291E+06     914.717E+03    -26.6357E-03     51.9034E-03    -25.2677E-03     41.4316E-03    -26.6212E-03     51.5860E-03    -25.1319E-03     41.4007E-03
            1899     7.02203E-03     29.6867E-03    -15.7490E+06    -76.0869E+06     640.118E+03     780.753E+03    -26.2493E-03     51.4066E-03    -25.1574E-03     36.7242E-03    -26.2289E-03     51.0584E-03    -25.0210E-03     36.7013E-03
            1900     6.14500E-03     29.6527E-03    -17.9820E+06    -80.3751E+06    -3.17756E+06     883.529E+03    -25.9005E-03     50.9459E-03    -25.0454E-03     32.0249E-03    -25.8760E-03     50.5814E-03    -24.9187E-03     32.0111E-03
            1901     5.26755E-03     29.6233E-03    -20.0848E+06    -83.8821E+06    -8.19458E+06     1.02686E+06    -25.5749E-03     50.5107E-03    -24.9358E-03     27.3412E-03    -25.5461E-03     50.1366E-03    -24.8260E-03     27.3354E-03
            1902     4.39005E-03     29.5984E-03    -22.1033E+06    -87.0507E+06    -13.0763E+06     951.145E+03    -25.2868E-03     50.1248E-03    -24.8380E-03     22.7040E-03    -25.2548E-03     49.7432E-03    -24.7452E-03     22.7021E-03
            1903     3.51222E-03     29.5782E-03    -24.0129E+06    -89.9672E+06    -17.6281E+06     766.211E+03    -25.0429E-03     49.7974E-03    -24.7545E-03     18.1215E-03    -25.0084E-03     49.4094E-03    -24.6774E-03     18.1211E-03
            1904     2.63437E-03     29.5623E-03    -25.6066E+06    -92.7807E+06    -21.6451E+06     607.680E+03    -24.8521E-03     49.5387E-03    -24.6866E-03     13.5890E-03    -24.8150E-03     49.1441E-03    -24.6232E-03     13.5897E-03
            1905     1.75626E-03     29.5511E-03    -26.8499E+06    -94.9490E+06    -24.8805E+06     426.136E+03    -24.7109E-03     49.3461E-03    -24.6353E-03     9.14402E-03    -24.6717E-03     48.9467E-03    -24.5831E-03     9.14500E-03
            1906     878.206E-06     29.5441E-03    -27.7120E+06    -95.2345E+06    -27.1193E+06     216.457E+03    -24.6233E-03     49.2223E-03    -24.5989E-03     4.95960E-03    -24.5846E-03     48.8257E-03    -24.5563E-03     4.96002E-03
            1907     16.6574E-03     29.4403E-03    -5.14313E+06     149.321E+06     68.2132E+06    -2.27648E+06    -29.2736E-03     55.5917E-03    -26.3181E-03     67.2770E-03    -30.4380E-03     57.0702E-03    -26.1861E-03     67.4108E-03
            1908     15.7854E-03     29.3248E-03    -5.92920E+06     133.087E+06     18.2899E+06     609.966E+03    -30.5191E-03     56.5062E-03    -25.9871E-03     122.087E-03    -31.9401E-03     58.3256E-03    -26.0800E-03     122.106E-03
            1909     14.9062E-03     29.2139E-03    -4.63901E+06     76.3692E+06    -11.9615E+06     3.26159E+06    -29.4776E-03     55.3023E-03    -25.8247E-03     103.636E-03    -30.1850E-03     56.2989E-03    -25.9885E-03     103.482E-03
            1910     14.0324E-03     29.1266E-03    -5.02707E+06     22.0550E+06    -7.70514E+06     2.12474E+06    -29.3587E-03     55.1852E-03    -25.8264E-03     84.1801E-03    -29.6903E-03     55.5996E-03    -25.8897E-03     84.0067E-03
            1911     13.1562E-03     29.0531E-03    -6.36781E+06    -11.9848E+06    -5.08371E+06     1.31636E+06    -28.7827E-03     54.5542E-03    -25.7715E-03     72.8380E-03    -28.9552E-03     54.6763E-03    -25.7703E-03     72.6874E-03
            1912     12.2809E-03     28.9865E-03    -7.20898E+06    -29.9664E+06    -948.525E+03     1.21366E+06    -28.6699E-03     54.3595E-03    -25.6896E-03     66.2178E-03    -28.7686E-03     54.3290E-03    -25.6405E-03     66.0952E-03
            1913     11.4055E-03     28.9249E-03    -8.09774E+06    -41.2620E+06     1.39402E+06     963.081E+03    -28.3082E-03     53.8837E-03    -25.5755E-03     60.4066E-03    -28.3620E-03     53.7582E-03    -25.4970E-03     60.3085E-03
            1914     10.5296E-03     28.8688E-03     -8.9333E+06    -50.7469E+06     2.52680E+06     759.039E+03    -27.8350E-03     53.2870E-03    -25.4520E-03     55.0808E-03    -27.8579E-03     53.0907E-03    -25.3528E-03     55.0027E-03
            1915     9.65340E-03     28.8173E-03    -10.2039E+06    -57.1926E+06     3.67211E+06     658.436E+03    -27.4507E-03     52.7766E-03    -25.3260E-03     50.2684E-03    -27.4569E-03     52.5329E-03    -25.2099E-03     50.2075E-03
            1916     8.77730E-03     28.7700E-03    -11.8965E+06    -63.4372E+06     3.49479E+06     728.481E+03    -27.0175E-03     52.2123E-03    -25.1948E-03     45.5278E-03    -27.0124E-03     51.9297E-03    -25.0681E-03     45.4828E-03
            1917     7.90049E-03     28.7275E-03    -13.6517E+06    -69.4546E+06     2.72259E+06     1.16823E+06    -26.5576E-03     51.6248E-03    -25.0672E-03     40.8086E-03    -26.5441E-03     51.3084E-03    -24.9331E-03     40.7816E-03
            1918     7.02364E-03     28.6893E-03    -15.6624E+06    -75.6227E+06     468.087E+03     1.24105E+06    -26.1437E-03     51.0856E-03    -24.9419E-03     36.1278E-03    -26.1230E-03     50.7395E-03    -24.8072E-03     36.1115E-03
            1919     6.14632E-03     28.6558E-03    -18.1218E+06    -80.3434E+06    -3.51700E+06     1.03747E+06    -25.7509E-03     50.5672E-03    -24.8163E-03     31.4689E-03    -25.7265E-03     50.2035E-03    -24.6912E-03     31.4576E-03
            1920     5.26890E-03     28.6267E-03    -20.2733E+06    -83.6406E+06    -8.35767E+06     1.05490E+06    -25.3983E-03     50.0935E-03    -24.6952E-03     26.8418E-03    -25.3704E-03     49.7210E-03    -24.5863E-03     26.8368E-03
            1921     4.39109E-03     28.6022E-03    -22.1688E+06    -86.6525E+06    -13.1544E+06     1.05818E+06    -25.0817E-03     49.6680E-03    -24.5863E-03     22.2656E-03    -25.0504E-03     49.2885E-03    -24.4943E-03     22.2654E-03
            1922     3.51321E-03     28.5822E-03    -23.9327E+06    -89.4393E+06    -17.5618E+06     966.011E+03    -24.8126E-03     49.3063E-03    -24.4936E-03     17.7592E-03    -24.7786E-03     48.9207E-03    -24.4171E-03     17.7617E-03
            1923     2.63501E-03     28.5667E-03    -25.5247E+06    -92.2539E+06    -21.6407E+06     741.595E+03    -24.6004E-03     49.0186E-03    -24.4181E-03     13.3092E-03    -24.5637E-03     48.6265E-03    -24.3556E-03     13.3118E-03
            1924     1.75681E-03     28.5555E-03    -26.7337E+06    -94.3567E+06    -24.8030E+06     475.689E+03    -24.4454E-03     48.8072E-03    -24.3618E-03     8.94829E-03    -24.4066E-03     48.4105E-03    -24.3102E-03     8.95002E-03
            1925     878.372E-06     28.5487E-03    -27.5253E+06    -94.7024E+06    -26.9929E+06     261.559E+03    -24.3493E-03     48.6715E-03    -24.3222E-03     4.85780E-03    -24.3106E-03     48.2771E-03    -24.2799E-03     4.85888E-03
            1926     16.6541E-03     28.4353E-03    -4.60925E+06     149.297E+06     66.4811E+06    -686.262E+03    -28.0364E-03     54.4194E-03    -26.3830E-03     67.3798E-03    -29.1758E-03     55.8797E-03    -26.2604E-03     67.5446E-03
            1927     15.7786E-03     28.3223E-03    -11.8312E+06     128.052E+06     11.6739E+06    -1.55672E+06    -31.4833E-03     57.5241E-03    -26.0408E-03     117.582E-03    -32.8985E-03     59.3180E-03    -26.1509E-03     117.547E-03
            1928     14.9084E-03     28.2125E-03    -11.1197E+06     74.9364E+06    -15.9410E+06     593.208E+03    -30.7653E-03     56.5781E-03    -25.8128E-03     101.948E-03    -31.5034E-03     57.5890E-03    -25.9851E-03     101.736E-03
            1929     14.0322E-03     28.1260E-03    -8.93928E+06     23.5720E+06    -9.63160E+06     2.03372E+06    -29.5362E-03     55.3026E-03    -25.7664E-03     83.2785E-03    -29.8822E-03     55.7285E-03    -25.8358E-03     83.1030E-03
            1930     13.1576E-03     28.0530E-03    -7.97474E+06    -11.3776E+06    -6.02565E+06     1.30312E+06    -29.3050E-03     54.9890E-03    -25.6840E-03     72.0302E-03    -29.4850E-03     55.1178E-03    -25.6861E-03     71.8754E-03
            1931     12.2824E-03     27.9862E-03    -7.70473E+06    -29.9217E+06    -1.70925E+06     1.01470E+06    -28.8704E-03     54.4386E-03    -25.5682E-03     65.2588E-03    -28.9688E-03     54.4085E-03    -25.5222E-03     65.1333E-03
            1932     11.4071E-03     27.9253E-03    -7.79217E+06    -40.6311E+06     1.32911E+06     873.081E+03    -28.3570E-03     53.7918E-03    -25.4348E-03     59.5147E-03    -28.4088E-03     53.6678E-03    -25.3579E-03     59.4160E-03
            1933     10.5312E-03     27.8699E-03    -8.54582E+06    -50.5741E+06     2.30253E+06     844.638E+03    -27.9330E-03     53.2243E-03    -25.2913E-03     54.3592E-03    -27.9531E-03     53.0278E-03    -25.1940E-03     54.2827E-03
            1934     9.65542E-03     27.8184E-03    -9.88399E+06    -57.2600E+06     3.70185E+06     1.17500E+06    -27.4771E-03     52.6225E-03    -25.1454E-03     49.5411E-03    -27.4811E-03     52.3774E-03    -25.0295E-03     49.4876E-03
            1935     8.77889E-03     27.7721E-03    -11.8313E+06    -63.4219E+06     3.30389E+06     1.23331E+06    -26.9752E-03     51.9698E-03    -24.9946E-03     44.8073E-03    -26.9690E-03     51.6869E-03    -24.8690E-03     44.7696E-03
            1936     7.90230E-03     27.7298E-03    -13.8410E+06    -69.5052E+06     2.32147E+06     1.20560E+06    -26.4891E-03     51.3378E-03    -24.8487E-03     40.1285E-03    -26.4756E-03     51.0217E-03    -24.7163E-03     40.1026E-03
            1937     7.02522E-03     27.6924E-03    -15.7828E+06    -75.3562E+06     345.807E+03     1.37880E+06    -26.0229E-03     50.7302E-03    -24.7073E-03     35.4754E-03    -26.0028E-03     50.3856E-03    -24.5734E-03     35.4614E-03
            1938     6.14793E-03     27.6591E-03    -17.8364E+06    -79.8894E+06    -3.53932E+06     1.40925E+06    -25.5931E-03     50.1594E-03    -24.5664E-03     30.8708E-03    -25.5676E-03     49.7973E-03    -24.4424E-03     30.8648E-03
            1939     5.27021E-03     27.6306E-03    -20.1602E+06    -83.3407E+06    -8.59488E+06     1.21469E+06    -25.2011E-03     49.6326E-03    -24.4315E-03     26.2988E-03    -25.1726E-03     49.2616E-03    -24.3244E-03     26.2963E-03
            1940     4.39236E-03     27.6064E-03    -22.2337E+06    -86.3153E+06    -13.2702E+06     1.14828E+06    -24.8555E-03     49.1676E-03    -24.3121E-03     21.7938E-03    -24.8247E-03     48.7900E-03    -24.2211E-03     21.7952E-03
            1941     3.51414E-03     27.5868E-03    -24.0374E+06    -88.8795E+06    -17.6477E+06     1.06038E+06    -24.5601E-03     48.7696E-03    -24.2096E-03     17.3699E-03    -24.5272E-03     48.3871E-03    -24.1341E-03     17.3739E-03
            1942     2.63584E-03     27.5714E-03    -25.4937E+06    -91.5637E+06    -21.6337E+06     805.784E+03    -24.3256E-03     48.4522E-03    -24.1266E-03     13.0101E-03    -24.2897E-03     48.0635E-03    -24.0651E-03     13.0138E-03
            1943     1.75726E-03     27.5605E-03    -26.6778E+06    -93.7351E+06    -24.7677E+06     545.857E+03    -24.1580E-03     48.2227E-03    -24.0647E-03     8.74466E-03    -24.1199E-03     47.8290E-03    -24.0139E-03     8.74744E-03
            1944     878.721E-06     27.5538E-03    -27.5086E+06    -94.0860E+06    -26.9516E+06     308.101E+03    -24.0531E-03     48.0716E-03    -24.0185E-03     4.74085E-03    -24.0152E-03     47.6803E-03    -23.9770E-03     4.74259E-03
            1945     16.6584E-03     27.4403E-03    -2.92842E+06     150.946E+06     68.9655E+06     1.43055E+06    -28.8713E-03     55.1697E-03    -26.2984E-03     65.3004E-03    -29.9898E-03     56.6136E-03    -26.1681E-03     65.4908E-03
            1946     15.7841E-03     27.3151E-03    -7.62894E+06     128.780E+06     15.5101E+06     402.446E+03    -30.3728E-03     56.3367E-03    -25.9639E-03     115.809E-03    -31.7464E-03     58.0954E-03    -26.0620E-03     115.813E-03
            1947     14.9085E-03     27.2132E-03    -9.74939E+06     73.1073E+06    -15.4431E+06     7.47945E+03    -30.7097E-03     56.4598E-03    -25.7501E-03     99.7007E-03    -31.4242E-03     57.4440E-03    -25.9192E-03     99.4802E-03
            1948     14.0337E-03     27.1247E-03    -9.28037E+06     23.1395E+06    -9.55919E+06     245.723E+03    -30.0383E-03     55.7175E-03    -25.6792E-03     82.6183E-03    -30.3845E-03     56.1406E-03    -25.7470E-03     82.4146E-03
            1949     13.1591E-03     27.0521E-03    -8.17905E+06    -10.5848E+06    -5.81135E+06     629.198E+03    -29.5594E-03     55.1217E-03    -25.5623E-03     70.9662E-03    -29.7390E-03     55.2516E-03    -25.5642E-03     70.8018E-03
            1950     12.2846E-03     26.9862E-03    -7.85781E+06    -29.5233E+06    -2.11209E+06     354.166E+03    -28.9423E-03     54.3637E-03    -25.4214E-03     64.4301E-03    -29.0396E-03     54.3345E-03    -25.3778E-03     64.2970E-03
            1951     11.4087E-03     26.9262E-03    -7.98360E+06    -40.6760E+06     942.889E+03     595.525E+03    -28.3987E-03     53.6701E-03    -25.2713E-03     58.7705E-03    -28.4495E-03     53.5454E-03    -25.1961E-03     58.6693E-03
            1952     10.5333E-03     26.8705E-03    -8.94765E+06    -50.5746E+06     1.80765E+06     1.21550E+06    -27.9623E-03     53.0716E-03    -25.1092E-03     53.6095E-03    -27.9827E-03     52.8754E-03    -25.0139E-03     53.5388E-03
            1953     9.65712E-03     26.8204E-03    -10.4149E+06    -57.7594E+06     2.98486E+06     1.46030E+06    -27.4594E-03     52.4038E-03    -24.9444E-03     48.7376E-03    -27.4635E-03     52.1572E-03    -24.8306E-03     48.6886E-03
            1954     8.78086E-03     26.7740E-03    -11.8214E+06    -62.9735E+06     3.34503E+06     1.60191E+06    -26.9284E-03     51.7049E-03    -24.7765E-03     44.0070E-03    -26.9223E-03     51.4236E-03    -24.6513E-03     43.9749E-03
            1955     7.90414E-03     26.7328E-03    -13.6141E+06    -69.2317E+06     2.19768E+06     1.47675E+06    -26.3990E-03     51.0103E-03    -24.6113E-03     39.3457E-03    -26.3841E-03     50.6950E-03    -24.4802E-03     39.3240E-03
            1956     7.02704E-03     26.6955E-03    -15.7294E+06     -75.276E+06         215.945     1.44358E+06    -25.8874E-03     50.3397E-03    -24.4522E-03     34.7759E-03    -25.8664E-03     49.9955E-03    -24.3203E-03     34.7634E-03
            1957     6.14954E-03     26.6631E-03    -17.8837E+06    -79.5541E+06    -3.62832E+06     1.57475E+06    -25.4188E-03     49.7155E-03    -24.2967E-03     30.2183E-03    -25.3938E-03     49.3551E-03    -24.1735E-03     30.2151E-03
            1958     5.27178E-03     26.6348E-03    -19.9528E+06    -82.7669E+06    -8.45617E+06     1.55587E+06    -24.9877E-03     49.1359E-03    -24.1482E-03     25.7140E-03    -24.9591E-03     48.7672E-03    -24.0416E-03     25.7165E-03
            1959     4.39361E-03     26.6112E-03    -22.0503E+06    -85.8853E+06    -13.2695E+06     1.34728E+06    -24.6080E-03     48.6247E-03    -24.0167E-03     21.2865E-03    -24.5768E-03     48.2488E-03    -23.9265E-03     21.2908E-03
            1960     3.51527E-03     26.5918E-03    -23.8406E+06    -88.2349E+06    -17.5170E+06     1.12393E+06    -24.2867E-03     48.1915E-03    -23.9049E-03     16.9508E-03    -24.2539E-03     47.8117E-03    -23.8299E-03     16.9559E-03
            1961     2.63661E-03     26.5769E-03    -25.3873E+06    -90.9000E+06    -21.5599E+06     883.209E+03    -24.0323E-03     47.8460E-03    -23.8138E-03     12.6861E-03    -23.9968E-03     47.4603E-03    -23.7530E-03     12.6910E-03
            1962     1.75788E-03     26.5661E-03    -26.5994E+06    -93.0377E+06    -24.7074E+06     643.850E+03    -23.8462E-03     47.5926E-03    -23.7463E-03     8.52362E-03    -23.8088E-03     47.2021E-03    -23.6964E-03     8.52782E-03
            1963     878.929E-06     26.5596E-03    -27.4256E+06    -93.3510E+06    -26.8834E+06     356.219E+03    -23.7344E-03     47.4308E-03    -23.6964E-03     4.61976E-03    -23.6973E-03     47.0429E-03    -23.6557E-03     4.62221E-03
            1964     16.6633E-03     26.4393E-03    -4.21243E+06     149.879E+06     69.3208E+06     1.43291E+06    -29.7395E-03     56.0194E-03    -26.2799E-03     69.7883E-03    -30.8832E-03     57.4793E-03    -26.1445E-03     69.9589E-03
            1965     15.7845E-03     26.3172E-03    -5.06931E+06     131.896E+06     20.8717E+06     3.23134E+06    -31.1526E-03     57.0772E-03    -25.9246E-03     119.946E-03    -32.5343E-03     58.8484E-03    -26.0041E-03     119.968E-03
            1966     14.9091E-03     26.2101E-03    -5.97824E+06      74.643E+06    -11.7880E+06     870.092E+03    -31.0282E-03     56.7044E-03    -25.6762E-03     99.9094E-03    -31.7237E-03     57.6779E-03    -25.8347E-03     99.6977E-03
            1967     14.0361E-03     26.1238E-03    -5.84048E+06     22.6324E+06    -8.50979E+06     118.230E+03    -30.5341E-03     56.0994E-03    -25.5653E-03     81.6114E-03    -30.8607E-03     56.5102E-03    -25.6322E-03     81.4021E-03
            1968     13.1613E-03     26.0514E-03    -6.24488E+06    -10.5686E+06    -5.44858E+06     479.874E+03    -29.5596E-03     54.9812E-03    -25.4216E-03     70.3270E-03    -29.7268E-03     55.1045E-03    -25.4245E-03     70.1628E-03
            1969     12.2858E-03     25.9864E-03    -6.90299E+06    -29.1753E+06    -1.76937E+06     609.207E+03    -29.0540E-03     54.3203E-03    -25.2663E-03     63.6616E-03    -29.1460E-03     54.2893E-03    -25.2228E-03     63.5324E-03
            1970     11.4111E-03     25.9265E-03    -8.22082E+06    -41.3264E+06     544.744E+03     1.02029E+06    -28.5307E-03     53.6234E-03    -25.0927E-03     57.9805E-03    -28.5799E-03     53.4951E-03    -25.0181E-03     57.8853E-03
            1971     10.5352E-03     25.8720E-03    -9.57528E+06    -50.8445E+06     1.30097E+06     1.48176E+06    -27.9717E-03     52.8792E-03    -24.9075E-03     52.7810E-03    -27.9930E-03     52.6822E-03    -24.8134E-03     52.7148E-03
            1972     9.65938E-03     25.8218E-03    -10.7240E+06    -57.4801E+06     2.52155E+06     1.52925E+06    -27.4313E-03     52.1533E-03    -24.7220E-03     47.8198E-03    -27.4358E-03     51.9084E-03    -24.6105E-03     47.7727E-03
            1973     8.78299E-03     25.7767E-03    -11.9956E+06    -62.8906E+06     2.95713E+06     1.53537E+06    -26.8424E-03     51.3786E-03    -24.5362E-03     43.1357E-03    -26.8361E-03     51.0979E-03    -24.4128E-03     43.1038E-03
            1974     7.90615E-03     25.7356E-03    -13.5796E+06    -68.8970E+06     2.06244E+06     1.67932E+06    -26.2725E-03     50.6274E-03    -24.3549E-03     38.5395E-03    -26.2573E-03     50.3134E-03    -24.2250E-03     38.5213E-03
            1975     7.02896E-03     25.6994E-03    -15.6448E+06    -75.0556E+06    -88.3872E+03     1.78288E+06    -25.7401E-03     49.9196E-03    -24.1795E-03     34.0113E-03    -25.7184E-03     49.5762E-03    -24.0484E-03     34.0040E-03
            1976     6.15134E-03     25.6672E-03    -17.8778E+06    -79.1782E+06    -3.77558E+06     1.70878E+06    -25.2239E-03     49.2313E-03    -24.0075E-03     29.5205E-03    -25.1989E-03     48.8727E-03    -23.8856E-03     29.5197E-03
            1977     5.27333E-03     25.6398E-03    -19.9716E+06    -82.3467E+06    -8.55344E+06     1.68409E+06    -24.7574E-03     48.6025E-03    -23.8451E-03     25.0830E-03    -24.7292E-03     48.2358E-03    -23.7395E-03     25.0877E-03
            1978     4.39503E-03     25.6165E-03    -21.8315E+06    -85.1348E+06    -13.2349E+06     1.56500E+06    -24.3432E-03     48.0442E-03    -23.7010E-03     20.7420E-03    -24.3120E-03     47.6717E-03    -23.6121E-03     20.7497E-03
            1979     3.51637E-03     25.5976E-03    -23.6468E+06    -87.5999E+06    -17.5233E+06     1.26081E+06    -23.9933E-03     47.5726E-03    -23.5793E-03     16.4994E-03    -23.9604E-03     47.1956E-03    -23.5056E-03     16.5067E-03
            1980     2.63754E-03     25.5829E-03    -25.1834E+06    -90.2044E+06    -21.4427E+06     1.05434E+06    -23.7181E-03     47.1990E-03    -23.4809E-03     12.3397E-03    -23.6828E-03     46.8162E-03    -23.4208E-03     12.3471E-03
            1981     1.75844E-03     25.5724E-03    -26.4155E+06    -92.2369E+06    -24.5472E+06     756.011E+03    -23.5171E-03     46.9245E-03    -23.4074E-03     8.28331E-03    -23.4801E-03     46.5375E-03    -23.3581E-03     8.28913E-03
            1982     879.281E-06     25.5660E-03    -27.2155E+06    -92.4902E+06    -26.6624E+06     382.843E+03    -23.3916E-03     46.7475E-03    -23.3560E-03     4.48724E-03    -23.3550E-03     46.3633E-03    -23.3157E-03     4.49012E-03
            1983     16.6493E-03     25.4304E-03    -6.04888E+06     148.041E+06     69.0637E+06     85.1046E+03    -29.8447E-03     56.1429E-03    -26.2982E-03     66.7614E-03    -30.9762E-03     57.5783E-03    -26.1588E-03     66.8994E-03
            1984     15.7835E-03     25.3147E-03    -6.87295E+06     131.123E+06     21.9732E+06     3.77019E+03    -32.3570E-03     58.2557E-03    -25.8987E-03     116.233E-03    -33.7337E-03     60.0094E-03    -25.9690E-03     116.184E-03
            1985     14.9115E-03     25.2075E-03    -5.29683E+06     76.2823E+06    -10.5653E+06     1.36560E+06    -31.7298E-03     57.3069E-03    -25.5771E-03     98.5183E-03    -32.4243E-03     58.2840E-03    -25.7328E-03     98.2994E-03
            1986     14.0372E-03     25.1220E-03    -5.76406E+06     23.0611E+06    -8.92225E+06     712.778E+03    -30.4330E-03     55.8656E-03    -25.4326E-03     80.3563E-03    -30.7529E-03     56.2727E-03    -25.5023E-03     80.1570E-03
            1987     13.1628E-03     25.0513E-03    -5.90205E+06    -11.1495E+06    -5.69038E+06     741.628E+03    -29.7595E-03     55.0356E-03    -25.2761E-03     69.5218E-03    -29.9223E-03     55.1544E-03    -25.2798E-03     69.3602E-03
            1988     12.2885E-03     24.9860E-03    -6.72161E+06    -29.5347E+06    -1.59672E+06     1.67846E+06    -29.1996E-03     54.2978E-03    -25.0983E-03     62.7532E-03    -29.2886E-03     54.2629E-03    -25.0537E-03     62.6381E-03
            1989     11.4129E-03     24.9275E-03    -8.14460E+06    -41.2222E+06     723.670E+03     1.84267E+06    -28.6161E-03     53.5164E-03    -24.9003E-03     57.0382E-03    -28.6640E-03     53.3870E-03    -24.8251E-03     56.9543E-03
            1990     10.5378E-03     24.8731E-03    -9.28173E+06    -50.8053E+06     1.31364E+06     1.59218E+06    -28.0261E-03     52.7163E-03    -24.6902E-03     51.9321E-03    -28.0450E-03     52.5181E-03    -24.5965E-03     51.8682E-03
            1991     9.66165E-03     24.8241E-03    -10.2015E+06    -56.8752E+06     2.78360E+06     1.56265E+06    -27.3659E-03     51.8498E-03    -24.4840E-03     46.9587E-03    -27.3681E-03     51.6059E-03    -24.3728E-03     46.9133E-03
            1992     8.78522E-03     24.7793E-03    -11.5825E+06    -62.8494E+06     2.91301E+06     1.66426E+06    -26.7327E-03     51.0135E-03    -24.2808E-03     42.2914E-03    -26.7236E-03     50.7318E-03    -24.1583E-03     42.2623E-03
            1993     7.90834E-03     24.7393E-03    -13.4800E+06    -68.9257E+06     1.96880E+06     1.92894E+06    -26.1471E-03     50.2299E-03    -24.0828E-03     37.7297E-03    -26.1307E-03     49.9153E-03    -23.9535E-03     37.7158E-03
            1994     7.03097E-03     24.7033E-03    -15.4534E+06    -74.6210E+06    -180.900E+03     2.04828E+06    -25.5738E-03     49.4630E-03    -23.8891E-03     33.1994E-03    -25.5514E-03     49.1213E-03    -23.7594E-03     33.1964E-03
            1995     6.15323E-03     24.6722E-03    -17.5788E+06    -78.7009E+06    -3.78759E+06     1.96779E+06    -25.0179E-03     48.7188E-03    -23.7009E-03     28.7713E-03    -24.9918E-03     48.3619E-03    -23.5802E-03     28.7745E-03
            1996     5.27505E-03     24.6450E-03    -19.6991E+06    -81.8606E+06    -8.69044E+06     1.82093E+06    -24.5104E-03     48.0337E-03    -23.5233E-03     24.4130E-03    -24.4811E-03     47.6691E-03    -23.4195E-03     24.4200E-03
            1997     4.39648E-03     24.6224E-03    -21.6196E+06    -84.4941E+06    -13.3099E+06     1.69980E+06    -24.0633E-03     47.4301E-03    -23.3669E-03     20.1579E-03    -24.0317E-03     47.0605E-03    -23.2795E-03     20.1677E-03
            1998     3.51761E-03     24.6039E-03    -23.3422E+06    -86.8302E+06    -17.4879E+06     1.54389E+06    -23.6839E-03     46.9186E-03    -23.2348E-03     16.0189E-03    -23.6505E-03     46.5449E-03    -23.1624E-03     16.0301E-03
            1999     2.63843E-03     24.5896E-03    -24.9458E+06    -89.4345E+06    -21.2939E+06     1.23568E+06    -23.3850E-03     46.5139E-03    -23.1289E-03     11.9655E-03    -23.3498E-03     46.1344E-03    -23.0695E-03     11.9755E-03
            2000     1.75909E-03     24.5793E-03    -26.1380E+06    -91.2067E+06    -24.2603E+06     862.857E+03    -23.1697E-03     46.2189E-03    -23.0492E-03     8.02929E-03    -23.1332E-03     45.8362E-03    -23.0004E-03     8.03666E-03
            2001     879.584E-06     24.5731E-03    -26.9319E+06    -91.6057E+06    -26.4224E+06     392.939E+03    -23.0314E-03     46.0249E-03    -22.9936E-03     4.33722E-03    -22.9950E-03     45.6444E-03    -22.9538E-03     4.34033E-03
            2002     16.6702E-03     24.4356E-03    -3.46057E+06     149.496E+06     69.1911E+06     819.233E+03    -31.4421E-03     57.6183E-03    -26.1761E-03     64.6815E-03    -32.5566E-03     59.0506E-03    -26.0419E-03     64.8187E-03
            2003     15.7866E-03     24.3089E-03    -5.46492E+06     130.874E+06     19.9610E+06     661.014E+03    -31.7213E-03     57.4639E-03    -25.7426E-03     116.369E-03    -33.0841E-03     59.2135E-03    -25.8246E-03     116.340E-03
            2004     14.9139E-03     24.2059E-03    -8.17168E+06     75.6763E+06    -12.6636E+06     211.413E+03    -31.5552E-03     56.9959E-03    -25.4407E-03     96.9388E-03    -32.2484E-03     57.9655E-03    -25.6019E-03     96.7056E-03
            2005     14.0395E-03     24.1214E-03    -6.90309E+06     24.1383E+06    -8.82789E+06     890.549E+03    -30.4615E-03     55.7563E-03    -25.2948E-03     79.7343E-03    -30.7842E-03     56.1658E-03    -25.3639E-03     79.5380E-03
            2006     13.1652E-03     24.0500E-03    -7.39878E+06    -12.1285E+06    -6.39588E+06     1.24991E+06    -29.9172E-03     55.0374E-03    -25.1202E-03     68.6824E-03    -30.0825E-03     55.1520E-03    -25.1239E-03     68.5271E-03
            2007     12.2904E-03     23.9865E-03    -7.76790E+06    -30.0096E+06    -2.03125E+06     1.76544E+06    -29.3220E-03     54.2412E-03    -24.9191E-03     61.9530E-03    -29.4131E-03     54.2040E-03    -24.8745E-03     61.8397E-03
            2008     11.4157E-03     23.9280E-03    -7.70912E+06    -40.7547E+06     998.644E+03     2.02005E+06    -28.6945E-03     53.3924E-03    -24.6979E-03     56.2805E-03    -28.7399E-03     53.2629E-03    -24.6226E-03     56.1998E-03
            2009     10.5399E-03     23.8748E-03    -8.25774E+06    -50.3100E+06     1.73629E+06     1.71248E+06    -28.0305E-03     52.4962E-03    -24.4658E-03     51.0415E-03    -28.0443E-03     52.2971E-03    -24.3722E-03     50.9804E-03
            2010     9.66412E-03     23.8263E-03    -9.50187E+06    -57.0559E+06     2.88725E+06     1.77632E+06    -27.3123E-03     51.5520E-03    -24.2397E-03     46.1104E-03    -27.3099E-03     51.3050E-03    -24.1288E-03     46.0692E-03
            2011     8.78754E-03     23.7826E-03    -11.2864E+06    -62.6371E+06     3.00246E+06     2.14811E+06    -26.6640E-03     50.6805E-03    -24.0166E-03     41.4570E-03    -26.6531E-03     50.3986E-03    -23.8944E-03     41.4353E-03
            2012     7.91056E-03     23.7430E-03    -13.1130E+06    -68.8041E+06     1.87445E+06     2.16873E+06    -26.0321E-03     49.8289E-03    -23.7968E-03     36.8506E-03    -26.0134E-03     49.5140E-03    -23.6687E-03     36.8408E-03
            2013     7.03316E-03     23.7081E-03    -15.0252E+06    -74.2829E+06    -425.647E+03     2.25587E+06    -25.3962E-03     48.9793E-03    -23.5831E-03     32.3478E-03    -25.3714E-03     48.6387E-03    -23.4557E-03     32.3483E-03
            2014     6.15520E-03     23.6773E-03    -17.1358E+06    -78.2266E+06    -4.05644E+06     2.33307E+06    -24.8009E-03     48.1787E-03    -23.3778E-03     27.9781E-03    -24.7726E-03     47.8236E-03    -23.2598E-03     27.9868E-03
            2015     5.27682E-03     23.6511E-03    -19.3566E+06    -81.1642E+06    -8.71218E+06     2.19759E+06    -24.2541E-03     47.4400E-03    -23.1859E-03     23.6935E-03    -24.2239E-03     47.0782E-03    -23.0837E-03     23.7060E-03
            2016     4.39802E-03     23.6288E-03    -21.4272E+06    -83.8697E+06    -13.3871E+06     1.96596E+06    -23.7698E-03     46.7857E-03    -23.0159E-03     19.5311E-03    -23.7379E-03     46.4188E-03    -22.9301E-03     19.5448E-03
            2017     3.51887E-03     23.6110E-03    -23.2337E+06    -86.0505E+06    -17.3514E+06     1.78474E+06    -23.3608E-03     46.2339E-03    -22.8731E-03     15.4947E-03    -23.3282E-03     45.8637E-03    -22.8014E-03     15.5094E-03
            2018     2.63943E-03     23.5969E-03    -24.6799E+06    -88.3585E+06    -21.1010E+06     1.43189E+06    -23.0367E-03     45.7939E-03    -22.7572E-03     11.5601E-03    -23.0020E-03     45.4191E-03    -22.6988E-03     11.5729E-03
            2019     1.75975E-03     23.5870E-03    -25.8217E+06    -90.1498E+06    -24.1122E+06     908.131E+03    -22.7987E-03     45.4700E-03    -22.6712E-03     7.75053E-03    -22.7624E-03     45.0919E-03    -22.6236E-03     7.75866E-03
            2020     879.912E-06     23.5809E-03    -26.5118E+06    -90.5661E+06    -26.0961E+06     501.380E+03    -22.6528E-03     45.2672E-03    -22.6144E-03     4.18308E-03    -22.6163E-03     44.8907E-03    -22.5751E-03     4.18768E-03
            2021     16.6550E-03     23.4318E-03    -5.49807E+06     147.470E+06     69.2164E+06    -361.609E+03    -32.4184E-03     58.5717E-03    -26.1533E-03     65.7260E-03    -33.5585E-03     60.0151E-03    -26.0131E-03     65.8145E-03
            2022     15.7896E-03     23.3071E-03    -5.17043E+06     132.361E+06     19.7249E+06     2.08101E+06    -32.6540E-03     58.3181E-03    -25.6641E-03     118.934E-03    -34.0315E-03     60.0898E-03    -25.7499E-03     118.900E-03
            2023     14.9144E-03     23.2039E-03    -5.10708E+06     76.4403E+06    -14.0130E+06     1.21638E+06    -31.6045E-03     56.9319E-03    -25.3274E-03     97.2650E-03    -32.2732E-03     57.8945E-03    -25.5009E-03     97.0460E-03
            2024     14.0413E-03     23.1199E-03    -7.05399E+06     22.9674E+06    -9.58398E+06     1.20499E+06    -30.9476E-03     56.1173E-03    -25.1697E-03     79.3861E-03    -31.2659E-03     56.5199E-03    -25.2407E-03     79.1902E-03
            2025     13.1671E-03     23.0497E-03    -7.18692E+06    -11.4517E+06    -6.63416E+06     1.81020E+06    -30.0840E-03     55.0481E-03    -24.9642E-03     68.1445E-03    -30.2458E-03     55.1631E-03    -24.9703E-03     67.9973E-03
            2026     12.2928E-03     22.9864E-03    -7.24187E+06    -30.3048E+06    -2.65626E+06     1.22726E+06    -29.4637E-03     54.2028E-03    -24.7391E-03     61.2772E-03    -29.5486E-03     54.1622E-03    -24.6979E-03     61.1579E-03
            2027     11.4177E-03     22.9290E-03    -7.44040E+06    -40.5894E+06     484.214E+03     1.54774E+06    -28.8199E-03     53.3128E-03    -24.4929E-03     55.4674E-03    -28.8618E-03     53.1828E-03    -24.4208E-03     55.3817E-03
            2028     10.5426E-03     22.8764E-03    -8.20591E+06    -50.1699E+06     1.36774E+06     2.19443E+06    -28.0414E-03     52.2791E-03    -24.2377E-03     50.0625E-03    -28.0532E-03     52.0797E-03    -24.1463E-03     50.0092E-03
            2029     9.66635E-03     22.8292E-03    -9.77320E+06    -57.0495E+06     2.27459E+06     2.30026E+06    -27.3053E-03     51.2937E-03    -23.9883E-03     45.1737E-03    -27.3024E-03     51.0470E-03    -23.8801E-03     45.1405E-03
            2030     8.78994E-03     22.7858E-03    -11.1404E+06    -62.6250E+06     2.64264E+06     2.29360E+06    -26.6250E-03     50.3663E-03    -23.7413E-03     40.5027E-03    -26.6123E-03     50.0840E-03    -23.6211E-03     40.4840E-03
            2031     7.91298E-03     22.7474E-03    -12.7051E+06    -68.2844E+06     1.73446E+06     2.47316E+06    -25.9084E-03     49.4068E-03    -23.4983E-03     35.8761E-03    -25.8877E-03     49.0935E-03    -23.3722E-03     35.8713E-03
            2032     7.03534E-03     22.7130E-03    -14.7483E+06    -74.1905E+06    -987.209E+03     2.57212E+06    -25.2194E-03     48.4826E-03    -23.2633E-03     31.4377E-03    -25.1920E-03     48.1424E-03    -23.1392E-03     31.4433E-03
            2033     6.15728E-03     22.6833E-03    -16.8424E+06    -77.6905E+06    -4.43964E+06     2.75464E+06    -24.5790E-03     47.6188E-03    -23.0398E-03     27.1142E-03    -24.5492E-03     47.2663E-03    -22.9249E-03     27.1291E-03
            2034     5.27867E-03     22.6575E-03    -18.9194E+06    -80.4244E+06    -8.72377E+06     2.67203E+06    -23.9904E-03     46.8227E-03    -22.8323E-03     22.9016E-03    -23.9589E-03     46.4639E-03    -22.7319E-03     22.9209E-03
            2035     4.39965E-03     22.6361E-03    -20.9981E+06    -82.9915E+06    -13.0336E+06     2.43722E+06    -23.4681E-03     46.1169E-03    -22.6487E-03     18.8368E-03    -23.4358E-03     45.7531E-03    -22.5631E-03     18.8572E-03
            2036     3.52021E-03     22.6185E-03    -22.8447E+06    -85.0260E+06    -16.9781E+06     1.96831E+06    -23.0227E-03     45.5155E-03    -22.4929E-03     14.9219E-03    -22.9901E-03     45.1492E-03    -22.4214E-03     14.9394E-03
            2037     2.64047E-03     22.6051E-03    -24.2607E+06    -87.2512E+06    -20.7428E+06     1.50367E+06    -22.6697E-03     45.0363E-03    -22.3666E-03     11.1190E-03    -22.6349E-03     44.6658E-03    -22.3087E-03     11.1330E-03
            2038     1.76045E-03     22.5954E-03    -25.3393E+06    -88.9408E+06    -23.7485E+06     1.07503E+06    -22.4111E-03     44.6845E-03    -22.2734E-03     7.44419E-03    -22.3746E-03     44.3112E-03    -22.2265E-03     7.45467E-03
            2039     880.277E-06     22.5896E-03    -26.1164E+06    -89.4508E+06    -25.6387E+06     543.933E+03    -22.2546E-03     44.4668E-03    -22.2122E-03     4.02117E-03    -22.2183E-03     44.0947E-03    -22.1728E-03     4.02642E-03
            2040     16.6639E-03     22.4224E-03    -5.00564E+06     147.421E+06     67.7427E+06    -582.919E+03    -32.3528E-03     58.5257E-03    -26.1729E-03     63.6625E-03    -33.4709E-03     59.9529E-03    -26.0407E-03     63.7276E-03
            2041     15.7878E-03     22.3051E-03    -8.15965E+06     130.114E+06     17.0683E+06    -1.16161E+06    -33.6057E-03     59.2581E-03    -25.6524E-03     116.217E-03    -34.9744E-03     61.0102E-03    -25.7439E-03     116.107E-03
            2042     14.9158E-03     22.2008E-03    -7.60112E+06     76.1513E+06    -14.4557E+06     1.54018E+06    -32.4270E-03     57.6921E-03    -25.2651E-03     96.7698E-03    -33.1054E-03     58.6557E-03    -25.4367E-03     96.5415E-03
            2043     14.0426E-03     22.1181E-03    -6.43047E+06     23.1716E+06    -9.99889E+06     1.87122E+06    -31.3541E-03     56.4124E-03    -25.0583E-03     78.2372E-03    -31.6637E-03     56.8104E-03    -25.1325E-03     78.0470E-03
            2044     13.1691E-03     22.0489E-03    -6.40120E+06    -11.3520E+06    -6.72730E+06     1.49029E+06    -30.4437E-03     55.2633E-03    -24.8196E-03     67.2686E-03    -30.5988E-03     55.3749E-03    -24.8275E-03     67.1163E-03
            2045     12.2946E-03     21.9866E-03    -6.70376E+06    -29.5286E+06    -2.74995E+06     1.76900E+06    -29.7025E-03     54.2632E-03    -24.5607E-03     60.3442E-03    -29.7833E-03     54.2234E-03    -24.5219E-03     60.2324E-03
            2046     11.4203E-03     21.9296E-03    -8.14419E+06    -41.4124E+06    -457.588E+03     1.78327E+06    -28.9010E-03     53.1876E-03    -24.2866E-03     54.3491E-03    -28.9418E-03     53.0539E-03    -24.2171E-03     54.2679E-03
            2047     10.5447E-03     21.8786E-03    -9.04583E+06    -50.3236E+06     585.492E+03     2.27178E+06    -28.1175E-03     52.1229E-03    -24.0055E-03     48.9884E-03    -28.1307E-03     51.9237E-03    -23.9164E-03     48.9373E-03
            2048     9.66900E-03     21.8318E-03    -9.55518E+06    -56.5018E+06     2.18807E+06     2.48351E+06    -27.3590E-03     51.0868E-03    -23.7278E-03     44.0897E-03    -27.3547E-03     50.8416E-03    -23.6210E-03     44.0600E-03
            2049     8.79249E-03     21.7897E-03    -10.9414E+06    -62.3681E+06     2.05495E+06     2.47894E+06    -26.5532E-03     50.0048E-03    -23.4516E-03     39.3870E-03    -26.5381E-03     49.7235E-03    -23.3350E-03     39.3720E-03
            2050     7.91535E-03     21.7519E-03    -12.6369E+06    -68.3812E+06     1.24670E+06     2.72171E+06    -25.7792E-03     48.9664E-03    -23.1872E-03     34.8179E-03    -25.7566E-03     48.6526E-03    -23.0635E-03     34.8175E-03
            2051     7.03771E-03     21.7187E-03    -14.5872E+06    -73.8112E+06    -1.02692E+06     3.14996E+06    -25.0505E-03     47.9820E-03    -22.9315E-03     30.4079E-03    -25.0225E-03     47.6431E-03    -22.8084E-03     30.4219E-03
            2052     6.15943E-03     21.6895E-03    -16.7320E+06    -77.0968E+06    -4.71062E+06     3.05088E+06    -24.3512E-03     47.0368E-03    -22.6857E-03     26.1565E-03    -24.3210E-03     46.6872E-03    -22.5732E-03     26.1761E-03
            2053     5.28064E-03     21.6647E-03    -18.6420E+06    -79.7125E+06    -8.68355E+06     3.01382E+06    -23.7156E-03     46.1764E-03    -22.4608E-03     22.0315E-03    -23.6836E-03     45.8204E-03    -22.3616E-03     22.0559E-03
            2054     4.40134E-03     21.6438E-03    -20.3893E+06    -81.8308E+06    -12.5346E+06     2.74336E+06    -23.1491E-03     45.4112E-03    -22.2621E-03     18.0790E-03    -23.1160E-03     45.0516E-03    -22.1766E-03     18.1038E-03
            2055     3.52164E-03     21.6271E-03    -22.0368E+06    -83.7432E+06    -16.3048E+06     2.18985E+06    -22.6675E-03     44.7607E-03    -22.0932E-03     14.2975E-03    -22.6336E-03     44.3986E-03    -22.0214E-03     14.3182E-03
            2056     2.64154E-03     21.6139E-03    -23.5935E+06    -86.1422E+06    -20.1357E+06     1.68488E+06    -22.2853E-03     44.2416E-03    -21.9563E-03     10.6336E-03    -22.2497E-03     43.8748E-03    -21.8978E-03     10.6503E-03
            2057     1.76120E-03     21.6047E-03    -24.7562E+06    -87.6069E+06    -23.0258E+06     1.17751E+06    -22.0053E-03     43.8603E-03    -21.8550E-03     7.10995E-03    -21.9689E-03     43.4918E-03    -21.8072E-03     7.12195E-03
            2058     880.641E-06     21.5989E-03    -25.4271E+06    -88.1855E+06    -25.0715E+06     640.383E+03    -21.8360E-03     43.6210E-03    -21.7850E-03     3.84591E-03    -21.7990E-03     43.2534E-03    -21.7456E-03     3.85251E-03
            2059     16.6578E-03     21.4189E-03    -3.42600E+06     148.654E+06     67.9530E+06     678.613E+03    -32.5710E-03     58.7360E-03    -26.1650E-03     64.9303E-03    -33.6729E-03     60.1564E-03    -26.0359E-03     64.9994E-03
            2060     15.7886E-03     21.2997E-03    -6.82580E+06     129.126E+06     16.2973E+06     710.439E+03    -34.2557E-03     59.8736E-03    -25.6179E-03     114.795E-03    -35.5947E-03     61.5995E-03    -25.7138E-03     114.685E-03
            2061     14.9170E-03     21.1977E-03    -8.91617E+06     74.4598E+06    -15.1942E+06     103.591E+03    -33.1139E-03     58.3042E-03    -25.1903E-03     94.7532E-03    -33.7840E-03     59.2511E-03    -25.3613E-03     94.4946E-03
            2062     14.0443E-03     21.1161E-03    -7.66381E+06     23.7507E+06    -10.3010E+06     1.24856E+06    -31.6827E-03     56.6244E-03    -24.9417E-03     76.9519E-03    -31.9917E-03     57.0204E-03    -25.0165E-03     76.7527E-03
            2063     13.1707E-03     21.0479E-03    -7.09137E+06    -11.4820E+06    -7.11902E+06     1.50990E+06    -30.8253E-03     55.4934E-03    -24.6681E-03     65.9010E-03    -30.9793E-03     55.6022E-03    -24.6768E-03     65.7481E-03
            2064     12.2974E-03     20.9863E-03    -7.32715E+06    -29.7307E+06    -2.70874E+06     1.97640E+06    -29.8953E-03     54.2726E-03    -24.3774E-03     59.0524E-03    -29.9763E-03     54.2300E-03    -24.3372E-03     58.9440E-03
            2065     11.4224E-03     20.9309E-03    -7.31124E+06    -40.9569E+06     241.415E+03     2.36261E+06    -29.0113E-03     53.0864E-03    -24.0751E-03     53.1364E-03    -29.0476E-03     52.9507E-03    -24.0039E-03     53.0639E-03
            2066     10.5474E-03     20.8805E-03    -8.01736E+06    -50.3608E+06     758.364E+03     2.06368E+06    -28.2288E-03     51.9913E-03    -23.7624E-03     47.7732E-03    -28.2357E-03     51.7887E-03    -23.6740E-03     47.7205E-03
            2067     9.67157E-03     20.8348E-03    -9.04735E+06    -56.7597E+06     2.01387E+06     2.48362E+06    -27.3742E-03     50.8284E-03    -23.4542E-03     42.8302E-03    -27.3656E-03     50.5804E-03    -23.3487E-03     42.8018E-03
            2068     8.79513E-03     20.7938E-03    -10.3110E+06    -61.9689E+06     2.25293E+06     2.94490E+06    -26.4936E-03     49.6452E-03    -23.1516E-03     38.1804E-03    -26.4754E-03     49.3639E-03    -23.0355E-03     38.1727E-03
            2069     7.91795E-03     20.7571E-03    -12.1833E+06    -68.5181E+06     1.16885E+06     3.23684E+06    -25.6663E-03     48.5273E-03    -22.8610E-03     33.6291E-03    -25.6406E-03     48.2117E-03    -22.7381E-03     33.6365E-03
            2070     7.04016E-03     20.7247E-03    -14.1557E+06    -73.5073E+06    -840.159E+03     3.52440E+06    -24.8709E-03     47.4523E-03    -22.5815E-03     29.2538E-03    -24.8409E-03     47.1136E-03    -22.4586E-03     29.2737E-03
            2071     6.16173E-03     20.6966E-03    -16.2058E+06    -76.1972E+06    -4.62211E+06     3.60915E+06    -24.1148E-03     46.4267E-03    -22.3119E-03     25.0883E-03    -24.0831E-03     46.0804E-03    -22.2011E-03     25.1159E-03
            2072     5.28271E-03     20.6725E-03    -18.2830E+06    -78.8150E+06    -8.76926E+06     3.21163E+06    -23.4213E-03     45.4881E-03    -22.0668E-03     21.0769E-03    -23.3885E-03     45.1360E-03    -21.9698E-03     21.1045E-03
            2073     4.40316E-03     20.6525E-03    -19.9271E+06    -80.5909E+06    -12.2516E+06     2.79125E+06    -22.8107E-03     44.6633E-03    -21.8526E-03     17.2514E-03    -22.7774E-03     44.3087E-03    -21.7681E-03     17.2775E-03
            2074     3.52311E-03     20.6361E-03    -21.4709E+06    -82.5413E+06    -15.8472E+06     2.42032E+06    -22.2929E-03     43.9629E-03    -21.6700E-03     13.6006E-03    -22.2585E-03     43.6053E-03    -21.5984E-03     13.6248E-03
            2075     2.64270E-03     20.6237E-03    -22.8864E+06    -84.7448E+06    -19.4289E+06     1.90859E+06    -21.8794E-03     43.4014E-03    -21.5220E-03     10.0951E-03    -21.8433E-03     43.0395E-03    -21.4630E-03     10.1149E-03
            2076     1.76197E-03     20.6147E-03    -24.0317E+06    -86.2513E+06    -22.4038E+06     1.28893E+06    -21.5758E-03     42.9870E-03    -21.4113E-03     6.74089E-03    -21.5386E-03     42.6233E-03    -21.3634E-03     6.75453E-03
            2077     881.050E-06     20.6093E-03    -24.8031E+06    -86.7426E+06    -24.3376E+06     769.569E+03    -21.3911E-03     42.7262E-03    -21.3351E-03     3.64256E-03    -21.3541E-03     42.3638E-03    -21.2950E-03     3.65094E-03
            2078     16.6617E-03     20.4136E-03    -4.85255E+06     147.406E+06     68.9493E+06     308.062E+03    -33.3138E-03     59.4610E-03    -26.1472E-03     63.8133E-03    -34.4066E-03     60.8599E-03    -26.0091E-03     63.8580E-03
            2079     15.7896E-03     20.2929E-03    -7.45626E+06     129.874E+06     16.6375E+06     947.266E+03    -34.6458E-03     60.2025E-03    -25.5567E-03     112.858E-03    -35.9637E-03     61.9067E-03    -25.6510E-03     112.735E-03
            2080     14.9186E-03     20.1949E-03    -7.10213E+06     74.6029E+06    -16.4192E+06     1.06949E+06    -33.4860E-03     58.5738E-03    -25.0878E-03     92.8140E-03    -34.1312E-03     59.5063E-03    -25.2678E-03     92.5612E-03
            2081     14.0459E-03     20.1135E-03    -7.75091E+06     22.8346E+06    -10.8108E+06     700.743E+03    -32.1461E-03     56.9575E-03    -24.8114E-03     75.6150E-03    -32.4480E-03     57.3443E-03    -24.8873E-03     75.4057E-03
            2082     13.1736E-03     20.0465E-03    -7.45443E+06    -11.0711E+06    -7.37197E+06     1.30756E+06    -31.0526E-03     55.5560E-03    -24.5034E-03     64.5787E-03    -31.2044E-03     55.6634E-03    -24.5134E-03     64.4236E-03
            2083     12.2993E-03     19.9864E-03    -6.88811E+06    -30.2128E+06    -3.33169E+06     1.50067E+06    -30.1159E-03     54.2965E-03    -24.1805E-03     57.7561E-03    -30.1903E-03     54.2489E-03    -24.1434E-03     57.6424E-03
            2084     11.4252E-03     19.9320E-03    -6.82225E+06    -40.6107E+06    -14.9849E+03     1.91851E+06    -29.2174E-03     53.0624E-03    -23.8450E-03     51.7875E-03    -29.2494E-03     52.9261E-03    -23.7763E-03     51.7102E-03
            2085     10.5501E-03     19.8825E-03    -7.43596E+06    -50.3277E+06     738.477E+03     2.53782E+06    -28.2932E-03     51.7944E-03    -23.5013E-03     46.3904E-03    -28.2954E-03     51.5896E-03    -23.4138E-03     46.3454E-03
            2086     9.67440E-03     19.8382E-03    -8.73640E+06    -57.1414E+06     1.81337E+06     2.66682E+06    -27.3562E-03     50.5211E-03    -23.1649E-03     41.4388E-03    -27.3440E-03     50.2698E-03    -23.0603E-03     41.4142E-03
            2087     8.79783E-03     19.7981E-03    -10.0497E+06    -62.0971E+06     2.19971E+06     3.27168E+06    -26.4497E-03     49.2841E-03    -22.8344E-03     36.8110E-03    -26.4290E-03     49.0009E-03    -22.7188E-03     36.8087E-03
            2088     7.92075E-03     19.7626E-03    -11.5721E+06    -68.2091E+06     1.29865E+06     3.78693E+06    -25.5536E-03     48.0682E-03    -22.5146E-03     32.3120E-03    -25.5247E-03     47.7524E-03    -22.3925E-03     32.3276E-03
            2089     7.04277E-03     19.7313E-03    -13.5395E+06    -73.2219E+06    -1.09169E+06     4.00283E+06    -24.6849E-03     46.8915E-03    -22.2067E-03     28.0004E-03    -24.6514E-03     46.5532E-03    -22.0863E-03     28.0275E-03
            2090     6.16419E-03     19.7041E-03    -15.4281E+06    -75.3088E+06    -4.30730E+06     4.01313E+06    -23.8640E-03     45.7789E-03    -21.9149E-03     23.9067E-03    -23.8298E-03     45.4351E-03    -21.8049E-03     23.9405E-03
            2091     5.28490E-03     19.6810E-03    -17.1756E+06    -77.3925E+06    -8.09612E+06     3.61022E+06    -23.1171E-03     44.7659E-03    -21.6488E-03     20.0110E-03    -23.0815E-03     44.4181E-03    -21.5522E-03     20.0445E-03
            2092     4.40506E-03     19.6617E-03    -19.0859E+06    -79.4610E+06    -11.8232E+06     3.02181E+06    -22.4574E-03     43.8724E-03    -21.4150E-03     16.3114E-03    -22.4219E-03     43.5214E-03    -21.3312E-03     16.3410E-03
            2093     3.52472E-03     19.6462E-03    -20.7227E+06    -81.2475E+06    -15.3372E+06     2.56506E+06    -21.8948E-03     43.1110E-03    -21.2163E-03     12.8129E-03    -21.8591E-03     42.7579E-03    -21.1451E-03     12.8394E-03
            2094     2.64392E-03     19.6341E-03    -22.0318E+06    -83.3066E+06    -18.8196E+06     2.06047E+06    -21.4440E-03     42.4994E-03    -21.0554E-03     9.48347E-03    -21.4065E-03     42.1425E-03    -20.9968E-03     9.50560E-03
            2095     1.76281E-03     19.6257E-03    -23.0858E+06    -84.7104E+06    -21.5437E+06     1.49040E+06    -21.1166E-03     42.0525E-03    -20.9360E-03     6.31999E-03    -21.0781E-03     41.6939E-03    -20.8874E-03     6.33644E-03
            2096     881.463E-06     19.6204E-03    -23.8130E+06    -85.1368E+06    -23.3646E+06     799.829E+03    -20.9191E-03     41.7674E-03    -20.8483E-03     3.40212E-03    -20.8809E-03     41.4102E-03    -20.8071E-03     3.41101E-03
            2097     16.6618E-03     19.4070E-03    -4.14465E+06     147.695E+06     69.4577E+06     712.188E+03    -34.3201E-03     60.4298E-03    -26.1096E-03     64.2017E-03    -35.4040E-03     61.8218E-03    -25.9705E-03     64.2329E-03
            2098     15.7912E-03     19.2887E-03    -6.62944E+06     129.675E+06     18.8210E+06     643.356E+03    -34.9084E-03     60.4008E-03    -25.4924E-03     112.448E-03    -36.2098E-03     62.0844E-03    -25.5767E-03     112.307E-03
            2099     14.9194E-03     19.1899E-03    -7.43415E+06     74.7394E+06    -15.1324E+06     1.14448E+06    -33.9120E-03     58.9054E-03    -24.9934E-03     91.1553E-03    -34.5474E-03     59.8237E-03    -25.1667E-03     90.8961E-03
            2100     14.0485E-03     19.1111E-03    -6.48822E+06     23.3317E+06    -10.6563E+06     1.16358E+06    -32.5478E-03     57.2205E-03    -24.6728E-03     74.0208E-03    -32.8377E-03     57.6012E-03    -24.7505E-03     73.8150E-03
            2101     13.1749E-03     19.0453E-03    -6.55361E+06    -11.4893E+06    -7.51584E+06     935.190E+03    -31.3193E-03     55.6502E-03    -24.3310E-03     63.1006E-03    -31.4613E-03     55.7500E-03    -24.3424E-03     62.9410E-03
            2102     12.3021E-03     18.9863E-03    -6.73325E+06    -30.1017E+06    -3.62514E+06     1.30567E+06    -30.4034E-03     54.3763E-03    -23.9729E-03     56.3248E-03    -30.4739E-03     54.3266E-03    -23.9377E-03     56.2091E-03
            2103     11.4280E-03     18.9329E-03    -7.46227E+06    -41.5154E+06    -684.539E+03     1.89865E+06    -29.4372E-03     53.0372E-03    -23.5999E-03     50.2431E-03    -29.4681E-03     52.8962E-03    -23.5323E-03     50.1664E-03
            2104     10.5531E-03     18.8850E-03    -8.07092E+06    -50.3668E+06     329.417E+03     2.54400E+06    -28.3514E-03     51.5727E-03    -23.2213E-03     44.8191E-03    -28.3544E-03     51.3674E-03    -23.1349E-03     44.7758E-03
            2105     9.67729E-03     18.8416E-03    -8.65986E+06    -57.0860E+06     1.64361E+06     2.98702E+06    -27.3638E-03     50.2173E-03    -22.8536E-03     39.9337E-03    -27.3496E-03     49.9650E-03    -22.7500E-03     39.9149E-03
            2106     8.80098E-03     18.8030E-03    -9.91594E+06    -62.4294E+06     1.85210E+06     3.43468E+06    -26.4034E-03     48.8941E-03    -22.4907E-03     35.2538E-03    -26.3801E-03     48.6086E-03    -22.3765E-03     35.2551E-03
            2107     7.92354E-03     18.7685E-03    -11.4022E+06    -68.2184E+06     996.421E+03     4.12496E+06    -25.4311E-03     47.5704E-03    -22.1393E-03     30.7745E-03    -25.4002E-03     47.2539E-03    -22.0188E-03     30.7959E-03
            2108     7.04563E-03     18.7384E-03    -12.9770E+06    -72.5837E+06    -989.399E+03     4.44777E+06    -24.4967E-03     46.2986E-03    -21.8019E-03     26.5127E-03    -24.4609E-03     45.9619E-03    -21.6828E-03     26.5467E-03
            2109     6.16676E-03     18.7124E-03    -14.6592E+06     -74.271E+06    -4.14467E+06     4.18871E+06    -23.6071E-03     45.0885E-03    -21.4813E-03     22.5153E-03    -23.5704E-03     44.7481E-03    -21.3731E-03     22.5524E-03
            2110     5.28731E-03     18.6902E-03    -16.2816E+06    -76.1614E+06    -7.74040E+06     3.91172E+06    -22.7978E-03     43.9875E-03    -21.1897E-03     18.7296E-03    -22.7598E-03     43.6438E-03    -21.0943E-03     18.7679E-03
            2111     4.40716E-03     18.6719E-03    -17.8574E+06    -77.9825E+06    -11.3050E+06     3.49433E+06    -22.0756E-03     43.0084E-03    -20.9328E-03     15.1859E-03    -22.0367E-03     42.6621E-03    -20.8504E-03     15.2223E-03
            2112     3.52645E-03     18.6570E-03    -19.5305E+06    -79.8849E+06    -14.8156E+06     2.87498E+06    -21.4592E-03     42.1745E-03    -20.7153E-03     11.8711E-03    -21.4202E-03     41.8256E-03    -20.6453E-03     11.9022E-03
            2113     2.64527E-03     18.6457E-03    -21.0016E+06    -81.7831E+06    -18.1393E+06     2.34722E+06    -20.9677E-03     41.5078E-03    -20.5401E-03     8.75445E-03    -20.9282E-03     41.1560E-03    -20.4818E-03     8.78065E-03
            2114     1.76372E-03     18.6375E-03    -22.0862E+06    -82.9874E+06    -20.6765E+06     1.66667E+06    -20.6070E-03     41.0173E-03    -20.4103E-03     5.81763E-03    -20.5673E-03     40.6645E-03    -20.3613E-03     5.83660E-03
            2115     881.941E-06     18.6327E-03    -22.7539E+06    -83.2873E+06    -22.4568E+06     946.168E+03    -20.3932E-03     40.7079E-03    -20.3147E-03     3.12763E-03    -20.3537E-03     40.3571E-03    -20.2732E-03     3.13852E-03
            2116     16.6617E-03     18.4012E-03    -4.11172E+06     147.170E+06     70.0112E+06     288.650E+03    -35.0818E-03     61.1914E-03    -26.1097E-03     63.5601E-03    -36.1552E-03     62.5697E-03    -25.9670E-03     63.5554E-03
            2117     15.7914E-03     18.2816E-03    -5.87567E+06     128.403E+06     20.7997E+06     845.233E+03    -35.9819E-03     61.4285E-03    -25.4466E-03     111.087E-03    -37.2635E-03     63.0847E-03    -25.5202E-03     110.913E-03
            2118     14.9221E-03     18.1861E-03    -5.93081E+06     74.6811E+06    -13.1960E+06     1.36324E+06    -34.4862E-03     59.3760E-03    -24.8898E-03     89.2519E-03    -35.1031E-03     60.2753E-03    -25.0555E-03     88.9859E-03
            2119     14.0495E-03     18.1077E-03    -6.30186E+06     24.1792E+06    -10.6282E+06     1.24183E+06    -32.9497E-03     57.4684E-03    -24.5187E-03     71.9331E-03    -33.2308E-03     57.8438E-03    -24.5978E-03     71.7268E-03
            2120     13.1783E-03     18.0440E-03    -6.30311E+06    -11.3727E+06    -7.69188E+06     1.15795E+06    -31.6859E-03     55.8228E-03    -24.1369E-03     61.1118E-03    -31.8214E-03     55.9180E-03    -24.1497E-03     60.9548E-03
            2121     12.3046E-03     17.9859E-03    -6.75258E+06    -30.7458E+06    -4.05968E+06     1.60304E+06    -30.5991E-03     54.3409E-03    -23.7418E-03     54.6227E-03    -30.6645E-03     54.2850E-03    -23.7078E-03     54.5122E-03
            2122     11.4309E-03     17.9339E-03    -7.18210E+06    -41.8119E+06    -909.848E+03     2.11788E+06    -29.5699E-03     52.9054E-03    -23.3355E-03     48.5057E-03    -29.5959E-03     52.7602E-03    -23.2690E-03     48.4336E-03
            2123     10.5562E-03     17.8876E-03    -7.86533E+06    -50.6227E+06     153.341E+03     2.62124E+06    -28.5131E-03     51.4328E-03    -22.9197E-03     43.0719E-03    -28.5125E-03     51.2242E-03    -22.8341E-03     43.0312E-03
            2124     9.68067E-03     17.8455E-03    -8.83402E+06    -57.0657E+06     1.36969E+06     3.00675E+06    -27.4214E-03     49.9326E-03    -22.5112E-03     38.1904E-03    -27.4062E-03     49.6796E-03    -22.4088E-03     38.1736E-03
            2125     8.80409E-03     17.8081E-03    -9.75827E+06    -62.8135E+06     1.69471E+06     3.55981E+06    -26.3720E-03     48.4824E-03    -22.1104E-03     33.4355E-03    -26.3458E-03     48.1937E-03    -21.9967E-03     33.4402E-03
            2126     7.92702E-03     17.7750E-03    -11.0586E+06    -68.3350E+06     977.458E+03     4.31045E+06    -25.3255E-03     47.0468E-03    -21.7213E-03     28.9602E-03    -25.2918E-03     46.7284E-03    -21.6013E-03     28.9856E-03
            2127     7.04871E-03     17.7462E-03    -12.4947E+06    -71.7604E+06    -1.09288E+06     4.56299E+06    -24.2998E-03     45.6455E-03    -21.3457E-03     24.7622E-03    -24.2620E-03     45.3118E-03    -21.2290E-03     24.7991E-03
            2128     6.16984E-03     17.7213E-03    -14.0466E+06    -73.2246E+06    -4.46474E+06     4.47711E+06    -23.3359E-03     44.3253E-03    -20.9894E-03     20.8590E-03    -23.2967E-03     43.9893E-03    -20.8852E-03     20.9010E-03
            2129     5.29002E-03     17.7002E-03    -15.7151E+06    -74.9843E+06    -8.14269E+06     4.19734E+06    -22.4384E-03     43.1045E-03    -20.6661E-03     17.2308E-03    -22.3984E-03     42.7661E-03    -20.5753E-03     17.2738E-03
            2130     4.40957E-03     17.6828E-03    -17.2117E+06    -76.5191E+06    -11.3370E+06     3.80096E+06    -21.6419E-03     42.0259E-03    -20.3840E-03     13.8761E-03    -21.6017E-03     41.6859E-03    -20.3048E-03     13.9172E-03
            2131     3.52845E-03     17.6689E-03    -18.5950E+06    -78.3591E+06    -14.4219E+06     3.39044E+06    -20.9671E-03     41.1130E-03    -20.1460E-03     10.7791E-03    -20.9261E-03     40.7697E-03    -20.0775E-03     10.8173E-03
            2132     2.64682E-03     17.6581E-03    -19.9123E+06    -80.0146E+06    -17.4433E+06     2.73121E+06    -20.4253E-03     40.3793E-03    -19.9540E-03     7.90897E-03    -20.3839E-03     40.0337E-03    -19.8963E-03     7.94052E-03
            2133     1.76479E-03     17.6506E-03    -20.9285E+06    -81.0194E+06    -19.7535E+06     1.93230E+06    -20.0270E-03     39.8400E-03    -19.8130E-03     5.23966E-03    -19.9857E-03     39.4940E-03    -19.7639E-03     5.26231E-03
            2134     882.453E-06     17.6459E-03    -21.6247E+06    -81.1830E+06    -21.2491E+06     1.09135E+06    -19.7867E-03     39.5057E-03    -19.7190E-03     2.81559E-03    -19.7463E-03     39.1620E-03    -19.6762E-03     2.82849E-03
            2135     16.6608E-03     17.3913E-03    -3.39780E+06     147.249E+06     69.5073E+06     122.658E+03    -36.0321E-03     62.1119E-03    -26.0798E-03     62.1178E-03    -37.0838E-03     63.4728E-03    -25.9409E-03     62.0825E-03
            2136     15.7934E-03     17.2750E-03    -7.05164E+06     126.576E+06     18.8227E+06     173.746E+03    -36.7390E-03     62.1002E-03    -25.3612E-03     108.503E-03    -37.9909E-03     63.7219E-03    -25.4404E-03     108.291E-03
            2137     14.9228E-03     17.1804E-03    -7.71782E+06      74.663E+06    -14.2728E+06     1.11217E+06    -35.1128E-03     59.8685E-03    -24.7557E-03     86.7465E-03    -35.7185E-03     60.7534E-03    -24.9241E-03     86.4673E-03
            2138     14.0534E-03     17.1048E-03    -6.68098E+06     25.0984E+06    -10.8069E+06     1.05882E+06    -33.3969E-03     57.7356E-03    -24.3387E-03     69.7485E-03    -33.6714E-03     58.1070E-03    -24.4194E-03     69.5380E-03
            2139     13.1804E-03     17.0421E-03    -6.33212E+06    -11.8638E+06    -8.04429E+06     1.31578E+06    -32.0188E-03     55.9344E-03    -23.9156E-03     59.1822E-03    -32.1474E-03     56.0218E-03    -23.9295E-03     59.0279E-03
            2140     12.3083E-03     16.9859E-03    -6.58094E+06    -31.0585E+06    -4.33896E+06     1.99214E+06    -30.8225E-03     54.3039E-03    -23.4814E-03     52.6743E-03    -30.8820E-03     54.2424E-03    -23.4485E-03     52.5706E-03
            2141     11.4341E-03     16.9352E-03    -7.36343E+06    -42.0917E+06    -1.18317E+06     2.36309E+06    -29.7140E-03     52.7519E-03    -23.0379E-03     46.5667E-03    -29.7369E-03     52.6027E-03    -22.9721E-03     46.5002E-03
            2142     10.5597E-03     16.8900E-03    -7.89479E+06    -50.7063E+06     20.6103E+03     2.53808E+06    -28.6975E-03     51.2775E-03    -22.5800E-03     40.9388E-03    -28.6944E-03     51.0664E-03    -22.4950E-03     40.8989E-03
            2143     9.68434E-03     16.8497E-03    -8.35482E+06    -57.0691E+06     1.58382E+06     2.92328E+06    -27.5492E-03     49.6728E-03    -22.1236E-03     36.0091E-03    -27.5302E-03     49.4170E-03    -22.0208E-03     35.9931E-03
            2144     8.80808E-03     16.8136E-03    -9.42032E+06    -63.2013E+06     1.57713E+06     3.67572E+06    -26.3612E-03     48.0350E-03    -21.6738E-03     31.2937E-03    -26.3313E-03     47.7428E-03    -21.5606E-03     31.3019E-03
            2145     7.93059E-03     16.7820E-03    -10.6804E+06    -68.4264E+06     645.567E+03     4.32393E+06    -25.2190E-03     46.4567E-03    -21.2377E-03     26.8055E-03    -25.1817E-03     46.1368E-03    -21.1198E-03     26.8328E-03
            2146     7.05251E-03     16.7545E-03    -12.0662E+06    -70.9784E+06    -1.53430E+06     4.72166E+06    -24.0853E-03     44.9022E-03    -20.8168E-03     22.7072E-03    -24.0452E-03     44.5717E-03    -20.7041E-03     22.7477E-03
            2147     6.17320E-03     16.7310E-03    -13.4398E+06    -72.3398E+06    -4.89775E+06     4.68810E+06    -23.0052E-03     43.4264E-03    -20.4212E-03     18.9505E-03    -22.9632E-03     43.0941E-03    -20.3213E-03     18.9965E-03
            2148     5.29323E-03     16.7111E-03    -14.6732E+06    -73.7018E+06    -7.92441E+06     4.52100E+06    -22.0145E-03     42.0810E-03    -20.0665E-03     15.5223E-03    -21.9711E-03     41.7469E-03    -19.9780E-03     15.5704E-03
            2149     4.41231E-03     16.6949E-03    -16.0790E+06    -75.1653E+06    -10.9338E+06     4.21090E+06    -21.1353E-03     40.8923E-03    -19.7569E-03     12.4151E-03    -21.0918E-03     40.5566E-03    -19.6793E-03     12.4622E-03
            2150     3.53076E-03     16.6817E-03    -17.4285E+06    -76.7096E+06    -13.8107E+06     3.76216E+06    -20.3955E-03     39.8920E-03    -19.4966E-03     9.58585E-03    -20.3519E-03     39.5543E-03    -19.4291E-03     9.62944E-03
            2151     2.64860E-03     16.6719E-03    -18.5196E+06    -77.9775E+06    -16.3957E+06     3.12867E+06    -19.8029E-03     39.0911E-03    -19.2882E-03     6.99847E-03    -19.7589E-03     38.7521E-03    -19.2303E-03     7.03553E-03
            2152     1.76598E-03     16.6647E-03    -19.4509E+06    -78.7458E+06    -18.3823E+06     2.21778E+06    -19.3693E-03     38.5049E-03    -19.1356E-03     4.61936E-03    -19.3259E-03     38.1661E-03    -19.0851E-03     4.64594E-03
            2153     883.086E-06     16.6606E-03    -20.0550E+06    -78.8061E+06    -19.7780E+06     1.20837E+06    -19.1121E-03     38.1410E-03    -19.0289E-03     2.47526E-03    -19.0695E-03     37.8048E-03    -18.9844E-03     2.48981E-03
            2154     16.6645E-03     16.3832E-03    -3.50470E+06     146.648E+06     69.0238E+06     849.389E+03    -37.0635E-03     63.0845E-03    -26.0210E-03     61.1194E-03    -38.0930E-03     64.4221E-03    -25.8834E-03     61.0648E-03
            2155     15.7943E-03     16.2671E-03    -7.29539E+06     127.080E+06     16.5202E+06     1.33403E+06    -37.3852E-03     62.6253E-03    -25.2401E-03     106.463E-03    -38.6000E-03     64.2174E-03    -25.3311E-03     106.241E-03
            2156     14.9266E-03     16.1748E-03    -8.27425E+06     74.8871E+06    -16.4492E+06     244.255E+03    -35.6154E-03     60.2067E-03    -24.5913E-03     84.2366E-03    -36.1991E-03     61.0747E-03    -24.7702E-03     83.9398E-03
            2157     14.0548E-03     16.1013E-03    -7.52351E+06     24.7790E+06    -11.4888E+06     587.250E+03    -33.8031E-03     57.9433E-03    -24.1402E-03     67.5450E-03    -34.0695E-03     58.3044E-03    -24.2227E-03     67.3282E-03
            2158     13.1845E-03     16.0402E-03    -7.23110E+06    -12.2740E+06    -8.90897E+06     1.31008E+06    -32.4174E-03     56.0898E-03    -23.6724E-03     57.2135E-03    -32.5421E-03     56.1712E-03    -23.6887E-03     57.0601E-03
            2159     12.3113E-03     15.9858E-03    -7.10452E+06    -31.7624E+06    -4.94292E+06     1.85783E+06    -31.2908E-03     54.4781E-03    -23.1873E-03     50.5081E-03    -31.3464E-03     54.4102E-03    -23.1557E-03     50.4037E-03
            2160     11.4383E-03     15.9365E-03    -6.86034E+06    -41.7898E+06    -948.111E+03     2.34110E+06    -30.0847E-03     52.7711E-03    -22.6864E-03     44.1344E-03    -30.1022E-03     52.6188E-03    -22.6206E-03     44.0695E-03
            2161     10.5639E-03     15.8928E-03    -7.11782E+06    -50.6736E+06     248.211E+03     2.35887E+06    -28.8542E-03     51.0274E-03    -22.1733E-03     38.4004E-03    -28.8447E-03     50.8122E-03    -22.0883E-03     38.3608E-03
            2162     9.68876E-03     15.8539E-03    -7.95840E+06    -57.5856E+06     1.47726E+06     2.92551E+06    -27.6686E-03     49.3313E-03    -21.6627E-03     33.3705E-03    -27.6446E-03     49.0704E-03    -21.5603E-03     33.3568E-03
            2163     8.81242E-03     15.8197E-03    -8.97748E+06    -63.5838E+06     1.68315E+06     3.76952E+06    -26.3883E-03     47.5444E-03    -21.1561E-03     28.6354E-03    -26.3543E-03     47.2480E-03    -21.0425E-03     28.6470E-03
            2164     7.93528E-03     15.7895E-03    -10.2245E+06    -68.3554E+06     438.656E+03     4.46914E+06    -25.0650E-03     45.7285E-03    -20.6635E-03     24.2122E-03    -25.0242E-03     45.4075E-03    -20.5474E-03     24.2435E-03
            2165     7.05673E-03     15.7638E-03    -11.5055E+06    -70.3869E+06    -1.68259E+06     4.73787E+06    -23.7866E-03     43.9817E-03    -20.1951E-03     20.2645E-03    -23.7436E-03     43.6529E-03    -20.0848E-03     20.3070E-03
            2166     6.17738E-03     15.7416E-03    -12.5903E+06    -71.3329E+06    -4.63245E+06     4.72900E+06    -22.5725E-03     42.3337E-03    -19.7612E-03     16.7534E-03    -22.5276E-03     42.0043E-03    -19.6627E-03     16.8013E-03
            2167     5.29681E-03     15.7232E-03    -13.7170E+06    -72.6895E+06    -7.59162E+06     4.67271E+06    -21.4753E-03     40.8507E-03    -19.3754E-03     13.6126E-03    -21.4289E-03     40.5195E-03    -19.2880E-03     13.6637E-03
            2168     4.41551E-03     15.7080E-03    -14.7982E+06    -73.7512E+06    -10.1631E+06     4.58586E+06    -20.5201E-03     39.5626E-03    -19.0426E-03     10.8184E-03    -20.4732E-03     39.2309E-03    -18.9650E-03     10.8712E-03
            2169     3.53334E-03     15.6960E-03    -15.9142E+06    -74.9052E+06    -12.8403E+06     4.14992E+06    -19.7195E-03     38.4836E-03    -18.7641E-03     8.31197E-03    -19.6723E-03     38.1512E-03    -18.6966E-03     8.36112E-03
            2170     2.65058E-03     15.6868E-03    -16.9227E+06    -75.7757E+06    -15.0515E+06     3.42596E+06    -19.0901E-03     37.6340E-03    -18.5438E-03     6.04701E-03    -19.0433E-03     37.3016E-03    -18.4847E-03     6.08828E-03
            2171     1.76734E-03     15.6805E-03    -17.6768E+06    -76.1780E+06    -16.7633E+06     2.47901E+06    -18.6325E-03     37.0143E-03    -18.3818E-03     3.98085E-03    -18.5863E-03     36.6834E-03    -18.3295E-03     4.01103E-03
            2172     883.744E-06     15.6764E-03    -18.2494E+06    -76.1603E+06    -18.0487E+06     1.40019E+06    -18.3741E-03     36.6252E-03    -18.2511E-03     2.13520E-03    -18.3288E-03     36.2970E-03    -18.2044E-03     2.15234E-03
            2173     16.6623E-03     15.3727E-03    -4.31755E+06     145.698E+06     70.0386E+06     981.343E+03    -38.1368E-03     64.1181E-03    -25.9812E-03     60.2429E-03    -39.1483E-03     65.4284E-03    -25.8360E-03     60.1574E-03
            2174     15.7975E-03     15.2585E-03    -6.93541E+06     128.279E+06     16.9877E+06     1.23820E+06    -38.2480E-03     63.3826E-03    -25.1346E-03     104.650E-03    -39.4295E-03     64.9458E-03    -25.2257E-03     104.397E-03
            2175     14.9275E-03     15.1691E-03    -7.32996E+06     75.9346E+06    -17.8118E+06     800.418E+03    -36.3095E-03     60.7301E-03    -24.4206E-03     81.8454E-03    -36.8673E-03     61.5833E-03    -24.6092E-03     81.5471E-03
            2176     14.0591E-03     15.0972E-03    -7.60903E+06     24.0342E+06    -11.9946E+06     589.528E+03    -34.4407E-03     58.3626E-03    -23.9219E-03     64.9889E-03    -34.6934E-03     58.7086E-03    -24.0057E-03     64.7706E-03
            2177     13.1869E-03     15.0385E-03    -7.59655E+06    -12.5441E+06    -9.42265E+06     1.16434E+06    -33.0577E-03     56.4500E-03    -23.3923E-03     54.6861E-03    -33.1760E-03     56.5242E-03    -23.4102E-03     54.5305E-03
            2178     12.3159E-03     14.9848E-03    -7.22954E+06    -32.0379E+06    -5.87692E+06     1.28034E+06    -31.9273E-03     54.7620E-03    -22.8347E-03     47.8223E-03    -31.9767E-03     54.6891E-03    -22.8072E-03     47.7113E-03
            2179     11.4431E-03     14.9378E-03    -6.69668E+06    -42.0525E+06    -1.54940E+06     1.68636E+06    -30.5760E-03     52.8364E-03    -22.2604E-03     41.1941E-03    -30.5875E-03     52.6794E-03    -22.1974E-03     41.1227E-03
            2180     10.5692E-03     14.8959E-03    -6.92155E+06    -50.7428E+06     398.256E+03     2.53950E+06    -29.1496E-03     50.8277E-03    -21.6781E-03     35.4851E-03    -29.1363E-03     50.6087E-03    -21.5925E-03     35.4505E-03
            2181     9.69403E-03     14.8587E-03    -7.88353E+06    -58.1613E+06     1.52792E+06     3.04082E+06    -27.7912E-03     48.8904E-03    -21.0992E-03     30.2621E-03    -27.7638E-03     48.6243E-03    -20.9958E-03     30.2527E-03
            2182     8.81815E-03     14.8260E-03    -8.95573E+06    -64.1180E+06     1.98319E+06     3.82471E+06    -26.3315E-03     46.8609E-03    -20.5294E-03     25.4349E-03    -26.2955E-03     46.5598E-03    -20.4135E-03     25.4496E-03
            2183     7.94060E-03     14.7981E-03    -10.1178E+06    -68.1404E+06     632.715E+03     4.54356E+06    -24.8042E-03     44.7825E-03    -19.9783E-03     21.2597E-03    -24.7624E-03     44.4612E-03    -19.8617E-03     21.2941E-03
            2184     7.06205E-03     14.7738E-03    -11.2124E+06    -69.5856E+06    -1.68975E+06     4.59862E+06    -23.3476E-03     42.8096E-03    -19.4619E-03     17.5632E-03    -23.3036E-03     42.4836E-03    -19.3532E-03     17.6057E-03
            2185     6.18204E-03     14.7536E-03    -12.2125E+06      -70.54E+06    -4.37871E+06     4.55526E+06    -22.0009E-03     40.9945E-03    -18.9936E-03     14.3412E-03    -21.9552E-03     40.6677E-03    -18.8955E-03     14.3883E-03
            2186     5.30110E-03     14.7365E-03    -13.0206E+06    -71.7610E+06    -7.29344E+06     4.64458E+06    -20.7985E-03     39.3793E-03    -18.5808E-03     11.5414E-03    -20.7501E-03     39.0510E-03    -18.4943E-03     11.5933E-03
            2187     4.41904E-03     14.7227E-03    -13.7832E+06    -72.4855E+06    -9.50619E+06     4.60673E+06    -19.7712E-03     38.0020E-03    -18.2307E-03     9.09472E-03    -19.7219E-03     37.6739E-03    -18.1532E-03     9.14857E-03
            2188     3.53625E-03     14.7117E-03    -14.4624E+06    -73.0035E+06    -11.4451E+06     4.31196E+06    -18.9292E-03     36.8718E-03    -17.9426E-03     6.93839E-03    -18.8794E-03     36.5447E-03    -17.8730E-03     6.99018E-03
            2189     2.65276E-03     14.7034E-03    -15.0956E+06    -73.4501E+06    -13.5120E+06     3.61118E+06    -18.2725E-03     35.9875E-03    -17.7150E-03     5.02458E-03    -18.2221E-03     35.6619E-03    -17.6542E-03     5.06861E-03
            2190     1.76878E-03     14.6975E-03    -15.6645E+06    -73.5024E+06    -14.9001E+06     2.67239E+06    -17.8073E-03     35.3571E-03    -17.5497E-03     3.30036E-03    -17.7576E-03     35.0339E-03    -17.4949E-03     3.33326E-03
            2191     884.501E-06     14.6941E-03    -16.0749E+06    -73.1656E+06    -15.9213E+06     1.58919E+06    -17.5367E-03     34.9584E-03    -17.4216E-03     1.76163E-03    -17.4880E-03     34.6390E-03    -17.3719E-03     1.78132E-03
            2192     16.6661E-03     14.3617E-03    -4.46351E+06     145.218E+06     69.7174E+06     1.05430E+06    -39.4697E-03     65.4215E-03    -25.9518E-03     59.3237E-03    -40.4628E-03     66.7121E-03    -25.8073E-03     59.1988E-03
            2193     15.7971E-03     14.2494E-03    -6.11567E+06     128.625E+06     18.1772E+06     1.00268E+06    -39.6277E-03     64.6572E-03    -25.0295E-03     101.666E-03    -40.7726E-03     66.1845E-03    -25.1162E-03     101.365E-03
            2194     14.9315E-03     14.1619E-03    -6.42676E+06     76.3085E+06    -16.1486E+06     1.19875E+06    -37.3624E-03     61.5956E-03    -24.2332E-03     77.9433E-03    -37.8931E-03     62.4214E-03    -24.4153E-03     77.6353E-03
            2195     14.0613E-03     14.0931E-03    -6.39151E+06     24.2067E+06    -11.0475E+06     1.44972E+06    -35.3200E-03     58.9715E-03    -23.6515E-03     61.3753E-03    -35.5546E-03     59.3015E-03    -23.7326E-03     61.1646E-03
            2196     13.1925E-03     14.0356E-03    -6.73645E+06    -12.1069E+06    -8.89924E+06     1.09020E+06    -33.8421E-03     56.8826E-03    -23.0405E-03     51.4703E-03    -33.9495E-03     56.9491E-03    -23.0577E-03     51.3130E-03
            2197     12.3209E-03     13.9841E-03    -6.78004E+06    -31.9264E+06    -5.60333E+06     1.11176E+06    -32.4968E-03     54.9011E-03    -22.4043E-03     44.6372E-03    -32.5386E-03     54.8219E-03    -22.3762E-03     44.5258E-03
            2198     11.4488E-03     13.9387E-03    -7.41426E+06    -43.0286E+06    -1.78382E+06     1.56500E+06    -31.1025E-03     52.8526E-03    -21.7501E-03     37.8787E-03    -31.1115E-03     52.6879E-03    -21.6859E-03     37.8081E-03
            2199     10.5754E-03     13.8992E-03    -7.92846E+06    -51.0173E+06     461.414E+03     2.24426E+06    -29.6104E-03     50.6899E-03    -21.0795E-03     32.0053E-03    -29.5988E-03     50.4679E-03    -20.9917E-03     31.9692E-03
            2200     9.70103E-03     13.8636E-03    -8.25469E+06    -58.5511E+06     1.92442E+06     3.07308E+06    -27.8804E-03     48.2973E-03    -20.4169E-03     26.7336E-03    -27.8527E-03     48.0270E-03    -20.3104E-03     26.7275E-03
            2201     8.82467E-03     13.8336E-03    -9.22469E+06    -64.6940E+06     2.37601E+06     3.89581E+06    -26.1071E-03     45.8878E-03    -19.7807E-03     22.0187E-03    -26.0706E-03     45.5820E-03    -19.6616E-03     22.0372E-03
            2202     7.94718E-03     13.8074E-03    -10.3584E+06    -67.7345E+06     797.322E+03     4.36030E+06    -24.4048E-03     43.5784E-03    -19.1736E-03     18.0589E-03    -24.3641E-03     43.2581E-03    -19.0563E-03     18.0933E-03
            2203     7.06795E-03     13.7854E-03    -11.3099E+06    -68.6993E+06    -1.58853E+06     4.33059E+06    -22.7848E-03     41.3961E-03    -18.6114E-03     14.6455E-03    -22.7420E-03     41.0740E-03    -18.5033E-03     14.6864E-03
            2204     6.18759E-03     13.7667E-03    -12.1949E+06    -69.8558E+06    -3.83629E+06     4.25164E+06    -21.3109E-03     39.4207E-03    -18.1098E-03     11.7021E-03    -21.2665E-03     39.0962E-03    -18.0100E-03     11.7467E-03
            2205     5.30584E-03     13.7515E-03    -12.9635E+06    -70.8972E+06    -6.50687E+06     4.25236E+06    -20.0068E-03     37.6775E-03    -17.6707E-03     9.22628E-03    -19.9603E-03     37.3521E-03    -17.5816E-03     9.27411E-03
            2206     4.42315E-03     13.7389E-03    -13.2867E+06    -71.2104E+06    -8.72481E+06     4.08909E+06    -18.9026E-03     36.2029E-03    -17.3004E-03     7.14582E-03    -18.8536E-03     35.8793E-03    -17.2215E-03     7.19375E-03
            2207     3.53951E-03     13.7292E-03    -13.3471E+06    -71.4525E+06    -10.4271E+06     3.86170E+06    -18.0112E-03     35.0121E-03    -17.0009E-03     5.36015E-03    -17.9595E-03     34.6895E-03    -16.9301E-03     5.40668E-03
            2208     2.65524E-03     13.7216E-03    -13.4311E+06    -71.1809E+06    -11.7916E+06     3.46756E+06    -17.3286E-03     34.0990E-03    -16.7704E-03     3.84489E-03    -17.2756E-03     33.7798E-03    -16.7067E-03     3.88745E-03
            2209     1.77043E-03     13.7165E-03    -13.5717E+06    -70.8317E+06    -12.6798E+06     2.56022E+06    -16.8546E-03     33.4621E-03    -16.6075E-03     2.52370E-03    -16.8015E-03     33.1460E-03    -16.5485E-03     2.55540E-03
            2210     885.306E-06     13.7131E-03    -13.6085E+06    -70.1025E+06    -13.2733E+06     1.46309E+06    -16.5781E-03     33.0782E-03    -16.5001E-03     1.32860E-03    -16.5253E-03     32.7667E-03    -16.4451E-03     1.34679E-03
            2211     16.6621E-03     13.3478E-03    -4.48360E+06     144.934E+06     70.1617E+06     161.714E+03    -41.1955E-03     67.0912E-03    -25.8957E-03     57.4377E-03    -42.1674E-03     68.3583E-03    -25.7486E-03     57.2481E-03
            2212     15.8017E-03     13.2379E-03    -5.43954E+06     127.772E+06     19.2759E+06     460.830E+03    -41.2183E-03     66.0909E-03    -24.8726E-03     96.8563E-03    -42.3160E-03     67.5673E-03    -24.9536E-03     96.4954E-03
            2213     14.9345E-03     13.1545E-03    -6.00811E+06     75.7452E+06    -15.7550E+06     2.03600E+06    -38.4682E-03     62.4434E-03    -23.9752E-03     73.8646E-03    -38.9685E-03     63.2372E-03    -24.1551E-03     73.5537E-03
            2214     14.0680E-03     13.0878E-03    -6.33281E+06     25.3067E+06    -10.3210E+06     1.91440E+06    -36.3275E-03     59.6318E-03    -23.3043E-03     57.7902E-03    -36.5510E-03     59.9528E-03    -23.3835E-03     57.5814E-03
            2215     13.1976E-03     13.0328E-03    -6.04117E+06    -11.3780E+06    -7.92682E+06     1.37117E+06    -34.6539E-03     57.2589E-03    -22.6050E-03     48.1754E-03    -34.7516E-03     57.3179E-03    -22.6194E-03     48.0220E-03
            2216     12.3276E-03     12.9831E-03    -6.54422E+06    -32.0979E+06    -5.02604E+06     1.49882E+06    -33.1844E-03     55.0633E-03    -21.8789E-03     41.0355E-03    -33.2194E-03     54.9758E-03    -21.8480E-03     40.9312E-03
            2217     11.4558E-03     12.9400E-03    -7.23827E+06    -43.1029E+06    -1.04736E+06     1.74146E+06    -31.6493E-03     52.7813E-03    -21.1320E-03     34.1779E-03    -31.6539E-03     52.6105E-03    -21.0643E-03     34.1126E-03
            2218     10.5833E-03     12.9019E-03    -7.90096E+06    -51.6720E+06     979.579E+03     2.07405E+06    -29.9124E-03     50.2816E-03    -20.3692E-03     28.1469E-03    -29.8975E-03     50.0525E-03    -20.2779E-03     28.1117E-03
            2219     9.70870E-03     12.8699E-03    -8.93323E+06    -59.1982E+06     2.38126E+06     2.99947E+06    -27.8483E-03     47.4737E-03    -19.6254E-03     22.9484E-03    -27.8215E-03     47.1983E-03    -19.5147E-03     22.9447E-03
            2220     8.83254E-03     12.8417E-03    -10.0379E+06    -65.0606E+06     2.58804E+06     3.88195E+06    -25.7881E-03     44.7095E-03    -18.9213E-03     18.5507E-03    -25.7540E-03     44.4013E-03    -18.7995E-03     18.5720E-03
            2221     7.95441E-03     12.8183E-03    -11.0974E+06    -67.1119E+06     1.23794E+06     4.03097E+06    -23.8985E-03     42.1582E-03    -18.2597E-03     14.7832E-03    -23.8620E-03     41.8406E-03    -18.1401E-03     14.8157E-03
            2222     7.07494E-03     12.7982E-03    -12.0086E+06    -67.8321E+06    -982.601E+03     3.77346E+06    -22.1344E-03     39.7861E-03    -17.6517E-03     11.6431E-03    -22.0967E-03     39.4678E-03    -17.5408E-03     11.6786E-03
            2223     6.19381E-03     12.7818E-03    -12.6967E+06    -69.2092E+06    -3.07970E+06     3.64278E+06    -20.5331E-03     37.6450E-03    -17.1119E-03     9.01688E-03    -20.4929E-03     37.3230E-03    -17.0085E-03     9.05488E-03
            2224     5.31150E-03     12.7681E-03    -13.1666E+06    -69.8437E+06    -5.28275E+06     3.42308E+06    -19.1270E-03     35.7692E-03    -16.6422E-03     6.89481E-03    -19.0845E-03     35.4474E-03    -16.5483E-03     6.93283E-03
            2225     4.42792E-03     12.7572E-03    -13.4101E+06    -70.0824E+06    -7.80377E+06     3.04914E+06    -17.9321E-03     34.1781E-03    -16.2459E-03     5.20304E-03    -17.8866E-03     33.8587E-03    -16.1639E-03     5.23818E-03
            2226     3.54345E-03     12.7484E-03    -13.2749E+06    -70.2148E+06    -9.70987E+06     2.77639E+06    -16.9733E-03     32.9029E-03    -15.9297E-03     3.82459E-03    -16.9240E-03     32.5853E-03    -15.8572E-03     3.85754E-03
            2227     2.65817E-03     12.7420E-03    -12.6891E+06    -69.3744E+06    -10.2749E+06     2.34576E+06    -16.2568E-03     31.9507E-03    -15.6938E-03     2.71132E-03    -16.2049E-03     31.6371E-03    -15.6262E-03     2.73970E-03
            2228     1.77239E-03     12.7372E-03    -11.9442E+06    -68.5375E+06    -10.5637E+06     1.66292E+06    -15.7710E-03     31.3013E-03    -15.5303E-03     1.77254E-03    -15.7161E-03     30.9912E-03    -15.4664E-03     1.79284E-03
            2229     886.261E-06     12.7345E-03    -11.3835E+06    -67.7548E+06    -10.9746E+06     815.635E+03    -15.5063E-03     30.9235E-03    -15.4172E-03     910.493E-06    -15.4491E-03     30.6171E-03    -15.3573E-03     920.431E-06
            2230     16.6693E-03     12.3296E-03    -3.73675E+06     144.835E+06     69.4462E+06    -120.168E+03    -42.6549E-03     68.4298E-03    -25.7749E-03     55.9375E-03    -43.5924E-03     69.6669E-03    -25.6322E-03     55.7036E-03
            2231     15.8041E-03     12.2275E-03    -6.84787E+06     125.424E+06      17.791E+06     700.412E+03    -42.3686E-03     67.0389E-03    -24.6704E-03     93.2314E-03    -43.4175E-03     68.4575E-03    -24.7533E-03     92.8378E-03
            2232     14.9399E-03     12.1448E-03    -7.80153E+06     75.6700E+06    -15.4989E+06     1.93352E+06    -39.7761E-03     63.4649E-03    -23.6889E-03     70.6614E-03    -40.2582E-03     64.2332E-03    -23.8648E-03     70.3374E-03
            2233     14.0723E-03     12.0825E-03    -6.58183E+06     26.5890E+06    -9.99988E+06     1.82148E+06    -37.5710E-03     60.4828E-03    -22.9117E-03     54.7218E-03    -37.7843E-03     60.7963E-03    -22.9908E-03     54.5084E-03
            2234     13.2050E-03     12.0290E-03    -6.38283E+06    -11.2749E+06    -7.81817E+06     1.79975E+06    -35.8826E-03     57.9831E-03    -22.1005E-03     44.9193E-03    -35.9738E-03     58.0346E-03    -22.1140E-03     44.7706E-03
            2235     12.3352E-03     11.9821E-03    -6.52560E+06    -31.7853E+06    -4.60644E+06     1.90712E+06    -34.1344E-03     55.3914E-03    -21.2570E-03     37.2593E-03    -34.1641E-03     55.2988E-03    -21.2245E-03     37.1622E-03
            2236     11.4647E-03     11.9409E-03    -7.02185E+06    -42.9146E+06    -117.492E+03     1.94265E+06    -32.1082E-03     52.5145E-03    -20.4062E-03     30.2682E-03    -32.1090E-03     52.3385E-03    -20.3344E-03     30.2095E-03
            2237     10.5918E-03     11.9060E-03    -8.11584E+06    -52.3007E+06     1.68197E+06     2.30377E+06    -29.8893E-03     49.4502E-03    -19.5609E-03     24.1746E-03    -29.8724E-03     49.2141E-03    -19.4649E-03     24.1469E-03
            2238     9.71749E-03     11.8764E-03    -9.46096E+06    -60.1261E+06     3.16328E+06     3.15444E+06    -27.6241E-03     46.3755E-03    -18.7515E-03     19.1563E-03    -27.5977E-03     46.0932E-03    -18.6348E-03     19.1582E-03
            2239     8.84088E-03     11.8516E-03    -10.8560E+06    -64.7054E+06     3.68758E+06     3.68516E+06    -25.3822E-03     43.3695E-03    -17.9872E-03     15.1498E-03    -25.3531E-03     43.0615E-03    -17.8592E-03     15.1714E-03
            2240     7.96260E-03     11.8303E-03    -11.9595E+06    -66.2667E+06     2.21438E+06     3.40603E+06    -23.2708E-03     40.5449E-03    -17.2741E-03     11.7728E-03    -23.2406E-03     40.2306E-03    -17.1496E-03     11.7994E-03
            2241     7.08238E-03     11.8130E-03    -12.8981E+06    -67.0368E+06     135.792E+03     3.09007E+06    -21.3577E-03     37.9857E-03    -16.6280E-03     9.02423E-03    -21.3268E-03     37.6707E-03    -16.5114E-03     9.05230E-03
            2242     6.20069E-03     11.7984E-03    -13.7675E+06    -68.2949E+06    -2.41355E+06     2.64812E+06    -19.6470E-03     35.7022E-03    -16.0552E-03     6.84371E-03    -19.6142E-03     35.3851E-03    -15.9483E-03     6.86982E-03
            2243     5.31745E-03     11.7869E-03    -14.2263E+06    -68.8251E+06    -4.64123E+06     2.10978E+06    -18.1607E-03     33.7214E-03    -15.5607E-03     5.12970E-03    -18.1258E-03     33.4051E-03    -15.4635E-03     5.15132E-03
            2244     4.43306E-03     11.7773E-03    -14.3972E+06    -69.1302E+06    -6.90679E+06     1.69969E+06    -16.9074E-03     32.0530E-03    -15.1457E-03     3.80557E-03    -16.8694E-03     31.7386E-03    -15.0591E-03     3.82360E-03
            2245     3.54755E-03     11.7701E-03    -14.2629E+06    -69.0677E+06    -9.02583E+06     1.10145E+06    -15.9051E-03     30.7163E-03    -14.8112E-03     2.76630E-03    -15.8634E-03     30.4049E-03    -14.7355E-03     2.77780E-03
            2246     2.66133E-03     11.7643E-03    -13.7345E+06    -68.2865E+06    -10.4541E+06     505.049E+03    -15.1581E-03     29.7138E-03    -14.5557E-03     1.93890E-03    -15.1128E-03     29.4075E-03    -14.4890E-03     1.94358E-03
            2247     1.77450E-03     11.7604E-03    -13.1219E+06    -67.4384E+06    -11.4966E+06     209.374E+03    -14.6433E-03     29.0163E-03    -14.3730E-03     1.24239E-03    -14.5946E-03     28.7148E-03    -14.3136E-03     1.24395E-03
            2248     887.367E-06     11.7577E-03    -12.6786E+06    -66.7617E+06    -12.1992E+06     54.2959E+03    -14.3495E-03     28.5902E-03    -14.2407E-03     630.153E-06    -14.2985E-03     28.2924E-03    -14.1865E-03     630.263E-06
            2249     16.6676E-03     11.3164E-03    -4.35298E+06     143.513E+06     69.4755E+06     467.188E+03    -43.9065E-03     69.5823E-03    -25.6758E-03     56.2097E-03    -44.8207E-03     70.7891E-03    -25.5302E-03     55.9402E-03
            2250     15.8068E-03     11.2118E-03    -7.72839E+06     124.393E+06     18.7368E+06     1.42424E+06    -44.1134E-03     68.5994E-03    -24.4859E-03     90.1163E-03    -45.1203E-03     69.9663E-03    -24.5614E-03     89.6871E-03
            2251     14.9437E-03     11.1361E-03    -7.82965E+06     76.1315E+06    -13.9640E+06     1.11959E+06    -41.5124E-03     64.8977E-03    -23.3853E-03     66.1208E-03    -41.9678E-03     65.6364E-03    -23.5542E-03     65.7694E-03
            2252     14.0789E-03     11.0749E-03    -7.83681E+06     26.9433E+06    -9.98958E+06     1.54736E+06    -39.1713E-03     61.6442E-03    -22.4730E-03     50.8028E-03    -39.3768E-03     61.9468E-03    -22.5506E-03     50.5814E-03
            2253     13.2118E-03     11.0247E-03    -7.31478E+06    -10.7426E+06    -7.53085E+06     1.85012E+06    -37.2589E-03     58.7878E-03    -21.5289E-03     40.7167E-03    -37.3470E-03     58.8340E-03    -21.5404E-03     40.5679E-03
            2254     12.3443E-03     10.9802E-03    -7.32092E+06    -31.8923E+06    -4.10596E+06     2.05914E+06    -34.9940E-03     55.5560E-03    -20.5621E-03     33.2524E-03    -35.0222E-03     55.4573E-03    -20.5258E-03     33.1602E-03
            2255     11.4739E-03     10.9425E-03    -8.07188E+06    -42.8813E+06     710.052E+03     2.35326E+06    -32.3982E-03     52.0095E-03    -19.6113E-03     26.2139E-03    -32.4013E-03     51.8300E-03    -19.5339E-03     26.1649E-03
            2256     10.6016E-03     10.9107E-03    -9.37457E+06    -52.5662E+06     2.73783E+06     2.66029E+06    -29.6481E-03     48.3437E-03    -18.6956E-03     20.3658E-03    -29.6359E-03     48.1039E-03    -18.5921E-03     20.3474E-03
            2257     9.72646E-03     10.8845E-03    -10.4849E+06    -60.5048E+06     4.30551E+06     3.05109E+06    -27.0985E-03     44.9372E-03    -17.8387E-03     15.8173E-03    -27.0769E-03     44.6513E-03    -17.7143E-03     15.8215E-03
            2258     8.84975E-03     10.8624E-03    -11.4402E+06    -63.9845E+06     5.26608E+06     3.05300E+06    -24.7081E-03     41.7480E-03    -17.0398E-03     12.2792E-03    -24.6844E-03     41.4413E-03    -16.9041E-03     12.2950E-03
            2259     7.97065E-03     10.8444E-03    -12.5260E+06    -65.2234E+06     3.34497E+06     2.65932E+06    -22.4318E-03     38.7321E-03    -16.3002E-03     9.52999E-03    -22.4072E-03     38.4218E-03    -16.1708E-03     9.54851E-03
            2260     7.08975E-03     10.8293E-03    -13.5629E+06    -66.3441E+06     1.28487E+06     2.16788E+06    -20.3995E-03     36.0435E-03    -15.6439E-03     7.32139E-03    -20.3745E-03     35.7311E-03    -15.5217E-03     7.33859E-03
            2261     6.20705E-03     10.8174E-03    -14.4861E+06    -67.0985E+06    -1.33056E+06     1.61986E+06    -18.6433E-03     33.7116E-03    -15.0683E-03     5.61892E-03    -18.6174E-03     33.4000E-03    -14.9566E-03     5.63229E-03
            2262     5.32299E-03     10.8074E-03    -15.4230E+06    -67.8440E+06    -4.19163E+06     770.137E+03    -17.1548E-03     31.7278E-03    -14.5730E-03     4.30214E-03    -17.1280E-03     31.4175E-03    -14.4732E-03     4.30670E-03
            2263     4.43762E-03     10.7998E-03    -15.9738E+06    -68.3111E+06    -6.42976E+06    -19.3077E+03    -15.9283E-03     30.0862E-03    -14.1579E-03     3.26878E-03    -15.9001E-03     29.7775E-03    -14.0679E-03     3.26467E-03
            2264     3.55134E-03     10.7935E-03    -16.2771E+06    -68.3687E+06    -9.66448E+06    -544.386E+03    -14.9476E-03     28.7583E-03    -13.8107E-03     2.43588E-03    -14.9161E-03     28.4542E-03    -13.7362E-03     2.42608E-03
            2265     2.66419E-03     10.7891E-03    -16.7327E+06    -68.0340E+06    -13.0040E+06    -815.019E+03    -14.1897E-03     27.7218E-03    -13.5322E-03     1.73647E-03    -14.1559E-03     27.4248E-03    -13.4743E-03     1.72404E-03
            2266     1.77652E-03     10.7855E-03    -17.1825E+06    -67.6186E+06    -15.4939E+06    -761.667E+03    -13.6328E-03     26.9588E-03    -13.3260E-03     1.12004E-03    -13.5983E-03     26.6681E-03    -13.2805E-03     1.10900E-03
            2267     888.357E-06     10.7838E-03    -17.4233E+06    -67.0768E+06    -16.9261E+06    -469.944E+03    -13.2903E-03     26.4734E-03    -13.1831E-03     572.831E-06    -13.2556E-03     26.1878E-03    -13.1452E-03     566.126E-06
            2268     16.6700E-03     10.2976E-03    -4.04596E+06     143.236E+06     70.3144E+06     675.684E+03    -46.1316E-03     71.7051E-03    -25.5734E-03     53.9713E-03    -47.0152E-03     72.8790E-03    -25.4237E-03     53.6493E-03
            2269     15.8105E-03     10.1958E-03    -7.45734E+06     123.878E+06     20.4921E+06     964.934E+03    -46.1441E-03     70.4031E-03    -24.2590E-03     85.0178E-03    -47.1015E-03     71.7148E-03    -24.3254E-03     84.5296E-03
            2270     14.9496E-03     10.1246E-03    -8.40344E+06     76.4108E+06    -12.3445E+06     1.57718E+06    -43.5676E-03     66.5833E-03    -23.0157E-03     60.5762E-03    -44.0001E-03     67.2934E-03    -23.1760E-03     60.2104E-03
            2271     14.0860E-03     10.0664E-03    -8.41214E+06     27.7756E+06    -8.37310E+06     1.44804E+06    -40.8173E-03     62.7739E-03    -21.9566E-03     45.8076E-03    -41.0146E-03     63.0646E-03    -22.0265E-03     45.5802E-03
            2272     13.2215E-03     10.0193E-03    -8.52802E+06    -10.8642E+06    -6.50307E+06     1.61743E+06    -38.1212E-03     59.0096E-03    -20.8884E-03     36.1992E-03    -38.2074E-03     59.0462E-03    -20.8928E-03     36.0507E-03
            2273     12.3534E-03     9.97862E-03    -8.94832E+06    -32.0704E+06    -3.07797E+06     2.10235E+06    -35.3802E-03     55.2072E-03    -19.8270E-03     29.0728E-03    -35.4122E-03     55.1029E-03    -19.7829E-03     28.9859E-03
            2274     11.4838E-03     9.94430E-03    -9.65080E+06    -43.0165E+06     1.94285E+06     2.49365E+06    -32.2769E-03     51.0834E-03    -18.8064E-03     22.3783E-03    -32.2861E-03     50.9003E-03    -18.7203E-03     22.3362E-03
            2275     10.6108E-03     9.91709E-03    -10.3787E+06    -52.0649E+06     4.65162E+06     2.62985E+06    -29.1255E-03     46.9744E-03    -17.8489E-03     17.1709E-03    -29.1198E-03     46.7339E-03    -17.7351E-03     17.1564E-03
            2276     9.73563E-03     9.89379E-03    -11.1814E+06    -60.1554E+06     5.85692E+06     2.38326E+06    -26.2062E-03     43.1814E-03    -16.9753E-03     13.4725E-03    -26.1897E-03     42.8949E-03    -16.8425E-03     13.4714E-03
            2277     8.85758E-03     9.87535E-03    -12.0447E+06    -63.5428E+06     5.98076E+06     2.20230E+06    -23.6357E-03     39.8182E-03    -16.1825E-03     10.5755E-03    -23.6162E-03     39.5131E-03    -16.0430E-03     10.5826E-03
            2278     7.97769E-03     9.85997E-03    -13.0807E+06    -64.1963E+06     4.43559E+06     1.82499E+06    -21.3161E-03     36.7859E-03    -15.4698E-03     8.42889E-03    -21.2971E-03     36.4798E-03    -15.3356E-03     8.43796E-03
            2279     7.09568E-03     9.84789E-03    -14.2435E+06    -65.4473E+06     2.28920E+06     1.10174E+06    -19.2730E-03     34.1226E-03    -14.8496E-03     6.86625E-03    -19.2540E-03     33.8142E-03    -14.7226E-03     6.87043E-03
            2280     6.21208E-03     9.83780E-03    -15.2324E+06    -66.1803E+06    -417.272E+03     366.944E+03    -17.5859E-03     31.9017E-03    -14.3159E-03     5.62810E-03    -17.5664E-03     31.5945E-03    -14.1999E-03     5.62564E-03
            2281     5.32700E-03     9.83012E-03    -16.0485E+06    -66.7057E+06    -3.14943E+06    -481.433E+03    -16.2067E-03     30.0686E-03    -13.8619E-03     4.62409E-03    -16.1863E-03     29.7635E-03    -13.7577E-03     4.61262E-03
            2282     4.44091E-03     9.82368E-03    -17.2947E+06    -67.8922E+06    -6.93509E+06    -1.22251E+06    -15.0984E-03     28.5740E-03    -13.4756E-03     3.78341E-03    -15.0768E-03     28.2701E-03    -13.3867E-03     3.76377E-03
            2283     3.55383E-03     9.81903E-03    -18.7620E+06    -68.4277E+06    -11.8482E+06    -1.42482E+06    -14.2104E-03     27.3570E-03    -13.1467E-03     3.01641E-03    -14.1880E-03     27.0595E-03    -13.0795E-03     2.99522E-03
            2284     2.66612E-03     9.81515E-03    -19.9870E+06      -68.43E+06    -16.0522E+06    -1.34112E+06    -13.5004E-03     26.3821E-03    -12.8817E-03     2.30096E-03    -13.4779E-03     26.0923E-03    -12.8338E-03     2.28171E-03
            2285     1.77774E-03     9.81283E-03    -20.8981E+06    -68.4543E+06    -19.0717E+06    -1.08101E+06    -12.9747E-03     25.6602E-03    -12.6856E-03     1.56646E-03    -12.9523E-03     25.3760E-03    -12.6514E-03     1.55127E-03
            2286     889.008E-06     9.81104E-03    -21.4360E+06    -68.1565E+06    -20.9230E+06    -649.323E+03    -12.6351E-03     25.1997E-03    -12.5645E-03     856.106E-06    -12.6132E-03     24.9203E-03    -12.5392E-03     847.081E-06
            2287     16.6738E-03     9.27652E-03    -3.94090E+06     142.613E+06     70.5455E+06     1.12146E+06    -49.0504E-03     74.4651E-03    -25.4147E-03     52.3513E-03    -49.9055E-03     75.6080E-03    -25.2630E-03     51.9673E-03
            2288     15.8155E-03     9.17991E-03    -6.93416E+06     123.614E+06     22.5568E+06     1.69660E+06    -48.5013E-03     72.4502E-03    -23.9489E-03     79.7328E-03    -49.4066E-03     73.7049E-03    -24.0053E-03     79.1985E-03
            2289     14.9561E-03     9.10941E-03    -7.83880E+06     76.8403E+06    -9.16070E+06     1.56860E+06    -45.2006E-03     67.7683E-03    -22.5677E-03     55.0067E-03    -45.6052E-03     68.4449E-03    -22.7136E-03     54.6304E-03
            2290     14.0957E-03     9.05771E-03    -7.81974E+06     28.2949E+06    -5.92812E+06     2.02672E+06    -41.9390E-03     63.3235E-03    -21.3845E-03     40.9264E-03    -42.1233E-03     63.5982E-03    -21.4439E-03     40.7079E-03
            2291     13.2298E-03     9.01402E-03    -8.97915E+06    -10.7036E+06    -4.39815E+06     2.09762E+06    -38.5589E-03     58.7813E-03    -20.2224E-03     31.9840E-03    -38.6425E-03     58.8082E-03    -20.2158E-03     31.8472E-03
            2292     12.3633E-03     8.97724E-03    -9.85984E+06    -31.9855E+06    -990.443E+03     2.04038E+06    -35.0517E-03     54.1585E-03    -19.1068E-03     25.2282E-03    -35.0862E-03     54.0477E-03    -19.0511E-03     25.1480E-03
            2293     11.4925E-03     8.94785E-03    -10.1312E+06    -42.7627E+06     4.17468E+06     1.86820E+06    -31.4783E-03     49.5493E-03    -18.0710E-03     19.2873E-03    -31.4907E-03     49.3621E-03    -17.9735E-03     19.2436E-03
            2294     10.6192E-03     8.92418E-03    -10.3239E+06    -51.4428E+06     7.31377E+06     1.65235E+06    -28.0342E-03     45.1642E-03    -17.1300E-03     15.0692E-03    -28.0317E-03     44.9214E-03    -17.0039E-03     15.0468E-03
            2295     9.74255E-03     8.90563E-03    -11.2340E+06    -59.5638E+06     8.00792E+06     1.68825E+06    -24.9293E-03     41.2246E-03    -16.2954E-03     12.4031E-03    -24.9165E-03     40.9375E-03    -16.1527E-03     12.3963E-03
            2296     8.86360E-03     8.88978E-03    -12.5018E+06    -62.9886E+06     7.01278E+06     1.28641E+06    -22.2240E-03     37.7881E-03    -15.5641E-03     10.3287E-03    -22.2090E-03     37.4848E-03    -15.4196E-03     10.3262E-03
            2297     7.98227E-03     8.87787E-03    -13.3575E+06    -63.3978E+06     5.42764E+06     616.273E+03    -19.9522E-03     34.8887E-03    -14.9365E-03     8.82385E-03    -19.9372E-03     34.5856E-03    -14.7981E-03     8.81859E-03
            2298     7.09913E-03     8.86791E-03    -14.2343E+06    -64.4870E+06     3.14648E+06    -51.4898E+03    -18.0909E-03     32.4988E-03    -14.4079E-03     7.81972E-03    -18.0746E-03     32.1940E-03    -14.2781E-03     7.80970E-03
            2299     6.21440E-03     8.86022E-03    -15.3195E+06    -65.2753E+06     367.175E+03    -969.058E+03    -16.5931E-03     30.5600E-03    -13.9669E-03     6.94321E-03    -16.5765E-03     30.2563E-03    -13.8482E-03     6.92391E-03
            2300     5.32861E-03     8.85381E-03    -16.7068E+06    -66.2910E+06    -2.73193E+06    -1.57238E+06    -15.4280E-03     29.0302E-03    -13.6022E-03     6.14288E-03    -15.4122E-03     28.7276E-03    -13.4955E-03     6.11758E-03
            2301     4.44178E-03     8.84909E-03    -18.4039E+06    -67.9665E+06    -7.84898E+06    -1.64313E+06    -14.5273E-03     27.8203E-03    -13.2930E-03     5.32251E-03    -14.5098E-03     27.5190E-03    -13.2071E-03     5.29762E-03
            2302     3.55435E-03     8.84510E-03    -20.0924E+06    -68.8615E+06    -13.5013E+06    -1.67106E+06    -13.8137E-03     26.8508E-03    -13.0371E-03     4.45236E-03    -13.7950E-03     26.5555E-03    -12.9756E-03     4.42814E-03
            2303     2.66620E-03     8.84258E-03    -21.3916E+06    -69.1998E+06    -17.4789E+06    -1.56588E+06    -13.2727E-03     26.1149E-03    -12.8421E-03     3.52330E-03    -13.2541E-03     25.8254E-03    -12.7982E-03     3.50128E-03
            2304     1.77774E-03     8.84037E-03    -22.2829E+06    -69.5674E+06    -20.5046E+06    -1.22197E+06    -12.8925E-03     25.5959E-03    -12.7034E-03     2.46368E-03    -12.8734E-03     25.3101E-03    -12.6727E-03     2.44678E-03
            2305     888.922E-06     8.83958E-03    -22.8431E+06    -69.4965E+06    -22.3228E+06    -699.039E+03    -12.6585E-03     25.2873E-03    -12.6288E-03     1.37562E-03    -12.6396E-03     25.0053E-03    -12.6065E-03     1.36601E-03
            2306     16.6745E-03     8.25217E-03    -4.52590E+06     141.462E+06     72.0683E+06     524.027E+03    -52.1822E-03     77.4004E-03    -25.2182E-03     49.6109E-03    -53.0082E-03     78.5038E-03    -25.0564E-03     49.1506E-03
            2307     15.8227E-03     8.15858E-03    -6.07105E+06     123.318E+06     26.0350E+06     1.03898E+06    -50.6175E-03     74.2138E-03    -23.5963E-03     73.7293E-03    -51.4687E-03     75.4065E-03    -23.6361E-03     73.1403E-03
            2308     14.9652E-03     8.09664E-03    -6.49167E+06     76.9109E+06    -5.91422E+06     2.53551E+06    -46.3643E-03     68.4535E-03    -22.0893E-03     50.3232E-03    -46.7399E-03     69.0970E-03    -22.2209E-03     49.9587E-03
            2309     14.1022E-03     8.04679E-03    -8.35284E+06     28.4403E+06    -3.31240E+06     3.04384E+06    -42.4394E-03     63.2589E-03    -20.8194E-03     36.1821E-03    -42.6161E-03     63.5171E-03    -20.8651E-03     35.9848E-03
            2310     13.2401E-03     8.00941E-03    -9.85275E+06    -9.64135E+06    -1.37325E+06      2.8054E+06    -38.2345E-03     57.8458E-03    -19.6112E-03     28.0148E-03    -38.3202E-03     57.8668E-03    -19.5898E-03     27.8976E-03
            2311     12.3710E-03     7.97758E-03    -10.4506E+06    -30.8392E+06     2.38994E+06     1.65072E+06    -33.9449E-03     52.4464E-03    -18.5015E-03     22.4310E-03    -33.9845E-03     52.3329E-03    -18.4297E-03     22.3562E-03
            2312     11.4999E-03     7.95263E-03    -10.5589E+06    -42.0254E+06     7.35343E+06     504.124E+03    -29.8681E-03     47.3890E-03    -17.5209E-03     17.5706E-03    -29.8860E-03     47.1992E-03    -17.4078E-03     17.5176E-03
            2313     10.6244E-03     7.93405E-03    -11.1111E+06    -51.5650E+06     10.2025E+06     549.054E+03    -26.2899E-03     42.9623E-03    -16.6724E-03     14.5652E-03    -26.2944E-03     42.7150E-03    -16.5305E-03     14.5340E-03
            2314     9.74663E-03     7.91859E-03    -11.9130E+06    -58.9782E+06     10.5619E+06     589.407E+03    -23.2209E-03     39.1698E-03    -15.9489E-03     12.9175E-03    -23.2158E-03     38.8826E-03    -15.7933E-03     12.8998E-03
            2315     8.86596E-03     7.90685E-03    -12.4348E+06    -61.9210E+06     8.83919E+06    -217.095E+03    -20.6147E-03     35.9575E-03    -15.3427E-03     11.7249E-03    -20.6035E-03     35.6568E-03    -15.1907E-03     11.7052E-03
            2316     7.98315E-03     7.89708E-03    -13.0834E+06    -62.9961E+06     6.52751E+06    -869.416E+03    -18.5795E-03     33.4326E-03    -14.8531E-03     10.8324E-03    -18.5654E-03     33.1296E-03    -14.7102E-03     10.8094E-03
            2317     7.09884E-03     7.88961E-03    -13.9051E+06    -63.6814E+06     3.91435E+06    -1.44540E+06    -17.0451E-03     31.5080E-03    -14.4629E-03     10.0781E-03    -17.0295E-03     31.2057E-03    -14.3308E-03     10.0510E-03
            2318     6.21338E-03     7.88327E-03    -15.0327E+06    -64.7443E+06     638.474E+03    -2.03025E+06    -15.8647E-03     30.0190E-03    -14.1543E-03     9.32840E-03    -15.8479E-03     29.7172E-03    -14.0355E-03     9.29603E-03
            2319     5.32684E-03     7.87852E-03    -16.6033E+06    -66.5717E+06    -3.23115E+06    -2.22129E+06    -15.0064E-03     28.9208E-03    -13.9145E-03     8.47519E-03    -14.9889E-03     28.6174E-03    -13.8100E-03     8.44202E-03
            2320     4.43985E-03     7.87432E-03    -18.1099E+06    -68.4587E+06    -8.08379E+06    -2.19861E+06    -14.3908E-03     28.1163E-03    -13.7256E-03     7.42787E-03    -14.3708E-03     27.8125E-03    -13.6405E-03     7.39623E-03
            2321     3.55220E-03     7.87164E-03    -19.1550E+06    -69.4650E+06    -12.8491E+06    -2.05506E+06    -13.9557E-03     27.5367E-03    -13.5810E-03     6.22739E-03    -13.9324E-03     27.2360E-03    -13.5168E-03     6.19855E-03
            2322     2.66440E-03     7.86907E-03    -20.0285E+06    -70.1319E+06    -16.4347E+06    -1.83686E+06    -13.6638E-03     27.1435E-03    -13.4797E-03     4.88258E-03    -13.6386E-03     26.8458E-03    -13.4312E-03     4.85731E-03
            2323     1.77630E-03     7.86785E-03    -20.7157E+06    -70.9033E+06    -19.0953E+06    -1.41756E+06    -13.4870E-03     26.9006E-03    -13.4136E-03     3.37515E-03    -13.4602E-03     26.6039E-03    -13.3762E-03     3.35588E-03
            2324     888.163E-06     7.86655E-03    -21.0851E+06    -70.9655E+06    -20.6639E+06    -780.465E+03    -13.3860E-03     26.7688E-03    -13.3828E-03     1.87252E-03    -13.3587E-03     26.4745E-03    -13.3526E-03     1.86194E-03
            2325     16.6831E-03     7.22237E-03    -3.11865E+06     141.443E+06     72.8254E+06     163.097E+03    -54.8572E-03     79.8583E-03    -25.0010E-03     47.0135E-03    -55.6444E-03     80.9259E-03    -24.8375E-03     46.5054E-03
            2326     15.8279E-03     7.14029E-03    -6.20394E+06     121.165E+06     26.7181E+06     1.13776E+06    -52.1184E-03     75.3730E-03    -23.2545E-03     68.9555E-03    -52.9157E-03     76.5016E-03    -23.2877E-03     68.3500E-03
            2327     14.9703E-03     7.07913E-03    -9.08733E+06     75.6913E+06    -3.44179E+06     3.88846E+06    -47.3062E-03     68.9689E-03    -21.6627E-03     45.3787E-03    -47.6670E-03     69.5770E-03    -21.7765E-03     45.0395E-03
            2328     14.1127E-03     7.03827E-03    -10.7538E+06     29.7653E+06     53.3138E+03     4.56251E+06    -41.8357E-03     62.1882E-03    -20.3526E-03     32.1865E-03    -42.0154E-03     62.4360E-03    -20.3799E-03     32.0287E-03
            2329     13.2451E-03     7.00542E-03    -12.2232E+06    -7.81561E+06     2.11407E+06     2.74473E+06    -36.7926E-03     55.9701E-03    -19.1775E-03     25.8033E-03    -36.8904E-03     55.9912E-03    -19.1379E-03     25.7030E-03
            2330     12.3770E-03     6.97983E-03    -12.3797E+06    -28.1102E+06     6.50650E+06     533.734E+03    -31.9929E-03     50.1491E-03    -18.1561E-03     21.1715E-03    -32.0482E-03     50.0422E-03    -18.0649E-03     21.0955E-03
            2331     11.5026E-03     6.96031E-03    -12.8221E+06    -41.2825E+06     10.6053E+06    -901.776E+03    -27.5292E-03     44.8394E-03    -17.3102E-03     17.9424E-03    -27.5626E-03     44.6503E-03    -17.1788E-03     17.8805E-03
            2332     10.6259E-03     6.94560E-03    -12.9475E+06    -52.0598E+06     13.0352E+06    -1.35563E+06    -24.0744E-03     40.7046E-03    -16.6303E-03     16.3014E-03    -24.0910E-03     40.4529E-03    -16.4708E-03     16.2514E-03
            2333     9.74561E-03     6.93417E-03    -12.6155E+06    -58.4654E+06     12.9155E+06    -1.74085E+06    -21.3274E-03     37.4089E-03    -16.0815E-03     15.3456E-03    -21.3298E-03     37.1217E-03    -15.9138E-03     15.3014E-03
            2334     8.86335E-03     6.92501E-03    -12.6356E+06    -61.1893E+06     10.3304E+06    -2.20292E+06    -19.1498E-03     34.7986E-03    -15.6488E-03     14.6368E-03    -19.1427E-03     34.4996E-03    -15.4901E-03     14.5936E-03
            2335     7.97943E-03     6.91774E-03    -13.1591E+06    -62.7487E+06     7.42953E+06    -2.65024E+06    -17.5750E-03     32.9010E-03    -15.3260E-03     13.9717E-03    -17.5628E-03     32.5979E-03    -15.1788E-03     13.9271E-03
            2336     7.09432E-03     6.91147E-03    -13.7755E+06    -63.4401E+06     4.18881E+06    -2.98671E+06    -16.4634E-03     31.5523E-03    -15.0889E-03     13.0942E-03    -16.4479E-03     31.2506E-03    -14.9560E-03     13.0483E-03
            2337     6.20828E-03     6.90673E-03    -14.6878E+06    -65.0289E+06     315.707E+03    -3.08703E+06    -15.7095E-03     30.6280E-03    -14.9186E-03     12.0485E-03    -15.6901E-03     30.3247E-03    -14.8014E-03     12.0034E-03
            2338     5.32193E-03     6.90231E-03    -15.6635E+06    -67.0375E+06    -3.67445E+06    -3.08449E+06    -15.2036E-03     30.0045E-03    -14.8010E-03     10.7921E-03    -15.1800E-03     29.6980E-03    -14.6994E-03     10.7484E-03
            2339     4.43499E-03     6.89921E-03    -16.4632E+06    -69.1067E+06    -8.12631E+06    -3.09533E+06    -14.8975E-03     29.6183E-03    -14.7208E-03     9.27466E-03    -14.8682E-03     29.3087E-03    -14.6374E-03     9.23193E-03
            2340     3.54814E-03     6.89625E-03    -17.0673E+06    -70.5153E+06    -11.8695E+06    -2.87479E+06    -14.7347E-03     29.4051E-03    -14.6704E-03     7.61446E-03    -14.7009E-03     29.0947E-03    -14.6028E-03     7.57538E-03
            2341     2.66105E-03     6.89453E-03    -17.4777E+06    -71.3818E+06    -14.4952E+06    -2.32179E+06    -14.6593E-03     29.3004E-03    -14.6411E-03     5.84841E-03    -14.6223E-03     28.9899E-03    -14.5847E-03     5.81712E-03
            2342     1.77406E-03     6.89272E-03    -17.8827E+06    -72.4842E+06    -16.5948E+06    -1.64539E+06    -14.6328E-03     29.2549E-03    -14.6220E-03     3.97742E-03    -14.5932E-03     28.9424E-03    -14.5740E-03     3.95534E-03
            2343     887.065E-06     6.89223E-03    -18.1703E+06    -72.6441E+06    -17.8178E+06    -872.203E+03    -14.5906E-03     29.2215E-03    -14.6310E-03     2.17560E-03    -14.5503E-03     28.9104E-03    -14.5884E-03     2.16390E-03
            2344     16.6820E-03     6.19720E-03    -3.40104E+06     139.663E+06     73.1949E+06    -174.106E+03    -57.0832E-03     81.9340E-03    -24.8508E-03     43.7012E-03    -57.8350E-03     82.9579E-03    -24.6824E-03     43.1518E-03
            2345     15.8317E-03     6.11477E-03    -7.68358E+06     117.218E+06     27.2970E+06     3.37672E+06    -53.3551E-03     76.3603E-03    -23.0052E-03     64.0633E-03    -54.0982E-03     77.4141E-03    -23.0275E-03     63.4819E-03
            2346     14.9791E-03     6.06405E-03    -11.8620E+06     74.6524E+06    -1.18464E+06     6.49079E+06    -46.8687E-03     68.2466E-03    -21.3779E-03     40.6392E-03    -47.2092E-03     68.8145E-03    -21.4748E-03     40.3657E-03
            2347     14.1138E-03     6.03046E-03    -14.6192E+06     32.6988E+06     3.23763E+06     5.13959E+06    -39.9933E-03     60.1105E-03    -20.1172E-03     29.4016E-03    -40.1859E-03     60.3587E-03    -20.1273E-03     29.2822E-03
            2348     13.2491E-03     6.00406E-03    -15.0617E+06    -4.25909E+06     6.14792E+06     2.00080E+06    -34.0064E-03     53.0848E-03    -19.0784E-03     25.3637E-03    -34.1224E-03     53.1151E-03    -19.0197E-03     25.2772E-03
            2349     12.3760E-03     5.98429E-03     -15.949E+06    -25.4427E+06     9.91389E+06    -927.606E+03    -29.0292E-03     47.2789E-03    -18.2497E-03     22.6461E-03    -29.1084E-03     47.1828E-03    -18.1401E-03     22.5664E-03
            2350     11.5005E-03     5.97079E-03    -16.0205E+06    -39.4758E+06     13.7226E+06    -3.36406E+06    -25.0206E-03     42.6359E-03    -17.6153E-03     20.8954E-03    -25.0760E-03     42.4548E-03    -17.4662E-03     20.8105E-03
            2351     10.6202E-03     5.95937E-03    -15.2651E+06    -52.3283E+06     14.8318E+06    -4.76583E+06    -22.0042E-03     39.1460E-03    -17.1418E-03     20.0373E-03    -22.0340E-03     38.8930E-03    -16.9696E-03     19.9489E-03
            2352     9.73876E-03     5.95090E-03    -14.4908E+06    -58.6258E+06     13.9614E+06    -4.89651E+06    -19.8744E-03     36.6648E-03    -16.7904E-03     19.0425E-03    -19.8871E-03     36.3776E-03    -16.6146E-03     18.9611E-03
            2353     8.85529E-03     5.94403E-03    -14.1471E+06    -61.1194E+06     10.8386E+06    -4.89267E+06    -18.3729E-03     34.9049E-03    -16.5320E-03     18.2681E-03    -18.3740E-03     34.6074E-03    -16.3687E-03     18.1925E-03
            2354     7.97084E-03     5.93797E-03    -13.6399E+06    -62.9416E+06     7.17478E+06    -5.16950E+06    -17.3904E-03     33.7425E-03    -16.3521E-03     17.1628E-03    -17.3798E-03     33.4392E-03    -16.2052E-03     17.0873E-03
            2355     7.08563E-03     5.93303E-03    -13.3808E+06    -64.1594E+06     3.43420E+06    -4.98334E+06    -16.7547E-03     32.9860E-03    -16.2313E-03     15.7032E-03    -16.7349E-03     32.6809E-03    -16.1017E-03     15.6326E-03
            2356     6.20026E-03     5.92842E-03    -13.4817E+06    -65.9348E+06    -298.425E+03    -4.54738E+06    -16.3778E-03     32.5324E-03    -16.1546E-03     14.0388E-03    -16.3501E-03     32.2235E-03    -16.0409E-03     13.9755E-03
            2357     5.31440E-03     5.92491E-03    -13.8880E+06    -67.8622E+06    -4.36082E+06    -4.18337E+06    -16.1620E-03     32.2684E-03    -16.1064E-03     12.1964E-03    -16.1273E-03     31.9560E-03    -16.0097E-03     12.1391E-03
            2358     4.42877E-03     5.92142E-03    -14.5932E+06    -70.1470E+06    -8.82378E+06    -3.81971E+06    -16.0516E-03     32.1296E-03    -16.0780E-03     10.2383E-03    -16.0105E-03     31.8130E-03    -15.9992E-03     10.1866E-03
            2359     3.54285E-03     5.91914E-03    -15.4022E+06    -71.9258E+06    -12.0280E+06    -3.32104E+06    -16.0273E-03     32.0944E-03    -16.0671E-03     8.23306E-03    -15.9828E-03     31.7746E-03    -16.0006E-03     8.18848E-03
            2360     2.65715E-03     5.91674E-03    -16.1801E+06    -73.1484E+06    -14.1545E+06    -2.62512E+06    -16.0342E-03     32.0990E-03    -16.0648E-03     6.20975E-03    -15.9887E-03     31.7773E-03    -16.0060E-03     6.17468E-03
            2361     1.77140E-03     5.91562E-03    -16.7634E+06    -74.2866E+06    -15.9120E+06    -1.70662E+06    -16.0445E-03     32.1099E-03    -16.0654E-03     4.19340E-03    -15.9977E-03     31.7858E-03    -16.0129E-03     4.17062E-03
            2362     885.668E-06     5.91434E-03    -17.1969E+06    -74.4474E+06    -17.0065E+06    -896.855E+03    -16.0487E-03     32.1280E-03    -16.0793E-03     2.27119E-03    -16.0022E-03     31.8053E-03    -16.0314E-03     2.25921E-03
            2363     16.6862E-03     5.16405E-03    -4.32707E+06     137.017E+06     73.2021E+06     1.55858E+06    -58.5266E-03     83.3673E-03    -24.8406E-03     41.7852E-03    -59.2376E-03     84.3378E-03    -24.6670E-03     41.2427E-03
            2364     15.8366E-03     5.09157E-03    -12.3189E+06     112.158E+06     28.1018E+06     6.54993E+06    -53.5991E-03     76.5594E-03    -22.9602E-03     60.6755E-03    -54.2936E-03     77.5280E-03    -22.9645E-03     60.1610E-03
            2365     14.9761E-03     5.04979E-03    -15.5059E+06     75.6183E+06     2.29239E+06     8.23599E+06    -44.9195E-03     66.2993E-03    -21.3798E-03     36.1015E-03    -45.2467E-03     66.8345E-03    -21.4555E-03     35.9027E-03
            2366     14.1164E-03     5.02432E-03    -17.5206E+06     37.6627E+06     5.38729E+06     5.86653E+06    -36.1387E-03     56.4194E-03    -20.2807E-03     28.6387E-03    -36.3422E-03     56.6798E-03    -20.2830E-03     28.5687E-03
            2367     13.2433E-03     5.00707E-03    -20.2994E+06     3.92675E+03     7.33917E+06     1.16643E+06    -30.1954E-03     49.6960E-03    -19.5007E-03     28.6840E-03    -30.3411E-03     49.7489E-03    -19.4345E-03     28.6114E-03
            2368     12.3680E-03     4.99188E-03    -19.9604E+06    -21.6399E+06     11.6458E+06    -3.94874E+06    -26.0845E-03     45.0218E-03    -18.9373E-03     26.5897E-03    -26.1891E-03     44.9453E-03    -18.8187E-03     26.4849E-03
            2369     11.4887E-03     4.98244E-03    -18.4794E+06    -38.0284E+06     14.7476E+06    -7.01537E+06    -23.0386E-03     41.5742E-03    -18.5356E-03     25.3435E-03    -23.1082E-03     41.4007E-03    -18.3799E-03     25.2196E-03
            2370     10.6086E-03     4.97419E-03    -17.9134E+06    -51.9001E+06     14.7714E+06    -8.47551E+06    -21.0123E-03     39.2646E-03    -18.2523E-03     24.2879E-03    -21.0550E-03     39.0167E-03    -18.0772E-03     24.1561E-03
            2371     9.72571E-03     4.96765E-03    -16.9270E+06    -59.4476E+06     12.5921E+06    -9.07988E+06    -19.6127E-03     37.6609E-03    -18.0482E-03     22.7475E-03    -19.6337E-03     37.3742E-03    -17.8745E-03     22.6153E-03
            2372     8.84249E-03     4.96193E-03    -14.9504E+06    -61.8631E+06     9.89890E+06    -9.02426E+06    -18.8428E-03     36.7433E-03    -17.9006E-03     21.0829E-03    -18.8449E-03     36.4440E-03    -17.7397E-03     20.9558E-03
            2373     7.95865E-03     4.95673E-03    -13.4701E+06    -64.1937E+06     5.58322E+06    -8.50325E+06    -18.3374E-03     36.1250E-03    -17.7876E-03     19.0742E-03    -18.3216E-03     35.8171E-03    -17.6471E-03     18.9570E-03
            2374     7.07479E-03     4.95205E-03    -12.4727E+06    -66.0626E+06     1.39959E+06    -7.53903E+06    -18.0245E-03     35.7293E-03    -17.7048E-03     16.9345E-03    -17.9943E-03     35.4160E-03    -17.5840E-03     16.8318E-03
            2375     6.19040E-03     4.94804E-03    -11.9913E+06    -67.7285E+06    -2.01914E+06    -6.24993E+06    -17.8334E-03     35.4792E-03    -17.6458E-03     14.6879E-03    -17.7930E-03     35.1614E-03    -17.5403E-03     14.6033E-03
            2376     5.30635E-03     4.94420E-03    -12.2615E+06    -69.6540E+06    -5.92747E+06    -4.88469E+06    -17.7005E-03     35.3002E-03    -17.5997E-03     12.4384E-03    -17.6527E-03     34.9786E-03    -17.5106E-03     12.3724E-03
            2377     4.42183E-03     4.94137E-03    -13.1671E+06    -71.7318E+06    -9.56600E+06    -3.71235E+06    -17.6247E-03     35.1906E-03    -17.5660E-03     10.2438E-03    -17.5730E-03     34.8651E-03    -17.4907E-03     10.1938E-03
            2378     3.53759E-03     4.93845E-03    -14.4266E+06    -73.5001E+06    -12.3267E+06    -2.89013E+06    -17.5720E-03     35.1153E-03    -17.5433E-03     8.10345E-03    -17.5200E-03     34.7866E-03    -17.4774E-03     8.06461E-03
            2379     2.65316E-03     4.93672E-03    -15.6525E+06    -74.9312E+06    -14.7012E+06    -2.11017E+06    -17.5332E-03     35.0615E-03    -17.5283E-03     6.03850E-03    -17.4817E-03     34.7309E-03    -17.4705E-03     6.01019E-03
            2380     1.76875E-03     4.93492E-03    -16.6989E+06    -76.0431E+06    -16.3542E+06    -1.36664E+06    -17.5171E-03     35.0393E-03    -17.5223E-03     4.03825E-03    -17.4667E-03     34.7070E-03    -17.4696E-03     4.01992E-03
            2381     884.374E-06     4.93438E-03    -17.3912E+06    -75.9966E+06    -17.2889E+06    -678.945E+03    -17.5160E-03     35.0381E-03    -17.5222E-03     2.18697E-03    -17.4678E-03     34.7084E-03    -17.4732E-03     2.17785E-03
            2382     16.6805E-03     4.13224E-03    -6.36526E+06     132.106E+06     72.7286E+06     5.30894E+06    -60.0375E-03     85.1054E-03    -25.0679E-03     43.2695E-03    -60.7011E-03     86.0048E-03    -24.8866E-03     42.7577E-03
            2383     15.8284E-03     4.06701E-03    -14.3809E+06     108.945E+06     33.8690E+06     8.91897E+06    -52.7659E-03     75.9737E-03    -23.2078E-03     51.3785E-03    -53.3770E-03     76.8244E-03    -23.1756E-03     50.9452E-03
            2384     14.9769E-03     4.03512E-03    -18.6002E+06     76.0472E+06     5.75604E+06     10.1347E+06    -38.7305E-03     60.5549E-03    -21.8244E-03     31.7232E-03    -39.0353E-03     61.0488E-03    -21.8789E-03     31.6342E-03
            2385     14.1027E-03     4.02830E-03    -22.4383E+06     44.3098E+06     3.12628E+06     7.09510E+06    -31.0224E-03     52.0795E-03    -21.0571E-03     33.8621E-03    -31.2486E-03     52.3750E-03    -21.0732E-03     33.8482E-03
            2386     13.2281E-03     4.00951E-03    -21.8546E+06     8.44526E+06     6.53381E+06    -1.86551E+06    -27.4667E-03     48.0467E-03    -20.5801E-03     33.6944E-03    -27.6260E-03     48.1399E-03    -20.5279E-03     33.6013E-03
            2387     12.3513E-03     4.00238E-03    -19.6943E+06    -18.8332E+06     9.64158E+06    -8.24112E+06    -24.4026E-03     44.6466E-03    -20.2439E-03     31.3037E-03    -24.5029E-03     44.5823E-03    -20.1399E-03     31.1556E-03
            2388     11.4713E-03     3.99377E-03    -18.9485E+06    -36.9039E+06     10.3266E+06    -10.4510E+06    -22.7239E-03     42.7290E-03    -20.0051E-03     29.5055E-03    -22.7891E-03     42.5658E-03    -19.8725E-03     29.3436E-03
            2389     10.5900E-03     3.98775E-03    -17.5506E+06    -51.4199E+06     9.25996E+06    -12.6713E+06    -21.6659E-03     41.4871E-03    -19.8212E-03     27.0327E-03    -21.6980E-03     41.2473E-03    -19.6749E-03     26.8508E-03
            2390     9.70899E-03     3.98238E-03    -15.4643E+06    -60.3138E+06     6.73874E+06    -13.8432E+06    -21.0833E-03     40.7447E-03    -19.6614E-03     24.5681E-03    -21.0863E-03     40.4588E-03    -19.5178E-03     24.3768E-03
            2391     8.82719E-03     3.97686E-03    -13.5722E+06    -64.1993E+06     4.04575E+06    -13.3680E+06    -20.6397E-03     40.1559E-03    -19.5163E-03     21.7105E-03    -20.6225E-03     39.8506E-03    -19.3833E-03     21.5290E-03
            2392     7.94543E-03     3.97239E-03    -12.0055E+06    -66.8617E+06     425.209E+03    -11.7613E+06    -20.2679E-03     39.6511E-03    -19.3832E-03     19.0286E-03    -20.2329E-03     39.3346E-03    -19.2667E-03     18.8704E-03
            2393     7.06297E-03     3.96796E-03    -11.1171E+06    -69.2975E+06    -3.09685E+06    -9.74992E+06    -19.9920E-03     39.2569E-03    -19.2649E-03     16.4179E-03    -19.9435E-03     38.9317E-03    -19.1638E-03     16.2875E-03
            2394     6.18091E-03     3.96401E-03    -11.0820E+06    -71.0024E+06    -5.50974E+06    -7.26277E+06    -19.7277E-03     38.8912E-03    -19.1635E-03     13.8955E-03    -19.6728E-03     38.5606E-03    -19.0720E-03     13.7984E-03
            2395     5.29804E-03     3.96078E-03    -11.7582E+06    -72.4909E+06    -7.99095E+06    -4.92083E+06    -19.5016E-03     38.5753E-03    -19.0737E-03     11.5535E-03    -19.4441E-03     38.2417E-03    -18.9915E-03     11.4875E-03
            2396     4.41553E-03     3.95758E-03    -12.6903E+06    -73.7733E+06    -10.2672E+06    -3.15453E+06    -19.3012E-03     38.2971E-03    -18.9959E-03     9.36674E-03    -19.2430E-03     37.9616E-03    -18.9219E-03     9.32419E-03
            2397     3.53252E-03     3.95540E-03    -13.7785E+06    -75.1217E+06    -12.5583E+06    -1.94385E+06    -19.1238E-03     38.0549E-03    -18.9311E-03     7.33308E-03    -19.0657E-03     37.7175E-03    -18.8650E-03     7.30668E-03
            2398     2.64952E-03     3.95320E-03    -14.9504E+06    -76.3162E+06    -14.5500E+06    -1.11466E+06    -18.9886E-03     37.8701E-03    -18.8815E-03     5.41321E-03    -18.9317E-03     37.5313E-03    -18.8219E-03     5.39790E-03
            2399     1.76640E-03     3.95207E-03    -15.9150E+06    -77.1435E+06    -15.8714E+06    -602.610E+03    -18.8985E-03     37.7449E-03    -18.8464E-03     3.60265E-03    -18.8433E-03     37.4052E-03    -18.7908E-03     3.59428E-03
            2400     883.233E-06     3.95083E-03    -16.6034E+06    -76.9678E+06    -16.6079E+06    -323.744E+03    -18.8353E-03     37.6610E-03    -18.8257E-03     1.94093E-03    -18.7827E-03     37.3243E-03    -18.7731E-03     1.93644E-03
            2401     16.6698E-03     3.09018E-03    -6.87296E+06     127.243E+06     71.6456E+06     7.80511E+06    -60.7301E-03     86.2479E-03    -25.5178E-03     37.4384E-03    -61.2962E-03     87.0359E-03    -25.3341E-03     36.9967E-03
            2402     15.8335E-03     3.03682E-03    -11.5157E+06     104.770E+06     39.2768E+06     12.0206E+06    -43.8393E-03     67.7648E-03    -23.9255E-03     42.6950E-03    -44.3145E-03     68.4608E-03    -23.8643E-03     42.4648E-03
            2403     14.9555E-03     3.04614E-03    -16.0547E+06     77.7898E+06     13.2358E+06     13.2900E+06    -31.4940E-03     54.5278E-03    -23.0338E-03     38.4019E-03    -31.7721E-03     54.9871E-03    -23.0571E-03     38.4378E-03
            2404     14.0793E-03     3.02292E-03    -15.2706E+06     55.2990E+06     7.28160E+06     4.46910E+06    -28.6647E-03     51.2510E-03    -22.5863E-03     41.8600E-03    -28.8683E-03     51.5758E-03    -22.6080E-03     41.8374E-03
            2405     13.2065E-03     3.01831E-03    -13.3918E+06     16.9176E+06     2.05540E+06    -5.33285E+06    -26.9887E-03     49.2456E-03    -22.2569E-03     38.0040E-03    -27.1026E-03     49.3661E-03    -22.2517E-03     37.8837E-03
            2406     12.3261E-03     3.00921E-03    -13.9355E+06    -16.5484E+06     213.520E+03    -10.1610E+06    -25.5423E-03     47.5451E-03    -22.0028E-03     34.2663E-03    -25.5991E-03     47.4925E-03    -21.9575E-03     34.1028E-03
            2407     11.4487E-03     3.00308E-03    -13.4559E+06    -35.5868E+06    -930.643E+03    -13.6350E+06    -24.6965E-03     46.4715E-03    -21.7750E-03     30.3746E-03    -24.7172E-03     46.3204E-03    -21.7085E-03     30.1768E-03
            2408     10.5702E-03     2.99817E-03    -12.2444E+06    -50.7966E+06    -5.08105E+06    -16.0070E+06    -24.2479E-03     45.7890E-03    -21.5411E-03     26.4435E-03    -24.2318E-03     45.5633E-03    -21.4751E-03     26.2222E-03
            2409     9.69117E-03     2.99224E-03    -11.1567E+06    -62.0425E+06    -7.81305E+06    -16.9390E+06    -23.7521E-03     45.0654E-03    -21.3132E-03     22.9405E-03    -23.7090E-03     44.7846E-03    -21.2462E-03     22.7114E-03
            2410     8.81239E-03     2.98838E-03    -10.3260E+06    -67.9965E+06    -9.02656E+06    -15.7075E+06    -23.2184E-03     44.3130E-03    -21.0946E-03     19.6883E-03    -23.1598E-03     44.0022E-03    -21.0261E-03     19.4782E-03
            2411     7.93239E-03     2.98387E-03    -9.89711E+06    -71.0314E+06    -9.59753E+06    -13.2131E+06    -22.6940E-03     43.5815E-03    -20.8875E-03     16.8371E-03    -22.6276E-03     43.2553E-03    -20.8181E-03     16.6613E-03
            2412     7.05280E-03     2.98019E-03    -10.2416E+06    -73.8050E+06    -10.4022E+06    -10.1367E+06    -22.1658E-03     42.8611E-03    -20.6953E-03     14.1891E-03    -22.0955E-03     42.5224E-03    -20.6254E-03     14.0545E-03
            2413     6.17187E-03     2.97683E-03    -10.9870E+06    -75.3030E+06    -11.0955E+06    -7.00559E+06    -21.6821E-03     42.2023E-03    -20.5202E-03     11.8238E-03    -21.6121E-03     41.8580E-03    -20.4506E-03     11.7307E-03
            2414     5.29136E-03     2.97374E-03    -11.7983E+06    -75.6837E+06    -11.2435E+06    -4.40129E+06    -21.2427E-03     41.6077E-03    -20.3650E-03     9.68458E-03    -21.1760E-03     41.2628E-03    -20.2943E-03     9.62579E-03
            2415     4.40984E-03     2.97137E-03    -12.5752E+06    -76.1451E+06    -11.9934E+06    -2.50166E+06    -20.8420E-03     41.0700E-03    -20.2280E-03     7.76948E-03    -20.7772E-03     40.7250E-03    -20.1594E-03     7.73576E-03
            2416     3.52837E-03     2.96908E-03    -13.3314E+06    -76.6617E+06    -12.8798E+06    -1.06861E+06    -20.5121E-03     40.6259E-03    -20.1138E-03     6.02424E-03    -20.4490E-03     40.2806E-03    -20.0477E-03     6.00942E-03
            2417     2.64649E-03     2.96762E-03    -14.1174E+06    -77.1847E+06    -13.8080E+06    -252.610E+03    -20.2546E-03     40.2768E-03    -20.0221E-03     4.42589E-03    -20.1934E-03     39.9313E-03    -19.9588E-03     4.42192E-03
            2418     1.76446E-03     2.96615E-03    -14.8282E+06    -77.5638E+06    -14.6635E+06     101.127E+03    -20.0588E-03     40.0130E-03    -19.9542E-03     2.93548E-03    -19.9992E-03     39.6679E-03    -19.8935E-03     2.93633E-03
            2419     882.244E-06     2.96568E-03    -15.3138E+06    -77.1026E+06    -15.3628E+06     153.586E+03    -19.9452E-03     39.8493E-03    -19.9041E-03     1.59168E-03    -19.8877E-03     39.5083E-03    -19.8469E-03     1.59343E-03
            2420     16.6786E-03     2.04240E-03    -3.71866E+06     118.759E+06     67.5177E+06     9.88335E+06    -50.9413E-03     77.7858E-03    -26.8445E-03     45.1932E-03    -51.3882E-03     78.4507E-03    -26.6737E-03     44.9604E-03
            2421     15.7929E-03     2.05143E-03    -5.42552E+06     102.876E+06     50.0500E+06     15.1368E+06    -35.5359E-03     61.3754E-03    -25.8395E-03     56.3609E-03    -35.9115E-03     61.9495E-03    -25.7306E-03     56.3538E-03
            2422     14.9203E-03     2.03302E-03    -3.59567E+06     86.0851E+06     25.0074E+06     8.55087E+06    -32.6916E-03     57.9040E-03    -25.2123E-03     51.8711E-03    -32.9178E-03     58.3491E-03    -25.2069E-03     51.8833E-03
            2423     14.0523E-03     2.03071E-03    -356.995E+03     63.5126E+06     1.23860E+06     1.55229E+06    -31.9918E-03     56.6490E-03    -24.6572E-03     46.3936E-03    -32.1095E-03     56.9863E-03    -24.7426E-03     46.3556E-03
            2424     13.1718E-03     2.01646E-03    -1.69017E+06     23.5351E+06    -11.6343E+06    -3.73604E+06    -30.4406E-03     54.6532E-03    -24.2126E-03     37.4610E-03    -30.4775E-03     54.8003E-03    -24.3025E-03     37.3769E-03
            2425     12.3029E-03     2.01364E-03    -3.06068E+06    -13.1199E+06    -16.6136E+06    -10.1986E+06    -29.5395E-03     53.3717E-03    -23.8323E-03     30.7538E-03    -29.5179E-03     53.3401E-03    -23.8919E-03     30.5980E-03
            2426     11.4264E-03     2.00715E-03    -3.35963E+06    -34.6160E+06    -19.9864E+06    -13.6861E+06    -28.5873E-03     52.0371E-03    -23.4498E-03     25.8264E-03    -28.5285E-03     51.9008E-03    -23.4946E-03     25.6337E-03
            2427     10.5520E-03     2.00230E-03    -4.28559E+06    -50.4228E+06    -24.4255E+06    -15.2659E+06    -27.6713E-03     50.7415E-03    -23.0703E-03     21.3247E-03    -27.5862E-03     50.5327E-03    -23.1131E-03     21.1165E-03
            2428     9.67652E-03     1.99886E-03    -5.71612E+06    -64.4839E+06    -27.9576E+06    -15.8757E+06    -26.7207E-03     49.4327E-03    -22.7120E-03     17.9041E-03    -26.6164E-03     49.1601E-03    -22.7500E-03     17.6916E-03
            2429     8.79928E-03     1.99482E-03    -6.87098E+06    -72.3053E+06    -25.7579E+06    -14.3864E+06    -25.7977E-03     48.1935E-03    -22.3958E-03     15.0357E-03    -25.6906E-03     47.8799E-03    -22.4098E-03     14.8446E-03
            2430     7.92257E-03     1.99191E-03    -8.39407E+06    -76.2059E+06    -22.0518E+06    -11.4445E+06    -24.9522E-03     47.0570E-03    -22.1048E-03     12.5945E-03    -24.8522E-03     46.7205E-03    -22.0924E-03     12.4430E-03
            2431     7.04381E-03     1.98898E-03    -9.90617E+06    -78.5578E+06    -18.4463E+06    -8.24254E+06    -24.1093E-03     45.9459E-03    -21.8366E-03     10.4783E-03    -24.0185E-03     45.5944E-03    -21.8006E-03     10.3692E-03
            2432     6.16548E-03     1.98642E-03    -11.1598E+06    -79.3269E+06    -16.5541E+06    -5.57982E+06    -23.3471E-03     44.9345E-03    -21.5874E-03     8.63194E-03    -23.2641E-03     44.5781E-03    -21.5390E-03     8.55803E-03
            2433     5.28556E-03     1.98428E-03    -12.0659E+06    -78.6962E+06    -14.8475E+06    -3.36101E+06    -22.6644E-03     44.0311E-03    -21.3667E-03     7.01516E-03    -22.5892E-03     43.6767E-03    -21.3094E-03     6.97043E-03
            2434     4.40577E-03     1.98231E-03    -12.7668E+06    -78.2900E+06    -14.0087E+06    -1.68236E+06    -22.0887E-03     43.2630E-03    -21.1743E-03     5.57791E-03    -22.0188E-03     42.9104E-03    -21.1123E-03     5.55523E-03
            2435     3.52510E-03     1.98089E-03    -13.1087E+06    -77.9982E+06    -13.5331E+06    -554.198E+03    -21.6069E-03     42.6193E-03    -21.0124E-03     4.30752E-03    -21.5397E-03     42.2679E-03    -20.9480E-03     4.29969E-03
            2436     2.64421E-03     1.97948E-03    -13.2946E+06    -77.7184E+06    -13.2892E+06     200.193E+03    -21.2223E-03     42.1056E-03    -20.8832E-03     3.14295E-03    -21.1569E-03     41.7555E-03    -20.8177E-03     3.14507E-03
            2437     1.76297E-03     1.97879E-03    -13.5437E+06    -77.4821E+06    -13.3341E+06     457.002E+03    -20.9450E-03     41.7318E-03    -20.7867E-03     2.07431E-03    -20.8811E-03     41.3833E-03    -20.7214E-03     2.07992E-03
            2438     881.553E-06     1.97799E-03    -13.7671E+06    -76.5990E+06    -13.6274E+06     387.475E+03    -20.7696E-03     41.4881E-03    -20.7185E-03     1.11600E-03    -20.7076E-03     41.1449E-03    -20.6556E-03     1.12085E-03
            2439     16.5923E-03     1.04470E-03     1.37032E+06     113.563E+06     69.5745E+06      8.4148E+06    -45.5735E-03     75.2795E-03    -29.7060E-03     57.7983E-03    -45.9237E-03     75.8315E-03    -29.5248E-03     57.7207E-03
            2440     15.7401E-03     1.02898E-03     2.66189E+06     107.134E+06     55.1624E+06     4.32019E+06    -45.0894E-03     73.7945E-03    -28.7051E-03     57.4204E-03    -45.3686E-03     74.2985E-03    -28.5885E-03     57.3677E-03
            2441     14.8797E-03     1.03058E-03     6.53326E+06     91.1111E+06     21.9851E+06     2.06949E+06    -42.9378E-03     70.5624E-03    -27.6247E-03     43.6004E-03    -43.0878E-03     70.9938E-03    -27.6563E-03     43.5716E-03
            2442     14.0101E-03     1.01497E-03     7.53256E+06     66.2878E+06    -10.9818E+06     1.77033E+06    -39.6161E-03     66.2523E-03    -26.6362E-03     33.0017E-03    -39.6666E-03     66.5957E-03    -26.7982E-03     32.9925E-03
            2443     13.1539E-03     1.01502E-03     8.58891E+06     29.2306E+06    -26.2530E+06    -1.83549E+06    -36.5486E-03     62.4100E-03    -25.8614E-03     24.2210E-03    -36.5140E-03     62.5850E-03    -26.0475E-03     24.1768E-03
            2444     12.2787E-03     1.00770E-03     8.55162E+06    -9.33990E+06    -34.2667E+06    -6.05871E+06    -34.1568E-03     59.3766E-03    -25.2198E-03     18.9198E-03    -34.0529E-03     59.3690E-03    -25.3900E-03     18.8288E-03
            2445     11.4123E-03     1.00589E-03     5.78782E+06    -33.8128E+06    -39.4022E+06    -8.96607E+06    -32.3181E-03     56.9591E-03    -24.6410E-03     14.8622E-03    -32.1842E-03     56.8397E-03    -24.7973E-03     14.7374E-03
            2446     10.5393E-03     1.00258E-03     2.50593E+06    -51.3307E+06    -42.3347E+06    -9.60944E+06    -30.4889E-03     54.6088E-03    -24.1198E-03     12.2078E-03    -30.3412E-03     54.4105E-03    -24.2607E-03     12.0776E-03
            2447     9.66570E-03     1.00045E-03    -952.984E+03    -65.9502E+06    -43.6262E+06    -9.44070E+06    -29.0632E-03     52.7168E-03    -23.6536E-03     9.81870E-03    -28.9094E-03     52.4520E-03    -23.7748E-03     9.69287E-03
            2448     8.79169E-03     998.584E-06    -4.73151E+06    -76.1076E+06    -39.1402E+06    -8.70809E+06    -27.7197E-03     50.9709E-03    -23.2512E-03     8.21825E-03    -27.5764E-03     50.6542E-03    -23.3297E-03     8.10301E-03
            2449     7.91505E-03     996.652E-06    -7.70135E+06    -80.5715E+06    -32.6405E+06    -6.61463E+06    -26.5098E-03     49.4005E-03    -22.8907E-03     6.72515E-03    -26.3843E-03     49.0562E-03    -22.9259E-03     6.63780E-03
            2450     7.03896E-03     995.186E-06    -9.98307E+06    -81.9995E+06    -26.2745E+06    -4.66695E+06    -25.4319E-03     47.9955E-03    -22.5636E-03     5.55225E-03    -25.3249E-03     47.6381E-03    -22.5616E-03     5.49062E-03
            2451     6.16062E-03     993.854E-06    -11.4931E+06    -82.2163E+06    -21.3198E+06    -3.08771E+06    -24.4550E-03     46.7217E-03    -22.2668E-03     4.56995E-03    -24.3624E-03     46.3583E-03    -22.2375E-03     4.52913E-03
            2452     5.28247E-03     992.629E-06    -12.4406E+06    -80.8986E+06    -17.7544E+06    -1.76876E+06    -23.6101E-03     45.6115E-03    -22.0014E-03     3.68123E-03    -23.5293E-03     45.2508E-03    -21.9548E-03     3.65771E-03
            2453     4.40288E-03     991.690E-06    -12.9265E+06    -79.6273E+06    -15.4404E+06    -898.624E+03    -22.8934E-03     44.6635E-03    -21.7701E-03     2.91491E-03    -22.8202E-03     44.3065E-03    -21.7131E-03     2.90282E-03
            2454     3.52317E-03     990.774E-06    -13.0479E+06    -79.0226E+06    -14.2560E+06    -266.160E+03    -22.3051E-03     43.8796E-03    -21.5745E-03     2.23988E-03    -22.2351E-03     43.5241E-03    -21.5122E-03     2.23610E-03
            2455     2.64277E-03     990.235E-06    -12.8796E+06    -78.0687E+06    -13.3440E+06     220.222E+03    -21.8354E-03     43.2535E-03    -21.4181E-03     1.63393E-03    -21.7672E-03     42.9012E-03    -21.3530E-03     1.63655E-03
            2456     1.76207E-03     989.621E-06    -12.5519E+06    -77.1297E+06    -12.5748E+06     374.917E+03    -21.4969E-03     42.7996E-03    -21.3026E-03     1.07893E-03    -21.4296E-03     42.4503E-03    -21.2354E-03     1.08362E-03
            2457     881.119E-06     989.467E-06    -12.3653E+06    -76.0378E+06    -12.2255E+06     239.833E+03    -21.2841E-03     42.5071E-03    -21.2231E-03     579.202E-06    -21.2179E-03     42.1626E-03    -21.1560E-03     582.231E-06


