********************************************************************************
Field Output Report, written Mon Aug 12 20:49:02 2024

Source 1
---------

   ODB: G:/Abaqus_calc_2019/1740/Vel_40/odb/zeides_2a_16_red_2500_cal_50_vel_40_fric_0100.odb
   Step: Step-1
   Frame: Increment   4946270: Step Time =   0.4521

Loc 1 : Nodal values from source 1

Output sorted by column "Nodal Label".

Field Output reported at nodes for region: DIE_2A_16_D0_36-1.Region_1
   Computation algorithm: EXTRAPOLATE_COMPUTE_AVERAGE
   Averaged at nodes
   Averaging regions: ODB_REGIONS

      Node Label     COORD.COOR1     COORD.COOR2
                          @Loc 1          @Loc 1
-------------------------------------------------
               1     15.3788E-03     213.962E-03


Field Output reported at nodes for region: DIE_2A_16_D0_36-1.Region_2
   Computation algorithm: EXTRAPOLATE_COMPUTE_AVERAGE
   Averaged at nodes
   Averaging regions: ODB_REGIONS

      Node Label     COORD.COOR1     COORD.COOR2
                          @Loc 1          @Loc 1
-------------------------------------------------
               1     15.3788E-03     213.962E-03


Field Output reported at nodes for part: WIRE-1
   Computation algorithm: EXTRAPOLATE_COMPUTE_AVERAGE
   Averaged at nodes
   Averaging regions: ODB_REGIONS

      Node Label     COORD.COOR1     COORD.COOR2           S.S11           S.S22           S.S33           S.S12         PE.PE11         PE.PE22         PE.PE33         PE.PE12         LE.LE11         LE.LE22         LE.LE33         LE.LE12
                          @Loc 1          @Loc 1          @Loc 1          @Loc 1          @Loc 1          @Loc 1          @Loc 1          @Loc 1          @Loc 1          @Loc 1          @Loc 1          @Loc 1          @Loc 1          @Loc 1
-------------------------------------------------------------------------------------------------------------------------------------------------------------------------------------------------------------------------------------------------
               1    -538.575E-09     98.0873E-03    -82.9574E+06    -98.0027E+06    -82.6225E+06     80.2362E+03    -295.037E-03     590.322E-03    -295.285E-03     4.54914E-03    -295.190E-03     590.072E-03    -295.436E-03     4.45922E-03
               2     13.4033E-03     100.354E-03    -1.67007E+06     30.2281E+06     60.1428E+06     339.490E+03    -297.572E-03     592.807E-03    -295.235E-03     94.0831E-03    -298.347E-03     593.508E-03    -294.975E-03     84.4235E-03
               3     13.5036E-03     199.245E-03    -25.5926E+06     35.3812E+06     73.7406E+06    -17.6113E+06    -130.490E-03     421.931E-03    -291.441E-03     8.66768E-03    -130.716E-03     422.116E-03    -291.087E-03     7.87999E-03
               4    -197.780E-09     196.128E-03     34.4473E+06    -17.2245E+06     29.7071E+06    -4.34835E+06    -327.022E-03     654.271E-03    -327.249E-03    -28.9325E-03    -327.039E-03     653.904E-03    -327.125E-03    -29.5802E-03
               5     1.95317E-06    -305.311E-18    -32.4471E+06    -63.1242E+06    -31.5491E+06     1.26831E+06    -242.223E-03     484.429E-03    -242.206E-03    -737.057E-06    -242.246E-03     484.208E-03    -242.226E-03    -749.176E-06
               6     13.2400E-03    -305.311E-18     5.08202E+06     48.0929E+06     35.8387E+06     141.645E+03    -594.695E-03     890.404E-03    -295.708E-03     140.454E-03    -595.812E-03     891.617E-03    -295.606E-03     124.008E-03
               7     669.725E-06     98.0980E-03    -82.7149E+06    -97.1953E+06    -81.2505E+06    -61.7885E+03    -295.061E-03     590.269E-03    -295.208E-03     7.39137E-03    -295.218E-03     590.023E-03    -295.353E-03     7.11751E-03
               8     1.33970E-03     98.1156E-03    -81.2971E+06    -93.9744E+06    -76.1566E+06    -149.655E+03    -295.137E-03     590.270E-03    -295.134E-03     13.5552E-03    -295.304E-03     590.037E-03    -295.260E-03     12.9290E-03
               9     2.00979E-03     98.1456E-03    -78.4026E+06    -88.4783E+06    -67.8217E+06    -27.3540E+03    -295.221E-03     590.368E-03    -295.147E-03     20.2681E-03    -295.403E-03     590.154E-03    -295.244E-03     19.3262E-03
              10     2.67979E-03     98.1876E-03    -74.4560E+06    -81.7166E+06    -57.7302E+06     229.364E+03    -295.293E-03     590.461E-03    -295.168E-03     27.0970E-03    -295.494E-03     590.275E-03    -295.230E-03     25.7824E-03
              11     3.34991E-03     98.2401E-03    -69.4813E+06    -73.5734E+06    -45.4176E+06     508.140E+03    -295.419E-03     590.612E-03    -295.193E-03     34.1065E-03    -295.645E-03     590.462E-03    -295.212E-03     32.3312E-03
              12     4.01978E-03     98.3064E-03    -64.1641E+06    -65.0337E+06    -32.2456E+06     765.953E+03    -295.625E-03     590.848E-03    -295.224E-03     41.2498E-03    -295.883E-03     590.741E-03    -295.197E-03     38.9592E-03
              13     4.68951E-03     98.3840E-03    -58.9025E+06    -57.3466E+06    -20.8542E+06     807.285E+03    -295.854E-03     591.104E-03    -295.250E-03     48.5955E-03    -296.151E-03     591.049E-03    -295.186E-03     45.6721E-03
              14     5.35954E-03     98.4752E-03    -53.7787E+06    -50.5349E+06    -11.4243E+06     619.210E+03    -296.056E-03     591.322E-03    -295.266E-03     56.2210E-03    -296.399E-03     591.328E-03    -295.172E-03     52.5461E-03
              15     6.02981E-03     98.5774E-03    -48.6406E+06    -43.9506E+06    -2.71558E+06     526.364E+03    -296.292E-03     591.563E-03    -295.271E-03     63.9480E-03    -296.694E-03     591.645E-03    -295.151E-03     59.4075E-03
              16     6.69993E-03     98.6934E-03    -43.6551E+06    -27.4447E+06     8.10849E+06     577.527E+03    -296.591E-03     591.863E-03    -295.272E-03     71.6515E-03    -297.086E-03     592.082E-03    -295.128E-03     66.1223E-03
              17     7.37011E-03     98.8213E-03    -38.1773E+06    -10.1605E+06     19.5120E+06     655.080E+03    -296.907E-03     592.182E-03    -295.275E-03     79.2810E-03    -297.511E-03     592.558E-03    -295.107E-03     72.6391E-03
              18     8.04011E-03     98.9621E-03    -32.4262E+06    -2.36938E+06     29.1536E+06     764.426E+03    -297.209E-03     592.492E-03    -295.283E-03     86.9110E-03    -297.926E-03     593.001E-03    -295.086E-03     79.0382E-03
              19     8.71047E-03     99.1143E-03    -27.6610E+06     4.00619E+06     37.8460E+06     1.00772E+06    -297.515E-03     592.802E-03    -295.287E-03     94.5125E-03    -298.365E-03     593.458E-03    -295.063E-03     85.3318E-03
              20     9.38083E-03     99.2776E-03    -22.9938E+06     10.0367E+06     44.6700E+06     1.00368E+06    -297.893E-03     593.176E-03    -295.283E-03     101.560E-03    -298.884E-03     593.991E-03    -295.041E-03     91.0537E-03
              21     10.0513E-03     99.4498E-03    -18.2131E+06     15.7092E+06     49.0634E+06     701.478E+03    -298.357E-03     593.633E-03    -295.276E-03     107.669E-03    -299.486E-03     594.611E-03    -295.027E-03     95.8907E-03
              22     10.7202E-03     99.6316E-03    -13.7724E+06     19.9737E+06     50.9582E+06     464.217E+03    -298.589E-03     593.855E-03    -295.266E-03     112.305E-03    -299.838E-03     594.978E-03    -295.020E-03     99.4157E-03
              23     11.3920E-03     99.8151E-03    -9.39662E+06     24.1675E+06     53.4152E+06     379.596E+03    -298.389E-03     593.643E-03    -295.254E-03     113.578E-03    -299.677E-03     594.828E-03    -295.008E-03     100.198E-03
              24     12.0608E-03     100.001E-03    -6.98312E+06     27.3038E+06     55.6132E+06    -161.447E+03    -298.526E-03     593.765E-03    -295.239E-03     116.711E-03    -299.927E-03     595.077E-03    -294.991E-03     102.439E-03
              25     12.7290E-03     100.196E-03    -4.25052E+06     29.1750E+06     57.9299E+06    -173.387E+03    -298.209E-03     593.441E-03    -295.233E-03     107.228E-03    -299.360E-03     594.513E-03    -294.979E-03     94.8129E-03
              26     13.4013E-03     102.061E-03    -2.38702E+06     30.1688E+06     61.2535E+06    -454.982E+03    -297.393E-03     592.601E-03    -295.208E-03     94.3131E-03    -298.184E-03     593.312E-03    -294.942E-03     84.5118E-03
              27     13.4039E-03     103.774E-03    -1.19973E+06     31.6680E+06     62.9813E+06     14.0848E+03    -297.496E-03     592.689E-03    -295.193E-03     93.4614E-03    -298.277E-03     593.395E-03    -294.922E-03     83.7262E-03
              28     13.4016E-03     105.484E-03    -1.23114E+06     31.5406E+06     62.4499E+06     67.4707E+03    -297.723E-03     592.929E-03    -295.207E-03     93.8860E-03    -298.492E-03     593.625E-03    -294.938E-03     84.3176E-03
              29     13.4025E-03     107.197E-03    -1.06639E+06     31.7671E+06     62.4009E+06     968.893E+03    -297.236E-03     592.434E-03    -295.198E-03     94.6877E-03    -298.001E-03     593.128E-03    -294.931E-03     85.2355E-03
              30     13.4040E-03     108.903E-03    -2.86546E+06     30.6294E+06     62.7797E+06    -462.796E+03    -297.694E-03     592.879E-03    -295.185E-03     93.5809E-03    -298.477E-03     593.579E-03    -294.912E-03     83.8805E-03
              31     13.4003E-03     110.617E-03    -956.612E+03     32.6238E+06     64.8073E+06      413.26E+03    -297.639E-03     592.829E-03    -295.190E-03     93.5147E-03    -298.416E-03     593.531E-03    -294.912E-03     83.8620E-03
              32     13.4063E-03     112.327E-03    -1.00546E+06     32.7008E+06     64.9809E+06    -501.495E+03    -296.655E-03     591.825E-03    -295.170E-03     94.5609E-03    -297.445E-03     592.539E-03    -294.891E-03     84.8321E-03
              33     13.4005E-03     114.033E-03    -2.63315E+06     32.2396E+06     66.9783E+06    -480.609E+03    -297.949E-03     593.108E-03    -295.159E-03     93.5665E-03    -298.753E-03     593.822E-03    -294.867E-03     83.7012E-03
              34     13.4055E-03     115.750E-03    -1.87528E+06     33.1944E+06     68.1924E+06     131.625E+03    -297.736E-03     592.896E-03    -295.160E-03     93.8423E-03    -298.525E-03     593.598E-03    -294.864E-03     84.1946E-03
              35     13.4018E-03     117.455E-03    -1.07224E+06     33.9318E+06     67.7012E+06     769.163E+03    -297.115E-03     592.252E-03    -295.137E-03     94.4397E-03    -297.892E-03     592.949E-03    -294.846E-03     84.9583E-03
              36     13.4061E-03     119.170E-03    -1.24760E+06     34.2777E+06     69.1053E+06     170.734E+03    -297.614E-03     592.741E-03    -295.127E-03     94.0177E-03    -298.403E-03     593.447E-03    -294.830E-03     84.3798E-03
              37     13.4013E-03     120.876E-03    -2.94943E+06     33.4946E+06     69.9790E+06    -441.041E+03    -297.913E-03     593.047E-03    -295.135E-03     94.2064E-03    -298.717E-03     593.757E-03    -294.829E-03     84.4835E-03
              38     13.4062E-03     122.592E-03    -1.65547E+06     34.6178E+06     70.1599E+06     977.340E+03    -296.997E-03     592.115E-03    -295.118E-03     94.5002E-03    -297.786E-03     592.818E-03    -294.815E-03     84.9753E-03
              39     13.4033E-03     124.294E-03    -2.24199E+06     34.7587E+06     72.5926E+06    -765.533E+03    -297.420E-03     592.521E-03    -295.100E-03     93.9516E-03    -298.237E-03     593.242E-03    -294.785E-03     84.0722E-03
              40     13.4051E-03     126.010E-03    -2.28055E+06     37.1578E+06     74.8512E+06     598.200E+03    -297.880E-03     592.963E-03    -295.083E-03     93.8850E-03    -298.694E-03     593.684E-03    -294.759E-03     84.1341E-03
              41     13.4051E-03     127.721E-03    -1.79161E+06     39.2406E+06     74.3770E+06     141.669E+03    -296.943E-03     592.014E-03    -295.071E-03     93.8438E-03    -297.748E-03     592.736E-03    -294.753E-03     84.2220E-03
              42     13.4049E-03     129.425E-03    -1.12556E+06     40.7115E+06     75.8121E+06     764.311E+03    -296.817E-03     591.866E-03    -295.049E-03     94.4004E-03    -297.626E-03     592.596E-03    -294.728E-03     84.7976E-03
              43     13.4068E-03     131.141E-03    -1.46785E+06     40.7440E+06     77.0625E+06    -100.163E+03    -297.198E-03     592.217E-03    -295.019E-03     94.3778E-03    -298.010E-03     592.945E-03    -294.691E-03     84.7563E-03
              44     13.4046E-03     132.845E-03    -2.44843E+06     40.4684E+06     78.4365E+06    -34.9255E+03    -297.352E-03     592.364E-03    -295.012E-03     94.3835E-03    -298.176E-03     593.095E-03    -294.675E-03     84.6852E-03
              45     13.4078E-03     134.560E-03    -1.99961E+06     41.3007E+06     80.4252E+06    -75.3596E+03    -297.196E-03     592.191E-03    -294.995E-03     94.6669E-03    -298.027E-03     592.929E-03    -294.650E-03     84.9203E-03
              46     13.4051E-03     136.265E-03    -3.15082E+06     40.9168E+06     81.2740E+06    -518.335E+03    -298.152E-03     593.134E-03    -294.982E-03     93.6994E-03    -298.988E-03     593.868E-03    -294.630E-03     83.8797E-03
              47     13.4069E-03     137.981E-03    -2.34258E+06     44.3882E+06     82.2540E+06     1.43397E+06    -297.076E-03     592.050E-03    -294.974E-03     94.1392E-03    -297.894E-03     592.779E-03    -294.624E-03     84.6725E-03
              48     13.4079E-03     139.688E-03    -1.64075E+06     45.7774E+06     83.6884E+06    -44.5296E+03    -296.408E-03     591.378E-03    -294.970E-03     94.6456E-03    -297.236E-03     592.119E-03    -294.615E-03     85.0930E-03
              49     13.4055E-03     141.394E-03    -1.71393E+06     47.1280E+06     85.0011E+06     1.27748E+06    -296.648E-03     591.604E-03    -294.956E-03     94.2638E-03    -297.484E-03     592.355E-03    -294.597E-03     84.6449E-03
              50     13.4099E-03     143.105E-03    -502.378E+03     52.0319E+06     86.4474E+06     1.17347E+06    -296.598E-03     591.510E-03    -294.912E-03     94.5244E-03    -297.438E-03     592.282E-03    -294.554E-03     84.9011E-03
              51     13.4058E-03     144.811E-03    -4.03447E+06     53.5929E+06     87.1339E+06         911.875    -297.567E-03     592.449E-03    -294.882E-03     93.5956E-03    -298.431E-03     593.235E-03    -294.518E-03     83.8365E-03
              52     13.4101E-03     146.525E-03    -2.33414E+06     57.5375E+06     89.1625E+06     726.181E+03    -295.916E-03     590.762E-03    -294.846E-03     94.4601E-03    -296.776E-03     591.560E-03    -294.480E-03     84.8613E-03
              53     13.4099E-03     148.227E-03    -2.45481E+06     58.8695E+06     90.1429E+06    -50.3854E+03    -295.037E-03     589.796E-03    -294.759E-03     95.6137E-03    -295.911E-03     590.608E-03    -294.390E-03     85.9769E-03
              54     13.4119E-03     149.936E-03    -2.41928E+06     58.8754E+06     92.5182E+06     53.6404E+03    -294.707E-03     589.335E-03    -294.629E-03     96.3730E-03    -295.583E-03     590.144E-03    -294.248E-03     86.8072E-03
              55     13.4160E-03     151.638E-03    -575.333E+03     59.9973E+06     93.8487E+06    -77.8562E+03    -293.469E-03     587.864E-03    -294.395E-03     98.2093E-03    -294.355E-03     588.688E-03    -294.012E-03     88.5998E-03
              56     13.4200E-03     153.338E-03    -2.70994E+06     62.7847E+06     94.4041E+06     1.21224E+06    -293.528E-03     587.625E-03    -294.097E-03     97.5164E-03    -294.422E-03     588.458E-03    -293.712E-03     87.9788E-03
              57     13.4235E-03     155.045E-03    -3.09006E+06     68.5818E+06     96.5332E+06     1.61167E+06    -291.664E-03     585.485E-03    -293.821E-03     97.2105E-03    -292.566E-03     586.339E-03    -293.433E-03     87.7730E-03
              58     13.4296E-03     156.733E-03    -3.82288E+06     71.2664E+06     97.6705E+06    -60.4024E+03    -290.378E-03     583.824E-03    -293.447E-03     99.9954E-03    -291.329E-03     584.732E-03    -293.056E-03     90.2466E-03
              59     13.4355E-03     158.436E-03    -1.86971E+06     74.7968E+06     100.171E+06     2.03556E+06    -290.577E-03     583.556E-03    -292.979E-03     100.007E-03    -291.510E-03     584.458E-03    -292.584E-03     90.4863E-03
              60     13.4421E-03     160.129E-03    -1.91812E+06     80.8197E+06     102.837E+06     1.30799E+06    -290.188E-03     582.743E-03    -292.554E-03     99.0957E-03    -291.144E-03     583.681E-03    -292.155E-03     89.3849E-03
              61     13.4459E-03     161.820E-03    -2.55973E+06     86.1306E+06     105.672E+06     743.707E+03    -289.957E-03     582.099E-03    -292.142E-03     99.0352E-03    -290.961E-03     583.093E-03    -291.735E-03     88.9067E-03
              62     13.4538E-03     163.518E-03    -2.93995E+06     91.5422E+06     106.891E+06     1.75867E+06    -288.706E-03     580.421E-03    -291.716E-03     99.2712E-03    -289.712E-03     581.432E-03    -291.310E-03     89.3134E-03
              63     13.4582E-03     165.202E-03    -1.68511E+06     97.1937E+06     110.259E+06     1.43553E+06    -288.092E-03     579.386E-03    -291.295E-03     99.6190E-03    -289.119E-03     580.433E-03    -290.882E-03     89.5209E-03
              64     13.4648E-03     166.894E-03    -3.15360E+06     101.761E+06     112.616E+06     893.743E+03    -288.052E-03     578.894E-03    -290.842E-03     100.072E-03    -289.126E-03     579.992E-03    -290.422E-03     89.6324E-03
              65     13.4714E-03     168.578E-03    -2.86618E+06     106.659E+06     113.561E+06     933.977E+03    -288.996E-03     579.354E-03    -290.358E-03     100.891E-03    -290.086E-03     580.484E-03    -289.941E-03     90.3571E-03
              66     13.4757E-03     170.276E-03    -4.51154E+06     110.724E+06     116.056E+06     573.747E+03    -290.464E-03     580.398E-03    -289.934E-03     100.443E-03    -291.571E-03     581.546E-03    -289.508E-03     89.8348E-03
              67     13.4812E-03     171.962E-03    -3.17245E+06     114.820E+06     117.701E+06     592.430E+03    -290.735E-03     580.242E-03    -289.508E-03     101.911E-03    -291.859E-03     581.421E-03    -289.081E-03     91.2020E-03
              68     13.4881E-03     173.655E-03    -2.26179E+06     118.288E+06     120.904E+06     1.69583E+06    -292.743E-03     581.796E-03    -289.053E-03     102.537E-03    -293.858E-03     582.973E-03    -288.617E-03     92.0009E-03
              69     13.4906E-03     175.354E-03    -1.72056E+06     120.626E+06     125.818E+06     2.11540E+06    -294.664E-03     583.335E-03    -288.671E-03     102.240E-03    -295.772E-03     584.501E-03    -288.215E-03     91.7995E-03
              70     13.4973E-03     177.045E-03    -3.42148E+06     117.859E+06     128.633E+06     23.8134E+03    -296.332E-03     584.627E-03    -288.294E-03     104.644E-03    -297.482E-03     585.810E-03    -287.817E-03     93.8999E-03
              71     13.5003E-03     178.752E-03    -4.36627E+06     118.469E+06     137.405E+06     53.7054E+03    -300.367E-03     588.297E-03    -287.931E-03     104.720E-03    -301.534E-03     589.472E-03    -287.409E-03     93.8664E-03
              72     13.5036E-03     180.456E-03    -3.33267E+06     115.327E+06     139.827E+06    -1.79040E+06    -305.946E-03     593.561E-03    -287.615E-03     105.579E-03    -307.077E-03     594.685E-03    -287.079E-03     94.9793E-03
              73     13.5042E-03     182.183E-03    -1.11905E+06     112.724E+06     137.455E+06     759.760E+03    -312.982E-03     600.314E-03    -287.332E-03     107.826E-03    -314.071E-03     601.401E-03    -286.806E-03     97.5517E-03
              74     13.5052E-03     183.910E-03    -6.28874E+06     106.607E+06     132.041E+06    -1.89769E+06    -321.121E-03     608.201E-03    -287.080E-03     108.774E-03    -322.189E-03     609.243E-03    -286.566E-03     98.7307E-03
              75     13.5049E-03     185.657E-03    -2.80716E+06     97.7795E+06     128.015E+06    -2.61521E+06    -328.784E-03     615.642E-03    -286.858E-03     109.421E-03    -329.765E-03     616.590E-03    -286.356E-03     99.9233E-03
              76     13.5060E-03     187.417E-03    -4.13058E+06     87.2430E+06     125.523E+06    -2.26579E+06    -334.758E-03     621.458E-03    -286.701E-03     110.779E-03    -335.704E-03     622.336E-03    -286.193E-03     101.566E-03
              77     13.5053E-03     189.176E-03    -2.21584E+06     64.1624E+06     125.072E+06    -4.35138E+06    -339.373E-03     625.951E-03    -286.579E-03     112.614E-03    -340.272E-03     626.708E-03    -286.043E-03     103.440E-03
              78     13.5079E-03     190.952E-03    -3.54684E+06     43.8184E+06     127.728E+06    -4.53589E+06    -340.363E-03     626.901E-03    -286.538E-03     113.277E-03    -341.207E-03     627.519E-03    -285.957E-03     104.615E-03
              79     13.5068E-03     192.719E-03     303.525E+03     30.6720E+06     136.236E+06    -740.648E+03    -334.699E-03     621.341E-03    -286.642E-03     113.167E-03    -335.509E-03     621.865E-03    -286.006E-03     104.779E-03
              80     13.5112E-03     194.456E-03    -3.74675E+06     22.8750E+06     141.319E+06    -2.03768E+06    -321.005E-03     607.870E-03    -286.865E-03     106.048E-03    -321.746E-03     608.267E-03    -286.186E-03     98.6761E-03
              81     13.5111E-03     196.170E-03    -285.556E+03     23.1647E+06     142.935E+06     1.89513E+06    -292.776E-03     580.143E-03    -287.367E-03     92.6180E-03    -293.278E-03     580.314E-03    -286.686E-03     88.3883E-03
              82     13.5169E-03     197.816E-03     3.45900E+06     32.0674E+06     113.316E+06     427.435E+03    -202.049E-03     491.636E-03    -289.587E-03     46.9060E-03    -202.277E-03     491.733E-03    -289.072E-03     45.4821E-03
              83     12.6401E-03     199.090E-03    -23.7718E+06    -8.17985E+06     86.7645E+06    -11.2702E+06    -134.489E-03     429.984E-03    -295.495E-03    -47.3068E-03    -134.578E-03     429.910E-03    -295.015E-03    -48.4187E-03
              84     11.8216E-03     198.853E-03    -20.7848E+06    -10.3316E+06     120.130E+06    -7.58704E+06    -139.387E-03     442.207E-03    -302.820E-03    -151.571E-03    -139.473E-03     442.064E-03    -302.174E-03    -152.553E-03
              85     11.0592E-03     198.590E-03    -13.3364E+06     5.90946E+06     134.317E+06    -10.6407E+06    -142.487E-03     451.271E-03    -308.784E-03    -228.993E-03    -142.696E-03     451.215E-03    -308.102E-03    -229.289E-03
              86     10.3291E-03     198.323E-03    -5.03006E+06    -8.56914E+06     131.869E+06    -13.1125E+06    -148.734E-03     462.595E-03    -313.862E-03    -276.301E-03    -148.998E-03     462.494E-03    -313.183E-03    -276.262E-03
              87     9.62066E-03     198.067E-03    -4.08383E+06    -4.31716E+06     132.615E+06    -13.6370E+06    -159.738E-03     478.111E-03    -318.373E-03    -307.618E-03    -160.088E-03     478.056E-03    -317.697E-03    -307.367E-03
              88     8.92560E-03     197.825E-03    -4.38106E+06    -6.07613E+06     129.546E+06    -14.0414E+06    -174.728E-03     497.021E-03    -322.293E-03    -332.212E-03    -175.100E-03     496.969E-03    -321.630E-03    -331.908E-03
              89     8.24345E-03     197.594E-03    -2.86269E+06    -5.52325E+06     126.384E+06    -16.4186E+06    -191.693E-03     517.178E-03    -325.486E-03    -352.440E-03    -192.040E-03     517.081E-03    -324.841E-03    -352.289E-03
              90     7.57636E-03     197.380E-03    -130.894E+03    -7.56248E+06     122.256E+06    -17.9347E+06    -210.195E-03     538.076E-03    -327.882E-03    -364.253E-03    -210.493E-03     537.879E-03    -327.259E-03    -364.343E-03
              91     6.92380E-03     197.179E-03     3.05584E+06    -7.81036E+06     117.558E+06    -18.6044E+06    -229.197E-03     558.722E-03    -329.525E-03    -364.875E-03    -229.421E-03     558.414E-03    -328.930E-03    -365.299E-03
              92     6.28022E-03     196.997E-03     5.58642E+06    -9.04937E+06     110.466E+06    -18.0257E+06    -247.378E-03     577.906E-03    -330.529E-03    -355.874E-03    -247.515E-03     577.497E-03    -329.971E-03    -356.654E-03
              93     5.64372E-03     196.831E-03     8.19476E+06    -8.24562E+06     102.603E+06    -17.6343E+06    -264.001E-03     595.019E-03    -331.018E-03    -338.684E-03    -264.073E-03     594.537E-03    -330.505E-03    -339.806E-03
              94     5.01267E-03     196.685E-03     10.6783E+06    -7.68553E+06     93.7593E+06    -17.3793E+06    -278.923E-03     610.040E-03    -331.117E-03    -314.187E-03    -278.937E-03     609.504E-03    -330.652E-03    -315.660E-03
              95     4.38452E-03     196.556E-03     13.2163E+06    -7.56109E+06     84.3727E+06    -17.1785E+06    -291.755E-03     622.681E-03    -330.926E-03    -284.373E-03    -291.728E-03     622.129E-03    -330.513E-03    -286.119E-03
              96     3.75723E-03     196.445E-03     16.5537E+06    -7.94122E+06     74.9656E+06    -17.1045E+06    -302.283E-03     632.809E-03    -330.526E-03    -250.868E-03    -302.239E-03     632.261E-03    -330.164E-03    -252.779E-03
              97     3.13161E-03     196.350E-03     20.2492E+06    -8.32107E+06     65.6550E+06    -16.7089E+06    -310.812E-03     640.796E-03    -329.984E-03    -213.963E-03    -310.771E-03     640.274E-03    -329.673E-03    -215.917E-03
              98     2.50578E-03     196.274E-03     23.5548E+06    -9.86185E+06     55.7652E+06    -15.3050E+06    -317.364E-03     646.724E-03    -329.360E-03    -174.162E-03    -317.340E-03     646.241E-03    -329.101E-03    -176.013E-03
              99     1.88030E-03     196.212E-03     26.5970E+06    -11.8202E+06     46.1177E+06    -13.1838E+06    -322.082E-03     650.794E-03    -328.713E-03    -132.751E-03    -322.076E-03     650.355E-03    -328.503E-03    -134.386E-03
             100     1.25356E-03     196.169E-03     29.0995E+06    -13.4880E+06     38.6872E+06    -10.1396E+06    -325.099E-03     653.200E-03    -328.100E-03    -90.2466E-03    -325.120E-03     652.801E-03    -327.930E-03    -91.4670E-03
             101     627.502E-06     196.139E-03     32.3149E+06    -15.6178E+06     32.7815E+06    -6.33323E+06    -326.593E-03     654.122E-03    -327.529E-03    -48.8040E-03    -326.621E-03     653.748E-03    -327.389E-03    -49.6003E-03
             102     403.043E-09     194.303E-03    -29.2916E+06    -42.1724E+06    -29.5825E+06    -6.62716E+06    -302.452E-03     604.832E-03    -302.380E-03    -20.3193E-03    -302.605E-03     604.591E-03    -302.425E-03    -20.5448E-03
             103     10.4491E-09     192.652E-03    -153.862E+06    -100.442E+06    -152.955E+06    -9.40604E+06    -266.125E-03     532.602E-03    -266.477E-03    -5.79554E-03    -266.555E-03     532.520E-03    -266.873E-03    -5.49750E-03
             104    -747.758E-09     191.074E-03    -272.152E+06    -164.250E+06    -271.495E+06    -9.06997E+06    -251.543E-03     503.483E-03    -251.940E-03     2.21275E-03    -252.274E-03     503.448E-03    -252.665E-03     2.74965E-03
             105     951.877E-09     189.516E-03    -297.601E+06    -211.744E+06    -297.217E+06    -4.73637E+06    -250.186E-03     499.638E-03    -249.452E-03     6.50016E-03    -250.935E-03     499.440E-03    -250.200E-03     7.23852E-03
             106    -157.170E-09     187.948E-03    -208.184E+06    -219.768E+06    -208.409E+06     2.24381E+06    -254.301E-03     507.522E-03    -253.221E-03     8.48982E-03    -254.720E-03     507.024E-03    -253.642E-03     9.17124E-03
             107     821.533E-09     186.367E-03    -137.802E+06    -205.277E+06    -136.645E+06     1.81539E+06    -259.149E-03     517.559E-03    -258.410E-03     8.52453E-03    -259.342E-03     516.928E-03    -258.595E-03     8.95258E-03
             108    -492.309E-09     184.767E-03    -126.295E+06    -204.445E+06    -126.744E+06    -1.60080E+06    -262.754E-03     525.573E-03    -262.819E-03     8.02787E-03    -262.905E-03     524.917E-03    -262.974E-03     8.22474E-03
             109     30.2334E-09     183.162E-03    -133.252E+06    -219.937E+06    -132.742E+06    -2.39736E+06    -266.082E-03     531.957E-03    -265.875E-03     7.26131E-03    -266.237E-03     531.243E-03    -266.027E-03     7.34038E-03
             110     687.399E-09     181.542E-03    -138.666E+06    -236.461E+06    -139.200E+06    -2.12494E+06    -269.699E-03     537.999E-03    -268.300E-03     7.10515E-03    -269.848E-03     537.219E-03    -268.452E-03     7.19169E-03
             111     483.376E-09     179.917E-03    -144.404E+06    -247.684E+06    -145.212E+06    -1.50686E+06    -271.846E-03     543.414E-03    -271.569E-03     6.81773E-03    -271.998E-03     542.596E-03    -271.726E-03     6.83697E-03
             112    -1.30617E-06     178.280E-03    -153.987E+06    -258.734E+06    -152.665E+06    -1.51690E+06    -274.402E-03     549.222E-03    -274.820E-03     6.45707E-03    -274.576E-03     548.374E-03    -274.985E-03     6.37442E-03
             113     1.54415E-06     176.635E-03    -158.476E+06    -267.719E+06    -158.512E+06    -1.04978E+06    -279.161E-03     556.478E-03    -277.317E-03     6.62382E-03    -279.336E-03     555.600E-03    -277.492E-03     6.51230E-03
             114     702.868E-09     174.974E-03    -159.483E+06    -274.386E+06    -162.094E+06    -946.114E+03    -282.504E-03     563.066E-03    -280.562E-03     6.53424E-03    -282.669E-03     562.160E-03    -280.743E-03     6.52348E-03
             115    -355.882E-09     173.310E-03    -163.308E+06    -281.491E+06    -160.998E+06    -859.397E+03    -284.649E-03     570.012E-03    -285.363E-03     6.45750E-03    -284.825E-03     569.075E-03    -285.523E-03     6.40328E-03
             116    -952.343E-09     171.625E-03    -158.009E+06    -284.817E+06    -157.981E+06    -20.6941E+03    -288.295E-03     577.090E-03    -288.795E-03     4.88538E-03    -288.444E-03     576.125E-03    -288.943E-03     4.73025E-03
             117     1.57382E-06     169.934E-03    -152.429E+06    -286.951E+06    -153.875E+06    -508.460E+03    -291.763E-03     582.523E-03    -290.760E-03     5.05398E-03    -291.887E-03     581.534E-03    -290.892E-03     4.90364E-03
             118    -869.892E-09     168.234E-03    -147.955E+06    -288.221E+06    -147.220E+06     89.6866E+03    -294.227E-03     587.752E-03    -293.525E-03     5.06031E-03    -294.336E-03     586.739E-03    -293.628E-03     4.94094E-03
             119     1.10318E-06     166.523E-03    -141.326E+06    -286.440E+06    -142.983E+06     444.491E+03    -295.943E-03     591.502E-03    -295.559E-03     4.36088E-03    -296.027E-03     590.483E-03    -295.654E-03     4.27949E-03
             120    -849.226E-09     164.810E-03    -140.474E+06    -283.378E+06    -138.373E+06     625.533E+03    -296.700E-03     593.539E-03    -296.839E-03     4.66245E-03    -296.791E-03     592.528E-03    -296.916E-03     4.58504E-03
             121     414.986E-09     163.093E-03    -134.593E+06    -278.553E+06    -134.685E+06     1.02427E+06    -297.403E-03     594.640E-03    -297.237E-03     3.67427E-03    -297.477E-03     593.638E-03    -297.311E-03     3.56858E-03
             122     233.271E-09     161.378E-03    -128.046E+06    -272.665E+06    -130.669E+06     495.113E+03    -297.674E-03     594.619E-03    -296.945E-03     3.67861E-03    -297.730E-03     593.632E-03    -297.017E-03     3.44743E-03
             123     63.7431E-09     159.659E-03    -126.866E+06    -268.104E+06    -126.559E+06     360.203E+03    -297.118E-03     594.342E-03    -297.225E-03     4.24451E-03    -297.180E-03     593.370E-03    -297.285E-03     4.00615E-03
             124    -511.071E-09     157.942E-03    -124.312E+06    -262.470E+06    -123.664E+06     898.819E+03    -296.510E-03     593.558E-03    -297.048E-03     4.11814E-03    -296.572E-03     592.606E-03    -297.106E-03     4.04869E-03
             125     233.686E-09     156.229E-03    -120.439E+06    -256.031E+06    -120.920E+06     839.833E+03    -296.293E-03     592.374E-03    -296.081E-03     3.87973E-03    -296.349E-03     591.444E-03    -296.140E-03     3.78635E-03
             126     314.280E-09     154.517E-03    -120.379E+06    -251.408E+06    -119.089E+06     569.371E+03    -296.173E-03     592.212E-03    -296.039E-03     4.76824E-03    -296.238E-03     591.303E-03    -296.096E-03     4.56658E-03
             127    -684.875E-09     152.802E-03    -114.858E+06    -242.865E+06    -116.219E+06     1.25739E+06    -296.034E-03     591.931E-03    -295.897E-03     3.92552E-03    -296.088E-03     591.053E-03    -295.960E-03     3.70677E-03
             128     1.21846E-06     151.092E-03    -113.247E+06    -238.903E+06    -113.739E+06    -259.473E+03    -295.885E-03     590.724E-03    -294.838E-03     3.82179E-03    -295.940E-03     589.859E-03    -294.897E-03     3.58232E-03
             129    -361.399E-09     149.383E-03    -115.227E+06    -235.748E+06    -115.222E+06     1.04554E+06    -295.523E-03     590.598E-03    -295.075E-03     4.60192E-03    -295.591E-03     589.755E-03    -295.142E-03     4.39543E-03
             130     92.8726E-09     147.671E-03    -113.206E+06    -225.711E+06    -112.797E+06     1.38540E+06    -295.165E-03     590.611E-03    -295.446E-03     4.21897E-03    -295.241E-03     589.811E-03    -295.518E-03     4.03901E-03
             131    -206.523E-09     145.961E-03    -110.782E+06    -218.942E+06    -110.846E+06     326.995E+03    -294.799E-03     589.813E-03    -295.014E-03     4.47115E-03    -294.875E-03     589.041E-03    -295.090E-03     4.31496E-03
             132     18.9687E-09     144.253E-03    -111.037E+06    -213.538E+06    -111.759E+06     1.20059E+06    -294.491E-03     589.595E-03    -295.104E-03     4.62737E-03    -294.575E-03     588.851E-03    -295.192E-03     4.43887E-03
             133    -671.160E-09     142.545E-03    -109.850E+06    -205.343E+06    -108.279E+06     940.652E+03    -294.552E-03     589.697E-03    -295.144E-03     4.07045E-03    -294.647E-03     588.987E-03    -295.229E-03     3.83832E-03
             134     534.052E-09     140.835E-03    -109.108E+06    -200.578E+06    -107.735E+06     363.811E+03    -295.013E-03     589.650E-03    -294.637E-03     4.36894E-03    -295.112E-03     588.962E-03    -294.726E-03     4.20483E-03
             135     107.657E-09     139.125E-03    -105.901E+06    -195.400E+06    -107.937E+06     1.27153E+06    -295.366E-03     589.621E-03    -294.256E-03     4.46188E-03    -295.456E-03     588.956E-03    -294.358E-03     4.30783E-03
             136     709.084E-09     137.419E-03    -105.635E+06    -187.967E+06    -105.155E+06     807.095E+03    -295.046E-03     589.678E-03    -294.632E-03     4.46365E-03    -295.150E-03     589.045E-03    -294.732E-03     4.27744E-03
             137    -977.421E-09     135.707E-03    -104.164E+06    -181.980E+06    -104.437E+06     446.433E+03    -294.617E-03     589.804E-03    -295.188E-03     4.54929E-03    -294.722E-03     589.198E-03    -295.295E-03     4.47210E-03
             138     465.718E-09     133.999E-03    -104.201E+06    -176.886E+06    -104.772E+06     879.889E+03    -294.881E-03     589.899E-03    -295.018E-03     4.38797E-03    -294.994E-03     589.318E-03    -295.134E-03     4.28559E-03
             139    -153.698E-09     132.290E-03    -106.034E+06    -172.852E+06    -105.118E+06     711.355E+03    -295.187E-03     589.931E-03    -294.744E-03     4.31294E-03    -295.315E-03     589.374E-03    -294.865E-03     4.07110E-03
             140     433.957E-09     130.579E-03    -100.890E+06    -165.408E+06    -102.172E+06     1.03540E+06    -295.419E-03     589.886E-03    -294.467E-03     4.42098E-03    -295.536E-03     589.354E-03    -294.592E-03     4.22053E-03
             141     538.424E-09     128.870E-03    -102.786E+06    -162.480E+06    -102.374E+06     282.188E+03    -295.483E-03     589.788E-03    -294.305E-03     4.69759E-03    -295.613E-03     589.274E-03    -294.432E-03     4.58505E-03
             142     57.6131E-09     127.160E-03    -101.099E+06    -157.448E+06    -101.368E+06     706.945E+03    -294.904E-03     589.725E-03    -294.821E-03     4.80996E-03    -295.035E-03     589.232E-03    -294.953E-03     4.59287E-03
             143    -558.031E-09     125.452E-03    -100.110E+06    -152.906E+06    -99.7513E+06     226.151E+03    -294.432E-03     589.694E-03    -295.262E-03     4.32875E-03    -294.567E-03     589.220E-03    -295.394E-03     4.09997E-03
             144    -60.6143E-09     123.742E-03    -99.9931E+06    -150.208E+06    -99.9043E+06     805.572E+03    -294.517E-03     589.526E-03    -295.009E-03     4.17914E-03    -294.655E-03     589.066E-03    -295.146E-03     4.05072E-03
             145     10.6677E-09     122.033E-03    -97.6483E+06    -144.271E+06    -97.3781E+06     730.275E+03    -295.217E-03     590.030E-03    -294.814E-03     4.52441E-03    -295.355E-03     589.592E-03    -294.950E-03     4.43984E-03
             146     568.904E-09     120.323E-03    -97.2247E+06    -139.566E+06    -98.5428E+06     626.356E+03    -295.341E-03     590.507E-03    -295.166E-03     4.87750E-03    -295.482E-03     590.094E-03    -295.316E-03     4.69979E-03
             147    -940.393E-09     118.608E-03    -96.7073E+06    -132.706E+06    -95.7210E+06     923.536E+03    -294.237E-03     589.752E-03    -295.516E-03     5.09223E-03    -294.390E-03     589.369E-03    -295.662E-03     4.84079E-03
             148    -408.576E-09     116.905E-03    -96.4786E+06    -130.652E+06    -94.2617E+06    -195.300E+03    -294.358E-03     589.301E-03    -294.943E-03     4.05674E-03    -294.515E-03     588.925E-03    -295.085E-03     3.86756E-03
             149     983.533E-09     115.194E-03    -90.6333E+06    -126.028E+06    -93.2164E+06     1.21335E+06    -295.749E-03     590.185E-03    -294.436E-03     4.61894E-03    -295.886E-03     589.823E-03    -294.588E-03     4.37355E-03
             150     166.814E-09     113.482E-03    -90.6353E+06    -120.198E+06    -91.1803E+06     928.595E+03    -295.531E-03     590.433E-03    -294.901E-03     4.66787E-03    -295.679E-03     590.096E-03    -295.051E-03     4.47348E-03
             151    -490.387E-09     111.773E-03    -92.5039E+06    -117.105E+06    -91.6804E+06    -87.6445E+03    -294.577E-03     589.607E-03    -295.029E-03     4.26929E-03    -294.738E-03     589.289E-03    -295.184E-03     4.11803E-03
             152     205.102E-09     110.063E-03    -90.2898E+06    -111.855E+06    -89.8752E+06     869.978E+03    -294.491E-03     589.550E-03    -295.059E-03     4.49460E-03    -294.651E-03     589.253E-03    -295.215E-03     4.33854E-03
             153    -688.425E-09     108.355E-03    -88.8416E+06    -105.171E+06    -88.8480E+06     835.567E+03    -294.669E-03     589.904E-03    -295.235E-03     4.33087E-03    -294.833E-03     589.637E-03    -295.398E-03     4.08125E-03
             154     403.442E-09     106.641E-03    -87.3937E+06    -101.254E+06    -87.5194E+06     155.501E+03    -294.979E-03     590.191E-03    -295.212E-03     4.44780E-03    -295.143E-03     589.939E-03    -295.376E-03     4.24641E-03
             155    -443.280E-09     104.935E-03    -89.7031E+06    -103.646E+06    -89.4129E+06    -463.046E+03    -295.200E-03     590.362E-03    -295.162E-03     3.93196E-03    -295.369E-03     590.104E-03    -295.329E-03     3.69739E-03
             156     527.708E-09     103.221E-03    -88.4430E+06    -103.569E+06    -88.9966E+06     36.4694E+03    -295.195E-03     590.234E-03    -295.040E-03     4.31755E-03    -295.358E-03     589.975E-03    -295.206E-03     4.11980E-03
             157    -420.080E-09     101.510E-03    -87.1266E+06    -102.092E+06    -86.7539E+06     384.943E+03    -295.234E-03     590.186E-03    -294.952E-03     4.40015E-03    -295.396E-03     589.929E-03    -295.112E-03     4.29932E-03
             158     680.211E-09     99.8027E-03    -84.6510E+06    -99.7014E+06    -84.9466E+06     251.677E+03    -295.378E-03     590.446E-03    -295.068E-03     4.37356E-03    -295.534E-03     590.194E-03    -295.225E-03     4.10238E-03
             159     54.7573E-09     96.3795E-03    -84.6734E+06    -100.089E+06    -84.8641E+06    -181.463E+03    -294.766E-03     590.005E-03    -295.240E-03     4.61169E-03    -294.922E-03     589.752E-03    -295.396E-03     4.46181E-03
             160    -219.676E-09     94.6686E-03    -85.0045E+06    -98.9906E+06    -82.7882E+06     433.433E+03    -295.224E-03     590.268E-03    -295.044E-03     4.29047E-03    -295.386E-03     590.017E-03    -295.191E-03     4.03610E-03
             161     633.896E-09     92.9586E-03    -81.3489E+06    -97.0094E+06    -83.6344E+06    -249.390E+03    -295.551E-03     590.408E-03    -294.857E-03     3.80864E-03    -295.696E-03     590.163E-03    -295.016E-03     3.60621E-03
             162    -145.480E-09     91.2480E-03    -82.2778E+06    -96.1891E+06    -82.6589E+06    -3.26333E+03    -295.332E-03     590.280E-03    -294.948E-03     4.27425E-03    -295.485E-03     590.039E-03    -295.102E-03     4.10521E-03
             163     158.620E-09     89.5340E-03    -87.8415E+06    -99.2398E+06    -84.8513E+06    -408.165E+03    -295.024E-03     590.004E-03    -294.980E-03     4.44328E-03    -295.197E-03     589.759E-03    -295.133E-03     4.30628E-03
             164    -99.1853E-09     87.8286E-03    -82.2497E+06    -96.1271E+06    -84.7827E+06     781.157E+03    -295.137E-03     590.158E-03    -295.021E-03     4.35298E-03    -295.286E-03     589.920E-03    -295.187E-03     4.13131E-03
             165     161.999E-09     86.1143E-03    -81.7440E+06    -94.3960E+06    -81.2654E+06    -391.696E+03    -295.233E-03     590.731E-03    -295.498E-03     4.97204E-03    -295.388E-03     590.497E-03    -295.649E-03     4.69767E-03
             166    -590.107E-09     84.4016E-03    -84.1021E+06    -96.6930E+06    -82.4136E+06     380.797E+03    -295.379E-03     590.770E-03    -295.391E-03     4.58228E-03    -295.540E-03     590.529E-03    -295.541E-03     4.45454E-03
             167     1.00340E-06     82.6941E-03    -79.6256E+06    -94.2312E+06    -81.5811E+06     569.651E+03    -295.637E-03     590.631E-03    -294.994E-03     4.37680E-03    -295.780E-03     590.394E-03    -295.150E-03     4.17966E-03
             168    -583.780E-09     80.9787E-03    -79.2324E+06    -92.9315E+06    -79.8828E+06    -233.639E+03    -295.247E-03     590.389E-03    -295.143E-03     4.93476E-03    -295.393E-03     590.157E-03    -295.292E-03     4.72859E-03
             169     284.293E-09     79.2697E-03    -79.6113E+06    -91.9240E+06    -78.5679E+06     428.884E+03    -294.811E-03     590.113E-03    -295.302E-03     4.95260E-03    -294.962E-03     589.884E-03    -295.446E-03     4.80949E-03
             170    -648.636E-09     77.5599E-03    -78.8196E+06    -91.2005E+06    -79.1432E+06    -150.641E+03    -294.893E-03     590.468E-03    -295.575E-03     4.58530E-03    -295.041E-03     590.242E-03    -295.724E-03     4.31373E-03
             171     84.5624E-09     75.8491E-03    -80.1271E+06    -91.1523E+06    -78.5294E+06     270.059E+03    -295.273E-03     590.697E-03    -295.424E-03     3.71343E-03    -295.428E-03     590.472E-03    -295.568E-03     3.54358E-03
             172     283.279E-09     74.1365E-03    -77.2172E+06    -89.7809E+06    -78.8210E+06    -206.119E+03    -295.481E-03     590.664E-03    -295.183E-03     4.28853E-03    -295.623E-03     590.442E-03    -295.335E-03     4.06873E-03
             173    -276.479E-09     72.4261E-03    -78.6201E+06    -89.8255E+06    -77.1623E+06     225.156E+03    -295.423E-03     590.841E-03    -295.418E-03     4.22614E-03    -295.574E-03     590.619E-03    -295.560E-03     4.04109E-03
             174     278.256E-09     70.7129E-03    -77.8438E+06    -90.7591E+06    -79.3012E+06    -154.608E+03    -295.643E-03     590.872E-03    -295.229E-03     4.38278E-03    -295.786E-03     590.647E-03    -295.381E-03     4.23333E-03
             175     249.139E-09     69.0009E-03    -77.8193E+06    -90.5020E+06    -78.6120E+06     124.816E+03    -295.618E-03     590.878E-03    -295.260E-03     4.76959E-03    -295.762E-03     590.653E-03    -295.409E-03     4.56419E-03
             176    -316.842E-09     67.2908E-03    -79.4393E+06    -91.3391E+06    -78.6880E+06    -163.129E+03    -295.298E-03     590.727E-03    -295.429E-03     4.33222E-03    -295.449E-03     590.500E-03    -295.575E-03     4.13136E-03
             177     205.124E-09     65.5773E-03    -79.1264E+06    -91.8054E+06    -79.7240E+06    -46.6572E+03    -295.264E-03     590.824E-03    -295.560E-03     4.91867E-03    -295.411E-03     590.596E-03    -295.711E-03     4.65386E-03
             178    -509.160E-09     63.8669E-03    -80.8715E+06    -91.9914E+06    -78.0354E+06     10.6620E+03    -295.613E-03     591.159E-03    -295.546E-03     4.39480E-03    -295.771E-03     590.930E-03    -295.686E-03     4.17178E-03
             179     915.762E-09     62.1542E-03    -75.9484E+06    -90.2424E+06    -78.7829E+06     191.634E+03    -295.992E-03     591.102E-03    -295.110E-03     4.24510E-03    -296.127E-03     590.876E-03    -295.263E-03     4.07367E-03
             180    -176.964E-09     60.4415E-03    -76.7978E+06    -89.9649E+06    -76.6819E+06     166.773E+03    -295.732E-03     591.490E-03    -295.757E-03     5.32981E-03    -295.875E-03     591.263E-03    -295.899E-03     5.14200E-03
             181    -610.174E-09     58.7279E-03    -77.7870E+06    -90.9190E+06    -76.8802E+06     -72.923E+03    -295.513E-03     591.850E-03    -296.337E-03     4.45362E-03    -295.659E-03     591.621E-03    -296.477E-03     4.32891E-03
             182     290.539E-09     57.0156E-03    -76.7070E+06    -90.9330E+06    -77.1948E+06    -45.3395E+03    -295.593E-03     591.676E-03    -296.083E-03     4.66088E-03    -295.733E-03     591.446E-03    -296.226E-03     4.47276E-03
             183    -643.785E-09     55.3007E-03    -77.4442E+06    -91.0182E+06    -75.9249E+06     98.0571E+03    -296.339E-03     592.225E-03    -295.886E-03     5.21930E-03    -296.484E-03     591.994E-03    -296.022E-03     4.97333E-03
             184     1.59981E-06     53.5862E-03    -73.9779E+06    -89.6211E+06    -75.8342E+06     232.594E+03    -297.245E-03     592.744E-03    -295.498E-03     5.04417E-03    -297.375E-03     592.514E-03    -295.640E-03     4.81607E-03
             185    -249.375E-09     51.8718E-03    -75.1823E+06    -90.3966E+06    -75.4081E+06    -135.568E+03    -296.509E-03     592.862E-03    -296.352E-03     5.09739E-03    -296.646E-03     592.629E-03    -296.489E-03     4.74684E-03
             186    -906.137E-09     50.1589E-03    -76.6012E+06    -90.8310E+06    -74.4025E+06     125.192E+03    -296.008E-03     593.446E-03    -297.438E-03     4.23045E-03    -296.152E-03     593.212E-03    -297.567E-03     3.94000E-03
             187     158.410E-09     48.4380E-03    -72.7772E+06    -89.1454E+06    -74.3492E+06    -180.132E+03    -296.651E-03     594.175E-03    -297.524E-03     4.73451E-03    -296.778E-03     593.944E-03    -297.661E-03     4.54702E-03
             188    -605.212E-09     46.7225E-03    -74.6949E+06    -90.1923E+06    -73.9934E+06     50.4778E+03    -297.164E-03     595.018E-03    -297.854E-03     5.16041E-03    -297.300E-03     594.784E-03    -297.985E-03     4.85089E-03
             189     120.859E-09     45.0011E-03    -71.5054E+06    -88.1969E+06    -72.5330E+06     367.086E+03    -297.837E-03     595.535E-03    -297.698E-03     4.71238E-03    -297.963E-03     595.305E-03    -297.829E-03     4.40574E-03
             190     528.855E-09     43.2817E-03    -72.1892E+06    -88.9590E+06    -72.8547E+06    -589.527E+03    -298.328E-03     595.909E-03    -297.581E-03     5.38845E-03    -298.455E-03     595.676E-03    -297.712E-03     5.12752E-03
             191    -202.857E-09     41.5606E-03    -73.6959E+06    -89.9464E+06    -73.1748E+06     346.877E+03    -298.611E-03     596.834E-03    -298.223E-03     5.06866E-03    -298.744E-03     596.599E-03    -298.352E-03     4.84496E-03
             192     384.474E-09     39.8391E-03    -72.8606E+06    -89.2982E+06    -72.6380E+06    -7.15463E+03    -298.923E-03     597.821E-03    -298.898E-03     4.93122E-03    -299.053E-03     597.587E-03    -299.026E-03     4.62856E-03
             193    -544.062E-09     38.1128E-03    -75.2820E+06    -91.2551E+06    -73.7020E+06    -314.842E+03    -299.336E-03     598.823E-03    -299.488E-03     5.58304E-03    -299.474E-03     598.585E-03    -299.615E-03     5.20443E-03
             194     497.969E-09     36.3857E-03    -72.4762E+06    -89.8925E+06    -72.7734E+06     611.142E+03    -299.919E-03     599.724E-03    -299.805E-03     5.73770E-03    -300.047E-03     599.487E-03    -299.934E-03     5.43018E-03
             195    -320.678E-09     34.6595E-03    -68.7006E+06    -87.1887E+06    -70.2881E+06     85.6661E+03    -300.101E-03     600.887E-03    -300.786E-03     5.90304E-03    -300.218E-03     600.655E-03    -300.912E-03     5.52087E-03
             196    -801.073E-09     32.9296E-03    -69.8514E+06    -87.0124E+06    -68.6594E+06    -273.151E+03    -300.554E-03     602.508E-03    -301.954E-03     5.66934E-03    -300.679E-03     602.275E-03    -302.069E-03     5.25205E-03
             197     53.1636E-09     31.1935E-03    -70.2719E+06    -88.3875E+06    -71.1987E+06    -109.171E+03    -301.756E-03     603.842E-03    -302.085E-03     5.90403E-03    -301.878E-03     603.607E-03    -302.211E-03     5.54681E-03
             198     229.810E-09     29.4610E-03    -69.8251E+06    -87.6707E+06    -70.1516E+06     93.8032E+03    -302.434E-03     605.105E-03    -302.671E-03     6.53034E-03    -302.556E-03     604.872E-03    -302.794E-03     6.09675E-03
             199    -853.399E-09     27.7210E-03    -68.1293E+06    -85.3633E+06    -66.7714E+06     97.3278E+03    -302.641E-03     605.846E-03    -303.205E-03     5.92223E-03    -302.763E-03     605.617E-03    -303.316E-03     5.46697E-03
             200     721.339E-09     25.9855E-03    -65.0290E+06    -83.8350E+06    -66.0291E+06     445.475E+03    -302.939E-03     605.397E-03    -302.458E-03     5.36977E-03    -303.049E-03     605.170E-03    -302.573E-03     4.94828E-03
             201     27.5541E-09     24.2485E-03    -65.0978E+06    -83.5747E+06    -64.8327E+06     176.306E+03    -302.124E-03     603.965E-03    -301.840E-03     5.67573E-03    -302.236E-03     603.737E-03    -301.949E-03     5.26075E-03
             202    -413.182E-09     22.5150E-03    -64.3605E+06    -83.3970E+06    -64.4902E+06    -110.207E+03    -300.189E-03     601.205E-03    -301.016E-03     5.44058E-03    -300.298E-03     600.976E-03    -301.124E-03     5.06791E-03
             203    -318.842E-09     20.7893E-03    -64.7094E+06    -84.1051E+06    -64.3673E+06    -425.544E+03    -297.958E-03     596.456E-03    -298.498E-03     4.75053E-03    -298.068E-03     596.224E-03    -298.604E-03     4.29932E-03
             204     326.123E-09     19.0723E-03    -64.0683E+06    -85.1513E+06    -65.0885E+06    -140.718E+03    -294.459E-03     589.164E-03    -294.705E-03     3.96231E-03    -294.564E-03     588.926E-03    -294.814E-03     3.52692E-03
             205    -673.004E-09     17.3730E-03    -65.1269E+06    -86.9917E+06    -65.0998E+06     4.48797E+03    -289.206E-03     579.739E-03    -290.532E-03     3.24324E-03    -289.314E-03     579.493E-03    -290.637E-03     2.88025E-03
             206    -765.389E-09     15.6876E-03    -63.9888E+06    -87.2794E+06    -63.4872E+06     288.808E+03    -283.241E-03     567.709E-03    -284.468E-03     1.53541E-03    -283.345E-03     567.457E-03    -284.566E-03     1.25227E-03
             207     567.258E-09     14.0278E-03    -60.1641E+06    -85.5353E+06    -59.7644E+06     -38.385E+03    -276.093E-03     552.400E-03    -276.307E-03     805.693E-06    -276.186E-03     552.145E-03    -276.395E-03     445.798E-06
             208    -633.815E-09     12.3948E-03    -56.2561E+06    -84.1830E+06    -56.5304E+06    -91.3005E+03    -267.211E-03     534.772E-03    -267.561E-03    -121.749E-06    -267.293E-03     534.512E-03    -267.640E-03    -532.061E-06
             209     243.403E-09     10.7925E-03    -50.5926E+06    -80.7891E+06    -50.9799E+06     872.502E+03    -258.153E-03     516.079E-03    -257.925E-03    -1.49381E-03    -258.219E-03     515.819E-03    -257.989E-03    -1.87791E-03
             210     497.297E-09     9.22107E-03    -44.6697E+06    -76.6287E+06    -44.8804E+06     751.865E+03    -249.719E-03     498.809E-03    -249.090E-03    -1.00261E-03    -249.769E-03     498.554E-03    -249.138E-03    -1.48074E-03
             211    -339.762E-09     7.67097E-03    -39.1102E+06    -72.0356E+06    -38.7241E+06     1.10314E+06    -243.290E-03     486.386E-03    -243.096E-03     154.404E-06    -243.327E-03     486.139E-03    -243.128E-03    -290.894E-06
             212     468.757E-09     6.13890E-03    -33.2030E+06    -66.3884E+06    -32.4908E+06     228.368E+03    -239.664E-03     480.324E-03    -240.660E-03     1.28727E-03    -239.688E-03     480.089E-03    -240.678E-03     931.626E-06
             213    -1.99995E-06     4.60797E-03    -31.8949E+06    -65.0156E+06    -31.7871E+06     132.960E+03    -239.434E-03     479.666E-03    -240.232E-03     1.29466E-03    -239.453E-03     479.436E-03    -240.250E-03     1.00926E-03
             214     2.40100E-06     3.07571E-03    -33.2656E+06    -65.4194E+06    -32.9990E+06     477.919E+03    -241.287E-03     481.963E-03    -240.676E-03     1.87251E-03    -241.309E-03     481.735E-03    -240.698E-03     1.67441E-03
             215    -1.93825E-06     1.53798E-03    -32.3517E+06    -63.8482E+06    -32.4630E+06     360.101E+03    -242.136E-03     483.931E-03    -241.796E-03     1.06749E-03    -242.156E-03     483.708E-03    -241.818E-03     987.515E-06
             216     706.143E-06    -305.311E-18    -32.0545E+06    -62.6306E+06    -31.1042E+06     473.903E+03    -242.604E-03     484.945E-03    -242.341E-03     463.201E-06    -242.627E-03     484.724E-03    -242.360E-03     381.374E-06
             217     1.41177E-03    -305.311E-18    -31.8687E+06    -61.8932E+06    -30.1363E+06     300.916E+03    -243.333E-03     485.985E-03    -242.652E-03     1.59753E-03    -243.359E-03     485.766E-03    -242.666E-03     1.42736E-03
             218     2.11727E-03    -305.311E-18    -31.3824E+06    -60.4984E+06    -28.2004E+06     406.348E+03    -244.114E-03     487.132E-03    -243.018E-03     1.85377E-03    -244.143E-03     486.916E-03    -243.026E-03     1.61940E-03
             219     2.82170E-03    -305.311E-18    -29.6794E+06    -57.9816E+06    -25.3253E+06    -1.29536E+06    -245.322E-03     488.771E-03    -243.449E-03     2.83424E-03    -245.351E-03     488.563E-03    -243.449E-03     2.47334E-03
             220     3.52505E-03    -305.311E-18    -26.8838E+06    -53.5483E+06    -19.8821E+06    -2.17238E+06    -247.048E-03     491.059E-03    -244.011E-03     3.67708E-03    -247.078E-03     490.861E-03    -243.994E-03     3.19289E-03
             221     4.22747E-03    -305.311E-18    -23.9463E+06    -47.8843E+06    -11.8688E+06    -435.263E+03    -249.284E-03     494.016E-03    -244.731E-03     4.43169E-03    -249.321E-03     493.832E-03    -244.686E-03     3.91206E-03
             222     4.92750E-03    -305.311E-18    -21.7894E+06    -43.2804E+06    -5.11969E+06     238.849E+03    -252.209E-03     497.826E-03    -245.617E-03     5.20993E-03    -252.252E-03     497.653E-03    -245.548E-03     4.61874E-03
             223     5.62607E-03    -305.311E-18    -19.3421E+06    -39.6349E+06     961.571E+03    -73.7106E+03    -255.746E-03     502.433E-03    -246.687E-03     5.91554E-03    -255.792E-03     502.267E-03    -246.596E-03     5.20238E-03
             224     6.32096E-03    -305.311E-18    -16.6606E+06    -37.0196E+06     6.89422E+06     290.208E+03    -259.960E-03     507.912E-03    -247.951E-03     6.88365E-03    -260.007E-03     507.749E-03    -247.839E-03     6.04366E-03
             225     7.01370E-03    -305.311E-18    -14.2629E+06    -25.4535E+06     12.6390E+06     552.788E+03    -264.975E-03     514.387E-03    -249.411E-03     7.85082E-03    -265.038E-03     514.273E-03    -249.291E-03     6.80947E-03
             226     7.70175E-03    -305.311E-18    -12.6117E+06    -13.7350E+06     16.3780E+06     1.29361E+06    -271.168E-03     522.270E-03    -251.102E-03     8.44056E-03    -271.248E-03     522.210E-03    -250.982E-03     7.17948E-03
             227     8.38697E-03    -305.311E-18    -11.5167E+06    -11.1638E+06     17.7322E+06     1.87922E+06    -279.302E-03     532.401E-03    -253.099E-03     8.37338E-03    -279.385E-03     532.354E-03    -252.977E-03     6.82577E-03
             228     9.06470E-03    -305.311E-18    -10.9459E+06    -8.78258E+06     18.5481E+06     1.44581E+06    -289.888E-03     545.379E-03    -255.490E-03     8.16528E-03    -289.975E-03     545.345E-03    -255.369E-03     6.33154E-03
             229     9.73529E-03    -305.311E-18    -9.85239E+06     -5.2585E+06     20.1850E+06     940.735E+03    -304.466E-03     562.879E-03    -258.412E-03     8.43240E-03    -304.561E-03     562.867E-03    -258.289E-03     6.11064E-03
             230     10.3954E-03    -305.311E-18    -9.31048E+06    -1.40223E+06     22.1749E+06     1.42972E+06    -324.465E-03     586.517E-03    -262.052E-03     8.43785E-03    -324.569E-03     586.528E-03    -261.925E-03     5.61933E-03
             231     11.0384E-03    -305.311E-18    -7.86880E+06     3.78144E+06     24.7881E+06     1.84666E+06    -350.734E-03     617.337E-03    -266.603E-03     13.6273E-03    -350.865E-03     617.396E-03    -266.473E-03     10.0029E-03
             232     11.6594E-03    -305.311E-18    -5.74827E+06     9.98563E+06     26.7241E+06    -111.293E+03    -388.169E-03     660.513E-03    -272.344E-03     15.5996E-03    -388.312E-03     660.620E-03    -272.216E-03     11.3533E-03
             233     12.2708E-03    -305.311E-18    -6.06262E+06     15.4491E+06     25.9564E+06    -1.83770E+06    -448.896E-03     728.772E-03    -279.876E-03     9.94676E-03    -449.029E-03     728.924E-03    -279.760E-03     5.80698E-03
             234     12.8236E-03    -305.311E-18    -695.277E+03     33.3565E+06     30.6639E+06    -711.523E+03    -540.893E-03     830.845E-03    -289.952E-03     74.1371E-03    -541.518E-03     831.547E-03    -289.846E-03     63.8608E-03
             235     13.3773E-03     2.46537E-03     2.02421E+06     41.6007E+06     32.2980E+06    -3.28004E+06    -513.702E-03     808.489E-03    -294.786E-03     134.912E-03    -514.926E-03     809.770E-03    -294.688E-03     118.602E-03
             236     13.3757E-03     4.37686E-03    -3.58002E+06     27.6033E+06     31.2411E+06    -2.20839E+06    -413.986E-03     707.936E-03    -293.950E-03     125.764E-03    -415.214E-03     709.143E-03    -293.829E-03     110.605E-03
             237     13.3961E-03     6.23874E-03    -4.05628E+06     20.1772E+06     34.8482E+06     414.324E+03    -375.654E-03     669.799E-03    -294.145E-03     114.897E-03    -376.733E-03     670.829E-03    -293.994E-03     101.173E-03
             238     13.3933E-03     8.05048E-03    -1.58071E+06     19.4485E+06     37.4415E+06    -805.784E+03    -344.243E-03     638.719E-03    -294.477E-03     110.454E-03    -345.320E-03     639.751E-03    -294.315E-03     97.0903E-03
             239     13.4002E-03     9.80289E-03    -667.146E+03     18.2844E+06     38.6932E+06    -505.204E+03    -327.174E-03     621.922E-03    -294.748E-03     111.184E-03    -328.234E-03     622.931E-03    -294.580E-03     98.3292E-03
             240     13.3973E-03     11.5512E-03    -365.759E+03     17.7844E+06     40.9894E+06    -112.022E+03    -317.589E-03     612.521E-03    -294.932E-03     104.593E-03    -318.535E-03     613.410E-03    -294.752E-03     92.7436E-03
             241     13.3990E-03     13.2867E-03    -2.37187E+06     15.3938E+06     41.8228E+06    -210.482E+03    -307.510E-03     602.686E-03    -295.176E-03     103.510E-03    -308.419E-03     603.521E-03    -294.986E-03     92.2947E-03
             242     13.3995E-03     14.9956E-03    -138.700E+03     16.3349E+06     42.8422E+06     877.883E+03    -299.355E-03     594.669E-03    -295.314E-03     103.125E-03    -300.221E-03     595.469E-03    -295.124E-03     92.4780E-03
             243     13.4005E-03     16.7048E-03    -169.814E+03     16.3794E+06     44.6737E+06    -30.5489E+03    -296.286E-03     591.684E-03    -295.399E-03     98.8758E-03    -297.117E-03     592.444E-03    -295.199E-03     88.3719E-03
             244     13.3977E-03     18.4049E-03    -2.03071E+06     15.1597E+06     45.9630E+06    -715.400E+03    -292.380E-03     587.896E-03    -295.516E-03     96.3167E-03    -293.189E-03     588.618E-03    -295.306E-03     86.0958E-03
             245     13.4017E-03     20.1055E-03    -662.090E+03     15.9973E+06     46.5832E+06     381.353E+03    -288.691E-03     584.297E-03    -295.606E-03     95.8610E-03    -289.471E-03     584.997E-03    -295.395E-03     85.9905E-03
             246     13.3967E-03     21.7943E-03    -1.64193E+06     15.2043E+06     46.2883E+06    -255.112E+03    -288.477E-03     584.114E-03    -295.636E-03     95.1151E-03    -289.255E-03     584.806E-03    -295.425E-03     85.2358E-03
             247     13.4014E-03     23.4922E-03    -1.36721E+06     15.4827E+06     46.1104E+06    -547.907E+03    -288.280E-03     583.891E-03    -295.611E-03     94.2877E-03    -289.055E-03     584.583E-03    -295.401E-03     84.3616E-03
             248     13.3985E-03     25.1854E-03    -1.51814E+06     15.5609E+06     46.3366E+06    -563.379E+03    -289.232E-03     584.837E-03    -295.605E-03     93.2499E-03    -289.990E-03     585.510E-03    -295.394E-03     83.4545E-03
             249     13.3986E-03     26.8878E-03    -1.19650E+06     16.1835E+06     47.3038E+06     383.244E+03    -289.334E-03     584.940E-03    -295.607E-03     94.0528E-03    -290.072E-03     585.595E-03    -295.392E-03     84.5525E-03
             250     13.4014E-03     28.5793E-03    -2.54671E+06     15.1911E+06     46.2215E+06    -869.451E+03    -290.099E-03     585.648E-03    -295.549E-03     94.3825E-03    -290.860E-03     586.319E-03    -295.336E-03     84.6262E-03
             251     13.3976E-03     30.2835E-03    -482.435E+03     17.5570E+06     48.6459E+06     363.623E+03    -291.544E-03     587.056E-03    -295.512E-03     93.0136E-03    -292.274E-03     587.705E-03    -295.293E-03     83.4933E-03
             252     13.4026E-03     31.9838E-03    -1.12987E+06     17.2078E+06     48.4663E+06    -137.046E+03    -291.727E-03     587.222E-03    -295.495E-03     93.5170E-03    -292.465E-03     587.876E-03    -295.276E-03     83.9383E-03
             253     13.3971E-03     33.6834E-03    -1.94014E+06     17.1270E+06     49.2341E+06    -669.832E+03    -293.013E-03     588.479E-03    -295.466E-03     93.3523E-03    -293.761E-03     589.138E-03    -295.242E-03     83.6587E-03
             254     13.4030E-03     35.3927E-03    -88.5204E+03     18.8574E+06     49.7934E+06     710.555E+03    -293.351E-03     588.770E-03    -295.420E-03     94.1191E-03    -294.071E-03     589.413E-03    -295.198E-03     84.7655E-03
             255     13.3987E-03     37.0921E-03    -1.72731E+06     17.6250E+06     48.9372E+06     93.2032E+03    -293.989E-03     589.406E-03    -295.417E-03     92.4424E-03    -294.715E-03     590.047E-03    -295.196E-03     82.9269E-03
             256     13.4005E-03     38.8010E-03    -752.972E+03     18.9272E+06     50.8189E+06     318.983E+03    -293.922E-03     589.369E-03    -295.447E-03     92.9006E-03    -294.651E-03     590.015E-03    -295.220E-03     83.3936E-03
             257     13.4001E-03     40.5017E-03    -1.70209E+06     18.0288E+06     49.5852E+06    -571.521E+03    -293.913E-03     589.343E-03    -295.430E-03     93.2105E-03    -294.652E-03     589.996E-03    -295.205E-03     83.5957E-03
             258     13.3999E-03     42.2102E-03    -2.04995E+06     17.9489E+06     49.2728E+06    -280.854E+03    -294.427E-03     589.825E-03    -295.398E-03     93.8057E-03    -295.181E-03     590.492E-03    -295.175E-03     84.0454E-03
             259     13.4017E-03     43.9149E-03    -1.24192E+06     19.1460E+06     50.4964E+06    -551.243E+03    -295.670E-03     591.032E-03    -295.362E-03     94.2655E-03    -296.421E-03     591.699E-03    -295.135E-03     84.5419E-03
             260     13.3987E-03     45.6256E-03    -630.959E+03     19.9618E+06     51.4731E+06     1.06483E+06    -296.427E-03     591.772E-03    -295.345E-03     93.4799E-03    -297.144E-03     592.408E-03    -295.116E-03     84.1475E-03
             261     13.4029E-03     47.3340E-03    -1.32230E+06     19.3598E+06     50.7448E+06     169.136E+03    -296.063E-03     591.409E-03    -295.345E-03     93.6094E-03    -296.792E-03     592.054E-03    -295.118E-03     84.1426E-03
             262     13.3979E-03     49.0401E-03    -1.45411E+06     19.5659E+06     51.0603E+06    -233.230E+03    -296.607E-03     591.940E-03    -295.333E-03     93.9227E-03    -297.356E-03     592.605E-03    -295.104E-03     84.2134E-03
             263     13.4037E-03     50.7531E-03    -668.900E+03     20.6820E+06     52.0255E+06     388.867E+03    -296.664E-03     591.960E-03    -295.297E-03     94.2377E-03    -297.409E-03     592.625E-03    -295.066E-03     84.5975E-03
             264     13.3991E-03     52.4582E-03    -1.21350E+06     20.6628E+06     52.9567E+06    -93.1429E+03    -297.541E-03     592.864E-03    -295.324E-03     92.3238E-03    -298.278E-03     593.517E-03    -295.087E-03     82.6787E-03
             265     13.4001E-03     54.1765E-03    -1.36800E+06     20.0950E+06     51.4861E+06     671.147E+03    -296.506E-03     591.856E-03    -295.350E-03     94.2884E-03    -297.240E-03     592.507E-03    -295.120E-03     84.8320E-03
             266     13.4026E-03     55.8743E-03    -1.91785E+06     19.9226E+06     50.9369E+06    -483.012E+03    -296.553E-03     591.830E-03    -295.277E-03     95.2101E-03    -297.313E-03     592.506E-03    -295.049E-03     85.4599E-03
             267     13.4002E-03     57.5936E-03    -1.20042E+06     21.4198E+06     53.8368E+06     150.271E+03    -298.362E-03     593.642E-03    -295.280E-03     92.4022E-03    -299.102E-03     594.297E-03    -295.040E-03     82.7507E-03
             268     13.4003E-03     59.3030E-03    -1.26649E+06     21.1500E+06     53.1286E+06     164.516E+03    -297.236E-03     592.547E-03    -295.310E-03     94.2762E-03    -297.976E-03     593.203E-03    -295.074E-03     84.7643E-03
             269     13.4025E-03     61.0079E-03    -1.75391E+06     21.1618E+06     53.1768E+06    -413.564E+03    -297.494E-03     592.747E-03    -295.253E-03     94.2565E-03    -298.260E-03     593.427E-03    -295.015E-03     84.4104E-03
             270     13.4006E-03     62.7263E-03    -961.240E+03     21.9071E+06     53.6949E+06     23.6160E+03    -298.009E-03     593.277E-03    -295.269E-03     92.2119E-03    -298.745E-03     593.933E-03    -295.031E-03     82.5754E-03
             271     13.4005E-03     64.4339E-03    -1.34020E+06     21.8119E+06     54.3848E+06     253.713E+03    -296.908E-03     592.227E-03    -295.319E-03     94.3640E-03    -297.654E-03     592.888E-03    -295.077E-03     84.8277E-03
             272     13.4018E-03     66.1416E-03    -2.07871E+06     21.3815E+06     53.8649E+06    -792.285E+03    -297.208E-03     592.496E-03    -295.288E-03     93.9052E-03    -297.977E-03     593.177E-03    -295.047E-03     84.0358E-03
             273     13.4004E-03     67.8545E-03    -734.323E+03     22.3961E+06     53.5409E+06     502.689E+03    -297.120E-03     592.384E-03    -295.264E-03     93.6972E-03    -297.866E-03     593.051E-03    -295.028E-03     84.0636E-03
             274     13.4031E-03     69.5637E-03    -1.44123E+06     22.2950E+06     54.5557E+06     -76.572E+03    -297.533E-03     592.808E-03    -295.275E-03     93.9349E-03    -298.287E-03     593.478E-03    -295.032E-03     84.2546E-03
             275     13.3983E-03     71.2746E-03    -2.02019E+06     21.8232E+06     54.2952E+06     42.3969E+03    -297.990E-03     593.282E-03    -295.292E-03     93.4313E-03    -298.739E-03     593.944E-03    -295.049E-03     83.8004E-03
             276     13.4036E-03     72.9872E-03    -970.249E+03     22.5940E+06     53.9551E+06     497.864E+03    -296.776E-03     592.067E-03    -295.291E-03     94.3608E-03    -297.516E-03     592.727E-03    -295.052E-03     84.8845E-03
             277     13.3994E-03     74.6930E-03    -993.077E+03     22.9828E+06     55.1307E+06    -205.743E+03    -297.264E-03     592.562E-03    -295.298E-03     93.5636E-03    -298.018E-03     593.233E-03    -295.054E-03     83.8703E-03
             278     13.4017E-03     76.4070E-03    -1.34890E+06     22.8115E+06     55.3684E+06     225.840E+03    -297.170E-03     592.460E-03    -295.289E-03     94.4775E-03    -297.932E-03     593.137E-03    -295.044E-03     84.7725E-03
             279     13.4021E-03     78.1127E-03    -1.86416E+06     22.9975E+06     55.6160E+06    -567.295E+03    -297.295E-03     592.553E-03    -295.258E-03     93.9168E-03    -298.065E-03     593.236E-03    -295.010E-03     84.0909E-03
             280     13.4005E-03     79.8270E-03    -1.48120E+06     24.1984E+06     56.6557E+06     186.329E+03    -298.042E-03     593.316E-03    -295.274E-03     92.9408E-03    -298.793E-03     593.984E-03    -295.024E-03     83.3018E-03
             281     13.4015E-03     81.5380E-03    -552.960E+03     24.6029E+06     54.8839E+06     696.439E+03    -296.927E-03     592.184E-03    -295.257E-03     94.8287E-03    -297.671E-03     592.854E-03    -295.018E-03     85.3684E-03
             282     13.4032E-03     83.2439E-03    -2.42678E+06     23.0635E+06     54.6437E+06    -421.291E+03    -297.723E-03     592.952E-03    -295.229E-03     93.5628E-03    -298.486E-03     593.630E-03    -294.986E-03     83.8034E-03
             283     13.3992E-03     84.9606E-03    -1.55040E+06     24.4031E+06     57.7559E+06     123.477E+03    -298.075E-03     593.333E-03    -295.257E-03     93.5499E-03    -298.832E-03     594.003E-03    -295.002E-03     83.9053E-03
             284     13.4041E-03     86.6684E-03    -483.786E+03     25.6754E+06     58.3947E+06     272.301E+03    -297.162E-03     592.404E-03    -295.242E-03     94.8562E-03    -297.923E-03     593.085E-03    -294.986E-03     85.2299E-03
             285     13.4004E-03     88.3777E-03    -1.87251E+06     26.7949E+06     57.9569E+06     315.002E+03    -297.905E-03     593.123E-03    -295.218E-03     93.3338E-03    -298.668E-03     593.806E-03    -294.964E-03     83.6774E-03
             286     13.4029E-03     90.0933E-03    -1.37468E+06     27.7725E+06     58.4067E+06    -221.116E+03    -297.635E-03     592.885E-03    -295.249E-03     93.2399E-03    -298.394E-03     593.568E-03    -294.996E-03     83.6172E-03
             287     13.4003E-03     91.7978E-03    -1.70119E+06     26.5197E+06     58.6770E+06    -504.235E+03    -297.212E-03     592.456E-03    -295.245E-03     94.3803E-03    -297.996E-03     593.159E-03    -294.987E-03     84.5111E-03
             288     13.4041E-03     93.5118E-03    -2.50915E+06     26.3236E+06     58.2634E+06    -476.227E+03    -298.145E-03     593.365E-03    -295.219E-03     93.3445E-03    -298.930E-03     594.065E-03    -294.963E-03     83.4096E-03
             289     13.3991E-03     95.2238E-03    -991.299E+03     27.9978E+06     59.4799E+06     487.834E+03    -297.476E-03     592.721E-03    -295.246E-03     93.6279E-03    -298.227E-03     593.396E-03    -294.987E-03     84.1447E-03
             290     13.4051E-03     96.9337E-03    -880.863E+03     28.5277E+06     59.7902E+06     690.646E+03    -296.554E-03     591.793E-03    -295.238E-03     95.2430E-03    -297.310E-03     592.473E-03    -294.979E-03     85.8431E-03
             291     13.3999E-03     98.6406E-03    -1.75329E+06     28.9094E+06     59.1723E+06     61.2257E+03    -297.542E-03     592.767E-03    -295.224E-03     93.7346E-03    -298.316E-03     593.466E-03    -294.968E-03     84.0182E-03
             292     669.785E-06     99.8074E-03    -83.9974E+06    -98.1911E+06    -82.5513E+06     566.684E+03    -295.243E-03     590.370E-03    -295.127E-03     7.36567E-03    -295.403E-03     590.123E-03    -295.275E-03     7.03420E-03
             293     1.33994E-03     99.8267E-03    -82.0374E+06    -94.2320E+06    -76.4946E+06     821.087E+03    -295.138E-03     590.314E-03    -295.177E-03     13.5724E-03    -295.307E-03     590.080E-03    -295.304E-03     13.0201E-03
             294     2.00956E-03     99.8562E-03    -79.1796E+06    -88.6010E+06    -67.7297E+06     685.237E+03    -295.139E-03     590.306E-03    -295.166E-03     20.1530E-03    -295.325E-03     590.092E-03    -295.262E-03     19.2418E-03
             295     2.67974E-03     99.8975E-03    -75.4791E+06    -81.5765E+06    -56.6130E+06     280.030E+03    -295.214E-03     590.383E-03    -295.169E-03     27.0023E-03    -295.422E-03     590.197E-03    -295.224E-03     25.6886E-03
             296     3.34953E-03     99.9513E-03    -70.8072E+06    -73.8407E+06    -44.7917E+06    -43.4053E+03    -295.451E-03     590.639E-03    -295.189E-03     34.0715E-03    -295.683E-03     590.489E-03    -295.203E-03     32.3096E-03
             297     4.01955E-03     100.017E-03    -65.3675E+06    -65.8999E+06    -33.2413E+06     112.883E+03    -295.619E-03     590.836E-03    -295.217E-03     41.3145E-03    -295.881E-03     590.728E-03    -295.193E-03     39.0119E-03
             298     4.68978E-03     100.095E-03    -59.6636E+06    -57.9923E+06    -21.8015E+06     549.422E+03    -295.750E-03     590.986E-03    -295.236E-03     48.7137E-03    -296.048E-03     590.930E-03    -295.175E-03     45.7800E-03
             299     5.36000E-03     100.185E-03    -54.0170E+06    -50.5378E+06    -11.2698E+06     801.577E+03    -296.014E-03     591.262E-03    -295.248E-03     56.1496E-03    -296.359E-03     591.268E-03    -295.152E-03     52.4793E-03
             300     6.03001E-03     100.288E-03    -48.7011E+06    -43.9879E+06    -2.40471E+06     857.688E+03    -296.364E-03     591.622E-03    -295.258E-03     63.6938E-03    -296.765E-03     591.702E-03    -295.136E-03     59.1709E-03
             301     6.70003E-03     100.404E-03    -43.5954E+06    -26.8858E+06     8.72445E+06     707.084E+03    -296.667E-03     591.936E-03    -295.269E-03     71.5051E-03    -297.163E-03     592.156E-03    -295.123E-03     65.9824E-03
             302     7.36997E-03     100.532E-03    -38.8785E+06    -10.0373E+06     19.9617E+06     416.725E+03    -296.912E-03     592.191E-03    -295.278E-03     79.3591E-03    -297.523E-03     592.569E-03    -295.108E-03     72.6963E-03
             303     8.04019E-03     100.672E-03    -33.9490E+06    -3.46590E+06     28.8743E+06     651.934E+03    -297.173E-03     592.457E-03    -295.284E-03     87.1118E-03    -297.898E-03     592.965E-03    -295.085E-03     79.2210E-03
             304     8.71049E-03     100.824E-03    -28.3949E+06     3.99835E+06     37.5269E+06     707.420E+03    -297.483E-03     592.766E-03    -295.282E-03     94.4325E-03    -298.335E-03     593.422E-03    -295.059E-03     85.2550E-03
             305     9.38097E-03     100.987E-03    -23.0232E+06     10.5471E+06     44.3072E+06     413.979E+03    -297.851E-03     593.127E-03    -295.276E-03     101.163E-03    -298.838E-03     593.941E-03    -295.036E-03     90.6784E-03
             306     10.0508E-03     101.161E-03    -17.9557E+06     15.9559E+06     48.9566E+06     322.634E+03    -298.079E-03     593.341E-03    -295.263E-03     107.189E-03    -299.203E-03     594.317E-03    -295.015E-03     95.4142E-03
             307     10.7224E-03     101.341E-03    -13.6332E+06     20.1489E+06     50.8908E+06     257.752E+03    -298.360E-03     593.600E-03    -295.240E-03     112.010E-03    -299.609E-03     594.725E-03    -294.995E-03     99.0895E-03
             308     11.3907E-03     101.528E-03    -10.3357E+06     23.2701E+06     52.1739E+06     236.231E+03    -298.553E-03     593.778E-03    -295.225E-03     113.666E-03    -299.841E-03     594.961E-03    -294.983E-03     100.297E-03
             309     12.0619E-03     101.711E-03    -6.46931E+06     28.0018E+06     56.4719E+06     747.116E+03    -298.625E-03     593.846E-03    -295.221E-03     117.827E-03    -300.017E-03     595.151E-03    -294.970E-03     103.751E-03
             310     12.7342E-03     101.909E-03    -3.17663E+06     30.7597E+06     60.4634E+06     393.154E+03    -298.072E-03     593.286E-03    -295.214E-03     108.355E-03    -299.223E-03     594.360E-03    -294.951E-03     96.0304E-03
             311     670.013E-06     101.519E-03    -86.2132E+06    -100.395E+06    -84.8648E+06     366.089E+03    -295.198E-03     590.231E-03    -295.032E-03     7.36388E-03    -295.363E-03     589.979E-03    -295.186E-03     7.06359E-03
             312     1.33945E-03     101.537E-03    -84.0113E+06    -95.9250E+06    -78.5592E+06     781.694E+03    -295.122E-03     590.239E-03    -295.117E-03     13.7560E-03    -295.296E-03     590.003E-03    -295.249E-03     13.1604E-03
             313     2.00986E-03     101.567E-03    -80.5813E+06    -89.2377E+06    -68.1742E+06     1.20661E+06    -295.181E-03     590.316E-03    -295.135E-03     20.3744E-03    -295.372E-03     590.102E-03    -295.230E-03     19.4702E-03
             314     2.67965E-03     101.608E-03    -76.0578E+06    -81.2995E+06    -55.9809E+06     1.24942E+06    -295.323E-03     590.490E-03    -295.167E-03     27.0855E-03    -295.535E-03     590.306E-03    -295.219E-03     25.7856E-03
             315     3.34993E-03     101.662E-03    -71.2796E+06    -73.2273E+06    -43.2325E+06     1.10165E+06    -295.417E-03     590.619E-03    -295.202E-03     34.0652E-03    -295.655E-03     590.470E-03    -295.209E-03     32.3321E-03
             316     4.01981E-03     101.728E-03    -66.4010E+06    -65.5842E+06    -31.2267E+06     581.124E+03    -295.554E-03     590.780E-03    -295.227E-03     41.1441E-03    -295.824E-03     590.672E-03    -295.191E-03     38.8501E-03
             317     4.68981E-03     101.805E-03    -61.0919E+06    -58.4649E+06    -21.2150E+06     170.388E+03    -295.765E-03     591.004E-03    -295.239E-03     48.4723E-03    -296.070E-03     590.946E-03    -295.172E-03     45.5334E-03
             318     5.35974E-03     101.896E-03    -55.3978E+06    -51.3655E+06    -12.1102E+06     383.479E+03    -296.042E-03     591.291E-03    -295.249E-03     55.9625E-03    -296.390E-03     591.295E-03    -295.154E-03     52.2931E-03
             319     6.02974E-03     101.999E-03    -49.7172E+06    -44.2783E+06    -3.04145E+06     701.752E+03    -296.350E-03     591.610E-03    -295.261E-03     63.6942E-03    -296.755E-03     591.691E-03    -295.139E-03     59.1701E-03
             320     6.69979E-03     102.115E-03    -44.5056E+06    -27.2091E+06     8.27759E+06     1.06084E+06    -296.565E-03     591.831E-03    -295.267E-03     71.5889E-03    -297.064E-03     592.052E-03    -295.121E-03     66.0724E-03
             321     7.37017E-03     102.243E-03    -39.6960E+06    -9.76315E+06     20.1316E+06     1.28956E+06    -296.788E-03     592.055E-03    -295.267E-03     79.4320E-03    -297.403E-03     592.436E-03    -295.095E-03     72.7905E-03
             322     8.04047E-03     102.383E-03    -34.3819E+06    -2.34732E+06     29.6871E+06     344.801E+03    -297.211E-03     592.483E-03    -295.271E-03     87.1667E-03    -297.941E-03     592.996E-03    -295.070E-03     79.2773E-03
             323     8.71058E-03     102.535E-03    -28.5992E+06     4.47769E+06     37.9650E+06    -460.107E+03    -297.698E-03     592.977E-03    -295.279E-03     94.5823E-03    -298.555E-03     593.638E-03    -295.054E-03     85.3642E-03
             324     9.38031E-03     102.698E-03    -23.2815E+06     10.4623E+06     44.2685E+06    -371.890E+03    -297.980E-03     593.264E-03    -295.284E-03     101.319E-03    -298.973E-03     594.083E-03    -295.044E-03     90.7701E-03
             325     10.0511E-03     102.871E-03    -18.6147E+06     15.4090E+06     48.2859E+06    -143.137E+03    -298.048E-03     593.320E-03    -295.272E-03     107.005E-03    -299.176E-03     594.296E-03    -295.026E-03     95.1977E-03
             326     10.7204E-03     103.051E-03    -14.5728E+06     19.3148E+06     50.1378E+06     434.357E+03    -298.041E-03     593.281E-03    -295.240E-03     111.732E-03    -299.283E-03     594.395E-03    -294.996E-03     98.9050E-03
             327     11.3927E-03     103.238E-03    -10.8810E+06     23.1134E+06     53.0167E+06     761.561E+03    -298.121E-03     593.331E-03    -295.210E-03     113.388E-03    -299.405E-03     594.504E-03    -294.963E-03     100.105E-03
             328     12.0624E-03     103.421E-03    -6.71405E+06     28.3063E+06     58.1300E+06     326.500E+03    -298.513E-03     593.711E-03    -295.198E-03     116.835E-03    -299.902E-03     595.008E-03    -294.939E-03     102.744E-03
             329     12.7311E-03     103.618E-03    -2.81281E+06     31.5074E+06     61.8664E+06    -4.52189E+03    -298.150E-03     593.344E-03    -295.194E-03     107.144E-03    -299.292E-03     594.408E-03    -294.926E-03     94.8440E-03
             330     669.835E-06     103.230E-03    -88.0038E+06    -101.912E+06    -86.6656E+06     254.230E+03    -295.116E-03     590.182E-03    -295.065E-03     7.16647E-03    -295.285E-03     589.928E-03    -295.223E-03     6.85223E-03
             331     1.34037E-03     103.247E-03    -85.8255E+06    -97.2559E+06    -80.0118E+06     469.157E+03    -295.089E-03     590.183E-03    -295.094E-03     13.3726E-03    -295.269E-03     589.945E-03    -295.229E-03     12.7868E-03
             332     2.00991E-03     103.277E-03    -82.0675E+06    -90.8047E+06    -70.5845E+06     681.132E+03    -295.210E-03     590.325E-03    -295.115E-03     20.1534E-03    -295.403E-03     590.109E-03    -295.217E-03     19.2358E-03
             333     2.67983E-03     103.319E-03    -77.1230E+06    -82.6577E+06    -58.5365E+06     1.17768E+06    -295.368E-03     590.528E-03    -295.159E-03     27.0206E-03    -295.580E-03     590.342E-03    -295.220E-03     25.7202E-03
             334     3.34933E-03     103.372E-03    -71.7687E+06    -73.7946E+06    -44.8409E+06     1.73420E+06    -295.431E-03     590.635E-03    -295.204E-03     33.9789E-03    -295.669E-03     590.486E-03    -295.217E-03     32.2337E-03
             335     4.01962E-03     103.438E-03    -66.4829E+06    -65.3038E+06    -31.3589E+06     2.02464E+06    -295.524E-03     590.755E-03    -295.231E-03     41.1601E-03    -295.795E-03     590.649E-03    -295.197E-03     38.8875E-03
             336     4.68958E-03     103.516E-03    -60.9501E+06    -57.3393E+06    -18.9377E+06     1.69067E+06    -295.751E-03     591.001E-03    -295.250E-03     48.6204E-03    -296.061E-03     590.945E-03    -295.173E-03     45.7100E-03
             337     5.35972E-03     103.606E-03    -55.9302E+06    -50.7088E+06    -9.36423E+06     746.794E+03    -295.993E-03     591.252E-03    -295.259E-03     56.2661E-03    -296.350E-03     591.257E-03    -295.151E-03     52.6055E-03
             338     6.02995E-03     103.710E-03    -51.2420E+06    -44.8663E+06    -2.09926E+06     270.294E+03    -296.271E-03     591.528E-03    -295.257E-03     63.9491E-03    -296.685E-03     591.607E-03    -295.129E-03     59.4210E-03
             339     6.70016E-03     103.825E-03    -45.7728E+06    -28.0389E+06     8.27090E+06     251.654E+03    -296.515E-03     591.768E-03    -295.253E-03     71.6358E-03    -297.020E-03     591.987E-03    -295.105E-03     66.1013E-03
             340     7.37034E-03     103.953E-03    -38.6651E+06    -9.37096E+06     20.3851E+06    -62.4234E+03    -296.809E-03     592.059E-03    -295.250E-03     79.3893E-03    -297.420E-03     592.440E-03    -295.079E-03     72.7229E-03
             341     8.04049E-03     104.093E-03    -32.3988E+06    -1.18277E+06     29.9486E+06     168.008E+03    -297.219E-03     592.473E-03    -295.254E-03     87.2137E-03    -297.941E-03     592.988E-03    -295.056E-03     79.3250E-03
             342     8.71061E-03     104.246E-03    -27.9169E+06     5.19183E+06     38.4668E+06     435.250E+03    -297.598E-03     592.860E-03    -295.262E-03     94.8393E-03    -298.454E-03     593.524E-03    -295.037E-03     85.6395E-03
             343     9.38104E-03     104.409E-03    -23.6579E+06     10.4902E+06     45.1489E+06     289.048E+03    -297.920E-03     593.184E-03    -295.264E-03     101.833E-03    -298.920E-03     594.006E-03    -295.019E-03     91.2870E-03
             344     10.0506E-03     104.581E-03    -19.5474E+06     15.1179E+06     49.5437E+06     311.097E+03    -298.201E-03     593.458E-03    -295.257E-03     107.772E-03    -299.339E-03     594.437E-03    -295.003E-03     95.9645E-03
             345     10.7219E-03     104.762E-03    -15.2803E+06     19.4078E+06     52.1175E+06     41.9412E+03    -298.358E-03     593.599E-03    -295.241E-03     112.091E-03    -299.615E-03     594.719E-03    -294.986E-03     99.1824E-03
             346     11.3911E-03     104.946E-03    -10.5357E+06     24.0590E+06     55.1669E+06     4.87969E+03    -298.340E-03     593.567E-03    -295.226E-03     113.186E-03    -299.635E-03     594.750E-03    -294.970E-03     99.7748E-03
             347     12.0620E-03     105.133E-03    -6.73248E+06     28.5718E+06     58.6052E+06     142.550E+03    -298.483E-03     593.698E-03    -295.215E-03     116.604E-03    -299.881E-03     595.004E-03    -294.954E-03     102.409E-03
             348     12.7333E-03     105.328E-03    -3.34355E+06     31.0269E+06     61.1119E+06     44.1069E+03    -298.201E-03     593.408E-03    -295.207E-03     107.244E-03    -299.344E-03     594.472E-03    -294.942E-03     94.9685E-03
             349     669.886E-06     104.939E-03    -88.3843E+06    -101.706E+06    -86.8814E+06    -490.571E+03    -295.201E-03     590.377E-03    -295.176E-03     7.01586E-03    -295.372E-03     590.125E-03    -295.334E-03     6.68602E-03
             350     1.33925E-03     104.959E-03    -85.8562E+06    -97.6158E+06    -81.2057E+06    -395.536E+03    -295.170E-03     590.355E-03    -295.185E-03     13.3075E-03    -295.348E-03     590.117E-03    -295.325E-03     12.6989E-03
             351     2.00955E-03     104.987E-03    -82.6440E+06    -91.7183E+06    -72.3523E+06    -218.030E+03    -295.137E-03     590.314E-03    -295.176E-03     20.0915E-03    -295.329E-03     590.096E-03    -295.285E-03     19.1563E-03
             352     2.67960E-03     105.030E-03    -78.5922E+06    -84.2065E+06    -60.6586E+06     31.3248E+03    -295.186E-03     590.358E-03    -295.172E-03     27.0945E-03    -295.399E-03     590.170E-03    -295.240E-03     25.7893E-03
             353     3.34992E-03     105.083E-03    -73.3984E+06    -75.7312E+06    -47.8590E+06     430.647E+03    -295.351E-03     590.532E-03    -295.181E-03     34.1353E-03    -295.590E-03     590.380E-03    -295.204E-03     32.3609E-03
             354     4.01969E-03     105.148E-03    -67.3385E+06    -66.6909E+06    -34.5029E+06     959.554E+03    -295.510E-03     590.709E-03    -295.199E-03     41.3954E-03    -295.779E-03     590.602E-03    -295.177E-03     39.0927E-03
             355     4.68997E-03     105.226E-03    -60.8646E+06    -57.7633E+06    -21.5696E+06     1.59678E+06    -295.687E-03     590.900E-03    -295.213E-03     48.7506E-03    -295.992E-03     590.847E-03    -295.149E-03     45.8382E-03
             356     5.36007E-03     105.317E-03    -54.6479E+06    -49.7356E+06    -9.41353E+06     2.10515E+06    -295.959E-03     591.186E-03    -295.227E-03     56.2698E-03    -296.311E-03     591.194E-03    -295.123E-03     52.6301E-03
             357     6.03006E-03     105.420E-03    -49.3183E+06    -43.2495E+06     859.143E+03     1.47342E+06    -296.250E-03     591.489E-03    -295.238E-03     63.9319E-03    -296.661E-03     591.569E-03    -295.100E-03     59.4188E-03
             358     6.70017E-03     105.535E-03    -44.0341E+06    -25.9481E+06     11.3879E+06    -84.7347E+03    -296.558E-03     591.796E-03    -295.238E-03     71.6977E-03    -297.063E-03     592.019E-03    -295.080E-03     66.1525E-03
             359     7.37030E-03     105.663E-03    -39.3155E+06    -9.16784E+06     21.0781E+06    -550.879E+03    -296.894E-03     592.131E-03    -295.237E-03     79.4926E-03    -297.510E-03     592.514E-03    -295.061E-03     72.8134E-03
             360     8.04056E-03     105.804E-03    -34.5337E+06    -2.83573E+06     29.3240E+06     5.31212E+03    -297.188E-03     592.432E-03    -295.243E-03     87.2304E-03    -297.917E-03     592.942E-03    -295.042E-03     79.3479E-03
             361     8.71099E-03     105.956E-03    -29.1781E+06     4.28367E+06     38.3689E+06     728.074E+03    -297.408E-03     592.653E-03    -295.245E-03     94.6236E-03    -298.266E-03     593.311E-03    -295.017E-03     85.4494E-03
             362     9.38129E-03     106.119E-03    -23.9627E+06     10.6512E+06     46.6003E+06     1.15650E+06    -297.699E-03     592.940E-03    -295.241E-03     101.446E-03    -298.698E-03     593.757E-03    -294.988E-03     90.9417E-03
             363     10.0524E-03     106.292E-03    -19.0536E+06     16.2318E+06     52.3209E+06     797.653E+03    -298.153E-03     593.386E-03    -295.233E-03     107.323E-03    -299.292E-03     594.363E-03    -294.967E-03     95.5260E-03
             364     10.7215E-03     106.472E-03    -14.3422E+06     20.8366E+06     54.4652E+06     155.909E+03    -298.645E-03     593.870E-03    -295.225E-03     112.001E-03    -299.903E-03     594.993E-03    -294.962E-03     99.0837E-03
             365     11.3917E-03     106.659E-03    -10.5203E+06     24.3110E+06     55.3940E+06    -557.219E+03    -298.690E-03     593.911E-03    -295.221E-03     113.741E-03    -299.989E-03     595.099E-03    -294.964E-03     100.318E-03
             366     12.0614E-03     106.841E-03    -7.27015E+06     28.0375E+06     57.5846E+06    -653.912E+03    -298.609E-03     593.825E-03    -295.217E-03     117.245E-03    -300.018E-03     595.142E-03    -294.959E-03     102.976E-03
             367     12.7314E-03     107.039E-03    -3.28521E+06     31.0627E+06     60.7164E+06     322.627E+03    -297.972E-03     593.178E-03    -295.205E-03     107.892E-03    -299.120E-03     594.248E-03    -294.942E-03     95.6121E-03
             368     669.781E-06     106.652E-03    -87.4658E+06    -100.538E+06    -85.9811E+06     65.3420E+03    -295.073E-03     590.238E-03    -295.165E-03     7.45302E-03    -295.242E-03     589.989E-03    -295.322E-03     7.10986E-03
             369     1.33996E-03     106.668E-03    -86.1593E+06    -97.0292E+06    -80.1154E+06    -338.345E+03    -295.189E-03     590.324E-03    -295.135E-03     13.8234E-03    -295.371E-03     590.088E-03    -295.270E-03     13.1807E-03
             370     2.00960E-03     106.699E-03    -83.0634E+06    -91.2984E+06    -71.3614E+06    -534.427E+03    -295.168E-03     590.322E-03    -295.154E-03     20.4874E-03    -295.364E-03     590.106E-03    -295.258E-03     19.5290E-03
             371     2.67966E-03     106.739E-03    -79.1849E+06    -84.5288E+06    -60.9409E+06    -432.966E+03    -295.137E-03     590.288E-03    -295.151E-03     27.2652E-03    -295.353E-03     590.099E-03    -295.218E-03     25.9432E-03
             372     3.34970E-03     106.793E-03    -74.2863E+06    -76.3349E+06    -48.1743E+06    -445.272E+03    -295.266E-03     590.417E-03    -295.151E-03     34.1980E-03    -295.508E-03     590.264E-03    -295.173E-03     32.4164E-03
             373     4.01997E-03     106.859E-03    -68.4428E+06    -67.6627E+06    -35.1990E+06    -470.297E+03    -295.511E-03     590.676E-03    -295.166E-03     41.2849E-03    -295.782E-03     590.567E-03    -295.144E-03     38.9665E-03
             374     4.68990E-03     106.937E-03    -62.8015E+06    -60.0116E+06    -24.4463E+06     1.16131E+03    -295.739E-03     590.921E-03    -295.182E-03     48.6338E-03    -296.047E-03     590.863E-03    -295.126E-03     45.6913E-03
             375     5.36002E-03     107.027E-03    -57.1957E+06    -52.7181E+06    -15.1095E+06     1.17899E+06    -295.940E-03     591.130E-03    -295.190E-03     56.0873E-03    -296.291E-03     591.135E-03    -295.106E-03     52.4202E-03
             376     6.03034E-03     107.130E-03    -51.2929E+06    -40.4507E+06    -4.82085E+06     1.52460E+06    -296.177E-03     591.368E-03    -295.191E-03     63.7807E-03    -296.594E-03     591.473E-03    -295.082E-03     59.2540E-03
             377     6.70052E-03     107.246E-03    -46.1897E+06    -22.9337E+06     7.84783E+06     931.837E+03    -296.496E-03     591.694E-03    -295.197E-03     71.6747E-03    -297.010E-03     591.940E-03    -295.058E-03     66.1434E-03
             378     7.37070E-03     107.374E-03    -41.2301E+06    -9.89264E+06     20.9642E+06     675.921E+03    -296.886E-03     592.104E-03    -295.218E-03     79.5046E-03    -297.510E-03     592.485E-03    -295.039E-03     72.8639E-03
             379     8.04070E-03     107.514E-03    -36.1288E+06    -2.84676E+06     31.9132E+06     493.365E+03    -297.213E-03     592.452E-03    -295.239E-03     87.1840E-03    -297.953E-03     592.962E-03    -295.023E-03     79.3079E-03
             380     8.71082E-03     107.666E-03    -30.7997E+06     3.75771E+06     41.0027E+06    -65.3944E+03    -297.486E-03     592.735E-03    -295.249E-03     94.5557E-03    -298.356E-03     593.390E-03    -295.005E-03     85.3513E-03
             381     9.38126E-03     107.829E-03    -24.7331E+06     10.3917E+06     47.6666E+06    -418.868E+03    -297.817E-03     593.061E-03    -295.244E-03     101.260E-03    -298.820E-03     593.875E-03    -294.985E-03     90.7253E-03
             382     10.0509E-03     108.002E-03    -18.8520E+06     16.3197E+06     51.6570E+06    -185.383E+03    -298.113E-03     593.343E-03    -295.230E-03     107.131E-03    -299.248E-03     594.319E-03    -294.968E-03     95.3317E-03
             383     10.7220E-03     108.184E-03    -14.0925E+06     20.8171E+06     53.2456E+06     201.121E+03    -298.303E-03     593.512E-03    -295.208E-03     111.898E-03    -299.554E-03     594.631E-03    -294.952E-03     99.0285E-03
             384     11.3922E-03     108.368E-03    -10.2609E+06     24.5071E+06     55.1478E+06     571.668E+03    -298.288E-03     593.476E-03    -295.188E-03     113.513E-03    -299.575E-03     594.653E-03    -294.933E-03     100.220E-03
             385     12.0626E-03     108.554E-03    -6.25672E+06     29.4125E+06     59.6749E+06     530.244E+03    -298.664E-03     593.845E-03    -295.181E-03     117.933E-03    -300.066E-03     595.157E-03    -294.917E-03     103.820E-03
             386     12.7327E-03     108.749E-03    -3.46031E+06     31.5323E+06     62.6257E+06    -86.7798E+03    -298.409E-03     593.593E-03    -295.184E-03     108.168E-03    -299.567E-03     594.668E-03    -294.911E-03     95.8315E-03
             387     670.183E-06     108.360E-03    -87.9553E+06    -103.170E+06    -86.2955E+06     1.23492E+06    -294.824E-03     589.922E-03    -295.098E-03     7.29440E-03    -294.991E-03     589.662E-03    -295.253E-03     6.95415E-03
             388     1.34000E-03     108.380E-03    -86.1657E+06    -97.6392E+06    -79.8161E+06     1.84469E+06    -295.031E-03     590.009E-03    -294.978E-03     13.6447E-03    -295.212E-03     589.769E-03    -295.111E-03     13.0683E-03
             389     2.01002E-03     108.409E-03    -83.6065E+06    -90.5680E+06    -70.0545E+06     1.60698E+06    -295.179E-03     590.206E-03    -295.026E-03     20.4565E-03    -295.381E-03     589.993E-03    -295.124E-03     19.5422E-03
             390     2.67995E-03     108.450E-03    -79.6102E+06    -83.2143E+06    -58.2320E+06     672.158E+03    -295.301E-03     590.386E-03    -295.085E-03     27.2939E-03    -295.525E-03     590.201E-03    -295.140E-03     25.9742E-03
             391     3.34998E-03     108.503E-03    -74.6892E+06    -75.4841E+06    -46.3061E+06    -28.3758E+03    -295.350E-03     590.475E-03    -295.126E-03     34.2082E-03    -295.598E-03     590.325E-03    -295.139E-03     32.4360E-03
             392     4.01997E-03     108.569E-03    -69.4876E+06    -67.8787E+06    -34.7920E+06     29.7840E+03    -295.501E-03     590.650E-03    -295.149E-03     41.3311E-03    -295.778E-03     590.541E-03    -295.124E-03     39.0229E-03
             393     4.69003E-03     108.647E-03    -64.5843E+06    -61.0124E+06    -24.4867E+06     99.2643E+03    -295.730E-03     590.898E-03    -295.167E-03     48.7023E-03    -296.045E-03     590.838E-03    -295.108E-03     45.7525E-03
             394     5.36007E-03     108.737E-03    -58.8427E+06    -53.6481E+06    -15.5061E+06    -454.509E+03    -295.953E-03     591.130E-03    -295.176E-03     56.2404E-03    -296.312E-03     591.134E-03    -295.091E-03     52.5386E-03
             395     6.03011E-03     108.840E-03    -52.6696E+06    -41.3738E+06    -5.82646E+06    -164.945E+03    -296.214E-03     591.392E-03    -295.178E-03     63.8581E-03    -296.636E-03     591.497E-03    -295.071E-03     59.3049E-03
             396     6.70041E-03     108.956E-03    -46.5681E+06    -23.2489E+06     7.09404E+06     804.225E+03    -296.496E-03     591.683E-03    -295.187E-03     71.5592E-03    -297.009E-03     591.928E-03    -295.050E-03     66.0406E-03
             397     7.37064E-03     109.085E-03    -40.8567E+06    -9.69568E+06     20.4063E+06     950.058E+03    -296.783E-03     591.987E-03    -295.204E-03     79.3181E-03    -297.404E-03     592.369E-03    -295.028E-03     72.6790E-03
             398     8.04097E-03     109.225E-03    -35.0119E+06    -1.87623E+06     32.1614E+06     501.389E+03    -297.133E-03     592.354E-03    -295.221E-03     87.0739E-03    -297.870E-03     592.866E-03    -295.007E-03     79.1887E-03
             399     8.71126E-03     109.377E-03    -28.7187E+06     5.69193E+06     42.0496E+06    -19.2219E+03    -297.573E-03     592.806E-03    -295.233E-03     94.6595E-03    -298.439E-03     593.468E-03    -294.989E-03     85.4507E-03
             400     9.38117E-03     109.540E-03    -24.0560E+06     11.0979E+06     47.9642E+06    -432.818E+03    -297.910E-03     593.144E-03    -295.234E-03     101.622E-03    -298.914E-03     593.963E-03    -294.976E-03     91.0801E-03
             401     10.0518E-03     109.713E-03    -19.9296E+06     15.4349E+06     50.9475E+06    -578.817E+03    -298.086E-03     593.307E-03    -295.220E-03     107.671E-03    -299.228E-03     594.284E-03    -294.959E-03     95.8654E-03
             402     10.7216E-03     109.892E-03    -15.3369E+06     19.8231E+06     52.6593E+06    -267.379E+03    -298.185E-03     593.378E-03    -295.193E-03     112.236E-03    -299.443E-03     594.500E-03    -294.937E-03     99.3476E-03
             403     11.3922E-03     110.079E-03    -10.9338E+06     24.2304E+06     55.5575E+06    -9.53573E+03    -298.345E-03     593.521E-03    -295.176E-03     113.275E-03    -299.641E-03     594.703E-03    -294.917E-03     99.8862E-03
             404     12.0632E-03     110.261E-03    -7.20356E+06     28.8421E+06     59.6234E+06     115.392E+03    -298.706E-03     593.883E-03    -295.177E-03     116.403E-03    -300.109E-03     595.190E-03    -294.910E-03     102.178E-03
             405     12.7338E-03     110.462E-03    -3.23781E+06     31.9309E+06     63.1440E+06     347.016E+03    -298.285E-03     593.470E-03    -295.185E-03     106.883E-03    -299.434E-03     594.538E-03    -294.911E-03     94.5394E-03
             406     669.870E-06     110.072E-03    -89.4926E+06    -109.187E+06    -87.9919E+06     1.45395E+06    -294.720E-03     589.662E-03    -294.943E-03     7.55411E-03    -294.884E-03     589.376E-03    -295.094E-03     7.25691E-03
             407     1.34010E-03     110.089E-03    -87.2106E+06    -101.965E+06    -82.1685E+06     2.44633E+06    -295.024E-03     589.889E-03    -294.865E-03     13.7494E-03    -295.201E-03     589.633E-03    -295.001E-03     13.1784E-03
             408     2.01036E-03     110.119E-03    -83.6730E+06    -91.9722E+06    -71.9036E+06     3.09136E+06    -295.162E-03     590.105E-03    -294.944E-03     20.2525E-03    -295.359E-03     589.888E-03    -295.049E-03     19.3765E-03
             409     2.68012E-03     110.161E-03     -79.591E+06    -82.4832E+06    -58.6947E+06     3.09814E+06    -295.283E-03     590.305E-03    -295.022E-03     27.0777E-03    -295.507E-03     590.124E-03    -295.080E-03     25.8067E-03
             410     3.34995E-03     110.214E-03    -74.9846E+06    -74.3335E+06    -45.0327E+06     2.57975E+06    -295.386E-03     590.471E-03    -295.085E-03     34.1667E-03    -295.639E-03     590.325E-03    -295.094E-03     32.4321E-03
             411     4.02002E-03     110.280E-03    -69.9798E+06    -66.6465E+06    -32.6657E+06     1.48820E+06    -295.497E-03     590.621E-03    -295.124E-03     41.4636E-03    -295.782E-03     590.516E-03    -295.089E-03     39.1756E-03
             412     4.69018E-03     110.357E-03    -63.7764E+06    -58.5262E+06    -21.3166E+06    -79.5890E+03    -295.682E-03     590.828E-03    -295.146E-03     48.7764E-03    -296.001E-03     590.774E-03    -295.075E-03     45.8300E-03
             413     5.36037E-03     110.448E-03    -57.6331E+06    -51.0661E+06    -10.3089E+06    -1.38996E+06    -295.972E-03     591.138E-03    -295.166E-03     56.2897E-03    -296.335E-03     591.145E-03    -295.060E-03     52.5865E-03
             414     6.03055E-03     110.550E-03    -51.7462E+06    -44.2789E+06     169.796E+03    -1.33928E+06    -296.323E-03     591.513E-03    -295.190E-03     63.9776E-03    -296.744E-03     591.593E-03    -295.050E-03     59.4146E-03
             415     6.70043E-03     110.667E-03    -45.8444E+06    -26.3440E+06     11.7449E+06    -1.36641E+03    -296.567E-03     591.770E-03    -295.203E-03     71.7143E-03    -297.080E-03     591.993E-03    -295.040E-03     66.1797E-03
             416     7.37059E-03     110.794E-03    -39.8361E+06     -8.2209E+06     22.5325E+06     299.152E+03    -296.765E-03     591.968E-03    -295.203E-03     79.4525E-03    -297.387E-03     592.354E-03    -295.021E-03     72.7888E-03
             417     8.04093E-03     110.935E-03    -33.4233E+06    -922.323E+03     30.7311E+06    -219.744E+03    -297.097E-03     592.298E-03    -295.200E-03     87.1169E-03    -297.826E-03     592.815E-03    -294.997E-03     79.2165E-03
             418     8.71118E-03     111.087E-03    -28.4733E+06     5.11006E+06     38.3019E+06     158.642E+03    -297.461E-03     592.660E-03    -295.199E-03     94.6491E-03    -298.318E-03     593.323E-03    -294.974E-03     85.4495E-03
             419     9.38164E-03     111.251E-03    -23.6896E+06     11.0605E+06     46.1491E+06     1.02262E+06    -297.782E-03     592.984E-03    -295.202E-03     101.517E-03    -298.781E-03     593.805E-03    -294.953E-03     90.9916E-03
             420     10.0518E-03     111.422E-03    -19.0434E+06     16.6022E+06     52.7008E+06     1.15062E+06    -298.052E-03     593.252E-03    -295.200E-03     107.400E-03    -299.191E-03     594.230E-03    -294.933E-03     95.6275E-03
             421     10.7225E-03     111.604E-03    -15.1812E+06     20.6620E+06     55.3054E+06     388.813E+03    -298.379E-03     593.566E-03    -295.187E-03     111.937E-03    -299.637E-03     594.683E-03    -294.918E-03     99.0738E-03
             422     11.3928E-03     111.788E-03    -11.7281E+06     23.9987E+06     56.4684E+06    -49.4626E+03    -298.726E-03     593.908E-03    -295.182E-03     113.515E-03    -300.028E-03     595.090E-03    -294.917E-03     100.129E-03
             423     12.0610E-03     111.976E-03    -7.78021E+06     28.5526E+06     59.7316E+06    -51.0304E+03    -298.860E-03     594.051E-03    -295.190E-03     117.470E-03    -300.268E-03     595.359E-03    -294.922E-03     103.299E-03
             424     12.7301E-03     112.168E-03    -3.22698E+06     32.0790E+06     63.4486E+06    -298.900E+03    -297.757E-03     592.940E-03    -295.182E-03     108.119E-03    -298.913E-03     594.014E-03    -294.907E-03     95.7886E-03
             425     670.584E-06     111.780E-03    -91.2615E+06    -114.676E+06    -89.8017E+06     595.501E+03    -294.799E-03     589.748E-03    -294.950E-03     7.24451E-03    -294.961E-03     589.440E-03    -295.100E-03     6.96074E-03
             426     1.34044E-03     111.799E-03    -88.5890E+06    -106.795E+06    -83.9748E+06     1.67627E+06    -295.077E-03     589.987E-03    -294.909E-03     13.4332E-03    -295.251E-03     589.710E-03    -295.046E-03     12.8705E-03
             427     2.00981E-03     111.829E-03    -85.4041E+06    -95.6901E+06    -75.1671E+06     2.39185E+06    -295.069E-03     590.031E-03    -294.963E-03     20.0549E-03    -295.264E-03     589.802E-03    -295.076E-03     19.1692E-03
             428     2.68019E-03     111.870E-03    -80.7613E+06    -84.4880E+06    -62.9541E+06     2.95425E+06    -295.064E-03     590.051E-03    -294.987E-03     27.0658E-03    -295.285E-03     589.868E-03    -295.062E-03     25.7956E-03
             429     3.35036E-03     111.924E-03    -74.9532E+06    -74.0552E+06    -47.7944E+06     2.82949E+06    -295.279E-03     590.300E-03    -295.021E-03     34.2251E-03    -295.528E-03     590.158E-03    -295.044E-03     32.4981E-03
             430     4.02038E-03     111.989E-03    -68.2718E+06    -63.9322E+06    -31.4652E+06     1.94274E+06    -295.515E-03     590.588E-03    -295.073E-03     41.4476E-03    -295.797E-03     590.492E-03    -295.039E-03     39.1734E-03
             431     4.69039E-03     112.068E-03    -62.4189E+06    -55.5825E+06    -16.5458E+06     1.08006E+06    -295.725E-03     590.850E-03    -295.124E-03     48.7561E-03    -296.049E-03     590.802E-03    -295.036E-03     45.8351E-03
             432     5.36045E-03     112.158E-03    -57.3588E+06    -49.2819E+06    -5.16948E+06     808.866E+03    -296.005E-03     591.165E-03    -295.160E-03     56.2326E-03    -296.376E-03     591.173E-03    -295.032E-03     52.5702E-03
             433     6.03042E-03     112.262E-03    -52.3141E+06    -43.7608E+06     3.01789E+06     260.322E+03    -296.295E-03     591.475E-03    -295.181E-03     63.9356E-03    -296.723E-03     591.554E-03    -295.026E-03     59.4024E-03
             434     6.70067E-03     112.376E-03    -46.6314E+06    -26.5743E+06     12.4293E+06    -1.00789E+06    -296.536E-03     591.720E-03    -295.185E-03     71.7222E-03    -297.054E-03     591.943E-03    -295.016E-03     66.1569E-03
             435     7.37096E-03     112.505E-03    -40.1482E+06    -8.33434E+06     22.6407E+06    -1.11569E+06    -296.809E-03     591.993E-03    -295.184E-03     79.5034E-03    -297.433E-03     592.379E-03    -295.000E-03     72.8144E-03
             436     8.04106E-03     112.645E-03    -35.1701E+06    -2.09178E+06     31.0016E+06     26.3532E+03    -297.150E-03     592.341E-03    -295.191E-03     87.2323E-03    -297.886E-03     592.855E-03    -294.982E-03     79.3341E-03
             437     8.71136E-03     112.797E-03    -30.3473E+06     4.11618E+06     39.8768E+06     611.131E+03    -297.462E-03     592.662E-03    -295.200E-03     94.5874E-03    -298.329E-03     593.320E-03    -294.963E-03     85.3929E-03
             438     9.38175E-03     112.960E-03    -25.0297E+06     10.3392E+06     47.1904E+06     373.866E+03    -297.777E-03     592.978E-03    -295.201E-03     101.296E-03    -298.781E-03     593.793E-03    -294.944E-03     90.7738E-03
             439     10.0521E-03     113.134E-03    -19.5182E+06     16.1483E+06     51.9719E+06     594.543E+03    -298.134E-03     593.327E-03    -295.193E-03     107.068E-03    -299.272E-03     594.302E-03    -294.929E-03     95.2738E-03
             440     10.7221E-03     113.312E-03    -14.4888E+06     21.1507E+06     54.8286E+06     1.36361E+06    -298.396E-03     593.579E-03    -295.183E-03     111.810E-03    -299.649E-03     594.697E-03    -294.919E-03     98.9669E-03
             441     11.3915E-03     113.502E-03    -10.8169E+06     24.9558E+06     57.4294E+06     921.936E+03    -298.266E-03     593.436E-03    -295.170E-03     113.921E-03    -299.563E-03     594.617E-03    -294.904E-03     100.625E-03
             442     12.0640E-03     113.683E-03    -6.96519E+06     29.7853E+06     61.9735E+06     1.02608E+03    -298.334E-03     593.490E-03    -295.156E-03     117.754E-03    -299.742E-03     594.799E-03    -294.879E-03     103.641E-03
             443     12.7361E-03     113.882E-03    -3.65206E+06     32.5583E+06     65.8811E+06    -314.187E+03    -298.282E-03     593.436E-03    -295.154E-03     107.616E-03    -299.446E-03     594.512E-03    -294.866E-03     95.2203E-03
             444     669.393E-06     113.490E-03    -90.6659E+06    -118.124E+06    -89.3688E+06     1.00500E+06    -295.255E-03     590.273E-03    -295.017E-03     7.44209E-03    -295.410E-03     589.945E-03    -295.161E-03     7.13217E-03
             445     1.33939E-03     113.510E-03    -89.5885E+06    -110.980E+06    -84.3571E+06     1.47566E+06    -294.882E-03     589.961E-03    -295.079E-03     13.5451E-03    -295.054E-03     589.666E-03    -295.210E-03     12.9606E-03
             446     2.01020E-03     113.539E-03    -86.5231E+06    -98.0900E+06    -75.6033E+06     1.73566E+06    -294.881E-03     589.883E-03    -295.002E-03     20.2179E-03    -295.079E-03     589.645E-03    -295.112E-03     19.3026E-03
             447     2.68010E-03     113.580E-03    -82.1663E+06    -84.9635E+06    -63.3636E+06     1.06530E+06    -295.061E-03     590.048E-03    -294.987E-03     27.0226E-03    -295.287E-03     589.865E-03    -295.062E-03     25.7374E-03
             448     3.35040E-03     113.634E-03    -76.3423E+06    -74.5394E+06    -48.9727E+06     653.693E+03    -295.239E-03     590.254E-03    -295.015E-03     33.9646E-03    -295.492E-03     590.114E-03    -295.041E-03     32.2255E-03
             449     4.02043E-03     113.700E-03    -70.4970E+06    -65.0824E+06    -33.7147E+06     1.51501E+06    -295.437E-03     590.495E-03    -295.058E-03     41.0658E-03    -295.725E-03     590.399E-03    -295.030E-03     38.7862E-03
             450     4.69057E-03     113.777E-03    -64.4006E+06    -56.5685E+06    -19.2279E+06     2.78899E+06    -295.671E-03     590.772E-03    -295.100E-03     48.5145E-03    -295.999E-03     590.725E-03    -295.021E-03     45.6202E-03
             451     5.36057E-03     113.869E-03    -58.0867E+06    -49.7267E+06    -7.52139E+06     3.38708E+06    -295.939E-03     591.070E-03    -295.131E-03     56.1758E-03    -296.310E-03     591.080E-03    -295.012E-03     52.5540E-03
             452     6.03076E-03     113.971E-03    -52.6666E+06    -39.0076E+06     1.66854E+06     2.06884E+06    -296.209E-03     591.352E-03    -295.142E-03     63.9634E-03    -296.645E-03     591.457E-03    -295.001E-03     59.4559E-03
             453     6.70085E-03     114.087E-03    -47.5591E+06    -22.3688E+06     11.5144E+06    -29.4810E+03    -296.479E-03     591.625E-03    -295.146E-03     71.7746E-03    -297.007E-03     591.871E-03    -294.987E-03     66.2225E-03
             454     7.37093E-03     114.215E-03    -43.0826E+06    -10.6066E+06     22.2578E+06    -190.516E+03    -296.800E-03     591.959E-03    -295.160E-03     79.5869E-03    -297.435E-03     592.340E-03    -294.971E-03     72.9082E-03
             455     8.04129E-03     114.356E-03    -37.5581E+06    -3.29214E+06     33.4145E+06     240.357E+03    -297.186E-03     592.368E-03    -295.182E-03     87.3377E-03    -297.936E-03     592.876E-03    -294.956E-03     79.4478E-03
             456     8.71146E-03     114.507E-03    -31.2326E+06     4.28246E+06     43.3950E+06     158.675E+03    -297.584E-03     592.785E-03    -295.201E-03     94.7328E-03    -298.462E-03     593.441E-03    -294.945E-03     85.5334E-03
             457     9.38142E-03     114.671E-03    -25.5822E+06     10.6457E+06     50.2565E+06     231.459E+03    -297.886E-03     593.094E-03    -295.208E-03     101.486E-03    -298.899E-03     593.908E-03    -294.935E-03     90.9649E-03
             458     10.0518E-03     114.843E-03    -20.8963E+06     15.5724E+06     53.7711E+06     32.7689E+03    -298.139E-03     593.338E-03    -295.200E-03     107.528E-03    -299.286E-03     594.311E-03    -294.923E-03     95.7575E-03
             459     10.7218E-03     115.025E-03    -16.1592E+06     19.9070E+06     54.8830E+06    -374.034E+03    -298.243E-03     593.419E-03    -295.176E-03     112.297E-03    -299.509E-03     594.539E-03    -294.907E-03     99.4008E-03
             460     11.3936E-03     115.208E-03    -10.2963E+06     25.6669E+06     58.6260E+06     451.677E+03    -298.143E-03     593.299E-03    -295.156E-03     113.555E-03    -299.446E-03     594.487E-03    -294.885E-03     100.166E-03
             461     12.0627E-03     115.395E-03    -6.50732E+06     30.6666E+06     63.5538E+06     975.501E+03    -298.486E-03     593.635E-03    -295.149E-03     116.760E-03    -299.891E-03     594.942E-03    -294.867E-03     102.620E-03
             462     12.7311E-03     115.590E-03    -3.85342E+06     32.7180E+06     66.6255E+06     312.175E+03    -298.311E-03     593.465E-03    -295.154E-03     107.214E-03    -299.467E-03     594.530E-03    -294.862E-03     94.9259E-03
             463     669.979E-06     115.202E-03    -90.8897E+06    -122.983E+06    -90.6604E+06     1.51507E+06    -295.334E-03     590.066E-03    -294.732E-03     7.66397E-03    -295.481E-03     589.717E-03    -294.875E-03     7.32913E-03
             464     1.34018E-03     115.219E-03    -89.6735E+06    -113.983E+06    -84.0572E+06     1.76904E+06    -294.941E-03     589.949E-03    -295.009E-03     13.8790E-03    -295.110E-03     589.639E-03    -295.134E-03     13.2944E-03
             465     2.00994E-03     115.249E-03    -86.4377E+06    -99.5431E+06    -74.8126E+06     1.86578E+06    -295.020E-03     590.008E-03    -294.989E-03     20.3133E-03    -295.216E-03     589.761E-03    -295.093E-03     19.4059E-03
             466     2.68024E-03     115.290E-03    -82.4912E+06    -84.9943E+06    -61.6066E+06     2.21546E+06    -295.161E-03     590.175E-03    -295.014E-03     27.0432E-03    -295.391E-03     589.989E-03    -295.079E-03     25.7694E-03
             467     3.34987E-03     115.344E-03    -78.7237E+06    -75.4363E+06    -47.0749E+06     2.49772E+06    -295.258E-03     590.316E-03    -295.058E-03     34.0535E-03    -295.525E-03     590.172E-03    -295.070E-03     32.3281E-03
             468     4.02016E-03     115.409E-03    -74.1738E+06    -67.9619E+06    -34.7817E+06     2.67111E+06    -295.366E-03     590.449E-03    -295.083E-03     41.1962E-03    -295.666E-03     590.346E-03    -295.051E-03     38.9343E-03
             469     4.69026E-03     115.488E-03    -68.6653E+06    -60.2998E+06    -24.8335E+06     3.34534E+06    -295.568E-03     590.659E-03    -295.091E-03     48.5250E-03    -295.903E-03     590.608E-03    -295.028E-03     45.6459E-03
             470     5.36065E-03     115.578E-03    -63.1382E+06    -49.5873E+06    -15.9383E+06     3.28169E+06    -295.812E-03     590.901E-03    -295.089E-03     56.0857E-03    -296.196E-03     590.931E-03    -295.005E-03     52.4620E-03
             471     6.03082E-03     115.682E-03    -57.0269E+06    -33.3657E+06    -4.34242E+06     1.73373E+06    -296.057E-03     591.148E-03    -295.091E-03     63.8296E-03    -296.514E-03     591.297E-03    -294.982E-03     59.2977E-03
             472     6.70110E-03     115.797E-03    -50.8614E+06    -19.9021E+06     9.68549E+06     617.049E+03    -296.350E-03     591.459E-03    -295.109E-03     71.7312E-03    -296.895E-03     591.725E-03    -294.958E-03     66.1833E-03
             473     7.37151E-03     115.925E-03    -44.1997E+06    -11.1777E+06     23.1831E+06    -2.99147E+03    -296.780E-03     591.915E-03    -295.135E-03     79.6152E-03    -297.421E-03     592.292E-03    -294.939E-03     72.9523E-03
             474     8.04156E-03     116.065E-03    -37.7262E+06    -3.21197E+06     34.3328E+06    -270.081E+03    -297.188E-03     592.345E-03    -295.157E-03     87.3544E-03    -297.940E-03     592.852E-03    -294.926E-03     79.4671E-03
             475     8.71174E-03     116.218E-03    -31.8657E+06     3.82513E+06     43.5300E+06     51.0595E+03    -297.501E-03     592.674E-03    -295.172E-03     94.8990E-03    -298.382E-03     593.328E-03    -294.914E-03     85.7070E-03
             476     9.38219E-03     116.381E-03    -26.1781E+06     10.3790E+06     51.0762E+06     344.666E+03    -297.874E-03     593.054E-03    -295.180E-03     101.888E-03    -298.894E-03     593.869E-03    -294.901E-03     91.3649E-03
             477     10.0521E-03     116.554E-03    -20.4611E+06     16.6043E+06     56.8542E+06     455.418E+03    -298.123E-03     593.302E-03    -295.179E-03     107.785E-03    -299.280E-03     594.281E-03    -294.890E-03     95.9746E-03
             478     10.7233E-03     116.733E-03    -15.7087E+06     21.4376E+06     59.7632E+06     51.2133E+03    -298.371E-03     593.541E-03    -295.170E-03     112.207E-03    -299.647E-03     594.664E-03    -294.879E-03     99.2812E-03
             479     11.3918E-03     116.920E-03    -12.2562E+06     24.7739E+06     60.7715E+06    -455.022E+03    -298.626E-03     593.790E-03    -295.163E-03     113.507E-03    -299.943E-03     594.975E-03    -294.878E-03     100.064E-03
             480     12.0630E-03     117.104E-03    -8.09235E+06     29.4285E+06     63.2383E+06    -26.0978E+03    -298.601E-03     593.763E-03    -295.161E-03     117.291E-03    -300.021E-03     595.075E-03    -294.876E-03     103.082E-03
             481     12.7349E-03     117.304E-03    -3.37016E+06     33.1583E+06     66.3396E+06     639.183E+03    -297.828E-03     592.976E-03    -295.148E-03     108.014E-03    -298.983E-03     594.044E-03    -294.859E-03     95.8007E-03
             482     670.342E-06     116.910E-03    -94.5993E+06    -127.181E+06    -92.5151E+06     287.160E+03    -294.708E-03     589.569E-03    -294.861E-03     7.25119E-03    -294.865E-03     589.207E-03    -295.002E-03     6.93183E-03
             483     1.34018E-03     116.930E-03    -91.5151E+06    -117.923E+06    -86.7513E+06     1.56772E+06    -295.138E-03     589.986E-03    -294.848E-03     13.6854E-03    -295.306E-03     589.662E-03    -294.978E-03     13.1000E-03
             484     2.01014E-03     116.958E-03    -88.6999E+06    -103.592E+06    -77.0025E+06     2.99197E+06    -295.189E-03     590.143E-03    -294.954E-03     20.3276E-03    -295.388E-03     589.883E-03    -295.060E-03     19.4380E-03
             485     2.67986E-03     117.001E-03    -85.1487E+06    -89.3355E+06    -65.1841E+06     4.42168E+06    -295.135E-03     590.139E-03    -295.004E-03     27.1929E-03    -295.367E-03     589.941E-03    -295.077E-03     25.9403E-03
             486     3.35041E-03     117.054E-03    -80.3310E+06    -78.3452E+06    -51.2274E+06     5.59901E+06    -295.207E-03     590.241E-03    -295.033E-03     34.1852E-03    -295.472E-03     590.091E-03    -295.059E-03     32.5086E-03
             487     4.02031E-03     117.120E-03    -74.8265E+06    -68.8036E+06    -36.8130E+06     5.63514E+06    -295.361E-03     590.421E-03    -295.060E-03     41.3447E-03    -295.660E-03     590.318E-03    -295.036E-03     39.1297E-03
             488     4.69056E-03     117.198E-03    -69.0598E+06    -59.9034E+06    -24.3488E+06     4.12843E+06    -295.552E-03     590.629E-03    -295.078E-03     48.7597E-03    -295.890E-03     590.581E-03    -295.012E-03     45.8909E-03
             489     5.36053E-03     117.289E-03    -62.2082E+06    -47.5561E+06    -12.1514E+06     2.41725E+06    -295.796E-03     590.883E-03    -295.087E-03     56.3344E-03    -296.184E-03     590.917E-03    -294.989E-03     52.7003E-03
             490     6.03080E-03     117.391E-03    -55.3960E+06    -30.6082E+06     1.35561E+06     1.47637E+06    -296.018E-03     591.113E-03    -295.095E-03     63.9492E-03    -296.480E-03     591.266E-03    -294.964E-03     59.4143E-03
             491     6.70123E-03     117.507E-03    -49.1915E+06    -17.7294E+06     13.1438E+06     392.017E+03    -296.349E-03     591.451E-03    -295.102E-03     71.6838E-03    -296.893E-03     591.720E-03    -294.940E-03     66.1484E-03
             492     7.37141E-03     117.635E-03    -43.2210E+06    -10.4704E+06     22.7277E+06    -82.1460E+03    -296.741E-03     591.852E-03    -295.112E-03     79.4825E-03    -297.375E-03     592.231E-03    -294.920E-03     72.8377E-03
             493     8.04169E-03     117.776E-03    -37.7497E+06    -3.47024E+06     33.1357E+06     178.146E+03    -297.083E-03     592.212E-03    -295.129E-03     87.2271E-03    -297.833E-03     592.720E-03    -294.904E-03     79.3334E-03
             494     8.71209E-03     117.928E-03    -32.2790E+06     3.45449E+06     43.4703E+06     208.072E+03    -297.438E-03     592.585E-03    -295.147E-03     94.6821E-03    -298.320E-03     593.239E-03    -294.888E-03     85.4693E-03
             495     9.38238E-03     118.091E-03    -26.3921E+06     10.3893E+06     52.1408E+06     149.703E+03    -297.781E-03     592.938E-03    -295.158E-03     101.487E-03    -298.802E-03     593.751E-03    -294.874E-03     90.9470E-03
             496     10.0529E-03     118.264E-03    -21.1216E+06     16.1972E+06     57.2041E+06     82.7147E+03    -298.173E-03     593.331E-03    -295.158E-03     107.311E-03    -299.331E-03     594.306E-03    -294.865E-03     95.4743E-03
             497     10.7221E-03     118.444E-03    -16.1460E+06     21.1087E+06     59.2259E+06     766.718E+03    -298.459E-03     593.610E-03    -295.151E-03     112.026E-03    -299.731E-03     594.728E-03    -294.862E-03     99.1485E-03
             498     11.3938E-03     118.631E-03    -11.6350E+06     25.5062E+06     61.5878E+06     895.636E+03    -298.333E-03     593.476E-03    -295.142E-03     113.920E-03    -299.643E-03     594.656E-03    -294.855E-03     100.610E-03
             499     12.0625E-03     118.815E-03    -8.15026E+06     29.9217E+06     64.6812E+06    -155.009E+03    -298.501E-03     593.633E-03    -295.132E-03     117.942E-03    -299.926E-03     594.948E-03    -294.840E-03     103.762E-03
             500     12.7322E-03     119.009E-03    -3.84862E+06     33.3567E+06     67.5978E+06    -226.130E+03    -298.229E-03     593.356E-03    -295.126E-03     108.093E-03    -299.398E-03     594.433E-03    -294.831E-03     95.7588E-03
             501     670.198E-06     118.621E-03    -96.1192E+06    -130.580E+06    -93.9607E+06     1.29721E+06    -294.620E-03     589.836E-03    -295.216E-03     7.54700E-03    -294.778E-03     589.462E-03    -295.357E-03     7.23052E-03
             502     1.34018E-03     118.638E-03    -94.3672E+06    -123.208E+06    -88.8125E+06     2.08467E+06    -294.996E-03     589.926E-03    -294.930E-03     13.4208E-03    -295.168E-03     589.583E-03    -295.059E-03     12.8839E-03
             503     2.01011E-03     118.670E-03    -91.3989E+06    -110.965E+06    -80.6212E+06     3.71649E+06    -295.019E-03     589.967E-03    -294.949E-03     20.2068E-03    -295.214E-03     589.679E-03    -295.058E-03     19.3412E-03
             504     2.68036E-03     118.710E-03    -87.2932E+06    -95.4276E+06    -69.2053E+06     5.32018E+06    -295.099E-03     590.063E-03    -294.965E-03     27.1241E-03    -295.327E-03     589.844E-03    -295.046E-03     25.8934E-03
             505     3.35011E-03     118.764E-03    -82.0062E+06    -80.8996E+06    -55.4793E+06     5.21655E+06    -295.159E-03     590.143E-03    -294.984E-03     34.1688E-03    -295.422E-03     589.989E-03    -295.026E-03     32.4871E-03
             506     4.02047E-03     118.830E-03    -75.1266E+06    -68.8834E+06    -40.0769E+06     4.11610E+06    -295.303E-03     590.310E-03    -295.007E-03     41.3788E-03    -295.599E-03     590.211E-03    -294.999E-03     39.1379E-03
             507     4.69060E-03     118.908E-03    -67.4989E+06    -57.5550E+06    -23.1648E+06     3.34186E+06    -295.566E-03     590.608E-03    -295.042E-03     48.8132E-03    -295.902E-03     590.567E-03    -294.976E-03     45.9276E-03
             508     5.36101E-03     118.998E-03    -61.1410E+06    -45.2625E+06    -7.77037E+06     2.51576E+06    -295.795E-03     590.869E-03    -295.074E-03     56.2634E-03    -296.188E-03     590.906E-03    -294.958E-03     52.6204E-03
             509     6.03124E-03     119.101E-03    -55.1047E+06    -29.1894E+06     5.05050E+06     1.58531E+06    -296.082E-03     591.171E-03    -295.089E-03     63.8899E-03    -296.549E-03     591.324E-03    -294.941E-03     59.3641E-03
             510     6.70125E-03     119.217E-03    -48.7739E+06    -16.7060E+06     15.6975E+06     1.74761E+06    -296.426E-03     591.526E-03    -295.100E-03     71.6793E-03    -296.973E-03     591.796E-03    -294.927E-03     66.1691E-03
             511     7.37148E-03     119.345E-03    -43.2327E+06    -9.99114E+06     25.5383E+06     1.87102E+06    -296.690E-03     591.805E-03    -295.115E-03     79.4634E-03    -297.330E-03     592.182E-03    -294.910E-03     72.8374E-03
             512     8.04190E-03     119.485E-03    -37.6287E+06    -2.89371E+06     36.0747E+06     1.25363E+06    -297.050E-03     592.180E-03    -295.131E-03     87.2107E-03    -297.804E-03     592.686E-03    -294.892E-03     79.3397E-03
             513     8.71208E-03     119.638E-03    -31.8599E+06      4.2324E+06     45.6695E+06     687.009E+03    -297.519E-03     592.666E-03    -295.147E-03     94.6095E-03    -298.403E-03     593.320E-03    -294.879E-03     85.4100E-03
             514     9.38218E-03     119.801E-03    -26.5587E+06     10.4412E+06     52.6479E+06     440.232E+03    -297.846E-03     593.004E-03    -295.158E-03     101.385E-03    -298.870E-03     593.818E-03    -294.871E-03     90.8279E-03
             515     10.0523E-03     119.974E-03    -21.3840E+06     16.0631E+06     57.1032E+06     620.038E+03    -297.976E-03     593.128E-03    -295.152E-03     107.402E-03    -299.133E-03     594.101E-03    -294.859E-03     95.6150E-03
             516     10.7233E-03     120.156E-03    -16.6406E+06     20.7607E+06     58.6465E+06     268.298E+03    -298.091E-03     593.216E-03    -295.124E-03     112.462E-03    -299.366E-03     594.335E-03    -294.837E-03     99.6042E-03
             517     11.3924E-03     120.340E-03    -11.7756E+06     25.4414E+06     60.3483E+06     100.225E+03    -298.300E-03     593.400E-03    -295.100E-03     113.886E-03    -299.613E-03     594.587E-03    -294.818E-03     100.507E-03
             518     12.0655E-03     120.524E-03    -6.77748E+06     31.3278E+06     65.2175E+06     576.360E+03    -298.732E-03     593.836E-03    -295.104E-03     116.992E-03    -300.144E-03     595.146E-03    -294.813E-03     102.823E-03
             519     12.7353E-03     120.725E-03    -3.75556E+06     33.9865E+06     69.0643E+06     128.357E+03    -298.481E-03     593.605E-03    -295.124E-03     107.580E-03    -299.648E-03     594.678E-03    -294.822E-03     95.2421E-03
             520     669.524E-06     120.330E-03    -96.5278E+06    -136.637E+06    -95.8803E+06     1.33842E+06    -295.108E-03     590.252E-03    -295.144E-03     7.55380E-03    -295.255E-03     589.851E-03    -295.286E-03     7.26410E-03
             521     1.33970E-03     120.349E-03    -94.6543E+06    -129.089E+06    -89.5969E+06     2.78582E+06    -294.826E-03     589.887E-03    -295.061E-03     13.5107E-03    -294.990E-03     589.517E-03    -295.185E-03     12.9557E-03
             522     2.01009E-03     120.378E-03    -91.5314E+06    -117.170E+06    -80.5986E+06     3.49728E+06    -294.871E-03     589.850E-03    -294.979E-03     20.2458E-03    -295.059E-03     589.530E-03    -295.079E-03     19.3700E-03
             523     2.68018E-03     120.421E-03    -86.6423E+06    -100.084E+06    -68.5863E+06     3.72525E+06    -295.031E-03     589.988E-03    -294.957E-03     27.0919E-03    -295.250E-03     589.743E-03    -295.029E-03     25.8461E-03
             524     3.35051E-03     120.474E-03    -80.9015E+06    -81.5596E+06    -54.1038E+06     3.70465E+06    -295.145E-03     590.113E-03    -294.968E-03     34.0426E-03    -295.404E-03     589.952E-03    -295.003E-03     32.3375E-03
             525     4.02069E-03     120.539E-03    -75.1952E+06    -67.9581E+06    -38.0492E+06     3.17136E+06    -295.322E-03     590.320E-03    -294.998E-03     41.2660E-03    -295.622E-03     590.222E-03    -294.981E-03     39.0167E-03
             526     4.69089E-03     120.618E-03    -69.9659E+06    -59.1082E+06    -24.0719E+06     3.18710E+06    -295.562E-03     590.593E-03    -295.031E-03     48.5714E-03    -295.906E-03     590.549E-03    -294.964E-03     45.6887E-03
             527     5.36082E-03     120.708E-03    -64.1541E+06    -43.2447E+06    -11.9881E+06     3.10661E+06    -295.779E-03     590.824E-03    -295.045E-03     56.0307E-03    -296.184E-03     590.882E-03    -294.949E-03     52.3854E-03
             528     6.03101E-03     120.811E-03    -57.3280E+06    -26.9725E+06     1.26898E+06     2.08355E+06    -296.038E-03     591.099E-03    -295.060E-03     63.8447E-03    -296.515E-03     591.272E-03    -294.932E-03     59.3153E-03
             529     6.70134E-03     120.927E-03    -50.7699E+06    -18.5133E+06     14.5023E+06     1.44320E+06    -296.344E-03     591.430E-03    -295.086E-03     71.7358E-03    -296.898E-03     591.696E-03    -294.913E-03     66.1989E-03
             530     7.37164E-03     121.055E-03    -44.0890E+06    -10.2533E+06     26.8023E+06     1.68706E+06    -296.719E-03     591.827E-03    -295.108E-03     79.5061E-03    -297.366E-03     592.204E-03    -294.896E-03     72.8621E-03
             531     8.04185E-03     121.195E-03    -37.4479E+06    -2.35071E+06     38.1261E+06     2.01627E+06    -297.105E-03     592.235E-03    -295.130E-03     87.2441E-03    -297.861E-03     592.739E-03    -294.882E-03     79.4049E-03
             532     8.71212E-03     121.349E-03    -31.4838E+06     4.83397E+06     47.5268E+06     2.15109E+06    -297.412E-03     592.555E-03    -295.143E-03     94.7897E-03    -298.296E-03     593.206E-03    -294.867E-03     85.6524E-03
             533     9.38241E-03     121.511E-03    -26.0192E+06     11.3914E+06     54.4348E+06     1.83762E+06    -297.716E-03     592.859E-03    -295.143E-03     101.856E-03    -298.740E-03     593.673E-03    -294.849E-03     91.3678E-03
             534     10.0528E-03     121.684E-03    -20.8154E+06     17.0930E+06     58.5656E+06     1.00390E+06    -297.972E-03     593.101E-03    -295.129E-03     107.736E-03    -299.134E-03     594.080E-03    -294.831E-03     95.9305E-03
             535     10.7232E-03     121.863E-03    -15.7409E+06     22.1515E+06     60.6084E+06     600.668E+03    -298.231E-03     593.341E-03    -295.110E-03     111.969E-03    -299.508E-03     594.465E-03    -294.816E-03     99.0494E-03
             536     11.3953E-03     122.052E-03    -11.5931E+06     26.2906E+06     62.9132E+06     193.884E+03    -298.572E-03     593.679E-03    -295.107E-03     113.433E-03    -299.889E-03     594.865E-03    -294.814E-03     100.018E-03
             537     12.0612E-03     122.236E-03    -8.16305E+06     30.5799E+06     65.8673E+06    -349.133E+03    -298.866E-03     593.985E-03    -295.119E-03     117.140E-03    -300.293E-03     595.301E-03    -294.822E-03     102.884E-03
             538     12.7322E-03     122.431E-03    -3.99103E+06     33.8915E+06     68.7047E+06     292.583E+03    -297.989E-03     593.111E-03    -295.122E-03     107.810E-03    -299.158E-03     594.186E-03    -294.822E-03     95.5074E-03
             539     670.015E-06     122.041E-03    -97.4196E+06    -142.301E+06    -96.2007E+06     1.06466E+06    -295.064E-03     589.957E-03    -294.892E-03     7.53227E-03    -295.208E-03     589.528E-03    -295.026E-03     7.24987E-03
             540     1.34003E-03     122.058E-03    -95.5278E+06    -134.568E+06    -90.7003E+06     1.66693E+06    -294.943E-03     589.907E-03    -294.964E-03     13.8600E-03    -295.102E-03     589.512E-03    -295.083E-03     13.2515E-03
             541     2.01011E-03     122.088E-03    -91.7564E+06    -120.964E+06    -80.7504E+06     2.39270E+06    -294.982E-03     589.938E-03    -294.956E-03     20.4792E-03    -295.165E-03     589.600E-03    -295.052E-03     19.5827E-03
             542     2.68025E-03     122.130E-03    -87.7663E+06    -103.200E+06    -68.7808E+06     2.97991E+06    -295.018E-03     589.973E-03    -294.956E-03     27.1578E-03    -295.238E-03     589.715E-03    -295.023E-03     25.8922E-03
             543     3.35038E-03     122.183E-03    -83.0616E+06    -83.6910E+06    -54.4639E+06     3.49594E+06    -295.188E-03     590.158E-03    -294.970E-03     34.0429E-03    -295.453E-03     589.989E-03    -295.001E-03     32.3285E-03
             544     4.02037E-03     122.249E-03    -77.4244E+06     -69.474E+06    -39.5675E+06     4.26070E+06    -295.383E-03     590.387E-03    -295.004E-03     41.1880E-03    -295.690E-03     590.287E-03    -294.989E-03     38.9544E-03
             545     4.69049E-03     122.327E-03    -70.7483E+06    -59.2182E+06    -25.2512E+06     3.99636E+06    -295.518E-03     590.554E-03    -295.036E-03     48.5675E-03    -295.865E-03     590.513E-03    -294.974E-03     45.6958E-03
             546     5.36092E-03     122.418E-03    -63.5780E+06    -41.7778E+06    -10.0905E+06     2.70054E+06    -295.718E-03     590.772E-03    -295.053E-03     56.1435E-03    -296.125E-03     590.834E-03    -294.951E-03     52.4924E-03
             547     6.03119E-03     122.521E-03    -56.9017E+06    -26.0680E+06     3.61878E+06     2.11461E+06    -295.963E-03     591.027E-03    -295.064E-03     63.9023E-03    -296.442E-03     591.201E-03    -294.926E-03     59.3682E-03
             548     6.70152E-03     122.637E-03    -50.7492E+06    -18.6447E+06     14.4884E+06     2.00319E+06    -296.298E-03     591.372E-03    -295.074E-03     71.6927E-03    -296.851E-03     591.637E-03    -294.901E-03     66.1731E-03
             549     7.37182E-03     122.765E-03    -44.9535E+06    -11.1816E+06     24.8558E+06     1.92722E+06    -296.714E-03     591.803E-03    -295.088E-03     79.5028E-03    -297.360E-03     592.177E-03    -294.883E-03     72.8802E-03
             550     8.04193E-03     122.906E-03    -38.9520E+06    -2.55964E+06     35.7642E+06     1.92874E+06    -297.029E-03     592.134E-03    -295.105E-03     87.3036E-03    -297.790E-03     592.644E-03    -294.866E-03     79.4439E-03
             551     8.71236E-03     123.057E-03    -32.9216E+06     4.82559E+06     45.8702E+06     1.65446E+06    -297.260E-03     592.375E-03    -295.115E-03     94.8227E-03    -298.151E-03     593.033E-03    -294.845E-03     85.6457E-03
             552     9.38303E-03     123.222E-03    -26.4836E+06     11.3024E+06     54.4379E+06     1.80564E+06    -297.593E-03     592.707E-03    -295.114E-03     101.573E-03    -298.617E-03     593.520E-03    -294.820E-03     91.0805E-03
             553     10.0537E-03     123.394E-03    -20.9366E+06     18.6838E+06     60.3168E+06     1.85545E+06    -298.150E-03     593.263E-03    -295.112E-03     107.354E-03    -299.315E-03     594.244E-03    -294.808E-03     95.5586E-03
             554     10.7232E-03     123.576E-03    -16.4706E+06     23.2747E+06     62.3880E+06     1.09235E+06    -298.563E-03     593.676E-03    -295.113E-03     112.096E-03    -299.848E-03     594.804E-03    -294.811E-03     99.1818E-03
             555     11.3911E-03     123.760E-03    -11.6258E+06     26.8316E+06     64.6903E+06     1.26054E+06    -298.334E-03     593.445E-03    -295.111E-03     114.094E-03    -299.651E-03     594.628E-03    -294.810E-03     100.798E-03
             556     12.0661E-03     123.947E-03    -7.41776E+06     31.8487E+06     68.9363E+06     1.50453E+06    -298.487E-03     593.592E-03    -295.105E-03     118.238E-03    -299.909E-03     594.901E-03    -294.796E-03     104.200E-03
             557     12.7348E-03     124.144E-03    -3.98986E+06     34.5296E+06     71.7970E+06     162.943E+03    -298.176E-03     593.277E-03    -295.101E-03     108.194E-03    -299.356E-03     594.357E-03    -294.786E-03     95.8191E-03
             558     670.366E-06     123.750E-03    -98.7269E+06    -146.813E+06    -97.2504E+06     953.433E+03    -294.741E-03     589.660E-03    -294.919E-03     7.08350E-03    -294.883E-03     589.213E-03    -295.049E-03     6.78796E-03
             559     1.34043E-03     123.768E-03    -96.5194E+06    -138.015E+06    -91.2905E+06     1.56552E+06    -295.024E-03     589.889E-03    -294.865E-03     13.4792E-03    -295.182E-03     589.479E-03    -294.981E-03     12.8998E-03
             560     2.01017E-03     123.798E-03    -93.9481E+06    -125.067E+06    -82.3656E+06     2.48972E+06    -295.049E-03     589.969E-03    -294.920E-03     20.2699E-03    -295.235E-03     589.616E-03    -295.014E-03     19.3920E-03
             561     2.68032E-03     123.839E-03    -89.7565E+06    -107.006E+06    -70.0612E+06     3.48552E+06    -295.068E-03     590.015E-03    -294.947E-03     27.1453E-03    -295.291E-03     589.743E-03    -295.012E-03     25.8862E-03
             562     3.35039E-03     123.894E-03    -84.6010E+06    -86.8633E+06    -56.5263E+06     4.11745E+06    -295.177E-03     590.140E-03    -294.962E-03     34.2411E-03    -295.444E-03     589.961E-03    -294.997E-03     32.5375E-03
             563     4.02056E-03     123.959E-03    -78.3198E+06    -70.3751E+06    -41.4531E+06     3.53926E+06    -295.328E-03     590.316E-03    -294.988E-03     41.4542E-03    -295.636E-03     590.216E-03    -294.979E-03     39.2016E-03
             564     4.69078E-03     124.037E-03    -71.5411E+06    -58.5753E+06    -25.5117E+06     2.67454E+06    -295.514E-03     590.535E-03    -295.021E-03     48.8186E-03    -295.866E-03     590.499E-03    -294.960E-03     45.9099E-03
             565     5.36089E-03     124.127E-03    -64.9996E+06    -41.9999E+06    -10.1601E+06     2.89114E+06    -295.714E-03     590.756E-03    -295.042E-03     56.2767E-03    -296.128E-03     590.820E-03    -294.938E-03     52.6230E-03
             566     6.03118E-03     124.231E-03    -59.0447E+06    -26.3077E+06     3.00615E+06     3.15566E+06    -295.982E-03     591.036E-03    -295.054E-03     63.8539E-03    -296.470E-03     591.212E-03    -294.915E-03     59.3408E-03
             567     6.70146E-03     124.346E-03    -52.7610E+06    -18.6033E+06     13.8674E+06     3.09930E+06    -296.309E-03     591.376E-03    -295.067E-03     71.6760E-03    -296.871E-03     591.644E-03    -294.895E-03     66.1813E-03
             568     7.37165E-03     124.475E-03    -45.9546E+06    -10.3693E+06     24.6369E+06     2.71286E+06    -296.617E-03     591.695E-03    -295.078E-03     79.5290E-03    -297.269E-03     592.076E-03    -294.873E-03     72.9155E-03
             569     8.04224E-03     124.615E-03    -40.0119E+06    -2.12803E+06     35.4161E+06     1.90166E+06    -296.948E-03     592.037E-03    -295.089E-03     87.1917E-03    -297.715E-03     592.552E-03    -294.851E-03     79.3231E-03
             570     8.71259E-03     124.768E-03    -33.9437E+06     5.41664E+06     45.7724E+06     1.40664E+06    -297.349E-03     592.451E-03    -295.103E-03     94.5602E-03    -298.246E-03     593.115E-03    -294.832E-03     85.3568E-03
             571     9.38276E-03     124.930E-03    -28.2862E+06     11.2364E+06     53.7463E+06     817.522E+03    -297.743E-03     592.856E-03    -295.113E-03     101.361E-03    -298.777E-03     593.674E-03    -294.820E-03     90.8207E-03
             572     10.0526E-03     125.105E-03    -22.3877E+06     17.6632E+06     59.4314E+06     944.727E+03    -297.975E-03     593.086E-03    -295.111E-03     107.485E-03    -299.143E-03     594.065E-03    -294.807E-03     95.7140E-03
             573     10.7234E-03     125.285E-03    -16.5853E+06     23.3762E+06     62.9917E+06     2.03348E+06    -298.146E-03     593.242E-03    -295.096E-03     112.377E-03    -299.430E-03     594.368E-03    -294.791E-03     99.5460E-03
             574     11.3961E-03     125.472E-03    -12.5819E+06     27.5160E+06     65.1937E+06     1.58869E+06    -298.324E-03     593.406E-03    -295.082E-03     113.936E-03    -299.650E-03     594.596E-03    -294.778E-03     100.597E-03
             575     12.0624E-03     125.654E-03    -8.37272E+06     32.4197E+06     69.0387E+06     703.941E+03    -298.395E-03     593.472E-03    -295.077E-03     117.385E-03    -299.824E-03     594.786E-03    -294.766E-03     103.250E-03
             576     12.7351E-03     125.854E-03    -4.01973E+06     35.7799E+06     73.1821E+06     695.520E+03    -298.146E-03     593.225E-03    -295.079E-03     107.601E-03    -299.323E-03     594.303E-03    -294.759E-03     95.2721E-03
             577     669.846E-06     125.459E-03    -99.6186E+06    -150.440E+06    -98.2222E+06     717.310E+03    -294.695E-03     589.764E-03    -295.069E-03     7.39585E-03    -294.834E-03     589.301E-03    -295.198E-03     7.07162E-03
             578     1.33982E-03     125.478E-03    -97.7565E+06    -142.741E+06    -92.5843E+06     1.87400E+06    -294.971E-03     589.866E-03    -294.894E-03     13.6379E-03    -295.126E-03     589.435E-03    -295.009E-03     13.0748E-03
             579     2.01026E-03     125.507E-03    -94.2254E+06    -129.199E+06    -82.8774E+06     2.79977E+06    -295.033E-03     589.960E-03    -294.926E-03     20.2242E-03    -295.213E-03     589.587E-03    -295.017E-03     19.3431E-03
             580     2.68024E-03     125.549E-03    -89.8439E+06    -111.581E+06    -71.1642E+06     3.54283E+06    -295.102E-03     590.052E-03    -294.950E-03     27.0780E-03    -295.316E-03     589.758E-03    -295.014E-03     25.8316E-03
             581     3.35043E-03     125.602E-03    -84.7166E+06    -89.6642E+06    -56.9622E+06     4.15404E+06    -295.127E-03     590.091E-03    -294.965E-03     34.0598E-03    -295.388E-03     589.899E-03    -294.996E-03     32.3693E-03
             582     4.02072E-03     125.669E-03    -79.4860E+06    -70.0414E+06    -40.8345E+06     4.22895E+06    -295.227E-03     590.207E-03    -294.981E-03     41.2336E-03    -295.542E-03     590.110E-03    -294.968E-03     38.9965E-03
             583     4.69087E-03     125.747E-03    -74.1974E+06    -58.9801E+06    -26.1474E+06     4.00715E+06    -295.456E-03     590.460E-03    -295.003E-03     48.6122E-03    -295.819E-03     590.426E-03    -294.941E-03     45.7350E-03
             584     5.36111E-03     125.838E-03    -67.9455E+06    -43.2597E+06    -12.8155E+06     3.67885E+06    -295.712E-03     590.728E-03    -295.016E-03     56.2492E-03    -296.135E-03     590.794E-03    -294.919E-03     52.6098E-03
             585     6.03133E-03     125.940E-03    -60.7887E+06    -26.6885E+06     423.694E+03     3.42618E+06    -296.013E-03     591.043E-03    -295.030E-03     63.9800E-03    -296.506E-03     591.224E-03    -294.901E-03     59.4611E-03
             586     6.70150E-03     126.057E-03    -54.0509E+06    -18.0442E+06     12.5759E+06     2.81481E+06    -296.319E-03     591.370E-03    -295.051E-03     71.7402E-03    -296.888E-03     591.646E-03    -294.884E-03     66.2311E-03
             587     7.37202E-03     126.184E-03    -47.6774E+06    -9.15567E+06     24.3571E+06     2.05650E+06    -296.601E-03     591.669E-03    -295.068E-03     79.5107E-03    -297.263E-03     592.059E-03    -294.864E-03     72.8778E-03
             588     8.04214E-03     126.325E-03    -40.8664E+06    -1.30689E+06     36.3303E+06     1.63725E+06    -296.974E-03     592.061E-03    -295.087E-03     87.1729E-03    -297.748E-03     592.579E-03    -294.844E-03     79.3032E-03
             589     8.71244E-03     126.477E-03    -34.1159E+06     5.42230E+06     47.2339E+06     1.57145E+06    -297.399E-03     592.506E-03    -295.106E-03     94.6805E-03    -298.297E-03     593.165E-03    -294.828E-03     85.5180E-03
             590     9.38264E-03     126.642E-03    -27.8549E+06     12.0558E+06     55.7318E+06     1.82513E+06    -297.712E-03     592.828E-03    -295.116E-03     101.705E-03    -298.747E-03     593.645E-03    -294.815E-03     91.2197E-03
             591     10.0534E-03     126.814E-03    -22.8758E+06     17.8156E+06     60.7623E+06     1.47993E+06    -297.895E-03     593.004E-03    -295.109E-03     107.622E-03    -299.067E-03     593.982E-03    -294.798E-03     95.8700E-03
             592     10.7241E-03     126.995E-03    -18.3982E+06     21.9460E+06     62.0407E+06     695.585E+03    -298.203E-03     593.290E-03    -295.088E-03     111.980E-03    -299.491E-03     594.411E-03    -294.782E-03     99.1098E-03
             593     11.3922E-03     127.181E-03    -12.6857E+06     27.6334E+06     65.1952E+06     1.28484E+06    -298.321E-03     593.400E-03    -295.079E-03     113.197E-03    -299.644E-03     594.587E-03    -294.775E-03     99.8370E-03
             594     12.0658E-03     127.367E-03    -7.52160E+06     33.6420E+06     70.5290E+06     1.74467E+06    -298.549E-03     593.634E-03    -295.085E-03     117.243E-03    -299.978E-03     594.951E-03    -294.770E-03     103.108E-03
             595     12.7338E-03     127.562E-03    -3.77331E+06     37.0932E+06     73.3590E+06     728.817E+03    -297.917E-03     592.996E-03    -295.079E-03     107.843E-03    -299.094E-03     594.078E-03    -294.761E-03     95.5627E-03
             596     670.320E-06     127.169E-03    -100.388E+06    -155.208E+06    -98.8648E+06     1.29539E+06    -294.925E-03     589.780E-03    -294.855E-03     7.62104E-03    -295.061E-03     589.296E-03    -294.979E-03     7.32189E-03
             597     1.34047E-03     127.187E-03    -98.2550E+06    -147.066E+06    -92.6952E+06     1.90006E+06    -294.969E-03     589.872E-03    -294.902E-03     13.6735E-03    -295.120E-03     589.421E-03    -295.010E-03     13.1142E-03
             598     2.01012E-03     127.217E-03    -94.9756E+06    -133.836E+06    -84.2114E+06     2.58813E+06    -295.034E-03     589.960E-03    -294.926E-03     20.3415E-03    -295.210E-03     589.568E-03    -295.015E-03     19.4476E-03
             599     2.68026E-03     127.259E-03    -90.9571E+06    -116.447E+06    -72.0813E+06     3.83226E+06    -295.110E-03     590.063E-03    -294.953E-03     27.1839E-03    -295.322E-03     589.748E-03    -295.012E-03     25.9305E-03
             600     3.35028E-03     127.313E-03    -86.4285E+06    -93.5504E+06    -57.5856E+06     4.96034E+06    -295.154E-03     590.125E-03    -294.971E-03     34.1091E-03    -295.418E-03     589.917E-03    -294.998E-03     32.4221E-03
             601     4.02041E-03     127.378E-03    -80.9872E+06    -72.4610E+06    -42.6168E+06     5.75624E+06    -295.212E-03     590.192E-03    -294.980E-03     41.2840E-03    -295.529E-03     590.088E-03    -294.971E-03     39.0725E-03
             602     4.69080E-03     127.457E-03    -74.5366E+06    -59.3598E+06    -27.2813E+06     5.71753E+06    -295.405E-03     590.401E-03    -294.996E-03     48.6401E-03    -295.768E-03     590.368E-03    -294.939E-03     45.7863E-03
             603     5.36111E-03     127.547E-03    -68.0470E+06    -41.8921E+06    -11.8811E+06     4.57946E+06    -295.682E-03     590.694E-03    -295.012E-03     56.1603E-03    -296.108E-03     590.765E-03    -294.912E-03     52.5421E-03
             604     6.03140E-03     127.651E-03    -61.3308E+06    -25.8561E+06     1.62790E+06     3.14987E+06    -295.967E-03     590.993E-03    -295.026E-03     63.8627E-03    -296.465E-03     591.177E-03    -294.891E-03     59.3518E-03
             605     6.70174E-03     127.766E-03    -54.0714E+06    -17.1682E+06     13.0156E+06     2.45081E+06    -296.283E-03     591.323E-03    -295.040E-03     71.6405E-03    -296.852E-03     591.602E-03    -294.872E-03     66.1338E-03
             606     7.37175E-03     127.894E-03    -47.5423E+06    -8.12264E+06     24.7484E+06     1.91766E+06    -296.603E-03     591.659E-03    -295.056E-03     79.5313E-03    -297.267E-03     592.054E-03    -294.852E-03     72.9079E-03
             607     8.04230E-03     128.035E-03    -41.2135E+06    -1.14045E+06     36.8114E+06     1.54289E+06    -296.965E-03     592.043E-03    -295.077E-03     87.3941E-03    -297.741E-03     592.562E-03    -294.832E-03     79.5361E-03
             608     8.71261E-03     128.188E-03    -35.0353E+06     5.13851E+06     47.6775E+06     1.57877E+06    -297.328E-03     592.424E-03    -295.095E-03     94.8770E-03    -298.233E-03     593.084E-03    -294.813E-03     85.7107E-03
             609     9.38322E-03     128.350E-03    -29.2659E+06     11.1221E+06     55.8772E+06     1.66993E+06    -297.671E-03     592.774E-03    -295.103E-03     101.618E-03    -298.713E-03     593.590E-03    -294.797E-03     91.1131E-03
             610     10.0534E-03     128.524E-03    -22.9406E+06     18.1063E+06     61.7257E+06     2.10028E+06    -298.085E-03     593.188E-03    -295.103E-03     107.425E-03    -299.260E-03     594.167E-03    -294.787E-03     95.6428E-03
             611     10.7231E-03     128.705E-03    -17.4576E+06     24.3594E+06     64.7925E+06     2.02229E+06    -298.347E-03     593.444E-03    -295.097E-03     112.312E-03    -299.638E-03     594.571E-03    -294.783E-03     99.4833E-03
             612     11.3949E-03     128.893E-03    -13.7502E+06     27.9135E+06     65.8209E+06     636.075E+03    -298.348E-03     593.434E-03    -295.086E-03     113.819E-03    -299.681E-03     594.626E-03    -294.778E-03     100.462E-03
             613     12.0628E-03     129.073E-03    -9.16094E+06     32.7527E+06     68.9029E+06     144.407E+03    -298.339E-03     593.416E-03    -295.077E-03     117.506E-03    -299.784E-03     594.745E-03    -294.766E-03     103.256E-03
             614     12.7350E-03     129.276E-03    -3.59993E+06     38.4664E+06     73.6900E+06     689.946E+03    -297.590E-03     592.651E-03    -295.061E-03     108.151E-03    -298.777E-03     593.748E-03    -294.743E-03     95.8237E-03
             615     669.859E-06     128.878E-03    -101.547E+06    -159.472E+06    -100.107E+06     552.979E+03    -295.194E-03     589.793E-03    -294.599E-03     7.57203E-03    -295.328E-03     589.290E-03    -294.721E-03     7.29920E-03
             616     1.33980E-03     128.897E-03    -99.1968E+06    -151.656E+06    -94.4796E+06     1.67896E+06    -294.946E-03     589.845E-03    -294.899E-03     13.7361E-03    -295.093E-03     589.375E-03    -295.008E-03     13.1655E-03
             617     2.01031E-03     128.926E-03    -96.5243E+06    -138.810E+06    -85.3851E+06     2.97031E+06    -295.050E-03     589.974E-03    -294.924E-03     20.3643E-03    -295.224E-03     589.561E-03    -295.010E-03     19.4929E-03
             618     2.68033E-03     128.969E-03    -92.2630E+06    -121.180E+06    -73.0947E+06     3.69580E+06    -295.089E-03     590.041E-03    -294.952E-03     27.0751E-03    -295.299E-03     589.706E-03    -295.008E-03     25.8241E-03
             619     3.35053E-03     129.022E-03    -86.3985E+06    -99.9222E+06    -59.2344E+06     5.04186E+06    -295.100E-03     590.060E-03    -294.961E-03     34.0796E-03    -295.352E-03     589.823E-03    -294.987E-03     32.3853E-03
             620     4.02076E-03     129.088E-03    -80.2096E+06    -76.3478E+06    -43.3971E+06     6.36551E+06    -295.222E-03     590.187E-03    -294.965E-03     41.3631E-03    -295.528E-03     590.063E-03    -294.955E-03     39.1511E-03
             621     4.69093E-03     129.166E-03    -73.7483E+06    -59.5585E+06    -26.8840E+06     6.21510E+06    -295.446E-03     590.431E-03    -294.985E-03     48.7793E-03    -295.805E-03     590.395E-03    -294.927E-03     45.9404E-03
             622     5.36107E-03     129.257E-03    -67.1258E+06    -40.2044E+06    -11.5523E+06     5.29574E+06    -295.678E-03     590.679E-03    -295.001E-03     56.3244E-03    -296.102E-03     590.756E-03    -294.903E-03     52.7280E-03
             623     6.03130E-03     129.360E-03    -60.9253E+06    -23.0106E+06     2.55662E+06     3.96637E+06    -295.904E-03     590.917E-03    -295.013E-03     64.0354E-03    -296.406E-03     591.114E-03    -294.878E-03     59.5398E-03
             624     6.70158E-03     129.476E-03    -54.6993E+06    -16.3583E+06     14.8616E+06     2.78234E+06    -296.204E-03     591.234E-03    -295.030E-03     71.8625E-03    -296.781E-03     591.516E-03    -294.853E-03     66.3574E-03
             625     7.37226E-03     129.604E-03    -47.9300E+06    -7.98292E+06     26.5218E+06     2.67588E+06    -296.584E-03     591.627E-03    -295.043E-03     79.6763E-03    -297.252E-03     592.020E-03    -294.829E-03     73.0754E-03
             626     8.04244E-03     129.745E-03    -41.5229E+06    -1.02630E+06     38.1383E+06     2.78899E+06    -296.971E-03     592.034E-03    -295.063E-03     87.4203E-03    -297.751E-03     592.551E-03    -294.810E-03     79.5931E-03
             627     8.71289E-03     129.897E-03    -35.7402E+06     5.26481E+06     48.4762E+06     2.55859E+06    -297.352E-03     592.433E-03    -295.081E-03     94.8277E-03    -298.262E-03     593.094E-03    -294.795E-03     85.6626E-03
             628     9.38298E-03     130.061E-03    -29.9797E+06     12.0462E+06     56.6571E+06     2.00993E+06    -297.753E-03     592.846E-03    -295.093E-03     101.672E-03    -298.801E-03     593.666E-03    -294.784E-03     91.1721E-03
             629     10.0533E-03     130.234E-03    -24.4555E+06     17.6811E+06     61.6876E+06     1.10692E+06    -298.092E-03     593.187E-03    -295.095E-03     107.790E-03    -299.276E-03     594.168E-03    -294.777E-03     96.0087E-03
             630     10.7240E-03     130.415E-03    -18.3823E+06     23.6189E+06     64.1086E+06     1.17295E+06    -298.209E-03     593.291E-03    -295.082E-03     112.297E-03    -299.507E-03     594.421E-03    -294.769E-03     99.4162E-03
             631     11.3935E-03     130.600E-03    -12.3498E+06     29.1325E+06     67.1918E+06     1.54975E+06    -298.056E-03     593.119E-03    -295.064E-03     113.988E-03    -299.389E-03     594.318E-03    -294.752E-03     100.631E-03
             632     12.0651E-03     130.788E-03    -8.43015E+06     34.7328E+06     70.9961E+06     574.507E+03    -298.130E-03     593.173E-03    -295.043E-03     118.184E-03    -299.577E-03     594.507E-03    -294.726E-03     104.010E-03
             633     12.7350E-03     130.978E-03    -4.31725E+06     39.4347E+06     74.7589E+06    -182.020E+03    -297.765E-03     592.789E-03    -295.024E-03     108.359E-03    -298.956E-03     593.888E-03    -294.701E-03     96.0521E-03
             634     670.230E-06     130.588E-03    -101.736E+06    -163.165E+06    -101.168E+06     1.34462E+06    -295.141E-03     589.827E-03    -294.686E-03     7.38659E-03    -295.268E-03     589.308E-03    -294.808E-03     7.09469E-03
             635     1.34054E-03     130.606E-03    -101.253E+06    -156.228E+06    -95.8614E+06     1.76774E+06    -294.963E-03     589.880E-03    -294.917E-03     13.7202E-03    -295.111E-03     589.392E-03    -295.023E-03     13.1857E-03
             636     2.01014E-03     130.637E-03    -97.5403E+06    -143.610E+06    -86.4825E+06     2.41768E+06    -295.027E-03     589.964E-03    -294.937E-03     20.3422E-03    -295.197E-03     589.529E-03    -295.020E-03     19.4710E-03
             637     2.68014E-03     130.678E-03    -93.2849E+06    -126.113E+06    -75.0619E+06     3.68458E+06    -294.970E-03     589.910E-03    -294.940E-03     27.1123E-03    -295.175E-03     589.555E-03    -294.998E-03     25.8492E-03
             638     3.35037E-03     130.731E-03    -88.9078E+06    -105.180E+06    -60.9824E+06     4.49600E+06    -295.044E-03     589.980E-03    -294.935E-03     34.2410E-03    -295.299E-03     589.722E-03    -294.959E-03     32.5371E-03
             639     4.02069E-03     130.797E-03    -82.4320E+06    -80.4084E+06    -45.3925E+06     4.83763E+06    -295.242E-03     590.179E-03    -294.937E-03     41.4475E-03    -295.550E-03     590.041E-03    -294.928E-03     39.2287E-03
             640     4.69095E-03     130.875E-03    -75.0427E+06    -61.7660E+06    -29.7197E+06     5.60170E+06    -295.454E-03     590.409E-03    -294.955E-03     48.8093E-03    -295.812E-03     590.367E-03    -294.905E-03     45.9704E-03
             641     5.36131E-03     130.966E-03    -68.2763E+06    -40.3384E+06    -13.6282E+06     5.99368E+06    -295.616E-03     590.587E-03    -294.971E-03     56.3307E-03    -296.044E-03     590.668E-03    -294.881E-03     52.7384E-03
             642     6.03172E-03     131.070E-03    -61.8936E+06    -21.1623E+06     1.66623E+06     5.59915E+06    -295.826E-03     590.807E-03    -294.981E-03     64.0018E-03    -296.335E-03     591.016E-03    -294.852E-03     59.5302E-03
             643     6.70218E-03     131.185E-03    -55.8206E+06    -14.4795E+06     15.1076E+06     4.71823E+06    -296.196E-03     591.198E-03    -295.003E-03     71.7995E-03    -296.781E-03     591.490E-03    -294.825E-03     66.3357E-03
             644     7.37224E-03     131.314E-03    -49.7622E+06    -7.92243E+06     27.4767E+06     3.75873E+06    -296.585E-03     591.611E-03    -295.026E-03     79.5829E-03    -297.264E-03     592.005E-03    -294.805E-03     72.9946E-03
             645     8.04268E-03     131.454E-03    -43.1452E+06    -964.407E+03     39.3019E+06     3.27640E+06    -296.957E-03     592.006E-03    -295.049E-03     87.3906E-03    -297.746E-03     592.524E-03    -294.789E-03     79.5756E-03
             646     8.71287E-03     131.607E-03    -36.3400E+06     5.83775E+06     49.7462E+06     2.80708E+06    -297.317E-03     592.383E-03    -295.066E-03     94.9736E-03    -298.231E-03     593.044E-03    -294.773E-03     85.8511E-03
             647     9.38338E-03     131.771E-03    -29.7832E+06     12.8112E+06     58.1048E+06     2.52792E+06    -297.673E-03     592.746E-03    -295.073E-03     102.036E-03    -298.724E-03     593.568E-03    -294.758E-03     91.5671E-03
             648     10.0538E-03     131.944E-03    -23.6608E+06     20.2127E+06     63.8118E+06     2.16188E+06    -297.901E-03     592.967E-03    -295.066E-03     108.128E-03    -299.090E-03     593.958E-03    -294.742E-03     96.3717E-03
             649     10.7237E-03     132.125E-03    -18.6879E+06     24.7093E+06     65.6850E+06     595.441E+03    -297.974E-03     593.014E-03    -295.040E-03     113.122E-03    -299.285E-03     594.156E-03    -294.720E-03     100.218E-03
             650     11.3946E-03     132.311E-03    -13.8042E+06     28.1649E+06     67.4954E+06    -278.926E+03    -298.066E-03     593.078E-03    -295.012E-03     114.739E-03    -299.417E-03     594.284E-03    -294.696E-03     101.296E-03
             651     12.0658E-03     132.492E-03    -7.98384E+06     35.6491E+06     73.0063E+06     267.411E+03    -298.396E-03     593.401E-03    -295.006E-03     117.495E-03    -299.843E-03     594.735E-03    -294.681E-03     103.261E-03
             652     12.7363E-03     132.695E-03    -3.64913E+06     40.7579E+06     77.5505E+06     261.353E+03    -298.011E-03     593.020E-03    -295.010E-03     107.652E-03    -299.202E-03     594.119E-03    -294.676E-03     95.2957E-03
             653     669.837E-06     132.297E-03    -104.160E+06    -169.339E+06    -102.222E+06     1.47020E+06    -295.103E-03     589.966E-03    -294.863E-03     7.32075E-03    -295.232E-03     589.422E-03    -294.978E-03     7.01139E-03
             654     1.33972E-03     132.316E-03    -101.164E+06    -160.492E+06    -95.5489E+06     2.65494E+06    -294.930E-03     589.901E-03    -294.971E-03     13.6962E-03    -295.072E-03     589.391E-03    -295.069E-03     13.1614E-03
             655     2.01008E-03     132.346E-03    -99.0493E+06    -148.212E+06    -87.1415E+06     3.36652E+06    -294.784E-03     589.713E-03    -294.929E-03     20.3958E-03    -294.955E-03     589.259E-03    -295.006E-03     19.5199E-03
             656     2.68059E-03     132.387E-03    -95.4445E+06    -131.356E+06    -75.9661E+06     4.01597E+06    -294.901E-03     589.793E-03    -294.892E-03     27.3051E-03    -295.108E-03     589.416E-03    -294.943E-03     26.0546E-03
             657     3.35090E-03     132.441E-03    -89.4601E+06    -108.882E+06    -61.5180E+06     4.88546E+06    -295.181E-03     590.080E-03    -294.899E-03     34.2600E-03    -295.431E-03     589.805E-03    -294.919E-03     32.5887E-03
             658     4.02093E-03     132.507E-03    -84.0907E+06    -83.0879E+06    -46.4432E+06     5.38004E+06    -295.284E-03     590.206E-03    -294.921E-03     41.2945E-03    -295.595E-03     590.058E-03    -294.911E-03     39.0903E-03
             659     4.69113E-03     132.585E-03    -79.1379E+06    -64.1080E+06    -31.8691E+06     4.96993E+06    -295.363E-03     590.301E-03    -294.938E-03     48.7418E-03    -295.735E-03     590.257E-03    -294.890E-03     45.8876E-03
             660     5.36129E-03     132.676E-03    -72.2764E+06    -42.8446E+06    -16.2754E+06     5.02518E+06    -295.530E-03     590.474E-03    -294.944E-03     56.3133E-03    -295.970E-03     590.552E-03    -294.859E-03     52.7098E-03
             661     6.03166E-03     132.779E-03    -64.6047E+06    -22.4540E+06    -378.097E+03     5.65788E+06    -295.817E-03     590.768E-03    -294.952E-03     64.0076E-03    -296.333E-03     590.977E-03    -294.828E-03     59.5451E-03
             662     6.70193E-03     132.895E-03    -57.0325E+06    -12.9787E+06     13.8613E+06     5.38628E+06    -296.189E-03     591.163E-03    -294.974E-03     71.8343E-03    -296.781E-03     591.466E-03    -294.803E-03     66.3847E-03
             663     7.37244E-03     133.023E-03    -49.4636E+06    -6.30016E+06     26.9506E+06     4.24237E+06    -296.532E-03     591.530E-03    -294.998E-03     79.6897E-03    -297.211E-03     591.933E-03    -294.782E-03     73.1097E-03
             664     8.04277E-03     133.163E-03    -42.9398E+06    -885.792E+03     39.2998E+06     3.57743E+06    -296.878E-03     591.899E-03    -295.021E-03     87.5667E-03    -297.666E-03     592.417E-03    -294.761E-03     79.7635E-03
             665     8.71333E-03     133.317E-03    -36.5683E+06     6.75459E+06     50.7294E+06     3.29989E+06    -297.255E-03     592.294E-03    -295.038E-03     95.0770E-03    -298.173E-03     592.958E-03    -294.741E-03     85.9688E-03
             666     9.38377E-03     133.479E-03    -29.8310E+06     14.0745E+06     59.8027E+06     2.26196E+06    -297.506E-03     592.549E-03    -295.043E-03     101.967E-03    -298.561E-03     593.374E-03    -294.721E-03     91.5030E-03
             667     10.0542E-03     133.654E-03    -23.3952E+06     20.7133E+06     65.5346E+06     1.65949E+06    -297.566E-03     592.589E-03    -295.023E-03     108.034E-03    -298.756E-03     593.580E-03    -294.692E-03     96.2746E-03
             668     10.7255E-03     133.833E-03    -17.3385E+06     26.9886E+06     68.8932E+06     2.12220E+06    -297.833E-03     592.822E-03    -294.990E-03     112.578E-03    -299.137E-03     593.961E-03    -294.659E-03     99.7456E-03
             669     11.3967E-03     134.020E-03    -13.3427E+06     31.1093E+06     71.2603E+06     1.07001E+06    -298.324E-03     593.299E-03    -294.975E-03     114.103E-03    -299.670E-03     594.501E-03    -294.644E-03     100.752E-03
             670     12.0645E-03     134.207E-03    -9.76278E+06     35.6350E+06     74.5543E+06    -582.032E+03    -298.700E-03     593.684E-03    -294.984E-03     117.944E-03    -300.164E-03     595.023E-03    -294.648E-03     103.673E-03
             671     12.7348E-03     134.399E-03    -4.71447E+06     39.9956E+06     78.4853E+06    -461.786E+03    -298.019E-03     593.012E-03    -294.993E-03     108.359E-03    -299.227E-03     594.118E-03    -294.652E-03     95.9238E-03
             672     670.180E-06     134.007E-03    -104.005E+06    -174.773E+06    -102.678E+06     1.13122E+06    -294.897E-03     589.873E-03    -294.976E-03     7.50641E-03    -295.017E-03     589.301E-03    -295.085E-03     7.24088E-03
             673     1.34014E-03     134.025E-03    -102.313E+06    -166.983E+06    -97.1828E+06     2.20213E+06    -294.805E-03     589.708E-03    -294.903E-03     13.8769E-03    -294.941E-03     589.170E-03    -294.998E-03     13.3146E-03
             674     2.01051E-03     134.054E-03    -98.5423E+06    -153.683E+06    -87.5660E+06     3.73801E+06    -294.832E-03     589.698E-03    -294.866E-03     20.3764E-03    -294.992E-03     589.216E-03    -294.938E-03     19.5177E-03
             675     2.68072E-03     134.096E-03    -93.8962E+06    -135.671E+06    -74.6430E+06     4.76845E+06    -295.072E-03     589.948E-03    -294.876E-03     27.0886E-03    -295.267E-03     589.544E-03    -294.916E-03     25.8777E-03
             676     3.35052E-03     134.150E-03    -89.1135E+06    -113.830E+06    -61.1466E+06     5.44963E+06    -295.162E-03     590.065E-03    -294.903E-03     34.0609E-03    -295.404E-03     589.764E-03    -294.915E-03     32.4045E-03
             677     4.02065E-03     134.216E-03    -83.5129E+06    -87.0388E+06    -45.6689E+06     6.42156E+06    -295.189E-03     590.105E-03    -294.916E-03     41.3423E-03    -295.493E-03     589.936E-03    -294.897E-03     39.1466E-03
             678     4.69100E-03     134.294E-03    -76.7870E+06    -62.7218E+06    -28.3046E+06     6.11280E+06    -295.296E-03     590.222E-03    -294.925E-03     48.8601E-03    -295.664E-03     590.176E-03    -294.865E-03     46.0230E-03
             679     5.36162E-03     134.385E-03    -69.9157E+06    -44.8769E+06    -12.3241E+06     5.00413E+06    -295.529E-03     590.464E-03    -294.935E-03     56.4176E-03    -295.959E-03     590.523E-03    -294.830E-03     52.8305E-03
             680     6.03200E-03     134.488E-03    -62.9290E+06    -26.0313E+06     1.82162E+06     5.32491E+06    -295.823E-03     590.762E-03    -294.939E-03     64.1141E-03    -296.329E-03     590.947E-03    -294.801E-03     59.6641E-03
             681     6.70237E-03     134.604E-03    -56.0446E+06    -12.1252E+06     14.3376E+06     5.41120E+06    -296.089E-03     591.032E-03    -294.943E-03     71.9788E-03    -296.678E-03     591.338E-03    -294.773E-03     66.5306E-03
             682     7.37273E-03     134.732E-03    -49.6318E+06    -5.31931E+06     26.3187E+06     4.97529E+06    -296.461E-03     591.418E-03    -294.957E-03     79.8630E-03    -297.142E-03     591.827E-03    -294.746E-03     73.3084E-03
             683     8.04322E-03     134.874E-03    -42.8650E+06     714.838E+03     39.1135E+06     4.16151E+06    -296.903E-03     591.885E-03    -294.982E-03     87.5860E-03    -297.694E-03     592.412E-03    -294.725E-03     79.7882E-03
             684     8.71361E-03     135.025E-03    -35.8474E+06     7.75205E+06     51.1720E+06     3.06684E+06    -297.215E-03     592.220E-03    -295.005E-03     95.0544E-03    -298.133E-03     592.889E-03    -294.708E-03     85.9250E-03
             685     9.38381E-03     135.191E-03    -29.1702E+06     15.3908E+06     61.1857E+06     2.86656E+06    -297.378E-03     592.389E-03    -295.011E-03     101.840E-03    -298.435E-03     593.219E-03    -294.685E-03     91.3636E-03
             686     10.0549E-03     135.361E-03    -23.4126E+06     21.7509E+06     67.9304E+06     2.32869E+06    -297.729E-03     592.731E-03    -295.003E-03     107.507E-03    -298.921E-03     593.721E-03    -294.661E-03     95.7498E-03
             687     10.7252E-03     135.543E-03    -18.3943E+06     26.7583E+06     70.1274E+06     1.25318E+06    -298.221E-03     593.210E-03    -294.989E-03     111.937E-03    -299.528E-03     594.344E-03    -294.651E-03     99.0704E-03
             688     11.3939E-03     135.730E-03    -12.2320E+06     32.5572E+06     73.1463E+06     1.79975E+06    -297.961E-03     592.939E-03    -294.978E-03     113.454E-03    -299.299E-03     594.137E-03    -294.641E-03     100.151E-03
             689     12.0677E-03     135.915E-03    -6.88268E+06     38.7008E+06     78.5674E+06     2.21329E+06    -298.104E-03     593.071E-03    -294.967E-03     117.636E-03    -299.546E-03     594.399E-03    -294.621E-03     103.580E-03
             690     12.7376E-03     136.114E-03    -4.17050E+06     41.1839E+06     81.0698E+06     555.663E+03    -298.430E-03     593.401E-03    -294.972E-03     107.952E-03    -299.631E-03     594.499E-03    -294.620E-03     95.5999E-03
             691     669.957E-06     135.717E-03    -103.763E+06    -179.961E+06    -102.787E+06     1.09502E+06    -294.669E-03     589.681E-03    -295.012E-03     7.28673E-03    -294.780E-03     589.083E-03    -295.114E-03     7.03347E-03
             692     1.34049E-03     135.733E-03    -102.141E+06    -172.407E+06    -97.1614E+06     2.14934E+06    -294.860E-03     589.700E-03    -294.839E-03     13.3728E-03    -294.988E-03     589.134E-03    -294.927E-03     12.8149E-03
             693     2.01050E-03     135.764E-03    -98.5858E+06    -159.191E+06    -87.5373E+06     2.92589E+06    -295.058E-03     589.928E-03    -294.871E-03     20.1323E-03    -295.209E-03     589.419E-03    -294.935E-03     19.2749E-03
             694     2.68018E-03     135.806E-03    -94.1845E+06    -141.656E+06    -75.6330E+06     4.28672E+06    -295.014E-03     589.917E-03    -294.903E-03     27.1294E-03    -295.200E-03     589.486E-03    -294.939E-03     25.9029E-03
             695     3.35065E-03     135.860E-03    -89.5048E+06    -118.871E+06    -61.3677E+06     5.60177E+06    -294.945E-03     589.844E-03    -294.900E-03     34.2979E-03    -295.182E-03     589.520E-03    -294.904E-03     32.6316E-03
             696     4.02125E-03     135.925E-03    -83.4504E+06    -91.1957E+06    -45.0818E+06     5.93350E+06    -295.086E-03     589.972E-03    -294.886E-03     41.5184E-03    -295.384E-03     589.781E-03    -294.858E-03     39.3211E-03
             697     4.69155E-03     136.004E-03    -76.4760E+06    -64.4751E+06    -28.4926E+06     6.58699E+06    -295.316E-03     590.202E-03    -294.886E-03     48.8357E-03    -295.679E-03     590.147E-03    -294.824E-03     46.0154E-03
             698     5.36168E-03     136.094E-03    -70.3775E+06    -45.9338E+06    -13.1177E+06     7.31895E+06    -295.537E-03     590.436E-03    -294.899E-03     56.3962E-03    -295.967E-03     590.491E-03    -294.796E-03     52.8480E-03
             699     6.03193E-03     136.198E-03    -64.6946E+06    -27.0463E+06     1.33781E+06     6.66397E+06    -295.733E-03     590.639E-03    -294.906E-03     64.1427E-03    -296.246E-03     590.822E-03    -294.766E-03     59.7109E-03
             700     6.70250E-03     136.313E-03    -57.9020E+06    -11.8830E+06     15.2359E+06     5.83845E+06    -296.058E-03     590.972E-03    -294.914E-03     71.9422E-03    -296.657E-03     591.279E-03    -294.736E-03     66.5122E-03
             701     7.37311E-03     136.442E-03    -50.7651E+06    -4.75369E+06     27.9940E+06     5.09332E+06    -296.516E-03     591.451E-03    -294.935E-03     79.7166E-03    -297.204E-03     591.861E-03    -294.715E-03     73.1712E-03
             702     8.04344E-03     136.582E-03    -43.3433E+06     3.36539E+06     40.7011E+06     3.86567E+06    -296.885E-03     591.847E-03    -294.962E-03     87.3982E-03    -297.684E-03     592.386E-03    -294.700E-03     79.5868E-03
             703     8.71361E-03     136.736E-03    -36.6528E+06     8.97239E+06     52.2599E+06     2.92423E+06    -297.139E-03     592.124E-03    -294.985E-03     94.8277E-03    -298.064E-03     592.799E-03    -294.683E-03     85.6733E-03
             704     9.38474E-03     136.897E-03    -30.4050E+06     14.3486E+06     61.4821E+06     2.59383E+06    -297.592E-03     592.592E-03    -295.000E-03     101.428E-03    -298.652E-03     593.416E-03    -294.669E-03     90.9291E-03
             705     10.0547E-03     137.072E-03    -23.6357E+06     22.4952E+06     68.2790E+06     2.96568E+06    -298.082E-03     593.092E-03    -295.010E-03     107.205E-03    -299.275E-03     594.083E-03    -294.667E-03     95.4424E-03
             706     10.7243E-03     137.253E-03    -17.9801E+06     28.9621E+06     71.7630E+06     3.02658E+06    -298.069E-03     593.077E-03    -295.007E-03     112.113E-03    -299.383E-03     594.221E-03    -294.664E-03     99.2656E-03
             707     11.3966E-03     137.440E-03    -13.8727E+06     33.1669E+06     73.8447E+06     1.81824E+06    -298.058E-03     593.051E-03    -294.994E-03     113.431E-03    -299.412E-03     594.260E-03    -294.653E-03     100.059E-03
             708     12.0646E-03     137.622E-03    -9.66020E+06     38.5537E+06     76.9741E+06     1.09073E+06    -298.297E-03     593.282E-03    -294.985E-03     116.871E-03    -299.753E-03     594.618E-03    -294.643E-03     102.694E-03
             709     12.7360E-03     137.824E-03    -4.74615E+06     43.0223E+06     80.5396E+06     1.36888E+06    -297.731E-03     592.709E-03    -294.978E-03     107.638E-03    -298.925E-03     593.806E-03    -294.631E-03     95.4349E-03
             710     670.209E-06     137.424E-03    -104.865E+06    -185.647E+06    -103.295E+06     1.20659E+06    -295.024E-03     589.784E-03    -294.760E-03     7.28532E-03    -295.131E-03     589.161E-03    -294.856E-03     6.98153E-03
             711     1.34005E-03     137.443E-03    -102.712E+06    -177.563E+06    -97.3812E+06     2.26974E+06    -294.981E-03     589.887E-03    -294.906E-03     13.4894E-03    -295.103E-03     589.297E-03    -294.987E-03     12.9284E-03
             712     2.00995E-03     137.473E-03    -100.188E+06    -164.464E+06    -88.5264E+06     3.59042E+06    -294.861E-03     589.771E-03    -294.910E-03     20.3601E-03    -295.012E-03     589.239E-03    -294.969E-03     19.4897E-03
             713     2.68061E-03     137.515E-03    -96.4718E+06    -147.308E+06    -76.6985E+06     4.34666E+06    -294.819E-03     589.702E-03    -294.883E-03     27.3096E-03    -295.007E-03     589.247E-03    -294.913E-03     26.0711E-03
             714     3.35100E-03     137.568E-03    -90.7476E+06    -124.449E+06    -62.3601E+06     5.26018E+06    -294.973E-03     589.836E-03    -294.863E-03     34.2575E-03    -295.206E-03     589.486E-03    -294.863E-03     32.5983E-03
             715     4.02104E-03     137.635E-03    -85.3528E+06    -96.8800E+06    -47.1684E+06     7.27488E+06    -295.122E-03     589.981E-03    -294.858E-03     41.2911E-03    -295.418E-03     589.766E-03    -294.830E-03     39.1233E-03
             716     4.69142E-03     137.712E-03    -80.5854E+06    -68.6758E+06    -31.5800E+06     8.51672E+06    -295.261E-03     590.119E-03    -294.859E-03     48.6616E-03    -295.633E-03     590.053E-03    -294.800E-03     45.8772E-03
             717     5.36186E-03     137.804E-03    -74.0364E+06    -47.3942E+06    -16.3311E+06     8.06568E+06    -295.479E-03     590.344E-03    -294.865E-03     56.2837E-03    -295.920E-03     590.401E-03    -294.770E-03     52.7432E-03
             718     6.03254E-03     137.906E-03    -66.0365E+06    -26.1278E+06    -221.835E+03     7.29073E+06    -295.781E-03     590.658E-03    -294.877E-03     63.9187E-03    -296.299E-03     590.849E-03    -294.744E-03     59.4846E-03
             719     6.70289E-03     138.023E-03    -58.2303E+06    -10.6293E+06     15.1934E+06     6.19986E+06    -296.191E-03     591.094E-03    -294.903E-03     71.6102E-03    -296.792E-03     591.407E-03    -294.728E-03     66.1829E-03
             720     7.37297E-03     138.151E-03    -50.9954E+06    -3.18859E+06     29.1749E+06     4.90255E+06    -296.522E-03     591.462E-03    -294.940E-03     79.3763E-03    -297.214E-03     591.878E-03    -294.716E-03     72.8249E-03
             721     8.04325E-03     138.293E-03    -44.6777E+06     4.71695E+06     42.5782E+06     4.13690E+06    -296.751E-03     591.721E-03    -294.970E-03     87.1130E-03    -297.560E-03     592.265E-03    -294.699E-03     79.3000E-03
             722     8.71421E-03     138.443E-03    -37.9548E+06     9.69076E+06     54.3567E+06     3.75706E+06    -297.251E-03     592.247E-03    -294.996E-03     94.5178E-03    -298.185E-03     592.923E-03    -294.683E-03     85.3858E-03
             723     9.38379E-03     138.609E-03    -31.3667E+06     15.3526E+06     63.1409E+06     3.18607E+06    -297.791E-03     592.811E-03    -295.020E-03     101.416E-03    -298.857E-03     593.637E-03    -294.681E-03     90.9554E-03
             724     10.0539E-03     138.781E-03    -25.7584E+06     21.3095E+06     68.1215E+06     2.61235E+06    -297.902E-03     592.928E-03    -295.026E-03     107.400E-03    -299.105E-03     593.918E-03    -294.679E-03     95.6411E-03
             725     10.7253E-03     138.963E-03    -19.7042E+06     27.7154E+06     70.3714E+06     2.99269E+06    -298.019E-03     593.028E-03    -295.009E-03     111.928E-03    -299.336E-03     594.170E-03    -294.669E-03     99.0629E-03
             726     11.3944E-03     139.147E-03    -13.5716E+06     35.0721E+06     73.6496E+06     3.73043E+06    -298.240E-03     593.238E-03    -294.998E-03     113.528E-03    -299.591E-03     594.452E-03    -294.661E-03     100.227E-03
             727     12.0659E-03     139.336E-03    -8.97331E+06     41.8621E+06     78.3667E+06     2.60215E+06    -298.379E-03     593.377E-03    -294.998E-03     117.783E-03    -299.837E-03     594.724E-03    -294.654E-03     103.727E-03
             728     12.7352E-03     139.529E-03    -4.46067E+06     45.2575E+06     82.0187E+06     588.884E+03    -297.445E-03     592.428E-03    -294.983E-03     108.474E-03    -298.648E-03     593.538E-03    -294.632E-03     96.2691E-03
             729     670.109E-06     139.135E-03    -105.868E+06    -191.685E+06    -105.320E+06     1.64120E+06    -295.158E-03     589.712E-03    -294.553E-03     7.48510E-03    -295.259E-03     589.062E-03    -294.649E-03     7.20782E-03
             730     1.34003E-03     139.153E-03    -104.688E+06    -183.300E+06    -99.1952E+06     2.36446E+06    -294.851E-03     589.700E-03    -294.849E-03     13.8197E-03    -294.973E-03     589.087E-03    -294.927E-03     13.2532E-03
             731     2.01062E-03     139.182E-03    -101.369E+06    -170.740E+06    -90.0553E+06     3.40194E+06    -294.811E-03     589.649E-03    -294.838E-03     20.4816E-03    -294.956E-03     589.089E-03    -294.894E-03     19.6002E-03
             732     2.68082E-03     139.223E-03    -96.5975E+06    -152.332E+06    -77.3114E+06     4.85747E+06    -294.963E-03     589.801E-03    -294.839E-03     27.1711E-03    -295.143E-03     589.322E-03    -294.864E-03     25.9492E-03
             733     3.35080E-03     139.278E-03    -91.9360E+06    -130.813E+06    -63.4267E+06     6.31565E+06    -295.055E-03     589.908E-03    -294.854E-03     34.0804E-03    -295.283E-03     589.530E-03    -294.848E-03     32.4286E-03
             734     4.02125E-03     139.343E-03    -86.0293E+06    -105.025E+06    -48.4405E+06     7.76542E+06    -295.117E-03     589.975E-03    -294.858E-03     41.3286E-03    -295.403E-03     589.723E-03    -294.823E-03     39.1590E-03
             735     4.69153E-03     139.422E-03    -78.2974E+06    -72.3462E+06    -31.3444E+06     8.76475E+06    -295.283E-03     590.138E-03    -294.855E-03     48.6778E-03    -295.639E-03     590.050E-03    -294.794E-03     45.8909E-03
             736     5.36204E-03     139.512E-03    -70.7732E+06    -48.2873E+06    -13.8288E+06     8.90486E+06    -295.589E-03     590.464E-03    -294.875E-03     56.0832E-03    -296.016E-03     590.508E-03    -294.771E-03     52.5592E-03
             737     6.03201E-03     139.616E-03    -63.9115E+06    -26.4643E+06     2.25773E+06     8.40561E+06    -295.973E-03     590.878E-03    -294.904E-03     63.6403E-03    -296.482E-03     591.059E-03    -294.762E-03     59.2465E-03
             738     6.70223E-03     139.731E-03    -57.6743E+06    -8.51993E+06     15.7057E+06     7.30290E+06    -296.223E-03     591.154E-03    -294.930E-03     71.3939E-03    -296.825E-03     591.475E-03    -294.756E-03     65.9817E-03
             739     7.37265E-03     139.861E-03    -51.7633E+06    -2.28006E+06     29.0396E+06     6.46093E+06    -296.394E-03     591.357E-03    -294.963E-03     79.2093E-03    -297.092E-03     591.778E-03    -294.739E-03     72.6679E-03
             740     8.04346E-03     140.000E-03    -45.1503E+06     5.58815E+06     43.5424E+06     5.95737E+06    -296.802E-03     591.795E-03    -294.993E-03     86.9649E-03    -297.614E-03     592.340E-03    -294.718E-03     79.2091E-03
             741     8.71333E-03     140.155E-03    -38.3551E+06     11.2948E+06     55.6798E+06     4.96239E+06    -297.263E-03     592.283E-03    -295.021E-03     94.5687E-03    -298.199E-03     592.963E-03    -294.703E-03     85.4964E-03
             742     9.38404E-03     140.318E-03    -31.9631E+06     16.3655E+06     64.3943E+06     4.24849E+06    -297.453E-03     592.485E-03    -295.032E-03     101.677E-03    -298.526E-03     593.316E-03    -294.687E-03     91.2532E-03
             743     10.0549E-03     140.492E-03    -25.6313E+06     21.9685E+06     70.0777E+06     3.88086E+06    -297.743E-03     592.765E-03    -295.023E-03     107.673E-03    -298.949E-03     593.755E-03    -294.667E-03     95.9599E-03
             744     10.7244E-03     140.671E-03    -20.0225E+06     27.3670E+06     72.0198E+06     3.13579E+06    -298.168E-03     593.172E-03    -295.003E-03     112.597E-03    -299.492E-03     594.313E-03    -294.654E-03     99.7605E-03
             745     11.3955E-03     140.860E-03    -14.7784E+06     35.4407E+06     73.8155E+06     2.13667E+06    -298.195E-03     593.181E-03    -294.986E-03     114.331E-03    -299.566E-03     594.411E-03    -294.646E-03     100.934E-03
             746     12.0657E-03     141.041E-03    -8.61991E+06     44.8339E+06     79.2404E+06     1.74736E+06    -298.147E-03     593.124E-03    -294.977E-03     117.448E-03    -299.621E-03     594.497E-03    -294.634E-03     103.229E-03
             747     12.7378E-03     141.243E-03    -3.41562E+06     48.1781E+06     83.9349E+06     1.58862E+06    -297.446E-03     592.412E-03    -294.966E-03     107.699E-03    -298.656E-03     593.537E-03    -294.611E-03     95.3981E-03
             748     670.148E-06     140.843E-03    -107.905E+06    -197.473E+06    -106.410E+06     948.646E+03    -294.827E-03     589.522E-03    -294.695E-03     7.32307E-03    -294.928E-03     588.848E-03    -294.784E-03     7.03609E-03
             749     1.34075E-03     140.861E-03    -105.277E+06    -188.979E+06    -100.677E+06     2.21722E+06    -294.767E-03     589.523E-03    -294.756E-03     13.4822E-03    -294.881E-03     588.884E-03    -294.832E-03     12.9084E-03
             750     2.01064E-03     140.890E-03    -102.178E+06    -176.294E+06    -90.8912E+06     3.37192E+06    -294.973E-03     589.759E-03    -294.786E-03     20.1912E-03    -295.113E-03     589.175E-03    -294.837E-03     19.3209E-03
             751     2.68051E-03     140.933E-03    -98.2761E+06    -159.239E+06    -79.4382E+06     4.60386E+06    -295.033E-03     589.863E-03    -294.830E-03     27.1394E-03    -295.209E-03     589.355E-03    -294.854E-03     25.9160E-03
             752     3.35091E-03     140.986E-03    -92.8604E+06    -137.342E+06    -65.1896E+06     5.97658E+06    -295.078E-03     589.934E-03    -294.856E-03     34.1202E-03    -295.299E-03     589.527E-03    -294.848E-03     32.4463E-03
             753     4.02115E-03     141.052E-03    -86.6147E+06    -110.572E+06    -49.2228E+06     6.85342E+06    -295.224E-03     590.098E-03    -294.873E-03     41.1575E-03    -295.503E-03     589.820E-03    -294.834E-03     38.9751E-03
             754     4.69159E-03     141.130E-03    -80.4260E+06    -78.4208E+06    -32.8391E+06     8.03484E+06    -295.429E-03     590.316E-03    -294.887E-03     48.3719E-03    -295.784E-03     590.202E-03    -294.821E-03     45.5873E-03
             755     5.36157E-03     141.222E-03    -73.9065E+06    -51.8941E+06    -16.8152E+06     9.36254E+06    -295.698E-03     590.609E-03    -294.912E-03     55.8765E-03    -296.129E-03     590.643E-03    -294.813E-03     52.3768E-03
             756     6.03206E-03     141.325E-03    -67.0361E+06    -26.6867E+06    -1.10894E+06     9.38840E+06    -295.879E-03     590.811E-03    -294.932E-03     63.6727E-03    -296.398E-03     591.001E-03    -294.802E-03     59.3022E-03
             757     6.70218E-03     141.442E-03    -60.5013E+06    -8.06222E+06     14.8174E+06     8.74529E+06    -296.033E-03     590.985E-03    -294.952E-03     71.5670E-03    -296.649E-03     591.315E-03    -294.778E-03     66.1755E-03
             758     7.37278E-03     141.569E-03    -53.4270E+06    -2.24164E+06     29.6690E+06     8.20692E+06    -296.459E-03     591.441E-03    -294.982E-03     79.4220E-03    -297.166E-03     591.864E-03    -294.753E-03     72.9254E-03
             759     8.04283E-03     141.711E-03    -46.1362E+06     6.45732E+06     43.6260E+06     7.59059E+06    -296.898E-03     591.909E-03    -295.011E-03     87.1651E-03    -297.715E-03     592.459E-03    -294.736E-03     79.4598E-03
             760     8.71351E-03     141.863E-03    -39.3731E+06     14.1084E+06     56.1043E+06     6.39819E+06    -297.058E-03     592.091E-03    -295.033E-03     94.6348E-03    -298.005E-03     592.785E-03    -294.716E-03     85.5908E-03
             761     9.38407E-03     142.027E-03    -32.8386E+06     17.3363E+06     65.1791E+06     5.00699E+06    -297.233E-03     592.266E-03    -295.033E-03     101.460E-03    -298.311E-03     593.100E-03    -294.685E-03     91.0603E-03
             762     10.0545E-03     142.200E-03    -26.5309E+06     23.0924E+06     71.0821E+06     4.11493E+06    -297.595E-03     592.609E-03    -295.014E-03     107.573E-03    -298.806E-03     593.602E-03    -294.654E-03     95.8801E-03
             763     10.7257E-03     142.383E-03    -20.1140E+06     29.4826E+06     74.0457E+06     3.28299E+06    -297.896E-03     592.882E-03    -294.986E-03     112.392E-03    -299.224E-03     594.029E-03    -294.630E-03     99.5699E-03
             764     11.3960E-03     142.567E-03    -14.5106E+06     36.6752E+06     76.7282E+06     2.23180E+06    -297.981E-03     592.942E-03    -294.962E-03     114.215E-03    -299.352E-03     594.170E-03    -294.610E-03     100.866E-03
             765     12.0658E-03     142.755E-03    -10.3739E+06     45.2154E+06     80.0946E+06     1.33644E+06    -298.151E-03     593.093E-03    -294.942E-03     118.341E-03    -299.642E-03     594.475E-03    -294.592E-03     104.118E-03
             766     12.7347E-03     142.946E-03    -4.59596E+06     50.0540E+06     83.8209E+06     1.09577E+06    -297.460E-03     592.381E-03    -294.922E-03     108.503E-03    -298.688E-03     593.528E-03    -294.568E-03     96.1583E-03
             767     670.138E-06     142.552E-03    -108.805E+06    -202.987E+06    -106.333E+06     1.51568E+06    -294.673E-03     589.661E-03    -294.988E-03     6.99985E-03    -294.771E-03     588.960E-03    -295.067E-03     6.68094E-03
             768     1.34014E-03     142.569E-03    -106.686E+06    -195.015E+06    -101.254E+06     2.55950E+06    -294.846E-03     589.676E-03    -294.830E-03     13.3447E-03    -294.957E-03     589.010E-03    -294.899E-03     12.8017E-03
             769     2.01037E-03     142.600E-03    -103.863E+06    -182.358E+06    -92.6056E+06     3.73678E+06    -294.925E-03     589.766E-03    -294.841E-03     20.1329E-03    -295.062E-03     589.156E-03    -294.889E-03     19.2871E-03
             770     2.68086E-03     142.641E-03    -99.7136E+06    -165.333E+06    -80.3627E+06     4.88364E+06    -295.020E-03     589.886E-03    -294.866E-03     26.9307E-03    -295.192E-03     589.351E-03    -294.884E-03     25.7156E-03
             771     3.35097E-03     142.695E-03    -94.7791E+06    -143.214E+06    -66.4743E+06     5.91898E+06    -295.203E-03     590.098E-03    -294.896E-03     33.8462E-03    -295.422E-03     589.666E-03    -294.883E-03     32.2045E-03
             772     4.02100E-03     142.761E-03    -89.4869E+06    -116.558E+06    -51.3539E+06     7.44807E+06    -295.396E-03     590.326E-03    -294.930E-03     40.9414E-03    -295.677E-03     590.025E-03    -294.888E-03     38.7874E-03
             773     4.69085E-03     142.840E-03    -83.2780E+06    -85.5080E+06    -35.0943E+06     9.17254E+06    -295.518E-03     590.475E-03    -294.957E-03     48.3203E-03    -295.873E-03     590.333E-03    -294.888E-03     45.5576E-03
             774     5.36135E-03     142.931E-03    -76.5701E+06    -55.6289E+06    -18.9586E+06     9.74797E+06    -295.579E-03     590.547E-03    -294.968E-03     55.9351E-03    -296.015E-03     590.568E-03    -294.871E-03     52.4501E-03
             775     6.03134E-03     143.035E-03    -70.2000E+06    -28.6991E+06    -2.85913E+06     9.69702E+06    -295.646E-03     590.609E-03    -294.963E-03     63.6644E-03    -296.175E-03     590.796E-03    -294.834E-03     59.3038E-03
             776     6.70243E-03     143.150E-03    -62.7757E+06    -9.51822E+06     12.9555E+06     9.83124E+06    -296.016E-03     590.981E-03    -294.965E-03     71.4083E-03    -296.637E-03     591.308E-03    -294.795E-03     66.0618E-03
             777     7.37269E-03     143.280E-03    -55.1338E+06    -1.29693E+06     27.8399E+06     9.14746E+06    -296.495E-03     591.487E-03    -294.991E-03     79.1898E-03    -297.207E-03     591.917E-03    -294.770E-03     72.7322E-03
             778     8.04307E-03     143.420E-03    -48.0428E+06     7.73101E+06     42.8782E+06     7.64582E+06    -296.711E-03     591.731E-03    -295.021E-03     87.0445E-03    -297.538E-03     592.292E-03    -294.748E-03     79.3258E-03
             779     8.71344E-03     143.573E-03    -40.5119E+06     15.1960E+06     56.3437E+06     6.76008E+06    -296.971E-03     592.007E-03    -295.036E-03     94.5485E-03    -297.925E-03     592.708E-03    -294.718E-03     85.5043E-03
             780     9.38404E-03     143.736E-03    -33.1432E+06     19.6074E+06     66.6137E+06     6.00955E+06    -297.340E-03     592.381E-03    -295.041E-03     101.382E-03    -298.425E-03     593.225E-03    -294.688E-03     90.9858E-03
             781     10.0547E-03     143.909E-03    -26.2639E+06     25.9436E+06     73.5509E+06     4.41108E+06    -297.518E-03     592.545E-03    -295.027E-03     107.360E-03    -298.735E-03     593.548E-03    -294.659E-03     95.6637E-03
             782     10.7250E-03     144.090E-03    -20.3726E+06     31.3302E+06     75.7351E+06     3.03940E+06    -297.597E-03     592.585E-03    -294.988E-03     112.194E-03    -298.930E-03     593.737E-03    -294.625E-03     99.3860E-03
             783     11.3956E-03     144.278E-03    -14.8240E+06     37.8584E+06     77.6542E+06     2.50650E+06    -297.463E-03     592.401E-03    -294.938E-03     113.925E-03    -298.831E-03     593.626E-03    -294.583E-03     100.651E-03
             784     12.0679E-03     144.460E-03    -8.90352E+06     47.0308E+06     83.0776E+06     2.20865E+06    -297.679E-03     592.579E-03    -294.900E-03     117.779E-03    -299.155E-03     593.949E-03    -294.540E-03     103.699E-03
             785     12.7405E-03     144.661E-03    -4.97771E+06     52.8364E+06     86.7368E+06     978.493E+03    -297.834E-03     592.717E-03    -294.883E-03     107.805E-03    -299.064E-03     593.866E-03    -294.519E-03     95.4657E-03
             786     670.067E-06     144.261E-03    -110.201E+06    -210.152E+06    -109.023E+06     1.57968E+06    -294.761E-03     589.749E-03    -294.988E-03     7.46725E-03    -294.852E-03     589.019E-03    -295.069E-03     7.14467E-03
             787     1.34018E-03     144.279E-03    -107.942E+06    -201.535E+06    -102.562E+06     2.73998E+06    -295.030E-03     589.932E-03    -294.902E-03     13.5740E-03    -295.136E-03     589.237E-03    -294.966E-03     13.0274E-03
             788     2.01044E-03     144.309E-03    -104.665E+06    -188.807E+06    -93.2320E+06     4.11791E+06    -295.054E-03     590.001E-03    -294.947E-03     19.9808E-03    -295.184E-03     589.360E-03    -294.988E-03     19.1687E-03
             789     2.68028E-03     144.351E-03    -100.565E+06    -171.289E+06    -81.1508E+06     5.37694E+06    -295.130E-03     590.106E-03    -294.976E-03     26.6340E-03    -295.296E-03     589.543E-03    -294.988E-03     25.4544E-03
             790     3.35034E-03     144.404E-03    -95.6449E+06    -149.795E+06    -67.4118E+06     6.83565E+06    -295.207E-03     590.204E-03    -294.997E-03     33.7207E-03    -295.420E-03     589.741E-03    -294.978E-03     32.1079E-03
             791     4.02050E-03     144.471E-03    -89.7028E+06    -124.183E+06    -51.9981E+06     8.43607E+06    -295.342E-03     590.354E-03    -295.012E-03     41.0724E-03    -295.612E-03     590.016E-03    -294.962E-03     38.9440E-03
             792     4.69091E-03     144.549E-03    -83.0332E+06    -92.8590E+06    -35.4848E+06     9.98074E+06    -295.478E-03     590.497E-03    -295.019E-03     48.4877E-03    -295.821E-03     590.319E-03    -294.941E-03     45.7464E-03
             793     5.36088E-03     144.640E-03    -76.7448E+06    -57.9117E+06    -18.5574E+06     10.6097E+06    -295.482E-03     590.492E-03    -295.010E-03     55.9358E-03    -295.917E-03     590.502E-03    -294.908E-03     52.4538E-03
             794     6.03199E-03     144.743E-03    -69.4884E+06    -32.2604E+06    -1.35382E+06     10.8390E+06    -295.755E-03     590.762E-03    -295.007E-03     63.5620E-03    -296.276E-03     590.926E-03    -294.867E-03     59.2401E-03
             795     6.70179E-03     144.860E-03    -62.1009E+06    -12.8384E+06     13.7694E+06     11.4652E+06    -296.161E-03     591.176E-03    -295.014E-03     71.2603E-03    -296.773E-03     591.481E-03    -294.837E-03     65.9688E-03
             796     7.37203E-03     144.989E-03    -55.4760E+06     1.66709E+06     27.3514E+06     10.2944E+06    -296.318E-03     591.341E-03    -295.023E-03     79.0180E-03    -297.035E-03     591.787E-03    -294.808E-03     72.5717E-03
             797     8.04273E-03     145.129E-03    -48.4002E+06     10.3915E+06     42.4561E+06     8.14465E+06    -296.547E-03     591.584E-03    -295.037E-03     86.8062E-03    -297.379E-03     592.158E-03    -294.770E-03     79.0967E-03
             798     8.71358E-03     145.282E-03    -41.2442E+06     15.9429E+06     56.4680E+06     6.68252E+06    -296.970E-03     592.021E-03    -295.052E-03     94.3037E-03    -297.927E-03     592.726E-03    -294.733E-03     85.2624E-03
             799     9.38397E-03     145.445E-03    -33.9730E+06     21.2960E+06     67.6206E+06     5.53247E+06    -297.316E-03     592.375E-03    -295.060E-03     101.139E-03    -298.407E-03     593.226E-03    -294.703E-03     90.7307E-03
             800     10.0543E-03     145.618E-03    -27.0702E+06     27.9781E+06     74.9040E+06     4.96953E+06    -297.457E-03     592.502E-03    -295.046E-03     107.136E-03    -298.682E-03     593.514E-03    -294.672E-03     95.4384E-03
             801     10.7253E-03     145.799E-03    -20.7943E+06     33.7703E+06     77.9335E+06     4.14327E+06    -297.400E-03     592.402E-03    -295.002E-03     111.893E-03    -298.739E-03     593.561E-03    -294.631E-03     99.1071E-03
             802     11.3968E-03     145.985E-03    -15.1066E+06     40.8284E+06     80.2363E+06     2.46612E+06    -297.406E-03     592.355E-03    -294.949E-03     113.268E-03    -298.782E-03     593.590E-03    -294.585E-03     99.9626E-03
             803     12.0665E-03     146.169E-03    -10.1387E+06     47.5606E+06     83.8660E+06     1.40708E+06    -297.719E-03     592.630E-03    -294.911E-03     116.879E-03    -299.195E-03     593.996E-03    -294.546E-03     102.775E-03
             804     12.7354E-03     146.367E-03    -5.11681E+06     54.7184E+06     87.6253E+06     1.05316E+06    -296.925E-03     591.796E-03    -294.871E-03     107.793E-03    -298.152E-03     592.945E-03    -294.505E-03     95.5648E-03
             805     670.368E-06     145.970E-03    -110.661E+06    -216.080E+06    -109.744E+06     1.02579E+06    -294.957E-03     589.947E-03    -294.989E-03     7.28577E-03    -295.040E-03     589.188E-03    -295.064E-03     7.01474E-03
             806     1.34024E-03     145.988E-03    -109.113E+06    -208.132E+06    -104.023E+06     2.46288E+06    -295.166E-03     590.173E-03    -295.007E-03     13.3655E-03    -295.267E-03     589.449E-03    -295.067E-03     12.8337E-03
             807     2.00977E-03     146.018E-03    -105.762E+06    -195.620E+06    -94.4237E+06     3.91054E+06    -295.212E-03     590.280E-03    -295.068E-03     20.0510E-03    -295.337E-03     589.608E-03    -295.103E-03     19.2028E-03
             808     2.67995E-03     146.060E-03    -101.479E+06    -178.403E+06    -82.7691E+06     5.44811E+06    -295.186E-03     590.278E-03    -295.092E-03     26.8887E-03    -295.345E-03     589.683E-03    -295.100E-03     25.6921E-03
             809     3.35014E-03     146.114E-03    -96.2287E+06    -157.036E+06    -68.3826E+06     6.88646E+06    -295.188E-03     590.283E-03    -295.095E-03     33.8582E-03    -295.392E-03     589.786E-03    -295.069E-03     32.2494E-03
             810     4.02052E-03     146.180E-03    -90.2009E+06    -131.207E+06    -52.5441E+06     8.08804E+06    -295.277E-03     590.364E-03    -295.087E-03     41.1039E-03    -295.538E-03     589.992E-03    -295.029E-03     38.9910E-03
             811     4.69053E-03     146.259E-03    -83.8799E+06    -100.748E+06    -36.2740E+06     9.59332E+06    -295.404E-03     590.478E-03    -295.074E-03     48.3042E-03    -295.738E-03     590.262E-03    -294.988E-03     45.5746E-03
             812     5.36122E-03     146.349E-03    -76.3962E+06    -63.2393E+06    -19.0812E+06     11.4535E+06    -295.658E-03     590.719E-03    -295.061E-03     55.5789E-03    -296.081E-03     590.701E-03    -294.954E-03     52.1225E-03
             813     6.03092E-03     146.453E-03    -69.4256E+06    -36.9126E+06    -2.90684E+06     12.7743E+06    -295.914E-03     590.980E-03    -295.067E-03     63.2682E-03    -296.425E-03     591.122E-03    -294.927E-03     58.9792E-03
             814     6.70144E-03     146.570E-03    -63.1569E+06    -14.9802E+06     12.2019E+06     12.4558E+06    -295.981E-03     591.047E-03    -295.066E-03     71.1481E-03    -296.593E-03     591.346E-03    -294.891E-03     65.8603E-03
             815     7.37221E-03     146.697E-03    -55.8417E+06     4.92887E+06     27.9276E+06     10.9695E+06    -296.239E-03     591.299E-03    -295.060E-03     78.9966E-03    -296.962E-03     591.760E-03    -294.846E-03     72.5639E-03
             816     8.04265E-03     146.838E-03    -48.3255E+06     12.3513E+06     43.4916E+06     9.60954E+06    -296.680E-03     591.757E-03    -295.077E-03     86.6000E-03    -297.514E-03     592.337E-03    -294.807E-03     78.9121E-03
             817     8.71289E-03     146.990E-03    -41.3103E+06     18.6487E+06     57.7060E+06     8.23233E+06    -296.915E-03     592.009E-03    -295.094E-03     93.9824E-03    -297.877E-03     592.723E-03    -294.773E-03     84.9679E-03
             818     9.38350E-03     147.155E-03    -34.9288E+06     23.2564E+06     69.0025E+06     6.87358E+06    -297.053E-03     592.146E-03    -295.093E-03     101.001E-03    -298.152E-03     593.004E-03    -294.731E-03     90.6282E-03
             819     10.0545E-03     147.327E-03    -28.5041E+06     29.8279E+06     76.7627E+06     5.37765E+06    -297.229E-03     592.294E-03    -295.065E-03     107.121E-03    -298.467E-03     593.314E-03    -294.683E-03     95.4281E-03
             820     10.7250E-03     147.508E-03    -21.6255E+06     36.8692E+06     80.2078E+06     3.63837E+06    -297.402E-03     592.416E-03    -295.014E-03     111.894E-03    -298.755E-03     593.590E-03    -294.635E-03     99.0696E-03
             821     11.3952E-03     147.692E-03    -15.2544E+06     42.8908E+06     82.2672E+06     2.99672E+06    -297.413E-03     592.372E-03    -294.959E-03     113.895E-03    -298.798E-03     593.616E-03    -294.588E-03     100.621E-03
             822     12.0667E-03     147.880E-03    -9.91639E+06     50.3063E+06     85.9595E+06     2.10292E+06    -297.135E-03     592.034E-03    -294.899E-03     118.343E-03    -298.625E-03     593.418E-03    -294.528E-03     104.316E-03
             823     12.7394E-03     148.075E-03    -4.89358E+06     56.8850E+06     89.1616E+06     504.374E+03    -295.985E-03     590.796E-03    -294.811E-03     109.203E-03    -297.228E-03     591.965E-03    -294.441E-03     96.9703E-03
             824     669.569E-06     147.679E-03    -112.319E+06    -222.703E+06    -110.471E+06     2.01521E+06    -295.126E-03     590.464E-03    -295.338E-03     7.20425E-03    -295.206E-03     589.676E-03    -295.405E-03     6.93244E-03
             825     1.33960E-03     147.698E-03    -110.441E+06    -214.482E+06    -104.703E+06     2.99115E+06    -295.077E-03     590.275E-03    -295.198E-03     13.4468E-03    -295.173E-03     589.521E-03    -295.251E-03     12.9364E-03
             826     2.01005E-03     147.728E-03    -107.488E+06    -201.905E+06    -95.8741E+06     3.79058E+06    -295.127E-03     590.284E-03    -295.157E-03     20.1693E-03    -295.249E-03     589.586E-03    -295.188E-03     19.3466E-03
             827     2.67990E-03     147.770E-03    -103.017E+06    -185.207E+06    -83.9046E+06     4.83285E+06    -295.224E-03     590.375E-03    -295.151E-03     26.9714E-03    -295.379E-03     589.750E-03    -295.153E-03     25.7665E-03
             828     3.34996E-03     147.823E-03    -97.5601E+06    -163.767E+06    -69.7867E+06     6.18093E+06    -295.359E-03     590.519E-03    -295.160E-03     33.9092E-03    -295.558E-03     589.993E-03    -295.130E-03     32.2809E-03
             829     4.01987E-03     147.890E-03    -91.5306E+06    -138.333E+06    -54.3179E+06     7.78855E+06    -295.434E-03     590.602E-03    -295.168E-03     40.8942E-03    -295.688E-03     590.198E-03    -295.107E-03     38.7777E-03
             830     4.69042E-03     147.968E-03    -84.8248E+06    -108.739E+06    -37.8814E+06     9.50959E+06    -295.529E-03     590.696E-03    -295.167E-03     47.9479E-03    -295.852E-03     590.442E-03    -295.075E-03     45.2335E-03
             831     5.36030E-03     148.059E-03    -78.2798E+06    -73.5323E+06    -21.2600E+06     12.0395E+06    -295.726E-03     590.883E-03    -295.157E-03     55.4084E-03    -296.140E-03     590.819E-03    -295.043E-03     51.9799E-03
             832     6.03063E-03     148.163E-03    -71.8755E+06    -42.8307E+06    -5.30502E+06     14.1119E+06    -295.806E-03     590.951E-03    -295.145E-03     63.1334E-03    -296.318E-03     591.071E-03    -295.005E-03     58.8455E-03
             833     6.70119E-03     148.277E-03    -64.7003E+06    -13.5122E+06     10.9324E+06     13.4278E+06    -295.968E-03     591.093E-03    -295.125E-03     70.8854E-03    -296.588E-03     591.403E-03    -294.957E-03     65.5927E-03
             834     7.37166E-03     148.407E-03    -57.8197E+06     6.30535E+06     26.4544E+06     11.6757E+06    -296.322E-03     591.441E-03    -295.119E-03     78.4823E-03    -297.053E-03     591.912E-03    -294.912E-03     72.0723E-03
             835     8.04196E-03     148.547E-03    -51.2133E+06     12.8806E+06      41.895E+06     10.4338E+06    -296.583E-03     591.718E-03    -295.136E-03     86.1858E-03    -297.427E-03     592.305E-03    -294.871E-03     78.5263E-03
             836     8.71247E-03     148.701E-03    -43.8709E+06     21.2547E+06     57.9776E+06     9.34895E+06    -296.684E-03     591.828E-03    -295.144E-03     93.7981E-03    -297.663E-03     592.558E-03    -294.822E-03     84.7926E-03
             837     9.38345E-03     148.862E-03    -35.8570E+06     26.5069E+06     71.0600E+06     7.65857E+06    -296.764E-03     591.893E-03    -295.129E-03     100.866E-03    -297.876E-03     592.765E-03    -294.760E-03     90.5060E-03
             838     10.0542E-03     149.036E-03    -28.1578E+06     33.3716E+06     80.2063E+06     5.73989E+06    -296.847E-03     591.929E-03    -295.082E-03     107.063E-03    -298.091E-03     592.960E-03    -294.689E-03     95.4024E-03
             839     10.7255E-03     149.215E-03    -21.8616E+06     39.4916E+06     83.4268E+06     4.61522E+06    -296.966E-03     591.971E-03    -295.006E-03     112.345E-03    -298.328E-03     593.154E-03    -294.614E-03     99.5823E-03
             840     11.3968E-03     149.403E-03    -16.5813E+06     44.7654E+06     83.7811E+06     3.15782E+06    -296.746E-03     591.657E-03    -294.911E-03     114.738E-03    -298.152E-03     592.920E-03    -294.533E-03     101.442E-03
             841     12.0681E-03     149.584E-03    -10.6928E+06     54.3929E+06     87.7517E+06     1.24754E+06    -296.223E-03     591.031E-03    -294.807E-03     118.401E-03    -297.741E-03     592.449E-03    -294.432E-03     104.237E-03
             842     12.7399E-03     149.780E-03    -4.90827E+06     59.0351E+06     91.6399E+06     223.931E+03    -295.354E-03     590.044E-03    -294.691E-03     109.254E-03    -296.610E-03     591.227E-03    -294.311E-03     96.9795E-03
             843     669.800E-06     149.390E-03    -114.209E+06    -230.579E+06    -113.071E+06     1.38267E+06    -295.357E-03     590.520E-03    -295.163E-03     7.61142E-03    -295.432E-03     589.699E-03    -295.229E-03     7.29423E-03
             844     1.33985E-03     149.407E-03    -111.663E+06    -220.691E+06    -107.057E+06     2.49850E+06    -295.240E-03     590.487E-03    -295.247E-03     13.6976E-03    -295.330E-03     589.708E-03    -295.300E-03     13.1543E-03
             845     2.00960E-03     149.438E-03    -108.389E+06    -208.007E+06    -97.5027E+06     4.02488E+06    -295.287E-03     590.533E-03    -295.247E-03     19.9546E-03    -295.401E-03     589.807E-03    -295.275E-03     19.1383E-03
             846     2.67985E-03     149.479E-03    -104.424E+06    -190.801E+06    -85.2086E+06     5.11160E+06    -295.375E-03     590.636E-03    -295.261E-03     26.5042E-03    -295.527E-03     589.986E-03    -295.259E-03     25.3166E-03
             847     3.34979E-03     149.533E-03    -99.4174E+06    -170.687E+06    -71.5192E+06     6.24617E+06    -295.488E-03     590.767E-03    -295.279E-03     33.4206E-03    -295.683E-03     590.210E-03    -295.245E-03     31.8138E-03
             848     4.01978E-03     149.600E-03    -93.4229E+06    -145.955E+06    -56.2751E+06     7.84981E+06    -295.566E-03     590.857E-03    -295.292E-03     40.5120E-03    -295.815E-03     590.420E-03    -295.226E-03     38.4064E-03
             849     4.68943E-03     149.677E-03    -87.6422E+06    -117.271E+06    -40.2431E+06     9.79483E+06    -295.644E-03     590.937E-03    -295.292E-03     47.8853E-03    -295.966E-03     590.648E-03    -295.196E-03     45.1694E-03
             850     5.35973E-03     149.769E-03    -81.5187E+06    -85.1377E+06    -23.9488E+06     12.2094E+06    -295.661E-03     590.935E-03    -295.274E-03     55.3183E-03    -296.070E-03     590.822E-03    -295.152E-03     51.8886E-03
             851     6.03035E-03     149.871E-03    -73.9113E+06    -49.0686E+06    -7.10145E+06     13.9147E+06    -295.846E-03     591.091E-03    -295.244E-03     62.7244E-03    -296.355E-03     591.183E-03    -295.101E-03     58.4448E-03
             852     6.70051E-03     149.989E-03    -66.2417E+06    -13.7917E+06     9.76082E+06     14.3153E+06    -296.144E-03     591.365E-03    -295.222E-03     70.4303E-03    -296.766E-03     591.676E-03    -295.057E-03     65.1746E-03
             853     7.37058E-03     150.116E-03    -59.0071E+06     6.74993E+06     25.4229E+06     13.8866E+06    -296.238E-03     591.451E-03    -295.212E-03     78.2527E-03    -296.973E-03     591.926E-03    -295.009E-03     71.8813E-03
             854     8.04122E-03     150.257E-03    -51.8600E+06     15.4129E+06     41.5073E+06     12.1819E+06    -296.212E-03     591.416E-03    -295.203E-03     86.0674E-03    -297.062E-03     592.016E-03    -294.943E-03     78.4392E-03
             855     8.71230E-03     150.408E-03    -44.4390E+06     24.5304E+06     58.4866E+06     9.40385E+06    -296.313E-03     591.495E-03    -295.182E-03     93.8001E-03    -297.299E-03     592.240E-03    -294.861E-03     84.8215E-03
             856     9.38288E-03     150.572E-03    -36.4700E+06     30.9053E+06     72.5486E+06     6.73520E+06    -296.445E-03     591.587E-03    -295.142E-03     100.990E-03    -297.566E-03     592.478E-03    -294.771E-03     90.6467E-03
             857     10.0543E-03     150.742E-03    -28.7723E+06     35.2820E+06     81.5748E+06     5.18774E+06    -296.407E-03     591.480E-03    -295.072E-03     107.320E-03    -297.661E-03     592.520E-03    -294.674E-03     95.6670E-03
             858     10.7257E-03     150.924E-03    -21.4170E+06     39.2988E+06     85.2918E+06     4.90142E+06    -296.153E-03     591.114E-03    -294.961E-03     112.480E-03    -297.518E-03     592.296E-03    -294.561E-03     99.7256E-03
             859     11.3974E-03     151.107E-03    -14.7401E+06     48.2618E+06     87.6688E+06     4.39201E+06    -295.525E-03     590.338E-03    -294.813E-03     114.809E-03    -296.934E-03     591.611E-03    -294.423E-03     101.569E-03
             860     12.0698E-03     151.292E-03    -9.50588E+06     59.6381E+06     91.4440E+06     2.80091E+06    -295.293E-03     589.942E-03    -294.649E-03     119.629E-03    -296.818E-03     591.380E-03    -294.265E-03     105.610E-03
             861     12.7419E-03     151.484E-03    -3.89720E+06     61.7916E+06     93.6606E+06     854.356E+03    -294.476E-03     588.958E-03    -294.481E-03     111.256E-03    -295.742E-03     590.157E-03    -294.097E-03     99.0610E-03
             862     670.174E-06     151.099E-03    -113.247E+06    -235.319E+06    -112.755E+06     570.861E+03    -295.708E-03     590.829E-03    -295.122E-03     6.77779E-03    -295.771E-03     589.983E-03    -295.180E-03     6.46277E-03
             863     1.33977E-03     151.118E-03    -112.174E+06    -227.605E+06    -107.518E+06     2.28303E+06    -295.517E-03     590.947E-03    -295.429E-03     12.9844E-03    -295.599E-03     590.134E-03    -295.474E-03     12.4616E-03
             864     2.00943E-03     151.148E-03    -109.192E+06    -214.920E+06    -98.5217E+06     3.71852E+06    -295.532E-03     590.991E-03    -295.459E-03     19.5492E-03    -295.639E-03     590.233E-03    -295.482E-03     18.7145E-03
             865     2.67894E-03     151.190E-03    -105.031E+06    -197.390E+06    -87.1247E+06     5.19601E+06    -295.570E-03     591.042E-03    -295.472E-03     26.3173E-03    -295.712E-03     590.363E-03    -295.469E-03     25.1252E-03
             866     3.34866E-03     151.244E-03    -100.203E+06    -177.587E+06    -72.6181E+06     6.82623E+06    -295.572E-03     591.053E-03    -295.481E-03     33.1341E-03    -295.758E-03     590.464E-03    -295.442E-03     31.5355E-03
             867     4.01879E-03     151.309E-03    -94.8388E+06    -153.728E+06    -57.2664E+06     8.42083E+06    -295.583E-03     591.056E-03    -295.473E-03     40.1918E-03    -295.826E-03     590.583E-03    -295.399E-03     38.0986E-03
             868     4.68912E-03     151.389E-03    -88.6859E+06    -126.327E+06    -41.2535E+06     10.3554E+06    -295.632E-03     591.083E-03    -295.451E-03     47.4614E-03    -295.943E-03     590.750E-03    -295.346E-03     44.7647E-03
             869     5.35934E-03     151.478E-03    -81.1692E+06    -93.7501E+06    -23.8793E+06     12.0652E+06    -295.798E-03     591.223E-03    -295.425E-03     54.8296E-03    -296.191E-03     591.065E-03    -295.291E-03     51.4179E-03
             870     6.02915E-03     151.583E-03    -73.2175E+06    -54.5498E+06    -6.87457E+06     12.7861E+06    -295.979E-03     591.370E-03    -295.391E-03     62.4150E-03    -296.474E-03     591.432E-03    -295.240E-03     58.1570E-03
             871     6.69936E-03     151.697E-03    -65.2677E+06    -20.0502E+06     9.37900E+06     13.9818E+06    -295.936E-03     591.286E-03    -295.349E-03     70.2468E-03    -296.543E-03     591.562E-03    -295.179E-03     65.0176E-03
             872     7.37014E-03     151.827E-03    -57.4595E+06     4.64887E+06     26.0734E+06     15.0300E+06    -295.806E-03     591.104E-03    -295.298E-03     78.2610E-03    -296.531E-03     591.565E-03    -295.091E-03     71.9187E-03
             873     8.04097E-03     151.965E-03    -49.7468E+06     20.8602E+06     43.0514E+06     13.2138E+06    -295.863E-03     591.104E-03    -295.241E-03     86.2864E-03    -296.713E-03     591.726E-03    -294.984E-03     78.6920E-03
             874     8.71182E-03     152.117E-03    -42.2267E+06     28.4459E+06     59.4213E+06     10.7888E+06    -295.928E-03     591.113E-03    -295.185E-03     94.0301E-03    -296.908E-03     591.872E-03    -294.868E-03     85.1118E-03
             875     9.38362E-03     152.278E-03    -35.3746E+06     35.4473E+06     74.3637E+06     9.01203E+06    -295.840E-03     590.953E-03    -295.113E-03     101.271E-03    -296.965E-03     591.862E-03    -294.741E-03     90.9947E-03
             876     10.0549E-03     152.451E-03    -28.7322E+06     39.3847E+06     84.3364E+06     6.56006E+06    -295.653E-03     590.657E-03    -295.004E-03     107.976E-03    -296.921E-03     591.719E-03    -294.598E-03     96.3645E-03
             877     10.7267E-03     152.628E-03    -22.6609E+06     40.6772E+06     87.2857E+06     4.33135E+06    -295.227E-03     590.070E-03    -294.844E-03     113.546E-03    -296.613E-03     591.268E-03    -294.434E-03     100.789E-03
             878     11.3995E-03     152.813E-03    -16.0721E+06     49.4934E+06     88.8342E+06     3.51707E+06    -294.444E-03     589.080E-03    -294.636E-03     115.662E-03    -295.871E-03     590.368E-03    -294.241E-03     102.424E-03
             879     12.0734E-03     152.992E-03    -8.96567E+06     62.7032E+06     93.6232E+06     3.32109E+06    -293.916E-03     588.328E-03    -294.412E-03     120.157E-03    -295.455E-03     589.786E-03    -294.022E-03     106.146E-03
             880     12.7480E-03     153.189E-03    -4.17141E+06     65.8370E+06     95.6043E+06     2.14859E+06    -293.704E-03     587.902E-03    -294.198E-03     111.232E-03    -294.983E-03     589.122E-03    -293.809E-03     99.0697E-03
             881     669.052E-06     152.811E-03    -114.967E+06    -240.584E+06    -113.953E+06     1.61101E+06    -295.912E-03     591.814E-03    -295.902E-03     6.73300E-03    -295.975E-03     590.946E-03    -295.957E-03     6.41038E-03
             882     1.33863E-03     152.829E-03    -113.721E+06    -234.069E+06    -108.093E+06     2.41991E+06    -295.665E-03     591.525E-03    -295.860E-03     12.7574E-03    -295.745E-03     590.684E-03    -295.896E-03     12.2034E-03
             883     2.00859E-03     152.859E-03    -110.526E+06    -221.660E+06    -99.1733E+06     3.71556E+06    -295.571E-03     591.347E-03    -295.776E-03     19.4345E-03    -295.674E-03     590.558E-03    -295.790E-03     18.6114E-03
             884     2.67845E-03     152.901E-03    -106.326E+06    -204.452E+06    -87.4850E+06     5.05681E+06    -295.636E-03     591.359E-03    -295.723E-03     26.2696E-03    -295.773E-03     590.646E-03    -295.710E-03     25.0985E-03
             885     3.34844E-03     152.954E-03    -101.152E+06    -184.623E+06    -73.5446E+06     6.40298E+06    -295.722E-03     591.422E-03    -295.700E-03     33.1146E-03    -295.902E-03     590.801E-03    -295.653E-03     31.5071E-03
             886     4.01804E-03     153.021E-03    -95.1590E+06    -161.799E+06    -57.8170E+06     8.25728E+06    -295.763E-03     591.448E-03    -295.685E-03     39.9757E-03    -295.995E-03     590.936E-03    -295.602E-03     37.8816E-03
             887     4.68796E-03     153.098E-03    -87.8368E+06    -133.952E+06    -40.8617E+06     9.70024E+06    -295.806E-03     591.468E-03    -295.662E-03     47.0326E-03    -296.101E-03     591.094E-03    -295.545E-03     44.3478E-03
             888     5.35790E-03     153.189E-03    -80.1471E+06    -100.842E+06    -24.0139E+06     10.7944E+06    -295.836E-03     591.458E-03    -295.622E-03     54.4794E-03    -296.212E-03     591.261E-03    -295.479E-03     51.0739E-03
             889     6.02828E-03     153.292E-03    -72.7989E+06    -61.6611E+06    -6.52523E+06     12.7815E+06    -295.710E-03     591.268E-03    -295.558E-03     62.2443E-03    -296.193E-03     591.292E-03    -295.395E-03     58.0120E-03
             890     6.69882E-03     153.408E-03    -66.2649E+06    -28.0954E+06     10.3811E+06     14.6927E+06    -295.517E-03     590.990E-03    -295.473E-03     70.0532E-03    -296.117E-03     591.225E-03    -295.284E-03     64.8476E-03
             891     7.36970E-03     153.533E-03    -59.5517E+06     2.75382E+06     25.7010E+06     14.5633E+06    -295.382E-03     590.742E-03    -295.360E-03     77.9271E-03    -296.109E-03     591.193E-03    -295.149E-03     71.6284E-03
             892     8.04106E-03     153.674E-03    -51.8468E+06     24.1748E+06     41.1153E+06     13.2831E+06    -295.343E-03     590.588E-03    -295.246E-03     85.9605E-03    -296.199E-03     591.227E-03    -295.000E-03     78.4483E-03
             893     8.71253E-03     153.824E-03    -44.3655E+06     30.8079E+06     57.6749E+06     11.7943E+06    -295.250E-03     590.397E-03    -295.147E-03     93.8423E-03    -296.238E-03     591.170E-03    -294.839E-03     84.9887E-03
             894     9.38378E-03     153.985E-03    -37.1482E+06     38.8332E+06     74.2848E+06     10.1046E+06    -294.917E-03     589.944E-03    -295.027E-03     101.373E-03    -296.056E-03     590.873E-03    -294.658E-03     91.1444E-03
             895     10.0565E-03     154.155E-03    -29.8494E+06     43.7957E+06     86.3834E+06     8.73012E+06    -294.470E-03     589.333E-03    -294.863E-03     108.153E-03    -295.752E-03     590.413E-03    -294.451E-03     96.6327E-03
             896     10.7298E-03     154.333E-03    -22.7754E+06     46.7746E+06     91.6138E+06     6.53690E+06    -294.053E-03     588.699E-03    -294.645E-03     113.562E-03    -295.454E-03     589.919E-03    -294.222E-03     100.888E-03
             897     11.4031E-03     154.514E-03    -16.9642E+06     52.8876E+06     91.9325E+06     3.89004E+06    -293.730E-03     588.125E-03    -294.394E-03     115.654E-03    -295.174E-03     589.429E-03    -293.987E-03     102.411E-03
             898     12.0759E-03     154.694E-03    -11.9005E+06     62.7193E+06     93.9200E+06     2.31202E+06    -293.825E-03     587.983E-03    -294.158E-03     119.678E-03    -295.385E-03     589.451E-03    -293.762E-03     105.553E-03
             899     12.7496E-03     154.886E-03    -6.25027E+06     68.3372E+06     96.4294E+06     1.70322E+06    -292.851E-03     586.787E-03    -293.936E-03     110.542E-03    -294.145E-03     588.022E-03    -293.544E-03     98.3295E-03
             900     669.303E-06     154.524E-03    -118.668E+06    -248.095E+06    -116.753E+06     1.35465E+06    -296.117E-03     592.181E-03    -296.064E-03     7.43572E-03    -296.184E-03     591.285E-03    -296.116E-03     7.11133E-03
             901     1.33866E-03     154.541E-03    -115.851E+06    -239.571E+06    -110.400E+06     2.61737E+06    -296.055E-03     592.137E-03    -296.082E-03     13.1757E-03    -296.134E-03     591.275E-03    -296.119E-03     12.5859E-03
             902     2.00803E-03     154.570E-03    -112.734E+06    -227.862E+06    -100.694E+06     3.63882E+06    -295.939E-03     591.998E-03    -296.059E-03     19.4032E-03    -296.043E-03     591.184E-03    -296.068E-03     18.5515E-03
             903     2.67782E-03     154.612E-03    -108.053E+06    -210.958E+06    -88.0910E+06     4.92055E+06    -295.836E-03     591.852E-03    -296.016E-03     25.8280E-03    -295.972E-03     591.111E-03    -295.994E-03     24.6696E-03
             904     3.34727E-03     154.666E-03    -102.587E+06    -191.446E+06    -73.5736E+06     6.32357E+06    -295.868E-03     591.844E-03    -295.976E-03     32.4974E-03    -296.044E-03     591.190E-03    -295.918E-03     30.9314E-03
             905     4.01725E-03     154.731E-03    -96.2486E+06    -168.714E+06    -57.8163E+06     7.32304E+06    -295.918E-03     591.862E-03    -295.944E-03     39.4310E-03    -296.144E-03     591.315E-03    -295.849E-03     37.3503E-03
             906     4.68689E-03     154.809E-03    -89.2962E+06    -140.575E+06    -41.9469E+06     8.45033E+06    -295.859E-03     591.756E-03    -295.897E-03     46.7731E-03    -296.149E-03     591.352E-03    -295.774E-03     44.0804E-03
             907     5.35695E-03     154.899E-03    -82.6878E+06    -109.292E+06    -25.6482E+06     10.5016E+06    -295.631E-03     591.453E-03    -295.822E-03     54.3292E-03    -296.005E-03     591.219E-03    -295.671E-03     50.9370E-03
             908     6.02731E-03     155.002E-03    -76.5430E+06    -73.1201E+06    -8.40803E+06     13.5851E+06    -295.306E-03     591.015E-03    -295.709E-03     61.9233E-03    -295.786E-03     590.988E-03    -295.534E-03     57.7233E-03
             909     6.69828E-03     155.116E-03    -69.4435E+06    -34.2514E+06     8.28892E+06     15.6165E+06    -295.110E-03     590.671E-03    -295.561E-03     69.7090E-03    -295.710E-03     590.879E-03    -295.369E-03     64.5758E-03
             910     7.36932E-03     155.242E-03    -61.3115E+06     3.04300E+06     24.8418E+06     15.3781E+06    -295.013E-03     590.414E-03    -295.401E-03     77.6500E-03    -295.744E-03     590.867E-03    -295.193E-03     71.4249E-03
             911     8.04051E-03     155.380E-03    -54.0645E+06     24.4630E+06     40.6908E+06     14.1454E+06    -294.675E-03     589.921E-03    -295.245E-03     85.6769E-03    -295.539E-03     590.561E-03    -294.999E-03     78.2269E-03
             912     8.71253E-03     155.530E-03    -46.7979E+06     33.4735E+06     57.0600E+06     12.4141E+06    -294.170E-03     589.247E-03    -295.078E-03     93.7188E-03    -295.168E-03     590.033E-03    -294.773E-03     84.9558E-03
             913     9.38561E-03     155.690E-03    -39.0690E+06     41.3546E+06     73.8738E+06     10.7147E+06    -293.795E-03     588.680E-03    -294.885E-03     101.422E-03    -294.943E-03     589.621E-03    -294.519E-03     91.2870E-03
             914     10.0585E-03     155.858E-03    -31.4690E+06     46.9413E+06     87.1624E+06     8.66815E+06    -293.462E-03     588.126E-03    -294.664E-03     108.091E-03    -294.755E-03     589.221E-03    -294.250E-03     96.6092E-03
             915     10.7319E-03     156.034E-03    -23.5202E+06     50.6050E+06     93.8200E+06     7.02636E+06    -293.122E-03     587.527E-03    -294.405E-03     113.340E-03    -294.534E-03     588.763E-03    -293.975E-03     100.699E-03
             916     11.4058E-03     156.215E-03    -16.7366E+06     56.9068E+06     95.1090E+06     5.75889E+06    -293.104E-03     587.231E-03    -294.127E-03     115.749E-03    -294.557E-03     588.550E-03    -293.709E-03     102.556E-03
             917     12.0803E-03     156.396E-03    -11.3200E+06     67.6187E+06     97.8554E+06     3.82037E+06    -293.011E-03     586.877E-03    -293.865E-03     120.821E-03    -294.588E-03     588.369E-03    -293.458E-03     106.777E-03
             918     12.7523E-03     156.590E-03    -6.21535E+06     71.9177E+06     99.0655E+06     1.36873E+06    -291.591E-03     585.186E-03    -293.595E-03     112.873E-03    -292.920E-03     586.461E-03    -293.195E-03     100.571E-03
             919     669.544E-06     156.237E-03    -120.285E+06    -253.775E+06    -119.132E+06     1.04982E+06    -296.326E-03     592.488E-03    -296.162E-03     6.64896E-03    -296.389E-03     591.569E-03    -296.215E-03     6.39824E-03
             920     1.33866E-03     156.255E-03    -118.192E+06    -246.108E+06    -112.794E+06     2.20603E+06    -296.435E-03     592.718E-03    -296.284E-03     12.6432E-03    -296.513E-03     591.830E-03    -296.319E-03     12.0925E-03
             921     2.00756E-03     156.284E-03    -114.430E+06    -233.462E+06    -102.465E+06     3.62801E+06    -296.467E-03     592.815E-03    -296.348E-03     18.9701E-03    -296.567E-03     591.977E-03    -296.356E-03     18.1235E-03
             922     2.67650E-03     156.324E-03    -110.162E+06    -216.882E+06    -89.9285E+06     4.56020E+06    -296.270E-03     592.630E-03    -296.359E-03     25.4811E-03    -296.404E-03     591.864E-03    -296.335E-03     24.3076E-03
             923     3.34628E-03     156.378E-03    -104.497E+06    -197.751E+06    -75.0514E+06     5.57931E+06    -296.047E-03     592.366E-03    -296.319E-03     32.1709E-03    -296.220E-03     591.684E-03    -296.256E-03     30.6067E-03
             924     4.01566E-03     156.443E-03    -98.2011E+06    -175.367E+06    -59.0386E+06     7.12977E+06    -295.849E-03     592.094E-03    -296.244E-03     39.0839E-03    -296.073E-03     591.518E-03    -296.143E-03     37.0109E-03
             925     4.68573E-03     156.521E-03    -92.1956E+06    -148.076E+06    -43.0446E+06     9.06629E+06    -295.587E-03     591.724E-03    -296.136E-03     46.3849E-03    -295.879E-03     591.287E-03    -296.003E-03     43.7275E-03
             926     5.35605E-03     156.610E-03    -85.5272E+06    -118.296E+06    -26.5123E+06     10.9165E+06    -295.297E-03     591.296E-03    -295.999E-03     53.9141E-03    -295.668E-03     591.020E-03    -295.836E-03     50.5711E-03
             927     6.02673E-03     156.711E-03    -77.1760E+06    -84.2420E+06    -9.79281E+06     12.9179E+06    -295.016E-03     590.847E-03    -295.831E-03     61.5425E-03    -295.478E-03     590.765E-03    -295.646E-03     57.3814E-03
             928     6.69774E-03     156.824E-03    -68.4156E+06    -41.2848E+06     7.30000E+06     15.1338E+06    -294.704E-03     590.335E-03    -295.631E-03     69.3883E-03    -295.283E-03     590.504E-03    -295.435E-03     64.3213E-03
             929     7.36921E-03     156.951E-03    -60.7077E+06     72.0355E+03     24.5889E+06     16.4704E+06    -294.272E-03     589.684E-03    -295.412E-03     77.4785E-03    -294.992E-03     590.118E-03    -295.201E-03     71.3313E-03
             930     8.04124E-03     157.086E-03    -53.5978E+06     24.8093E+06     40.7050E+06     16.2309E+06    -293.766E-03     588.948E-03    -295.183E-03     85.6328E-03    -294.625E-03     589.587E-03    -294.937E-03     78.2629E-03
             931     8.71395E-03     157.234E-03    -46.8163E+06     37.1862E+06     57.3453E+06     14.4227E+06    -293.274E-03     588.222E-03    -294.947E-03     93.6001E-03    -294.274E-03     589.021E-03    -294.647E-03     84.9335E-03
             932     9.38720E-03     157.391E-03    -39.1613E+06     44.6494E+06     74.5584E+06     11.7797E+06    -292.808E-03     587.509E-03    -294.701E-03     100.963E-03    -293.952E-03     588.456E-03    -294.336E-03     90.9547E-03
             933     10.0611E-03     157.560E-03    -31.1593E+06     50.5333E+06     89.0537E+06     9.75089E+06    -292.372E-03     586.801E-03    -294.429E-03     107.740E-03    -293.663E-03     587.903E-03    -294.012E-03     96.3821E-03
             934     10.7353E-03     157.733E-03    -24.7519E+06     53.9653E+06     96.1164E+06     7.72162E+06    -292.250E-03     586.379E-03    -294.128E-03     113.637E-03    -293.671E-03     587.624E-03    -293.690E-03     101.109E-03
             935     11.4097E-03     157.915E-03    -17.8159E+06     60.4272E+06     96.9705E+06     5.56705E+06    -291.928E-03     585.729E-03    -293.801E-03     116.870E-03    -293.399E-03     587.070E-03    -293.378E-03     103.741E-03
             936     12.0831E-03     158.095E-03    -10.1849E+06     72.6441E+06     100.382E+06     3.51492E+06    -291.075E-03     584.542E-03    -293.467E-03     121.581E-03    -292.677E-03     586.075E-03    -293.056E-03     107.458E-03
             937     12.7631E-03     158.281E-03    -4.26571E+06     76.6003E+06     101.941E+06     2.17873E+06    -290.599E-03     583.740E-03    -293.141E-03     112.862E-03    -291.932E-03     585.034E-03    -292.736E-03     100.599E-03
             938     668.599E-06     157.951E-03    -123.175E+06    -259.117E+06    -121.227E+06     1.38928E+06    -296.607E-03     593.509E-03    -296.902E-03     6.64040E-03    -296.674E-03     592.570E-03    -296.954E-03     6.40740E-03
             939     1.33761E-03     157.968E-03    -120.996E+06    -251.219E+06    -115.055E+06     2.03164E+06    -296.655E-03     593.394E-03    -296.739E-03     12.4008E-03    -296.736E-03     592.487E-03    -296.774E-03     11.8735E-03
             940     2.00679E-03     157.998E-03    -117.478E+06    -239.384E+06    -105.630E+06     2.82623E+06    -296.607E-03     593.314E-03    -296.707E-03     18.7953E-03    -296.710E-03     592.456E-03    -296.717E-03     17.9655E-03
             941     2.67589E-03     158.039E-03    -112.501E+06    -222.998E+06    -92.6149E+06     4.40248E+06    -296.547E-03     593.225E-03    -296.678E-03     25.3717E-03    -296.679E-03     592.435E-03    -296.655E-03     24.2143E-03
             942     3.34480E-03     158.091E-03    -107.523E+06    -203.487E+06    -77.5446E+06     5.87915E+06    -296.202E-03     592.822E-03    -296.620E-03     32.0778E-03    -296.379E-03     592.119E-03    -296.557E-03     30.5204E-03
             943     4.01474E-03     158.156E-03    -101.605E+06    -181.792E+06    -61.3757E+06     6.79677E+06    -295.706E-03     592.206E-03    -296.501E-03     38.9836E-03    -295.933E-03     591.606E-03    -296.397E-03     36.9186E-03
             944     4.68481E-03     158.231E-03    -94.0446E+06    -155.967E+06    -44.4588E+06     8.10804E+06    -295.334E-03     591.667E-03    -296.333E-03     46.2386E-03    -295.620E-03     591.194E-03    -296.193E-03     43.6057E-03
             945     5.35528E-03     158.320E-03    -85.9376E+06    -126.080E+06    -27.7714E+06     9.85274E+06    -295.011E-03     591.148E-03    -296.137E-03     53.5617E-03    -295.369E-03     590.833E-03    -295.968E-03     50.2553E-03
             946     6.02625E-03     158.419E-03    -77.7813E+06    -92.7868E+06    -11.2186E+06     11.4953E+06    -294.628E-03     590.545E-03    -295.917E-03     61.1471E-03    -295.075E-03     590.419E-03    -295.726E-03     57.0410E-03
             947     6.69739E-03     158.533E-03    -70.2081E+06    -53.1015E+06     5.53046E+06     14.5163E+06    -294.036E-03     589.698E-03    -295.662E-03     69.0894E-03    -294.601E-03     589.809E-03    -295.455E-03     64.0856E-03
             948     7.36940E-03     158.655E-03    -63.4571E+06    -6.83756E+06     22.9142E+06     17.5563E+06    -293.268E-03     588.628E-03    -295.360E-03     77.2534E-03    -293.983E-03     589.028E-03    -295.144E-03     71.2295E-03
             949     8.04234E-03     158.791E-03    -55.9544E+06     26.1888E+06     39.4578E+06     17.1510E+06    -292.776E-03     587.818E-03    -295.043E-03     85.3843E-03    -293.638E-03     588.460E-03    -294.802E-03     78.1708E-03
             950     8.71561E-03     158.936E-03    -47.4979E+06     40.4161E+06     56.1471E+06     14.7834E+06    -292.466E-03     587.210E-03    -294.744E-03     93.3611E-03    -293.462E-03     588.019E-03    -294.453E-03     84.8296E-03
             951     9.38896E-03     159.094E-03    -39.6175E+06     48.0565E+06     73.9029E+06     12.7674E+06    -291.875E-03     586.326E-03    -294.452E-03     100.985E-03    -293.020E-03     587.287E-03    -294.094E-03     91.0771E-03
             952     10.0635E-03     159.257E-03    -32.2424E+06     53.7049E+06     89.7685E+06     10.7752E+06    -291.330E-03     585.468E-03    -294.138E-03     107.921E-03    -292.623E-03     586.577E-03    -293.720E-03     96.7223E-03
             953     10.7388E-03     159.433E-03    -24.0410E+06     58.4801E+06     99.3886E+06     8.88498E+06    -290.876E-03     584.662E-03    -293.786E-03     114.150E-03    -292.300E-03     585.921E-03    -293.339E-03     101.774E-03
             954     11.4137E-03     159.611E-03    -16.8663E+06     65.8098E+06     100.703E+06     6.62864E+06    -290.192E-03     583.578E-03    -293.386E-03     117.398E-03    -291.669E-03     584.937E-03    -292.954E-03     104.409E-03
             955     12.0924E-03     159.788E-03    -11.2293E+06     76.5265E+06     102.487E+06     4.28391E+06    -290.598E-03     583.607E-03    -293.009E-03     121.868E-03    -292.210E-03     585.154E-03    -292.591E-03     107.829E-03
             956     12.7638E-03     159.977E-03    -5.13842E+06     80.8858E+06     104.082E+06     2.34903E+06    -290.795E-03     583.494E-03    -292.699E-03     112.569E-03    -292.150E-03     584.816E-03    -292.289E-03     100.184E-03
             957     668.659E-06     159.667E-03    -125.928E+06    -265.072E+06    -124.507E+06     1.11311E+06    -297.089E-03     594.267E-03    -297.178E-03     6.99393E-03    -297.156E-03     593.307E-03    -297.233E-03     6.68809E-03
             958     1.33719E-03     159.684E-03    -123.535E+06    -256.439E+06    -118.032E+06     2.48790E+06    -296.987E-03     594.091E-03    -297.105E-03     12.6442E-03    -297.068E-03     593.166E-03    -297.144E-03     12.1408E-03
             959     2.00600E-03     159.713E-03    -120.641E+06    -244.486E+06    -107.792E+06     3.54192E+06    -296.749E-03     593.786E-03    -297.037E-03     18.6929E-03    -296.856E-03     592.910E-03    -297.047E-03     17.9112E-03
             960     2.67513E-03     159.754E-03    -116.513E+06    -228.813E+06    -94.8427E+06     4.26941E+06    -296.452E-03     593.390E-03    -296.938E-03     25.2462E-03    -296.593E-03     592.579E-03    -296.911E-03     24.1268E-03
             961     3.34446E-03     159.806E-03    -110.063E+06    -208.848E+06    -79.5579E+06     4.97065E+06    -296.123E-03     592.931E-03    -296.808E-03     31.9718E-03    -296.301E-03     592.208E-03    -296.744E-03     30.4201E-03
             962     4.01400E-03     159.867E-03    -102.858E+06    -186.961E+06    -63.2074E+06     6.04909E+06    -295.689E-03     592.337E-03    -296.648E-03     38.8260E-03    -295.912E-03     591.714E-03    -296.544E-03     36.7943E-03
             963     4.68427E-03     159.943E-03    -96.0495E+06    -162.345E+06    -46.6512E+06     7.24215E+06    -295.179E-03     591.628E-03    -296.449E-03     45.9294E-03    -295.460E-03     591.127E-03    -296.307E-03     43.3482E-03
             964     5.35492E-03     160.029E-03    -88.7546E+06    -133.744E+06    -30.0891E+06     8.75338E+06    -294.595E-03     590.801E-03    -296.206E-03     53.3257E-03    -294.949E-03     590.452E-03    -296.034E-03     50.0905E-03
             965     6.02577E-03     160.129E-03    -81.6007E+06    -101.852E+06    -13.5713E+06     11.1093E+06    -293.874E-03     589.792E-03    -295.918E-03     61.1732E-03    -294.319E-03     589.625E-03    -295.720E-03     57.1765E-03
             966     6.69790E-03     160.238E-03    -74.0776E+06    -64.9672E+06     3.34963E+06     13.4995E+06    -293.134E-03     588.718E-03    -295.584E-03     69.2857E-03    -293.693E-03     588.773E-03    -295.365E-03     64.3946E-03
             967     7.37068E-03     160.360E-03    -65.1515E+06    -16.9429E+06     21.3775E+06     15.9814E+06    -292.514E-03     587.724E-03    -295.210E-03     77.2872E-03    -293.213E-03     588.069E-03    -294.984E-03     71.3960E-03
             968     8.04404E-03     160.492E-03    -56.8037E+06     25.9738E+06     38.7691E+06     17.2759E+06    -291.886E-03     586.710E-03    -294.824E-03     85.3812E-03    -292.739E-03     587.341E-03    -294.586E-03     78.3676E-03
             969     8.71765E-03     160.639E-03    -49.6490E+06     43.9891E+06     55.0101E+06     15.8502E+06    -291.201E-03     585.653E-03    -294.452E-03     93.5659E-03    -292.200E-03     586.473E-03    -294.169E-03     85.2602E-03
             970     9.39276E-03     160.790E-03    -42.3518E+06     50.7752E+06     72.1091E+06     13.6162E+06    -290.815E-03     584.908E-03    -294.092E-03     101.481E-03    -291.962E-03     585.876E-03    -293.744E-03     91.8106E-03
             971     10.0678E-03     160.956E-03    -34.5219E+06     58.7649E+06     89.1826E+06     11.2105E+06    -290.442E-03     584.178E-03    -293.736E-03     108.601E-03    -291.749E-03     585.312E-03    -293.325E-03     97.5432E-03
             972     10.7430E-03     161.126E-03    -26.5897E+06     62.3737E+06     100.072E+06     8.12448E+06    -289.824E-03     583.179E-03    -293.355E-03     114.367E-03    -291.266E-03     584.458E-03    -292.907E-03     102.033E-03
             973     11.4213E-03     161.303E-03    -18.8300E+06     68.2899E+06     102.021E+06     6.18551E+06    -289.785E-03     582.730E-03    -292.945E-03     116.462E-03    -291.275E-03     584.099E-03    -292.507E-03     103.432E-03
             974     12.0952E-03     161.481E-03    -11.7750E+06     81.5126E+06     105.584E+06     5.28803E+06    -290.427E-03     583.012E-03    -292.585E-03     120.961E-03    -292.046E-03     584.573E-03    -292.158E-03     106.927E-03
             975     12.7738E-03     161.676E-03    -5.53637E+06     87.2255E+06     107.758E+06     2.71118E+06    -290.389E-03     582.677E-03    -292.288E-03     112.481E-03    -291.769E-03     584.034E-03    -291.867E-03     99.9660E-03
             976     668.431E-06     161.383E-03    -128.722E+06    -270.364E+06    -128.542E+06     1.05530E+06    -297.450E-03     594.561E-03    -297.111E-03     6.73797E-03    -297.517E-03     593.584E-03    -297.175E-03     6.44947E-03
             977     1.33708E-03     161.401E-03    -127.876E+06    -263.097E+06    -121.973E+06     2.32117E+06    -297.164E-03     594.422E-03    -297.259E-03     12.7073E-03    -297.252E-03     593.476E-03    -297.302E-03     12.2088E-03
             978     2.00553E-03     161.429E-03    -123.625E+06    -249.721E+06    -110.640E+06     3.51222E+06    -296.897E-03     594.094E-03    -297.197E-03     18.7955E-03    -297.007E-03     593.199E-03    -297.208E-03     18.0256E-03
             979     2.67447E-03     161.468E-03    -118.178E+06    -232.301E+06    -96.5236E+06     4.06394E+06    -296.354E-03     593.422E-03    -297.068E-03     25.1667E-03    -296.495E-03     592.598E-03    -297.042E-03     24.0817E-03
             980     3.34425E-03     161.518E-03    -112.499E+06    -213.665E+06    -81.3633E+06     4.61619E+06    -295.829E-03     592.706E-03    -296.877E-03     31.7862E-03    -296.008E-03     591.963E-03    -296.811E-03     30.3044E-03
             981     4.01402E-03     161.581E-03    -106.002E+06    -192.510E+06    -64.8862E+06     5.61255E+06    -295.433E-03     592.095E-03    -296.661E-03     38.8510E-03    -295.659E-03     591.449E-03    -296.553E-03     36.9069E-03
             982     4.68400E-03     161.653E-03    -98.6726E+06    -167.960E+06    -48.0816E+06     6.84131E+06    -294.806E-03     591.222E-03    -296.415E-03     46.2182E-03    -295.088E-03     590.696E-03    -296.269E-03     43.7292E-03
             983     5.35482E-03     161.739E-03    -91.8054E+06    -140.876E+06    -31.5902E+06     8.26937E+06    -293.882E-03     589.993E-03    -296.110E-03     53.7715E-03    -294.235E-03     589.611E-03    -295.931E-03     50.6499E-03
             984     6.02716E-03     161.834E-03    -84.2323E+06    -110.408E+06    -14.7411E+06     9.72898E+06    -293.027E-03     588.774E-03    -295.747E-03     61.5607E-03    -293.466E-03     588.565E-03    -295.538E-03     57.6993E-03
             985     6.69973E-03     161.943E-03    -75.3355E+06    -73.3931E+06     2.32449E+06     11.2472E+06    -292.421E-03     587.768E-03    -295.347E-03     69.4812E-03    -292.963E-03     587.776E-03    -295.120E-03     64.7555E-03
             986     7.37283E-03     162.062E-03    -66.7171E+06    -28.8782E+06     18.8351E+06     13.9884E+06    -291.774E-03     586.698E-03    -294.924E-03     77.4445E-03    -292.450E-03     586.980E-03    -294.691E-03     71.7305E-03
             987     8.04622E-03     162.194E-03    -58.9119E+06     19.3520E+06     35.8162E+06     17.3694E+06    -290.881E-03     585.359E-03    -294.478E-03     85.5646E-03    -291.721E-03     585.955E-03    -294.242E-03     78.7404E-03
             988     8.72169E-03     162.334E-03    -51.2557E+06     47.7741E+06     53.2567E+06     17.2797E+06    -290.250E-03     584.296E-03    -294.046E-03     93.5012E-03    -291.246E-03     585.126E-03    -293.775E-03     85.4282E-03
             989     9.39700E-03     162.488E-03    -43.1256E+06     56.1106E+06     70.9603E+06     14.0179E+06    -289.894E-03     583.542E-03    -293.648E-03     100.976E-03    -291.032E-03     584.520E-03    -293.312E-03     91.5503E-03
             990     10.0726E-03     162.650E-03    -34.5444E+06     64.2341E+06     89.0800E+06     10.8116E+06    -289.564E-03     582.830E-03    -293.266E-03     107.749E-03    -290.861E-03     583.974E-03    -292.864E-03     96.8458E-03
             991     10.7498E-03     162.819E-03    -26.0942E+06     66.8270E+06     101.291E+06     8.72020E+06    -289.886E-03     582.786E-03    -292.900E-03     113.309E-03    -291.321E-03     584.072E-03    -292.453E-03     101.039E-03
             992     11.4235E-03     162.997E-03    -18.8417E+06     72.3405E+06     104.444E+06     6.58094E+06    -290.159E-03     582.701E-03    -292.542E-03     115.893E-03    -291.656E-03     584.085E-03    -292.097E-03     102.829E-03
             993     12.1005E-03     163.175E-03    -12.1324E+06     85.8050E+06     108.016E+06     4.63828E+06    -289.921E-03     582.126E-03    -292.205E-03     120.865E-03    -291.560E-03     583.714E-03    -291.772E-03     106.743E-03
             994     12.7749E-03     163.362E-03    -5.84489E+06     92.0030E+06     109.299E+06     2.97211E+06    -289.269E-03     581.151E-03    -291.882E-03     112.482E-03    -290.660E-03     582.530E-03    -291.460E-03     100.014E-03
             995     668.447E-06     163.101E-03    -133.655E+06    -276.155E+06    -131.728E+06     1.55120E+06    -297.269E-03     594.520E-03    -297.251E-03     6.67427E-03    -297.348E-03     593.526E-03    -297.315E-03     6.45622E-03
             996     1.33688E-03     163.117E-03    -130.872E+06    -267.454E+06    -124.293E+06     1.86350E+06    -296.945E-03     594.148E-03    -297.203E-03     12.8381E-03    -297.038E-03     593.187E-03    -297.247E-03     12.3875E-03
             997     2.00590E-03     163.145E-03    -126.426E+06    -254.117E+06    -113.987E+06     1.97638E+06    -296.579E-03     593.641E-03    -297.062E-03     19.1821E-03    -296.692E-03     592.734E-03    -297.080E-03     18.4517E-03
             998     2.67492E-03     163.183E-03    -121.000E+06    -237.817E+06    -99.9784E+06     3.46552E+06    -296.145E-03     593.041E-03    -296.895E-03     25.7425E-03    -296.287E-03     592.198E-03    -296.875E-03     24.7053E-03
             999     3.34417E-03     163.232E-03    -115.398E+06    -218.135E+06    -83.1697E+06     4.90697E+06    -295.512E-03     592.202E-03    -296.690E-03     32.5416E-03    -295.696E-03     591.442E-03    -296.622E-03     31.1512E-03
            1000     4.01465E-03     163.292E-03    -109.070E+06    -196.445E+06    -65.9500E+06     5.28620E+06    -294.746E-03     591.170E-03    -296.424E-03     39.6201E-03    -294.977E-03     590.508E-03    -296.310E-03     37.7958E-03
            1001     4.68562E-03     163.364E-03    -101.743E+06    -172.995E+06    -49.1287E+06     5.61177E+06    -293.969E-03     590.070E-03    -296.101E-03     46.9944E-03    -294.253E-03     589.522E-03    -295.948E-03     44.6434E-03
            1002     5.35738E-03     163.445E-03    -93.0231E+06    -146.386E+06    -32.0074E+06     6.39908E+06    -293.281E-03     589.023E-03    -295.742E-03     54.4638E-03    -293.627E-03     588.612E-03    -295.555E-03     51.4801E-03
            1003     6.02936E-03     163.540E-03    -84.1690E+06    -116.682E+06    -15.2028E+06     7.79777E+06    -292.634E-03     587.992E-03    -295.359E-03     61.8813E-03    -293.055E-03     587.745E-03    -295.143E-03     58.1785E-03
            1004     6.70227E-03     163.645E-03    -76.1183E+06    -81.9890E+06     746.849E+03     10.2022E+06    -291.774E-03     586.716E-03    -294.943E-03     69.5960E-03    -292.296E-03     586.675E-03    -294.710E-03     65.0653E-03
            1005     7.37575E-03     163.764E-03    -68.2125E+06    -39.7226E+06     17.5971E+06     12.8772E+06    -290.804E-03     585.291E-03    -294.487E-03     77.6648E-03    -291.459E-03     585.512E-03    -294.242E-03     72.1560E-03
            1006     8.05106E-03     163.891E-03    -59.2042E+06     9.17284E+06     35.2733E+06     15.2488E+06    -290.235E-03     584.243E-03    -294.008E-03     85.6276E-03    -291.048E-03     584.776E-03    -293.759E-03     78.9990E-03
            1007     8.72564E-03     164.032E-03    -49.7127E+06     47.5635E+06     52.3755E+06     16.7282E+06    -289.891E-03     583.443E-03    -293.553E-03     93.3364E-03    -290.862E-03     584.255E-03    -293.288E-03     85.4734E-03
            1008     9.40078E-03     164.182E-03    -42.0434E+06     63.2346E+06     69.8004E+06     15.0398E+06    -289.460E-03     582.609E-03    -293.150E-03     100.615E-03    -290.589E-03     583.611E-03    -292.831E-03     91.3328E-03
            1009     10.0777E-03     164.342E-03    -34.9057E+06     69.5590E+06     88.7727E+06     11.6338E+06    -289.507E-03     582.301E-03    -292.794E-03     107.200E-03    -290.794E-03     583.453E-03    -292.400E-03     96.4833E-03
            1010     10.7525E-03     164.513E-03    -27.5465E+06     70.5372E+06     101.921E+06      9.0374E+06    -289.748E-03     582.208E-03    -292.461E-03     113.252E-03    -291.180E-03     583.497E-03    -292.013E-03     101.167E-03
            1011     11.4296E-03     164.691E-03    -19.9487E+06     76.4814E+06     106.003E+06     7.11804E+06    -289.619E-03     581.729E-03    -292.109E-03     116.646E-03    -291.128E-03     583.131E-03    -291.661E-03     103.680E-03
            1012     12.1052E-03     164.864E-03    -12.9946E+06     90.8819E+06     110.610E+06     5.06333E+06    -289.649E-03     581.424E-03    -291.775E-03     121.947E-03    -291.327E-03     583.058E-03    -291.335E-03     107.703E-03
            1013     12.7832E-03     165.057E-03    -5.83942E+06     97.2592E+06     112.378E+06     2.63457E+06    -288.947E-03     580.406E-03    -291.459E-03     113.229E-03    -290.380E-03     581.838E-03    -291.030E-03     100.507E-03
            1014     668.588E-06     164.817E-03    -138.164E+06    -280.742E+06    -135.519E+06     657.367E+03    -296.680E-03     593.467E-03    -296.787E-03     7.40958E-03    -296.769E-03     592.462E-03    -296.858E-03     7.20738E-03
            1015     1.33757E-03     164.833E-03    -133.791E+06    -270.896E+06    -127.837E+06     1.35081E+06    -296.384E-03     593.050E-03    -296.666E-03     13.3004E-03    -296.481E-03     592.081E-03    -296.718E-03     12.9014E-03
            1016     2.00673E-03     164.859E-03    -130.561E+06    -257.681E+06    -116.654E+06     2.34285E+06    -295.825E-03     592.317E-03    -296.492E-03     19.8024E-03    -295.948E-03     591.400E-03    -296.513E-03     19.1613E-03
            1017     2.67659E-03     164.896E-03    -126.251E+06    -242.409E+06    -102.498E+06     2.56951E+06    -295.359E-03     591.635E-03    -296.276E-03     26.7161E-03    -295.515E-03     590.780E-03    -296.254E-03     25.7780E-03
            1018     3.34684E-03     164.944E-03    -118.632E+06    -222.045E+06    -85.8482E+06     2.82374E+06    -294.893E-03     590.936E-03    -296.044E-03     33.7426E-03    -295.081E-03     590.164E-03    -295.979E-03     32.4618E-03
            1019     4.01707E-03     165.002E-03    -110.698E+06    -199.704E+06    -68.2386E+06     3.66611E+06    -294.148E-03     589.925E-03    -295.777E-03     40.6496E-03    -294.377E-03     589.250E-03    -295.668E-03     38.9437E-03
            1020     4.68876E-03     165.071E-03    -102.980E+06    -175.860E+06    -50.2164E+06     4.34584E+06    -293.345E-03     588.805E-03    -295.460E-03     47.5423E-03    -293.626E-03     588.241E-03    -295.306E-03     45.3558E-03
            1021     5.36072E-03     165.152E-03    -94.8175E+06    -150.418E+06    -32.8216E+06     5.05009E+06    -292.719E-03     587.825E-03    -295.107E-03     54.8475E-03    -293.060E-03     587.391E-03    -294.915E-03     52.0705E-03
            1022     6.03312E-03     165.244E-03    -86.4778E+06    -122.232E+06    -16.3222E+06     6.10769E+06    -292.027E-03     586.755E-03    -294.728E-03     62.6665E-03    -292.444E-03     586.478E-03    -294.507E-03     59.1519E-03
            1023     6.70603E-03     165.347E-03    -77.8564E+06    -89.7028E+06    -100.830E+03     7.36924E+06    -291.176E-03     585.490E-03    -294.314E-03     70.4868E-03    -291.688E-03     585.407E-03    -294.071E-03     66.1098E-03
            1024     7.38096E-03     165.461E-03    -68.2298E+06    -49.5303E+06     17.1332E+06     9.65358E+06    -290.552E-03     584.426E-03    -293.874E-03     78.0294E-03    -291.181E-03     584.587E-03    -293.617E-03     72.7162E-03
            1025     8.05529E-03     165.588E-03    -59.3453E+06    -2.78912E+06     34.1443E+06     13.5392E+06    -290.074E-03     583.501E-03    -293.427E-03     85.4896E-03    -290.852E-03     583.959E-03    -293.166E-03     79.1044E-03
            1026     8.73057E-03     165.727E-03    -52.0979E+06     43.3793E+06     50.3040E+06     16.0960E+06    -289.521E-03     582.505E-03    -292.983E-03     93.0655E-03    -290.479E-03     583.285E-03    -292.719E-03     85.4267E-03
            1027     9.40712E-03     165.875E-03    -44.2886E+06     67.4523E+06     67.2322E+06     15.4129E+06    -289.442E-03     582.033E-03    -292.591E-03     100.512E-03    -290.563E-03     583.042E-03    -292.289E-03     91.5041E-03
            1028     10.0818E-03     166.036E-03    -36.2216E+06     73.7906E+06     86.4818E+06     13.4448E+06    -289.451E-03     581.718E-03    -292.267E-03     107.719E-03    -290.729E-03     582.879E-03    -291.889E-03     97.2772E-03
            1029     10.7586E-03     166.205E-03    -28.5161E+06     77.7828E+06     102.731E+06     10.1200E+06    -289.174E-03     581.127E-03    -291.952E-03     114.084E-03    -290.610E-03     582.440E-03    -291.510E-03     102.221E-03
            1030     11.4351E-03     166.379E-03    -21.2257E+06     81.9750E+06     108.631E+06     6.35921E+06    -289.259E-03     580.870E-03    -291.611E-03     117.264E-03    -290.779E-03     582.290E-03    -291.156E-03     104.420E-03
            1031     12.1120E-03     166.557E-03    -13.5274E+06     95.0398E+06     113.364E+06     4.26102E+06    -289.499E-03     580.790E-03    -291.291E-03     122.041E-03    -291.202E-03     582.454E-03    -290.843E-03     107.667E-03
            1032     12.7871E-03     166.742E-03    -6.31616E+06     102.493E+06     115.107E+06     2.26739E+06    -288.800E-03     579.795E-03    -290.995E-03     113.253E-03    -290.273E-03     581.275E-03    -290.559E-03     100.231E-03
            1033     669.740E-06     166.531E-03    -141.253E+06    -283.002E+06    -139.948E+06     501.752E+03    -295.666E-03     591.261E-03    -295.595E-03     7.34190E-03    -295.760E-03     590.256E-03    -295.680E-03     7.16182E-03
            1034     1.33912E-03     166.546E-03    -139.840E+06    -274.310E+06    -132.481E+06     893.418E+03    -295.174E-03     590.717E-03    -295.543E-03     13.6715E-03    -295.289E-03     589.746E-03    -295.605E-03     13.2942E-03
            1035     2.00915E-03     166.571E-03    -135.110E+06    -260.901E+06    -120.372E+06     1.35878E+06    -294.793E-03     590.159E-03    -295.366E-03     20.5614E-03    -294.928E-03     589.237E-03    -295.394E-03     19.9957E-03
            1036     2.67957E-03     166.606E-03    -128.612E+06    -243.044E+06    -104.695E+06     1.39908E+06    -294.382E-03     589.561E-03    -295.178E-03     27.4746E-03    -294.544E-03     588.707E-03    -295.163E-03     26.6697E-03
            1037     3.35030E-03     166.653E-03    -122.040E+06    -224.319E+06    -88.3297E+06     1.42700E+06    -293.870E-03     588.836E-03    -294.966E-03     34.3472E-03    -294.065E-03     588.058E-03    -294.905E-03     33.2142E-03
            1038     4.02183E-03     166.709E-03    -114.198E+06    -202.786E+06    -70.6815E+06     1.87211E+06    -293.385E-03     588.112E-03    -294.727E-03     41.4129E-03    -293.620E-03     587.426E-03    -294.621E-03     39.8842E-03
            1039     4.69296E-03     166.776E-03    -105.919E+06    -178.241E+06    -52.3863E+06     2.60180E+06    -292.826E-03     587.289E-03    -294.463E-03     48.7660E-03    -293.111E-03     586.717E-03    -294.313E-03     46.7580E-03
            1040     5.36520E-03     166.855E-03    -97.7563E+06    -153.278E+06    -34.4720E+06     3.06681E+06    -292.041E-03     586.199E-03    -294.158E-03     56.2693E-03    -292.385E-03     585.752E-03    -293.966E-03     53.6747E-03
            1041     6.03866E-03     166.945E-03    -89.1513E+06    -126.035E+06    -17.5097E+06     3.45220E+06    -291.314E-03     585.118E-03    -293.804E-03     63.7375E-03    -291.729E-03     584.821E-03    -293.580E-03     60.4352E-03
            1042     6.71320E-03     167.046E-03    -79.9777E+06    -95.3043E+06    -1.07383E+06     4.58421E+06    -291.009E-03     584.444E-03    -293.436E-03     71.0934E-03    -291.510E-03     584.327E-03    -293.187E-03     66.9684E-03
            1043     7.38642E-03     167.159E-03    -71.8319E+06    -59.9904E+06     14.2958E+06     7.41626E+06    -290.684E-03     583.754E-03    -293.070E-03     78.6491E-03    -291.298E-03     583.859E-03    -292.807E-03     73.5825E-03
            1044     8.06085E-03     167.285E-03    -63.9974E+06    -16.0269E+06     29.8538E+06     11.2314E+06    -290.066E-03     582.755E-03    -292.689E-03     86.3188E-03    -290.828E-03     583.146E-03    -292.423E-03     80.1699E-03
            1045     8.73660E-03     167.419E-03    -54.9242E+06     36.9343E+06     47.7663E+06     14.2773E+06    -289.722E-03     582.023E-03    -292.300E-03     93.7043E-03    -290.662E-03     582.761E-03    -292.036E-03     86.3326E-03
            1046     9.41152E-03     167.569E-03    -46.1646E+06     68.3669E+06     64.3069E+06     14.8061E+06    -289.455E-03     581.401E-03    -291.947E-03     100.965E-03    -290.563E-03     582.402E-03    -291.657E-03     92.2292E-03
            1047     10.0885E-03     167.727E-03    -37.5971E+06     77.8288E+06     83.1331E+06     12.5877E+06    -289.065E-03     580.707E-03    -291.642E-03     107.986E-03    -290.335E-03     581.879E-03    -291.285E-03     97.7425E-03
            1048     10.7652E-03     167.894E-03    -28.4169E+06     85.3054E+06     102.822E+06     10.0585E+06    -289.062E-03     580.420E-03    -291.358E-03     114.191E-03    -290.495E-03     581.756E-03    -290.926E-03     102.475E-03
            1049     11.4415E-03     168.070E-03    -20.3044E+06     89.2594E+06     112.278E+06     7.23327E+06    -289.281E-03     580.345E-03    -291.063E-03     117.726E-03    -290.801E-03     581.784E-03    -290.602E-03     105.029E-03
            1050     12.1174E-03     168.245E-03    -13.6504E+06     99.1144E+06     116.762E+06     3.68746E+06    -289.283E-03     580.055E-03    -290.772E-03     122.779E-03    -291.011E-03     581.747E-03    -290.312E-03     108.337E-03
            1051     12.7952E-03     168.434E-03    -6.57933E+06     106.612E+06     116.703E+06     1.43233E+06    -289.105E-03     579.600E-03    -290.496E-03     113.982E-03    -290.609E-03     581.122E-03    -290.057E-03     100.768E-03
            1052     670.007E-06     168.239E-03    -146.671E+06    -284.512E+06    -145.023E+06     195.576E+03    -293.943E-03     587.603E-03    -293.660E-03     8.10986E-03    -294.055E-03     586.605E-03    -293.760E-03     7.93422E-03
            1053     1.34139E-03     168.254E-03    -143.634E+06    -275.368E+06    -137.145E+06     131.942E+03    -293.647E-03     587.418E-03    -293.771E-03     14.4792E-03    -293.772E-03     586.453E-03    -293.849E-03     14.1647E-03
            1054     2.01259E-03     168.278E-03    -138.887E+06    -261.735E+06    -124.234E+06     100.637E+03    -293.522E-03     587.239E-03    -293.717E-03     21.2881E-03    -293.669E-03     586.323E-03    -293.757E-03     20.8269E-03
            1055     2.68353E-03     168.313E-03    -132.743E+06    -243.668E+06    -108.546E+06     354.741E+03    -293.136E-03     586.763E-03    -293.627E-03     28.3218E-03    -293.310E-03     585.916E-03    -293.624E-03     27.6457E-03
            1056     3.35511E-03     168.357E-03    -126.023E+06    -224.528E+06    -90.8330E+06     269.772E+03    -292.613E-03     586.090E-03    -293.478E-03     35.5274E-03    -292.822E-03     585.318E-03    -293.424E-03     34.5487E-03
            1057     4.02701E-03     168.413E-03    -118.361E+06    -203.762E+06    -72.4880E+06     76.2015E+03    -292.185E-03     585.468E-03    -293.283E-03     42.8978E-03    -292.433E-03     584.782E-03    -293.178E-03     41.5586E-03
            1058     4.70000E-03     168.479E-03    -109.815E+06    -179.332E+06    -54.3724E+06    -161.518E+03    -291.834E-03     584.894E-03    -293.061E-03     50.3288E-03    -292.128E-03     584.320E-03    -292.913E-03     48.5191E-03
            1059     5.37303E-03     168.555E-03    -100.497E+06    -154.953E+06    -36.6709E+06    -125.742E+03    -291.503E-03     584.329E-03    -292.826E-03     57.6653E-03    -291.849E-03     583.874E-03    -292.639E-03     55.2768E-03
            1060     6.04634E-03     168.643E-03    -91.1294E+06    -129.218E+06    -19.4602E+06     942.709E+03    -291.273E-03     583.856E-03    -292.583E-03     64.8966E-03    -291.682E-03     583.539E-03    -292.361E-03     61.8373E-03
            1061     6.71935E-03     168.743E-03    -82.9016E+06    -100.922E+06    -3.49928E+06     2.76756E+06    -290.966E-03     583.295E-03    -292.329E-03     72.2592E-03    -291.459E-03     583.146E-03    -292.080E-03     68.4052E-03
            1062     7.39399E-03     168.856E-03    -74.1689E+06    -68.2637E+06     12.0563E+06     4.53925E+06    -290.541E-03     582.593E-03    -292.052E-03     79.7301E-03    -291.138E-03     582.650E-03    -291.786E-03     74.9235E-03
            1063     8.06936E-03     168.977E-03    -63.7729E+06    -26.8075E+06     28.5931E+06     7.11037E+06    -290.341E-03     582.099E-03    -291.759E-03     87.2669E-03    -291.067E-03     582.422E-03    -291.484E-03     81.3861E-03
            1064     8.74376E-03     169.115E-03    -53.9147E+06     24.5855E+06     45.9139E+06     11.5486E+06    -290.089E-03     581.545E-03    -291.456E-03     94.8493E-03    -290.985E-03     582.204E-03    -291.184E-03     87.7595E-03
            1065     9.41956E-03     169.260E-03    -45.3227E+06     67.8367E+06     62.6567E+06     13.9366E+06    -289.672E-03     580.832E-03    -291.160E-03     102.041E-03    -290.759E-03     581.817E-03    -290.879E-03     93.5280E-03
            1066     10.0954E-03     169.416E-03    -37.3755E+06     83.9098E+06     81.0859E+06     12.0954E+06    -289.565E-03     580.479E-03    -290.914E-03     108.687E-03    -290.826E-03     581.670E-03    -290.576E-03     98.6154E-03
            1067     10.7713E-03     169.584E-03    -29.9989E+06     90.1259E+06     100.997E+06     8.98482E+06    -289.513E-03     580.220E-03    -290.707E-03     114.510E-03    -290.950E-03     581.577E-03    -290.289E-03     102.863E-03
            1068     11.4483E-03     169.758E-03    -21.2990E+06     95.2314E+06     113.282E+06     6.39596E+06    -289.262E-03     579.736E-03    -290.474E-03     117.798E-03    -290.794E-03     581.202E-03    -290.015E-03     105.102E-03
            1069     12.1254E-03     169.936E-03    -12.4639E+06     103.931E+06     120.352E+06     3.86542E+06    -289.551E-03     579.787E-03    -290.236E-03     122.376E-03    -291.287E-03     581.499E-03    -289.767E-03     107.848E-03
            1070     12.8016E-03     170.118E-03    -6.64541E+06     111.526E+06     120.250E+06     1.50729E+06    -290.220E-03     580.249E-03    -290.029E-03     113.354E-03    -291.741E-03     581.794E-03    -289.580E-03     99.9971E-03
            1071     673.305E-06     169.940E-03    -151.599E+06    -283.919E+06    -150.695E+06    -531.424E+03    -291.649E-03     582.704E-03    -291.055E-03     8.23453E-03    -291.779E-03     581.725E-03    -291.177E-03     8.09646E-03
            1072     1.34490E-03     169.955E-03    -148.593E+06    -274.477E+06    -141.435E+06    -609.380E+03    -291.604E-03     583.009E-03    -291.404E-03     15.3627E-03    -291.749E-03     582.061E-03    -291.498E-03     15.1663E-03
            1073     2.01645E-03     169.980E-03    -143.907E+06    -260.523E+06    -128.286E+06    -1.02974E+06    -291.590E-03     583.068E-03    -291.478E-03     22.9702E-03    -291.757E-03     582.171E-03    -291.533E-03     22.5991E-03
            1074     2.68904E-03     170.013E-03    -137.529E+06    -243.045E+06    -112.315E+06    -1.55704E+06    -291.381E-03     582.865E-03    -291.484E-03     30.3315E-03    -291.574E-03     582.031E-03    -291.493E-03     29.7541E-03
            1075     3.36189E-03     170.057E-03    -130.191E+06    -223.023E+06    -94.1533E+06    -1.93201E+06    -291.208E-03     582.646E-03    -291.438E-03     37.6730E-03    -291.432E-03     581.889E-03    -291.397E-03     36.8458E-03
            1076     4.03514E-03     170.111E-03    -122.148E+06    -201.976E+06    -75.2670E+06    -2.71924E+06    -291.082E-03     582.449E-03    -291.367E-03     44.8655E-03    -291.343E-03     581.777E-03    -291.273E-03     43.6927E-03
            1077     4.70820E-03     170.176E-03    -112.924E+06    -178.697E+06    -56.5855E+06    -3.09410E+06    -290.965E-03     582.239E-03    -291.274E-03     51.8742E-03    -291.267E-03     581.670E-03    -291.134E-03     50.2612E-03
            1078     5.38172E-03     170.252E-03    -103.912E+06    -155.363E+06    -38.6933E+06    -2.74793E+06    -291.035E-03     582.209E-03    -291.174E-03     59.1004E-03    -291.387E-03     581.752E-03    -290.991E-03     56.9422E-03
            1079     6.05510E-03     170.340E-03    -94.7989E+06    -131.634E+06    -21.8880E+06    -2.40972E+06    -291.064E-03     582.135E-03    -291.070E-03     66.6759E-03    -291.476E-03     581.806E-03    -290.852E-03     63.8363E-03
            1080     6.72927E-03     170.440E-03    -84.7611E+06    -104.672E+06    -5.77417E+06    -1.85323E+06    -290.928E-03     581.873E-03    -290.946E-03     74.1059E-03    -291.412E-03     581.702E-03    -290.700E-03     70.4629E-03
            1081     7.40370E-03     170.548E-03    -74.3306E+06    -73.5993E+06     10.2181E+06    -388.837E+03    -290.915E-03     581.717E-03    -290.802E-03     81.1332E-03    -291.490E-03     581.738E-03    -290.537E-03     76.5553E-03
            1082     8.07740E-03     170.673E-03    -65.1594E+06    -37.1993E+06     25.8649E+06     2.66542E+06    -290.768E-03     581.411E-03    -290.642E-03     88.2843E-03    -291.468E-03     581.672E-03    -290.365E-03     82.6300E-03
            1083     8.75282E-03     170.805E-03    -56.3002E+06     9.61428E+06     41.6419E+06     7.02461E+06    -290.433E-03     580.883E-03    -290.450E-03     95.4788E-03    -291.296E-03     581.460E-03    -290.174E-03     88.5977E-03
            1084     9.42847E-03     170.951E-03    -46.6113E+06     62.4605E+06     59.1797E+06     10.9138E+06    -290.293E-03     580.537E-03    -290.244E-03     102.250E-03    -291.351E-03     581.479E-03    -289.971E-03     93.9723E-03
            1085     10.1037E-03     171.107E-03    -38.2244E+06     88.7306E+06     77.1728E+06     11.2178E+06    -290.235E-03     580.316E-03    -290.081E-03     109.060E-03    -291.481E-03     581.517E-03    -289.768E-03     99.2215E-03
            1086     10.7796E-03     171.273E-03    -29.8158E+06     96.1796E+06     97.9170E+06     8.47519E+06    -290.175E-03     580.137E-03    -289.962E-03     115.389E-03    -291.605E-03     581.518E-03    -289.568E-03     103.875E-03
            1087     11.4548E-03     171.447E-03    -21.0405E+06     101.931E+06     114.464E+06     5.68483E+06    -290.232E-03     580.068E-03    -289.836E-03     118.458E-03    -291.782E-03     581.574E-03    -289.381E-03     105.670E-03
            1088     12.1312E-03     171.621E-03    -13.9772E+06     107.729E+06     122.150E+06     3.55319E+06    -290.847E-03     580.550E-03    -289.703E-03     123.151E-03    -292.602E-03     582.283E-03    -289.228E-03     108.565E-03
            1089     12.8055E-03     171.814E-03    -6.99166E+06     114.690E+06     121.650E+06     1.62142E+06    -291.070E-03     580.644E-03    -289.574E-03     114.765E-03    -292.601E-03     582.204E-03    -289.122E-03     101.430E-03
            1090     673.407E-06     171.633E-03    -157.173E+06    -281.287E+06    -154.456E+06    -578.442E+03    -288.436E-03     577.112E-03    -288.677E-03     8.66225E-03    -288.591E-03     576.159E-03    -288.813E-03     8.54261E-03
            1091     1.34823E-03     171.648E-03    -153.635E+06    -271.469E+06    -145.365E+06    -1.64797E+06    -288.669E-03     577.250E-03    -288.580E-03     16.4697E-03    -288.837E-03     576.329E-03    -288.691E-03     16.3372E-03
            1092     2.02320E-03     171.673E-03    -148.093E+06    -257.196E+06    -132.152E+06    -2.58127E+06    -288.895E-03     577.539E-03    -288.644E-03     24.3116E-03    -289.081E-03     576.668E-03    -288.717E-03     24.0429E-03
            1093     2.69708E-03     171.706E-03    -141.947E+06    -239.807E+06    -115.719E+06    -3.44193E+06    -289.247E-03     577.991E-03    -288.744E-03     32.0254E-03    -289.460E-03     577.184E-03    -288.769E-03     31.5681E-03
            1094     3.37094E-03     171.750E-03    -134.110E+06    -219.670E+06    -97.0024E+06    -4.30374E+06    -289.665E-03     578.535E-03    -288.870E-03     39.6605E-03    -289.907E-03     577.802E-03    -288.842E-03     38.9682E-03
            1095     4.04447E-03     171.805E-03    -125.312E+06    -197.938E+06    -77.6513E+06    -5.12268E+06    -289.972E-03     578.968E-03    -288.997E-03     46.9934E-03    -290.248E-03     578.322E-03    -288.916E-03     45.9699E-03
            1096     4.71836E-03     171.870E-03    -116.687E+06    -176.281E+06    -58.7983E+06    -5.94282E+06    -290.239E-03     579.343E-03    -289.104E-03     54.3464E-03    -290.556E-03     578.791E-03    -288.974E-03     52.8837E-03
            1097     5.39220E-03     171.946E-03    -107.373E+06    -153.912E+06    -40.6315E+06    -6.59104E+06    -290.525E-03     579.714E-03    -289.190E-03     61.7777E-03    -290.888E-03     579.268E-03    -289.014E-03     59.7827E-03
            1098     6.06632E-03     172.034E-03    -97.4584E+06    -130.233E+06    -23.9615E+06    -7.04849E+06    -290.817E-03     580.068E-03    -289.251E-03     68.8184E-03    -291.234E-03     579.746E-03    -289.041E-03     66.1625E-03
            1099     6.74054E-03     172.131E-03    -87.4784E+06    -105.735E+06    -8.22759E+06    -6.67356E+06    -291.183E-03     580.482E-03    -289.300E-03     75.7325E-03    -291.665E-03     580.302E-03    -289.061E-03     72.2952E-03
            1100     7.41392E-03     172.244E-03    -78.3890E+06    -78.2780E+06     6.66784E+06    -5.22634E+06    -291.397E-03     580.728E-03    -289.331E-03     82.8266E-03    -291.969E-03     580.725E-03    -289.071E-03     78.4552E-03
            1101     8.08865E-03     172.363E-03    -68.6650E+06    -46.2251E+06     21.5074E+06    -2.99107E+06    -291.450E-03     580.785E-03    -289.334E-03     89.7545E-03    -292.134E-03     580.999E-03    -289.060E-03     84.2831E-03
            1102     8.76298E-03     172.498E-03    -58.3035E+06    -3.69344E+06     37.1805E+06     942.816E+03    -291.412E-03     580.713E-03    -289.301E-03     96.4336E-03    -292.241E-03     581.214E-03    -289.026E-03     89.7534E-03
            1103     9.43703E-03     172.642E-03    -49.2275E+06     50.4518E+06     53.8904E+06     5.94545E+06    -291.134E-03     580.363E-03    -289.230E-03     103.076E-03    -292.157E-03     581.235E-03    -288.962E-03     95.0318E-03
            1104     10.1126E-03     172.797E-03    -39.7912E+06     89.4618E+06     72.0344E+06     8.29326E+06    -290.960E-03     580.121E-03    -289.161E-03     109.597E-03    -292.183E-03     581.311E-03    -288.873E-03     99.9934E-03
            1105     10.7881E-03     172.962E-03    -30.7571E+06     102.930E+06     93.1578E+06     6.55926E+06    -291.050E-03     580.187E-03    -289.137E-03     115.476E-03    -292.464E-03     581.587E-03    -288.776E-03     104.140E-03
            1106     11.4643E-03     173.136E-03    -22.6823E+06     105.481E+06     112.465E+06     3.92465E+06    -291.391E-03     580.526E-03    -289.134E-03     119.097E-03    -292.942E-03     582.044E-03    -288.692E-03     106.370E-03
            1107     12.1378E-03     173.313E-03    -13.4186E+06     111.346E+06     124.608E+06     2.74994E+06    -291.880E-03     580.994E-03    -289.114E-03     125.055E-03    -293.667E-03     582.767E-03    -288.633E-03     110.303E-03
            1108     12.8140E-03     173.501E-03    -5.26243E+06     118.072E+06     125.053E+06     2.14434E+06    -292.417E-03     581.491E-03    -289.075E-03     116.318E-03    -293.968E-03     583.081E-03    -288.613E-03     102.905E-03
            1109     677.168E-06     173.314E-03    -160.323E+06    -276.970E+06    -157.397E+06    -1.26647E+06    -285.075E-03     570.338E-03    -285.263E-03     10.1840E-03    -285.248E-03     569.414E-03    -285.416E-03     10.1187E-03
            1110     1.35325E-03     173.330E-03    -155.882E+06    -266.544E+06    -148.258E+06    -2.13921E+06    -285.663E-03     570.924E-03    -285.261E-03     17.6851E-03    -285.845E-03     570.035E-03    -285.390E-03     17.5804E-03
            1111     2.02886E-03     173.355E-03    -151.567E+06    -252.343E+06    -134.663E+06    -3.19872E+06    -286.079E-03     571.540E-03    -285.460E-03     25.4435E-03    -286.285E-03     570.701E-03    -285.548E-03     25.2465E-03
            1112     2.70520E-03     173.390E-03    -144.974E+06    -234.139E+06    -117.143E+06    -4.51371E+06    -286.774E-03     572.465E-03    -285.691E-03     33.5116E-03    -287.006E-03     571.691E-03    -285.727E-03     33.1584E-03
            1113     3.38064E-03     173.436E-03    -137.031E+06    -213.839E+06    -97.8698E+06    -6.00189E+06    -287.587E-03     573.553E-03    -285.966E-03     41.5774E-03    -287.849E-03     572.852E-03    -285.947E-03     40.9886E-03
            1114     4.05589E-03     173.492E-03    -128.245E+06    -192.454E+06    -78.3740E+06    -7.43079E+06    -288.398E-03     574.661E-03    -286.263E-03     49.4264E-03    -288.693E-03     574.044E-03    -286.189E-03     48.5088E-03
            1115     4.73068E-03     173.557E-03    -118.962E+06    -170.674E+06    -59.2919E+06    -8.87778E+06    -289.294E-03     575.862E-03    -286.568E-03     57.0304E-03    -289.626E-03     575.338E-03    -286.444E-03     55.6989E-03
            1116     5.40507E-03     173.635E-03    -109.087E+06    -148.928E+06    -41.3072E+06    -10.2094E+06    -290.113E-03     576.983E-03    -286.871E-03     64.2352E-03    -290.485E-03     576.560E-03    -286.703E-03     62.3883E-03
            1117     6.07926E-03     173.723E-03    -99.3470E+06    -126.756E+06    -24.8560E+06    -10.8530E+06    -290.875E-03     578.033E-03    -287.158E-03     71.2775E-03    -291.298E-03     577.725E-03    -286.954E-03     68.7795E-03
            1118     6.75246E-03     173.824E-03    -90.4231E+06    -104.875E+06    -9.87295E+06    -11.1115E+06    -291.482E-03     578.904E-03    -287.422E-03     78.2093E-03    -291.970E-03     578.727E-03    -287.188E-03     74.9323E-03
            1119     7.42704E-03     173.933E-03    -80.2525E+06    -79.8744E+06      4.6301E+06    -10.9720E+06    -291.942E-03     579.591E-03    -287.649E-03     84.8649E-03    -292.505E-03     579.573E-03    -287.394E-03     80.6967E-03
            1120     8.10050E-03     174.056E-03    -69.7545E+06    -52.1258E+06     18.8651E+06    -9.42944E+06    -292.375E-03     580.219E-03    -287.843E-03     91.4064E-03    -293.035E-03     580.391E-03    -287.572E-03     86.1786E-03
            1121     8.77382E-03     174.189E-03    -60.2267E+06    -14.9680E+06     33.5063E+06    -6.46773E+06    -292.446E-03     580.439E-03    -287.993E-03     97.9529E-03    -293.244E-03     580.872E-03    -287.716E-03     91.4960E-03
            1122     9.44871E-03     174.333E-03    -49.5450E+06     33.8925E+06     50.1303E+06    -846.442E+03    -292.365E-03     580.454E-03    -288.089E-03     104.384E-03    -293.338E-03     581.227E-03    -287.816E-03     96.5659E-03
            1123     10.1228E-03     174.487E-03    -39.6139E+06     84.3899E+06     67.7367E+06     4.57750E+06    -292.390E-03     580.546E-03    -288.156E-03     110.424E-03    -293.574E-03     581.692E-03    -287.882E-03     101.062E-03
            1124     10.7970E-03     174.653E-03    -31.3969E+06     109.111E+06     87.5700E+06     4.65602E+06    -292.551E-03     580.807E-03    -288.256E-03     116.095E-03    -293.948E-03     582.227E-03    -287.931E-03     104.938E-03
            1125     11.4706E-03     174.825E-03    -23.4152E+06     108.490E+06     108.645E+06     2.39292E+06    -292.696E-03     581.092E-03    -288.396E-03     119.194E-03    -294.228E-03     582.611E-03    -287.976E-03     106.614E-03
            1126     12.1472E-03     175.003E-03    -15.3715E+06     113.360E+06     124.399E+06     510.159E+03    -293.407E-03     581.922E-03    -288.516E-03     124.175E-03    -295.199E-03     583.702E-03    -288.036E-03     109.309E-03
            1127     12.8201E-03     175.193E-03    -6.45515E+06     119.410E+06     127.978E+06     780.873E+03    -294.399E-03     583.020E-03    -288.620E-03     115.528E-03    -295.962E-03     584.612E-03    -288.144E-03     101.959E-03
            1128     679.064E-06     174.984E-03    -159.293E+06    -270.866E+06    -158.244E+06    -1.39501E+06    -282.225E-03     563.336E-03    -281.111E-03     10.2447E-03    -282.400E-03     562.443E-03    -281.279E-03     10.2226E-03
            1129     1.35773E-03     175.001E-03    -156.964E+06    -260.967E+06    -148.340E+06    -2.54074E+06    -282.246E-03     564.021E-03    -281.775E-03     18.3733E-03    -282.441E-03     563.162E-03    -281.911E-03     18.2812E-03
            1130     2.03654E-03     175.028E-03    -151.664E+06    -245.827E+06    -133.861E+06    -3.95967E+06    -283.085E-03     565.140E-03    -282.055E-03     27.2261E-03    -283.301E-03     564.332E-03    -282.148E-03     27.0314E-03
            1131     2.71398E-03     175.065E-03    -144.640E+06    -226.948E+06    -115.752E+06    -5.52916E+06    -284.121E-03     566.542E-03    -282.421E-03     35.7941E-03    -284.364E-03     565.800E-03    -282.461E-03     35.4665E-03
            1132     3.39141E-03     175.113E-03    -136.533E+06    -206.266E+06    -95.9520E+06    -7.26414E+06    -285.230E-03     568.069E-03    -282.839E-03     43.8811E-03    -285.502E-03     567.401E-03    -282.821E-03     43.3425E-03
            1133     4.06820E-03     175.170E-03    -127.828E+06    -184.845E+06    -76.0757E+06    -9.02493E+06    -286.601E-03     569.898E-03    -283.297E-03     51.8021E-03    -286.905E-03     569.312E-03    -283.224E-03     50.9809E-03
            1134     4.74394E-03     175.240E-03    -118.233E+06    -162.923E+06    -56.7646E+06    -10.6833E+06    -288.103E-03     571.900E-03    -283.797E-03     59.5245E-03    -288.442E-03     571.405E-03    -283.673E-03     58.3248E-03
            1135     5.41892E-03     175.319E-03    -108.799E+06    -141.914E+06    -39.0749E+06    -12.2439E+06    -289.482E-03     573.798E-03    -284.316E-03     66.9482E-03    -289.861E-03     573.401E-03    -284.148E-03     65.2443E-03
            1136     6.09299E-03     175.410E-03    -99.9238E+06    -121.276E+06    -23.2572E+06    -13.8189E+06    -290.634E-03     575.457E-03    -284.822E-03     74.2896E-03    -291.064E-03     575.168E-03    -284.618E-03     71.9621E-03
            1137     6.76777E-03     175.510E-03    -90.0043E+06    -100.047E+06    -8.25198E+06    -15.1107E+06    -291.751E-03     577.054E-03    -285.303E-03     81.1323E-03    -292.237E-03     576.889E-03    -285.068E-03     78.0633E-03
            1138     7.44052E-03     175.623E-03    -80.7009E+06    -77.9439E+06     5.24933E+06    -15.5117E+06    -292.690E-03     578.441E-03    -285.752E-03     87.6004E-03    -293.247E-03     578.420E-03    -285.496E-03     83.6511E-03
            1139     8.11381E-03     175.746E-03    -72.3642E+06    -53.9651E+06     17.9134E+06    -15.2311E+06    -293.180E-03     579.333E-03    -286.153E-03     94.0740E-03    -293.833E-03     579.486E-03    -285.880E-03     89.0911E-03
            1140     8.78775E-03     175.880E-03    -62.8997E+06    -21.1321E+06     31.5473E+06    -13.7819E+06    -293.652E-03     580.147E-03    -286.495E-03     100.227E-03    -294.430E-03     580.536E-03    -286.215E-03     94.0395E-03
            1141     9.46029E-03     176.023E-03    -53.2007E+06     16.8527E+06     45.7684E+06    -9.55975E+06    -294.064E-03     580.857E-03    -286.793E-03     106.156E-03    -295.000E-03     581.531E-03    -286.511E-03     98.5860E-03
            1142     10.1335E-03     176.179E-03    -42.7979E+06     71.0986E+06     61.8217E+06    -3.19135E+06    -294.149E-03     581.183E-03    -287.034E-03     112.046E-03    -295.293E-03     582.249E-03    -286.766E-03     102.935E-03
            1143     10.8071E-03     176.343E-03    -32.3328E+06     110.676E+06     81.8692E+06     477.905E+03    -294.422E-03     581.703E-03    -287.281E-03     117.867E-03    -295.792E-03     583.114E-03    -286.985E-03     106.982E-03
            1144     11.4810E-03     176.519E-03    -23.0710E+06     111.037E+06     104.239E+06     63.3155E+03    -295.140E-03     582.733E-03    -287.593E-03     120.936E-03    -296.661E-03     584.265E-03    -287.200E-03     108.408E-03
            1145     12.1515E-03     176.694E-03    -14.4736E+06     114.989E+06     123.958E+06    -32.6351E+03    -296.110E-03     584.017E-03    -287.907E-03     126.434E-03    -297.905E-03     585.809E-03    -287.433E-03     111.553E-03
            1146     12.8231E-03     176.892E-03    -6.94204E+06     119.668E+06     130.504E+06     286.496E+03    -296.488E-03     584.663E-03    -288.175E-03     118.195E-03    -298.072E-03     586.269E-03    -287.686E-03     104.543E-03
            1147     680.915E-06     176.642E-03    -157.308E+06    -264.042E+06    -155.133E+06    -1.77494E+06    -278.717E-03     556.494E-03    -277.777E-03     10.7550E-03    -278.897E-03     555.628E-03    -277.942E-03     10.6552E-03
            1148     1.36276E-03     176.660E-03    -153.736E+06    -253.572E+06    -145.139E+06    -3.35393E+06    -278.750E-03     557.085E-03    -278.335E-03     19.4178E-03    -278.944E-03     556.253E-03    -278.470E-03     19.3059E-03
            1149     2.04344E-03     176.689E-03    -148.019E+06    -238.010E+06    -129.988E+06    -5.03185E+06    -279.863E-03     558.491E-03    -278.627E-03     28.4275E-03    -280.078E-03     557.711E-03    -278.718E-03     28.2433E-03
            1150     2.72369E-03     176.730E-03    -140.717E+06    -219.154E+06    -111.487E+06    -6.61437E+06    -281.224E-03     560.297E-03    -279.074E-03     37.2766E-03    -281.463E-03     559.581E-03    -279.109E-03     36.9651E-03
            1151     3.40273E-03     176.779E-03    -132.479E+06    -198.277E+06    -91.3165E+06    -8.05902E+06    -282.821E-03     562.437E-03    -279.616E-03     45.9440E-03    -283.089E-03     561.795E-03    -279.593E-03     45.4470E-03
            1152     4.08064E-03     176.842E-03    -123.472E+06    -176.357E+06    -70.9268E+06    -9.64500E+06    -284.615E-03     564.843E-03    -280.228E-03     54.4224E-03    -284.914E-03     564.284E-03    -280.148E-03     53.6733E-03
            1153     4.75784E-03     176.914E-03    -114.187E+06    -154.761E+06    -51.4548E+06    -11.2409E+06    -286.445E-03     567.333E-03    -280.888E-03     62.5723E-03    -286.779E-03     566.862E-03    -280.756E-03     61.4889E-03
            1154     5.43387E-03     176.998E-03    -105.425E+06    -133.689E+06    -33.8531E+06    -12.9723E+06    -288.273E-03     569.844E-03    -281.571E-03     70.3341E-03    -288.649E-03     569.469E-03    -281.393E-03     68.8052E-03
            1155     6.10946E-03     177.090E-03    -96.2206E+06    -113.166E+06    -17.7764E+06    -14.6880E+06    -290.103E-03     572.366E-03    -282.262E-03     77.7537E-03    -290.525E-03     572.095E-03    -282.048E-03     75.6643E-03
            1156     6.78293E-03     177.196E-03    -87.5454E+06    -93.2106E+06    -3.38388E+06    -15.8905E+06    -291.696E-03     574.642E-03    -282.946E-03     84.8586E-03    -292.175E-03     574.489E-03    -282.701E-03     82.0776E-03
            1157     7.45685E-03     177.310E-03    -79.7145E+06    -72.3814E+06     9.50770E+06    -17.2855E+06    -293.009E-03     576.607E-03    -283.598E-03     91.5550E-03    -293.562E-03     576.593E-03    -283.330E-03     87.9239E-03
            1158     8.13005E-03     177.435E-03    -71.2588E+06    -50.1936E+06     21.7080E+06    -18.2748E+06    -294.227E-03     578.438E-03    -284.211E-03     97.6921E-03    -294.868E-03     578.585E-03    -283.926E-03     93.0533E-03
            1159     8.80221E-03     177.569E-03    -62.9582E+06    -23.2534E+06     33.3715E+06    -17.4642E+06    -295.153E-03     579.931E-03    -284.777E-03     103.517E-03    -295.907E-03     580.281E-03    -284.486E-03     97.7379E-03
            1160     9.47475E-03     177.716E-03    -54.5084E+06     8.74302E+06     46.6084E+06    -15.7173E+06    -295.765E-03     581.060E-03    -285.295E-03     109.323E-03    -296.666E-03     581.664E-03    -284.996E-03     102.180E-03
            1161     10.1470E-03     177.870E-03    -44.9174E+06     57.0954E+06     61.3916E+06    -12.4480E+06    -296.361E-03     582.109E-03    -285.748E-03     115.061E-03    -297.465E-03     583.078E-03    -285.459E-03     106.304E-03
            1162     10.8190E-03     178.038E-03    -34.5529E+06     102.804E+06     79.3001E+06    -7.73684E+06    -297.045E-03     583.233E-03    -286.188E-03     120.194E-03    -298.378E-03     584.579E-03    -285.890E-03     109.616E-03
            1163     11.4902E-03     178.212E-03    -24.5348E+06     110.038E+06     98.6965E+06    -4.94062E+06    -297.827E-03     584.504E-03    -286.677E-03     123.257E-03    -299.326E-03     586.021E-03    -286.307E-03     110.934E-03
            1164     12.1622E-03     178.395E-03    -15.9160E+06     109.836E+06     118.590E+06    -2.75924E+06    -298.969E-03     586.154E-03    -287.185E-03     128.650E-03    -300.752E-03     587.927E-03    -286.728E-03     113.809E-03
            1165     12.8339E-03     178.586E-03    -8.21473E+06     117.339E+06     133.565E+06    -529.153E+03    -300.027E-03     587.712E-03    -287.685E-03     118.998E-03    -301.618E-03     589.303E-03    -287.175E-03     105.276E-03
            1166     684.276E-06     178.289E-03    -151.933E+06    -255.078E+06    -149.079E+06    -2.43834E+06    -274.855E-03     549.680E-03    -274.825E-03     10.9466E-03    -275.030E-03     548.842E-03    -274.981E-03     10.8618E-03
            1167     1.36718E-03     178.308E-03    -147.468E+06    -244.722E+06    -139.025E+06    -4.17745E+06    -275.757E-03     550.763E-03    -275.007E-03     20.2061E-03    -275.941E-03     549.958E-03    -275.133E-03     20.1035E-03
            1168     2.05004E-03     178.340E-03    -141.837E+06    -229.518E+06    -123.751E+06    -5.85253E+06    -276.762E-03     552.157E-03    -275.395E-03     29.5824E-03    -276.966E-03     551.402E-03    -275.476E-03     29.4070E-03
            1169     2.73217E-03     178.382E-03    -134.673E+06    -210.704E+06    -105.027E+06    -7.59643E+06    -278.122E-03     553.987E-03    -275.865E-03     38.8543E-03    -278.352E-03     553.294E-03    -275.889E-03     38.5627E-03
            1170     3.41342E-03     178.438E-03    -125.997E+06    -189.958E+06    -84.6800E+06    -9.35917E+06    -279.969E-03     556.404E-03    -276.435E-03     48.2583E-03    -280.224E-03     555.783E-03    -276.401E-03     47.8127E-03
            1171     4.09365E-03     178.503E-03    -116.494E+06    -168.589E+06    -64.0223E+06    -10.7062E+06    -282.097E-03     559.207E-03    -277.109E-03     57.4134E-03    -282.380E-03     558.663E-03    -277.016E-03     56.7520E-03
            1172     4.77231E-03     178.581E-03    -107.216E+06    -147.047E+06    -44.2643E+06    -11.8624E+06    -284.300E-03     562.157E-03    -277.858E-03     66.0279E-03    -284.616E-03     561.699E-03    -277.710E-03     65.0877E-03
            1173     5.45017E-03     178.667E-03    -97.2922E+06    -125.391E+06    -25.6158E+06    -12.9608E+06    -286.642E-03     565.299E-03    -278.656E-03     74.1890E-03    -286.994E-03     564.933E-03    -278.461E-03     72.8824E-03
            1174     6.12591E-03     178.767E-03    -87.6223E+06    -105.367E+06    -8.73856E+06    -13.8840E+06    -288.949E-03     568.439E-03    -279.490E-03     82.0379E-03    -289.342E-03     568.171E-03    -279.254E-03     80.2463E-03
            1175     6.80143E-03     178.875E-03    -78.8941E+06    -85.4765E+06     6.04191E+06    -15.3596E+06    -291.015E-03     571.343E-03    -280.328E-03     89.4217E-03    -291.460E-03     571.187E-03    -280.060E-03     87.0237E-03
            1176     7.47551E-03     178.994E-03    -69.7424E+06    -65.0496E+06     19.4888E+06    -16.4795E+06    -293.062E-03     574.218E-03    -281.156E-03     96.2023E-03    -293.567E-03     574.189E-03    -280.863E-03     93.0822E-03
            1177     8.14818E-03     179.122E-03    -61.3423E+06    -44.6638E+06     31.7587E+06    -16.8707E+06    -295.024E-03     576.999E-03    -281.975E-03     102.574E-03    -295.610E-03     577.116E-03    -281.662E-03     98.5511E-03
            1178     8.82008E-03     179.260E-03    -53.8679E+06    -21.2249E+06     43.2451E+06    -16.9320E+06    -296.554E-03     579.321E-03    -282.767E-03     108.477E-03    -297.248E-03     579.623E-03    -282.442E-03     103.326E-03
            1179     9.49173E-03     179.406E-03    -46.4055E+06     9.74049E+06     56.4137E+06    -16.6604E+06    -297.912E-03     581.434E-03    -283.522E-03     113.875E-03    -298.751E-03     581.979E-03    -283.187E-03     107.393E-03
            1180     10.1626E-03     179.566E-03    -39.1119E+06     50.6533E+06     70.0490E+06    -15.2504E+06    -299.287E-03     583.525E-03    -284.238E-03     118.862E-03    -300.317E-03     584.393E-03    -283.904E-03     110.782E-03
            1181     10.8326E-03     179.733E-03    -31.4653E+06     93.3507E+06     85.2342E+06    -12.0310E+06    -300.442E-03     585.377E-03    -284.935E-03     123.700E-03    -301.713E-03     586.621E-03    -284.599E-03     113.659E-03
            1182     11.5022E-03     179.912E-03    -23.5796E+06     103.314E+06     98.6966E+06    -8.15634E+06    -301.779E-03     587.437E-03    -285.658E-03     126.070E-03    -303.232E-03     588.888E-03    -285.280E-03     114.097E-03
            1183     12.1709E-03     180.091E-03    -16.2643E+06     101.772E+06     114.139E+06    -4.46220E+06    -303.484E-03     589.905E-03    -286.420E-03     129.655E-03    -305.233E-03     591.627E-03    -285.974E-03     114.855E-03
            1184     12.8362E-03     180.295E-03    -8.05055E+06     112.888E+06     132.512E+06    -2.26370E+06    -305.153E-03     592.366E-03    -287.213E-03     119.442E-03    -306.716E-03     593.917E-03    -286.703E-03     105.757E-03
            1185     685.620E-06     179.924E-03    -143.745E+06    -244.379E+06    -141.637E+06    -2.56200E+06    -272.031E-03     543.745E-03    -271.714E-03     11.3787E-03    -272.190E-03     542.937E-03    -271.859E-03     11.3679E-03
            1186     1.37137E-03     179.947E-03    -140.680E+06    -234.756E+06    -131.569E+06    -4.66897E+06    -272.596E-03     544.591E-03    -271.995E-03     20.8899E-03    -272.771E-03     543.814E-03    -272.109E-03     20.8282E-03
            1187     2.05634E-03     179.979E-03    -134.562E+06    -219.688E+06    -115.941E+06    -6.91689E+06    -273.564E-03     545.882E-03    -272.318E-03     30.9534E-03    -273.756E-03     545.152E-03    -272.384E-03     30.8270E-03
            1188     2.74071E-03     180.027E-03    -126.556E+06    -201.174E+06    -96.8106E+06    -9.03196E+06    -275.025E-03     547.779E-03    -272.754E-03     40.9690E-03    -275.237E-03     547.107E-03    -272.763E-03     40.7551E-03
            1189     3.42439E-03     180.083E-03    -117.673E+06    -180.968E+06    -76.1898E+06    -10.7700E+06    -276.915E-03     550.228E-03    -273.313E-03     50.7570E-03    -277.150E-03     549.623E-03    -273.261E-03     50.4413E-03
            1190     4.10654E-03     180.156E-03    -108.256E+06    -160.574E+06    -55.5851E+06    -12.3092E+06    -279.071E-03     553.049E-03    -273.979E-03     60.2682E-03    -279.330E-03     552.514E-03    -273.867E-03     59.7914E-03
            1191     4.78770E-03     180.236E-03    -98.0085E+06    -139.793E+06    -35.7236E+06    -13.3269E+06    -281.562E-03     556.295E-03    -274.733E-03     69.6637E-03    -281.846E-03     555.837E-03    -274.567E-03     68.9624E-03
            1192     5.46673E-03     180.332E-03    -87.6873E+06    -118.747E+06    -16.8009E+06    -14.0822E+06    -284.256E-03     559.824E-03    -275.568E-03     78.8209E-03    -284.569E-03     559.452E-03    -275.353E-03     77.8212E-03
            1193     6.14501E-03     180.434E-03    -77.8135E+06    -99.2257E+06     273.427E+03    -14.7969E+06    -286.993E-03     563.457E-03    -276.464E-03     87.2925E-03    -287.340E-03     563.174E-03    -276.206E-03     85.9108E-03
            1194     6.82131E-03     180.549E-03    -68.3548E+06    -78.7779E+06     15.7192E+06    -14.9402E+06    -289.868E-03     567.275E-03    -277.406E-03     95.0402E-03    -290.259E-03     567.097E-03    -277.114E-03     93.2004E-03
            1195     7.49594E-03     180.672E-03    -60.2194E+06    -60.0159E+06     29.2779E+06    -14.7660E+06    -292.639E-03     571.025E-03    -278.386E-03     102.232E-03    -293.086E-03     570.960E-03    -278.065E-03     99.7956E-03
            1196     8.16964E-03     180.806E-03    -52.8186E+06    -40.1004E+06     41.7994E+06    -14.5580E+06    -295.189E-03     574.568E-03    -279.379E-03     108.805E-03    -295.712E-03     574.640E-03    -279.036E-03     105.597E-03
            1197     8.84217E-03     180.948E-03    -45.7051E+06    -16.8672E+06     53.6166E+06    -14.4705E+06    -297.913E-03     578.295E-03    -280.382E-03     114.449E-03    -298.535E-03     578.540E-03    -280.023E-03     110.257E-03
            1198     9.51238E-03     181.100E-03    -39.6182E+06     11.8117E+06     65.4561E+06    -13.7984E+06    -300.659E-03     582.063E-03    -281.404E-03     119.542E-03    -301.421E-03     582.537E-03    -281.036E-03     114.083E-03
            1199     10.1813E-03     181.262E-03    -33.5005E+06     51.0438E+06     78.7514E+06    -12.8867E+06    -302.938E-03     585.368E-03    -282.430E-03     123.879E-03    -303.893E-03     586.158E-03    -282.062E-03     116.760E-03
            1200     10.8494E-03     181.434E-03    -26.9483E+06     87.6990E+06     92.3195E+06    -11.2324E+06    -304.917E-03     588.372E-03    -283.456E-03     127.343E-03    -306.103E-03     589.508E-03    -283.082E-03     118.141E-03
            1201     11.5166E-03     181.614E-03    -20.0181E+06     95.4655E+06     103.438E+06    -7.92309E+06    -307.250E-03     591.766E-03    -284.516E-03     129.418E-03    -308.632E-03     593.117E-03    -284.108E-03     118.046E-03
            1202     12.1797E-03     181.806E-03    -11.9202E+06     94.2427E+06     115.214E+06    -4.77711E+06    -309.823E-03     595.440E-03    -285.618E-03     132.684E-03    -311.509E-03     597.086E-03    -285.161E-03     118.184E-03
            1203     12.8455E-03     182.002E-03    -4.35589E+06     106.571E+06     129.998E+06    -1.35310E+06    -312.012E-03     598.765E-03    -286.753E-03     121.660E-03    -313.516E-03     600.256E-03    -286.251E-03     108.226E-03
            1204     687.567E-06     181.553E-03    -137.254E+06    -232.591E+06    -135.239E+06    -3.17747E+06    -269.424E-03     538.088E-03    -268.663E-03     11.8696E-03    -269.577E-03     537.320E-03    -268.803E-03     11.9313E-03
            1205     1.37510E-03     181.574E-03    -133.574E+06    -222.392E+06    -124.440E+06    -5.79822E+06    -269.464E-03     538.565E-03    -269.101E-03     21.8306E-03    -269.630E-03     537.827E-03    -269.207E-03     21.8638E-03
            1206     2.06257E-03     181.610E-03    -127.516E+06    -207.867E+06    -108.899E+06    -8.54594E+06    -270.424E-03     539.751E-03    -269.327E-03     32.1567E-03    -270.605E-03     539.057E-03    -269.386E-03     32.1928E-03
            1207     2.74944E-03     181.658E-03    -119.564E+06    -190.440E+06    -89.8876E+06    -10.7936E+06    -271.885E-03     541.595E-03    -269.710E-03     42.5614E-03    -272.081E-03     540.951E-03    -269.710E-03     42.5877E-03
            1208     3.43464E-03     181.722E-03    -110.671E+06    -171.347E+06    -69.1245E+06    -12.6312E+06    -273.570E-03     543.783E-03    -270.213E-03     53.0292E-03    -273.784E-03     543.196E-03    -270.150E-03     53.0024E-03
            1209     4.11945E-03     181.795E-03    -101.101E+06    -151.825E+06    -48.3987E+06    -13.9474E+06    -275.571E-03     546.372E-03    -270.800E-03     63.5387E-03    -275.804E-03     545.845E-03    -270.676E-03     63.4230E-03
            1210     4.80279E-03     181.884E-03    -91.2922E+06    -132.470E+06    -28.7442E+06    -15.0134E+06    -278.045E-03     549.519E-03    -271.474E-03     74.0308E-03    -278.296E-03     549.058E-03    -271.293E-03     73.7746E-03
            1211     5.48526E-03     181.982E-03    -81.7563E+06    -113.669E+06    -10.8497E+06    -15.3794E+06    -280.950E-03     553.195E-03    -272.245E-03     84.0728E-03    -281.223E-03     552.805E-03    -272.016E-03     83.6283E-03
            1212     6.16548E-03     182.094E-03    -73.2425E+06    -95.3879E+06     5.41317E+06    -14.6858E+06    -284.310E-03     557.436E-03    -273.126E-03     93.4959E-03    -284.613E-03     557.124E-03    -272.854E-03     92.8055E-03
            1213     6.84383E-03     182.213E-03    -65.6184E+06    -75.8419E+06     20.3796E+06    -13.3728E+06    -287.915E-03     562.028E-03    -274.113E-03     102.234E-03    -288.261E-03     561.813E-03    -273.806E-03     101.203E-03
            1214     7.52038E-03     182.345E-03    -58.6693E+06    -57.1571E+06     33.9181E+06    -12.2063E+06    -291.635E-03     566.831E-03    -275.196E-03     109.878E-03    -292.035E-03     566.722E-03    -274.859E-03     108.385E-03
            1215     8.19465E-03     182.484E-03    -52.7906E+06    -36.3847E+06     45.8453E+06    -11.6737E+06    -295.559E-03     571.922E-03    -276.362E-03     116.311E-03    -296.034E-03     571.947E-03    -276.004E-03     114.179E-03
            1216     8.86650E-03     182.634E-03    -47.2353E+06    -14.4575E+06     56.2516E+06    -11.0156E+06    -299.690E-03     577.301E-03    -277.611E-03     121.582E-03    -300.257E-03     577.486E-03    -277.240E-03     118.600E-03
            1217     9.53639E-03     182.793E-03    -41.1654E+06     14.0443E+06     68.1822E+06    -10.2963E+06    -303.684E-03     582.624E-03    -278.939E-03     125.714E-03    -304.381E-03     583.027E-03    -278.559E-03     121.538E-03
            1218     10.2036E-03     182.963E-03    -35.0058E+06     55.9337E+06     82.2006E+06    -10.5628E+06    -307.315E-03     587.633E-03    -280.318E-03     129.111E-03    -308.206E-03     588.361E-03    -279.937E-03     123.227E-03
            1219     10.8683E-03     183.139E-03    -28.3564E+06     83.7136E+06     93.2272E+06    -9.91965E+06    -310.918E-03     592.664E-03    -281.746E-03     131.774E-03    -312.021E-03     593.695E-03    -281.360E-03     123.713E-03
            1220     11.5301E-03     183.328E-03    -21.1755E+06     88.6910E+06     103.066E+06    -7.34979E+06    -313.936E-03     597.167E-03    -283.230E-03     132.416E-03    -315.232E-03     598.404E-03    -282.813E-03     121.985E-03
            1221     12.1933E-03     183.521E-03    -15.2297E+06     89.4657E+06     112.803E+06    -5.23266E+06    -317.163E-03     601.907E-03    -284.744E-03     134.828E-03    -318.781E-03     603.463E-03    -284.288E-03     120.983E-03
            1222     12.8478E-03     183.733E-03    -9.57247E+06     98.3964E+06     124.439E+06    -3.23670E+06    -320.171E-03     606.463E-03    -286.292E-03     123.236E-03    -321.630E-03     607.877E-03    -285.799E-03     110.175E-03
            1223     689.784E-06     183.170E-03    -131.759E+06    -216.927E+06    -129.500E+06    -4.20866E+06    -266.183E-03     532.147E-03    -265.964E-03     12.0892E-03    -266.339E-03     531.440E-03    -266.106E-03     12.2258E-03
            1224     1.37938E-03     183.193E-03    -127.312E+06    -207.899E+06    -119.500E+06    -7.37511E+06    -266.577E-03     532.715E-03    -266.138E-03     22.4093E-03    -266.737E-03     532.031E-03    -266.249E-03     22.6697E-03
            1225     2.06861E-03     183.229E-03    -121.613E+06    -194.889E+06    -104.282E+06    -9.88565E+06    -267.334E-03     533.683E-03    -266.349E-03     33.4098E-03    -267.504E-03     533.031E-03    -266.412E-03     33.7873E-03
            1226     2.75686E-03     183.283E-03    -115.225E+06    -179.157E+06    -85.9546E+06    -11.8160E+06    -268.307E-03     534.937E-03    -266.630E-03     44.6073E-03    -268.492E-03     534.325E-03    -266.633E-03     45.0728E-03
            1227     3.44567E-03     183.346E-03    -107.595E+06    -161.524E+06    -65.8827E+06    -13.2738E+06    -269.636E-03     536.609E-03    -266.973E-03     56.0094E-03    -269.836E-03     536.043E-03    -266.912E-03     56.5386E-03
            1228     4.13322E-03     183.426E-03    -99.4622E+06    -144.105E+06    -45.8315E+06    -14.1357E+06    -271.561E-03     538.965E-03    -267.404E-03     67.4904E-03    -271.773E-03     538.444E-03    -267.280E-03     68.0566E-03
            1229     4.82000E-03     183.517E-03    -91.5625E+06    -126.734E+06    -26.9206E+06    -13.9658E+06    -274.007E-03     541.954E-03    -267.947E-03     78.7839E-03    -274.234E-03     541.483E-03    -267.765E-03     79.3504E-03
            1230     5.50498E-03     183.623E-03    -84.8549E+06    -110.173E+06    -10.0844E+06    -12.8637E+06    -277.071E-03     545.686E-03    -268.615E-03     89.7855E-03    -277.319E-03     545.270E-03    -268.383E-03     90.3051E-03
            1231     6.18844E-03     183.740E-03    -78.5649E+06    -93.5535E+06     5.02253E+06    -11.4765E+06    -280.835E-03     550.265E-03    -269.430E-03     100.347E-03    -281.109E-03     549.912E-03    -269.155E-03     100.740E-03
            1232     6.86965E-03     183.869E-03    -72.1650E+06    -75.3569E+06     18.7865E+06    -9.97929E+06    -285.304E-03     555.714E-03    -270.410E-03     109.896E-03    -285.613E-03     555.445E-03    -270.102E-03     110.065E-03
            1233     7.54809E-03     184.008E-03    -65.8153E+06    -56.2800E+06     31.3121E+06    -8.42456E+06    -290.536E-03     562.115E-03    -271.578E-03     118.025E-03    -290.891E-03     561.945E-03    -271.245E-03     117.846E-03
            1234     8.22324E-03     184.159E-03    -59.7724E+06    -33.5326E+06     43.1551E+06    -7.34754E+06    -296.302E-03     569.246E-03    -272.943E-03     124.535E-03    -296.725E-03     569.212E-03    -272.592E-03     123.822E-03
            1235     8.89499E-03     184.318E-03    -53.8207E+06    -11.2824E+06     53.8029E+06    -7.25195E+06    -302.143E-03     576.636E-03    -274.493E-03     129.460E-03    -302.655E-03     576.762E-03    -274.129E-03     127.904E-03
            1236     9.56274E-03     184.488E-03    -46.8949E+06     19.9976E+06     66.4854E+06    -8.58564E+06    -307.728E-03     583.921E-03    -276.193E-03     132.424E-03    -308.367E-03     584.274E-03    -275.822E-03     129.651E-03
            1237     10.2277E-03     184.665E-03    -39.3782E+06     62.5681E+06     80.7860E+06    -10.4374E+06    -312.969E-03     590.973E-03    -278.004E-03     133.954E-03    -313.788E-03     591.642E-03    -277.634E-03     129.488E-03
            1238     10.8894E-03     184.854E-03    -31.4236E+06     82.3400E+06     89.8770E+06    -11.2257E+06    -317.816E-03     597.722E-03    -279.906E-03     135.074E-03    -318.826E-03     598.654E-03    -279.530E-03     128.275E-03
            1239     11.5481E-03     185.050E-03    -22.7612E+06     81.5529E+06     98.9023E+06    -10.1560E+06    -322.028E-03     603.917E-03    -281.889E-03     134.117E-03    -323.217E-03     605.029E-03    -281.479E-03     124.685E-03
            1240     12.2007E-03     185.250E-03    -13.4804E+06     82.9187E+06     109.552E+06    -6.70081E+06    -325.565E-03     609.455E-03    -283.890E-03     136.223E-03    -327.077E-03     610.898E-03    -283.443E-03     123.076E-03
            1241     12.8570E-03     185.473E-03    -5.75005E+06     91.0239E+06     120.881E+06    -3.45528E+06    -327.992E-03     613.862E-03    -285.870E-03     124.590E-03    -329.357E-03     615.181E-03    -285.390E-03     112.059E-03
            1242     691.718E-06     184.779E-03    -126.309E+06    -201.846E+06    -124.189E+06    -2.74925E+06    -262.927E-03     525.765E-03    -262.837E-03     12.8942E-03    -263.084E-03     525.116E-03    -262.983E-03     13.2443E-03
            1243     1.38331E-03     184.802E-03    -125.358E+06    -194.496E+06    -116.434E+06    -4.99034E+06    -263.267E-03     526.177E-03    -262.910E-03     23.6363E-03    -263.436E-03     525.547E-03    -263.028E-03     24.2988E-03
            1244     2.07464E-03     184.841E-03    -122.826E+06    -183.230E+06    -103.589E+06    -7.01278E+06    -263.596E-03     526.608E-03    -263.012E-03     35.4929E-03    -263.779E-03     526.004E-03    -263.086E-03     36.4553E-03
            1245     2.76683E-03     184.893E-03    -119.016E+06    -169.296E+06    -87.1603E+06    -8.52624E+06    -264.225E-03     527.352E-03    -263.126E-03     47.4355E-03    -264.422E-03     526.776E-03    -263.144E-03     48.6719E-03
            1246     3.45792E-03     184.961E-03    -114.344E+06    -154.061E+06    -68.8769E+06    -8.94807E+06    -265.461E-03     528.773E-03    -263.311E-03     59.4700E-03    -265.670E-03     528.227E-03    -263.267E-03     60.9629E-03
            1247     4.14882E-03     185.042E-03    -109.391E+06    -138.772E+06    -50.1300E+06    -8.64528E+06    -267.296E-03     530.909E-03    -263.612E-03     71.5421E-03    -267.516E-03     530.392E-03    -263.503E-03     73.2530E-03
            1248     4.83842E-03     185.139E-03    -104.401E+06    -123.169E+06    -32.4655E+06    -8.02322E+06    -269.807E-03     533.853E-03    -264.046E-03     83.5189E-03    -270.038E-03     533.369E-03    -263.879E-03     85.3851E-03
            1249     5.52707E-03     185.249E-03    -98.4762E+06    -107.691E+06    -16.2402E+06    -7.39560E+06    -273.145E-03     537.784E-03    -264.638E-03     95.2496E-03    -273.384E-03     537.336E-03    -264.421E-03     97.1810E-03
            1250     6.21373E-03     185.374E-03    -91.6823E+06    -92.2046E+06    -1.77928E+06    -6.89040E+06    -277.514E-03     542.938E-03    -265.424E-03     106.171E-03    -277.761E-03     542.536E-03    -265.166E-03     108.074E-03
            1251     6.89782E-03     185.512E-03    -85.0860E+06    -74.6831E+06     11.0869E+06    -6.41564E+06    -283.081E-03     549.530E-03    -266.449E-03     115.867E-03    -283.348E-03     549.198E-03    -266.162E-03     117.614E-03
            1252     7.57818E-03     185.664E-03    -77.7304E+06    -54.1021E+06     23.4792E+06    -6.57907E+06    -289.794E-03     557.551E-03    -267.756E-03     124.139E-03    -290.098E-03     557.319E-03    -267.448E-03     125.549E-03
            1253     8.25415E-03     185.826E-03    -68.5001E+06    -30.4890E+06     36.2292E+06    -7.23340E+06    -297.346E-03     566.709E-03    -269.363E-03     130.542E-03    -297.702E-03     566.610E-03    -269.039E-03     131.387E-03
            1254     8.92497E-03     186.001E-03    -58.6643E+06    -5.79894E+06     48.8767E+06    -8.75404E+06    -305.173E-03     576.431E-03    -271.258E-03     134.680E-03    -305.605E-03     576.495E-03    -270.920E-03     134.636E-03
            1255     9.59149E-03     186.183E-03    -48.5930E+06     28.6395E+06     63.4606E+06    -11.1372E+06    -312.761E-03     586.155E-03    -273.394E-03     136.581E-03    -313.314E-03     586.456E-03    -273.048E-03     135.255E-03
            1256     10.2522E-03     186.377E-03    -38.3362E+06     68.8894E+06     78.2841E+06    -13.0536E+06    -319.751E-03     595.462E-03    -275.711E-03     136.816E-03    -320.470E-03     596.065E-03    -275.364E-03     133.702E-03
            1257     10.9084E-03     186.575E-03    -29.3817E+06     82.4346E+06     87.0288E+06    -13.4372E+06    -325.646E-03     603.801E-03    -278.155E-03     136.171E-03    -326.539E-03     604.633E-03    -277.797E-03     130.601E-03
            1258     11.5610E-03     186.784E-03    -22.1236E+06     79.2834E+06     96.0926E+06    -13.1769E+06    -330.081E-03     610.745E-03    -280.663E-03     134.339E-03    -331.162E-03     611.751E-03    -280.266E-03     125.920E-03
            1259     12.2126E-03     186.995E-03    -14.5831E+06     72.8432E+06     104.304E+06    -12.2361E+06    -333.554E-03     616.694E-03    -283.140E-03     136.404E-03    -334.958E-03     618.004E-03    -282.703E-03     123.966E-03
            1260     12.8571E-03     187.220E-03    -7.18097E+06     76.1287E+06     115.700E+06    -6.76295E+06    -334.972E-03     620.501E-03    -285.529E-03     125.311E-03    -336.258E-03     621.696E-03    -285.050E-03     113.194E-03
            1261     694.463E-06     186.376E-03    -138.055E+06    -202.076E+06    -134.078E+06     3.03825E+06    -259.017E-03     517.610E-03    -258.592E-03     14.0016E-03    -259.216E-03     516.988E-03    -258.769E-03     14.7267E-03
            1262     1.38882E-03     186.401E-03    -138.668E+06    -192.704E+06    -125.941E+06     4.88892E+06    -258.974E-03     517.758E-03    -258.784E-03     25.5951E-03    -259.191E-03     517.161E-03    -258.933E-03     26.9217E-03
            1263     2.08377E-03     186.438E-03    -139.055E+06    -179.092E+06    -112.910E+06     5.45336E+06    -259.301E-03     518.118E-03    -258.816E-03     37.8062E-03    -259.541E-03     517.553E-03    -258.919E-03     39.7249E-03
            1264     2.77806E-03     186.492E-03    -138.556E+06    -163.882E+06    -96.7367E+06     4.66375E+06    -260.050E-03     518.953E-03    -258.903E-03     50.1463E-03    -260.309E-03     518.418E-03    -258.948E-03     52.5938E-03
            1265     3.47271E-03     186.561E-03    -136.596E+06    -148.870E+06    -79.1116E+06     2.97902E+06    -261.369E-03     520.452E-03    -259.082E-03     62.5744E-03    -261.640E-03     519.937E-03    -259.064E-03     65.4726E-03
            1266     4.16641E-03     186.646E-03    -132.023E+06    -133.214E+06    -60.8964E+06     740.867E+03    -263.375E-03     522.759E-03    -259.385E-03     74.8602E-03    -263.642E-03     522.261E-03    -259.305E-03     78.1293E-03
            1267     4.85958E-03     186.746E-03    -124.892E+06    -117.501E+06    -43.4025E+06    -2.14284E+06    -266.293E-03     526.138E-03    -259.845E-03     86.7577E-03    -266.546E-03     525.656E-03    -259.710E-03     90.2903E-03
            1268     5.55080E-03     186.863E-03    -115.957E+06    -102.546E+06    -27.6284E+06    -5.04569E+06    -270.372E-03     530.884E-03    -260.513E-03     98.0170E-03    -270.602E-03     530.419E-03    -260.334E-03     101.698E-03
            1269     6.23965E-03     186.995E-03    -105.188E+06    -87.6284E+06    -12.8400E+06    -7.69919E+06    -275.722E-03     537.166E-03    -261.443E-03     108.321E-03    -275.930E-03     536.727E-03    -261.228E-03     112.002E-03
            1270     6.92491E-03     187.145E-03    -92.4059E+06    -70.8755E+06     1.81000E+06    -9.98136E+06    -282.352E-03     545.033E-03    -262.681E-03     117.390E-03    -282.545E-03     544.642E-03    -262.435E-03     120.881E-03
            1271     7.60604E-03     187.309E-03    -78.9027E+06    -49.5600E+06     16.4542E+06    -11.6727E+06    -290.167E-03     554.418E-03    -264.252E-03     125.034E-03    -290.367E-03     554.116E-03    -263.983E-03     128.134E-03
            1272     8.28190E-03     187.490E-03    -65.7635E+06    -26.0344E+06     30.7996E+06    -13.2673E+06    -298.935E-03     565.105E-03    -266.170E-03     130.980E-03    -299.171E-03     564.928E-03    -265.883E-03     133.418E-03
            1273     8.95203E-03     187.681E-03    -53.4864E+06     498.615E+03     45.3103E+06    -14.9381E+06    -308.300E-03     576.730E-03    -268.429E-03     134.878E-03    -308.608E-03     576.721E-03    -268.126E-03     136.327E-03
            1274     9.61491E-03     187.883E-03    -43.4148E+06     34.8768E+06     61.0181E+06    -16.0242E+06    -317.614E-03     588.608E-03    -270.994E-03     136.585E-03    -318.046E-03     588.837E-03    -270.677E-03     136.693E-03
            1275     10.2728E-03     188.092E-03    -35.5341E+06     69.8548E+06     75.3988E+06    -14.8291E+06    -326.107E-03     599.901E-03    -273.794E-03     136.386E-03    -326.709E-03     600.410E-03    -273.467E-03     134.667E-03
            1276     10.9250E-03     188.309E-03    -29.0350E+06     84.9733E+06     85.5115E+06    -13.9823E+06    -332.839E-03     609.577E-03    -276.739E-03     134.911E-03    -333.625E-03     610.317E-03    -276.392E-03     130.715E-03
            1277     11.5729E-03     188.527E-03    -21.3051E+06     84.6888E+06     96.7088E+06    -16.1493E+06    -336.998E-03     616.712E-03    -279.714E-03     132.785E-03    -337.982E-03     617.643E-03    -279.322E-03     125.467E-03
            1278     12.2173E-03     188.748E-03    -13.2673E+06     65.3415E+06     102.767E+06    -14.8580E+06    -339.449E-03     622.027E-03    -282.578E-03     135.594E-03    -340.736E-03     623.202E-03    -282.139E-03     124.027E-03
            1279     12.8637E-03     188.985E-03    -6.08451E+06     55.0635E+06     113.388E+06    -8.17271E+06    -339.945E-03     625.216E-03    -285.271E-03     126.104E-03    -341.136E-03     626.253E-03    -284.775E-03     114.462E-03
            1280     698.058E-06     187.960E-03    -205.201E+06    -215.231E+06    -201.873E+06     3.50410E+06    -254.061E-03     507.547E-03    -253.486E-03     14.0598E-03    -254.475E-03     507.053E-03    -253.886E-03     15.1590E-03
            1281     1.39654E-03     187.982E-03    -197.303E+06    -202.596E+06    -184.537E+06     5.81570E+06    -254.099E-03     507.897E-03    -253.798E-03     25.7910E-03    -254.502E-03     507.413E-03    -254.141E-03     27.7595E-03
            1282     2.09427E-03     188.022E-03    -185.588E+06    -184.357E+06    -159.078E+06     7.22615E+06    -254.894E-03     508.852E-03    -253.958E-03     38.0894E-03    -255.276E-03     508.380E-03    -254.217E-03     40.9464E-03
            1283     2.79221E-03     188.076E-03    -171.212E+06    -164.167E+06    -129.140E+06     7.17171E+06    -256.173E-03     510.414E-03    -254.240E-03     50.3866E-03    -256.522E-03     509.945E-03    -254.400E-03     54.0600E-03
            1284     3.48916E-03     188.148E-03    -155.828E+06    -144.147E+06    -99.8607E+06     5.06197E+06    -258.097E-03     512.740E-03    -254.643E-03     62.3782E-03    -258.402E-03     512.269E-03    -254.707E-03     66.7425E-03
            1285     4.18558E-03     188.236E-03    -140.427E+06    -125.764E+06    -74.3972E+06     1.55373E+06    -260.907E-03     516.101E-03    -255.195E-03     73.7137E-03    -261.159E-03     515.624E-03    -255.181E-03     78.6403E-03
            1286     4.87998E-03     188.342E-03     -126.03E+06    -108.704E+06    -52.9397E+06    -2.35801E+06    -264.804E-03     520.754E-03    -255.951E-03     84.3282E-03    -265.003E-03     520.274E-03    -255.875E-03     89.6884E-03
            1287     5.57228E-03     188.466E-03    -113.019E+06    -92.4840E+06    -34.5986E+06    -6.63867E+06    -269.864E-03     526.826E-03    -256.962E-03     94.1164E-03    -270.019E-03     526.352E-03    -256.837E-03     99.7354E-03
            1288     6.26113E-03     188.609E-03    -101.460E+06    -76.5060E+06    -18.6273E+06    -11.0258E+06    -276.050E-03     534.315E-03    -258.265E-03     103.071E-03    -276.175E-03     533.864E-03    -258.100E-03     108.735E-03
            1289     6.94609E-03     188.770E-03    -90.8455E+06    -59.0701E+06    -3.87188E+06    -16.2783E+06    -283.397E-03     543.281E-03    -259.884E-03     111.157E-03    -283.515E-03     542.880E-03    -259.686E-03     116.613E-03
            1290     7.62594E-03     188.951E-03    -80.3634E+06    -40.7670E+06     9.73125E+06    -21.4826E+06    -291.754E-03     553.586E-03    -261.832E-03     118.049E-03    -291.885E-03     553.261E-03    -261.607E-03     123.009E-03
            1291     8.30044E-03     189.147E-03    -69.4589E+06    -18.8648E+06     23.9243E+06    -25.5140E+06    -300.835E-03     564.942E-03    -264.108E-03     123.612E-03    -301.007E-03     564.734E-03    -263.860E-03     127.782E-03
            1292     8.96867E-03     189.360E-03    -56.7458E+06     7.05411E+06     39.5397E+06    -28.9671E+06    -310.526E-03     577.223E-03    -266.697E-03     127.813E-03    -310.764E-03     577.174E-03    -266.428E-03     130.856E-03
            1293     9.63118E-03     189.583E-03    -43.1133E+06     30.2251E+06     54.9163E+06    -28.0297E+06    -320.561E-03     590.144E-03    -269.583E-03     130.263E-03    -320.886E-03     590.268E-03    -269.290E-03     131.842E-03
            1294     10.2856E-03     189.815E-03    -29.8809E+06     55.8207E+06     69.9544E+06    -21.1952E+06    -329.790E-03     602.494E-03    -272.704E-03     130.866E-03    -330.243E-03     602.839E-03    -272.392E-03     130.539E-03
            1295     10.9341E-03     190.048E-03    -17.6323E+06     85.1983E+06     87.8357E+06    -15.6198E+06    -336.874E-03     612.835E-03    -275.961E-03     129.938E-03    -337.506E-03     613.455E-03    -275.620E-03     127.086E-03
            1296     11.5789E-03     190.280E-03    -10.1145E+06     87.4230E+06     101.107E+06    -12.4340E+06    -341.337E-03     620.566E-03    -279.229E-03     127.960E-03    -342.163E-03     621.375E-03    -278.836E-03     121.988E-03
            1297     12.2225E-03     190.509E-03    -7.36292E+06     56.6632E+06     103.964E+06    -8.35524E+06    -342.465E-03     624.799E-03    -282.334E-03     130.282E-03    -343.583E-03     625.791E-03    -281.886E-03     119.950E-03
            1298     12.8639E-03     190.746E-03    -5.02781E+06     40.5808E+06     115.801E+06    -5.37006E+06    -341.195E-03     626.375E-03    -285.180E-03     123.528E-03    -342.275E-03     627.246E-03    -284.653E-03     112.698E-03
            1299     701.460E-06     189.525E-03    -292.849E+06    -207.451E+06    -289.837E+06    -7.54981E+06    -250.169E-03     499.854E-03    -249.685E-03     11.4026E-03    -250.906E-03     499.655E-03    -250.409E-03     12.5890E-03
            1300     1.40248E-03     189.550E-03    -280.189E+06    -194.973E+06    -269.100E+06    -13.4866E+06    -250.595E-03     500.644E-03    -250.049E-03     21.4577E-03    -251.303E-03     500.446E-03    -250.706E-03     23.6070E-03
            1301     2.10368E-03     189.590E-03    -261.130E+06    -176.711E+06    -238.241E+06    -19.1126E+06    -251.769E-03     502.165E-03    -250.396E-03     31.6908E-03    -252.432E-03     501.964E-03    -250.952E-03     34.8665E-03
            1302     2.80351E-03     189.648E-03    -237.035E+06    -155.632E+06    -201.386E+06    -23.9781E+06    -253.675E-03     504.597E-03    -250.922E-03     41.9108E-03    -254.271E-03     504.383E-03    -251.360E-03     46.0948E-03
            1303     3.50243E-03     189.723E-03    -209.839E+06    -135.934E+06    -162.609E+06    -27.5556E+06    -256.485E-03     508.142E-03    -251.658E-03     51.8730E-03    -256.995E-03     507.897E-03    -251.970E-03     57.0105E-03
            1304     4.19894E-03     189.818E-03    -182.477E+06    -118.807E+06    -126.144E+06    -29.7188E+06    -260.328E-03     512.957E-03    -252.630E-03     61.2447E-03    -260.743E-03     512.669E-03    -252.823E-03     67.2472E-03
            1305     4.89321E-03     189.930E-03    -155.713E+06    -100.697E+06    -92.5629E+06    -31.4707E+06    -265.222E-03     519.086E-03    -253.864E-03     69.9800E-03    -265.544E-03     518.767E-03    -253.955E-03     76.7074E-03
            1306     5.58374E-03     190.065E-03    -129.830E+06    -86.1363E+06    -62.5267E+06    -32.5059E+06    -271.072E-03     526.451E-03    -255.380E-03     77.9920E-03    -271.300E-03     526.095E-03    -255.379E-03     85.2469E-03
            1307     6.27069E-03     190.218E-03    -106.006E+06    -71.1154E+06    -36.0401E+06    -32.4672E+06    -277.851E-03     535.029E-03    -257.178E-03     85.2726E-03    -278.000E-03     534.655E-03    -257.101E-03     92.8130E-03
            1308     6.95309E-03     190.395E-03    -84.6068E+06    -51.4801E+06    -11.5377E+06    -31.7258E+06    -285.340E-03     544.596E-03    -259.256E-03     91.7955E-03    -285.440E-03     544.247E-03    -259.117E-03     99.3109E-03
            1309     7.63068E-03     190.590E-03    -66.6374E+06    -32.3844E+06     10.0143E+06    -31.5245E+06    -293.392E-03     554.992E-03    -261.600E-03     97.7374E-03    -293.470E-03     554.691E-03    -261.407E-03     104.863E-03
            1310     8.30259E-03     190.805E-03    -51.3445E+06      -7.214E+06     29.4845E+06    -33.5206E+06    -301.939E-03     566.123E-03    -264.184E-03     103.083E-03    -302.032E-03     565.925E-03    -263.952E-03     109.404E-03
            1311     8.96919E-03     191.035E-03    -40.0745E+06     12.5058E+06     44.7374E+06    -33.8672E+06    -310.772E-03     577.763E-03    -266.991E-03     107.749E-03    -310.908E-03     577.674E-03    -266.727E-03     112.883E-03
            1312     9.62894E-03     191.280E-03    -33.1030E+06     24.5589E+06     56.2722E+06    -31.0161E+06    -319.430E-03     589.415E-03    -269.985E-03     112.051E-03    -319.639E-03     589.434E-03    -269.691E-03     115.579E-03
            1313     10.2836E-03     191.533E-03    -28.0639E+06     42.2598E+06     67.8763E+06    -28.0797E+06    -327.507E-03     600.611E-03    -273.104E-03     116.063E-03    -327.841E-03     600.802E-03    -272.785E-03     117.448E-03
            1314     10.9331E-03     191.787E-03    -24.1715E+06     68.0626E+06     85.8925E+06    -21.0386E+06    -334.737E-03     611.052E-03    -276.315E-03     118.960E-03    -335.266E-03     611.491E-03    -275.949E-03     117.678E-03
            1315     11.5776E-03     192.035E-03    -19.4690E+06     72.8459E+06     97.5419E+06    -11.6003E+06    -339.898E-03     619.414E-03    -279.516E-03     119.811E-03    -340.624E-03     620.049E-03    -279.106E-03     115.343E-03
            1316     12.2179E-03     192.273E-03    -12.3191E+06     49.4051E+06     104.209E+06    -6.49580E+06    -341.294E-03     623.873E-03    -282.580E-03     122.786E-03    -342.283E-03     624.694E-03    -282.113E-03     113.825E-03
            1317     12.8624E-03     192.505E-03    -3.94250E+06     33.9303E+06     123.794E+06    -2.99711E+06    -337.786E-03     623.143E-03    -285.356E-03     119.535E-03    -338.779E-03     623.883E-03    -284.781E-03     109.477E-03
            1318     701.147E-06     191.084E-03    -269.519E+06    -160.816E+06    -265.831E+06    -15.5599E+06    -251.942E-03     503.911E-03    -251.969E-03     4.12580E-03    -252.674E-03     503.880E-03    -252.674E-03     5.06968E-03
            1319     1.40224E-03     191.110E-03    -261.572E+06    -150.355E+06    -249.664E+06    -28.6152E+06    -252.777E-03     504.986E-03    -252.209E-03     7.95718E-03    -253.508E-03     504.973E-03    -252.860E-03     9.77810E-03
            1320     2.10194E-03     191.153E-03    -249.694E+06    -136.312E+06    -226.475E+06    -41.2458E+06    -254.009E-03     506.734E-03    -252.726E-03     11.8137E-03    -254.736E-03     506.742E-03    -253.298E-03     14.5730E-03
            1321     2.80118E-03     191.214E-03    -234.279E+06    -121.181E+06    -198.926E+06    -52.0189E+06    -255.945E-03     509.398E-03    -253.453E-03     15.7847E-03    -256.659E-03     509.420E-03    -253.932E-03     19.5082E-03
            1322     3.49816E-03     191.295E-03    -215.836E+06    -108.709E+06    -169.209E+06    -60.3689E+06    -258.643E-03     513.064E-03    -254.421E-03     19.8906E-03    -259.328E-03     513.081E-03    -254.797E-03     24.6075E-03
            1323     4.19311E-03     191.396E-03    -194.646E+06    -97.8261E+06    -139.034E+06    -66.7492E+06    -262.183E-03     517.826E-03    -255.642E-03     24.3544E-03    -262.824E-03     517.825E-03    -255.913E-03     30.0819E-03
            1324     4.88424E-03     191.520E-03    -171.421E+06    -85.7839E+06    -109.591E+06    -70.8587E+06    -266.566E-03     523.684E-03    -257.118E-03     29.2357E-03    -267.153E-03     523.670E-03    -257.293E-03     35.9512E-03
            1325     5.57212E-03     191.663E-03    -147.921E+06    -77.6401E+06    -82.4672E+06    -72.9863E+06    -271.821E-03     530.675E-03    -258.854E-03     34.4535E-03    -272.342E-03     530.631E-03    -258.939E-03     42.0692E-03
            1326     6.25526E-03     191.831E-03    -124.626E+06    -69.7781E+06    -57.9019E+06    -73.0327E+06    -277.793E-03     538.630E-03    -260.838E-03     40.1487E-03    -278.242E-03     538.556E-03    -260.845E-03     48.4967E-03
            1327     6.93349E-03     192.019E-03    -102.552E+06    -58.2200E+06    -34.8933E+06    -69.9950E+06    -284.258E-03     547.300E-03    -263.042E-03     46.2443E-03    -284.640E-03     547.212E-03    -262.984E-03     55.0812E-03
            1328     7.60705E-03     192.230E-03    -82.5241E+06    -40.3415E+06    -11.3073E+06    -64.6434E+06    -291.106E-03     556.549E-03    -265.443E-03     52.6308E-03    -291.437E-03     556.477E-03    -265.321E-03     61.6369E-03
            1329     8.27622E-03     192.460E-03    -66.3503E+06    -13.9443E+06     14.0888E+06    -57.7264E+06    -298.113E-03     566.122E-03    -268.008E-03     59.3041E-03    -298.425E-03     566.109E-03    -267.821E-03     68.0115E-03
            1330     8.93997E-03     192.708E-03    -54.1398E+06    -2.30023E+06     37.6508E+06    -48.0906E+06    -304.983E-03     575.686E-03    -270.704E-03     66.6587E-03    -305.271E-03     575.668E-03    -270.434E-03     74.4721E-03
            1331     9.60042E-03     192.969E-03    -43.7046E+06     10.8645E+06     57.2782E+06    -38.1309E+06    -311.308E-03     584.737E-03    -273.429E-03     74.4559E-03    -311.593E-03     584.743E-03    -273.095E-03     80.6400E-03
            1332     10.2579E-03     193.238E-03    -35.5301E+06     31.0263E+06     77.3823E+06    -28.9847E+06    -317.089E-03     593.234E-03    -276.145E-03     82.0594E-03    -317.428E-03     593.337E-03    -275.751E-03     85.8653E-03
            1333     10.9119E-03     193.511E-03    -28.3780E+06     41.7365E+06     94.4694E+06    -18.4112E+06    -322.241E-03     601.054E-03    -278.813E-03     89.9803E-03    -322.676E-03     601.269E-03    -278.360E-03     90.7212E-03
            1334     11.5619E-03     193.779E-03    -21.0110E+06     58.2829E+06     102.428E+06    -10.8170E+06    -326.375E-03     607.708E-03    -281.333E-03     98.0901E-03    -326.968E-03     608.142E-03    -280.875E-03     95.2522E-03
            1335     12.2109E-03     194.027E-03    -14.1960E+06     44.7482E+06     111.078E+06    -8.20135E+06    -328.639E-03     612.380E-03    -283.741E-03     107.806E-03    -329.444E-03     612.975E-03    -283.230E-03     100.961E-03
            1336     12.8553E-03     194.264E-03    -7.24619E+06     22.2273E+06     129.698E+06    -4.78680E+06    -325.053E-03     610.952E-03    -285.899E-03     109.817E-03    -325.883E-03     611.460E-03    -285.272E-03     101.640E-03
            1337     693.015E-06     192.664E-03    -151.781E+06    -96.3127E+06    -148.564E+06    -15.6914E+06    -266.420E-03     533.002E-03    -266.582E-03    -10.3148E-03    -266.856E-03     532.936E-03    -266.965E-03    -9.81576E-03
            1338     1.38483E-03     192.691E-03    -146.673E+06    -87.8397E+06    -135.843E+06    -28.3843E+06    -266.966E-03     533.939E-03    -266.973E-03    -19.3978E-03    -267.419E-03     533.901E-03    -267.312E-03    -18.4668E-03
            1339     2.07664E-03     192.736E-03    -139.385E+06    -78.9175E+06    -117.331E+06    -40.4135E+06    -267.571E-03     535.218E-03    -267.648E-03    -28.5130E-03    -268.046E-03     535.206E-03    -267.918E-03    -27.1116E-03
            1340     2.76606E-03     192.801E-03    -130.841E+06    -70.5403E+06    -97.4908E+06    -50.6394E+06    -268.251E-03     536.765E-03    -268.514E-03    -37.4198E-03    -268.752E-03     536.781E-03    -268.710E-03    -35.4878E-03
            1341     3.45426E-03     192.885E-03    -121.969E+06    -63.4796E+06    -78.7982E+06    -59.3949E+06    -268.919E-03     538.464E-03    -269.545E-03    -45.5550E-03    -269.452E-03     538.516E-03    -269.670E-03    -42.9743E-03
            1342     4.13983E-03     192.992E-03    -113.643E+06    -57.9436E+06    -62.1546E+06    -66.7666E+06    -269.550E-03     540.267E-03    -270.717E-03    -52.5382E-03    -270.125E-03     540.365E-03    -270.779E-03    -49.1810E-03
            1343     4.82396E-03     193.120E-03    -106.830E+06    -54.1476E+06    -48.2022E+06    -72.2094E+06    -270.207E-03     542.219E-03    -272.012E-03    -57.8484E-03    -270.835E-03     542.373E-03    -272.020E-03    -53.5867E-03
            1344     5.50475E-03     193.273E-03    -101.273E+06    -51.6265E+06    -36.0904E+06    -75.8562E+06    -271.109E-03     544.534E-03    -273.425E-03    -60.8203E-03    -271.800E-03     544.752E-03    -273.384E-03    -55.5672E-03
            1345     6.18274E-03     193.448E-03    -96.9910E+06    -50.7057E+06    -25.3013E+06    -78.1928E+06    -272.289E-03     547.236E-03    -274.947E-03    -61.2848E-03    -273.045E-03     547.513E-03    -274.859E-03    -55.0421E-03
            1346     6.85817E-03     193.647E-03    -93.4060E+06    -48.7224E+06    -14.8365E+06    -79.3223E+06    -273.832E-03     550.384E-03    -276.552E-03    -58.9544E-03    -274.646E-03     550.718E-03    -276.420E-03    -51.8011E-03
            1347     7.52991E-03     193.868E-03    -89.3438E+06    -40.9282E+06    -2.35868E+06     -77.954E+06    -275.792E-03     554.003E-03    -278.211E-03    -53.4006E-03    -276.645E-03     554.394E-03    -278.034E-03    -45.5301E-03
            1348     8.19779E-03     194.110E-03    -83.7851E+06    -26.8602E+06     15.1338E+06    -72.5401E+06    -277.992E-03     557.873E-03    -279.881E-03    -44.3192E-03    -278.859E-03     558.307E-03    -279.645E-03    -36.0335E-03
            1349     8.86392E-03     194.368E-03    -74.3404E+06    -22.1027E+06     35.6141E+06    -64.4848E+06    -280.245E-03     561.738E-03    -281.493E-03    -31.5872E-03    -281.058E-03     562.119E-03    -281.175E-03    -23.3699E-03
            1350     9.52745E-03     194.641E-03    -62.3021E+06    -13.7674E+06     54.7873E+06    -55.2633E+06    -282.607E-03     565.536E-03    -282.929E-03    -14.2617E-03    -283.318E-03     565.842E-03    -282.545E-03    -6.72093E-03
            1351     10.1882E-03     194.922E-03    -48.8721E+06    -1.22974E+06     74.9261E+06    -42.5359E+06    -285.472E-03     569.613E-03    -284.141E-03     8.43389E-03    -286.058E-03     569.835E-03    -283.694E-03     14.7586E-03
            1352     10.8483E-03     195.206E-03    -33.8433E+06     9.10263E+06     93.3987E+06    -29.0301E+06    -288.981E-03     574.095E-03    -285.114E-03     34.5820E-03    -289.438E-03     574.223E-03    -284.611E-03     38.9673E-03
            1353     11.5123E-03     195.481E-03    -19.7461E+06     39.4434E+06     113.709E+06    -19.8207E+06    -293.649E-03     579.548E-03    -285.899E-03     60.7577E-03    -294.078E-03     579.738E-03    -285.359E-03     62.2405E-03
            1354     12.1755E-03     195.747E-03    -9.01462E+06     30.4181E+06     127.465E+06    -8.05573E+06    -297.985E-03     584.608E-03    -286.623E-03     83.5368E-03    -298.478E-03     584.821E-03    -286.017E-03     81.0802E-03
            1355     12.8445E-03     195.985E-03    -2.59598E+06     11.9621E+06     135.665E+06     1.08365E+06    -296.160E-03     583.333E-03    -287.173E-03     93.1307E-03    -296.679E-03     583.497E-03    -286.508E-03     88.6660E-03
            1356     670.082E-06     194.316E-03    -29.4854E+06    -39.5473E+06    -27.3444E+06    -10.6293E+06    -302.215E-03     604.884E-03    -302.669E-03    -34.3424E-03    -302.374E-03     604.649E-03    -302.706E-03    -34.6268E-03
            1357     1.34017E-03     194.344E-03    -29.1631E+06    -34.9633E+06    -19.6761E+06    -18.2296E+06    -301.516E-03     604.781E-03    -303.264E-03    -63.6088E-03    -301.681E-03     604.548E-03    -303.270E-03    -64.0554E-03
            1358     2.00791E-03     194.391E-03    -27.9198E+06    -30.9471E+06    -7.72241E+06    -24.8740E+06    -300.033E-03     603.977E-03    -303.943E-03    -93.7029E-03    -300.199E-03     603.734E-03    -303.897E-03    -94.3058E-03
            1359     2.67532E-03     194.456E-03    -26.5739E+06    -27.0829E+06     5.30989E+06    -30.2973E+06    -297.481E-03     602.203E-03    -304.722E-03    -123.019E-03    -297.655E-03     601.953E-03    -304.618E-03    -123.646E-03
            1360     3.34085E-03     194.541E-03    -25.7780E+06    -23.8856E+06     17.7347E+06    -34.3563E+06    -293.754E-03     599.297E-03    -305.543E-03    -150.935E-03    -293.945E-03     599.050E-03    -305.382E-03    -151.421E-03
            1361     4.00576E-03     194.646E-03    -25.6378E+06    -21.9158E+06     28.9841E+06    -37.2100E+06    -288.728E-03     595.085E-03    -306.358E-03    -176.755E-03    -288.954E-03     594.858E-03    -306.144E-03    -176.941E-03
            1362     4.66889E-03     194.772E-03    -26.0863E+06    -20.8999E+06     39.0875E+06    -39.2047E+06    -282.380E-03     589.499E-03    -307.119E-03    -199.859E-03    -282.663E-03     589.313E-03    -306.855E-03    -199.601E-03
            1363     5.33235E-03     194.919E-03    -27.1195E+06    -20.7043E+06     48.2785E+06    -40.2723E+06    -274.688E-03     582.467E-03    -307.779E-03    -219.371E-03    -275.052E-03     582.345E-03    -307.468E-03    -218.529E-03
            1364     5.99579E-03     195.091E-03    -28.1214E+06    -21.4865E+06     57.1284E+06    -40.8625E+06    -265.970E-03     574.263E-03    -308.294E-03    -234.530E-03    -266.428E-03     574.226E-03    -307.936E-03    -233.023E-03
            1365     6.65887E-03     195.284E-03    -28.6970E+06    -21.4561E+06     66.1656E+06    -41.1433E+06    -256.451E-03     565.057E-03    -308.606E-03    -244.133E-03    -257.008E-03     565.118E-03    -308.203E-03    -241.958E-03
            1366     7.32350E-03     195.501E-03    -28.9289E+06    -19.7529E+06     74.8203E+06    -41.2276E+06    -246.297E-03     554.928E-03    -308.631E-03    -246.804E-03    -246.942E-03     555.089E-03    -308.186E-03    -244.016E-03
            1367     7.99137E-03     195.737E-03    -28.6148E+06    -16.8055E+06     82.5179E+06    -40.2976E+06    -236.030E-03     544.298E-03    -308.268E-03    -241.536E-03    -236.732E-03     544.545E-03    -307.790E-03    -238.224E-03
            1368     8.66192E-03     195.993E-03    -29.3810E+06    -15.1679E+06     88.4745E+06    -38.5467E+06    -226.235E-03     533.659E-03    -307.425E-03    -227.716E-03    -226.951E-03     533.948E-03    -306.918E-03    -224.033E-03
            1369     9.33895E-03     196.260E-03    -30.8545E+06    -15.0697E+06     93.4401E+06    -36.4775E+06    -217.449E-03     523.476E-03    -306.028E-03    -205.091E-03    -218.128E-03     523.738E-03    -305.494E-03    -201.214E-03
            1370     10.0263E-03     196.540E-03    -31.4560E+06    -13.9013E+06     98.3090E+06    -34.4492E+06    -210.455E-03     514.527E-03    -304.072E-03    -174.532E-03    -211.032E-03     514.692E-03    -303.514E-03    -170.666E-03
            1371     10.7230E-03     196.827E-03    -30.7098E+06    -10.3340E+06     104.949E+06    -29.9376E+06    -206.884E-03     508.541E-03    -301.657E-03    -138.006E-03    -207.309E-03     508.574E-03    -301.072E-03    -134.512E-03
            1372     11.4206E-03     197.116E-03    -24.4240E+06     14.3413E+06     124.172E+06    -22.5604E+06    -207.116E-03     506.022E-03    -298.906E-03    -94.3296E-03    -207.421E-03     506.024E-03    -298.271E-03    -92.0132E-03
            1373     12.1185E-03     197.398E-03    -14.1799E+06     3.30863E+06     128.604E+06    -9.45152E+06    -208.714E-03     504.428E-03    -295.714E-03    -40.1349E-03    -208.920E-03     504.347E-03    -295.055E-03    -40.4121E-03
            1374     12.8104E-03     197.646E-03    -2.88576E+06     1.17186E+06     115.780E+06      294.08E+03    -205.737E-03     497.515E-03    -291.778E-03     18.3885E-03    -205.923E-03     497.465E-03    -291.197E-03     16.6843E-03
            1375     12.7348E-03     98.4867E-03    -3.05007E+06     29.6700E+06     58.6879E+06     40.7414E+03    -298.117E-03     593.347E-03    -295.229E-03     107.260E-03    -299.261E-03     594.414E-03    -294.974E-03     94.8892E-03
            1376     12.0629E-03     98.2910E-03    -6.45031E+06     27.6572E+06     56.0779E+06     41.8482E+03    -298.451E-03     593.693E-03    -295.242E-03     117.169E-03    -299.847E-03     595.002E-03    -294.992E-03     102.974E-03
            1377     11.3901E-03     98.1072E-03    -10.4709E+06     22.9571E+06     52.3651E+06     204.675E+03    -298.361E-03     593.620E-03    -295.258E-03     113.550E-03    -299.643E-03     594.794E-03    -295.015E-03     100.242E-03
            1378     10.7211E-03     97.9188E-03    -14.3788E+06     19.2361E+06     50.4060E+06     481.135E+03    -298.444E-03     593.721E-03    -295.276E-03     111.551E-03    -299.682E-03     594.830E-03    -295.031E-03     98.7331E-03
            1379     10.0504E-03     97.7396E-03    -18.4862E+06     15.2403E+06     48.5284E+06     634.327E+03    -298.240E-03     593.531E-03    -295.291E-03     107.107E-03    -299.366E-03     594.505E-03    -295.044E-03     95.3199E-03
            1380     9.38030E-03     97.5666E-03    -22.8221E+06     9.98219E+06     44.3599E+06     523.498E+03    -297.982E-03     593.279E-03    -295.298E-03     101.349E-03    -298.971E-03     594.095E-03    -295.057E-03     90.8173E-03
            1381     8.71042E-03     97.4037E-03    -27.5817E+06     3.83954E+06     37.8690E+06     553.600E+03    -297.672E-03     592.966E-03    -295.294E-03     94.5036E-03    -298.521E-03     593.621E-03    -295.070E-03     85.3047E-03
            1382     8.04052E-03     97.2515E-03    -32.6281E+06    -2.66607E+06     29.4782E+06     878.716E+03    -297.278E-03     592.562E-03    -295.284E-03     87.1037E-03    -297.997E-03     593.070E-03    -295.085E-03     79.2312E-03
            1383     7.37008E-03     97.1112E-03    -37.5813E+06    -9.86777E+06     20.1117E+06     965.744E+03    -296.832E-03     592.109E-03    -295.277E-03     79.3585E-03    -297.436E-03     592.486E-03    -295.108E-03     72.7175E-03
            1384     6.69983E-03     96.9826E-03    -42.8733E+06    -27.1784E+06     8.34569E+06     906.330E+03    -296.498E-03     591.778E-03    -295.281E-03     71.5727E-03    -296.989E-03     591.997E-03    -295.137E-03     66.0489E-03
            1385     6.02954E-03     96.8676E-03    -48.0202E+06    -43.6665E+06    -2.58606E+06     940.700E+03    -296.327E-03     591.610E-03    -295.283E-03     63.7592E-03    -296.726E-03     591.691E-03    -295.163E-03     59.2308E-03
            1386     5.35968E-03     96.7636E-03    -52.9179E+06    -50.0653E+06    -11.1913E+06     800.984E+03    -296.113E-03     591.386E-03    -295.272E-03     56.0293E-03    -296.452E-03     591.392E-03    -295.179E-03     52.3622E-03
            1387     4.68988E-03     96.6738E-03    -58.3747E+06    -57.3804E+06    -21.2314E+06     543.369E+03    -295.828E-03     591.082E-03    -295.254E-03     48.6400E-03    -296.122E-03     591.027E-03    -295.193E-03     45.7039E-03
            1388     4.01963E-03     96.5953E-03    -64.1101E+06    -65.2180E+06    -32.2351E+06     730.688E+03    -295.567E-03     590.806E-03    -295.240E-03     41.4054E-03    -295.825E-03     590.699E-03    -295.213E-03     39.1028E-03
            1389     3.34937E-03     96.5303E-03    -69.1603E+06    -72.7926E+06    -43.4368E+06     936.500E+03    -295.399E-03     590.627E-03    -295.228E-03     34.1725E-03    -295.628E-03     590.478E-03    -295.240E-03     32.4079E-03
            1390     2.67944E-03     96.4762E-03    -73.5278E+06    -80.3006E+06    -55.1978E+06     643.604E+03    -295.343E-03     590.550E-03    -295.207E-03     27.1829E-03    -295.546E-03     590.366E-03    -295.260E-03     25.8694E-03
            1391     2.00981E-03     96.4351E-03    -77.8146E+06    -87.9719E+06    -67.1133E+06     214.062E+03    -295.303E-03     590.468E-03    -295.166E-03     20.3900E-03    -295.484E-03     590.255E-03    -295.261E-03     19.4719E-03
            1392     1.33993E-03     96.4053E-03    -81.0432E+06    -93.9589E+06    -76.1893E+06    -121.114E+03    -295.243E-03     590.350E-03    -295.108E-03     13.6393E-03    -295.409E-03     590.116E-03    -295.235E-03     13.0431E-03
            1393     670.254E-06     96.3867E-03    -83.4249E+06    -98.1292E+06    -82.1861E+06    -208.148E+03    -294.993E-03     590.151E-03    -295.157E-03     7.43639E-03    -295.151E-03     589.903E-03    -295.305E-03     7.13470E-03
            1394     12.7288E-03     96.7748E-03    -2.61998E+06     29.3050E+06     58.6028E+06     478.706E+03    -297.708E-03     592.963E-03    -295.255E-03     108.531E-03    -298.847E-03     594.027E-03    -295.001E-03     96.3091E-03
            1395     12.0595E-03     96.5807E-03    -6.33398E+06     27.5274E+06     55.4908E+06     421.149E+03    -298.974E-03     594.241E-03    -295.267E-03     117.395E-03    -300.372E-03     595.553E-03    -295.021E-03     103.175E-03
            1396     11.3923E-03     96.3950E-03    -10.3188E+06     22.9003E+06     51.9185E+06     395.177E+03    -298.801E-03     594.059E-03    -295.258E-03     113.469E-03    -300.089E-03     595.241E-03    -295.017E-03     100.066E-03
            1397     10.7211E-03     96.2097E-03    -14.3342E+06     19.0115E+06     49.9186E+06     169.882E+03    -298.372E-03     593.638E-03    -295.265E-03     111.924E-03    -299.618E-03     594.756E-03    -295.023E-03     99.0314E-03
            1398     10.0509E-03     96.0290E-03    -18.2863E+06     15.1419E+06     48.0650E+06    -44.6390E+03    -298.159E-03     593.445E-03    -295.285E-03     107.119E-03    -299.284E-03     594.419E-03    -295.040E-03     95.3228E-03
            1399     9.38076E-03     95.8559E-03    -22.5226E+06     9.84938E+06     43.8441E+06    -92.0475E+03    -297.903E-03     593.199E-03    -295.296E-03     101.208E-03    -298.890E-03     594.014E-03    -295.059E-03     90.6633E-03
            1400     8.71034E-03     95.6931E-03    -27.4231E+06     2.93302E+06     37.2153E+06     200.993E+03    -297.584E-03     592.883E-03    -295.300E-03     94.5213E-03    -298.430E-03     593.535E-03    -295.078E-03     85.3195E-03
            1401     8.03989E-03     95.5407E-03    -32.0731E+06    -3.67613E+06     29.4152E+06     537.649E+03    -297.270E-03     592.567E-03    -295.297E-03     87.1586E-03    -297.986E-03     593.071E-03    -295.098E-03     79.2684E-03
            1402     7.37009E-03     95.4005E-03    -36.9172E+06    -10.0501E+06     20.8249E+06     953.205E+03    -296.919E-03     592.209E-03    -295.290E-03     79.3841E-03    -297.521E-03     592.584E-03    -295.118E-03     72.7251E-03
            1403     6.69980E-03     95.2729E-03    -42.0838E+06    -26.7193E+06     9.18367E+06     1.15479E+06    -296.638E-03     591.921E-03    -295.283E-03     71.5263E-03    -297.128E-03     592.140E-03    -295.137E-03     66.0114E-03
            1404     6.02988E-03     95.1562E-03    -47.0847E+06    -43.2252E+06    -1.93279E+06     924.686E+03    -296.320E-03     591.597E-03    -295.278E-03     63.7463E-03    -296.715E-03     591.677E-03    -295.156E-03     59.2324E-03
            1405     5.35975E-03     95.0535E-03    -52.6713E+06    -50.1175E+06    -10.7666E+06     943.762E+03    -295.974E-03     591.251E-03    -295.277E-03     56.1842E-03    -296.313E-03     591.256E-03    -295.182E-03     52.5158E-03
            1406     4.68936E-03     94.9628E-03    -58.1841E+06    -57.1729E+06    -20.3695E+06     1.31910E+06    -295.783E-03     591.058E-03    -295.275E-03     48.7233E-03    -296.078E-03     591.002E-03    -295.209E-03     45.7980E-03
            1407     4.01944E-03     94.8852E-03    -63.2625E+06    -64.2866E+06    -30.8027E+06     960.237E+03    -295.621E-03     590.883E-03    -295.262E-03     41.2190E-03    -295.878E-03     590.776E-03    -295.231E-03     38.9238E-03
            1408     3.34967E-03     94.8190E-03    -68.5158E+06    -72.0898E+06    -42.6011E+06     299.711E+03    -295.435E-03     590.677E-03    -295.242E-03     34.0092E-03    -295.662E-03     590.529E-03    -295.251E-03     32.2503E-03
            1409     2.67972E-03     94.7659E-03    -73.5232E+06    -80.1071E+06    -55.0041E+06     350.947E+03    -295.324E-03     590.544E-03    -295.220E-03     27.0806E-03    -295.527E-03     590.360E-03    -295.272E-03     25.7746E-03
            1410     2.00940E-03     94.7239E-03    -77.4449E+06    -87.1323E+06    -66.0331E+06     545.757E+03    -295.261E-03     590.457E-03    -295.196E-03     20.2666E-03    -295.443E-03     590.247E-03    -295.288E-03     19.3346E-03
            1411     1.33975E-03     94.6942E-03    -80.8238E+06    -93.3901E+06    -75.6430E+06     539.451E+03    -295.217E-03     590.384E-03    -295.168E-03     13.6912E-03    -295.383E-03     590.152E-03    -295.293E-03     13.0859E-03
            1412     669.669E-06     94.6766E-03    -83.7763E+06    -97.7498E+06    -81.5529E+06     475.168E+03    -295.211E-03     590.309E-03    -295.098E-03     7.38461E-03    -295.373E-03     590.063E-03    -295.242E-03     7.03064E-03
            1413     12.7328E-03     95.0681E-03    -2.91286E+06     28.7504E+06     58.1766E+06     575.656E+03    -298.127E-03     593.375E-03    -295.248E-03     107.062E-03    -299.255E-03     594.425E-03    -294.994E-03     94.8408E-03
            1414     12.0622E-03     94.8666E-03    -6.60576E+06     27.0580E+06     54.9906E+06     425.963E+03    -298.608E-03     593.861E-03    -295.253E-03     116.402E-03    -299.994E-03     595.160E-03    -295.007E-03     102.234E-03
            1415     11.3903E-03     94.6847E-03    -9.73923E+06     23.0806E+06     51.5964E+06     351.419E+03    -298.507E-03     593.764E-03    -295.257E-03     113.077E-03    -299.788E-03     594.943E-03    -295.018E-03     99.6943E-03
            1416     10.7208E-03     94.4990E-03    -13.1642E+06     19.6626E+06     49.4865E+06     385.219E+03    -298.486E-03     593.753E-03    -295.267E-03     111.983E-03    -299.728E-03     594.874E-03    -295.029E-03     99.0832E-03
            1417     10.0508E-03     94.3177E-03    -17.4734E+06     15.5317E+06     47.5436E+06     74.6270E+03    -298.187E-03     593.472E-03    -295.284E-03     107.369E-03    -299.311E-03     594.450E-03    -295.044E-03     95.5524E-03
            1418     9.38043E-03     94.1461E-03    -22.1841E+06     9.31781E+06     43.5269E+06         781.313    -297.880E-03     593.180E-03    -295.300E-03     101.477E-03    -298.866E-03     593.994E-03    -295.064E-03     90.9318E-03
            1419     8.71021E-03     93.9823E-03    -27.0029E+06     2.30991E+06     37.1615E+06     93.7559E+03    -297.610E-03     592.916E-03    -295.306E-03     94.5559E-03    -298.453E-03     593.564E-03    -295.085E-03     85.3523E-03
            1420     8.04032E-03     93.8304E-03    -32.3647E+06    -4.38653E+06     28.5438E+06     219.363E+03    -297.243E-03     592.544E-03    -295.301E-03     86.9636E-03    -297.957E-03     593.045E-03    -295.105E-03     79.0802E-03
            1421     7.36969E-03     93.6898E-03    -37.5128E+06    -10.9646E+06     19.4604E+06     381.332E+03    -296.944E-03     592.236E-03    -295.293E-03     79.3113E-03    -297.544E-03     592.609E-03    -295.125E-03     72.6593E-03
            1422     6.69998E-03     93.5615E-03    -42.2125E+06    -27.0099E+06     8.79689E+06     596.718E+03    -296.674E-03     591.960E-03    -295.286E-03     71.6330E-03    -297.163E-03     592.179E-03    -295.142E-03     66.0982E-03
            1423     6.02981E-03     93.4462E-03    -47.5578E+06    -43.5740E+06    -1.98108E+06     1.15607E+06    -296.308E-03     591.592E-03    -295.283E-03     63.8799E-03    -296.706E-03     591.672E-03    -295.161E-03     59.3592E-03
            1424     5.35943E-03     93.3431E-03    -52.8496E+06    -50.0483E+06    -10.2786E+06     1.43398E+06    -296.035E-03     591.317E-03    -295.282E-03     56.1015E-03    -296.376E-03     591.322E-03    -295.184E-03     52.4503E-03
            1425     4.68959E-03     93.2523E-03    -57.4804E+06    -55.9675E+06    -18.6226E+06     846.832E+03    -295.822E-03     591.096E-03    -295.275E-03     48.4490E-03    -296.116E-03     591.042E-03    -295.203E-03     45.5267E-03
            1426     4.01967E-03     93.1738E-03    -62.7103E+06    -63.2237E+06    -29.7449E+06     482.446E+03    -295.579E-03     590.836E-03    -295.257E-03     41.1039E-03    -295.836E-03     590.733E-03    -295.224E-03     38.8005E-03
            1427     3.34949E-03     93.1089E-03    -68.4397E+06    -71.7832E+06    -43.1407E+06     788.111E+03    -295.450E-03     590.682E-03    -295.232E-03     34.0651E-03    -295.677E-03     590.536E-03    -295.244E-03     32.3090E-03
            1428     2.67942E-03     93.0548E-03    -73.4090E+06    -79.7285E+06    -55.4359E+06     653.873E+03    -295.353E-03     590.555E-03    -295.203E-03     27.0710E-03    -295.554E-03     590.374E-03    -295.258E-03     25.7648E-03
            1429     2.00999E-03     93.0134E-03    -77.9105E+06    -87.1677E+06    -66.7279E+06     362.294E+03    -295.187E-03     590.371E-03    -295.184E-03     20.1958E-03    -295.371E-03     590.162E-03    -295.278E-03     19.2481E-03
            1430     1.33959E-03     92.9838E-03    -80.8668E+06    -92.7858E+06    -75.5337E+06     480.017E+03    -295.146E-03     590.338E-03    -295.191E-03     13.6120E-03    -295.314E-03     590.108E-03    -295.317E-03     13.0045E-03
            1431     669.960E-06     92.9651E-03    -81.5074E+06    -95.8657E+06    -81.1920E+06     167.479E+03    -295.376E-03     590.406E-03    -295.029E-03     7.10060E-03    -295.529E-03     590.165E-03    -295.178E-03     6.78035E-03
            1432     12.7317E-03     93.3553E-03    -3.40326E+06     28.0256E+06     57.6661E+06     173.736E+03    -298.395E-03     593.611E-03    -295.216E-03     107.748E-03    -299.537E-03     594.673E-03    -294.963E-03     95.3980E-03
            1433     12.0613E-03     93.1594E-03    -5.91431E+06     27.3465E+06     54.9673E+06     414.876E+03    -298.369E-03     593.591E-03    -295.223E-03     117.332E-03    -299.746E-03     594.885E-03    -294.979E-03     103.307E-03
            1434     11.3915E-03     92.9738E-03    -9.45636E+06     23.0032E+06     51.0854E+06     117.334E+03    -298.300E-03     593.540E-03    -295.241E-03     112.910E-03    -299.569E-03     594.709E-03    -295.005E-03     99.6236E-03
            1435     10.7212E-03     92.7879E-03    -13.0842E+06     19.5296E+06     49.1182E+06     248.549E+03    -298.356E-03     593.617E-03    -295.260E-03     111.456E-03    -299.589E-03     594.730E-03    -295.024E-03     98.5987E-03
            1436     10.0506E-03     92.6081E-03    -16.9907E+06     15.6589E+06     47.1018E+06     469.403E+03    -298.102E-03     593.383E-03    -295.281E-03     106.981E-03    -299.220E-03     594.359E-03    -295.043E-03     95.1815E-03
            1437     9.38031E-03     92.4349E-03    -21.5831E+06     9.26212E+06     42.5802E+06     655.239E+03    -297.871E-03     593.167E-03    -295.296E-03     101.145E-03    -298.849E-03     593.977E-03    -295.065E-03     90.6311E-03
            1438     8.71034E-03     92.2717E-03    -26.6738E+06     1.99851E+06     36.1998E+06     803.447E+03    -297.557E-03     592.861E-03    -295.304E-03     94.4464E-03    -298.395E-03     593.507E-03    -295.087E-03     85.2651E-03
            1439     8.03988E-03     92.1196E-03    -31.6295E+06    -4.06853E+06     28.7085E+06     887.724E+03    -297.282E-03     592.586E-03    -295.304E-03     87.1075E-03    -297.992E-03     593.087E-03    -295.109E-03     79.2460E-03
            1440     7.37020E-03     91.9794E-03    -37.1264E+06    -10.8586E+06     19.8942E+06     632.340E+03    -296.942E-03     592.240E-03    -295.298E-03     79.3630E-03    -297.542E-03     592.611E-03    -295.129E-03     72.7158E-03
            1441     6.69960E-03     91.8509E-03    -43.1034E+06    -28.0983E+06     7.91820E+06     728.408E+03    -296.602E-03     591.894E-03    -295.293E-03     71.5433E-03    -297.093E-03     592.109E-03    -295.150E-03     66.0084E-03
            1442     6.02949E-03     91.7357E-03    -48.0752E+06    -43.8418E+06    -2.18886E+06     888.774E+03    -296.441E-03     591.728E-03    -295.287E-03     63.6915E-03    -296.840E-03     591.807E-03    -295.164E-03     59.1607E-03
            1443     5.35985E-03     91.6321E-03    -52.2611E+06    -48.7905E+06    -9.28381E+06     320.928E+03    -296.136E-03     591.408E-03    -295.272E-03     56.0369E-03    -296.477E-03     591.417E-03    -295.172E-03     52.3555E-03
            1444     4.68987E-03     91.5415E-03    -57.8043E+06    -55.7687E+06    -19.6912E+06     295.199E+03    -295.741E-03     590.996E-03    -295.255E-03     48.6331E-03    -296.036E-03     590.946E-03    -295.189E-03     45.6842E-03
            1445     4.01952E-03     91.4640E-03    -63.9496E+06    -63.9053E+06    -31.7028E+06     944.637E+03    -295.578E-03     590.819E-03    -295.241E-03     41.2771E-03    -295.838E-03     590.717E-03    -295.214E-03     38.9848E-03
            1446     3.34958E-03     91.3977E-03    -68.9029E+06    -71.1514E+06    -42.8118E+06     910.829E+03    -295.495E-03     590.712E-03    -295.217E-03     33.9808E-03    -295.725E-03     590.569E-03    -295.228E-03     32.2345E-03
            1447     2.67993E-03     91.3442E-03    -73.7348E+06    -78.9442E+06    -55.0841E+06     681.977E+03    -295.295E-03     590.480E-03    -295.185E-03     26.9809E-03    -295.500E-03     590.303E-03    -295.239E-03     25.6651E-03
            1448     2.00941E-03     91.3029E-03    -77.7563E+06    -86.1703E+06    -66.6299E+06     403.681E+03    -295.228E-03     590.385E-03    -295.157E-03     20.2026E-03    -295.412E-03     590.180E-03    -295.252E-03     19.2776E-03
            1449     1.33990E-03     91.2731E-03    -81.3844E+06    -92.3008E+06    -75.7638E+06    -107.869E+03    -295.175E-03     590.305E-03    -295.130E-03     13.5295E-03    -295.346E-03     590.079E-03    -295.257E-03     12.9507E-03
            1450     669.778E-06     91.2541E-03    -82.8485E+06    -95.7976E+06    -81.3654E+06    -160.019E+03    -295.203E-03     590.234E-03    -295.032E-03     7.26144E-03    -295.362E-03     589.996E-03    -295.180E-03     6.96381E-03
            1451     12.7322E-03     91.6474E-03    -3.36250E+06     27.6919E+06     57.2479E+06    -424.265E+03    -298.244E-03     593.489E-03    -295.245E-03     108.498E-03    -299.395E-03     594.560E-03    -294.994E-03     96.0753E-03
            1452     12.0619E-03     91.4474E-03    -6.37606E+06     26.8281E+06     54.2667E+06     38.2086E+03    -299.001E-03     594.243E-03    -295.241E-03     117.908E-03    -300.395E-03     595.551E-03    -295.000E-03     103.741E-03
            1453     11.3915E-03     91.2641E-03    -9.62200E+06     22.7904E+06     50.9678E+06     264.900E+03    -298.582E-03     593.821E-03    -295.238E-03     113.544E-03    -299.863E-03     595.000E-03    -295.003E-03     100.183E-03
            1454     10.7210E-03     91.0776E-03    -13.4772E+06     18.9926E+06     48.7523E+06     157.406E+03    -298.332E-03     593.584E-03    -295.252E-03     111.808E-03    -299.570E-03     594.700E-03    -295.016E-03     98.9272E-03
            1455     10.0510E-03     90.8977E-03    -17.8325E+06     14.7639E+06     46.5060E+06     461.365E+03    -298.122E-03     593.395E-03    -295.273E-03     107.165E-03    -299.241E-03     594.368E-03    -295.036E-03     95.3913E-03
            1456     9.38087E-03     90.7244E-03    -22.4555E+06     8.95493E+06     41.9167E+06     814.390E+03    -297.828E-03     593.117E-03    -295.289E-03     101.344E-03    -298.809E-03     593.928E-03    -295.060E-03     90.8496E-03
            1457     8.71018E-03     90.5619E-03    -26.8415E+06     2.05377E+06     35.2677E+06     748.853E+03    -297.545E-03     592.842E-03    -295.297E-03     94.4725E-03    -298.383E-03     593.489E-03    -295.085E-03     85.2999E-03
            1458     8.04005E-03     90.4088E-03    -31.6648E+06    -4.89316E+06     26.9036E+06     1.02029E+06    -297.252E-03     592.547E-03    -295.295E-03     86.9864E-03    -297.959E-03     593.046E-03    -295.108E-03     79.1138E-03
            1459     7.36967E-03     90.2682E-03    -36.4969E+06    -11.0595E+06     19.0435E+06     1.96077E+06    -296.916E-03     592.209E-03    -295.293E-03     79.2109E-03    -297.511E-03     592.581E-03    -295.129E-03     72.5714E-03
            1460     6.69987E-03     90.1410E-03    -41.3793E+06    -26.5514E+06     9.54836E+06     1.73253E+06    -296.687E-03     591.980E-03    -295.293E-03     71.4931E-03    -297.173E-03     592.197E-03    -295.147E-03     65.9810E-03
            1461     6.02994E-03     90.0240E-03    -46.8667E+06    -42.3339E+06    -1.27656E+06     405.669E+03    -296.388E-03     591.671E-03    -295.284E-03     63.8415E-03    -296.785E-03     591.756E-03    -295.161E-03     59.2975E-03
            1462     5.35980E-03     89.9216E-03    -53.1627E+06    -49.3549E+06    -11.3896E+06     588.759E+03    -296.026E-03     591.297E-03    -295.271E-03     56.2470E-03    -296.368E-03     591.308E-03    -295.179E-03     52.5577E-03
            1463     4.68938E-03     89.8314E-03    -59.2475E+06    -56.5757E+06    -21.3424E+06     1.30596E+06    -295.826E-03     591.087E-03    -295.260E-03     48.7231E-03    -296.126E-03     591.037E-03    -295.199E-03     45.7956E-03
            1464     4.01960E-03     89.7529E-03    -63.9792E+06    -62.9377E+06    -31.1069E+06     829.052E+03    -295.685E-03     590.923E-03    -295.238E-03     41.3110E-03    -295.947E-03     590.825E-03    -295.209E-03     39.0199E-03
            1465     3.34985E-03     89.6868E-03    -69.0917E+06    -70.5703E+06    -43.4187E+06     387.620E+03    -295.468E-03     590.669E-03    -295.200E-03     34.0616E-03    -295.700E-03     590.530E-03    -295.215E-03     32.2951E-03
            1466     2.67950E-03     89.6341E-03    -74.1368E+06    -78.6320E+06    -56.0081E+06     215.251E+03    -295.343E-03     590.503E-03    -295.161E-03     27.0037E-03    -295.549E-03     590.330E-03    -295.219E-03     25.6849E-03
            1467     2.00998E-03     89.5920E-03    -78.0060E+06    -85.4516E+06    -66.6553E+06     263.999E+03    -295.265E-03     590.379E-03    -295.114E-03     20.1631E-03    -295.451E-03     590.178E-03    -295.211E-03     19.2354E-03
            1468     1.33995E-03     89.5619E-03    -80.7523E+06    -91.2863E+06    -75.9971E+06     373.096E+03    -295.151E-03     590.212E-03    -295.061E-03     13.4511E-03    -295.320E-03     589.990E-03    -295.192E-03     12.8546E-03
            1469     670.022E-06     89.5451E-03    -84.7878E+06    -96.5488E+06    -82.5410E+06    -62.0930E+03    -295.067E-03     590.074E-03    -295.008E-03     7.28346E-03    -295.233E-03     589.836E-03    -295.157E-03     6.99435E-03
            1470     12.7297E-03     89.9329E-03    -3.53773E+06     27.9759E+06     56.9419E+06    -405.241E+03    -298.348E-03     593.594E-03    -295.245E-03     106.964E-03    -299.487E-03     594.654E-03    -294.996E-03     94.5940E-03
            1471     12.0606E-03     89.7369E-03    -6.86776E+06     25.5039E+06     53.9343E+06    -477.747E+03    -298.670E-03     593.913E-03    -295.244E-03     116.678E-03    -300.062E-03     595.216E-03    -295.001E-03     102.421E-03
            1472     11.3910E-03     89.5521E-03    -9.67796E+06     21.7558E+06     50.6635E+06     77.8928E+03    -298.367E-03     593.618E-03    -295.251E-03     113.271E-03    -299.646E-03     594.792E-03    -295.015E-03     99.8882E-03
            1473     10.7212E-03     89.3679E-03    -13.6925E+06     18.5873E+06     48.2333E+06     777.143E+03    -298.396E-03     593.664E-03    -295.268E-03     112.108E-03    -299.635E-03     594.781E-03    -295.034E-03     99.2424E-03
            1474     10.0507E-03     89.1865E-03    -18.0845E+06     14.4540E+06     46.2648E+06     933.011E+03    -298.212E-03     593.501E-03    -295.289E-03     107.560E-03    -299.335E-03     594.476E-03    -295.052E-03     95.7829E-03
            1475     9.38014E-03     89.0148E-03    -22.5743E+06     8.95158E+06     42.2620E+06     724.987E+03    -297.989E-03     593.289E-03    -295.300E-03     101.494E-03    -298.973E-03     594.103E-03    -295.069E-03     90.9709E-03
            1476     8.71033E-03     88.8505E-03    -27.4351E+06     1.52386E+06     35.8705E+06     1.04233E+06    -297.691E-03     592.991E-03    -295.300E-03     94.5558E-03    -298.533E-03     593.637E-03    -295.083E-03     85.3733E-03
            1477     8.04034E-03     88.6986E-03    -32.6793E+06    -6.01589E+06     27.4027E+06     1.48156E+06    -297.268E-03     592.561E-03    -295.293E-03     87.0132E-03    -297.980E-03     593.056E-03    -295.100E-03     79.1390E-03
            1478     7.37006E-03     88.5583E-03    -38.6024E+06    -13.3883E+06     17.4543E+06     1.93717E+06    -296.909E-03     592.192E-03    -295.283E-03     79.2318E-03    -297.509E-03     592.557E-03    -295.120E-03     72.5926E-03
            1479     6.69978E-03     88.4292E-03    -44.3307E+06    -23.4948E+06     5.68941E+06     2.25682E+06    -296.569E-03     591.838E-03    -295.269E-03     71.5188E-03    -297.070E-03     592.082E-03    -295.142E-03     66.0022E-03
            1480     6.02964E-03     88.3143E-03    -49.9516E+06    -39.2183E+06    -5.82470E+06     1.59717E+06    -296.222E-03     591.492E-03    -295.270E-03     63.8970E-03    -296.633E-03     591.604E-03    -295.170E-03     59.3651E-03
            1481     5.35923E-03     88.2110E-03    -54.7039E+06    -50.6262E+06    -13.4388E+06     802.032E+03    -296.081E-03     591.361E-03    -295.281E-03     56.1813E-03    -296.425E-03     591.371E-03    -295.195E-03     52.5050E-03
            1482     4.68972E-03     88.1204E-03    -58.7815E+06    -55.4580E+06    -21.0755E+06     222.003E+03    -295.942E-03     591.206E-03    -295.265E-03     48.6207E-03    -296.240E-03     591.161E-03    -295.204E-03     45.6798E-03
            1483     4.01978E-03     88.0419E-03    -64.2483E+06    -62.6368E+06    -32.4163E+06     131.708E+03    -295.619E-03     590.853E-03    -295.234E-03     41.3450E-03    -295.881E-03     590.759E-03    -295.212E-03     39.0321E-03
            1484     3.34945E-03     87.9768E-03    -69.4322E+06    -70.4962E+06    -44.4866E+06     392.457E+03    -295.417E-03     590.628E-03    -295.211E-03     34.1977E-03    -295.648E-03     590.492E-03    -295.231E-03     32.4234E-03
            1485     2.67990E-03     87.9227E-03    -73.7839E+06    -77.9374E+06    -56.0773E+06     433.545E+03    -295.362E-03     590.545E-03    -295.183E-03     27.2831E-03    -295.568E-03     590.375E-03    -295.243E-03     25.9685E-03
            1486     2.00989E-03     87.8814E-03    -78.2626E+06    -85.6874E+06    -67.7408E+06     341.798E+03    -295.243E-03     590.389E-03    -295.146E-03     20.5290E-03    -295.429E-03     590.190E-03    -295.247E-03     19.5804E-03
            1487     1.33981E-03     87.8523E-03    -81.5171E+06    -91.3439E+06    -76.0071E+06     484.390E+03    -295.165E-03     590.286E-03    -295.121E-03     13.8371E-03    -295.338E-03     590.065E-03    -295.250E-03     13.2304E-03
            1488     670.062E-06     87.8331E-03    -82.4445E+06    -94.6509E+06    -81.6731E+06     755.871E+03    -295.154E-03     590.221E-03    -295.067E-03     7.42898E-03    -295.313E-03     589.988E-03    -295.219E-03     7.10597E-03
            1489     12.7344E-03     88.2247E-03    -2.92876E+06     29.2916E+06     57.1920E+06     159.634E+03    -298.214E-03     593.431E-03    -295.217E-03     107.443E-03    -299.352E-03     594.496E-03    -294.969E-03     95.1304E-03
            1490     12.0628E-03     88.0270E-03    -6.14229E+06     25.9165E+06     54.0326E+06    -249.915E+03    -298.324E-03     593.555E-03    -295.231E-03     117.314E-03    -299.709E-03     594.854E-03    -294.989E-03     103.168E-03
            1491     11.3912E-03     87.8434E-03    -10.3617E+06     19.0087E+06     49.8965E+06    -92.3929E+03    -298.265E-03     593.521E-03    -295.256E-03     113.387E-03    -299.539E-03     594.681E-03    -295.019E-03     100.050E-03
            1492     10.7202E-03     87.6562E-03    -14.0206E+06     17.3998E+06     47.9617E+06     558.996E+03    -298.369E-03     593.645E-03    -295.276E-03     111.595E-03    -299.606E-03     594.755E-03    -295.041E-03     98.7139E-03
            1493     10.0503E-03     87.4767E-03    -17.6628E+06     14.6381E+06     46.0867E+06     870.999E+03    -298.242E-03     593.533E-03    -295.291E-03     106.907E-03    -299.359E-03     594.505E-03    -295.056E-03     95.1151E-03
            1494     9.38056E-03     87.3029E-03    -22.0907E+06     8.08705E+06     41.7269E+06     1.44861E+06    -297.979E-03     593.277E-03    -295.298E-03     101.156E-03    -298.957E-03     594.085E-03    -295.069E-03     90.6378E-03
            1495     8.71036E-03     87.1404E-03    -27.3948E+06     289.725E+03     35.5094E+06     2.23728E+06    -297.587E-03     592.891E-03    -295.304E-03     94.5345E-03    -298.428E-03     593.533E-03    -295.087E-03     85.3514E-03
            1496     8.03988E-03     86.9877E-03    -32.9527E+06    -6.38672E+06     27.9918E+06     2.84753E+06    -297.266E-03     592.572E-03    -295.306E-03     87.2856E-03    -297.981E-03     593.066E-03    -295.109E-03     79.4324E-03
            1497     7.37008E-03     86.8473E-03    -38.1447E+06    -12.8854E+06     19.2457E+06     2.84187E+06    -296.949E-03     592.250E-03    -295.301E-03     79.6212E-03    -297.552E-03     592.615E-03    -295.130E-03     72.9992E-03
            1498     6.69995E-03     86.7195E-03    -43.3347E+06    -22.7732E+06     8.03763E+06     2.43990E+06    -296.588E-03     591.877E-03    -295.289E-03     71.6972E-03    -297.089E-03     592.120E-03    -295.153E-03     66.1807E-03
            1499     6.02950E-03     86.6038E-03    -47.4632E+06    -36.5911E+06    -2.45016E+06     2.17000E+06    -296.374E-03     591.656E-03    -295.282E-03     63.7337E-03    -296.781E-03     591.771E-03    -295.172E-03     59.2100E-03
            1500     5.35986E-03     86.5001E-03    -52.2654E+06    -47.4219E+06    -12.0483E+06     1.09412E+06    -296.089E-03     591.361E-03    -295.272E-03     56.0910E-03    -296.428E-03     591.381E-03    -295.188E-03     52.4196E-03
            1501     4.68956E-03     86.4092E-03    -58.5830E+06    -55.0640E+06    -23.0038E+06     314.160E+03    -295.754E-03     591.014E-03    -295.260E-03     48.7541E-03    -296.050E-03     590.974E-03    -295.210E-03     45.7976E-03
            1502     4.01941E-03     86.3319E-03    -63.9486E+06    -62.7891E+06    -33.8252E+06     233.252E+03    -295.582E-03     590.835E-03    -295.253E-03     41.4608E-03    -295.841E-03     590.743E-03    -295.238E-03     39.1380E-03
            1503     3.34966E-03     86.2657E-03    -69.0173E+06    -70.6240E+06    -45.1635E+06     37.1475E+03    -295.416E-03     590.660E-03    -295.244E-03     34.2852E-03    -295.645E-03     590.523E-03    -295.267E-03     32.5089E-03
            1504     2.67931E-03     86.2123E-03    -74.1055E+06    -78.5638E+06    -56.6029E+06     362.140E+03    -295.229E-03     590.476E-03    -295.247E-03     27.3178E-03    -295.435E-03     590.304E-03    -295.309E-03     25.9973E-03
            1505     2.00923E-03     86.1708E-03    -77.6304E+06    -84.9668E+06    -66.3245E+06     678.893E+03    -295.222E-03     590.486E-03    -295.264E-03     20.5050E-03    -295.408E-03     590.287E-03    -295.360E-03     19.5834E-03
            1506     1.33966E-03     86.1408E-03    -80.2016E+06    -90.5907E+06    -75.2298E+06     191.258E+03    -295.230E-03     590.512E-03    -295.282E-03     13.7987E-03    -295.398E-03     590.292E-03    -295.410E-03     13.1813E-03
            1507     669.545E-06     86.1234E-03    -81.6837E+06    -94.0194E+06    -80.5980E+06    -330.060E+03    -295.202E-03     590.596E-03    -295.394E-03     7.69774E-03    -295.360E-03     590.364E-03    -295.543E-03     7.31113E-03
            1508     12.7295E-03     86.5131E-03    -2.42008E+06     29.6867E+06     57.1497E+06     469.981E+03    -298.093E-03     593.336E-03    -295.243E-03     108.285E-03    -299.229E-03     594.403E-03    -294.997E-03     96.0091E-03
            1509     12.0600E-03     86.3169E-03    -6.61330E+06     26.3483E+06     53.6721E+06     380.638E+03    -298.835E-03     594.085E-03    -295.250E-03     117.433E-03    -300.224E-03     595.389E-03    -295.010E-03     103.270E-03
            1510     11.3909E-03     86.1320E-03    -10.1741E+06     17.8193E+06     50.2647E+06     117.003E+03    -298.593E-03     593.849E-03    -295.256E-03     113.317E-03    -299.872E-03     595.010E-03    -295.016E-03     99.8875E-03
            1511     10.7216E-03     85.9465E-03    -13.5929E+06     16.5686E+06     48.2395E+06     323.255E+03    -298.397E-03     593.661E-03    -295.264E-03     111.697E-03    -299.636E-03     594.770E-03    -295.027E-03     98.7669E-03
            1512     10.0512E-03     85.7656E-03    -17.9832E+06     13.0931E+06     45.7169E+06     1.06227E+06    -298.130E-03     593.411E-03    -295.281E-03     107.271E-03    -299.248E-03     594.379E-03    -295.045E-03     95.4886E-03
            1513     9.38056E-03     85.5930E-03    -22.7990E+06     5.95092E+06     41.3493E+06     2.05608E+06    -297.835E-03     593.136E-03    -295.300E-03     101.469E-03    -298.815E-03     593.936E-03    -295.069E-03     90.9689E-03
            1514     8.71007E-03     85.4298E-03    -27.4395E+06    -399.677E+03     34.9817E+06     2.63130E+06    -297.560E-03     592.870E-03    -295.310E-03     94.5939E-03    -298.399E-03     593.509E-03    -295.095E-03     85.4225E-03
            1515     8.04006E-03     85.2775E-03    -31.8649E+06    -6.16829E+06     26.6613E+06     2.50504E+06    -297.205E-03     592.515E-03    -295.309E-03     87.1062E-03    -297.912E-03     593.009E-03    -295.121E-03     79.2425E-03
            1516     7.36944E-03     85.1365E-03    -36.0874E+06    -11.6505E+06     19.2122E+06     2.33011E+06    -296.844E-03     592.160E-03    -295.316E-03     79.4437E-03    -297.438E-03     592.529E-03    -295.151E-03     72.8059E-03
            1517     6.69932E-03     85.0086E-03    -40.1015E+06    -21.6672E+06     11.9067E+06     2.21006E+06    -296.678E-03     592.003E-03    -295.325E-03     71.7738E-03    -297.170E-03     592.241E-03    -295.176E-03     66.2508E-03
            1518     6.02991E-03     84.8924E-03    -45.4547E+06    -35.4244E+06     1.18335E+06     1.89507E+06    -296.426E-03     591.742E-03    -295.315E-03     64.1858E-03    -296.832E-03     591.857E-03    -295.192E-03     59.6542E-03
            1519     5.35963E-03     84.7896E-03    -51.4533E+06    -45.7120E+06    -10.5083E+06     2.15079E+06    -296.058E-03     591.359E-03    -295.301E-03     56.5551E-03    -296.399E-03     591.386E-03    -295.212E-03     52.8824E-03
            1520     4.68941E-03     84.6995E-03    -56.9104E+06    -53.7834E+06    -20.9443E+06     2.14007E+06    -295.798E-03     591.093E-03    -295.295E-03     48.9104E-03    -296.090E-03     591.053E-03    -295.240E-03     45.9858E-03
            1521     4.01939E-03     84.6204E-03    -62.2756E+06    -61.4861E+06    -31.4977E+06     1.61299E+06    -295.599E-03     590.889E-03    -295.291E-03     41.3710E-03    -295.854E-03     590.797E-03    -295.269E-03     39.0784E-03
            1522     3.34928E-03     84.5553E-03    -67.7269E+06    -69.7904E+06    -43.6200E+06     1.28961E+06    -295.420E-03     590.703E-03    -295.283E-03     34.1745E-03    -295.646E-03     590.567E-03    -295.302E-03     32.4075E-03
            1523     2.67946E-03     84.5017E-03    -72.2849E+06    -77.7174E+06    -55.7363E+06     532.972E+03    -295.314E-03     590.593E-03    -295.279E-03     27.1388E-03    -295.513E-03     590.421E-03    -295.340E-03     25.8174E-03
            1524     2.00956E-03     84.4599E-03    -76.0964E+06    -84.6482E+06    -66.2748E+06    -175.816E+03    -295.198E-03     590.494E-03    -295.297E-03     20.3128E-03    -295.376E-03     590.295E-03    -295.395E-03     19.3724E-03
            1525     1.33936E-03     84.4295E-03    -78.9838E+06    -90.0063E+06    -74.2635E+06    -160.098E+03    -295.234E-03     590.578E-03    -295.344E-03     13.6715E-03    -295.399E-03     590.358E-03    -295.470E-03     13.0517E-03
            1526     669.787E-06     84.4121E-03    -81.9694E+06    -94.3010E+06    -79.8557E+06     178.681E+03    -295.365E-03     590.747E-03    -295.382E-03     7.44084E-03    -295.524E-03     590.513E-03    -295.526E-03     7.13824E-03
            1527     12.7323E-03     84.8018E-03    -3.25565E+06     28.7694E+06     56.5427E+06     152.806E+03    -298.513E-03     593.756E-03    -295.243E-03     106.548E-03    -299.647E-03     594.816E-03    -294.997E-03     94.1892E-03
            1528     12.0623E-03     84.6061E-03    -6.01333E+06     26.7298E+06     53.5935E+06     288.251E+03    -298.606E-03     593.840E-03    -295.235E-03     116.111E-03    -299.990E-03     595.143E-03    -294.997E-03     101.879E-03
            1529     11.3916E-03     84.4208E-03    -9.31858E+06     17.9577E+06     49.8298E+06     486.180E+03    -298.284E-03     593.535E-03    -295.251E-03     113.366E-03    -299.554E-03     594.691E-03    -295.014E-03     100.010E-03
            1530     10.7206E-03     84.2364E-03    -13.5423E+06     14.8607E+06     47.7406E+06     1.09517E+06    -298.302E-03     593.579E-03    -295.277E-03     112.338E-03    -299.536E-03     594.679E-03    -295.040E-03     99.4792E-03
            1531     10.0502E-03     84.0549E-03    -17.7551E+06     10.9358E+06     46.3142E+06     1.98193E+06    -298.153E-03     593.460E-03    -295.307E-03     107.727E-03    -299.273E-03     594.421E-03    -295.065E-03     95.9386E-03
            1532     9.38016E-03     83.8830E-03    -22.1593E+06     5.35726E+06     42.4086E+06     2.33552E+06    -297.936E-03     593.261E-03    -295.325E-03     101.628E-03    -298.915E-03     594.057E-03    -295.088E-03     91.1222E-03
            1533     8.71017E-03     83.7187E-03    -26.4434E+06     383.923E+03     36.4404E+06     1.97888E+06    -297.650E-03     592.979E-03    -295.329E-03     94.7295E-03    -298.488E-03     593.619E-03    -295.109E-03     85.5483E-03
            1534     8.03998E-03     83.5669E-03    -31.1225E+06    -5.33813E+06     29.0605E+06     1.62201E+06    -297.247E-03     592.577E-03    -295.330E-03     87.2315E-03    -297.957E-03     593.073E-03    -295.132E-03     79.3396E-03
            1535     7.36996E-03     83.4267E-03    -36.9301E+06    -12.5062E+06     19.5780E+06     1.87444E+06    -296.872E-03     592.201E-03    -295.329E-03     79.5583E-03    -297.470E-03     592.566E-03    -295.160E-03     72.9094E-03
            1536     6.69970E-03     83.2975E-03    -43.2258E+06    -20.5831E+06     8.16190E+06     2.21246E+06    -296.516E-03     591.842E-03    -295.326E-03     71.7702E-03    -297.020E-03     592.096E-03    -295.192E-03     66.2463E-03
            1537     6.02891E-03     83.1819E-03    -48.4199E+06    -33.8972E+06    -3.47489E+06     1.88003E+06    -296.249E-03     591.578E-03    -295.330E-03     63.9756E-03    -296.664E-03     591.712E-03    -295.228E-03     59.4328E-03
            1538     5.35887E-03     83.0789E-03    -52.3327E+06    -46.2887E+06    -11.7994E+06     1.40559E+06    -296.102E-03     591.444E-03    -295.342E-03     56.3363E-03    -296.445E-03     591.471E-03    -295.258E-03     52.6486E-03
            1539     4.68927E-03     82.9878E-03    -56.4367E+06    -52.6891E+06    -19.0604E+06     1.65932E+06    -295.896E-03     591.238E-03    -295.342E-03     48.8820E-03    -296.191E-03     591.201E-03    -295.280E-03     45.9411E-03
            1540     4.01939E-03     82.9103E-03    -61.5417E+06    -60.2002E+06    -29.6061E+06     1.76763E+06    -295.610E-03     590.945E-03    -295.335E-03     41.5257E-03    -295.867E-03     590.856E-03    -295.307E-03     39.2218E-03
            1541     3.34931E-03     82.8443E-03    -66.3331E+06    -68.0228E+06    -41.1854E+06     1.29821E+06    -295.490E-03     590.819E-03    -295.329E-03     34.3807E-03    -295.715E-03     590.686E-03    -295.340E-03     32.6085E-03
            1542     2.67935E-03     82.7905E-03    -70.6836E+06    -75.8721E+06    -53.4099E+06     1.02116E+06    -295.464E-03     590.770E-03    -295.306E-03     27.3068E-03    -295.662E-03     590.602E-03    -295.360E-03     25.9923E-03
            1543     2.00949E-03     82.7491E-03    -75.1139E+06    -83.7843E+06    -65.2121E+06     846.272E+03    -295.342E-03     590.619E-03    -295.277E-03     20.2961E-03    -295.518E-03     590.420E-03    -295.373E-03     19.3722E-03
            1544     1.33958E-03     82.7192E-03    -78.9267E+06    -90.0542E+06    -74.0427E+06     686.952E+03    -295.244E-03     590.520E-03    -295.275E-03     13.7157E-03    -295.408E-03     590.299E-03    -295.401E-03     13.1492E-03
            1545     669.760E-06     82.6988E-03    -80.1296E+06    -93.4501E+06    -79.5780E+06     623.228E+03    -295.435E-03     590.574E-03    -295.139E-03     7.46335E-03    -295.587E-03     590.341E-03    -295.286E-03     7.17133E-03
            1546     12.7322E-03     83.0919E-03    -2.87626E+06     28.1268E+06     54.7885E+06    -103.764E+03    -298.241E-03     593.470E-03    -295.229E-03     107.901E-03    -299.378E-03     594.537E-03    -294.991E-03     95.5629E-03
            1547     12.0615E-03     82.8953E-03    -5.74318E+06     26.0164E+06     52.3707E+06     572.190E+03    -298.548E-03     593.790E-03    -295.242E-03     117.864E-03    -299.930E-03     595.092E-03    -295.009E-03     103.771E-03
            1548     11.3906E-03     82.7130E-03    -9.81005E+06     17.2138E+06     48.7574E+06     1.31703E+06    -298.396E-03     593.662E-03    -295.266E-03     113.736E-03    -299.660E-03     594.811E-03    -295.033E-03     100.477E-03
            1549     10.7205E-03     82.5246E-03    -13.3586E+06     13.7365E+06     47.6857E+06     1.58971E+06    -298.337E-03     593.630E-03    -295.294E-03     111.784E-03    -299.563E-03     594.720E-03    -295.056E-03     98.9525E-03
            1550     10.0504E-03     82.3454E-03    -17.3078E+06     9.84751E+06     46.2516E+06     1.63289E+06    -298.149E-03     593.470E-03    -295.320E-03     107.121E-03    -299.260E-03     594.419E-03    -295.078E-03     95.3404E-03
            1551     9.38011E-03     82.1712E-03    -21.1877E+06     5.86705E+06     42.9645E+06     1.63328E+06    -297.909E-03     593.248E-03    -295.338E-03     101.420E-03    -298.883E-03     594.042E-03    -295.101E-03     90.9150E-03
            1552     8.70990E-03     82.0087E-03    -25.8862E+06     713.853E+03     37.5442E+06     1.61801E+06    -297.535E-03     592.887E-03    -295.352E-03     94.6929E-03    -298.373E-03     593.527E-03    -295.128E-03     85.4979E-03
            1553     8.03953E-03     81.8560E-03    -31.1217E+06    -5.59734E+06     29.5122E+06     2.10893E+06    -297.236E-03     592.594E-03    -295.358E-03     87.3993E-03    -297.946E-03     593.088E-03    -295.158E-03     79.5226E-03
            1554     7.36939E-03     81.7156E-03    -35.4371E+06    -11.3552E+06     20.9832E+06     2.02829E+06    -296.958E-03     592.317E-03    -295.358E-03     79.7916E-03    -297.553E-03     592.685E-03    -295.186E-03     73.1421E-03
            1555     6.69928E-03     81.5873E-03    -39.3547E+06    -21.1430E+06     12.4276E+06     1.70861E+06    -296.603E-03     591.967E-03    -295.364E-03     71.9768E-03    -297.094E-03     592.208E-03    -295.215E-03     66.4369E-03
            1556     6.02953E-03     81.4715E-03    -43.6781E+06    -33.8230E+06     1.93810E+06     2.47232E+06    -296.353E-03     591.719E-03    -295.366E-03     64.0051E-03    -296.753E-03     591.838E-03    -295.244E-03     59.4770E-03
            1557     5.35949E-03     81.3677E-03    -49.7628E+06    -43.6751E+06    -9.79643E+06     2.56329E+06    -296.088E-03     591.447E-03    -295.359E-03     56.2182E-03    -296.424E-03     591.480E-03    -295.272E-03     52.5592E-03
            1558     4.68905E-03     81.2773E-03    -56.1692E+06    -51.9207E+06    -20.1610E+06     1.35919E+06    -295.777E-03     591.139E-03    -295.362E-03     48.7293E-03    -296.070E-03     591.107E-03    -295.306E-03     45.7769E-03
            1559     4.01882E-03     81.1990E-03    -60.9654E+06    -59.3729E+06    -30.0776E+06     841.882E+03    -295.655E-03     591.021E-03    -295.366E-03     41.4215E-03    -295.910E-03     590.936E-03    -295.342E-03     39.0988E-03
            1560     3.34900E-03     81.1334E-03    -65.8895E+06    -67.3095E+06    -41.5838E+06     1.08921E+06    -295.583E-03     590.935E-03    -295.353E-03     34.2523E-03    -295.806E-03     590.806E-03    -295.368E-03     32.4855E-03
            1561     2.67918E-03     81.0791E-03    -70.8809E+06    -75.4519E+06    -53.2082E+06     1.35958E+06    -295.480E-03     590.808E-03    -295.328E-03     27.1878E-03    -295.679E-03     590.642E-03    -295.382E-03     25.8791E-03
            1562     2.00946E-03     81.0378E-03    -74.6924E+06    -82.3547E+06    -63.4507E+06     1.46870E+06    -295.473E-03     590.756E-03    -295.282E-03     20.3034E-03    -295.652E-03     590.561E-03    -295.372E-03     19.3921E-03
            1563     1.33996E-03     81.0077E-03    -77.3436E+06    -88.0712E+06    -72.2802E+06     1.13261E+06    -295.340E-03     590.558E-03    -295.217E-03     13.7743E-03    -295.502E-03     590.342E-03    -295.339E-03     13.1955E-03
            1564     669.773E-06     80.9895E-03    -78.8017E+06    -91.7642E+06    -78.0890E+06     300.753E+03    -295.216E-03     590.379E-03    -295.163E-03     7.76261E-03    -295.366E-03     590.150E-03    -295.307E-03     7.44473E-03
            1565     12.7301E-03     81.3807E-03    -2.76106E+06     26.6136E+06     53.3355E+06     546.209E+03    -297.910E-03     593.175E-03    -295.265E-03     107.958E-03    -299.038E-03     594.233E-03    -295.033E-03     95.6849E-03
            1566     12.0599E-03     81.1851E-03    -7.13339E+06     23.2766E+06     50.3042E+06     663.358E+03    -298.812E-03     594.092E-03    -295.280E-03     116.901E-03    -300.198E-03     595.390E-03    -295.052E-03     102.665E-03
            1567     11.3909E-03     81.0000E-03    -10.1036E+06     16.9212E+06     48.7033E+06     968.860E+03    -298.698E-03     593.988E-03    -295.290E-03     113.415E-03    -299.975E-03     595.147E-03    -295.056E-03     99.9956E-03
            1568     10.7211E-03     80.8155E-03    -12.9397E+06     14.0079E+06     47.9375E+06     1.13017E+06    -298.509E-03     593.812E-03    -295.303E-03     112.160E-03    -299.742E-03     594.910E-03    -295.065E-03     99.2561E-03
            1569     10.0504E-03     80.6342E-03    -16.8746E+06     10.1560E+06     46.1957E+06     973.461E+03    -298.178E-03     593.502E-03    -295.324E-03     107.555E-03    -299.289E-03     594.455E-03    -295.083E-03     95.7672E-03
            1570     9.38025E-03     80.4615E-03    -21.2880E+06     5.44390E+06     42.3601E+06     974.904E+03    -297.767E-03     593.114E-03    -295.348E-03     101.661E-03    -298.743E-03     593.911E-03    -295.113E-03     91.1154E-03
            1571     8.70972E-03     80.2980E-03    -25.6981E+06     178.989E+03     36.0426E+06     1.47086E+06    -297.445E-03     592.813E-03    -295.368E-03     94.8633E-03    -298.281E-03     593.453E-03    -295.150E-03     85.6693E-03
            1572     8.03955E-03     80.1458E-03    -29.8141E+06    -5.13988E+06     28.5086E+06     1.21942E+06    -297.237E-03     592.617E-03    -295.380E-03     87.4999E-03    -297.940E-03     593.113E-03    -295.187E-03     79.6147E-03
            1573     7.36925E-03     80.0047E-03    -34.4916E+06    -10.9117E+06     20.9150E+06     873.324E+03    -296.989E-03     592.376E-03    -295.387E-03     79.6796E-03    -297.581E-03     592.745E-03    -295.216E-03     73.0060E-03
            1574     6.69915E-03     79.8765E-03    -39.7224E+06    -21.6944E+06     12.2252E+06     1.21760E+06    -296.700E-03     592.091E-03    -295.391E-03     71.8100E-03    -297.192E-03     592.330E-03    -295.241E-03     66.2513E-03
            1575     6.02885E-03     79.7601E-03    -45.4890E+06    -35.2174E+06     1.99341E+06     1.54172E+06    -296.349E-03     591.744E-03    -295.395E-03     64.2015E-03    -296.756E-03     591.859E-03    -295.268E-03     59.6513E-03
            1576     5.35889E-03     79.6570E-03    -49.6745E+06    -43.1471E+06    -6.91465E+06     2.06269E+06    -296.084E-03     591.484E-03    -295.400E-03     56.5729E-03    -296.425E-03     591.516E-03    -295.300E-03     52.8932E-03
            1577     4.68910E-03     79.5666E-03    -53.7390E+06    -49.5341E+06    -17.2703E+06     2.44638E+06    -295.933E-03     591.325E-03    -295.392E-03     48.8625E-03    -296.222E-03     591.297E-03    -295.328E-03     45.9224E-03
            1578     4.01921E-03     79.4882E-03    -59.9238E+06    -58.2321E+06    -29.7818E+06     2.15852E+06    -295.762E-03     591.132E-03    -295.370E-03     41.3700E-03    -296.014E-03     591.050E-03    -295.347E-03     39.0730E-03
            1579     3.34931E-03     79.4218E-03    -65.5311E+06    -66.5020E+06    -41.1223E+06     1.72702E+06    -295.608E-03     590.955E-03    -295.347E-03     34.1616E-03    -295.831E-03     590.828E-03    -295.361E-03     32.4007E-03
            1580     2.67940E-03     79.3685E-03    -69.9728E+06    -74.1251E+06    -52.4850E+06     1.11435E+06    -295.492E-03     590.807E-03    -295.315E-03     27.1287E-03    -295.689E-03     590.645E-03    -295.368E-03     25.8144E-03
            1581     2.00942E-03     79.3261E-03    -73.6371E+06    -81.1050E+06    -63.1277E+06     471.940E+03    -295.408E-03     590.682E-03    -295.274E-03     20.2650E-03    -295.584E-03     590.492E-03    -295.365E-03     19.3288E-03
            1582     1.33946E-03     79.2967E-03    -76.3621E+06    -86.4475E+06    -71.1433E+06     173.684E+03    -295.385E-03     590.594E-03    -295.209E-03     13.6134E-03    -295.546E-03     590.383E-03    -295.328E-03     12.9956E-03
            1583     670.104E-06     79.2782E-03    -78.5877E+06    -90.3179E+06    -76.4963E+06     257.565E+03    -295.097E-03     590.331E-03    -295.234E-03     7.64583E-03    -295.251E-03     590.107E-03    -295.371E-03     7.34191E-03
            1584     12.7315E-03     79.6705E-03    -3.24712E+06     24.5656E+06     55.5676E+06     443.942E+03    -298.371E-03     593.642E-03    -295.271E-03     106.489E-03    -299.495E-03     594.680E-03    -295.024E-03     94.1681E-03
            1585     12.0617E-03     79.4737E-03    -5.62272E+06     22.8207E+06     53.2019E+06     1.35109E+06    -298.391E-03     593.669E-03    -295.278E-03     116.327E-03    -299.767E-03     594.951E-03    -295.037E-03     102.148E-03
            1586     11.3904E-03     79.2900E-03    -8.88374E+06     17.7724E+06     49.2385E+06     1.32349E+06    -298.223E-03     593.522E-03    -295.299E-03     113.413E-03    -299.492E-03     594.679E-03    -295.065E-03     100.048E-03
            1587     10.7197E-03     79.1039E-03    -13.1309E+06     13.5337E+06     46.8153E+06     633.896E+03    -298.378E-03     593.706E-03    -295.327E-03     112.370E-03    -299.613E-03     594.806E-03    -295.094E-03     99.4517E-03
            1588     10.0502E-03     78.9235E-03    -16.8650E+06     10.0041E+06     45.5033E+06     831.381E+03    -298.183E-03     593.540E-03    -295.357E-03     107.858E-03    -299.300E-03     594.501E-03    -295.120E-03     96.0116E-03
            1589     9.37969E-03     78.7512E-03    -20.9941E+06     5.45308E+06     41.4398E+06     909.969E+03    -297.873E-03     593.252E-03    -295.379E-03     101.998E-03    -298.850E-03     594.054E-03    -295.150E-03     91.4379E-03
            1590     8.70941E-03     78.5878E-03    -25.2030E+06     425.619E+03     35.6545E+06     509.464E+03    -297.654E-03     593.047E-03    -295.394E-03     95.0425E-03    -298.487E-03     593.690E-03    -295.179E-03     85.8309E-03
            1591     8.03906E-03     78.4347E-03    -29.7765E+06    -5.15516E+06     28.7736E+06     641.410E+03    -297.356E-03     592.756E-03    -295.400E-03     87.3893E-03    -298.059E-03     593.252E-03    -295.205E-03     79.4876E-03
            1592     7.36910E-03     78.2938E-03    -34.7856E+06    -11.3405E+06     20.8206E+06     1.05258E+06    -296.983E-03     592.385E-03    -295.402E-03     79.6118E-03    -297.575E-03     592.753E-03    -295.231E-03     72.9346E-03
            1593     6.69912E-03     78.1652E-03    -40.0678E+06    -22.4114E+06     11.0245E+06     1.08582E+06    -296.637E-03     592.042E-03    -295.406E-03     71.8246E-03    -297.128E-03     592.280E-03    -295.260E-03     66.2617E-03
            1594     6.02918E-03     78.0500E-03    -45.0058E+06    -35.0772E+06    -33.7134E+03     1.02602E+06    -296.328E-03     591.738E-03    -295.410E-03     64.0725E-03    -296.731E-03     591.857E-03    -295.294E-03     59.4939E-03
            1595     5.35874E-03     77.9460E-03    -50.4108E+06    -43.7317E+06    -9.49193E+06     865.503E+03    -296.103E-03     591.520E-03    -295.417E-03     56.4375E-03    -296.444E-03     591.555E-03    -295.328E-03     52.7253E-03
            1596     4.68871E-03     77.8548E-03    -55.4325E+06    -50.2879E+06    -16.8253E+06     1.35587E+06    -295.991E-03     591.414E-03    -295.423E-03     48.9036E-03    -296.288E-03     591.385E-03    -295.354E-03     45.9435E-03
            1597     4.01904E-03     77.7768E-03    -59.6295E+06    -56.7550E+06    -26.3041E+06     1.81451E+06    -295.837E-03     591.240E-03    -295.402E-03     41.5866E-03    -296.095E-03     591.161E-03    -295.365E-03     39.2658E-03
            1598     3.34907E-03     77.7110E-03    -64.2352E+06    -64.3726E+06    -38.4309E+06     1.28854E+06    -295.635E-03     591.002E-03    -295.368E-03     34.4302E-03    -295.859E-03     590.881E-03    -295.373E-03     32.6525E-03
            1599     2.67932E-03     77.6566E-03    -68.7851E+06    -72.1996E+06    -50.5046E+06     728.505E+03    -295.496E-03     590.830E-03    -295.334E-03     27.3822E-03    -295.693E-03     590.673E-03    -295.382E-03     26.0576E-03
            1600     2.00965E-03     77.6156E-03    -73.0972E+06    -79.8808E+06    -62.1253E+06     402.046E+03    -295.385E-03     590.686E-03    -295.301E-03     20.5116E-03    -295.562E-03     590.499E-03    -295.389E-03     19.5667E-03
            1601     1.33991E-03     77.5851E-03    -76.4645E+06    -86.2187E+06    -71.6227E+06     211.236E+03    -295.322E-03     590.593E-03    -295.271E-03     13.8442E-03    -295.483E-03     590.384E-03    -295.394E-03     13.2279E-03
            1602     669.800E-06     77.5675E-03    -78.2772E+06    -89.9736E+06    -77.2812E+06     26.4475E+03    -295.108E-03     590.524E-03    -295.417E-03     7.58960E-03    -295.259E-03     590.303E-03    -295.559E-03     7.22183E-03
            1603     12.7321E-03     77.9603E-03    -2.71237E+06     23.2858E+06     55.3610E+06     71.5146E+03    -297.998E-03     593.268E-03    -295.271E-03     107.964E-03    -299.124E-03     594.307E-03    -295.024E-03     95.6581E-03
            1604     12.0608E-03     77.7644E-03    -5.44997E+06     21.3362E+06     53.3717E+06     658.857E+03    -298.500E-03     593.795E-03    -295.295E-03     117.669E-03    -299.870E-03     595.067E-03    -295.052E-03     103.603E-03
            1605     11.3905E-03     77.5807E-03    -8.62427E+06     17.8204E+06     50.2370E+06     1.17369E+06    -298.314E-03     593.633E-03    -295.319E-03     113.662E-03    -299.580E-03     594.786E-03    -295.081E-03     100.343E-03
            1606     10.7204E-03     77.3932E-03    -12.0705E+06     14.3871E+06     47.5502E+06     1.40586E+06    -298.168E-03     593.517E-03    -295.349E-03     112.050E-03    -299.394E-03     594.614E-03    -295.115E-03     99.1826E-03
            1607     10.0493E-03     77.2132E-03    -16.2197E+06     10.1851E+06     44.7945E+06     930.254E+03    -298.058E-03     593.442E-03    -295.384E-03     107.447E-03    -299.165E-03     594.398E-03    -295.152E-03     95.6431E-03
            1608     9.37911E-03     77.0402E-03    -20.3834E+06     5.83657E+06     41.4330E+06     657.391E+03    -298.060E-03     593.467E-03    -295.407E-03     101.548E-03    -299.029E-03     594.264E-03    -295.179E-03     91.0200E-03
            1609     8.70920E-03     76.8764E-03    -25.2602E+06     468.549E+03     36.2284E+06     669.163E+03    -297.817E-03     593.230E-03    -295.413E-03     94.7170E-03    -298.652E-03     593.871E-03    -295.195E-03     85.4878E-03
            1610     8.03950E-03     76.7238E-03    -30.3081E+06    -5.66075E+06     28.7070E+06     656.226E+03    -297.377E-03     592.786E-03    -295.409E-03     87.3227E-03    -298.084E-03     593.282E-03    -295.213E-03     79.3935E-03
            1611     7.36923E-03     76.5830E-03    -34.9416E+06    -11.7183E+06     20.3423E+06     647.297E+03    -296.918E-03     592.329E-03    -295.411E-03     79.6581E-03    -297.511E-03     592.697E-03    -295.241E-03     72.9513E-03
            1612     6.69878E-03     76.4547E-03    -39.6511E+06    -22.3559E+06     10.7585E+06     859.039E+03    -296.601E-03     592.021E-03    -295.421E-03     71.8516E-03    -297.091E-03     592.260E-03    -295.277E-03     66.2674E-03
            1613     6.02855E-03     76.3383E-03    -44.3772E+06    -34.9554E+06     233.621E+03     1.00896E+06    -296.449E-03     591.872E-03    -295.424E-03     64.0857E-03    -296.849E-03     591.991E-03    -295.307E-03     59.5057E-03
            1614     5.35902E-03     76.2353E-03    -49.3573E+06    -43.1382E+06    -8.89129E+06     1.02621E+06    -296.204E-03     591.624E-03    -295.420E-03     56.4143E-03    -296.542E-03     591.659E-03    -295.330E-03     52.7009E-03
            1615     4.68893E-03     76.1438E-03    -54.9352E+06    -50.0200E+06    -17.5759E+06     239.372E+03    -295.874E-03     591.297E-03    -295.422E-03     48.8341E-03    -296.168E-03     591.269E-03    -295.358E-03     45.8607E-03
            1616     4.01873E-03     76.0654E-03    -59.8495E+06    -56.6978E+06    -26.8666E+06    -435.149E+03    -295.734E-03     591.157E-03    -295.423E-03     41.5085E-03    -295.992E-03     591.080E-03    -295.389E-03     39.1517E-03
            1617     3.34913E-03     75.9993E-03    -64.3840E+06    -64.0165E+06    -38.2455E+06    -32.1128E+03    -295.619E-03     591.026E-03    -295.407E-03     34.3648E-03    -295.845E-03     590.907E-03    -295.412E-03     32.5540E-03
            1618     2.67909E-03     75.9460E-03    -68.9536E+06    -71.9534E+06    -50.5885E+06     469.101E+03    -295.453E-03     590.841E-03    -295.389E-03     27.4210E-03    -295.651E-03     590.686E-03    -295.437E-03     26.0842E-03
            1619     2.00911E-03     75.9035E-03    -72.8978E+06    -79.1177E+06    -61.5322E+06     614.697E+03    -295.405E-03     590.784E-03    -295.379E-03     20.5502E-03    -295.583E-03     590.601E-03    -295.466E-03     19.5910E-03
            1620     1.33920E-03     75.8747E-03    -76.0671E+06    -85.1963E+06    -70.7355E+06     394.285E+03    -295.394E-03     590.758E-03    -295.364E-03     13.7741E-03    -295.556E-03     590.553E-03    -295.484E-03     13.1413E-03
            1621     669.598E-06     75.8553E-03    -78.7338E+06    -89.4517E+06    -76.5613E+06     220.357E+03    -295.322E-03     590.711E-03    -295.390E-03     7.09115E-03    -295.477E-03     590.492E-03    -295.529E-03     6.76736E-03
            1622     12.7291E-03     76.2492E-03    -2.68723E+06     23.0631E+06     54.4098E+06     165.878E+03    -297.909E-03     593.211E-03    -295.301E-03     107.570E-03    -299.038E-03     594.254E-03    -295.059E-03     95.1986E-03
            1623     12.0598E-03     76.0532E-03    -5.72131E+06     20.8187E+06     51.5038E+06     151.844E+03    -298.490E-03     593.813E-03    -295.323E-03     116.968E-03    -299.865E-03     595.093E-03    -295.087E-03     102.762E-03
            1624     11.3902E-03     75.8686E-03    -9.55222E+06     16.2112E+06     47.7749E+06    -77.1430E+03    -298.416E-03     593.759E-03    -295.343E-03     113.994E-03    -299.690E-03     594.918E-03    -295.114E-03     100.585E-03
            1625     10.7198E-03     75.6841E-03    -12.7736E+06     13.3357E+06     46.5749E+06     169.290E+03    -298.482E-03     593.852E-03    -295.370E-03     112.529E-03    -299.714E-03     594.952E-03    -295.138E-03     99.6080E-03
            1626     10.0497E-03     75.5027E-03    -15.8206E+06     10.6396E+06     46.0271E+06     778.535E+03    -298.373E-03     593.768E-03    -295.395E-03     107.428E-03    -299.479E-03     594.722E-03    -295.157E-03     95.6291E-03
            1627     9.37963E-03     75.3290E-03    -20.2677E+06     5.89337E+06     42.0090E+06     948.332E+03    -298.070E-03     593.473E-03    -295.404E-03     101.307E-03    -299.039E-03     594.270E-03    -295.173E-03     90.7539E-03
            1628     8.70948E-03     75.1655E-03    -24.7475E+06     512.128E+03     35.6832E+06     914.021E+03    -297.639E-03     593.047E-03    -295.408E-03     94.6632E-03    -298.472E-03     593.690E-03    -295.194E-03     85.4167E-03
            1629     8.03895E-03     75.0128E-03    -29.4497E+06    -5.32385E+06     28.2511E+06     771.438E+03    -297.257E-03     592.673E-03    -295.416E-03     87.4083E-03    -297.961E-03     593.172E-03    -295.225E-03     79.4684E-03
            1630     7.36884E-03     74.8724E-03    -34.7077E+06    -11.6884E+06     20.3654E+06     653.027E+03    -296.947E-03     592.375E-03    -295.427E-03     79.7370E-03    -297.540E-03     592.744E-03    -295.258E-03     73.0262E-03
            1631     6.69898E-03     74.7437E-03    -39.7028E+06    -22.3600E+06     11.2378E+06     497.333E+03    -296.715E-03     592.149E-03    -295.435E-03     71.9232E-03    -297.206E-03     592.387E-03    -295.289E-03     66.3394E-03
            1632     6.02900E-03     74.6278E-03    -44.6266E+06    -34.8849E+06     1.46556E+06     301.757E+03    -296.467E-03     591.903E-03    -295.436E-03     64.1016E-03    -296.870E-03     592.020E-03    -295.314E-03     59.5193E-03
            1633     5.35872E-03     74.5232E-03    -49.1473E+06    -42.5617E+06    -7.17978E+06    -56.5702E+03    -296.178E-03     591.613E-03    -295.435E-03     56.5083E-03    -296.518E-03     591.649E-03    -295.338E-03     52.7667E-03
            1634     4.68893E-03     74.4334E-03    -53.4068E+06    -48.6230E+06    -16.9503E+06    -144.359E+03    -295.940E-03     591.367E-03    -295.428E-03     49.0681E-03    -296.230E-03     591.345E-03    -295.364E-03     46.0674E-03
            1635     4.01902E-03     74.3540E-03    -59.1730E+06    -56.7805E+06    -29.0319E+06    -137.711E+03    -295.694E-03     591.114E-03    -295.419E-03     41.6068E-03    -295.946E-03     591.038E-03    -295.396E-03     39.2557E-03
            1636     3.34876E-03     74.2882E-03    -64.9483E+06    -65.1950E+06    -40.8532E+06    -232.960E+03    -295.556E-03     590.973E-03    -295.417E-03     34.3217E-03    -295.779E-03     590.853E-03    -295.433E-03     32.5049E-03
            1637     2.67907E-03     74.2343E-03    -69.3592E+06    -72.6062E+06    -51.9794E+06    -107.541E+03    -295.525E-03     590.932E-03    -295.407E-03     27.2438E-03    -295.723E-03     590.777E-03    -295.461E-03     25.8955E-03
            1638     2.00926E-03     74.1927E-03    -72.8797E+06    -79.1574E+06    -61.9358E+06     16.3068E+03    -295.451E-03     590.838E-03    -295.387E-03     20.2767E-03    -295.628E-03     590.655E-03    -295.476E-03     19.3156E-03
            1639     1.33971E-03     74.1620E-03     -75.687E+06    -84.6210E+06    -70.1900E+06     210.251E+03    -295.404E-03     590.770E-03    -295.366E-03     13.5778E-03    -295.566E-03     590.567E-03    -295.484E-03     12.9487E-03
            1640     669.992E-06     74.1448E-03    -77.1882E+06    -88.5677E+06    -76.5175E+06     81.4646E+03    -295.441E-03     590.709E-03    -295.268E-03     7.29559E-03    -295.590E-03     590.491E-03    -295.411E-03     6.95585E-03
            1641     12.7325E-03     74.5397E-03    -3.13704E+06     22.4493E+06     53.6213E+06    -322.435E+03    -297.885E-03     593.195E-03    -295.310E-03     107.400E-03    -299.010E-03     594.233E-03    -295.070E-03     95.0601E-03
            1642     12.0610E-03     74.3436E-03    -6.37574E+06     20.1248E+06     50.7564E+06     132.643E+03    -298.422E-03     593.758E-03    -295.337E-03     117.332E-03    -299.796E-03     595.034E-03    -295.103E-03     103.184E-03
            1643     11.3891E-03     74.1593E-03    -8.89144E+06     16.8186E+06     48.1478E+06     541.000E+03    -298.546E-03     593.904E-03    -295.357E-03     113.355E-03    -299.809E-03     595.055E-03    -295.128E-03     100.007E-03
            1644     10.7191E-03     73.9716E-03    -12.7254E+06     13.2135E+06     46.3500E+06     2.57940E+03    -298.665E-03     594.036E-03    -295.370E-03     111.484E-03    -299.890E-03     595.127E-03    -295.139E-03     98.5523E-03
            1645     10.0497E-03     73.7911E-03    -16.8218E+06     9.37160E+06     44.6620E+06    -87.8530E+03    -298.361E-03     593.743E-03    -295.382E-03     107.233E-03    -299.471E-03     594.698E-03    -295.148E-03     95.3687E-03
            1646     9.37962E-03     73.6183E-03    -20.4636E+06     5.35735E+06     41.2006E+06     135.486E+03    -297.923E-03     593.320E-03    -295.397E-03     101.629E-03    -298.897E-03     594.121E-03    -295.169E-03     91.0276E-03
            1647     8.70923E-03     73.4550E-03    -24.8734E+06     148.193E+03     35.3157E+06     307.672E+03    -297.546E-03     592.959E-03    -295.413E-03     94.8723E-03    -298.380E-03     593.603E-03    -295.201E-03     85.6134E-03
            1648     8.03914E-03     73.3024E-03    -29.4087E+06    -5.58059E+06     27.8280E+06     693.541E+03    -297.235E-03     592.661E-03    -295.427E-03     87.3734E-03    -297.936E-03     593.158E-03    -295.237E-03     79.4473E-03
            1649     7.36889E-03     73.1613E-03    -33.8758E+06    -11.2413E+06     20.4110E+06     817.640E+03    -296.967E-03     592.406E-03    -295.439E-03     79.6770E-03    -297.555E-03     592.774E-03    -295.272E-03     72.9843E-03
            1650     6.69857E-03     73.0327E-03    -38.6444E+06    -21.4573E+06     12.3909E+06     355.843E+03    -296.735E-03     592.186E-03    -295.451E-03     72.0474E-03    -297.224E-03     592.426E-03    -295.302E-03     66.4631E-03
            1651     6.02871E-03     72.9158E-03    -43.6994E+06    -34.0435E+06     2.11910E+06    -373.458E+03    -296.456E-03     591.908E-03    -295.453E-03     64.3302E-03    -296.859E-03     592.029E-03    -295.329E-03     59.7084E-03
            1652     5.35879E-03     72.8134E-03    -49.0941E+06    -42.5908E+06    -8.49723E+06    -448.584E+03    -296.181E-03     591.628E-03    -295.447E-03     56.6102E-03    -296.520E-03     591.667E-03    -295.357E-03     52.8570E-03
            1653     4.68856E-03     72.7210E-03    -54.5229E+06    -49.6460E+06    -18.1139E+06    -47.9604E+03    -295.948E-03     591.394E-03    -295.446E-03     49.0430E-03    -296.241E-03     591.370E-03    -295.386E-03     46.0471E-03
            1654     4.01879E-03     72.6434E-03    -59.3451E+06    -57.0393E+06    -28.7925E+06     345.245E+03    -295.745E-03     591.185E-03    -295.440E-03     41.6752E-03    -295.998E-03     591.109E-03    -295.416E-03     39.3173E-03
            1655     3.34901E-03     72.5769E-03    -64.0651E+06    -64.7080E+06    -40.5372E+06     269.658E+03    -295.611E-03     591.041E-03    -295.430E-03     34.4691E-03    -295.831E-03     590.922E-03    -295.446E-03     32.6634E-03
            1656     2.67905E-03     72.5227E-03    -68.7591E+06    -72.4416E+06    -51.9932E+06    -204.294E+03    -295.553E-03     590.967E-03    -295.414E-03     27.4167E-03    -295.748E-03     590.812E-03    -295.469E-03     26.0612E-03
            1657     2.00949E-03     72.4809E-03    -72.8648E+06    -79.7496E+06    -62.9384E+06    -381.509E+03    -295.477E-03     590.865E-03    -295.387E-03     20.5537E-03    -295.652E-03     590.681E-03    -295.481E-03     19.5809E-03
            1658     1.33936E-03     72.4514E-03    -75.7714E+06    -85.3509E+06    -71.3363E+06    -316.891E+03    -295.368E-03     590.746E-03    -295.378E-03     13.8317E-03    -295.527E-03     590.540E-03    -295.501E-03     13.1889E-03
            1659     669.460E-06     72.4325E-03    -77.6423E+06    -88.5853E+06    -75.7966E+06    -17.4806E+03    -295.372E-03     590.773E-03    -295.401E-03     7.36050E-03    -295.525E-03     590.555E-03    -295.539E-03     7.02115E-03
            1660     12.7285E-03     72.8284E-03    -2.55267E+06     22.5595E+06     52.9522E+06     303.484E+03    -297.833E-03     593.139E-03    -295.306E-03     107.532E-03    -298.946E-03     594.170E-03    -295.070E-03     95.3079E-03
            1661     12.0588E-03     72.6334E-03    -6.22842E+06     19.9944E+06     50.4544E+06    -256.014E+03    -298.860E-03     594.183E-03    -295.323E-03     116.472E-03    -300.231E-03     595.456E-03    -295.090E-03     102.259E-03
            1662     11.3907E-03     72.4465E-03    -9.59167E+06     16.2034E+06     48.2319E+06    -360.299E+03    -298.626E-03     593.953E-03    -295.327E-03     112.843E-03    -299.893E-03     595.104E-03    -295.096E-03     99.4118E-03
            1663     10.7211E-03     72.2619E-03    -12.4137E+06     13.4451E+06     46.8381E+06     199.450E+03    -298.296E-03     593.642E-03    -295.346E-03     111.834E-03    -299.523E-03     594.736E-03    -295.113E-03     98.9232E-03
            1664     10.0499E-03     72.0807E-03    -16.2470E+06     9.58840E+06     44.4433E+06     64.5075E+03    -298.047E-03     593.425E-03    -295.377E-03     107.555E-03    -299.156E-03     594.381E-03    -295.145E-03     95.7196E-03
            1665     9.37929E-03     71.9078E-03    -20.7990E+06     4.75898E+06     40.4415E+06    -253.676E+03    -297.834E-03     593.241E-03    -295.407E-03     101.682E-03    -298.807E-03     594.039E-03    -295.181E-03     91.0923E-03
            1666     8.70914E-03     71.7442E-03    -25.4718E+06    -532.279E+03     34.9164E+06    -119.992E+03    -297.605E-03     593.032E-03    -295.428E-03     94.9117E-03    -298.440E-03     593.674E-03    -295.215E-03     85.6498E-03
            1667     8.03890E-03     71.5913E-03    -30.2169E+06    -6.24845E+06     28.0374E+06    -5.10926E+03    -297.328E-03     592.767E-03    -295.440E-03     87.4949E-03    -298.034E-03     593.263E-03    -295.247E-03     79.5468E-03
            1668     7.36875E-03     71.4507E-03    -35.0795E+06    -12.4371E+06     19.8846E+06     479.549E+03    -297.043E-03     592.486E-03    -295.443E-03     79.7244E-03    -297.635E-03     592.852E-03    -295.275E-03     73.0212E-03
            1669     6.69887E-03     71.3212E-03    -40.4894E+06    -19.4214E+06     10.2912E+06     584.870E+03    -296.678E-03     592.120E-03    -295.442E-03     71.8267E-03    -297.176E-03     592.376E-03    -295.303E-03     66.2283E-03
            1670     6.02846E-03     71.2056E-03    -45.5776E+06    -31.8349E+06    -1.22795E+06    -326.165E+03    -296.376E-03     591.818E-03    -295.442E-03     64.0477E-03    -296.787E-03     591.958E-03    -295.336E-03     59.4199E-03
            1671     5.35851E-03     71.1009E-03    -50.0017E+06    -43.8689E+06    -11.0843E+06    -826.004E+03    -296.160E-03     591.610E-03    -295.449E-03     56.5065E-03    -296.498E-03     591.647E-03    -295.369E-03     52.7433E-03
            1672     4.68891E-03     71.0109E-03    -55.2003E+06    -50.9010E+06    -19.5684E+06    -598.622E+03    -295.902E-03     591.362E-03    -295.460E-03     49.0772E-03    -296.195E-03     591.335E-03    -295.404E-03     46.0587E-03
            1673     4.01858E-03     70.9315E-03    -60.1073E+06    -57.7680E+06    -29.2196E+06    -516.860E+03    -295.766E-03     591.229E-03    -295.463E-03     41.7447E-03    -296.022E-03     591.151E-03    -295.438E-03     39.3698E-03
            1674     3.34876E-03     70.8655E-03    -64.3295E+06    -64.7796E+06    -39.7999E+06    -267.302E+03    -295.663E-03     591.117E-03    -295.454E-03     34.4983E-03    -295.886E-03     590.997E-03    -295.466E-03     32.6769E-03
            1675     2.67899E-03     70.8114E-03    -68.9518E+06    -72.6795E+06    -51.8407E+06     53.3175E+03    -295.475E-03     590.920E-03    -295.444E-03     27.4668E-03    -295.672E-03     590.764E-03    -295.498E-03     26.1053E-03
            1676     2.00887E-03     70.7694E-03    -72.8792E+06    -79.7787E+06    -62.5911E+06     90.5261E+03    -295.444E-03     590.891E-03    -295.447E-03     20.5770E-03    -295.619E-03     590.706E-03    -295.539E-03     19.6148E-03
            1677     1.33954E-03     70.7395E-03    -75.8465E+06    -85.4074E+06    -71.0615E+06    -62.1107E+03    -295.473E-03     590.914E-03    -295.441E-03     13.7431E-03    -295.633E-03     590.708E-03    -295.563E-03     13.1225E-03
            1678     669.894E-06     70.7214E-03    -77.5327E+06    -89.3654E+06    -77.0574E+06    -176.195E+03    -295.541E-03     590.873E-03    -295.331E-03     7.37767E-03    -295.690E-03     590.652E-03    -295.475E-03     7.06896E-03
            1679     12.7324E-03     71.1208E-03    -3.15400E+06     22.3592E+06     53.9023E+06     158.963E+03    -298.493E-03     593.783E-03    -295.290E-03     107.133E-03    -299.612E-03     594.814E-03    -295.048E-03     94.8371E-03
            1680     12.0625E-03     70.9198E-03    -5.32334E+06     20.9606E+06     51.7940E+06     276.777E+03    -298.601E-03     593.894E-03    -295.293E-03     116.960E-03    -299.973E-03     595.172E-03    -295.057E-03     102.774E-03
            1681     11.3908E-03     70.7383E-03    -8.83019E+06     16.3673E+06     47.4126E+06    -87.8535E+03    -298.222E-03     593.533E-03    -295.310E-03     113.778E-03    -299.491E-03     594.690E-03    -295.084E-03     100.377E-03
            1682     10.7190E-03     70.5508E-03    -12.9487E+06     12.4427E+06     45.1924E+06    -507.467E+03    -298.184E-03     593.532E-03    -295.348E-03     112.470E-03    -299.415E-03     594.630E-03    -295.121E-03     99.5408E-03
            1683     10.0495E-03     70.3704E-03    -16.7547E+06     9.07305E+06     44.4619E+06    -174.278E+03    -298.043E-03     593.437E-03    -295.394E-03     107.730E-03    -299.155E-03     594.393E-03    -295.160E-03     95.8847E-03
            1684     9.37931E-03     70.1972E-03    -20.9612E+06     4.67763E+06     41.0923E+06     264.286E+03    -297.871E-03     593.297E-03    -295.426E-03     101.825E-03    -298.845E-03     594.094E-03    -295.197E-03     91.2598E-03
            1685     8.70902E-03     70.0333E-03    -25.4721E+06    -536.627E+03     35.4919E+06     268.825E+03    -297.674E-03     593.118E-03    -295.444E-03     94.9607E-03    -298.510E-03     593.759E-03    -295.229E-03     85.7152E-03
            1686     8.03885E-03     69.8807E-03    -30.5178E+06    -6.73377E+06     27.6644E+06     275.680E+03    -297.423E-03     592.870E-03    -295.447E-03     87.4766E-03    -298.130E-03     593.364E-03    -295.254E-03     79.5281E-03
            1687     7.36893E-03     69.7390E-03    -35.2834E+06    -12.9771E+06     19.0162E+06     188.242E+03    -297.080E-03     592.522E-03    -295.442E-03     79.7803E-03    -297.672E-03     592.888E-03    -295.277E-03     73.0503E-03
            1688     6.69874E-03     69.6107E-03    -39.5968E+06    -18.7082E+06     11.1187E+06     21.2326E+03    -296.706E-03     592.149E-03    -295.444E-03     72.0353E-03    -297.203E-03     592.408E-03    -295.304E-03     66.4084E-03
            1689     6.02902E-03     69.4940E-03    -44.5744E+06    -30.6665E+06     264.407E+03     58.1902E+03    -296.381E-03     591.827E-03    -295.446E-03     64.3134E-03    -296.791E-03     591.970E-03    -295.336E-03     59.6852E-03
            1690     5.35878E-03     69.3908E-03    -50.2731E+06    -43.7215E+06    -11.5787E+06    -205.291E+03    -296.091E-03     591.544E-03    -295.453E-03     56.6176E-03    -296.430E-03     591.583E-03    -295.374E-03     52.8492E-03
            1691     4.68826E-03     69.2990E-03    -55.1837E+06    -50.8910E+06    -20.6704E+06    -711.749E+03    -295.943E-03     591.406E-03    -295.463E-03     49.0854E-03    -296.235E-03     591.381E-03    -295.412E-03     46.0636E-03
            1692     4.01876E-03     69.2207E-03    -60.1553E+06    -58.2826E+06    -30.7161E+06    -834.562E+03    -295.805E-03     591.264E-03    -295.460E-03     41.6663E-03    -296.057E-03     591.186E-03    -295.442E-03     39.2911E-03
            1693     3.34881E-03     69.1536E-03    -65.5159E+06    -66.2754E+06    -41.9269E+06    -666.878E+03    -295.608E-03     591.061E-03    -295.453E-03     34.4014E-03    -295.831E-03     590.938E-03    -295.472E-03     32.5607E-03
            1694     2.67894E-03     69.1003E-03    -69.7610E+06    -73.4868E+06    -52.6221E+06    -361.949E+03    -295.533E-03     590.980E-03    -295.448E-03     27.3473E-03    -295.731E-03     590.823E-03    -295.503E-03     25.9718E-03
            1695     2.00926E-03     69.0579E-03    -73.2827E+06    -80.0061E+06    -62.5197E+06    -143.932E+03    -295.453E-03     590.895E-03    -295.442E-03     20.4128E-03    -295.630E-03     590.710E-03    -295.533E-03     19.4419E-03
            1696     1.33917E-03     69.0274E-03    -76.2439E+06    -85.7061E+06    -71.1024E+06     81.8232E+03    -295.427E-03     590.871E-03    -295.444E-03     13.6177E-03    -295.589E-03     590.664E-03    -295.565E-03     13.0016E-03
            1697     669.515E-06     69.0098E-03    -77.6498E+06    -89.3442E+06    -76.7482E+06     204.606E+03    -295.546E-03     590.900E-03    -295.353E-03     7.52097E-03    -295.696E-03     590.679E-03    -295.495E-03     7.19197E-03
            1698     12.7304E-03     69.4064E-03    -3.05234E+06     22.1019E+06     53.2069E+06    -215.025E+03    -298.088E-03     593.370E-03    -295.282E-03     108.052E-03    -299.216E-03     594.411E-03    -295.044E-03     95.7076E-03
            1699     12.0594E-03     69.2127E-03    -6.17272E+06     19.7624E+06     50.4081E+06    -395.543E+03    -298.360E-03     593.667E-03    -295.307E-03     117.924E-03    -299.742E-03     594.951E-03    -295.074E-03     103.723E-03
            1700     11.3893E-03     69.0262E-03    -8.86315E+06     16.4624E+06     48.2488E+06     117.019E+03    -298.256E-03     593.597E-03    -295.341E-03     113.862E-03    -299.525E-03     594.754E-03    -295.111E-03     100.483E-03
            1701     10.7207E-03     68.8415E-03    -12.3920E+06     13.0918E+06     46.4944E+06     610.316E+03    -298.329E-03     593.705E-03    -295.376E-03     112.255E-03    -299.557E-03     594.800E-03    -295.144E-03     99.3600E-03
            1702     10.0494E-03     68.6598E-03    -16.7934E+06     8.83579E+06     44.1731E+06     260.939E+03    -298.144E-03     593.553E-03    -295.409E-03     107.738E-03    -299.255E-03     594.507E-03    -295.176E-03     95.9044E-03
            1703     9.37901E-03     68.4866E-03    -21.1637E+06     4.27095E+06     40.6044E+06     20.4801E+03    -297.967E-03     593.401E-03    -295.435E-03     101.787E-03    -298.942E-03     594.198E-03    -295.207E-03     91.2020E-03
            1704     8.70883E-03     68.3224E-03    -25.5712E+06    -916.975E+03     34.8657E+06     176.978E+03    -297.738E-03     593.184E-03    -295.446E-03     94.8993E-03    -298.573E-03     593.823E-03    -295.233E-03     85.6431E-03
            1705     8.03895E-03     68.1692E-03    -29.8184E+06    -6.45497E+06     27.3797E+06     68.9693E+03    -297.363E-03     592.811E-03    -295.449E-03     87.4900E-03    -298.066E-03     593.307E-03    -295.259E-03     79.5314E-03
            1706     7.36871E-03     68.0284E-03    -34.5826E+06    -12.5249E+06     19.3985E+06    -249.293E+03    -296.933E-03     592.392E-03    -295.458E-03     80.0046E-03    -297.526E-03     592.761E-03    -295.293E-03     73.2520E-03
            1707     6.69865E-03     67.8994E-03    -40.0301E+06    -18.9937E+06     11.6328E+06    -232.971E+03    -296.649E-03     592.125E-03    -295.476E-03     72.3942E-03    -297.151E-03     592.384E-03    -295.333E-03     66.7501E-03
            1708     6.02824E-03     67.7831E-03    -45.3139E+06    -31.4824E+06     1.10560E+06    -30.4145E+03    -296.474E-03     591.958E-03    -295.484E-03     64.5822E-03    -296.890E-03     592.098E-03    -295.367E-03     59.9306E-03
            1709     5.35841E-03     67.6794E-03    -49.5980E+06    -43.3932E+06    -9.79217E+06     213.125E+03    -296.293E-03     591.771E-03    -295.477E-03     56.7418E-03    -296.633E-03     591.809E-03    -295.392E-03     52.9743E-03
            1710     4.68889E-03     67.5882E-03    -54.3202E+06    -50.0828E+06    -19.5310E+06     300.527E+03    -296.037E-03     591.502E-03    -295.465E-03     49.1245E-03    -296.327E-03     591.478E-03    -295.412E-03     46.1237E-03
            1711     4.01872E-03     67.5085E-03    -60.2297E+06    -58.4163E+06    -30.9208E+06     83.7070E+03    -295.761E-03     591.217E-03    -295.456E-03     41.7075E-03    -296.015E-03     591.139E-03    -295.438E-03     39.3228E-03
            1712     3.34885E-03     67.4433E-03    -65.4394E+06    -66.4687E+06    -42.4202E+06    -192.778E+03    -295.613E-03     591.064E-03    -295.451E-03     34.5533E-03    -295.836E-03     590.942E-03    -295.472E-03     32.7107E-03
            1713     2.67892E-03     67.3880E-03    -69.7497E+06    -73.8426E+06    -53.4507E+06    -411.283E+03    -295.580E-03     591.018E-03    -295.438E-03     27.5266E-03    -295.777E-03     590.860E-03    -295.497E-03     26.1537E-03
            1714     2.00932E-03     67.3464E-03    -73.6888E+06    -80.8226E+06    -63.7679E+06    -326.196E+03    -295.528E-03     590.938E-03    -295.409E-03     20.5484E-03    -295.705E-03     590.750E-03    -295.504E-03     19.5685E-03
            1715     1.33963E-03     67.3165E-03    -76.5254E+06    -86.2833E+06    -71.9270E+06    -268.481E+03    -295.433E-03     590.813E-03    -295.379E-03     13.6860E-03    -295.595E-03     590.604E-03    -295.503E-03     13.0553E-03
            1716     669.834E-06     67.2971E-03    -78.4949E+06    -89.8826E+06    -76.9169E+06    -273.286E+03    -295.341E-03     590.739E-03    -295.398E-03     7.28069E-03    -295.494E-03     590.517E-03    -295.538E-03     6.94155E-03
            1717     12.7307E-03     67.6987E-03    -2.20407E+06     22.4594E+06     52.7474E+06     263.833E+03    -297.726E-03     593.007E-03    -295.281E-03     107.121E-03    -298.844E-03     594.044E-03    -295.047E-03     94.7952E-03
            1718     12.0609E-03     67.5008E-03    -5.78351E+06     19.8604E+06     50.2608E+06    -146.774E+03    -298.235E-03     593.551E-03    -295.316E-03     116.744E-03    -299.608E-03     594.829E-03    -295.085E-03     102.523E-03
            1719     11.3906E-03     67.3171E-03    -9.91047E+06     15.2568E+06     47.1516E+06    -286.354E+03    -298.199E-03     593.551E-03    -295.352E-03     113.661E-03    -299.470E-03     594.704E-03    -295.124E-03     100.263E-03
            1720     10.7184E-03     67.1298E-03    -13.2303E+06     12.2772E+06     46.1323E+06    -16.5043E+03    -298.380E-03     593.770E-03    -295.390E-03     112.351E-03    -299.610E-03     594.863E-03    -295.158E-03     99.4519E-03
            1721     10.0492E-03     66.9494E-03    -16.5470E+06     9.10118E+06     44.8780E+06     388.636E+03    -298.360E-03     593.777E-03    -295.416E-03     107.524E-03    -299.471E-03     594.730E-03    -295.181E-03     95.6853E-03
            1722     9.37921E-03     66.7754E-03    -20.5134E+06     4.62163E+06     40.6052E+06     312.240E+03    -298.003E-03     593.431E-03    -295.428E-03     101.589E-03    -298.975E-03     594.229E-03    -295.202E-03     90.9977E-03
            1723     8.70922E-03     66.6115E-03    -24.9113E+06    -693.037E+03     34.4153E+06    -172.345E+03    -297.560E-03     593.002E-03    -295.443E-03     95.0114E-03    -298.393E-03     593.644E-03    -295.233E-03     85.7388E-03
            1724     8.03878E-03     66.4584E-03    -29.7387E+06    -6.57339E+06     27.3068E+06    -298.390E+03    -297.191E-03     592.655E-03    -295.464E-03     87.7330E-03    -297.896E-03     593.152E-03    -295.275E-03     79.7559E-03
            1725     7.36851E-03     66.3178E-03    -34.8327E+06    -12.8132E+06     19.5073E+06    -38.5567E+03    -296.934E-03     592.419E-03    -295.485E-03     80.0401E-03    -297.528E-03     592.787E-03    -295.318E-03     73.2913E-03
            1726     6.69810E-03     66.1883E-03    -40.0031E+06    -19.2583E+06     11.1799E+06     48.0635E+03    -296.686E-03     592.186E-03    -295.500E-03     72.1960E-03    -297.187E-03     592.444E-03    -295.358E-03     66.5580E-03
            1727     6.02839E-03     66.0718E-03    -44.7909E+06    -31.5051E+06     686.806E+03    -101.569E+03    -296.474E-03     591.980E-03    -295.506E-03     64.3633E-03    -296.886E-03     592.120E-03    -295.392E-03     59.7105E-03
            1728     5.35846E-03     65.9676E-03    -49.7856E+06    -43.9466E+06    -9.62465E+06    -123.699E+03    -296.287E-03     591.795E-03    -295.508E-03     56.8578E-03    -296.628E-03     591.831E-03    -295.420E-03     53.0725E-03
            1729     4.68847E-03     65.8763E-03    -55.1217E+06    -50.8346E+06    -18.4769E+06     263.684E+03    -296.017E-03     591.525E-03    -295.508E-03     49.5113E-03    -296.313E-03     591.498E-03    -295.447E-03     46.4639E-03
            1730     4.01867E-03     65.7981E-03    -59.9764E+06    -58.0763E+06    -29.3635E+06     572.097E+03    -295.807E-03     591.311E-03    -295.503E-03     42.1296E-03    -296.063E-03     591.232E-03    -295.479E-03     39.7391E-03
            1731     3.34867E-03     65.7311E-03    -64.6798E+06    -65.6840E+06    -41.0038E+06     430.063E+03    -295.722E-03     591.213E-03    -295.491E-03     34.8410E-03    -295.944E-03     591.091E-03    -295.507E-03     33.0126E-03
            1732     2.67906E-03     65.6769E-03    -69.6359E+06    -73.8099E+06    -53.0104E+06     301.072E+03    -295.598E-03     591.069E-03    -295.471E-03     27.6912E-03    -295.795E-03     590.910E-03    -295.528E-03     26.3294E-03
            1733     2.00898E-03     65.6346E-03    -73.5888E+06    -80.8600E+06    -63.6209E+06     138.957E+03    -295.531E-03     590.981E-03    -295.450E-03     20.7275E-03    -295.707E-03     590.793E-03    -295.544E-03     19.7686E-03
            1734     1.33952E-03     65.6042E-03    -76.7536E+06    -86.4338E+06    -71.7132E+06    -55.2396E+03    -295.487E-03     590.914E-03    -295.427E-03     13.9766E-03    -295.649E-03     590.705E-03    -295.549E-03     13.3363E-03
            1735     669.769E-06     65.5871E-03    -78.7641E+06    -90.4713E+06    -77.6029E+06    -65.4696E+03    -295.343E-03     590.829E-03    -295.486E-03     7.77476E-03    -295.496E-03     590.606E-03    -295.629E-03     7.39335E-03
            1736     12.7318E-03     65.9890E-03    -3.27116E+06     21.7429E+06     53.3202E+06    -92.7464E+03    -297.915E-03     593.219E-03    -295.304E-03     108.329E-03    -299.044E-03     594.259E-03    -295.064E-03     95.9871E-03
            1737     12.0603E-03     65.7915E-03    -5.86475E+06     19.9775E+06     51.0814E+06     788.617E+03    -298.541E-03     593.873E-03    -295.333E-03     118.125E-03    -299.912E-03     595.146E-03    -295.098E-03     104.064E-03
            1738     11.3891E-03     65.6070E-03    -8.74003E+06     16.2635E+06     47.8838E+06     631.551E+03    -298.590E-03     593.940E-03    -295.350E-03     113.625E-03    -299.852E-03     595.090E-03    -295.122E-03     100.278E-03
            1739     10.7204E-03     65.4197E-03    -12.5693E+06     12.4557E+06     45.3937E+06    -16.1714E+03    -298.503E-03     593.868E-03    -295.365E-03     111.671E-03    -299.727E-03     594.960E-03    -295.138E-03     98.7332E-03
            1740     10.0495E-03     65.2375E-03    -16.6432E+06     8.48385E+06     43.4152E+06    -425.391E+03    -298.132E-03     593.521E-03    -295.389E-03     107.133E-03    -299.238E-03     594.472E-03    -295.160E-03     95.2742E-03
            1741     9.37948E-03     65.0650E-03    -20.5316E+06     4.35261E+06     40.2658E+06    -261.749E+03    -297.789E-03     593.209E-03    -295.419E-03     101.664E-03    -298.760E-03     594.005E-03    -295.195E-03     91.0840E-03
            1742     8.70878E-03     64.9010E-03    -24.8954E+06    -673.319E+03     35.0398E+06     122.419E+03    -297.419E-03     592.870E-03    -295.452E-03     95.0627E-03    -298.253E-03     593.513E-03    -295.239E-03     85.7942E-03
            1743     8.03838E-03     64.7481E-03    -29.7977E+06    -6.70964E+06     27.4712E+06     214.893E+03    -297.170E-03     592.648E-03    -295.478E-03     87.6480E-03    -297.875E-03     593.144E-03    -295.288E-03     79.6810E-03
            1744     7.36828E-03     64.6062E-03    -34.5234E+06    -12.8644E+06     19.0425E+06     79.0447E+03    -296.995E-03     592.489E-03    -295.494E-03     79.9397E-03    -297.586E-03     592.857E-03    -295.330E-03     73.1854E-03
            1745     6.69866E-03     64.4775E-03    -39.3037E+06    -18.9356E+06     11.1098E+06    -166.677E+03    -296.667E-03     592.176E-03    -295.509E-03     72.2872E-03    -297.166E-03     592.436E-03    -295.369E-03     66.6237E-03
            1746     6.02827E-03     64.3604E-03    -44.6410E+06    -31.7305E+06     721.055E+03    -207.779E+03    -296.320E-03     591.850E-03    -295.530E-03     64.7498E-03    -296.733E-03     591.990E-03    -295.416E-03     60.0791E-03
            1747     5.35815E-03     64.2566E-03    -50.1247E+06    -44.7466E+06    -10.1840E+06     135.291E+03    -296.094E-03     591.652E-03    -295.557E-03     57.2154E-03    -296.437E-03     591.687E-03    -295.471E-03     53.4246E-03
            1748     4.68804E-03     64.1649E-03    -55.0533E+06    -51.2995E+06    -19.0975E+06     160.856E+03    -295.981E-03     591.562E-03    -295.581E-03     49.6587E-03    -296.276E-03     591.535E-03    -295.523E-03     46.6051E-03
            1749     4.01805E-03     64.0862E-03    -59.8981E+06    -58.2546E+06    -28.9574E+06     115.271E+03    -295.926E-03     591.513E-03    -295.587E-03     42.2643E-03    -296.182E-03     591.434E-03    -295.560E-03     39.8644E-03
            1750     3.34851E-03     64.0192E-03    -64.9276E+06    -65.8783E+06    -40.1592E+06     495.540E+03    -295.805E-03     591.379E-03    -295.574E-03     35.0097E-03    -296.030E-03     591.256E-03    -295.585E-03     33.1708E-03
            1751     2.67858E-03     63.9653E-03    -69.2452E+06    -73.3059E+06    -51.6068E+06     494.249E+03    -295.684E-03     591.238E-03    -295.554E-03     27.8585E-03    -295.882E-03     591.080E-03    -295.606E-03     26.4776E-03
            1752     2.00920E-03     63.9227E-03    -73.2110E+06    -80.5550E+06    -62.6961E+06     288.933E+03    -295.547E-03     591.090E-03    -295.543E-03     20.8443E-03    -295.723E-03     590.902E-03    -295.634E-03     19.8557E-03
            1753     1.33905E-03     63.8930E-03    -75.9739E+06    -86.1680E+06    -71.4113E+06     216.360E+03    -295.506E-03     591.063E-03    -295.557E-03     13.9479E-03    -295.666E-03     590.854E-03    -295.679E-03     13.2974E-03
            1754     669.451E-06     63.8740E-03    -78.8778E+06    -90.1287E+06    -76.3926E+06     76.8459E+03    -295.589E-03     591.147E-03    -295.558E-03     7.47940E-03    -295.744E-03     590.925E-03    -295.695E-03     7.12468E-03
            1755     12.7285E-03     64.2783E-03    -3.46638E+06     21.3723E+06     52.9741E+06    -71.4464E+03    -298.072E-03     593.400E-03    -295.328E-03     107.674E-03    -299.198E-03     594.436E-03    -295.089E-03     95.3349E-03
            1756     12.0592E-03     64.0804E-03    -6.42304E+06     19.3652E+06     50.4819E+06    -311.312E+03    -298.961E-03     594.296E-03    -295.335E-03     116.753E-03    -300.340E-03     595.574E-03    -295.101E-03     102.479E-03
            1757     11.3908E-03     63.8946E-03    -9.00256E+06     15.8933E+06     47.6273E+06    -39.9411E+03    -298.615E-03     593.950E-03    -295.334E-03     113.330E-03    -299.884E-03     595.104E-03    -295.106E-03     99.8935E-03
            1758     10.7201E-03     63.7085E-03    -12.1531E+06     12.6834E+06     45.6478E+06     341.755E+03    -298.331E-03     593.685E-03    -295.355E-03     112.540E-03    -299.563E-03     594.787E-03    -295.127E-03     99.5824E-03
            1759     10.0500E-03     63.5285E-03    -15.8722E+06     9.01959E+06     43.8683E+06     313.835E+03    -298.014E-03     593.408E-03    -295.394E-03     108.211E-03    -299.125E-03     594.368E-03    -295.164E-03     96.3657E-03
            1760     9.37900E-03     63.3543E-03    -20.6029E+06     4.07833E+06     39.9439E+06     7.05893E+03    -297.808E-03     593.239E-03    -295.431E-03     102.077E-03    -298.783E-03     594.039E-03    -295.207E-03     91.4700E-03
            1761     8.70900E-03     63.1909E-03    -25.0567E+06    -1.09271E+06     34.3265E+06     4.07428E+03    -297.554E-03     593.011E-03    -295.457E-03     95.0930E-03    -298.389E-03     593.654E-03    -295.248E-03     85.7987E-03
            1762     8.03883E-03     63.0372E-03    -29.3803E+06    -6.63211E+06     27.1469E+06    -14.4416E+03    -297.182E-03     592.661E-03    -295.479E-03     87.8176E-03    -297.887E-03     593.160E-03    -295.291E-03     79.8295E-03
            1763     7.36859E-03     62.8956E-03     -34.409E+06    -12.9246E+06     19.0569E+06    -84.8518E+03    -296.773E-03     592.283E-03    -295.510E-03     80.3732E-03    -297.367E-03     592.654E-03    -295.346E-03     73.5975E-03
            1764     6.69793E-03     62.7660E-03    -39.5831E+06    -19.2673E+06     11.1301E+06     189.193E+03    -296.488E-03     592.038E-03    -295.550E-03     72.7924E-03    -296.990E-03     592.299E-03    -295.409E-03     67.1229E-03
            1765     6.02787E-03     62.6500E-03    -44.6292E+06    -32.0371E+06     537.191E+03     387.982E+03    -296.309E-03     591.896E-03    -295.587E-03     65.0492E-03    -296.722E-03     592.036E-03    -295.473E-03     60.3810E-03
            1766     5.35763E-03     62.5451E-03    -49.5271E+06    -44.8352E+06    -10.2892E+06     68.4434E+03    -296.155E-03     591.774E-03    -295.619E-03     57.2876E-03    -296.495E-03     591.809E-03    -295.534E-03     53.4868E-03
            1767     4.68771E-03     62.4537E-03    -54.5002E+06    -51.3654E+06    -19.0051E+06     17.3189E+03    -296.046E-03     591.691E-03    -295.645E-03     49.6577E-03    -296.338E-03     591.662E-03    -295.586E-03     46.6083E-03
            1768     4.01801E-03     62.3738E-03    -59.7714E+06    -58.6438E+06    -29.2072E+06     187.942E+03    -295.936E-03     591.590E-03    -295.655E-03     42.1890E-03    -296.191E-03     591.510E-03    -295.629E-03     39.7773E-03
            1769     3.34802E-03     62.3077E-03    -64.5277E+06    -66.1520E+06    -40.4553E+06     8.33453E+03    -295.822E-03     591.474E-03    -295.652E-03     34.9474E-03    -296.044E-03     591.350E-03    -295.665E-03     33.0760E-03
            1770     2.67850E-03     62.2526E-03    -68.7284E+06    -73.3751E+06    -51.5442E+06     99.2043E+03    -295.734E-03     591.379E-03    -295.645E-03     27.8398E-03    -295.930E-03     591.220E-03    -295.696E-03     26.4252E-03
            1771     2.00856E-03     62.2111E-03    -72.5126E+06    -80.1245E+06    -61.7914E+06     302.821E+03    -295.707E-03     591.336E-03    -295.629E-03     20.7893E-03    -295.882E-03     591.149E-03    -295.717E-03     19.7787E-03
            1772     1.33928E-03     62.1805E-03    -75.6905E+06    -85.9625E+06    -70.5241E+06     303.120E+03    -295.679E-03     591.275E-03    -295.596E-03     13.8385E-03    -295.839E-03     591.066E-03    -295.714E-03     13.2037E-03
            1773     669.702E-06     62.1618E-03    -76.5275E+06    -89.3933E+06    -76.5517E+06     255.510E+03    -295.812E-03     591.155E-03    -295.342E-03     7.31344E-03    -295.956E-03     590.932E-03    -295.485E-03     6.99356E-03
            1774     12.7319E-03     62.5659E-03    -2.50178E+06     21.7953E+06     52.4330E+06     43.9461E+03    -298.271E-03     593.539E-03    -295.267E-03     106.192E-03    -299.382E-03     594.566E-03    -295.033E-03     93.8636E-03
            1775     12.0622E-03     62.3697E-03    -5.85813E+06     19.1967E+06     49.4088E+06     11.4319E+03    -298.230E-03     593.512E-03    -295.282E-03     116.686E-03    -299.595E-03     594.782E-03    -295.054E-03     102.526E-03
            1776     11.3900E-03     62.1849E-03    -9.17139E+06     15.2338E+06     46.6170E+06     8.16152E+03    -297.966E-03     593.290E-03    -295.324E-03     113.861E-03    -299.227E-03     594.438E-03    -295.100E-03     100.544E-03
            1777     10.7193E-03     61.9989E-03    -12.6932E+06     12.0746E+06     45.4462E+06    -89.1851E+03    -298.132E-03     593.508E-03    -295.376E-03     112.449E-03    -299.360E-03     594.603E-03    -295.148E-03     99.5450E-03
            1778     10.0485E-03     61.8170E-03    -16.2874E+06     8.73416E+06     44.3095E+06     141.807E+03    -298.113E-03     593.534E-03    -295.421E-03     107.706E-03    -299.227E-03     594.492E-03    -295.188E-03     95.8170E-03
            1779     9.37907E-03     61.6439E-03    -20.0951E+06     4.46475E+06     40.4511E+06     303.033E+03    -297.796E-03     593.248E-03    -295.452E-03     102.003E-03    -298.772E-03     594.051E-03    -295.227E-03     91.3640E-03
            1780     8.70866E-03     61.4795E-03    -24.8197E+06    -1.13508E+06     34.0445E+06    -1.19935E+03    -297.458E-03     592.940E-03    -295.483E-03     95.5549E-03    -298.296E-03     593.587E-03    -295.275E-03     86.2448E-03
            1781     8.03842E-03     61.3267E-03    -29.6190E+06    -7.06491E+06     26.6879E+06     127.348E+03    -297.083E-03     592.602E-03    -295.519E-03     88.4769E-03    -297.793E-03     593.104E-03    -295.332E-03     80.4713E-03
            1782     7.36785E-03     61.1851E-03    -34.5324E+06    -13.2467E+06     18.6979E+06     403.063E+03    -296.741E-03     592.303E-03    -295.562E-03     80.8639E-03    -297.337E-03     592.676E-03    -295.400E-03     74.0836E-03
            1783     6.69760E-03     61.0557E-03    -39.4890E+06    -19.4335E+06     10.7745E+06     286.271E+03    -296.525E-03     592.134E-03    -295.609E-03     72.9268E-03    -297.027E-03     592.396E-03    -295.470E-03     67.2448E-03
            1784     6.02733E-03     60.9379E-03    -44.0972E+06    -31.8930E+06     688.665E+03     70.2731E+03    -296.426E-03     592.072E-03    -295.646E-03     65.0386E-03    -296.838E-03     592.213E-03    -295.533E-03     60.3407E-03
            1785     5.35759E-03     60.8341E-03    -48.9456E+06    -44.6361E+06    -9.74568E+06     162.798E+03    -296.303E-03     591.973E-03    -295.671E-03     57.3283E-03    -296.642E-03     592.008E-03    -295.584E-03     53.4997E-03
            1786     4.68763E-03     60.7413E-03    -54.3317E+06    -51.6184E+06    -18.8944E+06     210.852E+03    -296.096E-03     591.786E-03    -295.689E-03     49.7696E-03    -296.389E-03     591.757E-03    -295.630E-03     46.6875E-03
            1787     4.01767E-03     60.6624E-03    -58.8365E+06    -58.4774E+06    -29.1032E+06     83.3338E+03    -295.970E-03     591.669E-03    -295.699E-03     42.2662E-03    -296.222E-03     591.588E-03    -295.674E-03     39.8314E-03
            1788     3.34806E-03     60.5950E-03    -63.5296E+06    -65.9936E+06    -40.5269E+06    -36.4401E+03    -295.863E-03     591.560E-03    -295.697E-03     34.8660E-03    -296.081E-03     591.436E-03    -295.712E-03     32.9809E-03
            1789     2.67819E-03     60.5409E-03    -68.4879E+06    -73.8234E+06    -51.9503E+06    -100.915E+03    -295.733E-03     591.431E-03    -295.698E-03     27.7294E-03    -295.926E-03     591.270E-03    -295.752E-03     26.3079E-03
            1790     2.00877E-03     60.4982E-03    -72.2378E+06    -80.3485E+06    -61.7302E+06     42.6748E+03    -295.700E-03     591.406E-03    -295.706E-03     20.9275E-03    -295.873E-03     591.217E-03    -295.794E-03     19.9115E-03
            1791     1.33919E-03     60.4678E-03    -74.9855E+06    -85.7158E+06    -69.9502E+06     83.4688E+03    -295.701E-03     591.415E-03    -295.714E-03     14.2043E-03    -295.859E-03     591.205E-03    -295.831E-03     13.5398E-03
            1792     669.607E-06     60.4502E-03    -76.3804E+06    -88.9719E+06    -75.1133E+06     79.6406E+03    -295.709E-03     591.446E-03    -295.738E-03     8.06214E-03    -295.855E-03     591.224E-03    -295.873E-03     7.71480E-03
            1793     12.7326E-03     60.8593E-03    -2.60943E+06     21.6210E+06     52.5028E+06     187.135E+03    -298.032E-03     593.297E-03    -295.265E-03     108.818E-03    -299.156E-03     594.337E-03    -295.030E-03     96.5245E-03
            1794     12.0597E-03     60.6600E-03    -5.26016E+06     19.6355E+06     49.9635E+06     749.905E+03    -298.395E-03     593.689E-03    -295.294E-03     118.259E-03    -299.759E-03     594.959E-03    -295.065E-03     104.232E-03
            1795     11.3901E-03     60.4763E-03    -9.03925E+06     15.2557E+06     46.6461E+06     205.450E+03    -298.288E-03     593.614E-03    -295.325E-03     113.538E-03    -299.550E-03     594.762E-03    -295.101E-03     100.183E-03
            1796     10.7198E-03     60.2878E-03    -12.4987E+06     11.9908E+06     45.0289E+06    -273.478E+03    -298.127E-03     593.490E-03    -295.363E-03     111.954E-03    -299.354E-03     594.585E-03    -295.137E-03     99.0014E-03
            1797     10.0502E-03     60.1070E-03    -16.2178E+06     8.32621E+06     43.1601E+06    -322.193E+03    -297.736E-03     593.150E-03    -295.415E-03     107.674E-03    -298.847E-03     594.108E-03    -295.188E-03     95.7883E-03
            1798     9.37880E-03     59.9336E-03    -20.5584E+06     3.68837E+06     39.3719E+06    -41.4272E+03    -297.463E-03     592.937E-03    -295.475E-03     102.365E-03    -298.439E-03     593.739E-03    -295.253E-03     91.7600E-03
            1799     8.70821E-03     59.7694E-03    -25.0339E+06    -1.44103E+06     34.0147E+06     399.499E+03    -297.241E-03     592.776E-03    -295.534E-03     95.8143E-03    -298.081E-03     593.423E-03    -295.326E-03     86.5123E-03
            1800     8.03748E-03     59.6161E-03    -29.7334E+06    -7.22666E+06     26.8487E+06     409.134E+03    -297.081E-03     592.666E-03    -295.585E-03     88.4394E-03    -297.793E-03     593.169E-03    -295.397E-03     80.4134E-03
            1801     7.36733E-03     59.4742E-03    -34.1867E+06    -13.0113E+06     19.0611E+06     249.982E+03    -296.930E-03     592.554E-03    -295.624E-03     80.7574E-03    -297.528E-03     592.929E-03    -295.461E-03     73.9328E-03
            1802     6.69732E-03     59.3441E-03    -38.6431E+06    -18.7073E+06     11.5944E+06     3.90298E+03    -296.676E-03     592.337E-03    -295.661E-03     72.9818E-03    -297.180E-03     592.603E-03    -295.520E-03     67.2479E-03
            1803     6.02729E-03     59.2272E-03    -44.0072E+06    -32.0187E+06     949.714E+03    -54.7275E+03    -296.448E-03     592.142E-03    -295.694E-03     65.2420E-03    -296.863E-03     592.284E-03    -295.579E-03     60.5066E-03
            1804     5.35715E-03     59.1214E-03    -48.9680E+06    -45.1885E+06    -9.99277E+06     115.330E+03    -296.315E-03     592.037E-03    -295.722E-03     57.5973E-03    -296.655E-03     592.071E-03    -295.635E-03     53.7359E-03
            1805     4.68738E-03     59.0302E-03    -53.2803E+06    -51.3060E+06    -18.7497E+06     55.7313E+03    -296.171E-03     591.913E-03    -295.742E-03     50.0260E-03    -296.461E-03     591.886E-03    -295.684E-03     46.9046E-03
            1806     4.01761E-03     58.9496E-03    -58.5032E+06    -58.6251E+06    -29.0504E+06    -64.5384E+03    -295.990E-03     591.746E-03    -295.756E-03     42.5713E-03    -296.241E-03     591.665E-03    -295.731E-03     40.1061E-03
            1807     3.34788E-03     58.8830E-03    -63.4732E+06    -66.1433E+06    -39.9773E+06     78.7988E+03    -295.871E-03     591.640E-03    -295.769E-03     35.2597E-03    -296.091E-03     591.515E-03    -295.781E-03     33.3478E-03
            1808     2.67833E-03     58.8284E-03    -68.1253E+06    -73.8681E+06    -51.6166E+06     110.008E+03    -295.821E-03     591.595E-03    -295.774E-03     28.1027E-03    -296.013E-03     591.433E-03    -295.827E-03     26.6673E-03
            1809     2.00839E-03     58.7861E-03    -71.8356E+06    -80.7124E+06    -62.1274E+06    -114.294E+03    -295.719E-03     591.510E-03    -295.791E-03     21.0364E-03    -295.890E-03     591.319E-03    -295.880E-03     20.0041E-03
            1810     1.33850E-03     58.7553E-03    -74.2999E+06    -85.6413E+06    -69.7503E+06    -229.193E+03    -295.715E-03     591.556E-03    -295.842E-03     14.0491E-03    -295.869E-03     591.346E-03    -295.959E-03     13.3779E-03
            1811     669.038E-06     58.7365E-03    -76.6773E+06    -89.3911E+06    -74.9343E+06    -148.981E+03    -295.651E-03     591.757E-03    -296.107E-03     7.51052E-03    -295.798E-03     591.533E-03    -296.241E-03     7.20844E-03
            1812     12.7278E-03     59.1462E-03    -3.22861E+06     21.0455E+06     52.5026E+06    -235.328E+03    -298.310E-03     593.625E-03    -295.315E-03     107.410E-03    -299.429E-03     594.656E-03    -295.079E-03     95.0816E-03
            1813     12.0607E-03     58.9492E-03    -6.29965E+06     19.0836E+06     50.5501E+06    -345.122E+03    -298.883E-03     594.203E-03    -295.320E-03     116.795E-03    -300.262E-03     595.480E-03    -295.085E-03     102.511E-03
            1814     11.3906E-03     58.7644E-03    -8.69048E+06     15.6265E+06     47.4194E+06     224.939E+03    -298.225E-03     593.557E-03    -295.332E-03     113.885E-03    -299.497E-03     594.717E-03    -295.105E-03     100.444E-03
            1815     10.7205E-03     58.5785E-03    -12.0075E+06     12.1218E+06     44.8114E+06     381.236E+03    -297.832E-03     593.213E-03    -295.381E-03     113.277E-03    -299.069E-03     594.321E-03    -295.157E-03     100.313E-03
            1816     10.0484E-03     58.3978E-03    -16.3639E+06     7.92235E+06     42.5454E+06     351.726E+03    -297.623E-03     593.078E-03    -295.455E-03     108.979E-03    -298.742E-03     594.044E-03    -295.230E-03     97.1137E-03
            1817     9.37822E-03     58.2235E-03    -20.7485E+06     3.32888E+06     38.9369E+06     397.295E+03    -297.528E-03     593.054E-03    -295.526E-03     102.834E-03    -298.509E-03     593.860E-03    -295.306E-03     92.2089E-03
            1818     8.70759E-03     58.0594E-03    -24.6980E+06    -1.35348E+06     33.8225E+06     281.609E+03    -297.351E-03     592.935E-03    -295.584E-03     95.9286E-03    -298.192E-03     593.586E-03    -295.377E-03     86.5894E-03
            1819     8.03746E-03     57.9051E-03    -29.0684E+06    -6.84392E+06     26.8793E+06     48.1931E+03    -297.181E-03     592.812E-03    -295.631E-03     88.5350E-03    -297.894E-03     593.319E-03    -295.444E-03     80.4540E-03
            1820     7.36727E-03     57.7629E-03    -33.7479E+06    -12.8065E+06     19.1103E+06    -110.288E+03    -296.913E-03     592.586E-03    -295.672E-03     80.9693E-03    -297.514E-03     592.966E-03    -295.509E-03     74.0845E-03
            1821     6.69696E-03     57.6329E-03    -38.6105E+06    -18.9010E+06     11.2961E+06     17.9588E+03    -296.642E-03     592.359E-03    -295.717E-03     73.3766E-03    -297.148E-03     592.628E-03    -295.577E-03     67.6020E-03
            1822     6.02689E-03     57.5151E-03    -43.6807E+06    -32.2114E+06     492.377E+03     82.8608E+03    -296.454E-03     592.213E-03    -295.760E-03     65.7390E-03    -296.869E-03     592.358E-03    -295.647E-03     60.9598E-03
            1823     5.35690E-03     57.4104E-03    -48.4761E+06    -45.3534E+06    -10.2936E+06    -131.268E+03    -296.304E-03     592.104E-03    -295.800E-03     58.1019E-03    -296.644E-03     592.141E-03    -295.716E-03     54.2048E-03
            1824     4.68694E-03     57.3170E-03    -53.2647E+06    -51.6342E+06    -18.6178E+06    -153.000E+03    -296.175E-03     592.013E-03    -295.839E-03     50.5114E-03    -296.466E-03     591.986E-03    -295.780E-03     47.3576E-03
            1825     4.01723E-03     57.2381E-03    -58.5014E+06    -58.9224E+06    -28.8175E+06     68.1719E+03    -296.014E-03     591.884E-03    -295.870E-03     43.0154E-03    -296.267E-03     591.803E-03    -295.844E-03     40.5056E-03
            1826     3.34723E-03     57.1704E-03    -63.5221E+06    -66.6062E+06    -40.1596E+06     232.294E+03    -295.916E-03     591.815E-03    -295.899E-03     35.6693E-03    -296.136E-03     591.690E-03    -295.911E-03     33.7306E-03
            1827     2.67751E-03     57.1156E-03    -67.4082E+06    -73.5738E+06    -51.0330E+06     254.726E+03    -295.964E-03     591.881E-03    -295.917E-03     28.3936E-03    -296.155E-03     591.720E-03    -295.968E-03     26.9336E-03
            1828     2.00838E-03     57.0730E-03    -71.1543E+06    -80.3302E+06    -61.3504E+06     63.3965E+03    -296.009E-03     591.915E-03    -295.907E-03     21.2002E-03    -296.178E-03     591.725E-03    -295.994E-03     20.1659E-03
            1829     1.33920E-03     57.0427E-03    -74.4623E+06    -86.0970E+06    -69.7420E+06     87.1653E+03    -295.960E-03     591.835E-03    -295.874E-03     14.2057E-03    -296.115E-03     591.622E-03    -295.990E-03     13.5569E-03
            1830     669.782E-06     57.0229E-03    -76.2186E+06    -89.7013E+06    -75.2102E+06     99.7357E+03    -295.749E-03     591.718E-03    -295.969E-03     7.71085E-03    -295.893E-03     591.492E-03    -296.105E-03     7.38165E-03
            1831     12.7332E-03     57.4329E-03    -2.65491E+06     21.2335E+06     52.2665E+06    -52.3859E+03    -298.242E-03     593.520E-03    -295.278E-03     106.023E-03    -299.351E-03     594.543E-03    -295.043E-03     93.6967E-03
            1832     12.0609E-03     57.2403E-03    -5.96603E+06     18.4738E+06     48.6576E+06    -463.334E+03    -297.797E-03     593.101E-03    -295.304E-03     117.044E-03    -299.168E-03     594.375E-03    -295.078E-03     102.841E-03
            1833     11.3897E-03     57.0540E-03    -9.37403E+06     14.4575E+06     45.8484E+06    -227.925E+03    -297.583E-03     592.956E-03    -295.373E-03     114.683E-03    -298.856E-03     594.115E-03    -295.152E-03     101.303E-03
            1834     10.7177E-03     56.8702E-03    -12.6567E+06     11.5629E+06     44.9647E+06     578.869E+03    -297.847E-03     593.302E-03    -295.454E-03     113.207E-03    -299.084E-03     594.404E-03    -295.228E-03     100.282E-03
            1835     10.0483E-03     56.6865E-03    -16.2260E+06     8.20431E+06     43.5616E+06     677.746E+03    -297.882E-03     593.406E-03    -295.524E-03     108.613E-03    -299.005E-03     594.375E-03    -295.295E-03     96.6790E-03
            1836     9.37765E-03     56.5136E-03    -19.8991E+06     4.14288E+06     40.0400E+06     299.756E+03    -297.678E-03     593.259E-03    -295.581E-03     102.661E-03    -298.663E-03     594.072E-03    -295.358E-03     91.9540E-03
            1837     8.70741E-03     56.3481E-03    -24.1939E+06    -1.00785E+06     34.1513E+06     126.295E+03    -297.410E-03     593.042E-03    -295.632E-03     96.1146E-03    -298.254E-03     593.698E-03    -295.425E-03     86.7325E-03
            1838     8.03700E-03     56.1943E-03    -28.7882E+06    -6.86065E+06     26.5762E+06     42.2265E+03    -297.051E-03     592.736E-03    -295.686E-03     89.0360E-03    -297.767E-03     593.249E-03    -295.501E-03     80.9230E-03
            1839     7.36657E-03     56.0517E-03    -33.5174E+06    -12.9255E+06     18.6005E+06    -27.1641E+03    -296.776E-03     592.523E-03    -295.747E-03     81.6515E-03    -297.380E-03     592.908E-03    -295.587E-03     74.7318E-03
            1840     6.69638E-03     55.9217E-03    -38.9072E+06    -19.4207E+06     10.6495E+06    -101.255E+03    -296.597E-03     592.411E-03    -295.814E-03     74.0393E-03    -297.108E-03     592.683E-03    -295.676E-03     68.2241E-03
            1841     6.02609E-03     55.8035E-03    -43.5146E+06    -32.3099E+06     546.561E+03    -134.692E+03    -296.494E-03     592.366E-03    -295.873E-03     66.3064E-03    -296.913E-03     592.515E-03    -295.760E-03     61.4752E-03
            1842     5.35615E-03     55.6980E-03    -48.0948E+06    -45.3446E+06    -9.99395E+06     26.7714E+03    -296.358E-03     592.283E-03    -295.925E-03     58.5792E-03    -296.699E-03     592.322E-03    -295.840E-03     54.6282E-03
            1843     4.68623E-03     55.6053E-03    -53.5182E+06    -52.2884E+06    -19.0711E+06     208.326E+03    -296.164E-03     592.144E-03    -295.980E-03     50.9067E-03    -296.458E-03     592.117E-03    -295.922E-03     47.7178E-03
            1844     4.01628E-03     55.5249E-03    -58.2637E+06    -59.1481E+06    -28.9201E+06     258.255E+03    -296.110E-03     592.139E-03    -296.029E-03     43.3087E-03    -296.363E-03     592.059E-03    -296.004E-03     40.7662E-03
            1845     3.34693E-03     55.4580E-03    -62.7960E+06    -66.3812E+06    -39.8103E+06     172.415E+03    -296.112E-03     592.176E-03    -296.063E-03     35.9313E-03    -296.330E-03     592.051E-03    -296.075E-03     33.9646E-03
            1846     2.67741E-03     55.4020E-03    -67.1888E+06    -73.5944E+06    -50.5950E+06     39.3612E+03    -296.088E-03     592.175E-03    -296.087E-03     28.6230E-03    -296.279E-03     592.013E-03    -296.136E-03     27.1452E-03
            1847     2.00772E-03     55.3595E-03    -70.9222E+06    -80.3217E+06    -60.8099E+06     280.474E+03    -296.127E-03     592.223E-03    -296.096E-03     21.5134E-03    -296.296E-03     592.032E-03    -296.181E-03     20.4613E-03
            1848     1.33843E-03     55.3284E-03    -73.7656E+06    -85.9435E+06    -69.4332E+06     361.962E+03    -296.116E-03     592.207E-03    -296.091E-03     14.6326E-03    -296.268E-03     591.994E-03    -296.207E-03     13.9478E-03
            1849     669.100E-06     55.3107E-03    -76.1353E+06    -89.5922E+06    -74.3819E+06     143.685E+03    -296.203E-03     592.191E-03    -295.988E-03     8.19777E-03    -296.349E-03     591.965E-03    -296.119E-03     7.81107E-03
            1850     12.7306E-03     55.7274E-03    -2.32484E+06     20.9524E+06     51.0548E+06     203.538E+03    -297.460E-03     592.769E-03    -295.309E-03     109.025E-03    -298.576E-03     593.803E-03    -295.081E-03     96.7880E-03
            1851     12.0598E-03     55.5303E-03    -5.10861E+06     19.0417E+06     48.9642E+06     749.435E+03    -298.170E-03     593.535E-03    -295.365E-03     118.280E-03    -299.536E-03     594.809E-03    -295.141E-03     104.208E-03
            1852     11.3885E-03     55.3473E-03    -9.07549E+06     14.5497E+06     45.6554E+06     204.755E+03    -297.996E-03     593.412E-03    -295.417E-03     113.988E-03    -299.267E-03     594.571E-03    -295.196E-03     100.552E-03
            1853     10.7190E-03     55.1576E-03    -12.6109E+06     11.3047E+06     44.2688E+06    -297.505E+03    -297.934E-03     593.413E-03    -295.479E-03     112.488E-03    -299.170E-03     594.516E-03    -295.256E-03     99.4786E-03
            1854     10.0479E-03     54.9776E-03    -16.1159E+06     8.02867E+06     43.1157E+06    -312.395E+03    -297.720E-03     593.271E-03    -295.551E-03     108.418E-03    -298.843E-03     594.241E-03    -295.324E-03     96.4525E-03
            1855     9.37740E-03     54.8021E-03    -19.8844E+06     3.95905E+06     39.8206E+06    -78.8734E+03    -297.477E-03     593.102E-03    -295.624E-03     103.020E-03    -298.465E-03     593.918E-03    -295.402E-03     92.2957E-03
            1856     8.70692E-03     54.6380E-03    -24.4109E+06    -1.34966E+06     33.9889E+06     142.706E+03    -297.175E-03     592.874E-03    -295.699E-03     96.6012E-03    -298.027E-03     593.536E-03    -295.492E-03     87.1687E-03
            1857     8.03624E-03     54.4835E-03    -28.8528E+06    -6.95428E+06     26.8618E+06     247.308E+03    -296.878E-03     592.657E-03    -295.779E-03     89.5997E-03    -297.601E-03     593.175E-03    -295.593E-03     81.4468E-03
            1858     7.36570E-03     54.3410E-03    -33.4193E+06    -12.9001E+06     18.8531E+06     306.247E+03    -296.732E-03     592.593E-03    -295.861E-03     82.1077E-03    -297.340E-03     592.982E-03    -295.700E-03     75.1571E-03
            1859     6.69522E-03     54.2098E-03    -38.0833E+06    -18.8731E+06     10.9481E+06     238.580E+03    -296.634E-03     592.573E-03    -295.940E-03     74.3664E-03    -297.146E-03     592.851E-03    -295.802E-03     68.5077E-03
            1860     6.02531E-03     54.0915E-03    -43.3447E+06    -32.4049E+06     513.059E+03     109.766E+03    -296.499E-03     592.512E-03    -296.013E-03     66.6059E-03    -296.920E-03     592.663E-03    -295.900E-03     61.7368E-03
            1861     5.35529E-03     53.9855E-03    -48.4672E+06    -45.9613E+06    -10.1854E+06     141.055E+03    -296.373E-03     592.457E-03    -296.084E-03     58.9515E-03    -296.719E-03     592.497E-03    -295.998E-03     54.9467E-03
            1862     4.68549E-03     53.8926E-03    -52.9286E+06    -52.2357E+06    -19.0064E+06     158.562E+03    -296.308E-03     592.458E-03    -296.150E-03     51.2916E-03    -296.601E-03     592.433E-03    -296.093E-03     48.0463E-03
            1863     4.01581E-03     53.8121E-03    -57.8741E+06    -59.2864E+06    -29.0153E+06     62.5121E+03    -296.287E-03     592.491E-03    -296.204E-03     43.6244E-03    -296.539E-03     592.411E-03    -296.179E-03     41.0558E-03
            1864     3.34603E-03     53.7438E-03    -62.5052E+06    -66.3957E+06    -39.4283E+06     59.8985E+03    -296.289E-03     592.531E-03    -296.242E-03     36.1410E-03    -296.507E-03     592.406E-03    -296.252E-03     34.1383E-03
            1865     2.67668E-03     53.6887E-03    -66.8251E+06    -73.7124E+06    -50.5027E+06     226.509E+03    -296.261E-03     592.527E-03    -296.266E-03     28.7928E-03    -296.451E-03     592.365E-03    -296.315E-03     27.2915E-03
            1866     2.00753E-03     53.6452E-03    -70.7128E+06    -80.4126E+06    -60.4978E+06     217.376E+03    -296.208E-03     592.505E-03    -296.298E-03     21.5295E-03    -296.377E-03     592.313E-03    -296.381E-03     20.4546E-03
            1867     1.33812E-03     53.6146E-03    -73.5692E+06    -85.6672E+06    -68.3512E+06     95.5046E+03    -296.267E-03     592.605E-03    -296.338E-03     14.3715E-03    -296.421E-03     592.392E-03    -296.449E-03     13.6658E-03
            1868     668.991E-06     53.5953E-03    -74.3857E+06    -88.8306E+06    -73.8881E+06     168.861E+03    -296.794E-03     592.722E-03    -295.928E-03     7.91372E-03    -296.933E-03     592.496E-03    -296.060E-03     7.54066E-03
            1869     12.7272E-03     54.0134E-03    -2.91269E+06     20.4175E+06     51.1654E+06     230.629E+03    -297.587E-03     592.963E-03    -295.375E-03     107.218E-03    -298.701E-03     593.990E-03    -295.145E-03     94.9271E-03
            1870     12.0583E-03     53.8193E-03    -5.84693E+06     18.6806E+06     49.4780E+06    -214.899E+03    -298.498E-03     593.911E-03    -295.413E-03     116.389E-03    -299.873E-03     595.188E-03    -295.184E-03     102.086E-03
            1871     11.3898E-03     53.6349E-03    -8.73710E+06     14.9580E+06     46.4795E+06     120.485E+03    -298.169E-03     593.614E-03    -295.445E-03     113.992E-03    -299.446E-03     594.778E-03    -295.221E-03     100.494E-03
            1872     10.7184E-03     53.4497E-03    -11.7819E+06     11.7949E+06     44.2797E+06     228.636E+03    -297.835E-03     593.339E-03    -295.504E-03     113.520E-03    -299.080E-03     594.456E-03    -295.283E-03     100.468E-03
            1873     10.0477E-03     53.2669E-03    -15.6207E+06     7.97122E+06     42.1138E+06    -102.036E+03    -297.512E-03     593.101E-03    -295.590E-03     109.181E-03    -298.640E-03     594.080E-03    -295.368E-03     97.1908E-03
            1874     9.37685E-03     53.0928E-03    -20.2341E+06     3.12137E+06     38.2457E+06    -248.208E+03    -297.200E-03     592.887E-03    -295.687E-03     103.609E-03    -298.194E-03     593.709E-03    -295.471E-03     92.8501E-03
            1875     8.70579E-03     52.9273E-03    -24.6729E+06    -1.96328E+06     32.9539E+06    -234.371E+03    -296.980E-03     592.770E-03    -295.790E-03     97.0638E-03    -297.837E-03     593.437E-03    -295.587E-03     87.5861E-03
            1876     8.03519E-03     52.7731E-03    -28.9413E+06    -7.29079E+06     26.3013E+06     9.09231E+03    -296.896E-03     592.785E-03    -295.889E-03     89.9459E-03    -297.623E-03     593.307E-03    -295.705E-03     81.7484E-03
            1877     7.36474E-03     52.6294E-03    -33.4886E+06    -13.0810E+06     18.7642E+06     127.307E+03    -296.785E-03     592.766E-03    -295.982E-03     82.4224E-03    -297.398E-03     593.159E-03    -295.820E-03     75.4229E-03
            1878     6.69471E-03     52.4981E-03    -38.1722E+06    -19.0258E+06     11.0359E+06     242.706E+03    -296.583E-03     592.658E-03    -296.075E-03     74.7402E-03    -297.101E-03     592.940E-03    -295.937E-03     68.8202E-03
            1879     6.02436E-03     52.3791E-03    -42.8257E+06    -32.2891E+06     595.250E+03     386.933E+03    -296.446E-03     592.616E-03    -296.170E-03     67.0711E-03    -296.870E-03     592.771E-03    -296.058E-03     62.1376E-03
            1880     5.35431E-03     52.2732E-03    -47.8918E+06    -45.9044E+06    -10.0328E+06     216.749E+03    -296.428E-03     592.691E-03    -296.263E-03     59.4101E-03    -296.774E-03     592.734E-03    -296.177E-03     55.3567E-03
            1881     4.68439E-03     52.1791E-03    -52.7413E+06    -52.2706E+06    -18.4901E+06     181.476E+03    -296.458E-03     592.803E-03    -296.345E-03     51.7282E-03    -296.754E-03     592.780E-03    -296.286E-03     48.4420E-03
            1882     4.01493E-03     52.0982E-03    -57.2196E+06    -59.0786E+06    -28.5833E+06     317.437E+03    -296.498E-03     592.900E-03    -296.402E-03     44.0679E-03    -296.750E-03     592.822E-03    -296.376E-03     41.4560E-03
            1883     3.34572E-03     52.0300E-03    -62.1098E+06    -66.6160E+06    -39.6963E+06     297.781E+03    -296.476E-03     592.916E-03    -296.440E-03     36.4922E-03    -296.693E-03     592.791E-03    -296.452E-03     34.4620E-03
            1884     2.67638E-03     51.9738E-03    -66.5676E+06    -73.8236E+06    -50.3640E+06     181.366E+03    -296.467E-03     592.937E-03    -296.470E-03     29.0778E-03    -296.657E-03     592.775E-03    -296.518E-03     27.5447E-03
            1885     2.00705E-03     51.9309E-03    -70.0018E+06    -80.1957E+06    -60.1309E+06     6.81088E+03    -296.488E-03     592.976E-03    -296.487E-03     21.7655E-03    -296.655E-03     592.784E-03    -296.570E-03     20.6551E-03
            1886     1.33808E-03     51.8993E-03    -72.6536E+06    -85.3565E+06    -68.0068E+06    -34.8340E+03    -296.536E-03     593.020E-03    -296.484E-03     14.6871E-03    -296.686E-03     592.807E-03    -296.595E-03     13.9800E-03
            1887     669.209E-06     51.8803E-03    -74.4737E+06    -88.9647E+06    -73.3622E+06    -49.1812E+03    -296.548E-03     592.961E-03    -296.414E-03     8.20540E-03    -296.687E-03     592.734E-03    -296.544E-03     7.78140E-03
            1888     12.7329E-03     52.3077E-03    -2.92940E+06     20.3527E+06     51.4857E+06    -146.805E+03    -297.637E-03     592.978E-03    -295.341E-03     106.420E-03    -298.743E-03     593.996E-03    -295.109E-03     94.1508E-03
            1889     12.0604E-03     52.1082E-03    -5.72074E+06     18.1855E+06     48.4880E+06     54.2875E+03    -297.516E-03     592.914E-03    -295.398E-03     116.910E-03    -298.878E-03     594.179E-03    -295.173E-03     102.789E-03
            1890     11.3875E-03     51.9265E-03    -8.59127E+06     14.5743E+06     45.5447E+06     55.8923E+03    -297.546E-03     593.025E-03    -295.479E-03     114.194E-03    -298.817E-03     594.185E-03    -295.260E-03     100.776E-03
            1891     10.7173E-03     51.7384E-03    -12.1008E+06     11.3366E+06     44.0255E+06     64.0093E+03    -297.648E-03     593.219E-03    -295.571E-03     113.533E-03    -298.895E-03     594.335E-03    -295.350E-03     100.490E-03
            1892     10.0468E-03     51.5575E-03    -15.6290E+06     7.92292E+06     42.4698E+06     476.547E+03    -297.372E-03     593.047E-03    -295.675E-03     109.558E-03    -298.508E-03     594.032E-03    -295.451E-03     97.5389E-03
            1893     9.37571E-03     51.3828E-03    -19.5533E+06     3.55341E+06     38.4895E+06     461.567E+03    -297.148E-03     592.933E-03    -295.785E-03     104.068E-03    -298.147E-03     593.763E-03    -295.569E-03     93.2731E-03
            1894     8.70506E-03     51.2173E-03    -23.9920E+06    -1.68529E+06     32.6071E+06     138.087E+03    -297.026E-03     592.921E-03    -295.895E-03     97.4800E-03    -297.886E-03     593.595E-03    -295.695E-03     87.9693E-03
            1895     8.03435E-03     51.0620E-03    -28.7582E+06    -7.49931E+06     25.5396E+06    -147.221E+03    -296.906E-03     592.908E-03    -296.002E-03     90.3650E-03    -297.638E-03     593.437E-03    -295.822E-03     82.1014E-03
            1896     7.36403E-03     50.9178E-03    -33.5974E+06    -13.5555E+06     17.8953E+06    -182.260E+03    -296.680E-03     592.793E-03    -296.113E-03     83.0119E-03    -297.299E-03     593.193E-03    -295.955E-03     75.9284E-03
            1897     6.69340E-03     50.7863E-03    -38.5701E+06    -19.6618E+06     10.2998E+06    -64.3153E+03    -296.509E-03     592.742E-03    -296.233E-03     75.4454E-03    -297.033E-03     593.030E-03    -296.098E-03     69.4548E-03
            1898     6.02318E-03     50.6668E-03    -43.1836E+06    -32.7263E+06     480.975E+03     84.0810E+03    -296.543E-03     592.894E-03    -296.351E-03     67.6745E-03    -296.973E-03     593.053E-03    -296.239E-03     62.6794E-03
            1899     5.35323E-03     50.5599E-03    -47.3209E+06    -45.6905E+06    -9.77096E+06     325.047E+03    -296.603E-03     593.055E-03    -296.452E-03     59.7797E-03    -296.951E-03     593.101E-03    -296.366E-03     55.6779E-03
            1900     4.68365E-03     50.4654E-03    -52.3766E+06    -52.4042E+06    -18.6653E+06     375.471E+03    -296.548E-03     593.091E-03    -296.544E-03     52.0342E-03    -296.844E-03     593.070E-03    -296.485E-03     48.7017E-03
            1901     4.01398E-03     50.3838E-03    -57.2834E+06    -59.2770E+06    -28.2641E+06     353.064E+03    -296.561E-03     593.188E-03    -296.627E-03     44.4876E-03    -296.816E-03     593.111E-03    -296.599E-03     41.8261E-03
            1902     3.34461E-03     50.3146E-03    -61.4581E+06    -66.1592E+06    -38.8090E+06     270.115E+03    -296.660E-03     593.347E-03    -296.687E-03     36.9463E-03    -296.878E-03     593.225E-03    -296.696E-03     34.8566E-03
            1903     2.67545E-03     50.2593E-03    -65.6783E+06    -73.4849E+06    -50.0300E+06     138.178E+03    -296.706E-03     593.430E-03    -296.725E-03     29.5132E-03    -296.894E-03     593.269E-03    -296.773E-03     27.9256E-03
            1904     2.00664E-03     50.2145E-03    -69.3532E+06    -80.1822E+06    -60.2399E+06     138.362E+03    -296.766E-03     593.509E-03    -296.743E-03     22.1478E-03    -296.930E-03     593.318E-03    -296.828E-03     21.0136E-03
            1905     1.33770E-03     50.1845E-03    -72.1059E+06    -85.3151E+06    -67.9128E+06     107.306E+03    -296.796E-03     593.536E-03    -296.740E-03     15.0236E-03    -296.944E-03     593.322E-03    -296.851E-03     14.2632E-03
            1906     668.723E-06     50.1635E-03    -74.8884E+06    -89.0742E+06    -72.6277E+06     98.4562E+03    -296.389E-03     593.475E-03    -297.086E-03     7.93675E-03    -296.533E-03     593.247E-03    -297.211E-03     7.49554E-03
            1907     12.7283E-03     50.5944E-03    -2.43033E+06     20.2785E+06     50.4994E+06     105.086E+03    -297.170E-03     592.499E-03    -295.328E-03     107.481E-03    -298.278E-03     593.524E-03    -295.102E-03     95.2205E-03
            1908     12.0583E-03     50.4033E-03    -5.37209E+06     18.0829E+06     47.8721E+06     43.7918E+03    -297.326E-03     592.734E-03    -295.408E-03     117.170E-03    -298.687E-03     594.001E-03    -295.187E-03     103.057E-03
            1909     11.3884E-03     50.2151E-03    -8.46795E+06     14.3514E+06     45.0907E+06     112.979E+03    -297.093E-03     592.605E-03    -295.512E-03     114.343E-03    -298.363E-03     593.765E-03    -295.295E-03     100.943E-03
            1910     10.7172E-03     50.0304E-03    -12.2848E+06     10.7557E+06      43.062E+06    -61.2945E+03    -297.197E-03     592.831E-03    -295.633E-03     113.574E-03    -298.443E-03     593.946E-03    -295.416E-03     100.546E-03
            1911     10.0455E-03     49.8475E-03    -16.0041E+06     7.30690E+06     41.7304E+06    -53.7171E+03    -297.160E-03     592.925E-03    -295.765E-03     109.720E-03    -298.299E-03     593.912E-03    -295.544E-03     97.6810E-03
            1912     9.37478E-03     49.6729E-03    -19.7062E+06     3.38965E+06     38.6996E+06     178.919E+03    -297.127E-03     593.021E-03    -295.895E-03     104.351E-03    -298.134E-03     593.858E-03    -295.677E-03     93.4972E-03
            1913     8.70385E-03     49.5066E-03    -23.5525E+06    -1.25392E+06     33.4434E+06     453.041E+03    -296.985E-03     593.004E-03    -296.019E-03     98.0124E-03    -297.854E-03     593.688E-03    -295.816E-03     88.4275E-03
            1914     8.03340E-03     49.3506E-03    -28.2394E+06    -7.20084E+06     25.7870E+06     476.640E+03    -296.747E-03     592.893E-03    -296.145E-03     91.1419E-03    -297.488E-03     593.433E-03    -295.965E-03     82.8024E-03
            1915     7.36253E-03     49.2068E-03    -33.2580E+06    -13.5839E+06     17.4203E+06     379.652E+03    -296.634E-03     592.914E-03    -296.279E-03     83.7476E-03    -297.260E-03     593.323E-03    -296.124E-03     76.5938E-03
            1916     6.69212E-03     49.0740E-03    -37.9771E+06    -19.5117E+06     9.83105E+06     215.101E+03    -296.653E-03     593.068E-03    -296.415E-03     75.9392E-03    -297.180E-03     593.362E-03    -296.282E-03     69.8935E-03
            1917     6.02201E-03     48.9539E-03    -42.6562E+06    -32.8056E+06    -65.3285E+03    -15.4621E+03    -296.701E-03     593.240E-03    -296.539E-03     68.1021E-03    -297.132E-03     593.403E-03    -296.430E-03     63.0485E-03
            1918     5.35233E-03     48.8457E-03    -47.6313E+06    -46.3948E+06    -10.2917E+06    -57.4773E+03    -296.702E-03     593.355E-03    -296.653E-03     60.3327E-03    -297.054E-03     593.403E-03    -296.568E-03     56.1554E-03
            1919     4.68259E-03     48.7514E-03    -52.1123E+06    -52.3958E+06    -18.4004E+06     58.3073E+03    -296.699E-03     593.460E-03    -296.761E-03     52.6206E-03    -296.999E-03     593.442E-03    -296.701E-03     49.2036E-03
            1920     4.01314E-03     48.6688E-03    -56.6121E+06    -59.1789E+06    -28.3059E+06    -24.5456E+03    -296.709E-03     593.564E-03    -296.855E-03     44.8847E-03    -296.963E-03     593.490E-03    -296.829E-03     42.1524E-03
            1921     3.34377E-03     48.5994E-03    -61.4020E+06    -66.6297E+06    -39.3038E+06     92.1845E+03    -296.761E-03     593.701E-03    -296.940E-03     37.1872E-03    -296.979E-03     593.579E-03    -296.951E-03     35.0485E-03
            1922     2.67490E-03     48.5423E-03    -65.4906E+06    -73.4087E+06    -49.4829E+06      417.55E+03    -296.884E-03     593.895E-03    -297.011E-03     29.7338E-03    -297.073E-03     593.735E-03    -297.057E-03     28.1022E-03
            1923     2.00579E-03     48.4991E-03    -69.1958E+06    -79.7799E+06    -58.9517E+06     344.192E+03    -297.010E-03     594.068E-03    -297.058E-03     22.4369E-03    -297.177E-03     593.877E-03    -297.137E-03     21.2662E-03
            1924     1.33723E-03     48.4662E-03    -72.2011E+06    -85.3301E+06    -67.2790E+06     109.035E+03    -297.080E-03     594.156E-03    -297.076E-03     15.0653E-03    -297.229E-03     593.941E-03    -297.184E-03     14.2821E-03
            1925     668.690E-06     48.4487E-03    -73.1585E+06    -88.5165E+06    -72.7326E+06    -74.1765E+03    -296.868E-03     594.169E-03    -297.301E-03     8.02789E-03    -297.003E-03     593.941E-03    -297.430E-03     7.62820E-03
            1926     12.7315E-03     48.8887E-03    -2.68421E+06     19.9866E+06     50.6238E+06     34.6401E+03    -297.139E-03     592.508E-03    -295.369E-03     107.238E-03    -298.250E-03     593.534E-03    -295.141E-03     94.9365E-03
            1927     12.0598E-03     48.6917E-03    -5.64601E+06     17.9592E+06     48.3068E+06     107.685E+03    -297.405E-03     592.855E-03    -295.451E-03     117.418E-03    -298.774E-03     594.128E-03    -295.227E-03     103.262E-03
            1928     11.3875E-03     48.5097E-03    -8.74864E+06     14.0693E+06     45.1763E+06     220.049E+03    -297.024E-03     592.580E-03    -295.557E-03     114.913E-03    -298.304E-03     593.748E-03    -295.339E-03     101.476E-03
            1929     10.7155E-03     48.3199E-03    -11.6283E+06     11.2822E+06     43.7232E+06     401.165E+03    -296.888E-03     592.583E-03    -295.695E-03     113.829E-03    -298.138E-03     593.705E-03    -295.476E-03     100.784E-03
            1930     10.0451E-03     48.1390E-03    -15.3726E+06     7.66125E+06     41.8495E+06     173.771E+03    -296.901E-03     592.750E-03    -295.848E-03     109.967E-03    -298.046E-03     593.746E-03    -295.628E-03     97.8772E-03
            1931     9.37360E-03     47.9623E-03    -19.7316E+06     3.02355E+06     37.9576E+06    -17.9086E+03    -296.856E-03     592.858E-03    -296.002E-03     104.849E-03    -297.871E-03     593.704E-03    -295.788E-03     93.9378E-03
            1932     8.70296E-03     47.7960E-03    -24.2520E+06    -2.17985E+06     32.4296E+06     49.6902E+03    -296.712E-03     592.871E-03    -296.159E-03     98.6189E-03    -297.592E-03     593.563E-03    -295.958E-03     88.9660E-03
            1933     8.03159E-03     47.6402E-03    -28.5445E+06    -7.60090E+06     25.5563E+06     442.544E+03    -296.662E-03     592.980E-03    -296.318E-03     91.7284E-03    -297.412E-03     593.527E-03    -296.137E-03     83.3241E-03
            1934     7.36110E-03     47.4945E-03    -32.7605E+06    -13.1665E+06     18.0026E+06     561.468E+03    -296.767E-03     593.237E-03    -296.469E-03     84.3060E-03    -297.399E-03     593.653E-03    -296.313E-03     77.0924E-03
            1935     6.69095E-03     47.3613E-03    -37.1869E+06    -18.8873E+06     10.4192E+06     334.165E+03    -296.829E-03     593.439E-03    -296.610E-03     76.5670E-03    -297.361E-03     593.742E-03    -296.477E-03     70.4339E-03
            1936     6.02101E-03     47.2399E-03    -42.0912E+06    -32.6306E+06     26.4485E+03     189.346E+03    -296.769E-03     593.514E-03    -296.745E-03     68.7745E-03    -297.205E-03     593.685E-03    -296.637E-03     63.6251E-03
            1937     5.35091E-03     47.1321E-03    -47.0527E+06    -46.5028E+06    -10.5698E+06     88.8296E+03    -296.791E-03     593.670E-03    -296.878E-03     61.0014E-03    -297.146E-03     593.723E-03    -296.795E-03     56.7328E-03
            1938     4.68133E-03     47.0359E-03    -51.5657E+06    -52.5910E+06    -18.8382E+06     78.2043E+03    -296.917E-03     593.916E-03    -296.999E-03     53.1508E-03    -297.217E-03     593.901E-03    -296.942E-03     49.6676E-03
            1939     4.01217E-03     46.9533E-03    -56.2738E+06    -59.3178E+06    -28.4036E+06     258.222E+03    -296.959E-03     594.058E-03    -297.100E-03     45.3233E-03    -297.214E-03     593.986E-03    -297.074E-03     42.5174E-03
            1940     3.34315E-03     46.8831E-03    -61.2039E+06    -66.6781E+06    -39.0182E+06     177.833E+03    -296.949E-03     594.144E-03    -297.195E-03     37.6908E-03    -297.169E-03     594.023E-03    -297.204E-03     35.4909E-03
            1941     2.67383E-03     46.8260E-03    -65.5531E+06    -73.6944E+06    -49.3556E+06    -88.6235E+03    -297.109E-03     594.389E-03    -297.281E-03     30.0688E-03    -297.299E-03     594.229E-03    -297.325E-03     28.4057E-03
            1942     2.00542E-03     46.7808E-03    -68.7674E+06    -79.8067E+06    -58.8623E+06     73.6667E+03    -297.240E-03     594.582E-03    -297.342E-03     22.4750E-03    -297.405E-03     594.391E-03    -297.421E-03     21.2825E-03
            1943     1.33673E-03     46.7493E-03    -71.2418E+06    -84.8894E+06    -66.8037E+06     248.880E+03    -297.278E-03     594.681E-03    -297.403E-03     15.1327E-03    -297.425E-03     594.467E-03    -297.510E-03     14.3626E-03
            1944     668.283E-06     46.7294E-03    -73.4869E+06    -88.6052E+06    -72.0258E+06     124.915E+03    -297.244E-03     594.891E-03    -297.647E-03     8.32580E-03    -297.381E-03     594.662E-03    -297.772E-03     7.87846E-03
            1945     12.7276E-03     47.1767E-03    -3.04931E+06     19.2271E+06     49.6990E+06    -105.495E+03    -296.758E-03     592.148E-03    -295.390E-03     106.872E-03    -297.857E-03     593.160E-03    -295.165E-03     94.6943E-03
            1946     12.0569E-03     46.9850E-03    -6.07644E+06     17.1942E+06     47.4291E+06    -387.235E+03    -297.126E-03     592.616E-03    -295.490E-03     116.912E-03    -298.492E-03     593.884E-03    -295.269E-03     102.750E-03
            1947     11.3867E-03     46.7984E-03    -8.43246E+06     14.2255E+06     45.4378E+06    -99.1917E+03    -296.792E-03     592.407E-03    -295.615E-03     114.785E-03    -298.076E-03     593.579E-03    -295.396E-03     101.300E-03
            1948     10.7165E-03     46.6137E-03    -11.5229E+06     11.3140E+06     44.0121E+06     236.788E+03    -296.728E-03     592.499E-03    -295.771E-03     114.561E-03    -297.992E-03     593.635E-03    -295.550E-03     101.437E-03
            1949     10.0437E-03     46.4289E-03    -15.2745E+06     7.66928E+06     42.1146E+06     487.866E+03    -296.628E-03     592.575E-03    -295.948E-03     110.904E-03    -297.786E-03     593.584E-03    -295.726E-03     98.7621E-03
            1950     9.37286E-03     46.2533E-03    -19.3070E+06     3.23928E+06     38.1653E+06     692.910E+03    -296.554E-03     592.686E-03    -296.132E-03     105.621E-03    -297.578E-03     593.542E-03    -295.918E-03     94.6787E-03
            1951     8.70091E-03     46.0860E-03    -23.9170E+06    -2.12591E+06     32.2337E+06     458.124E+03    -296.616E-03     592.933E-03    -296.317E-03     99.2679E-03    -297.504E-03     593.634E-03    -296.118E-03     89.5629E-03
            1952     8.03048E-03     45.9285E-03    -28.4995E+06    -7.72236E+06     25.4026E+06     137.381E+03    -296.767E-03     593.259E-03    -296.492E-03     92.2283E-03    -297.525E-03     593.815E-03    -296.312E-03     83.7408E-03
            1953     7.35979E-03     45.7826E-03    -32.6637E+06    -13.1946E+06     18.0768E+06     116.769E+03    -296.787E-03     593.445E-03    -296.658E-03     84.8807E-03    -297.427E-03     593.870E-03    -296.501E-03     77.5749E-03
            1954     6.68943E-03     45.6473E-03    -37.1376E+06    -18.9680E+06     10.4637E+06     266.621E+03    -296.749E-03     593.573E-03    -296.824E-03     77.2725E-03    -297.290E-03     593.884E-03    -296.691E-03     71.0410E-03
            1955     6.01928E-03     45.5266E-03    -41.9763E+06    -32.7451E+06     120.038E+03     392.993E+03    -296.869E-03     593.854E-03    -296.985E-03     69.5126E-03    -297.312E-03     594.032E-03    -296.876E-03     64.2677E-03
            1956     5.34970E-03     45.4167E-03    -46.3629E+06    -46.2828E+06    -10.3384E+06     419.846E+03    -297.012E-03     594.144E-03    -297.131E-03     61.6973E-03    -297.370E-03     594.203E-03    -297.049E-03     57.3535E-03
            1957     4.68033E-03     45.3204E-03    -51.2073E+06    -52.6702E+06    -18.9104E+06     288.917E+03    -297.059E-03     594.326E-03    -297.267E-03     53.8874E-03    -297.362E-03     594.315E-03    -297.211E-03     50.3244E-03
            1958     4.01104E-03     45.2363E-03    -56.5033E+06    -59.7101E+06    -28.3068E+06     120.199E+03    -297.164E-03     594.554E-03    -297.390E-03     46.0258E-03    -297.424E-03     594.483E-03    -297.363E-03     43.1426E-03
            1959     3.34191E-03     45.1667E-03    -60.5996E+06    -66.3905E+06    -38.4066E+06     182.288E+03    -297.339E-03     594.825E-03    -297.486E-03     38.2518E-03    -297.560E-03     594.706E-03    -297.493E-03     35.9927E-03
            1960     2.67355E-03     45.1076E-03    -64.2506E+06    -73.3438E+06    -49.5511E+06     332.671E+03    -297.430E-03     594.985E-03    -297.554E-03     30.5391E-03    -297.616E-03     594.826E-03    -297.603E-03     28.8465E-03
            1961     2.00484E-03     45.0629E-03    -68.2535E+06    -80.1660E+06    -59.6298E+06     232.528E+03    -297.483E-03     595.103E-03    -297.620E-03     22.8460E-03    -297.645E-03     594.911E-03    -297.703E-03     21.6146E-03
            1962     1.33644E-03     45.0306E-03    -71.1294E+06    -85.1062E+06    -66.7791E+06     219.765E+03    -297.592E-03     595.279E-03    -297.687E-03     15.3711E-03    -297.738E-03     595.064E-03    -297.794E-03     14.5561E-03
            1963     668.000E-06     45.0105E-03    -71.8297E+06    -87.6341E+06    -71.1317E+06     352.261E+03    -297.742E-03     595.451E-03    -297.708E-03     8.18016E-03    -297.875E-03     595.223E-03    -297.833E-03     7.72672E-03
            1964     12.7307E-03     45.4704E-03    -2.26674E+06     19.7599E+06     50.1028E+06     320.708E+03    -296.535E-03     591.928E-03    -295.393E-03     106.283E-03    -297.626E-03     592.936E-03    -295.168E-03     94.1489E-03
            1965     12.0593E-03     45.2753E-03    -5.39405E+06     17.4065E+06     47.1977E+06    -348.480E+03    -296.352E-03     591.868E-03    -295.516E-03     116.833E-03    -297.721E-03     593.143E-03    -295.298E-03     102.624E-03
            1966     11.3865E-03     45.0931E-03    -8.93768E+06     13.2352E+06     43.9358E+06    -366.393E+03    -296.236E-03     591.916E-03    -295.680E-03     115.568E-03    -297.532E-03     593.100E-03    -295.467E-03     102.039E-03
            1967     10.7132E-03     44.9034E-03    -12.4116E+06     10.0235E+06     42.2823E+06    -194.956E+03    -296.437E-03     592.306E-03    -295.870E-03     115.259E-03    -297.712E-03     593.451E-03    -295.655E-03     102.087E-03
            1968     10.0430E-03     44.7211E-03    -15.8438E+06     6.83294E+06     41.0658E+06     109.351E+03    -296.509E-03     592.582E-03    -296.073E-03     111.614E-03    -297.680E-03     593.602E-03    -295.854E-03     99.4010E-03
            1969     9.37060E-03     44.5437E-03    -19.5987E+06     2.87365E+06     38.0027E+06     289.114E+03    -296.591E-03     592.867E-03    -296.275E-03     106.086E-03    -297.628E-03     593.734E-03    -296.061E-03     95.0459E-03
            1970     8.70014E-03     44.3752E-03    -23.3669E+06    -1.61182E+06     33.0919E+06     543.078E+03    -296.636E-03     593.108E-03    -296.473E-03     99.6643E-03    -297.532E-03     593.821E-03    -296.271E-03     89.8724E-03
            1971     8.02882E-03     44.2169E-03    -27.6156E+06    -7.07212E+06     25.9564E+06     440.536E+03    -296.696E-03     593.359E-03    -296.664E-03     92.8940E-03    -297.462E-03     593.927E-03    -296.484E-03     84.3234E-03
            1972     7.35849E-03     44.0694E-03    -32.4065E+06    -13.2175E+06     17.8604E+06     195.143E+03    -296.698E-03     593.553E-03    -296.854E-03     85.5722E-03    -297.348E-03     593.988E-03    -296.699E-03     78.1649E-03
            1973     6.68791E-03     43.9350E-03    -37.5170E+06    -19.5206E+06     9.94514E+06     157.613E+03    -296.692E-03     593.743E-03    -297.051E-03     77.9712E-03    -297.241E-03     594.061E-03    -296.919E-03     71.6578E-03
            1974     6.01779E-03     43.8111E-03    -41.9047E+06    -32.8895E+06     53.1917E+03     199.102E+03    -296.901E-03     594.146E-03    -297.244E-03     70.2875E-03    -297.351E-03     594.329E-03    -297.135E-03     64.9648E-03
            1975     5.34815E-03     43.7014E-03    -46.4638E+06    -46.3749E+06    -9.80396E+06     275.927E+03    -297.127E-03     594.548E-03    -297.421E-03     62.5096E-03    -297.493E-03     594.613E-03    -297.336E-03     58.0785E-03
            1976     4.67865E-03     43.6037E-03    -51.4836E+06    -52.8444E+06    -18.1310E+06     375.893E+03    -297.236E-03     594.819E-03    -297.583E-03     54.6466E-03    -297.547E-03     594.812E-03    -297.522E-03     50.9966E-03
            1977     4.00948E-03     43.5195E-03    -55.4820E+06    -59.3507E+06    -28.2038E+06     415.309E+03    -297.450E-03     595.167E-03    -297.717E-03     46.7139E-03    -297.709E-03     595.100E-03    -297.691E-03     43.7776E-03
            1978     3.34104E-03     43.4474E-03    -59.9524E+06    -66.5638E+06    -39.2263E+06     383.602E+03    -297.665E-03     595.484E-03    -297.819E-03     38.8662E-03    -297.884E-03     595.368E-03    -297.832E-03     36.5489E-03
            1979     2.67240E-03     43.3893E-03    -64.7860E+06    -73.8094E+06    -49.3735E+06     505.846E+03    -297.730E-03     595.636E-03    -297.906E-03     31.1689E-03    -297.920E-03     595.477E-03    -297.952E-03     29.3843E-03
            1980     2.00403E-03     43.3436E-03    -67.8440E+06    -79.4677E+06    -58.0170E+06     621.914E+03    -297.886E-03     595.862E-03    -297.976E-03     23.4276E-03    -298.051E-03     595.672E-03    -298.052E-03     22.1515E-03
            1981     1.33598E-03     43.3105E-03    -70.0497E+06    -84.1811E+06    -65.5223E+06     236.975E+03    -298.055E-03     596.049E-03    -297.994E-03     15.6661E-03    -298.199E-03     595.836E-03    -298.098E-03     14.8240E-03
            1982     668.293E-06     43.2905E-03    -71.7222E+06    -87.7371E+06    -70.9457E+06    -366.860E+03    -298.202E-03     595.985E-03    -297.783E-03     8.60706E-03    -298.334E-03     595.757E-03    -297.907E-03     8.15208E-03
            1983     12.7290E-03     43.7607E-03    -2.35574E+06     19.5098E+06     49.9394E+06    -107.752E+03    -295.955E-03     591.386E-03    -295.431E-03     107.321E-03    -297.059E-03     592.406E-03    -295.206E-03     95.0965E-03
            1984     12.0561E-03     43.5716E-03    -5.28211E+06     17.4175E+06     47.3995E+06     455.841E+03    -296.075E-03     591.662E-03    -295.587E-03     117.952E-03    -297.446E-03     592.938E-03    -295.367E-03     103.852E-03
            1985     11.3843E-03     43.3835E-03    -8.41754E+06     13.5522E+06     44.1950E+06     624.536E+03    -296.091E-03     591.862E-03    -295.771E-03     116.098E-03    -297.390E-03     593.051E-03    -295.557E-03     102.591E-03
            1986     10.7142E-03     43.1974E-03    -11.9142E+06     10.2593E+06     42.3973E+06     469.074E+03    -296.369E-03     592.343E-03    -295.974E-03     115.285E-03    -297.644E-03     593.489E-03    -295.760E-03     102.124E-03
            1987     10.0405E-03     43.0116E-03    -15.7914E+06     6.69788E+06     40.9077E+06     33.9293E+03    -296.472E-03     592.659E-03    -296.187E-03     111.513E-03    -297.647E-03     593.684E-03    -295.969E-03     99.2420E-03
            1988     9.37040E-03     42.8335E-03    -19.6735E+06     2.56935E+06     37.5783E+06    -184.057E+03    -296.459E-03     592.862E-03    -296.403E-03     106.403E-03    -297.507E-03     593.741E-03    -296.190E-03     95.2548E-03
            1989     8.69852E-03     42.6649E-03    -23.6516E+06    -2.20776E+06     32.1974E+06    -122.597E+03    -296.498E-03     593.120E-03    -296.622E-03     100.506E-03    -297.408E-03     593.845E-03    -296.423E-03     90.6076E-03
            1990     8.02779E-03     42.5051E-03    -27.8008E+06    -7.50002E+06     25.4253E+06     119.708E+03    -296.503E-03     593.347E-03    -296.845E-03     93.7413E-03    -297.280E-03     593.926E-03    -296.666E-03     85.0842E-03
            1991     7.35659E-03     42.3570E-03    -32.4192E+06    -13.3745E+06     17.7915E+06     371.443E+03    -296.567E-03     593.640E-03    -297.073E-03     86.4534E-03    -297.226E-03     594.085E-03    -296.918E-03     78.9673E-03
            1992     6.68634E-03     42.2207E-03    -37.0604E+06    -19.2011E+06     10.3368E+06     346.744E+03    -296.787E-03     594.087E-03    -297.300E-03     78.9163E-03    -297.345E-03     594.415E-03    -297.166E-03     72.5136E-03
            1993     6.01620E-03     42.0968E-03    -42.1699E+06    -33.1663E+06     360.515E+03     187.532E+03    -296.968E-03     594.486E-03    -297.518E-03     71.1268E-03    -297.427E-03     594.676E-03    -297.407E-03     65.7128E-03
            1994     5.34630E-03     41.9847E-03    -46.6420E+06    -46.8248E+06    -9.83837E+06     202.593E+03    -297.196E-03     594.919E-03    -297.723E-03     63.1620E-03    -297.568E-03     594.988E-03    -297.637E-03     58.6342E-03
            1995     4.67715E-03     41.8866E-03    -50.6648E+06    -52.6779E+06    -18.4272E+06     267.052E+03    -297.499E-03     595.402E-03    -297.903E-03     55.1623E-03    -297.811E-03     595.400E-03    -297.845E-03     51.4314E-03
            1996     4.00837E-03     41.8007E-03    -55.7962E+06    -59.5945E+06    -27.8344E+06     362.851E+03    -297.699E-03     595.757E-03    -298.057E-03     47.2691E-03    -297.964E-03     595.693E-03    -298.029E-03     44.2469E-03
            1997     3.33953E-03     41.7281E-03    -60.7215E+06    -66.6043E+06    -37.4786E+06     591.493E+03    -297.863E-03     596.056E-03    -298.193E-03     39.3465E-03    -298.091E-03     595.941E-03    -298.196E-03     36.9464E-03
            1998     2.67125E-03     41.6694E-03    -64.1624E+06    -72.9360E+06    -47.6276E+06     143.409E+03    -298.122E-03     596.415E-03    -298.293E-03     31.4418E-03    -298.315E-03     596.259E-03    -298.332E-03     29.5901E-03
            1999     2.00330E-03     41.6225E-03    -67.2836E+06    -79.0291E+06    -57.4012E+06    -434.930E+03    -298.270E-03     596.627E-03    -298.356E-03     23.6996E-03    -298.435E-03     596.438E-03    -298.431E-03     22.3529E-03
            2000     1.33556E-03     41.5892E-03    -70.1791E+06    -84.2216E+06    -65.1823E+06    -246.466E+03    -298.358E-03     596.759E-03    -298.401E-03     16.0270E-03    -298.504E-03     596.546E-03    -298.503E-03     15.1240E-03
            2001     667.493E-06     41.5696E-03    -72.5042E+06    -88.1321E+06    -70.7693E+06     156.808E+03    -298.527E-03     596.848E-03    -298.322E-03     8.63694E-03    -298.662E-03     596.619E-03    -298.442E-03     8.16840E-03
            2002     12.7273E-03     42.0552E-03    -2.64804E+06     18.8282E+06     49.0377E+06    -122.987E+03    -295.172E-03     590.659E-03    -295.487E-03     106.744E-03    -296.278E-03     591.681E-03    -295.266E-03     94.4646E-03
            2003     12.0565E-03     41.8626E-03    -5.21907E+06     17.2121E+06     47.0117E+06     115.194E+03    -296.016E-03     591.683E-03    -295.667E-03     117.345E-03    -297.384E-03     592.957E-03    -295.450E-03     103.212E-03
            2004     11.3847E-03     41.6781E-03    -8.63653E+06     13.3012E+06     44.2534E+06     361.291E+03    -296.222E-03     592.077E-03    -295.855E-03     116.056E-03    -297.524E-03     593.267E-03    -295.640E-03     102.527E-03
            2005     10.7108E-03     41.4877E-03    -11.3965E+06     10.7501E+06     43.2439E+06     497.934E+03    -296.347E-03     592.409E-03    -296.062E-03     115.582E-03    -297.632E-03     593.566E-03    -295.845E-03     102.355E-03
            2006     10.0416E-03     41.3028E-03    -14.8503E+06     7.35314E+06     41.4302E+06     534.764E+03    -296.179E-03     592.470E-03    -296.291E-03     112.139E-03    -297.364E-03     593.509E-03    -296.073E-03     99.8131E-03
            2007     9.36835E-03     41.1250E-03    -18.9626E+06     2.89438E+06     37.5213E+06     412.251E+03    -296.114E-03     592.654E-03    -296.540E-03     107.541E-03    -297.172E-03     593.547E-03    -296.329E-03     96.3595E-03
            2008     8.69721E-03     40.9537E-03    -23.5618E+06    -2.33222E+06     32.0149E+06     188.182E+03    -296.309E-03     593.106E-03    -296.797E-03     101.572E-03    -297.231E-03     593.844E-03    -296.600E-03     91.6090E-03
            2009     8.02580E-03     40.7937E-03    -28.2764E+06    -8.05719E+06     25.0956E+06     90.0511E+03    -296.426E-03     593.478E-03    -297.053E-03     94.6605E-03    -297.217E-03     594.068E-03    -296.874E-03     85.9106E-03
            2010     7.35506E-03     40.6445E-03    -32.7609E+06    -13.7590E+06     17.6668E+06     22.9612E+03    -296.573E-03     593.882E-03    -297.309E-03     87.3868E-03    -297.246E-03     594.338E-03    -297.153E-03     79.7967E-03
            2011     6.68430E-03     40.5061E-03    -37.2609E+06    -19.4292E+06     10.3696E+06     105.117E+03    -296.825E-03     594.387E-03    -297.562E-03     79.7887E-03    -297.395E-03     594.726E-03    -297.428E-03     73.2599E-03
            2012     6.01446E-03     40.3809E-03    -41.6134E+06    -32.9730E+06     438.363E+03     182.438E+03    -297.136E-03     594.937E-03    -297.800E-03     71.9460E-03    -297.604E-03     595.138E-03    -297.690E-03     66.3984E-03
            2013     5.34501E-03     40.2682E-03    -46.3719E+06    -46.8815E+06    -9.76337E+06     84.3762E+03    -297.403E-03     595.426E-03    -298.023E-03     64.0181E-03    -297.783E-03     595.504E-03    -297.937E-03     59.3734E-03
            2014     4.67566E-03     40.1678E-03    -51.0965E+06    -52.8432E+06    -17.1917E+06     158.937E+03    -297.647E-03     595.880E-03    -298.232E-03     56.0224E-03    -297.969E-03     595.882E-03    -298.168E-03     52.1839E-03
            2015     4.00688E-03     40.0813E-03    -55.8211E+06    -59.3999E+06    -26.2873E+06     12.1805E+03    -297.910E-03     596.325E-03    -298.415E-03     48.0208E-03    -298.183E-03     596.266E-03    -298.380E-03     44.8842E-03
            2016     3.33850E-03     40.0083E-03    -60.0194E+06    -66.0917E+06    -36.8983E+06    -743.341E+03    -298.220E-03     596.781E-03    -298.561E-03     40.0530E-03    -298.450E-03     596.670E-03    -298.562E-03     37.5516E-03
            2017     2.67046E-03     39.9472E-03    -64.0236E+06    -72.7702E+06    -47.4358E+06    -847.243E+03    -298.498E-03     597.162E-03    -298.664E-03     31.9765E-03    -298.693E-03     597.009E-03    -298.703E-03     30.0469E-03
            2018     2.00273E-03     39.9010E-03    -68.1626E+06    -79.6210E+06    -57.6061E+06    -430.319E+03    -298.594E-03     597.333E-03    -298.739E-03     23.9970E-03    -298.763E-03     597.145E-03    -298.813E-03     22.5803E-03
            2019     1.33464E-03     39.8671E-03    -71.1224E+06    -85.2410E+06    -66.2075E+06    -395.221E+03    -298.683E-03     597.495E-03    -298.813E-03     16.2249E-03    -298.832E-03     597.281E-03    -298.917E-03     15.2955E-03
            2020     667.559E-06     39.8459E-03    -72.5604E+06    -88.4596E+06    -71.2797E+06    -221.291E+03    -298.844E-03     597.719E-03    -298.875E-03     8.60926E-03    -298.979E-03     597.489E-03    -298.998E-03     8.10902E-03
            2021     12.7288E-03     40.3512E-03    -3.01217E+06     18.3851E+06     49.0891E+06    -226.255E+03    -294.798E-03     590.331E-03    -295.533E-03     107.472E-03    -295.906E-03     591.351E-03    -295.310E-03     95.2750E-03
            2022     12.0546E-03     40.1554E-03    -5.56901E+06     16.9224E+06     47.2580E+06     444.227E+03    -295.964E-03     591.697E-03    -295.733E-03     118.405E-03    -297.343E-03     592.979E-03    -295.513E-03     104.273E-03
            2023     11.3825E-03     39.9702E-03    -8.37033E+06     13.3795E+06     44.2913E+06     344.569E+03    -296.176E-03     592.104E-03    -295.928E-03     116.237E-03    -297.485E-03     593.302E-03    -295.713E-03     102.647E-03
            2024     10.7130E-03     39.7795E-03    -11.7552E+06     9.97317E+06     42.1051E+06    -32.2445E+03    -295.846E-03     592.001E-03    -296.155E-03     116.338E-03    -297.145E-03     593.172E-03    -295.942E-03     103.022E-03
            2025     10.0381E-03     39.5956E-03    -15.1484E+06     6.72875E+06     40.5898E+06     171.043E+03    -295.804E-03     592.229E-03    -296.425E-03     113.230E-03    -297.004E-03     593.282E-03    -296.210E-03     100.837E-03
            2026     9.36728E-03     39.4150E-03    -18.8694E+06     2.76487E+06     37.2926E+06     557.436E+03    -296.072E-03     592.778E-03    -296.706E-03     108.410E-03    -297.143E-03     593.683E-03    -296.496E-03     97.1517E-03
            2027     8.69528E-03     39.2436E-03    -23.1029E+06    -2.16932E+06     31.9675E+06     772.742E+03    -296.154E-03     593.142E-03    -296.988E-03     102.303E-03    -297.088E-03     593.894E-03    -296.791E-03     92.2493E-03
            2028     8.02402E-03     39.0816E-03    -27.4013E+06    -7.43760E+06     25.5460E+06     629.773E+03    -296.327E-03     593.603E-03    -297.275E-03     95.5173E-03    -297.131E-03     594.208E-03    -297.097E-03     86.6559E-03
            2029     7.35314E-03     38.9310E-03    -31.8562E+06    -13.0232E+06     18.4058E+06     401.707E+03    -296.614E-03     594.175E-03    -297.560E-03     88.4714E-03    -297.300E-03     594.647E-03    -297.403E-03     80.7482E-03
            2030     6.68291E-03     38.7917E-03    -36.7949E+06    -19.1153E+06     10.7487E+06    -131.511E+03    -296.870E-03     594.711E-03    -297.840E-03     81.0119E-03    -297.454E-03     595.064E-03    -297.706E-03     74.3394E-03
            2031     6.01262E-03     38.6644E-03    -41.8810E+06    -33.4069E+06     511.650E+03    -396.045E+03    -297.222E-03     595.332E-03    -298.110E-03     73.2152E-03    -297.703E-03     595.545E-03    -297.999E-03     67.5222E-03
            2032     5.34310E-03     38.5501E-03    -46.3985E+06    -47.0796E+06    -8.88058E+06    -178.952E+03    -297.617E-03     595.980E-03    -298.363E-03     65.2714E-03    -298.009E-03     596.066E-03    -298.272E-03     60.4876E-03
            2033     4.67414E-03     38.4491E-03    -50.9812E+06    -52.8478E+06    -16.6627E+06    -383.821E+03    -297.880E-03     596.474E-03    -298.594E-03     57.1455E-03    -298.211E-03     596.484E-03    -298.526E-03     53.1670E-03
            2034     4.00527E-03     38.3609E-03    -55.1913E+06    -58.9262E+06    -26.6125E+06    -641.107E+03    -298.226E-03     597.017E-03    -298.791E-03     48.9583E-03    -298.503E-03     596.966E-03    -298.759E-03     45.7088E-03
            2035     3.33709E-03     38.2861E-03    -59.6946E+06    -66.0381E+06    -37.7697E+06    -510.666E+03    -298.561E-03     597.511E-03    -298.951E-03     40.8584E-03    -298.793E-03     597.407E-03    -298.957E-03     38.2571E-03
            2036     2.66929E-03     38.2247E-03    -64.5751E+06    -73.8941E+06    -49.1966E+06    -339.164E+03    -298.750E-03     597.835E-03    -299.085E-03     32.7573E-03    -298.947E-03     597.683E-03    -299.130E-03     30.7374E-03
            2037     2.00155E-03     38.1776E-03    -68.2711E+06    -80.4549E+06    -59.0587E+06    -240.938E+03    -299.020E-03     598.212E-03    -299.193E-03     24.7067E-03    -299.188E-03     598.025E-03    -299.273E-03     23.2240E-03
            2038     1.33472E-03     38.1432E-03    -71.0861E+06    -85.7683E+06    -66.9659E+06    -121.609E+03    -299.171E-03     598.445E-03    -299.273E-03     16.7441E-03    -299.319E-03     598.230E-03    -299.381E-03     15.7718E-03
            2039     666.912E-06     38.1224E-03    -73.8151E+06    -89.7269E+06    -72.1275E+06    -188.668E+03    -299.240E-03     598.638E-03    -299.398E-03     9.17012E-03    -299.378E-03     598.405E-03    -299.522E-03     8.62066E-03
            2040     12.7253E-03     38.6449E-03    -3.21993E+06     18.0497E+06     48.8924E+06     49.2769E+03    -294.711E-03     590.259E-03    -295.548E-03     106.748E-03    -295.817E-03     591.275E-03    -295.325E-03     94.5475E-03
            2041     12.0546E-03     38.4491E-03    -5.89787E+06     16.2841E+06     46.5339E+06    -257.578E+03    -295.350E-03     591.112E-03    -295.762E-03     117.950E-03    -296.736E-03     592.400E-03    -295.545E-03     103.722E-03
            2042     11.3835E-03     38.2607E-03    -8.17399E+06     13.2188E+06     44.0801E+06     18.0663E+03    -295.271E-03     591.274E-03    -296.004E-03     116.599E-03    -296.591E-03     592.485E-03    -295.791E-03     102.939E-03
            2043     10.7083E-03     38.0750E-03    -11.6991E+06     9.81691E+06     42.0086E+06     316.663E+03    -295.456E-03     591.734E-03    -296.278E-03     116.897E-03    -296.768E-03     592.917E-03    -296.066E-03     103.520E-03
            2044     10.0381E-03     37.8861E-03    -15.2788E+06     6.49924E+06     40.6128E+06     152.004E+03    -295.683E-03     592.261E-03    -296.577E-03     113.905E-03    -296.900E-03     593.328E-03    -296.362E-03     101.409E-03
            2045     9.36531E-03     37.7062E-03    -19.3893E+06     2.18297E+06     37.1066E+06     34.8684E+03    -295.916E-03     592.798E-03    -296.882E-03     109.259E-03    -297.008E-03     593.721E-03    -296.671E-03     97.8539E-03
            2046     8.69386E-03     37.5327E-03    -23.2113E+06    -2.45201E+06     31.7605E+06     17.3980E+03    -296.040E-03     593.231E-03    -297.191E-03     103.365E-03    -296.994E-03     594.002E-03    -296.995E-03     93.1521E-03
            2047     8.02233E-03     37.3701E-03    -27.0618E+06    -7.58095E+06     24.7712E+06     186.130E+03    -296.176E-03     593.685E-03    -297.509E-03     96.8256E-03    -296.995E-03     594.309E-03    -297.335E-03     87.8129E-03
            2048     7.35111E-03     37.2171E-03    -31.2793E+06    -13.0790E+06     17.3874E+06     467.900E+03    -296.515E-03     594.349E-03    -297.833E-03     89.8807E-03    -297.214E-03     594.840E-03    -297.682E-03     82.0099E-03
            2049     6.68038E-03     37.0762E-03    -35.7308E+06    -18.4533E+06     10.9432E+06     746.443E+03    -296.917E-03     595.074E-03    -298.157E-03     82.3894E-03    -297.513E-03     595.446E-03    -298.023E-03     75.5811E-03
            2050     6.01054E-03     36.9476E-03    -40.5124E+06    -32.7275E+06     1.77465E+06     475.042E+03    -297.328E-03     595.795E-03    -298.467E-03     74.5887E-03    -297.819E-03     596.021E-03    -298.352E-03     68.7699E-03
            2051     5.34098E-03     36.8313E-03    -45.3795E+06    -46.8967E+06    -8.92858E+06    -307.097E+03    -297.761E-03     596.513E-03    -298.752E-03     66.5776E-03    -298.160E-03     596.610E-03    -298.663E-03     61.6411E-03
            2052     4.67200E-03     36.7286E-03    -50.2195E+06    -52.6389E+06    -18.5496E+06    -528.395E+03    -298.217E-03     597.220E-03    -299.003E-03     58.4364E-03    -298.553E-03     597.244E-03    -298.946E-03     54.2963E-03
            2053     4.00378E-03     36.6394E-03    -55.3613E+06    -59.7414E+06    -28.7430E+06    -199.814E+03    -298.564E-03     597.788E-03    -299.224E-03     50.2645E-03    -298.846E-03     597.745E-03    -299.201E-03     46.8747E-03
            2054     3.33578E-03     36.5628E-03    -59.9741E+06    -67.1776E+06    -39.2431E+06     361.358E+03    -298.816E-03     598.243E-03    -299.427E-03     42.0493E-03    -299.052E-03     598.142E-03    -299.439E-03     39.3290E-03
            2055     2.66790E-03     36.5016E-03    -63.8396E+06    -74.2163E+06    -49.9516E+06     689.737E+03    -299.178E-03     598.783E-03    -299.604E-03     33.7398E-03    -299.374E-03     598.634E-03    -299.654E-03     31.6400E-03
            2056     2.00057E-03     36.4521E-03    -67.3238E+06    -80.5225E+06    -59.2485E+06     785.115E+03    -299.522E-03     599.263E-03    -299.741E-03     25.3437E-03    -299.688E-03     599.076E-03    -299.823E-03     23.8085E-03
            2057     1.33315E-03     36.4178E-03    -70.2358E+06    -85.4678E+06    -66.2502E+06     847.064E+03    -299.767E-03     599.594E-03    -299.827E-03     16.9923E-03    -299.913E-03     599.379E-03    -299.933E-03     15.9694E-03
            2058     666.796E-06     36.3964E-03    -72.0165E+06    -88.7254E+06    -70.9540E+06     723.713E+03    -299.901E-03     599.732E-03    -299.831E-03     9.29889E-03    -300.034E-03     599.501E-03    -299.953E-03     8.76593E-03
            2059     12.7301E-03     36.9414E-03    -2.04516E+06     18.7186E+06     48.8736E+06     244.834E+03    -294.414E-03     589.943E-03    -295.529E-03     106.977E-03    -295.513E-03     590.960E-03    -295.309E-03     94.8340E-03
            2060     12.0557E-03     36.7436E-03    -4.92602E+06     16.6346E+06     46.2984E+06     322.133E+03    -294.508E-03     590.287E-03    -295.779E-03     119.012E-03    -295.898E-03     591.584E-03    -295.565E-03     104.833E-03
            2061     11.3800E-03     36.5584E-03    -8.72352E+06     12.3449E+06     43.2008E+06    -35.0069E+03    -294.510E-03     590.584E-03    -296.074E-03     117.175E-03    -295.843E-03     591.804E-03    -295.863E-03     103.475E-03
            2062     10.7097E-03     36.3652E-03    -11.7225E+06     9.71605E+06     42.2975E+06    -144.004E+03    -295.025E-03     591.420E-03    -296.395E-03     117.158E-03    -296.349E-03     592.615E-03    -296.181E-03     103.699E-03
            2063     10.0357E-03     36.1801E-03    -15.2428E+06     6.40032E+06     40.7348E+06     262.081E+03    -295.373E-03     592.101E-03    -296.728E-03     114.864E-03    -296.609E-03     593.187E-03    -296.512E-03     102.265E-03
            2064     9.36369E-03     35.9959E-03    -18.9011E+06     2.43849E+06     37.3786E+06     212.919E+03    -295.575E-03     592.647E-03    -297.072E-03     110.406E-03    -296.686E-03     593.590E-03    -296.861E-03     98.8892E-03
            2065     8.69161E-03     35.8225E-03    -23.2310E+06    -2.56557E+06     31.9586E+06    -66.7307E+03    -295.762E-03     593.188E-03    -297.427E-03     104.651E-03    -296.738E-03     593.980E-03    -297.229E-03     94.2989E-03
            2066     8.01991E-03     35.6579E-03    -27.9138E+06    -8.26813E+06     24.8513E+06    -121.145E+03    -296.135E-03     593.921E-03    -297.786E-03     98.3395E-03    -296.980E-03     594.566E-03    -297.609E-03     89.1597E-03
            2067     7.34881E-03     35.5035E-03    -32.4908E+06    -14.1526E+06     17.0131E+06    -30.3069E+03    -296.501E-03     594.645E-03    -298.144E-03     91.2505E-03    -297.225E-03     595.154E-03    -297.991E-03     83.1912E-03
            2068     6.67825E-03     35.3603E-03    -37.0398E+06    -20.0749E+06     9.07924E+06     666.810E+03    -296.891E-03     595.392E-03    -298.501E-03     83.7537E-03    -297.507E-03     595.779E-03    -298.373E-03     76.7584E-03
            2069     6.00809E-03     35.2296E-03    -41.6088E+06    -30.7511E+06    -1.02096E+06     1.05140E+06    -297.383E-03     596.230E-03    -298.846E-03     75.9869E-03    -297.896E-03     596.488E-03    -298.746E-03     69.9783E-03
            2070     5.33872E-03     35.1119E-03    -46.4859E+06    -44.5745E+06    -12.3565E+06     281.978E+03    -297.882E-03     597.056E-03    -299.174E-03     68.0682E-03    -298.301E-03     597.187E-03    -299.103E-03     62.9467E-03
            2071     4.66978E-03     35.0071E-03    -51.0209E+06    -54.0480E+06    -21.3904E+06    -69.2036E+03    -298.382E-03     597.866E-03    -299.484E-03     59.9787E-03    -298.728E-03     597.901E-03    -299.439E-03     55.6652E-03
            2072     4.00146E-03     34.9158E-03    -55.1417E+06    -60.9821E+06    -30.4981E+06     508.298E+03    -298.871E-03     598.633E-03    -299.762E-03     51.6692E-03    -299.158E-03     598.596E-03    -299.746E-03     48.1130E-03
            2073     3.33334E-03     34.8396E-03    -59.3356E+06    -67.7850E+06    -40.2762E+06     877.492E+03    -299.353E-03     599.352E-03    -299.999E-03     43.1544E-03    -299.591E-03     599.255E-03    -300.016E-03     40.2999E-03
            2074     2.66610E-03     34.7747E-03    -63.2861E+06    -74.1256E+06    -49.2277E+06     1.05933E+06    -299.781E-03     599.973E-03    -300.192E-03     34.5385E-03    -299.980E-03     599.827E-03    -300.239E-03     32.3243E-03
            2075     1.99938E-03     34.7259E-03    -66.5020E+06    -79.7254E+06    -57.4240E+06     1.02441E+06    -300.111E-03     600.446E-03    -300.334E-03     25.9074E-03    -300.279E-03     600.261E-03    -300.409E-03     24.3050E-03
            2076     1.33306E-03     34.6897E-03    -68.4978E+06    -83.9160E+06    -63.9269E+06     666.364E+03    -300.372E-03     600.791E-03    -300.419E-03     17.4369E-03    -300.515E-03     600.578E-03    -300.517E-03     16.3853E-03
            2077     666.487E-06     34.6682E-03    -68.9280E+06    -86.3702E+06    -68.4487E+06     283.149E+03    -300.296E-03     600.912E-03    -300.616E-03     9.61014E-03    -300.421E-03     600.684E-03    -300.733E-03     9.01916E-03
            2078     12.7253E-03     35.2339E-03    -2.33704E+06     18.1268E+06     48.2266E+06     240.272E+03    -293.762E-03     589.311E-03    -295.549E-03     107.783E-03    -294.868E-03     590.333E-03    -295.330E-03     95.6591E-03
            2079     12.0529E-03     35.0426E-03    -5.22663E+06     16.2529E+06     46.2465E+06     307.231E+03    -294.113E-03     589.946E-03    -295.833E-03     119.387E-03    -295.518E-03     591.256E-03    -295.618E-03     105.122E-03
            2080     11.3822E-03     34.8505E-03    -8.01339E+06     12.8822E+06     43.8107E+06     320.288E+03    -294.184E-03     590.340E-03    -296.156E-03     118.376E-03    -295.535E-03     591.581E-03    -295.944E-03     104.614E-03
            2081     10.7066E-03     34.6623E-03    -11.9299E+06     9.13045E+06     41.4074E+06    -132.192E+03    -294.578E-03     591.087E-03    -296.509E-03     118.608E-03    -295.924E-03     592.303E-03    -296.298E-03     105.073E-03
            2082     10.0344E-03     34.4707E-03    -15.4742E+06     5.80304E+06     39.8348E+06    -170.055E+03    -294.911E-03     591.797E-03    -296.887E-03     115.911E-03    -296.166E-03     592.903E-03    -296.674E-03     103.204E-03
            2083     9.36192E-03     34.2879E-03    -19.0899E+06     1.90925E+06     36.5409E+06        -494.004    -295.086E-03     592.368E-03    -297.282E-03     111.622E-03    -296.221E-03     593.336E-03    -297.074E-03     99.9546E-03
            2084     8.68924E-03     34.1123E-03    -23.0530E+06    -2.70243E+06     31.4754E+06     493.034E+03    -295.511E-03     593.200E-03    -297.689E-03     106.191E-03    -296.512E-03     594.018E-03    -297.494E-03     95.6790E-03
            2085     8.01752E-03     33.9452E-03    -27.6124E+06    -8.13416E+06     25.0431E+06     749.892E+03    -296.043E-03     594.139E-03    -298.096E-03     99.8603E-03    -296.914E-03     594.810E-03    -297.919E-03     90.4957E-03
            2086     7.34645E-03     33.7890E-03    -32.6359E+06    -14.2255E+06     17.4852E+06     726.828E+03    -296.509E-03     595.007E-03    -298.497E-03     93.0099E-03    -297.262E-03     595.542E-03    -298.342E-03     84.7387E-03
            2087     6.67565E-03     33.6443E-03    -37.6065E+06    -20.5954E+06     8.93963E+06     319.085E+03    -296.953E-03     595.848E-03    -298.894E-03     85.5945E-03    -297.596E-03     596.258E-03    -298.765E-03     78.3636E-03
            2088     6.00556E-03     33.5111E-03    -41.8691E+06    -31.1450E+06    -1.24559E+06     243.554E+03    -297.439E-03     596.725E-03    -299.286E-03     77.7356E-03    -297.973E-03     597.003E-03    -299.186E-03     71.4892E-03
            2089     5.33594E-03     33.3915E-03    -45.7189E+06    -44.1869E+06    -12.2729E+06     1.04297E+06    -298.032E-03     597.696E-03    -299.664E-03     69.6581E-03    -298.465E-03     597.846E-03    -299.595E-03     64.3337E-03
            2090     4.66718E-03     33.2843E-03    -50.3584E+06    -53.9551E+06    -22.3635E+06     1.41459E+06    -298.610E-03     598.633E-03    -300.023E-03     61.3325E-03    -298.965E-03     598.683E-03    -299.983E-03     56.8478E-03
            2091     3.99871E-03     33.1921E-03    -55.0623E+06    -61.0232E+06    -30.8817E+06     1.09500E+06    -299.295E-03     599.643E-03    -300.348E-03     52.7930E-03    -299.591E-03     599.617E-03    -300.335E-03     49.0721E-03
            2092     3.33171E-03     33.1116E-03    -59.1766E+06    -67.2174E+06    -39.0150E+06     790.792E+03    -299.948E-03     600.561E-03    -300.614E-03     44.1099E-03    -300.195E-03     600.473E-03    -300.626E-03     41.0904E-03
            2093     2.66487E-03     33.0480E-03    -62.7402E+06    -73.2950E+06    -47.8942E+06     319.844E+03    -300.365E-03     601.182E-03    -300.817E-03     35.4772E-03    -300.570E-03     601.043E-03    -300.859E-03     33.1003E-03
            2094     1.99803E-03     32.9959E-03    -65.3476E+06    -78.6833E+06    -56.3720E+06    -204.721E+03    -300.700E-03     601.676E-03    -300.975E-03     26.7477E-03    -300.869E-03     601.497E-03    -301.048E-03     24.9881E-03
            2095     1.33169E-03     32.9606E-03    -67.5457E+06    -83.3862E+06     -63.702E+06    -390.299E+03    -300.940E-03     602.039E-03    -301.098E-03     18.0516E-03    -301.082E-03     601.830E-03    -301.198E-03     16.8852E-03
            2096     665.690E-06     32.9375E-03    -69.2370E+06    -86.2893E+06    -67.8429E+06    -324.840E+03    -300.783E-03     602.336E-03    -301.553E-03     9.74905E-03    -300.911E-03     602.109E-03    -301.667E-03     9.09822E-03
            2097     12.7288E-03     33.5349E-03    -2.51926E+06     18.0880E+06     49.1979E+06     164.265E+03    -293.425E-03     589.034E-03    -295.609E-03     107.840E-03    -294.546E-03     590.067E-03    -295.385E-03     95.5926E-03
            2098     12.0546E-03     33.3364E-03    -5.09788E+06     16.3618E+06     46.8235E+06     520.290E+03    -293.744E-03     589.659E-03    -295.915E-03     120.396E-03    -295.161E-03     590.981E-03    -295.698E-03     106.135E-03
            2099     11.3779E-03     33.1496E-03    -8.22032E+06     12.4642E+06     43.4003E+06     457.029E+03    -293.835E-03     590.100E-03    -296.265E-03     119.467E-03    -295.208E-03     591.362E-03    -296.055E-03     105.605E-03
            2100     10.7063E-03     32.9542E-03    -11.1374E+06     9.66372E+06     41.8243E+06     658.818E+03    -294.161E-03     590.817E-03    -296.656E-03     119.812E-03    -295.532E-03     592.062E-03    -296.445E-03     106.147E-03
            2101     10.0330E-03     32.7650E-03    -14.8840E+06     6.11991E+06     40.0309E+06     340.691E+03    -294.371E-03     591.453E-03    -297.082E-03     117.476E-03    -295.656E-03     592.591E-03    -296.869E-03     104.622E-03
            2102     9.35910E-03     32.5800E-03    -19.2902E+06     1.55143E+06     36.2757E+06     275.581E+03    -294.771E-03     592.301E-03    -297.530E-03     113.405E-03    -295.938E-03     593.299E-03    -297.323E-03     101.574E-03
            2103     8.68680E-03     32.4013E-03    -23.7864E+06    -3.60871E+06     30.5784E+06     297.782E+03    -295.351E-03     593.333E-03    -297.983E-03     107.981E-03    -296.386E-03     594.182E-03    -297.790E-03     97.2545E-03
            2104     8.01483E-03     32.2328E-03    -27.6321E+06    -8.79988E+06     23.2976E+06     480.365E+03    -295.862E-03     594.294E-03    -298.432E-03     101.651E-03    -296.763E-03     594.998E-03    -298.263E-03     92.0358E-03
            2105     7.34305E-03     32.0742E-03    -31.2025E+06    -13.9615E+06     15.6287E+06     753.890E+03    -296.419E-03     595.303E-03    -298.883E-03     94.7963E-03    -297.192E-03     595.870E-03    -298.740E-03     86.2802E-03
            2106     6.67260E-03     31.9265E-03    -34.9829E+06    -18.8638E+06     9.24324E+06     486.211E+03    -297.030E-03     596.368E-03    -299.339E-03     87.3806E-03    -297.690E-03     596.810E-03    -299.214E-03     79.9017E-03
            2107     6.00247E-03     31.7925E-03    -39.5782E+06    -32.9287E+06     251.711E+03     469.676E+03    -297.673E-03     597.458E-03    -299.785E-03     79.5199E-03    -298.219E-03     597.746E-03    -299.679E-03     73.0369E-03
            2108     5.33322E-03     31.6691E-03    -44.6578E+06    -47.3058E+06    -9.92682E+06     1.70009E+06    -298.371E-03     598.580E-03    -300.209E-03     71.2566E-03    -298.817E-03     598.728E-03    -300.125E-03     65.7267E-03
            2109     4.66441E-03     31.5613E-03    -49.0521E+06    -52.3931E+06    -17.5106E+06     2.52652E+06    -299.146E-03     599.741E-03    -300.595E-03     62.6075E-03    -299.518E-03     599.804E-03    -300.535E-03     57.9430E-03
            2110     3.99691E-03     31.4645E-03    -53.3117E+06    -58.2437E+06    -26.1109E+06     1.72143E+06    -299.775E-03     600.707E-03    -300.932E-03     53.8682E-03    -300.084E-03     600.696E-03    -300.901E-03     49.9728E-03
            2111     3.32927E-03     31.3843E-03    -57.7361E+06    -65.2819E+06    -36.6051E+06     490.582E+03    -300.310E-03     601.534E-03    -301.224E-03     45.1297E-03    -300.565E-03     601.458E-03    -301.229E-03     41.9281E-03
            2112     2.66255E-03     31.3168E-03    -61.6987E+06    -72.2862E+06    -47.2954E+06    -143.544E+03    -300.869E-03     602.338E-03    -301.469E-03     36.3324E-03    -301.077E-03     602.207E-03    -301.511E-03     33.7955E-03
            2113     1.99678E-03     31.2658E-03    -65.3716E+06    -78.7292E+06    -56.8184E+06    -228.214E+03    -301.296E-03     602.959E-03    -301.663E-03     27.4907E-03    -301.468E-03     602.784E-03    -301.739E-03     25.5971E-03
            2114     1.33099E-03     31.2275E-03    -68.2515E+06    -83.7888E+06    -64.1577E+06    -60.0018E+03    -301.642E-03     603.451E-03    -301.809E-03     18.4563E-03    -301.788E-03     603.243E-03    -301.909E-03     17.1925E-03
            2115     665.435E-06     31.2058E-03    -69.8156E+06    -87.1105E+06    -69.1626E+06    -22.4890E+03    -301.784E-03     603.761E-03    -301.977E-03     9.87740E-03    -301.913E-03     603.533E-03    -302.095E-03     9.22463E-03
            2116     12.7240E-03     31.8291E-03    -2.87657E+06     16.9615E+06     47.2377E+06    -208.767E+03    -292.579E-03     588.238E-03    -295.659E-03     108.087E-03    -293.701E-03     589.273E-03    -295.443E-03     95.8432E-03
            2117     12.0502E-03     31.6356E-03    -5.69737E+06     15.1613E+06     44.9862E+06    -53.5286E+03    -293.308E-03     589.314E-03    -296.006E-03     120.727E-03    -294.744E-03     590.652E-03    -295.795E-03     106.330E-03
            2118     11.3793E-03     31.4435E-03    -8.03348E+06     12.3061E+06     43.0078E+06     291.509E+03    -293.270E-03     589.668E-03    -296.398E-03     120.438E-03    -294.670E-03     590.958E-03    -296.189E-03     106.429E-03
            2119     10.7040E-03     31.2512E-03    -10.8926E+06     9.64061E+06     41.7710E+06     684.407E+03    -293.520E-03     590.362E-03    -296.842E-03     121.569E-03    -294.925E-03     591.642E-03    -296.631E-03     107.757E-03
            2120     10.0294E-03     31.0585E-03    -14.4415E+06     6.31705E+06     40.1239E+06     1.17836E+06    -294.044E-03     591.365E-03    -297.321E-03     119.097E-03    -295.362E-03     592.538E-03    -297.108E-03     106.081E-03
            2121     9.35693E-03     30.8713E-03    -18.2915E+06     2.21026E+06     36.5636E+06     1.26297E+06    -294.627E-03     592.437E-03    -297.810E-03     114.934E-03    -295.825E-03     593.472E-03    -297.604E-03     102.907E-03
            2122     8.68390E-03     30.6911E-03    -22.4321E+06    -2.67154E+06     31.0587E+06     798.869E+03    -295.107E-03     593.415E-03    -298.308E-03     109.732E-03    -296.174E-03     594.303E-03    -298.116E-03     98.7754E-03
            2123     8.01154E-03     30.5198E-03    -26.9502E+06    -8.59922E+06     23.9353E+06     45.1163E+03    -295.744E-03     594.557E-03    -298.813E-03     103.528E-03    -296.677E-03     595.294E-03    -298.642E-03     93.6651E-03
            2124     7.34050E-03     30.3587E-03    -31.3424E+06    -14.4141E+06     15.8904E+06    -379.436E+03    -296.475E-03     595.787E-03    -299.312E-03     96.5935E-03    -297.280E-03     596.383E-03    -299.166E-03     87.8026E-03
            2125     6.66918E-03     30.2093E-03    -35.8499E+06    -20.1660E+06     7.47132E+06     441.920E+03    -297.205E-03     597.004E-03    -299.799E-03     88.8960E-03    -297.892E-03     597.470E-03    -299.680E-03     81.1655E-03
            2126     5.99933E-03     30.0707E-03    -40.5835E+06    -34.2156E+06    -2.01872E+06     1.65262E+06    -298.085E-03     598.355E-03    -300.269E-03     80.7008E-03    -298.653E-03     598.662E-03    -300.171E-03     73.9961E-03
            2127     5.33003E-03     29.9472E-03    -44.6462E+06    -47.3043E+06    -9.11835E+06     1.22827E+06    -298.926E-03     599.636E-03    -300.710E-03     72.1521E-03    -299.389E-03     599.800E-03    -300.623E-03     66.3911E-03
            2128     4.66209E-03     29.8336E-03    -48.2198E+06    -51.7204E+06    -14.5591E+06     315.462E+03    -299.563E-03     600.674E-03    -301.112E-03     63.5772E-03    -299.950E-03     600.749E-03    -301.040E-03     58.6670E-03
            2129     3.99445E-03     29.7376E-03    -52.1556E+06    -57.1760E+06    -23.6985E+06     594.371E+03    -300.198E-03     601.663E-03    -301.465E-03     54.8146E-03    -300.518E-03     601.663E-03    -301.425E-03     50.7067E-03
            2130     3.32770E-03     29.6536E-03    -56.6492E+06    -64.1947E+06    -34.8979E+06     1.13243E+06    -300.789E-03     602.562E-03    -301.773E-03     45.8011E-03    -301.050E-03     602.495E-03    -301.772E-03     42.4678E-03
            2131     2.66139E-03     29.5856E-03    -60.9781E+06    -71.3874E+06    -45.8377E+06     1.36750E+06    -301.330E-03     603.369E-03    -302.039E-03     36.6562E-03    -301.542E-03     603.244E-03    -302.076E-03     34.0571E-03
            2132     1.99513E-03     29.5317E-03    -64.6595E+06    -77.8421E+06    -55.5711E+06     1.13094E+06    -301.842E-03     604.096E-03    -302.254E-03     27.5979E-03    -302.015E-03     603.924E-03    -302.325E-03     25.6659E-03
            2133     1.32983E-03     29.4935E-03    -67.7236E+06    -83.1338E+06    -63.3016E+06     583.143E+03    -302.220E-03     604.631E-03    -302.411E-03     18.6586E-03    -302.367E-03     604.426E-03    -302.509E-03     17.3421E-03
            2134     664.960E-06     29.4695E-03    -69.4244E+06    -86.5122E+06    -68.3430E+06     220.551E+03    -302.403E-03     604.976E-03    -302.573E-03     10.3366E-03    -302.532E-03     604.751E-03    -302.689E-03     9.61131E-03
            2135     12.7267E-03     30.1297E-03    -2.54278E+06     16.8712E+06     46.7853E+06     41.6654E+03    -291.837E-03     587.530E-03    -295.693E-03     107.709E-03    -292.964E-03     588.573E-03    -295.480E-03     95.4309E-03
            2136     12.0527E-03     29.9321E-03    -5.55544E+06     14.6920E+06     43.9507E+06    -132.589E+03    -292.077E-03     588.172E-03    -296.095E-03     121.452E-03    -293.537E-03     589.537E-03    -295.889E-03     106.929E-03
            2137     11.3751E-03     29.7425E-03    -8.21030E+06     11.4978E+06     41.5069E+06     8.27173E+03    -292.437E-03     588.993E-03    -296.556E-03     122.038E-03    -293.867E-03     590.315E-03    -296.353E-03     107.899E-03
            2138     10.7010E-03     29.5467E-03    -11.5250E+06     8.48414E+06     39.8938E+06     266.192E+03    -293.251E-03     590.302E-03    -297.051E-03     122.748E-03    -294.687E-03     591.611E-03    -296.847E-03     108.772E-03
            2139     10.0280E-03     29.3521E-03    -14.6718E+06     5.55197E+06     38.5575E+06     544.958E+03    -293.809E-03     591.375E-03    -297.566E-03     120.308E-03    -295.163E-03     592.585E-03    -297.360E-03     107.058E-03
            2140     9.35374E-03     29.1632E-03    -17.7810E+06     2.04480E+06     35.2964E+06     719.621E+03    -294.332E-03     592.430E-03    -298.098E-03     116.545E-03    -295.566E-03     593.506E-03    -297.899E-03     104.261E-03
            2141     8.68083E-03     28.9804E-03    -21.0611E+06    -2.01569E+06     30.5351E+06     941.387E+03    -295.037E-03     593.679E-03    -298.642E-03     111.271E-03    -296.134E-03     594.605E-03    -298.456E-03     100.073E-03
            2142     8.00855E-03     28.8067E-03    -24.9736E+06    -7.17869E+06     24.6543E+06     1.14841E+06    -295.796E-03     594.984E-03    -299.188E-03     104.869E-03    -296.753E-03     595.755E-03    -299.018E-03     94.7990E-03
            2143     7.33642E-03     28.6424E-03    -29.7372E+06    -12.9139E+06     18.4034E+06     699.898E+03    -296.732E-03     596.455E-03    -299.723E-03     97.7408E-03    -297.560E-03     597.078E-03    -299.569E-03     88.7587E-03
            2144     6.66658E-03     28.4896E-03    -34.2749E+06    -23.1091E+06     11.0227E+06     293.557E+03    -297.777E-03     598.002E-03    -300.226E-03     89.7336E-03    -298.477E-03     598.467E-03    -300.087E-03     81.7978E-03
            2145     5.99665E-03     28.3496E-03    -37.7143E+06    -35.9219E+06     2.63527E+06     850.444E+03    -298.709E-03     599.390E-03    -300.680E-03     81.2128E-03    -299.283E-03     599.694E-03    -300.560E-03     74.3119E-03
            2146     5.32856E-03     28.2202E-03    -41.4651E+06    -44.2019E+06    -6.38356E+06     907.717E+03    -299.325E-03     600.418E-03    -301.092E-03     72.4846E-03    -299.795E-03     600.602E-03    -301.000E-03     66.5297E-03
            2147     4.66025E-03     28.1086E-03    -46.7540E+06    -51.1536E+06    -16.7007E+06     707.545E+03    -299.876E-03     601.357E-03    -301.481E-03     63.9925E-03    -300.265E-03     601.446E-03    -301.422E-03     58.9285E-03
            2148     3.99266E-03     28.0065E-03    -52.0474E+06    -58.3398E+06    -26.3040E+06     894.213E+03    -300.612E-03     602.453E-03    -301.841E-03     55.0705E-03    -300.933E-03     602.458E-03    -301.812E-03     50.8578E-03
            2149     3.32612E-03     27.9226E-03    -56.4995E+06    -64.7175E+06    -35.3810E+06     1.13419E+06    -301.274E-03     603.420E-03    -302.146E-03     45.8402E-03    -301.537E-03     603.355E-03    -302.147E-03     42.4155E-03
            2150     2.65997E-03     27.8516E-03    -60.1100E+06    -70.7435E+06    -44.6379E+06     1.19200E+06    -301.779E-03     604.174E-03    -302.395E-03     36.7796E-03    -301.992E-03     604.052E-03    -302.428E-03     34.1018E-03
            2151     1.99494E-03     27.7970E-03    -62.9156E+06    -76.2819E+06    -53.4328E+06     1.15984E+06    -302.202E-03     604.799E-03    -302.596E-03     27.6274E-03    -302.374E-03     604.631E-03    -302.662E-03     25.6426E-03
            2152     1.32969E-03     27.7569E-03    -65.2582E+06    -81.1958E+06    -61.2591E+06     896.108E+03    -302.538E-03     605.293E-03    -302.755E-03     18.6321E-03    -302.679E-03     605.091E-03    -302.849E-03     17.2876E-03
            2153     664.491E-06     27.7332E-03    -67.1899E+06    -84.3674E+06    -65.7384E+06     327.500E+03    -302.665E-03     605.680E-03    -303.015E-03     10.0426E-03    -302.790E-03     605.458E-03    -303.124E-03     9.29761E-03
            2154     12.7250E-03     28.4300E-03    -2.63064E+06     16.6130E+06     46.7334E+06    -37.1379E+03    -290.853E-03     586.621E-03    -295.768E-03     109.735E-03    -292.001E-03     587.683E-03    -295.555E-03     97.4219E-03
            2155     12.0476E-03     28.2340E-03    -4.71273E+06     15.4610E+06     45.0047E+06     619.177E+03    -291.686E-03     587.910E-03    -296.225E-03     123.004E-03    -293.160E-03     589.292E-03    -296.015E-03     108.524E-03
            2156     11.3742E-03     28.0407E-03    -8.04962E+06     11.4572E+06     41.4263E+06     487.764E+03    -292.135E-03     588.849E-03    -296.715E-03     122.435E-03    -293.585E-03     590.192E-03    -296.513E-03     108.185E-03
            2157     10.6997E-03     27.8418E-03    -10.9826E+06     8.55143E+06     39.4416E+06     323.051E+03    -292.764E-03     590.008E-03    -297.244E-03     123.604E-03    -294.228E-03     591.348E-03    -297.043E-03     109.458E-03
            2158     10.0246E-03     27.6468E-03    -14.2962E+06     5.35198E+06     37.5836E+06    -30.5335E+03    -293.523E-03     591.324E-03    -297.800E-03     121.624E-03    -294.909E-03     592.569E-03    -297.600E-03     108.162E-03
            2159     9.35110E-03     27.4550E-03    -17.9534E+06     1.49273E+06     34.3717E+06    -175.000E+03    -294.367E-03     592.731E-03    -298.365E-03     117.401E-03    -295.630E-03     593.837E-03    -298.169E-03     104.894E-03
            2160     8.67799E-03     27.2692E-03    -21.7701E+06    -2.97340E+06     29.5205E+06     9.32423E+03    -295.246E-03     594.169E-03    -298.923E-03     111.823E-03    -296.368E-03     595.117E-03    -298.739E-03     100.418E-03
            2161     8.00573E-03     27.0929E-03    -25.3618E+06    -7.63801E+06     23.4716E+06     202.507E+03    -296.341E-03     595.799E-03    -299.458E-03     104.999E-03    -297.315E-03     596.588E-03    -299.293E-03     94.7306E-03
            2162     7.33507E-03     26.9252E-03    -28.7076E+06    -12.2514E+06     17.8362E+06      574.24E+03    -297.301E-03     597.265E-03    -299.964E-03     97.1792E-03    -298.133E-03     597.899E-03    -299.815E-03     88.0604E-03
            2163     6.66412E-03     26.7690E-03    -32.7033E+06    -22.4093E+06     10.6462E+06     559.687E+03    -298.191E-03     598.628E-03    -300.437E-03     89.1166E-03    -298.888E-03     599.098E-03    -300.304E-03     81.1080E-03
            2164     5.99590E-03     26.6245E-03    -37.8069E+06    -36.6829E+06     868.864E+03     33.9507E+03    -298.962E-03     599.835E-03    -300.873E-03     80.8900E-03    -299.537E-03     600.142E-03    -300.760E-03     73.9049E-03
            2165     5.32681E-03     26.4960E-03    -42.6519E+06    -45.8707E+06    -8.18607E+06     838.185E+03    -299.684E-03     600.954E-03    -301.270E-03     72.2459E-03    -300.157E-03     601.137E-03    -301.183E-03     66.2382E-03
            2166     4.65908E-03     26.3790E-03    -46.4646E+06    -51.2412E+06    -16.0193E+06     1.99165E+06    -300.453E-03     602.074E-03    -301.620E-03     63.2732E-03    -300.841E-03     602.161E-03    -301.559E-03     58.2043E-03
            2167     3.99240E-03     26.2769E-03    -50.4301E+06    -57.1514E+06    -24.8809E+06     1.82131E+06    -300.997E-03     602.914E-03    -301.917E-03     54.1369E-03    -301.311E-03     602.919E-03    -301.885E-03     49.9346E-03
            2168     3.32583E-03     26.1890E-03    -54.4503E+06    -63.5380E+06    -34.5918E+06     1.05840E+06    -301.485E-03     603.652E-03    -302.167E-03     44.8468E-03    -301.738E-03     603.587E-03    -302.169E-03     41.4168E-03
            2169     2.66027E-03     26.1177E-03    -58.2901E+06    -69.9598E+06    -44.2920E+06     541.716E+03    -301.904E-03     604.276E-03    -302.371E-03     35.8824E-03    -302.109E-03     604.153E-03    -302.407E-03     33.1834E-03
            2170     1.99433E-03     26.0607E-03    -61.6719E+06    -75.7624E+06    -53.0372E+06     377.208E+03    -302.239E-03     604.774E-03    -302.535E-03     27.0081E-03    -302.405E-03     604.606E-03    -302.601E-03     24.9941E-03
            2171     1.32933E-03     26.0206E-03    -63.6613E+06    -79.7773E+06    -59.3082E+06     486.509E+03    -302.560E-03     605.205E-03    -302.646E-03     18.1617E-03    -302.697E-03     605.005E-03    -302.734E-03     16.8240E-03
            2172     664.929E-06     25.9945E-03    -64.6872E+06    -82.5960E+06    -63.9558E+06      540.29E+03    -302.815E-03     605.386E-03    -302.571E-03     9.61488E-03    -302.933E-03     605.166E-03    -302.677E-03     8.91549E-03
            2173     12.7214E-03     26.7308E-03    -3.03011E+06     15.8956E+06     45.8322E+06    -232.485E+03    -290.195E-03     586.032E-03    -295.837E-03     108.555E-03    -291.348E-03     587.098E-03    -295.627E-03     96.1700E-03
            2174     12.0488E-03     26.5328E-03    -5.54307E+06     14.3307E+06     43.5480E+06    -319.361E+03    -291.212E-03     587.532E-03    -296.320E-03     122.321E-03    -292.711E-03     588.936E-03    -296.115E-03     107.588E-03
            2175     11.3729E-03     26.3387E-03    -7.72010E+06     11.4723E+06     41.2887E+06     147.131E+03    -291.712E-03     588.556E-03    -296.845E-03     123.533E-03    -293.189E-03     589.927E-03    -296.644E-03     109.141E-03
            2176     10.6971E-03     26.1405E-03    -10.6481E+06     8.69295E+06     39.7031E+06     191.086E+03    -292.591E-03     589.997E-03    -297.407E-03     124.661E-03    -294.082E-03     591.366E-03    -297.205E-03     110.363E-03
            2177     10.0228E-03     25.9405E-03    -13.7698E+06     5.81567E+06     38.4803E+06     260.404E+03    -293.693E-03     591.672E-03    -297.979E-03     121.910E-03    -295.093E-03     592.933E-03    -297.775E-03     108.343E-03
            2178     9.34946E-03     25.7454E-03    -17.5457E+06     1.88802E+06     35.2965E+06     66.0442E+03    -294.853E-03     593.385E-03    -298.532E-03     117.218E-03    -296.126E-03     594.500E-03    -298.333E-03     104.615E-03
            2179     8.67667E-03     25.5589E-03    -21.8978E+06    -2.96135E+06     30.3430E+06    -151.527E+03    -296.048E-03     595.098E-03    -299.050E-03     111.244E-03    -297.172E-03     596.046E-03    -298.862E-03     99.7738E-03
            2180     8.00529E-03     25.3760E-03    -26.3611E+06    -8.26616E+06     24.2333E+06    -187.284E+03    -297.188E-03     596.710E-03    -299.522E-03     104.024E-03    -298.161E-03     597.490E-03    -299.351E-03     93.7432E-03
            2181     7.33477E-03     25.2074E-03    -31.1695E+06    -14.4511E+06     16.0617E+06     221.699E+03    -298.084E-03     598.026E-03    -299.942E-03     95.9263E-03    -298.914E-03     598.647E-03    -299.795E-03     86.8153E-03
            2182     6.66591E-03     25.0477E-03    -36.1084E+06    -21.4910E+06     5.67941E+06     790.567E+03    -298.521E-03     598.848E-03    -300.328E-03     87.5725E-03    -299.218E-03     599.325E-03    -300.216E-03     79.6014E-03
            2183     5.99545E-03     24.9023E-03    -40.1771E+06    -35.3564E+06    -5.13261E+06     583.891E+03    -299.128E-03     599.833E-03    -300.704E-03     78.9385E-03    -299.696E-03     600.147E-03    -300.620E-03     72.0186E-03
            2184     5.32755E-03     24.7688E-03    -43.5868E+06    -47.7882E+06    -12.0574E+06    -126.184E+03    -300.117E-03     601.159E-03    -301.042E-03     70.0028E-03    -300.575E-03     601.327E-03    -300.970E-03     64.0502E-03
            2185     4.66065E-03     24.6498E-03    -47.0809E+06    -52.1342E+06    -16.7201E+06    -324.147E+03    -300.755E-03     602.058E-03    -301.303E-03     60.9495E-03    -301.135E-03     602.134E-03    -301.243E-03     55.8884E-03
            2186     3.99376E-03     24.5461E-03    -50.3093E+06    -56.9208E+06    -23.8940E+06     111.325E+03    -301.054E-03     602.557E-03    -301.504E-03     52.1517E-03    -301.363E-03     602.556E-03    -301.468E-03     47.9481E-03
            2187     3.32766E-03     24.4566E-03    -53.4317E+06    -62.5558E+06    -33.0488E+06     506.588E+03    -301.311E-03     602.977E-03    -301.666E-03     43.2806E-03    -301.560E-03     602.910E-03    -301.663E-03     39.8720E-03
            2188     2.66143E-03     24.3839E-03    -57.2417E+06    -69.0574E+06    -43.1063E+06     560.623E+03    -301.585E-03     603.374E-03    -301.789E-03     34.4344E-03    -301.784E-03     603.250E-03    -301.822E-03     31.7561E-03
            2189     1.99619E-03     24.3261E-03    -60.5543E+06    -74.8886E+06    -51.8302E+06     271.069E+03    -301.787E-03     603.660E-03    -301.874E-03     25.8141E-03    -301.948E-03     603.492E-03    -301.936E-03     23.8374E-03
            2190     1.33079E-03     24.2843E-03    -62.8663E+06    -79.2898E+06    -58.5117E+06    -17.9753E+03    -301.886E-03     603.815E-03    -301.929E-03     17.3534E-03    -302.021E-03     603.614E-03    -302.015E-03     16.0391E-03
            2191     665.128E-06     24.2590E-03    -64.5263E+06    -82.4334E+06    -63.1477E+06     65.9944E+03    -302.023E-03     603.919E-03    -301.896E-03     9.45235E-03    -302.141E-03     603.698E-03    -301.998E-03     8.75221E-03
            2192     12.7263E-03     25.0346E-03    -2.10147E+06     16.4732E+06     46.1754E+06    -151.047E+03    -289.663E-03     585.518E-03    -295.855E-03     109.211E-03    -290.828E-03     586.600E-03    -295.645E-03     96.7520E-03
            2193     12.0469E-03     24.8353E-03    -4.88717E+06     14.5577E+06     43.5775E+06     74.9166E+03    -290.449E-03     586.830E-03    -296.381E-03     124.057E-03    -291.965E-03     588.254E-03    -296.177E-03     109.332E-03
            2194     11.3705E-03     24.6391E-03    -8.15717E+06     10.7082E+06     40.3657E+06    -83.8559E+03    -291.704E-03     588.639E-03    -296.935E-03     124.101E-03    -293.200E-03     590.027E-03    -296.737E-03     109.593E-03
            2195     10.6962E-03     24.4358E-03    -10.7707E+06     8.45448E+06     39.6430E+06    -115.336E+03    -293.211E-03     590.696E-03    -297.486E-03     124.365E-03    -294.708E-03     592.071E-03    -297.284E-03     109.966E-03
            2196     10.0226E-03     24.2343E-03    -14.2652E+06     5.33786E+06     38.5167E+06    -20.4068E+03    -294.478E-03     592.493E-03    -298.015E-03     121.403E-03    -295.878E-03     593.749E-03    -297.809E-03     107.797E-03
            2197     9.34887E-03     24.0367E-03    -17.9709E+06     1.53681E+06     35.5476E+06     251.697E+03    -295.920E-03     594.418E-03    -298.498E-03     116.055E-03    -297.177E-03     595.514E-03    -298.297E-03     103.511E-03
            2198     8.67774E-03     23.8434E-03    -21.7161E+06    -2.86451E+06     30.7477E+06     587.031E+03    -297.230E-03     596.146E-03    -298.916E-03     109.338E-03    -298.331E-03     597.070E-03    -298.726E-03     97.9510E-03
            2199     8.00709E-03     23.6617E-03    -25.9794E+06    -8.41493E+06     23.4636E+06     927.569E+03    -298.068E-03     597.339E-03    -299.271E-03     101.894E-03    -299.014E-03     598.095E-03    -299.104E-03     91.7249E-03
            2200     7.33730E-03     23.4863E-03    -29.7824E+06    -13.6883E+06     16.0769E+06     402.946E+03    -298.654E-03     598.242E-03    -299.588E-03     93.6175E-03    -299.456E-03     598.843E-03    -299.445E-03     84.6121E-03
            2201     6.66763E-03     23.3277E-03    -32.6466E+06    -22.7095E+06     9.60414E+06    -34.8782E+03    -299.315E-03     599.186E-03    -299.871E-03     84.9187E-03    -299.980E-03     599.626E-03    -299.742E-03     77.0207E-03
            2202     6.00009E-03     23.1790E-03    -36.1258E+06    -35.6426E+06     1.10819E+06     850.223E+03    -299.920E-03     600.014E-03    -300.094E-03     76.0243E-03    -300.457E-03     600.292E-03    -299.984E-03     69.2263E-03
            2203     5.33228E-03     23.0425E-03    -40.7485E+06    -44.9314E+06    -8.83253E+06     950.871E+03    -300.228E-03     600.483E-03    -300.255E-03     67.0023E-03    -300.664E-03     600.640E-03    -300.175E-03     61.1815E-03
            2204     4.66471E-03     22.9223E-03    -45.5003E+06    -51.3666E+06    -17.8732E+06    -196.506E+03    -300.434E-03     600.811E-03    -300.377E-03     58.1271E-03    -300.793E-03     600.879E-03    -300.326E-03     53.1566E-03
            2205     3.99807E-03     22.8166E-03    -50.1581E+06    -57.7939E+06    -26.3194E+06    -836.277E+03    -300.560E-03     601.027E-03    -300.467E-03     49.5505E-03    -300.857E-03     601.016E-03    -300.442E-03     45.3923E-03
            2206     3.33118E-03     22.7270E-03    -54.2818E+06    -63.7367E+06    -34.4398E+06    -667.699E+03    -300.625E-03     601.151E-03    -300.526E-03     41.1109E-03    -300.868E-03     601.075E-03    -300.527E-03     37.7413E-03
            2207     2.66500E-03     22.6522E-03    -57.1145E+06    -68.9912E+06    -42.5156E+06    -417.223E+03    -300.700E-03     601.249E-03    -300.549E-03     32.6083E-03    -300.896E-03     601.120E-03    -300.578E-03     29.9705E-03
            2208     1.99851E-03     22.5945E-03    -59.9452E+06    -74.6346E+06    -51.3381E+06    -306.340E+03    -300.625E-03     601.169E-03    -300.544E-03     24.4194E-03    -300.783E-03     600.998E-03    -300.605E-03     22.4701E-03
            2209     1.33218E-03     22.5523E-03    -62.7194E+06    -79.7494E+06    -58.8852E+06    -203.003E+03    -300.530E-03     601.084E-03    -300.553E-03     16.4932E-03    -300.662E-03     600.880E-03    -300.641E-03     15.1927E-03
            2210     666.205E-06     22.5268E-03    -64.0593E+06    -82.5455E+06    -63.1333E+06    -152.803E+03    -300.358E-03     601.149E-03    -300.791E-03     8.93698E-03    -300.473E-03     600.927E-03    -300.895E-03     8.25325E-03
            2211     12.7201E-03     23.3379E-03    -2.42228E+06     15.8538E+06     45.3491E+06    -190.993E+03    -289.217E-03     585.088E-03    -295.871E-03     109.354E-03    -290.382E-03     586.169E-03    -295.664E-03     96.8878E-03
            2212     12.0463E-03     23.1380E-03    -4.82399E+06     14.4796E+06     43.5350E+06    -15.6143E+03    -290.818E-03     587.219E-03    -296.401E-03     123.635E-03    -292.333E-03     588.642E-03    -296.198E-03     108.892E-03
            2213     11.3716E-03     22.9371E-03    -7.76670E+06     11.1653E+06     41.3002E+06    -35.5818E+03    -292.448E-03     589.373E-03    -296.925E-03     124.029E-03    -293.950E-03     590.768E-03    -296.724E-03     109.441E-03
            2214     10.6971E-03     22.7316E-03    -10.9492E+06     8.25882E+06     39.7892E+06     88.5454E+03    -294.369E-03     591.779E-03    -297.410E-03     123.729E-03    -295.858E-03     593.143E-03    -297.208E-03     109.336E-03
            2215     10.0232E-03     22.5273E-03    -14.3958E+06     5.06533E+06     38.1256E+06     88.0613E+03    -296.122E-03     593.952E-03    -297.830E-03     119.638E-03    -297.498E-03     595.184E-03    -297.626E-03     106.062E-03
            2216     9.35267E-03     22.3237E-03    -18.1019E+06     1.05666E+06     34.5554E+06     113.391E+03    -297.475E-03     595.645E-03    -298.169E-03     113.717E-03    -298.702E-03     596.711E-03    -297.972E-03     101.228E-03
            2217     8.68162E-03     22.1306E-03    -21.6785E+06    -3.42911E+06     29.1995E+06     82.1562E+03    -298.436E-03     596.870E-03    -298.435E-03     106.539E-03    -299.504E-03     597.765E-03    -298.252E-03     95.2286E-03
            2218     8.01208E-03     21.9427E-03    -24.8456E+06    -7.86956E+06     23.1818E+06    -318.814E+03    -299.024E-03     597.665E-03    -298.641E-03     98.6353E-03    -299.938E-03     598.395E-03    -298.478E-03     88.5288E-03
            2219     7.34284E-03     21.7701E-03    -28.4807E+06    -12.5794E+06     17.3564E+06    -619.571E+03    -299.523E-03     598.320E-03    -298.797E-03     90.0288E-03    -300.295E-03     598.896E-03    -298.651E-03     81.1109E-03
            2220     6.67452E-03     21.6053E-03    -33.3685E+06    -23.4308E+06     9.42822E+06    -461.327E+03    -300.147E-03     599.028E-03    -298.881E-03     80.9397E-03    -300.787E-03     599.439E-03    -298.752E-03     73.1732E-03
            2221     6.00681E-03     21.4554E-03    -37.7679E+06    -37.2705E+06     396.401E+03    -307.063E+03    -300.350E-03     599.240E-03    -298.890E-03     72.0392E-03    -300.869E-03     599.491E-03    -298.779E-03     65.3522E-03
            2222     5.33944E-03     21.3196E-03    -40.9684E+06    -44.8843E+06    -6.61479E+06     225.241E+03    -300.059E-03     598.920E-03    -298.861E-03     63.3258E-03    -300.481E-03     599.057E-03    -298.770E-03     57.6283E-03
            2223     4.67215E-03     21.1975E-03    -44.5867E+06    -49.9577E+06    -14.3343E+06     733.785E+03    -299.813E-03     598.622E-03    -298.809E-03     54.5161E-03    -300.159E-03     598.674E-03    -298.744E-03     49.7098E-03
            2224     4.00458E-03     21.0916E-03    -48.7479E+06    -56.3795E+06    -24.0203E+06     354.774E+03    -299.659E-03     598.380E-03    -298.721E-03     45.8057E-03    -299.940E-03     598.358E-03    -298.689E-03     41.8117E-03
            2225     3.33750E-03     21.0011E-03    -52.8328E+06    -63.2476E+06    -34.2261E+06    -544.825E+03    -299.371E-03     597.974E-03    -298.603E-03     37.5946E-03    -299.598E-03     597.888E-03    -298.606E-03     34.3504E-03
            2226     2.67005E-03     20.9260E-03    -57.0970E+06    -70.1345E+06    -44.1059E+06    -809.193E+03    -299.010E-03     597.490E-03    -298.480E-03     29.6064E-03    -299.195E-03     597.351E-03    -298.516E-03     27.0646E-03
            2227     2.00284E-03     20.8684E-03    -60.4126E+06    -75.8087E+06    -52.2322E+06    -337.439E+03    -298.716E-03     597.079E-03    -298.363E-03     21.8314E-03    -298.869E-03     596.900E-03    -298.427E-03     19.9494E-03
            2228     1.33531E-03     20.8263E-03    -62.3274E+06    -79.9565E+06    -58.5988E+06    -76.1901E+03    -298.415E-03     596.683E-03    -298.268E-03     14.5506E-03    -298.543E-03     596.475E-03    -298.355E-03     13.3071E-03
            2229     667.531E-06     20.8001E-03    -63.9244E+06    -82.9626E+06    -62.9132E+06    -254.441E+03    -298.099E-03     596.464E-03    -298.364E-03     7.89395E-03    -298.213E-03     596.238E-03    -298.466E-03     7.20876E-03
            2230     12.7260E-03     21.6431E-03     -2.6034E+06     15.9918E+06     46.1586E+06    -222.983E+03    -290.047E-03     585.926E-03    -295.879E-03     110.373E-03    -291.244E-03     587.036E-03    -295.667E-03     97.7105E-03
            2231     12.0480E-03     21.4395E-03    -5.16099E+06     14.4972E+06     44.1524E+06    -102.031E+03    -292.289E-03     588.636E-03    -296.346E-03     124.641E-03    -293.841E-03     590.093E-03    -296.139E-03     109.643E-03
            2232     11.3724E-03     21.2355E-03    -8.06571E+06     10.8638E+06     41.0303E+06    -38.2187E+03    -294.229E-03     590.996E-03    -296.768E-03     123.962E-03    -295.736E-03     592.395E-03    -296.567E-03     109.285E-03
            2233     10.6989E-03     21.0255E-03    -11.0387E+06     8.06847E+06     39.2742E+06    -118.059E+03    -296.521E-03     593.632E-03    -297.111E-03     122.034E-03    -297.994E-03     594.981E-03    -296.910E-03     107.581E-03
            2234     10.0292E-03     20.8150E-03    -14.1712E+06     5.01190E+06     37.4728E+06    -211.419E+03    -298.126E-03     595.482E-03    -297.355E-03     117.035E-03    -299.474E-03     596.688E-03    -297.154E-03     103.453E-03
            2235     9.35803E-03     20.6129E-03    -17.3707E+06     1.37176E+06     34.0542E+06    -264.730E+03    -299.233E-03     596.739E-03    -297.506E-03     110.888E-03    -300.427E-03     597.778E-03    -297.313E-03     98.4433E-03
            2236     8.68928E-03     20.4131E-03    -20.8523E+06    -2.81256E+06     29.5925E+06    -786.171E+03    -299.999E-03     597.573E-03    -297.573E-03     103.005E-03    -301.033E-03     598.436E-03    -297.391E-03     91.7763E-03
            2237     8.02044E-03     20.2286E-03    -24.9429E+06    -7.71279E+06     24.2386E+06    -988.881E+03    -300.466E-03     598.022E-03    -297.556E-03     94.1198E-03    -301.345E-03     598.715E-03    -297.388E-03     84.1357E-03
            2238     7.35236E-03     20.0496E-03    -29.4754E+06    -13.3251E+06     17.5896E+06    -473.169E+03    -300.757E-03     598.208E-03    -297.451E-03     85.0365E-03    -301.496E-03     598.744E-03    -297.301E-03     76.3060E-03
            2239     6.68542E-03     19.8864E-03    -33.3252E+06    -23.6205E+06     9.30326E+06    -292.406E+03    -300.664E-03     597.933E-03    -297.268E-03     75.8790E-03    -301.271E-03     598.310E-03    -297.139E-03     68.3038E-03
            2240     6.01799E-03     19.7350E-03    -37.1371E+06    -36.9958E+06    -254.554E+03    -569.739E+03    -300.311E-03     597.334E-03    -297.023E-03     66.6860E-03    -300.798E-03     597.559E-03    -296.917E-03     60.1543E-03
            2241     5.35066E-03     19.5997E-03    -41.5489E+06    -45.7396E+06    -8.19906E+06    -1.02628E+06    -299.807E-03     596.536E-03    -296.729E-03     57.6665E-03    -300.204E-03     596.647E-03    -296.644E-03     52.1067E-03
            2242     4.68290E-03     19.4779E-03    -45.4292E+06    -50.9009E+06    -14.1807E+06    -1.11027E+06    -299.073E-03     595.475E-03    -296.402E-03     48.8595E-03    -299.401E-03     595.502E-03    -296.333E-03     44.1998E-03
            2243     4.01536E-03     19.3719E-03    -48.7619E+06    -56.1858E+06    -21.8225E+06    -635.670E+03    -298.233E-03     594.282E-03    -296.049E-03     40.3398E-03    -298.501E-03     594.240E-03    -296.006E-03     36.4989E-03
            2244     3.34723E-03     19.2818E-03    -52.8815E+06    -63.0168E+06    -32.0778E+06     45.1742E+03    -297.336E-03     593.027E-03    -295.690E-03     32.5623E-03    -297.555E-03     592.926E-03    -295.683E-03     29.4665E-03
            2245     2.67859E-03     19.2087E-03    -56.7521E+06    -69.9307E+06    -42.3137E+06     146.015E+03    -296.454E-03     591.818E-03    -295.363E-03     25.3815E-03    -296.633E-03     591.669E-03    -295.391E-03     22.9616E-03
            2246     2.00930E-03     19.1501E-03    -59.9134E+06    -75.8974E+06    -51.1831E+06    -488.261E+03    -295.760E-03     590.844E-03    -295.084E-03     18.6147E-03    -295.908E-03     590.658E-03    -295.143E-03     16.8241E-03
            2247     1.34004E-03     19.1100E-03    -62.6243E+06    -80.8600E+06    -58.2853E+06    -579.197E+03    -295.239E-03     590.084E-03    -294.845E-03     12.3779E-03    -295.365E-03     589.869E-03    -294.929E-03     11.1934E-03
            2248     670.133E-06     19.0842E-03    -63.8514E+06    -84.0044E+06    -63.1457E+06    -204.094E+03    -294.735E-03     589.454E-03    -294.720E-03     6.73191E-03    -294.846E-03     589.223E-03    -294.821E-03     6.07346E-03
            2249     12.7193E-03     19.9412E-03    -2.50263E+06     15.7428E+06     45.2339E+06    -31.8682E+03    -290.939E-03     586.761E-03    -295.822E-03     111.216E-03    -292.147E-03     587.885E-03    -295.615E-03     98.4836E-03
            2250     12.0479E-03     19.7378E-03    -5.40865E+06     14.1025E+06     43.0924E+06    -376.880E+03    -294.882E-03     591.070E-03    -296.188E-03     124.479E-03    -296.452E-03     592.546E-03    -295.985E-03     109.231E-03
            2251     11.3762E-03     19.5302E-03    -7.76240E+06     11.2754E+06     40.9655E+06    -289.084E+03    -297.460E-03     593.883E-03    -296.423E-03     122.315E-03    -298.969E-03     595.286E-03    -296.223E-03     107.410E-03
            2252     10.7068E-03     19.3142E-03    -10.6711E+06     8.27357E+06     38.8206E+06    -420.272E+03    -299.087E-03     595.635E-03    -296.548E-03     120.020E-03    -300.542E-03     596.969E-03    -296.351E-03     105.513E-03
            2253     10.0357E-03     19.1049E-03    -13.9272E+06     5.10219E+06     36.9830E+06    -644.392E+03    -300.594E-03     597.164E-03    -296.570E-03     114.215E-03    -301.912E-03     598.344E-03    -296.373E-03     100.664E-03
            2254     9.36809E-03     18.8965E-03    -17.2586E+06     1.61945E+06     34.5025E+06    -822.312E+03    -301.620E-03     598.091E-03    -296.471E-03     106.509E-03    -302.775E-03     599.091E-03    -296.276E-03     94.1443E-03
            2255     8.70000E-03     18.6992E-03    -21.0364E+06    -2.74855E+06     30.3248E+06    -655.110E+03    -302.122E-03     598.371E-03    -296.250E-03     97.6028E-03    -303.112E-03     599.189E-03    -296.064E-03     86.5197E-03
            2256     8.03342E-03     18.5093E-03    -25.1167E+06    -7.96868E+06     24.1006E+06    -508.937E+03    -302.380E-03     598.285E-03    -295.905E-03     88.0108E-03    -303.215E-03     598.933E-03    -295.736E-03     78.2001E-03
            2257     7.36760E-03     18.3336E-03     -28.898E+06    -13.2894E+06     17.2572E+06    -944.064E+03    -302.017E-03     597.469E-03    -295.452E-03     78.3679E-03    -302.711E-03     597.964E-03    -295.305E-03     69.7860E-03
            2258     6.70033E-03     18.1689E-03    -32.8665E+06    -23.6293E+06     9.46399E+06    -1.19642E+06    -301.217E-03     596.141E-03    -294.924E-03     68.5895E-03    -301.783E-03     596.479E-03    -294.795E-03     61.1720E-03
            2259     6.03367E-03     18.0194E-03    -36.8464E+06    -36.8387E+06     865.289E+03    -1.04894E+06    -300.322E-03     594.649E-03    -294.327E-03     58.9447E-03    -300.774E-03     594.838E-03    -294.216E-03     52.6018E-03
            2260     5.36655E-03     17.8842E-03    -40.4196E+06    -44.9726E+06    -7.02510E+06    -1.03519E+06    -299.226E-03     592.887E-03    -293.662E-03     49.7595E-03    -299.589E-03     592.968E-03    -293.573E-03     44.3947E-03
            2261     4.69941E-03     17.7647E-03    -44.5339E+06    -51.1074E+06    -15.3563E+06    -1.34537E+06    -297.714E-03     590.671E-03    -292.957E-03     41.2850E-03    -298.011E-03     590.673E-03    -292.895E-03     36.7890E-03
            2262     4.03066E-03     17.6610E-03     -49.328E+06    -57.9275E+06    -23.8775E+06    -1.37261E+06    -295.966E-03     588.237E-03    -292.271E-03     33.6696E-03    -296.214E-03     588.172E-03    -292.235E-03     29.9717E-03
            2263     3.36083E-03     17.5736E-03    -53.4124E+06    -64.1471E+06    -31.8097E+06    -1.20054E+06    -294.370E-03     586.007E-03    -291.637E-03     26.7086E-03    -294.577E-03     585.888E-03    -291.625E-03     23.7502E-03
            2264     2.69016E-03     17.5017E-03    -56.6000E+06    -70.0749E+06    -40.3590E+06    -1.18162E+06    -292.871E-03     583.943E-03    -291.071E-03     20.4482E-03    -293.044E-03     583.781E-03    -291.090E-03     18.1462E-03
            2265     2.01858E-03     17.4464E-03    -59.7596E+06    -76.3072E+06    -49.6323E+06    -732.650E+03    -291.595E-03     582.206E-03    -290.611E-03     14.8814E-03    -291.739E-03     582.009E-03    -290.662E-03     13.1899E-03
            2266     1.34579E-03     17.4061E-03    -62.5681E+06    -81.9568E+06    -57.9972E+06    -489.354E+03    -290.779E-03     581.031E-03    -290.252E-03     9.77411E-03    -290.903E-03     580.808E-03    -290.332E-03     8.63636E-03
            2267     673.361E-06     17.3817E-03    -64.4527E+06    -85.7135E+06    -63.3683E+06    -318.665E+03    -289.845E-03     580.157E-03    -290.312E-03     5.27438E-03    -289.956E-03     579.917E-03    -290.412E-03     4.65164E-03
            2268     12.7284E-03     18.2493E-03    -2.38929E+06     16.1358E+06     45.3505E+06    -78.5287E+03    -294.239E-03     589.877E-03    -295.638E-03     110.593E-03    -295.450E-03     591.005E-03    -295.431E-03     97.6849E-03
            2269     12.0521E-03     18.0286E-03    -4.08302E+06     15.1287E+06     42.9466E+06     427.972E+03    -297.492E-03     593.312E-03    -295.819E-03     123.036E-03    -299.047E-03     594.781E-03    -295.621E-03     107.753E-03
            2270     11.3837E-03     17.8179E-03    -7.39658E+06     11.2265E+06     39.5473E+06    -250.222E+03    -300.352E-03     596.210E-03    -295.858E-03     121.018E-03    -301.858E-03     597.615E-03    -295.666E-03     105.974E-03
            2271     10.7134E-03     17.6046E-03    -10.8080E+06     8.24593E+06     38.1681E+06    -531.031E+03    -302.695E-03     598.432E-03    -295.736E-03     117.717E-03    -304.140E-03     599.757E-03    -295.542E-03     103.092E-03
            2272     10.0476E-03     17.3871E-03    -13.7866E+06     5.66739E+06     37.7299E+06    -517.782E+03    -304.257E-03     599.702E-03    -295.445E-03     110.144E-03    -305.544E-03     600.851E-03    -295.244E-03     96.5889E-03
            2273     9.38154E-03     17.1813E-03    -17.3288E+06     1.81340E+06     34.8347E+06    -889.940E+03    -305.092E-03     600.063E-03    -294.972E-03     100.407E-03    -306.205E-03     601.022E-03    -294.775E-03     88.0522E-03
            2274     8.71686E-03     16.9813E-03    -21.0727E+06    -3.00421E+06     29.5845E+06    -1.13163E+06    -305.031E-03     599.366E-03    -294.335E-03     90.1950E-03    -305.972E-03     600.136E-03    -294.152E-03     79.1620E-03
            2275     8.05216E-03     16.7930E-03    -24.3412E+06    -7.75240E+06     23.7333E+06    -1.44509E+06    -304.456E-03     598.019E-03    -293.563E-03     79.7156E-03    -305.237E-03     598.618E-03    -293.397E-03     70.0027E-03
            2276     7.38678E-03     16.6175E-03    -28.0462E+06    -12.8590E+06     17.7530E+06    -1.46933E+06    -303.514E-03     596.183E-03    -292.669E-03     69.0431E-03    -304.159E-03     596.632E-03    -292.521E-03     60.5688E-03
            2277     6.72249E-03     16.4561E-03    -32.2631E+06    -23.4022E+06     9.69665E+06    -1.40973E+06    -302.113E-03     593.776E-03    -291.664E-03     58.6090E-03    -302.632E-03     594.070E-03    -291.534E-03     51.3379E-03
            2278     6.05643E-03     16.3091E-03    -36.2061E+06    -36.8801E+06    -63.8699E+03    -1.62018E+06    -300.188E-03     590.762E-03    -290.575E-03     48.6330E-03    -300.594E-03     590.910E-03    -290.469E-03     42.4662E-03
            2279     5.38961E-03     16.1767E-03    -40.2349E+06    -45.5908E+06    -8.11104E+06    -1.50443E+06    -297.814E-03     587.270E-03    -289.456E-03     39.8023E-03    -298.141E-03     587.316E-03    -289.372E-03     34.6111E-03
            2280     4.72066E-03     16.0615E-03    -44.2289E+06    -51.5492E+06    -14.8713E+06    -1.05493E+06    -295.304E-03     583.656E-03    -288.352E-03     31.9424E-03    -295.574E-03     583.629E-03    -288.288E-03     27.6110E-03
            2281     4.05043E-03     15.9626E-03    -47.7248E+06    -57.7491E+06    -22.9644E+06    -1.22659E+06    -292.781E-03     580.071E-03    -287.290E-03     25.0394E-03    -293.004E-03     579.984E-03    -287.252E-03     21.4801E-03
            2282     3.37859E-03     15.8786E-03    -51.3138E+06    -64.5909E+06    -32.6890E+06    -1.59008E+06    -290.292E-03     576.603E-03    -286.312E-03     19.1304E-03    -290.474E-03     576.467E-03    -286.307E-03     16.2725E-03
            2283     2.70508E-03     15.8109E-03    -55.5705E+06    -72.0917E+06    -43.0288E+06    -1.18911E+06    -288.103E-03     573.565E-03    -285.462E-03     14.0407E-03    -288.256E-03     573.386E-03    -285.492E-03     11.8288E-03
            2284     2.02993E-03     15.7587E-03    -59.1317E+06    -78.3952E+06    -51.5738E+06    -586.592E+03    -286.330E-03     571.093E-03    -284.764E-03     9.87774E-03    -286.460E-03     570.882E-03    -284.822E-03     8.26484E-03
            2285     1.35433E-03     15.7201E-03    -61.4541E+06    -82.8661E+06    -57.7226E+06    -59.5415E+03    -284.927E-03     569.175E-03    -284.248E-03     6.17698E-03    -285.042E-03     568.942E-03    -284.328E-03     5.10664E-03
            2286     676.970E-06     15.6982E-03    -63.2462E+06    -86.0750E+06    -61.9769E+06     258.484E+03    -283.778E-03     568.032E-03    -284.255E-03     2.89365E-03    -283.884E-03     567.785E-03    -284.348E-03     2.34549E-03
            2287     12.7265E-03     16.5348E-03    -2.28433E+06     16.0709E+06     43.7113E+06    -428.052E+03    -298.540E-03     593.951E-03    -295.410E-03     113.935E-03    -299.818E-03     595.151E-03    -295.212E-03     100.522E-03
            2288     12.0616E-03     16.3251E-03    -5.52248E+06     14.0941E+06     41.4809E+06    -551.847E+03    -302.022E-03     597.374E-03    -295.352E-03     126.026E-03    -303.655E-03     598.918E-03    -295.157E-03     110.226E-03
            2289     11.3894E-03     16.1045E-03    -7.67919E+06     11.4494E+06     39.5117E+06     50.1794E+03    -304.907E-03     600.010E-03    -295.104E-03     120.253E-03    -306.429E-03     601.431E-03    -294.911E-03     104.979E-03
            2290     10.7265E-03     15.8835E-03    -10.0465E+06     9.35118E+06     38.7275E+06    -83.6879E+03    -307.748E-03     602.364E-03    -294.616E-03     113.423E-03    -309.174E-03     603.676E-03    -294.422E-03     98.5845E-03
            2291     10.0624E-03     15.6699E-03    -13.0554E+06     6.37266E+06     37.2782E+06    -739.742E+03    -309.262E-03     603.136E-03    -293.873E-03     103.907E-03    -310.519E-03     604.261E-03    -293.677E-03     90.1211E-03
            2292     9.40061E-03     15.4582E-03    -16.3002E+06     2.49940E+06     34.1085E+06    -1.15344E+06    -309.407E-03     602.309E-03    -292.903E-03     92.2686E-03    -310.474E-03     603.230E-03    -292.712E-03     79.7789E-03
            2293     8.73935E-03     15.2638E-03    -19.6943E+06    -1.97521E+06     29.8289E+06    -1.51487E+06    -308.715E-03     600.455E-03    -291.740E-03     80.6677E-03    -309.602E-03     601.180E-03    -291.559E-03     69.5789E-03
            2294     8.07715E-03     15.0768E-03    -23.8163E+06    -7.56697E+06     23.7371E+06    -1.76772E+06    -307.396E-03     597.799E-03    -290.403E-03     68.9868E-03    -308.122E-03     598.346E-03    -290.239E-03     59.2922E-03
            2295     7.41532E-03     14.9052E-03    -27.7910E+06    -13.4612E+06     16.5782E+06    -1.90428E+06    -305.457E-03     594.368E-03    -288.911E-03     56.9133E-03    -306.043E-03     594.761E-03    -288.768E-03     48.5127E-03
            2296     6.75105E-03     14.7473E-03    -31.1352E+06    -23.7716E+06     8.32033E+06    -1.63036E+06    -302.823E-03     590.126E-03    -287.303E-03     45.9129E-03    -303.286E-03     590.371E-03    -287.182E-03     38.7124E-03
            2297     6.08645E-03     14.6058E-03    -34.7501E+06    -37.0547E+06    -983.470E+03    -1.10147E+06    -299.553E-03     585.187E-03    -285.634E-03     36.0390E-03    -299.911E-03     585.294E-03    -285.535E-03     29.9276E-03
            2298     5.41869E-03     14.4816E-03    -38.4664E+06    -45.7938E+06    -8.64885E+06    -1.17148E+06    -295.833E-03     579.805E-03    -283.971E-03     27.2799E-03    -296.118E-03     579.815E-03    -283.892E-03     22.1271E-03
            2299     4.74878E-03     14.3720E-03    -41.9979E+06    -52.0344E+06    -15.8178E+06    -1.64170E+06    -291.970E-03     574.342E-03    -282.372E-03     19.9012E-03    -292.201E-03     574.284E-03    -282.315E-03     15.5917E-03
            2300     4.07659E-03     14.2791E-03    -45.7426E+06    -58.7352E+06    -24.6184E+06    -1.04950E+06    -288.269E-03     569.151E-03    -280.883E-03     14.1669E-03    -288.458E-03     569.039E-03    -280.855E-03     10.6293E-03
            2301     3.40170E-03     14.2023E-03    -49.8793E+06    -66.0251E+06    -34.3067E+06     371.528E+03    -284.874E-03     564.422E-03    -279.548E-03     9.89436E-03    -285.033E-03     564.265E-03    -279.551E-03     7.07078E-03
            2302     2.72430E-03     14.1397E-03    -53.4109E+06    -72.7327E+06    -43.2568E+06     1.06858E+06    -281.983E-03     560.378E-03    -278.395E-03     6.58203E-03    -282.116E-03     560.185E-03    -278.429E-03     4.39561E-03
            2303     2.04553E-03     14.0914E-03    -56.3381E+06    -78.4567E+06    -50.9101E+06     965.112E+03    -279.584E-03     557.030E-03    -277.445E-03     4.14079E-03    -279.698E-03     556.808E-03    -277.505E-03     2.54436E-03
            2304     1.36434E-03     14.0575E-03    -58.7250E+06    -82.7783E+06    -56.4113E+06     611.378E+03    -277.679E-03     554.425E-03    -276.746E-03     2.33840E-03    -277.782E-03     554.183E-03    -276.822E-03     1.29124E-03
            2305     682.782E-06     14.0367E-03    -59.8631E+06    -84.8976E+06    -58.9966E+06     180.746E+03    -276.488E-03     552.875E-03    -276.387E-03     1.17462E-03    -276.584E-03     552.623E-03    -276.472E-03     598.821E-06
            2306     12.7318E-03     14.8267E-03    -1.87594E+06     16.2789E+06     41.6827E+06     330.001E+03    -303.016E-03     598.223E-03    -295.206E-03     116.404E-03    -304.337E-03     599.474E-03    -295.019E-03     102.649E-03
            2307     12.0607E-03     14.6017E-03    -5.36015E+06     14.3879E+06     39.6814E+06    -737.229E+03    -308.931E-03     603.753E-03    -294.822E-03     125.307E-03    -310.615E-03     605.354E-03    -294.637E-03     108.840E-03
            2308     11.4041E-03     14.3825E-03    -7.90771E+06     11.7579E+06     38.6808E+06    -1.21383E+06    -312.525E-03     606.632E-03    -294.108E-03     117.449E-03    -314.078E-03     608.088E-03    -293.920E-03     101.499E-03
            2309     10.7409E-03     14.1597E-03    -9.68803E+06     9.93740E+06     37.9774E+06    -1.30279E+06    -314.547E-03     607.627E-03    -293.079E-03     107.779E-03    -315.968E-03     608.939E-03    -292.890E-03     92.4234E-03
            2310     10.0840E-03     13.9401E-03    -12.1049E+06     7.06573E+06     36.0758E+06    -1.29382E+06    -315.040E-03     606.806E-03    -291.766E-03     95.4772E-03    -316.262E-03     607.907E-03    -291.579E-03     81.3110E-03
            2311     9.42657E-03     13.7368E-03    -15.3408E+06     2.89589E+06     32.6885E+06    -1.22475E+06    -314.641E-03     604.835E-03    -290.193E-03     82.7252E-03    -315.657E-03     605.714E-03    -290.012E-03     70.0426E-03
            2312     8.76804E-03     13.5414E-03    -18.9214E+06    -2.03113E+06     27.8344E+06    -1.13714E+06    -313.751E-03     602.107E-03    -288.356E-03     68.8011E-03    -314.574E-03     602.778E-03    -288.186E-03     57.5820E-03
            2313     8.11053E-03     13.3618E-03    -22.1698E+06    -7.18607E+06     22.1130E+06    -966.529E+03    -311.379E-03     597.658E-03    -286.278E-03     54.7945E-03    -312.036E-03     598.149E-03    -286.125E-03     44.9567E-03
            2314     7.45051E-03     13.1948E-03    -25.7035E+06    -12.8871E+06     15.7526E+06    -1.24544E+06    -307.653E-03     591.693E-03    -284.040E-03     41.9543E-03    -308.175E-03     592.035E-03    -283.905E-03     33.4080E-03
            2315     6.78971E-03     13.0469E-03    -29.7201E+06    -24.0898E+06     7.17847E+06    -1.57898E+06    -303.213E-03     584.932E-03    -281.719E-03     30.4555E-03    -303.620E-03     585.129E-03    -281.605E-03     23.0671E-03
            2316     6.12413E-03     12.9142E-03    -32.9567E+06    -37.5959E+06    -2.14919E+06    -1.55633E+06    -298.169E-03     577.556E-03    -279.387E-03     20.6972E-03    -298.477E-03     577.621E-03    -279.295E-03     14.3637E-03
            2317     5.45662E-03     12.7988E-03    -35.6416E+06    -46.0318E+06    -10.1892E+06    -994.973E+03    -292.827E-03     569.951E-03    -277.123E-03     13.0809E-03    -293.066E-03     569.928E-03    -277.056E-03     7.70299E-03
            2318     4.78517E-03     12.7004E-03    -39.4205E+06    -53.1124E+06    -19.0519E+06     366.481E+03    -287.430E-03     562.433E-03    -275.003E-03     7.55718E-03    -287.621E-03     562.350E-03    -274.965E-03     3.05864E-03
            2319     4.10909E-03     12.6172E-03    -44.1225E+06    -60.7493E+06    -27.7295E+06     1.53607E+06    -282.425E-03     555.521E-03    -273.096E-03     3.64483E-03    -282.585E-03     555.386E-03    -273.083E-03    -52.5024E-06
            2320     3.42981E-03     12.5481E-03    -47.7788E+06    -66.7723E+06    -34.2697E+06     1.85664E+06    -278.116E-03     549.545E-03    -271.428E-03     981.783E-06    -278.253E-03     549.370E-03    -271.433E-03    -2.00245E-03
            2321     2.74799E-03     12.4928E-03    -50.4702E+06    -71.7980E+06    -40.2108E+06     1.93269E+06    -274.382E-03     544.396E-03    -270.014E-03    -468.980E-06    -274.500E-03     544.191E-03    -270.038E-03    -2.79900E-03
            2322     2.06301E-03     12.4505E-03    -52.7486E+06    -76.3153E+06    -45.8208E+06     1.79908E+06    -271.342E-03     540.233E-03    -268.891E-03    -1.04093E-03    -271.446E-03     540.005E-03    -268.933E-03    -2.77028E-03
            2323     1.37680E-03     12.4211E-03    -54.3785E+06    -80.1242E+06    -51.0313E+06     1.23939E+06    -269.173E-03     537.247E-03    -268.074E-03    -1.01650E-03    -269.264E-03     537.002E-03    -268.135E-03    -2.17085E-03
            2324     688.402E-06     12.4031E-03    -55.6709E+06    -83.0706E+06    -55.1009E+06     390.543E+03    -267.761E-03     535.412E-03    -267.651E-03    -478.151E-06    -267.844E-03     535.156E-03    -267.726E-03    -1.11529E-03
            2325     12.7307E-03     13.1024E-03    -2.64201E+06     16.7650E+06     42.0241E+06     -90.728E+03    -310.828E-03     605.681E-03    -294.853E-03     115.187E-03    -312.171E-03     606.953E-03    -294.663E-03     100.957E-03
            2326     12.0763E-03     12.8722E-03    -3.44558E+06     16.8570E+06     40.6775E+06     209.474E+03    -316.557E-03     610.560E-03    -294.003E-03     121.427E-03    -318.231E-03     612.165E-03    -293.820E-03     104.570E-03
            2327     11.4142E-03     12.6469E-03    -5.77625E+06     13.5660E+06     37.1396E+06    -863.145E+03    -320.575E-03     613.316E-03    -292.740E-03     111.688E-03    -322.123E-03     614.784E-03    -292.566E-03     95.1017E-03
            2328     10.7648E-03     12.4210E-03    -9.39591E+06     9.72945E+06     34.6487E+06    -1.90010E+06    -322.367E-03     613.459E-03    -291.092E-03     100.772E-03    -323.782E-03     614.776E-03    -290.919E-03     84.7362E-03
            2329     10.1108E-03     12.2106E-03    -12.7976E+06     6.04925E+06     33.1628E+06    -1.65022E+06    -322.724E-03     611.815E-03    -289.091E-03     86.1314E-03    -323.905E-03     612.879E-03    -288.915E-03     71.5757E-03
            2330     9.45689E-03     12.0065E-03    -15.5849E+06     2.21471E+06     30.2328E+06    -1.55540E+06    -322.260E-03     608.980E-03    -286.720E-03     69.3401E-03    -323.205E-03     609.794E-03    -286.549E-03     56.3073E-03
            2331     8.80591E-03     11.8165E-03    -17.9407E+06    -2.22778E+06     25.3373E+06    -1.70402E+06    -319.730E-03     603.737E-03    -284.008E-03     52.4136E-03    -320.476E-03     604.343E-03    -283.852E-03     40.7278E-03
            2332     8.15270E-03     11.6446E-03    -20.4721E+06    -7.55423E+06     18.8787E+06    -1.76723E+06    -315.217E-03     596.279E-03    -281.062E-03     37.4711E-03    -315.801E-03     596.713E-03    -280.927E-03     27.0837E-03
            2333     7.49702E-03     11.4921E-03    -23.0010E+06    -13.0343E+06     12.4192E+06    -1.05179E+06    -309.355E-03     587.364E-03    -278.008E-03     24.9728E-03    -309.808E-03     587.656E-03    -277.894E-03     15.9007E-03
            2334     6.83575E-03     11.3540E-03    -25.6328E+06    -23.4104E+06     5.06627E+06    -310.722E+03    -302.590E-03     577.547E-03    -274.957E-03     14.6020E-03    -302.933E-03     577.703E-03    -274.861E-03     6.76699E-03
            2335     6.17209E-03     11.2370E-03    -29.5059E+06    -38.0222E+06    -5.11810E+06     345.003E+03    -295.392E-03     567.395E-03    -272.003E-03     6.88498E-03    -295.649E-03     567.428E-03    -271.930E-03     147.193E-06
            2336     5.50125E-03     11.1354E-03    -34.2890E+06    -48.6655E+06    -14.8495E+06     1.81439E+06    -288.183E-03     557.422E-03    -269.239E-03     1.53750E-03    -288.386E-03     557.372E-03    -269.193E-03    -4.22602E-03
            2337     4.82539E-03     11.0504E-03    -37.9715E+06    -54.8048E+06    -20.3710E+06     3.18316E+06    -281.584E-03     548.317E-03    -266.733E-03    -2.06006E-03    -281.752E-03     548.212E-03    -266.700E-03    -6.93035E-03
            2338     4.14576E-03     10.9791E-03    -40.4902E+06    -59.5692E+06    -24.7237E+06     3.38805E+06    -275.680E-03     540.176E-03    -264.496E-03    -4.19589E-03    -275.820E-03     540.029E-03    -264.474E-03    -8.25754E-03
            2339     3.46186E-03     10.9203E-03    -43.1730E+06    -64.6729E+06    -30.5163E+06     2.81751E+06    -270.362E-03     532.916E-03    -262.554E-03    -5.16783E-03    -270.480E-03     532.735E-03    -262.550E-03    -8.50363E-03
            2340     2.77378E-03     10.8741E-03    -45.7204E+06    -69.6095E+06    -36.3282E+06     2.07509E+06    -265.923E-03     526.873E-03    -260.950E-03    -5.15635E-03    -266.024E-03     526.664E-03    -260.964E-03    -7.79487E-03
            2341     2.08314E-03     10.8390E-03    -47.7827E+06    -74.0143E+06    -41.9445E+06     1.51402E+06    -262.457E-03     522.157E-03    -259.701E-03    -4.55501E-03    -262.543E-03     521.927E-03    -259.734E-03    -6.51941E-03
            2342     1.38957E-03     10.8141E-03    -49.4635E+06    -77.6086E+06    -46.5749E+06     1.21547E+06    -260.030E-03     518.836E-03    -258.806E-03    -3.32508E-03    -260.107E-03     518.589E-03    -258.854E-03    -4.63721E-03
            2343     695.558E-06     10.7992E-03    -50.3860E+06    -79.9180E+06    -49.6840E+06     1.00025E+06    -258.632E-03     516.817E-03    -258.185E-03    -2.01417E-03    -258.701E-03     516.561E-03    -258.245E-03    -2.70035E-03
            2344     12.7457E-03     11.3680E-03    -2.24653E+06     17.4598E+06     39.5721E+06    -739.333E+03    -320.798E-03     615.136E-03    -294.338E-03     117.178E-03    -322.225E-03     616.502E-03    -294.162E-03     102.054E-03
            2345     12.0849E-03     11.1321E-03    -4.57616E+06     16.1378E+06     37.2737E+06    -1.49013E+06    -326.456E-03     619.379E-03    -292.923E-03     122.682E-03    -328.246E-03     621.102E-03    -292.753E-03     104.658E-03
            2346     11.4402E-03     10.8981E-03    -6.08847E+06     13.6321E+06     35.3949E+06    -656.365E+03    -330.349E-03     621.377E-03    -291.027E-03     108.120E-03    -331.925E-03     622.877E-03    -290.861E-03     90.8084E-03
            2347     10.7877E-03     10.6787E-03    -8.40025E+06     10.6970E+06     33.6224E+06    -83.5024E+03    -332.983E-03     621.596E-03    -288.613E-03     91.0560E-03    -334.330E-03     622.856E-03    -288.448E-03     74.6730E-03
            2348     10.1420E-03     10.4644E-03    -10.9561E+06     7.32417E+06     31.3268E+06    -1.07730E+06    -333.762E-03     619.428E-03    -285.666E-03     70.6980E-03    -334.849E-03     620.416E-03    -285.504E-03     55.4895E-03
            2349     9.50087E-03     10.2666E-03    -13.3725E+06     3.17539E+06     28.0024E+06    -2.04479E+06    -330.758E-03     613.034E-03    -282.276E-03     50.8819E-03    -331.612E-03     613.777E-03    -282.122E-03     36.9603E-03
            2350     8.85493E-03     10.0893E-03    -16.1669E+06    -2.16473E+06     22.9612E+06    -2.19980E+06    -324.764E-03     603.391E-03    -278.628E-03     34.3993E-03    -325.429E-03     603.931E-03    -278.486E-03     21.9197E-03
            2351     8.20492E-03     9.93244E-03    -19.5201E+06    -8.77036E+06     15.7810E+06    -1.58986E+06    -317.454E-03     592.323E-03    -274.869E-03     20.7929E-03    -317.967E-03     592.694E-03    -274.749E-03     9.78924E-03
            2352     7.54986E-03     9.79445E-03    -23.0851E+06    -16.3506E+06     6.72737E+06    -394.632E+03    -308.960E-03     580.080E-03    -271.120E-03     10.3377E-03    -309.355E-03     580.319E-03    -271.029E-03     714.280E-06
            2353     6.89012E-03     9.67783E-03    -27.1467E+06    -24.8010E+06    -3.45541E+06     1.50790E+06    -299.630E-03     567.151E-03    -267.520E-03     3.09478E-03    -299.941E-03     567.289E-03    -267.462E-03    -5.26760E-03
            2354     6.22087E-03     9.57720E-03    -30.4355E+06    -38.8112E+06    -12.3359E+06     3.23525E+06    -290.570E-03     554.758E-03    -264.189E-03    -1.70304E-03    -290.807E-03     554.786E-03    -264.150E-03    -8.91640E-03
            2355     5.54740E-03     9.49434E-03    -32.2163E+06    -50.1509E+06    -16.0807E+06     3.85243E+06    -282.338E-03     543.508E-03    -261.170E-03    -4.67623E-03    -282.521E-03     543.444E-03    -261.131E-03    -10.8772E-03
            2356     4.86778E-03     9.42421E-03    -33.7989E+06    -53.4494E+06    -17.6620E+06     3.59951E+06    -274.861E-03     533.320E-03    -258.459E-03    -6.25549E-03    -275.013E-03     533.211E-03    -258.421E-03    -11.5436E-03
            2357     4.18263E-03     9.36603E-03    -35.8439E+06    -57.3717E+06    -21.5743E+06     3.27328E+06    -268.128E-03     524.205E-03    -256.077E-03    -6.72466E-03    -268.255E-03     524.060E-03    -256.049E-03    -11.1640E-03
            2358     3.49263E-03     9.32057E-03    -37.9203E+06    -61.9531E+06    -26.7673E+06     3.18302E+06    -262.356E-03     516.413E-03    -254.057E-03    -6.25673E-03    -262.460E-03     516.236E-03    -254.046E-03    -9.87677E-03
            2359     2.79894E-03     9.28362E-03    -40.0077E+06    -66.7699E+06    -32.8839E+06     2.94467E+06    -257.694E-03     510.099E-03    -252.405E-03    -5.34639E-03    -257.779E-03     509.895E-03    -252.414E-03    -8.20300E-03
            2360     2.10190E-03     9.25631E-03    -42.1518E+06    -71.3013E+06    -38.5439E+06     2.60136E+06    -254.119E-03     505.233E-03    -251.114E-03    -4.31444E-03    -254.188E-03     505.006E-03    -251.142E-03    -6.42765E-03
            2361     1.40295E-03     9.23727E-03    -43.7013E+06    -74.4970E+06    -42.4370E+06     1.93399E+06    -251.546E-03     501.723E-03    -250.177E-03    -2.96016E-03    -251.605E-03     501.480E-03    -250.218E-03    -4.37043E-03
            2362     701.540E-06     9.22465E-03    -44.4529E+06    -76.1585E+06    -44.3705E+06     1.07219E+06    -250.104E-03     499.547E-03    -249.443E-03    -1.60860E-03    -250.156E-03     499.295E-03    -249.490E-03    -2.39162E-03
            2363     12.7422E-03     9.61577E-03    -1.29196E+06     19.0068E+06     37.6888E+06    -497.774E+03    -332.630E-03     626.477E-03    -293.846E-03     121.437E-03    -334.169E-03     627.968E-03    -293.684E-03     105.179E-03
            2364     12.1030E-03     9.36874E-03    -4.10375E+06     16.7148E+06     34.3032E+06    -846.210E+03    -340.997E-03     632.689E-03    -291.693E-03     120.583E-03    -342.829E-03     634.468E-03    -291.539E-03     101.574E-03
            2365     11.4555E-03     9.13811E-03    -7.12395E+06     12.8733E+06     31.7872E+06    -1.36491E+06    -345.949E-03     634.782E-03    -288.833E-03     96.8592E-03    -347.445E-03     636.210E-03    -288.682E-03     78.8146E-03
            2366     10.8223E-03     8.91175E-03    -8.21212E+06     11.1576E+06     31.2708E+06    -2.08824E+06    -347.398E-03     632.696E-03    -285.299E-03     72.3372E-03    -348.617E-03     633.841E-03    -285.146E-03     54.9347E-03
            2367     10.1908E-03     8.70265E-03    -8.88000E+06     8.44508E+06     29.3958E+06    -2.30680E+06    -343.735E-03     624.983E-03    -281.248E-03     50.6288E-03    -344.706E-03     625.875E-03    -281.101E-03     34.2819E-03
            2368     9.55258E-03     8.52181E-03    -10.9002E+06     3.23657E+06     24.5771E+06    -1.41485E+06    -336.526E-03     613.445E-03    -276.919E-03     32.6045E-03    -337.269E-03     614.097E-03    -276.785E-03     17.9126E-03
            2369     8.91027E-03     8.36413E-03    -14.0149E+06    -3.58181E+06     17.8157E+06    -175.729E+03    -327.217E-03     599.727E-03    -272.510E-03     18.2812E-03    -327.777E-03     600.179E-03    -272.395E-03     5.35973E-03
            2370     8.26195E-03     8.22685E-03    -17.3025E+06    -10.7807E+06     10.6267E+06     1.39964E+06    -316.270E-03     584.464E-03    -268.193E-03     8.02728E-03    -316.702E-03     584.769E-03    -268.100E-03    -3.25403E-03
            2371     7.60593E-03     8.11337E-03    -20.5616E+06    -17.4380E+06     4.50335E+06     2.43237E+06    -304.851E-03     568.974E-03    -264.123E-03     1.72521E-03    -305.198E-03     569.175E-03    -264.045E-03    -8.13772E-03
            2372     6.93997E-03     8.01842E-03    -22.7485E+06    -27.5968E+06    -573.794E+03     3.21026E+06    -293.998E-03     554.387E-03    -260.389E-03    -1.67389E-03    -294.277E-03     554.490E-03    -260.319E-03    -10.2765E-03
            2373     6.26896E-03     7.94079E-03    -24.5535E+06    -39.7737E+06    -6.32120E+06     4.46864E+06    -284.049E-03     541.068E-03    -257.019E-03    -3.36585E-03    -284.267E-03     541.075E-03    -256.957E-03    -10.7693E-03
            2374     5.58898E-03     7.87484E-03    -26.8499E+06    -46.8298E+06    -11.8686E+06     4.46830E+06    -275.164E-03     529.185E-03    -254.021E-03    -3.65250E-03    -275.341E-03     529.133E-03    -253.974E-03    -9.98083E-03
            2375     4.90382E-03     7.82158E-03    -29.2879E+06    -51.3979E+06    -16.4990E+06     3.72364E+06    -267.354E-03     518.763E-03    -251.409E-03    -3.10101E-03    -267.501E-03     518.669E-03    -251.375E-03    -8.45430E-03
            2376     4.21288E-03     7.77929E-03    -31.4850E+06    -55.9601E+06    -21.0135E+06     3.66098E+06    -260.647E-03     509.833E-03    -249.186E-03    -2.36678E-03    -260.768E-03     509.702E-03    -249.164E-03    -6.81028E-03
            2377     3.51735E-03     7.74487E-03    -33.5459E+06    -60.3751E+06    -25.8003E+06     3.92671E+06    -255.153E-03     502.492E-03    -247.339E-03    -1.60012E-03    -255.249E-03     502.327E-03    -247.332E-03    -5.16954E-03
            2378     2.81814E-03     7.71825E-03    -35.4432E+06    -64.3243E+06    -30.0185E+06     4.08603E+06    -250.757E-03     496.612E-03    -245.856E-03    -880.685E-06    -250.833E-03     496.419E-03    -245.861E-03    -3.64265E-03
            2379     2.11605E-03     7.69822E-03    -36.7562E+06    -67.2240E+06    -33.2152E+06     3.59664E+06    -247.452E-03     492.170E-03    -244.719E-03    -316.023E-06    -247.511E-03     491.955E-03    -244.734E-03    -2.34259E-03
            2380     1.41174E-03     7.68387E-03    -37.7958E+06    -69.5760E+06    -35.9500E+06     2.70921E+06    -245.160E-03     489.056E-03    -243.896E-03     30.5553E-06    -245.207E-03     488.823E-03    -243.920E-03    -1.31254E-03
            2381     706.583E-06     7.67624E-03    -38.7136E+06    -71.3692E+06    -38.0170E+06     1.68129E+06    -243.760E-03     487.087E-03    -243.327E-03     130.365E-06    -243.800E-03     486.844E-03    -243.357E-03    -598.364E-06
            2382     12.7550E-03     7.83372E-03    -2.68151E+06     19.7499E+06     37.2660E+06    -379.487E+03    -350.752E-03     643.840E-03    -293.088E-03     114.739E-03    -352.200E-03     645.241E-03    -292.927E-03     98.3297E-03
            2383     12.1153E-03     7.58449E-03    -4.15992E+06     18.9672E+06     35.3652E+06    -462.801E+03    -360.462E-03     650.295E-03    -289.833E-03     103.392E-03    -362.096E-03     651.882E-03    -289.678E-03     83.9635E-03
            2384     11.4966E-03     7.34100E-03    -4.81554E+06     16.1943E+06     31.6997E+06    -2.62184E+06    -363.247E-03     648.966E-03    -285.720E-03     76.2084E-03    -364.595E-03     650.269E-03    -285.578E-03     56.7754E-03
            2385     10.8743E-03     7.12391E-03    -6.40743E+06     11.2903E+06     27.2282E+06    -4.00978E+06    -359.492E-03     640.503E-03    -281.011E-03     53.0863E-03    -360.582E-03     641.539E-03    -280.882E-03     34.4862E-03
            2386     10.2443E-03     6.93923E-03    -9.07317E+06     5.04467E+06     22.6520E+06    -2.88760E+06    -350.384E-03     626.410E-03    -276.026E-03     31.6701E-03    -351.185E-03     627.140E-03    -275.907E-03     15.0485E-03
            2387     9.61045E-03     6.77762E-03    -11.4904E+06    -1.01968E+06     18.0827E+06    -770.567E+03    -337.914E-03     608.960E-03    -271.045E-03     15.6558E-03    -338.502E-03     609.457E-03    -270.937E-03     1.10868E-03
            2388     8.96920E-03     6.64550E-03    -13.5397E+06    -7.05255E+06     12.9075E+06     1.52426E+06    -324.119E-03     590.403E-03    -266.284E-03     6.40427E-03    -324.571E-03     590.749E-03    -266.190E-03    -6.28209E-03
            2389     8.31712E-03     6.53904E-03    -15.5695E+06    -12.6820E+06     8.41434E+06     3.06278E+06    -310.108E-03     572.009E-03    -261.901E-03     2.28233E-03    -310.479E-03     572.257E-03    -261.818E-03    -8.73914E-03
            2390     7.65407E-03     6.45230E-03    -17.8019E+06    -17.3358E+06     6.02171E+06     3.94851E+06    -297.090E-03     555.074E-03    -257.984E-03     985.257E-06    -297.408E-03     555.251E-03    -257.903E-03    -8.51366E-03
            2391     6.98406E-03     6.38183E-03    -20.5308E+06    -26.9728E+06     2.76742E+06     4.14743E+06    -285.707E-03     540.243E-03    -254.536E-03     1.33349E-03    -285.979E-03     540.337E-03    -254.453E-03    -6.77788E-03
            2392     6.30412E-03     6.32450E-03    -22.7899E+06    -39.2065E+06    -2.95322E+06     3.84086E+06    -275.900E-03     527.419E-03    -251.519E-03     2.74396E-03    -276.124E-03     527.431E-03    -251.444E-03    -4.14806E-03
            2393     5.61931E-03     6.27881E-03    -24.1256E+06    -45.5795E+06    -8.58294E+06     4.43037E+06    -267.364E-03     516.281E-03    -248.917E-03     4.14961E-03    -267.545E-03     516.239E-03    -248.859E-03    -1.61871E-03
            2394     4.92711E-03     6.24138E-03    -25.9192E+06    -49.7292E+06    -13.9594E+06     5.18621E+06    -260.139E-03     506.865E-03    -246.726E-03     5.11792E-03    -260.286E-03     506.783E-03    -246.686E-03     358.458E-06
            2395     4.23085E-03     6.21154E-03    -28.2946E+06    -54.2365E+06    -18.6198E+06     5.17016E+06    -254.408E-03     499.323E-03    -244.915E-03     5.78384E-03    -254.527E-03     499.202E-03    -244.888E-03     1.90700E-03
            2396     3.53099E-03     6.18821E-03    -30.2953E+06    -57.8738E+06    -22.0180E+06     4.70092E+06    -249.830E-03     493.267E-03    -243.437E-03     5.91832E-03    -249.925E-03     493.113E-03    -243.419E-03     2.82536E-03
            2397     2.82798E-03     6.16993E-03    -31.6788E+06    -60.7281E+06    -25.0094E+06     3.79472E+06    -246.203E-03     488.468E-03    -242.265E-03     5.51722E-03    -246.276E-03     488.286E-03    -242.256E-03     3.14947E-03
            2398     2.12279E-03     6.15595E-03    -32.6489E+06    -63.2148E+06    -28.0455E+06     2.74920E+06    -243.553E-03     484.928E-03    -241.375E-03     4.66431E-03    -243.607E-03     484.722E-03    -241.376E-03     2.93092E-03
            2399     1.41601E-03     6.14632E-03    -33.1320E+06    -65.0990E+06    -30.6355E+06     1.85811E+06    -241.748E-03     482.476E-03    -240.728E-03     3.21745E-03    -241.786E-03     482.254E-03    -240.739E-03     2.06790E-03
            2400     708.029E-06     6.13994E-03    -33.2160E+06    -66.1063E+06    -32.0852E+06     870.674E+03    -240.347E-03     480.907E-03    -240.560E-03     1.83693E-03    -240.374E-03     480.675E-03    -240.577E-03     1.23354E-03
            2401     12.7687E-03     6.03092E-03    -3.81991E+06     22.5867E+06     34.5243E+06    -1.33662E+06    -380.764E-03     672.755E-03    -291.991E-03     114.824E-03    -382.259E-03     674.217E-03    -291.846E-03     96.9089E-03
            2402     12.1610E-03     5.75197E-03    -2.79102E+06     22.2043E+06     32.0368E+06    -4.24650E+06    -385.291E-03     672.532E-03    -287.241E-03     94.9514E-03    -386.954E-03     674.177E-03    -287.109E-03     73.2143E-03
            2403     11.5443E-03     5.52933E-03    -3.08420E+06     15.9673E+06     27.8790E+06    -3.85495E+06    -380.258E-03     662.065E-03    -281.807E-03     59.8064E-03    -381.460E-03     663.244E-03    -281.686E-03     39.6119E-03
            2404     10.9243E-03     5.32805E-03    -5.48947E+06     9.00293E+06     23.5096E+06    -1.16231E+06    -367.969E-03     644.070E-03    -276.102E-03     31.3429E-03    -368.783E-03     644.842E-03    -275.989E-03     13.6368E-03
            2405     10.3041E-03     5.16714E-03    -8.23503E+06     2.26984E+06     19.4620E+06     349.429E+03    -350.750E-03     621.285E-03    -270.535E-03     12.2305E-03    -351.302E-03     621.768E-03    -270.429E-03    -3.06948E-03
            2406     9.67051E-03     5.04692E-03    -11.3062E+06    -4.01074E+06     16.3027E+06     1.18792E+06    -332.047E-03     597.468E-03    -265.421E-03     5.54047E-03    -332.485E-03     597.809E-03    -265.317E-03    -7.69661E-03
            2407     9.02068E-03     4.94869E-03    -14.3067E+06    -9.65255E+06     13.6957E+06     1.97621E+06    -314.699E-03     575.603E-03    -260.904E-03     4.41144E-03    -315.076E-03     575.858E-03    -260.801E-03    -6.87349E-03
            2408     8.35969E-03     4.87454E-03    -16.6944E+06    -14.3413E+06     11.5906E+06     2.68280E+06    -299.782E-03     556.772E-03    -256.990E-03     5.09704E-03    -300.112E-03     556.959E-03    -256.887E-03    -4.43232E-03
            2409     7.68986E-03     4.81452E-03    -18.8761E+06    -19.0657E+06     8.28731E+06     3.92190E+06    -287.030E-03     540.661E-03    -253.631E-03     7.30345E-03    -287.324E-03     540.797E-03    -253.535E-03    -691.871E-06
            2410     7.00955E-03     4.76818E-03    -20.9948E+06    -24.1149E+06     3.28412E+06     4.45401E+06    -276.368E-03     527.146E-03    -250.778E-03     9.63921E-03    -276.626E-03     527.234E-03    -250.696E-03     2.98503E-03
            2411     6.32413E-03     4.73003E-03    -23.1020E+06    -36.0041E+06    -4.53463E+06     3.41804E+06    -267.675E-03     516.051E-03    -248.376E-03     11.5549E-03    -267.886E-03     516.065E-03    -248.313E-03     6.00978E-03
            2412     5.63157E-03     4.69984E-03    -25.0758E+06    -47.0922E+06    -10.0601E+06     3.06715E+06    -260.670E-03     507.048E-03    -246.378E-03     12.6408E-03    -260.837E-03     506.988E-03    -246.324E-03     8.08037E-03
            2413     4.93613E-03     4.67619E-03    -26.1367E+06    -49.6876E+06    -10.9731E+06     4.00649E+06    -255.019E-03     499.750E-03    -244.731E-03     12.9263E-03    -255.159E-03     499.653E-03    -244.676E-03     9.21899E-03
            2414     4.23620E-03     4.65676E-03    -26.6624E+06    -51.5472E+06    -12.4893E+06     4.28013E+06    -250.508E-03     493.887E-03    -243.379E-03     12.3969E-03    -250.620E-03     493.758E-03    -243.329E-03     9.41752E-03
            2415     3.53367E-03     4.64087E-03    -27.6024E+06    -53.9203E+06    -15.5239E+06     3.27138E+06    -247.068E-03     489.346E-03    -242.278E-03     11.1258E-03    -247.156E-03     489.190E-03    -242.237E-03     8.75315E-03
            2416     2.82934E-03     4.62941E-03    -28.8505E+06    -56.9237E+06    -19.7870E+06     2.17473E+06    -244.425E-03     485.812E-03    -241.387E-03     9.39673E-03    -244.491E-03     485.631E-03    -241.362E-03     7.57063E-03
            2417     2.12329E-03     4.61977E-03    -30.0252E+06    -59.9262E+06    -24.1785E+06     1.18111E+06    -242.376E-03     483.072E-03    -240.697E-03     7.49043E-03    -242.423E-03     482.870E-03    -240.687E-03     6.14749E-03
            2418     1.41642E-03     4.61309E-03    -30.9338E+06    -62.5506E+06    -28.1588E+06     206.589E+03    -240.932E-03     481.142E-03    -240.209E-03     5.24482E-03    -240.965E-03     480.924E-03    -240.215E-03     4.33178E-03
            2419     708.703E-06     4.60988E-03    -31.5858E+06    -64.3600E+06     -30.879E+06    -14.8235E+03    -239.898E-03     480.022E-03    -240.124E-03     2.67314E-03    -239.920E-03     479.795E-03    -240.140E-03     2.18302E-03
            2420     12.7838E-03     4.13382E-03    -1.36880E+06     27.8822E+06     30.4983E+06    -3.77468E+06    -419.559E-03     710.410E-03    -290.850E-03     112.416E-03    -421.092E-03     711.948E-03    -290.736E-03     92.7328E-03
            2421     12.1855E-03     3.88812E-03    -986.771E+03     21.2819E+06     25.6765E+06    -3.64419E+06    -416.488E-03     700.764E-03    -284.276E-03     70.8422E-03    -417.881E-03     702.175E-03    -284.177E-03     49.0615E-03
            2422     11.5915E-03     3.67715E-03    -4.25655E+06     10.7909E+06     20.5119E+06    -955.129E+03    -394.512E-03     671.970E-03    -277.458E-03     27.9094E-03    -395.249E-03     672.692E-03    -277.364E-03     10.2156E-03
            2423     10.9910E-03     3.52548E-03    -6.44782E+06     4.67610E+06     19.5205E+06     725.741E+03    -366.708E-03     637.875E-03    -271.168E-03     9.24508E-03    -367.163E-03     638.281E-03    -271.067E-03    -5.37551E-03
            2424     10.3611E-03     3.41789E-03    -8.26065E+06     35.5057E+03     20.0949E+06     2.25793E+06    -340.616E-03     606.359E-03    -265.744E-03     5.57190E-03    -340.971E-03     606.633E-03    -265.631E-03    -6.45170E-03
            2425     9.71300E-03     3.34040E-03    -10.6449E+06    -4.38531E+06     20.2445E+06     3.39471E+06    -319.790E-03     580.971E-03    -261.182E-03     7.31653E-03    -320.104E-03     581.177E-03    -261.059E-03    -2.58217E-03
            2426     9.05417E-03     3.28041E-03    -13.3625E+06    -9.06462E+06     18.8859E+06     3.40995E+06    -302.773E-03     560.126E-03    -257.353E-03     10.0049E-03    -303.058E-03     560.280E-03    -257.226E-03     1.86025E-03
            2427     8.38399E-03     3.23412E-03    -16.3105E+06    -14.2356E+06     15.5134E+06     2.98144E+06    -288.898E-03     543.052E-03    -254.155E-03     12.2941E-03    -289.152E-03     543.155E-03    -254.033E-03     5.62634E-03
            2428     7.70405E-03     3.20009E-03    -18.7127E+06    -19.2910E+06     10.6564E+06     2.42020E+06    -277.928E-03     529.417E-03    -251.489E-03     14.2549E-03    -278.155E-03     529.479E-03    -251.380E-03     8.76540E-03
            2429     7.01915E-03     3.17189E-03    -20.1441E+06    -23.4837E+06     5.83231E+06     2.43824E+06    -269.132E-03     518.405E-03    -249.273E-03     15.5254E-03    -269.328E-03     518.430E-03    -249.180E-03     11.0133E-03
            2430     6.32739E-03     3.14996E-03    -21.6426E+06    -34.3571E+06    -1.46322E+06     3.25213E+06    -262.175E-03     509.611E-03    -247.436E-03     15.8461E-03    -262.329E-03     509.571E-03    -247.362E-03     12.1789E-03
            2431     5.63274E-03     3.13210E-03    -23.5796E+06    -45.2220E+06    -7.40970E+06     2.78800E+06    -256.736E-03     502.659E-03    -245.923E-03     15.4259E-03    -256.854E-03     502.555E-03    -245.860E-03     12.4240E-03
            2432     4.93371E-03     3.11713E-03    -25.1198E+06    -48.2680E+06    -9.04253E+06     1.00996E+06    -252.542E-03     497.216E-03    -244.674E-03     14.4694E-03    -252.643E-03     497.084E-03    -244.613E-03     11.9809E-03
            2433     4.23339E-03     3.10574E-03    -25.9722E+06    -50.1508E+06    -10.6284E+06     152.393E+03    -249.204E-03     492.836E-03    -243.632E-03     13.0811E-03    -249.289E-03     492.682E-03    -243.575E-03     11.0537E-03
            2434     3.53072E-03     3.09596E-03    -26.7602E+06    -52.1388E+06    -13.4959E+06     312.657E+03    -246.505E-03     489.274E-03    -242.769E-03     11.2797E-03    -246.573E-03     489.102E-03    -242.722E-03     9.66875E-03
            2435     2.82648E-03     3.08840E-03    -27.8842E+06    -55.0744E+06    -18.1150E+06     155.462E+03    -244.451E-03     486.516E-03    -242.065E-03     9.29848E-03    -244.504E-03     486.327E-03    -242.035E-03     8.02903E-03
            2436     2.12120E-03     3.08320E-03    -29.2110E+06    -58.4544E+06    -23.4254E+06    -20.0903E+03    -242.801E-03     484.321E-03    -241.520E-03     7.24075E-03    -242.840E-03     484.116E-03    -241.510E-03     6.30356E-03
            2437     1.41419E-03     3.07915E-03    -31.0018E+06    -61.9357E+06    -28.4177E+06     150.427E+03    -241.599E-03     482.772E-03    -241.172E-03     5.03444E-03    -241.629E-03     482.554E-03    -241.180E-03     4.42644E-03
            2438     706.847E-06     3.07668E-03    -32.6998E+06    -64.5722E+06    -31.8829E+06     364.074E+03    -241.231E-03     482.096E-03    -240.865E-03     2.88808E-03    -241.256E-03     481.869E-03    -240.883E-03     2.56196E-03
            2439     12.7936E-03     2.15434E-03     224.181E+03     31.9546E+06     29.6170E+06    -2.85691E+06    -490.410E-03     780.522E-03    -290.113E-03     88.8315E-03    -491.419E-03     781.586E-03    -290.011E-03     73.9335E-03
            2440     12.2420E-03     1.93965E-03    -3.36475E+06     17.2408E+06     25.1225E+06    -822.503E+03    -441.300E-03     722.592E-03    -281.292E-03     26.4198E-03    -441.844E-03     723.159E-03    -281.186E-03     14.4620E-03
            2441     11.6601E-03     1.82484E-03    -6.10075E+06     8.77160E+06     22.2671E+06     772.953E+03    -393.755E-03     667.516E-03    -273.761E-03     9.25736E-03    -394.023E-03     667.754E-03    -273.654E-03    -652.675E-06
            2442     11.0324E-03     1.75208E-03    -7.30252E+06     3.27064E+06     21.3156E+06     1.09450E+06    -356.127E-03     623.825E-03    -267.698E-03     8.06527E-03    -356.350E-03     623.984E-03    -267.585E-03    -105.880E-06
            2443     10.3890E-03     1.70249E-03    -8.98463E+06    -1.39630E+06     21.0349E+06     1.76123E+06    -328.753E-03     591.627E-03    -262.874E-03     8.55763E-03    -328.947E-03     591.731E-03    -262.754E-03     2.30810E-03
            2444     9.73312E-03     1.66089E-03    -10.5012E+06    -5.11792E+06     21.0768E+06     2.35179E+06    -308.663E-03     567.650E-03    -258.987E-03     9.60746E-03    -308.835E-03     567.711E-03    -258.859E-03     4.65713E-03
            2445     9.06477E-03     1.63445E-03    -11.5490E+06    -8.37915E+06     20.1486E+06     2.85742E+06    -293.352E-03     549.166E-03    -255.814E-03     10.9462E-03    -293.509E-03     549.197E-03    -255.684E-03     6.94805E-03
            2446     8.38753E-03     1.61350E-03    -13.1610E+06    -12.1913E+06     17.5186E+06     2.72295E+06    -281.611E-03     534.815E-03    -253.204E-03     12.2177E-03    -281.753E-03     534.818E-03    -253.079E-03     8.95992E-03
            2447     7.70514E-03     1.59749E-03    -15.1557E+06    -16.0410E+06     14.4467E+06     1.38791E+06    -272.686E-03     523.724E-03    -251.039E-03     12.5097E-03    -272.814E-03     523.702E-03    -250.921E-03     9.85438E-03
            2448     7.01600E-03     1.58536E-03    -17.7120E+06    -24.8064E+06     9.38654E+06     677.604E+03    -265.708E-03     514.930E-03    -249.222E-03     12.3577E-03    -265.819E-03     514.864E-03    -249.113E-03     10.1651E-03
            2449     6.32404E-03     1.57513E-03    -19.5557E+06    -35.8618E+06     3.21443E+06     1.46714E+06    -260.171E-03     507.858E-03    -247.687E-03     11.5215E-03    -260.256E-03     507.738E-03    -247.591E-03     9.76042E-03
            2450     5.62782E-03     1.56649E-03    -20.5622E+06    -41.4120E+06    -1.37552E+06     1.35271E+06    -255.710E-03     502.099E-03    -246.390E-03     10.3771E-03    -255.777E-03     501.951E-03    -246.307E-03     8.92338E-03
            2451     4.92999E-03     1.55957E-03    -22.2230E+06    -44.6637E+06    -6.23006E+06     113.536E+03    -252.077E-03     497.373E-03    -245.296E-03     9.17441E-03    -252.134E-03     497.211E-03    -245.230E-03     7.95422E-03
            2452     4.22902E-03     1.55319E-03    -24.8708E+06    -49.0828E+06    -12.1567E+06    -1.21686E+06    -249.185E-03     493.566E-03    -244.381E-03     7.96791E-03    -249.235E-03     493.389E-03    -244.334E-03     6.93174E-03
            2453     3.52683E-03     1.54909E-03    -27.0546E+06    -52.9534E+06    -17.0922E+06    -1.82629E+06    -246.842E-03     490.474E-03    -243.632E-03     6.85553E-03    -246.886E-03     490.283E-03    -243.601E-03     5.99385E-03
            2454     2.82290E-03     1.54526E-03    -28.7604E+06    -56.3162E+06    -21.8039E+06    -1.07344E+06    -245.011E-03     488.048E-03    -243.037E-03     5.62036E-03    -245.048E-03     487.846E-03    -243.023E-03     4.94807E-03
            2455     2.11786E-03     1.54280E-03    -30.4365E+06    -59.5598E+06    -26.3392E+06    -14.4893E+03    -243.696E-03     486.274E-03    -242.579E-03     4.16010E-03    -243.727E-03     486.063E-03    -242.580E-03     3.67027E-03
            2456     1.41268E-03     1.54142E-03    -31.6939E+06    -61.9936E+06    -29.6752E+06     525.621E+03    -242.762E-03     485.006E-03    -242.244E-03     2.85409E-03    -242.789E-03     484.787E-03    -242.257E-03     2.54682E-03
            2457     706.624E-06     1.53943E-03    -32.2567E+06    -63.4034E+06    -31.7411E+06     489.897E+03    -242.255E-03     484.206E-03    -241.951E-03     1.66308E-03    -242.278E-03     483.983E-03    -241.971E-03     1.51282E-03


