********************************************************************************
Field Output Report, written Mon Aug 12 22:42:44 2024

Source 1
---------

   ODB: G:/Abaqus_calc_2019/1740/Vel_40/odb/zeides_2a_8_red_150_cal_75_vel_40_fric_050.odb
   Step: Step-1
   Frame: Increment   1677202: Step Time =   0.2215

Loc 1 : Nodal values from source 1

Output sorted by column "Nodal Label".

Field Output reported at nodes for region: DIE_2A_8_D0_36-1.Region_1
   Computation algorithm: EXTRAPOLATE_COMPUTE_AVERAGE
   Averaged at nodes
   Averaging regions: ODB_REGIONS

      Node Label     COORD.COOR1     COORD.COOR2
                          @Loc 1          @Loc 1
-------------------------------------------------
               1     18.9668E-03     114.260E-03


Field Output reported at nodes for region: DIE_2A_8_D0_36-1.Region_2
   Computation algorithm: EXTRAPOLATE_COMPUTE_AVERAGE
   Averaged at nodes
   Averaging regions: ODB_REGIONS

      Node Label     COORD.COOR1     COORD.COOR2
                          @Loc 1          @Loc 1
-------------------------------------------------
               1     18.9668E-03     114.260E-03


Field Output reported at nodes for part: WIRE-1
   Computation algorithm: EXTRAPOLATE_COMPUTE_AVERAGE
   Averaged at nodes
   Averaging regions: ODB_REGIONS

      Node Label     COORD.COOR1     COORD.COOR2           S.S11           S.S22           S.S33           S.S12         PE.PE11         PE.PE22         PE.PE33         PE.PE12         LE.LE11         LE.LE22         LE.LE33         LE.LE12
                          @Loc 1          @Loc 1          @Loc 1          @Loc 1          @Loc 1          @Loc 1          @Loc 1          @Loc 1          @Loc 1          @Loc 1          @Loc 1          @Loc 1          @Loc 1          @Loc 1
-------------------------------------------------------------------------------------------------------------------------------------------------------------------------------------------------------------------------------------------------
               1     20.7204E-09     56.4207E-03    -32.5491E+06    -97.1377E+06    -32.6340E+06    -74.5918E+03    -15.5347E-03     31.0701E-03    -15.5354E-03     2.09816E-03    -15.5093E-03     30.6790E-03    -15.5105E-03     2.09686E-03
               2     17.7256E-03     56.9859E-03    -1.58758E+06     105.095E+06     70.0639E+06     437.104E+03    -14.2588E-03     29.7846E-03    -15.5259E-03     9.94239E-03    -14.5407E-03     30.2309E-03    -15.3256E-03     9.96501E-03
               3     17.6428E-03     113.895E-03     8.13988E+06    -227.131E+03     28.4344E+06     515.430E+03     9.23288E-03     8.92287E-03    -18.1558E-03     3.69643E-03     9.23104E-03     8.86705E-03    -18.0251E-03     3.70308E-03
               4    -527.515E-09     113.036E-03     21.3814E+06     282.378E+03     22.7096E+06    -480.792E+03    -17.0574E-03     34.5707E-03    -17.5133E-03    -194.648E-06    -16.9842E-03     34.5078E-03    -17.4312E-03    -200.944E-06
               5     31.3130E-09    -20.8167E-18    -19.3069E+06    -75.1666E+06    -19.3267E+06    -67.2440E+03    -14.8625E-03     29.6798E-03    -14.8172E-03     155.629E-06    -14.8220E-03     29.3600E-03    -14.7769E-03     154.792E-06
               6     17.6533E-03    -20.8167E-18     219.919E+03     68.1558E+06     60.3084E+06     6.54600E+06    -20.3091E-03     38.8400E-03    -18.5309E-03     32.1497E-03    -20.5037E-03     39.1019E-03    -18.3285E-03     32.2123E-03
               7     886.133E-06     56.4227E-03    -32.2090E+06    -96.1237E+06    -31.4697E+06    -5.91316E+03    -15.5325E-03     31.0699E-03    -15.5374E-03     3.50863E-03    -15.5086E-03     30.6817E-03    -15.5086E-03     3.50798E-03
               8     1.77232E-03     56.4273E-03    -31.1405E+06    -93.1812E+06    -28.2502E+06     37.5734E+03    -15.5251E-03     31.0683E-03    -15.5431E-03     6.47221E-03    -15.5049E-03     30.6886E-03    -15.5041E-03     6.47162E-03
               9     2.65846E-03     56.4347E-03    -29.4545E+06    -88.7305E+06    -23.5847E+06     38.4417E+03    -15.5139E-03     31.0649E-03    -15.5510E-03     9.61358E-03    -15.4986E-03     30.6984E-03    -15.4975E-03     9.61242E-03
              10     3.54468E-03     56.4451E-03    -27.3611E+06    -83.6427E+06    -18.0301E+06     20.5642E+03    -15.5044E-03     31.0641E-03    -15.5597E-03     12.8148E-03    -15.4941E-03     30.7120E-03    -15.4889E-03     12.8127E-03
              11     4.43086E-03     56.4586E-03    -24.9283E+06    -78.5225E+06    -12.1893E+06    -12.7059E+03    -15.4995E-03     31.0675E-03    -15.5679E-03     16.0654E-03    -15.4933E-03     30.7293E-03    -15.4789E-03     16.0621E-03
              12     5.31713E-03     56.4750E-03    -22.4231E+06    -73.4427E+06    -6.62344E+06    -97.3873E+03    -15.5018E-03     31.0758E-03    -15.5740E-03     19.3630E-03    -15.4989E-03     30.7517E-03    -15.4681E-03     19.3577E-03
              13     6.20335E-03     56.4945E-03    -19.8201E+06    -68.8203E+06    -1.76693E+06    -77.0972E+03    -15.5149E-03     31.0916E-03    -15.5767E-03     22.7115E-03    -15.5132E-03     30.7804E-03    -15.4570E-03     22.7053E-03
              14     7.08965E-03     56.5172E-03    -17.1873E+06    -64.0541E+06     2.23705E+06         411.891    -15.5387E-03     31.1138E-03    -15.5751E-03     26.1081E-03    -15.5374E-03     30.8176E-03    -15.4461E-03     26.1015E-03
              15     7.97591E-03     56.5430E-03    -14.8281E+06    -61.1595E+06     4.96325E+06    -6.00430E+03    -15.5750E-03     31.1458E-03    -15.5708E-03     29.5383E-03    -15.5711E-03     30.8578E-03    -15.4358E-03     29.5299E-03
              16     8.86224E-03     56.5720E-03    -12.5505E+06    -57.5554E+06     6.37856E+06     149.472E+03    -15.6179E-03     31.1775E-03    -15.5595E-03     32.9830E-03    -15.6115E-03     30.9037E-03    -15.4260E-03     32.9744E-03
              17     9.74856E-03     56.6043E-03    -10.7723E+06    -52.9023E+06     6.94018E+06     76.9084E+03    -15.6681E-03     31.2119E-03    -15.5438E-03     36.4251E-03    -15.6626E-03     30.9603E-03    -15.4168E-03     36.4128E-03
              18     10.6348E-03     56.6397E-03    -9.22647E+06    -50.1913E+06     6.84800E+06     135.132E+03    -15.7331E-03     31.2621E-03    -15.5290E-03     39.8327E-03    -15.7271E-03     31.0253E-03    -15.4086E-03     39.8178E-03
              19     11.5212E-03     56.6783E-03    -7.93591E+06    -45.5799E+06     4.69667E+06     170.861E+03    -15.7859E-03     31.2881E-03    -15.5022E-03     43.0457E-03    -15.7821E-03     31.0806E-03    -15.4011E-03     43.0272E-03
              20     12.4074E-03     56.7197E-03    -6.84294E+06    -33.2492E+06     4.85167E+06     404.440E+03    -15.7949E-03     31.2699E-03    -15.4749E-03     46.3021E-03    -15.8112E-03     31.1298E-03    -15.3925E-03     46.2822E-03
              21     13.2943E-03     56.7644E-03    -6.16984E+06    -20.3269E+06     4.80005E+06     464.794E+03    -15.8396E-03     31.2850E-03    -15.4454E-03     49.9201E-03    -15.8837E-03     31.2212E-03    -15.3830E-03     49.8962E-03
              22     14.1799E-03     56.8125E-03    -6.11504E+06    -8.26718E+06    -47.4379E+03    -121.846E+03    -15.9555E-03     31.3513E-03    -15.3958E-03     54.1278E-03    -16.0331E-03     31.3780E-03    -15.3752E-03     54.0925E-03
              23     15.0670E-03     56.8645E-03    -5.91592E+06     26.4492E+06    -1.64564E+06    -276.582E+03    -16.0223E-03     31.3532E-03    -15.3309E-03     60.0546E-03    -16.1918E-03     31.6004E-03    -15.3689E-03     60.0227E-03
              24     15.9520E-03     56.9242E-03    -6.00338E+06     81.6664E+06     14.5624E+06    -243.535E+03    -15.7563E-03     31.0793E-03    -15.3230E-03     60.0994E-03    -16.0870E-03     31.6364E-03    -15.3599E-03     60.1030E-03
              25     16.8414E-03     56.9760E-03    -3.88466E+06     107.778E+06     49.8977E+06     93.3802E+03    -14.8727E-03     30.3114E-03    -15.4387E-03     33.2405E-03    -15.2251E-03     30.8879E-03    -15.3399E-03     33.2678E-03
              26     17.7282E-03     57.9614E-03    -1.93995E+06     105.055E+06     69.7805E+06    -514.201E+03    -14.6754E-03     30.1917E-03    -15.5163E-03     9.03891E-03    -14.9578E-03     30.6377E-03    -15.3169E-03     9.04832E-03
              27     17.7243E-03     58.9415E-03    -1.98494E+06     105.291E+06     69.9132E+06     1.25288E+06    -14.7806E-03     30.3134E-03    -15.5328E-03     8.89232E-03    -15.0641E-03     30.7609E-03    -15.3330E-03     8.92446E-03
              28     17.7281E-03     59.9180E-03    -2.73094E+06     104.724E+06     68.9921E+06    -809.985E+03    -14.5688E-03     30.0920E-03    -15.5232E-03     10.3410E-03    -14.8553E-03     30.5406E-03    -15.3261E-03     10.3475E-03
              29     17.7252E-03     60.8960E-03    -3.36048E+06     104.847E+06     69.5832E+06    -1.01422E+06    -15.2610E-03     30.7738E-03    -15.5129E-03     10.0876E-03    -15.5515E-03     31.2231E-03    -15.3121E-03     10.0912E-03
              30     17.7270E-03     61.8772E-03    -949.387E+03     106.992E+06     71.4370E+06     1.36314E+06    -14.0374E-03     29.5808E-03    -15.5434E-03     10.4817E-03    -14.3219E-03     30.0348E-03    -15.3400E-03     10.5180E-03
              31     17.7266E-03     62.8492E-03    -159.232E+03     107.607E+06     72.1312E+06    -1.00590E+06    -13.7786E-03     29.3171E-03    -15.5385E-03     10.6530E-03    -14.0608E-03     29.7716E-03    -15.3336E-03     10.6585E-03
              32     17.7265E-03     63.8294E-03    -2.31011E+06     105.954E+06     70.6060E+06    -591.895E+03    -15.3345E-03     30.8440E-03    -15.5095E-03     9.23708E-03    -15.6215E-03     31.2942E-03    -15.3067E-03     9.24393E-03
              33     17.7262E-03     64.8066E-03    -2.65336E+06     105.711E+06     70.1100E+06     956.229E+03    -15.1389E-03     30.6576E-03    -15.5187E-03     9.14152E-03    -15.4263E-03     31.1075E-03    -15.3176E-03     9.16866E-03
              34     17.7265E-03     65.7860E-03    -1.18114E+06     107.118E+06     71.2426E+06     990.212E+03    -14.0540E-03     29.5988E-03    -15.5448E-03     9.73420E-03    -14.3383E-03     30.0526E-03    -15.3422E-03     9.76484E-03
              35     17.7264E-03     66.7619E-03    -1.01639E+06     107.656E+06     71.4547E+06    -381.741E+03    -13.9901E-03     29.5302E-03    -15.5401E-03     10.8116E-03    -14.2761E-03     29.9875E-03    -15.3374E-03     10.8253E-03
              36     17.7268E-03     67.7392E-03    -2.67571E+06     106.480E+06     70.2574E+06    -1.09810E+06    -15.1950E-03     30.7078E-03    -15.5129E-03     10.2332E-03    -15.4853E-03     31.1629E-03    -15.3121E-03     10.2347E-03
              37     17.7257E-03     68.7189E-03    -2.59646E+06     106.457E+06     70.1986E+06     887.732E+03    -14.9861E-03     30.5133E-03    -15.5272E-03     9.47369E-03    -15.2748E-03     30.9672E-03    -15.3268E-03     9.50097E-03
              38     17.7268E-03     69.6956E-03    -1.05594E+06     107.667E+06     71.2031E+06     1.19998E+06    -13.9047E-03     29.4540E-03    -15.5492E-03     9.99621E-03    -14.1892E-03     29.9105E-03    -15.3478E-03     10.0299E-03
              39     17.7262E-03     70.6721E-03    -931.031E+03     107.876E+06     71.1213E+06    -829.944E+03    -14.2647E-03     29.7927E-03    -15.5280E-03     9.98823E-03    -14.5492E-03     30.2507E-03    -15.3275E-03     9.99456E-03
              40     17.7271E-03     71.6502E-03    -2.59115E+06     107.106E+06     70.1438E+06    -1.04389E+06    -15.4434E-03     30.9488E-03    -15.5054E-03     10.4087E-03    -15.7343E-03     31.4074E-03    -15.3062E-03     10.4104E-03
              41     17.7253E-03     72.6311E-03    -2.30485E+06     107.258E+06     70.2057E+06     1.46113E+06    -15.0195E-03     30.5488E-03    -15.5293E-03     10.2779E-03    -15.3088E-03     31.0072E-03    -15.3304E-03     10.3130E-03
              42     17.7271E-03     73.6062E-03    -384.019E+03     108.636E+06     71.5468E+06     504.890E+03    -13.4698E-03     29.0310E-03    -15.5612E-03     9.38182E-03    -13.7523E-03     29.4904E-03    -15.3604E-03     9.40729E-03
              43     17.7260E-03     74.5812E-03    -1.38344E+06     107.959E+06     70.9674E+06    -1.03930E+06    -14.2582E-03     29.7953E-03    -15.5371E-03     9.30470E-03    -14.5437E-03     30.2534E-03    -15.3368E-03     9.30827E-03
              44     17.7266E-03     75.5620E-03    -2.11349E+06     107.203E+06     70.0690E+06     548.082E+03    -15.1585E-03     30.6752E-03    -15.5167E-03     8.85593E-03    -15.4449E-03     31.1315E-03    -15.3187E-03     8.87736E-03
              45     17.7261E-03     76.5383E-03    -1.42105E+06     108.099E+06     70.3198E+06    -80.3374E+03    -14.6474E-03     30.1680E-03    -15.5206E-03     9.11463E-03    -14.9327E-03     30.6281E-03    -15.3237E-03     9.12932E-03
              46     17.7271E-03     77.5166E-03    -2.02421E+06     108.051E+06      70.123E+06    -1.53636E+06    -14.8448E-03     30.3645E-03    -15.5197E-03     9.00508E-03    -15.1330E-03     30.8257E-03    -15.3228E-03     9.00132E-03
              47     17.7253E-03     78.4952E-03    -2.16161E+06     107.790E+06     69.7599E+06     141.676E+03    -14.7779E-03     30.3031E-03    -15.5253E-03     9.06510E-03    -15.0653E-03     30.7633E-03    -15.3296E-03     9.08302E-03
              48     17.7275E-03     79.4715E-03    -981.150E+03     108.794E+06     70.5376E+06     939.670E+03    -14.3479E-03     29.8767E-03    -15.5288E-03     9.54018E-03    -14.6322E-03     30.3391E-03    -15.3324E-03     9.56867E-03
              49     17.7255E-03     80.4515E-03    -1.69639E+06     108.755E+06     70.3097E+06    -248.897E+03    -14.4848E-03     30.0150E-03    -15.5302E-03     10.2404E-03    -14.7737E-03     30.4800E-03    -15.3339E-03     10.2541E-03
              50     17.7270E-03     81.4270E-03    -2.58070E+06     108.205E+06     69.2349E+06    -350.503E+03    -14.9189E-03     30.4342E-03    -15.5153E-03     9.95566E-03    -15.2096E-03     30.8991E-03    -15.3223E-03     9.96716E-03
              51     17.7260E-03     82.4055E-03    -2.56607E+06     109.396E+06     70.1300E+06     409.223E+03    -15.3605E-03     30.8692E-03    -15.5087E-03     9.39246E-03    -15.6532E-03     31.3378E-03    -15.3130E-03     9.41239E-03
              52     17.7263E-03     83.3861E-03    -1.82504E+06     111.367E+06     71.3472E+06     1.69422E+06    -14.6127E-03     30.1463E-03    -15.5337E-03     10.2581E-03    -14.9072E-03     30.6229E-03    -15.3358E-03     10.2967E-03
              53     17.7265E-03     84.3612E-03    -1.18063E+06     112.403E+06     71.8763E+06     166.090E+03    -13.9183E-03     29.4595E-03    -15.5412E-03     10.4386E-03    -14.2120E-03     29.9396E-03    -15.3431E-03     10.4590E-03
              54     17.7266E-03     85.3384E-03    -975.634E+03     113.073E+06     72.5610E+06    -584.598E+03    -14.4887E-03     30.0133E-03    -15.5247E-03     9.22888E-03    -14.7821E-03     30.4943E-03    -15.3244E-03     9.23749E-03
              55     17.7264E-03     86.3162E-03    -1.85782E+06     112.232E+06     71.9670E+06     89.9218E+03    -15.0254E-03     30.5390E-03    -15.5136E-03     9.26235E-03    -15.3209E-03     31.0176E-03    -15.3138E-03     9.27806E-03
              56     17.7264E-03     87.2955E-03    -2.54802E+06     111.678E+06     71.1596E+06     347.278E+03    -14.8155E-03     30.3280E-03    -15.5125E-03     9.22858E-03    -15.1127E-03     30.8063E-03    -15.3149E-03     9.24812E-03
              57     17.7269E-03     88.2716E-03    -1.93777E+06     112.280E+06     71.8551E+06    -207.771E+03    -14.6998E-03     30.2097E-03    -15.5100E-03     9.28342E-03    -14.9960E-03     30.6893E-03    -15.3107E-03     9.29657E-03
              58     17.7264E-03     89.2509E-03    -2.48143E+06     111.767E+06     71.3564E+06    -376.198E+03    -14.8584E-03     30.3554E-03    -15.4970E-03     9.29834E-03    -15.1561E-03     30.8342E-03    -15.2987E-03     9.30896E-03
              59     17.7275E-03     90.2279E-03    -2.03328E+06     112.303E+06     72.0816E+06    -269.085E+03    -14.9837E-03     30.4686E-03    -15.4850E-03     10.3997E-03    -15.2822E-03     30.9496E-03    -15.2845E-03     10.4121E-03
              60     17.7266E-03     91.2082E-03    -2.15157E+06     111.568E+06     71.7465E+06    -96.0088E+03    -14.8368E-03     30.3155E-03    -15.4786E-03     10.2172E-03    -15.1341E-03     30.7931E-03    -15.2785E-03     10.2320E-03
              61     17.7279E-03     92.1831E-03    -1.40001E+06     111.353E+06     72.1328E+06    -213.621E+03    -14.6324E-03     30.1021E-03    -15.4698E-03     9.58478E-03    -14.9253E-03     30.5762E-03    -15.2685E-03     9.59788E-03
              62     17.7272E-03     93.1618E-03    -1.49766E+06     110.281E+06     71.8303E+06    -566.618E+03    -15.4106E-03     30.8427E-03    -15.4321E-03     9.64946E-03    -15.7022E-03     31.3122E-03    -15.2307E-03     9.65583E-03
              63     17.7285E-03     94.1412E-03    -2.60692E+06     108.396E+06     70.7870E+06    -1.14422E+06    -15.9969E-03     31.3971E-03    -15.4002E-03     9.68615E-03    -16.2903E-03     31.8608E-03    -15.1997E-03     9.68410E-03
              64     17.7277E-03     95.1197E-03    -2.48227E+06     107.052E+06     70.5614E+06    -482.757E+03    -15.9572E-03     31.3408E-03    -15.3835E-03     10.1912E-03    -16.2483E-03     31.7985E-03    -15.1824E-03     10.1986E-03
              65     17.7293E-03     96.0998E-03    -1.82582E+06     105.677E+06     70.5100E+06    -880.684E+03    -15.9348E-03     31.2906E-03    -15.3558E-03     10.6235E-03    -16.2213E-03     31.7414E-03    -15.1539E-03     10.6258E-03
              66     17.7290E-03     97.0767E-03    -1.19241E+06     104.250E+06     71.6134E+06    -1.53124E+06    -16.7844E-03     32.0995E-03    -15.3151E-03     9.88421E-03    -17.0664E-03     32.5397E-03    -15.1065E-03     9.87571E-03
              67     17.7299E-03     98.0576E-03    -1.03897E+06     101.669E+06     71.1423E+06    -946.500E+03    -17.8575E-03     33.1209E-03    -15.2634E-03     9.65293E-03    -18.1343E-03     33.5487E-03    -15.0536E-03     9.64877E-03
              68     17.7302E-03     99.0394E-03    -2.52522E+06     98.4023E+06     70.4420E+06    -1.90658E+06    -19.1540E-03     34.3670E-03    -15.2130E-03     11.5672E-03    -19.4353E-03     34.7844E-03    -14.9998E-03     11.5483E-03
              69     17.7301E-03     100.023E-03    -3.63039E+06     94.8529E+06     69.4984E+06    -1.13254E+06    -20.1766E-03     35.3516E-03    -15.1750E-03     12.6840E-03    -20.4583E-03     35.7557E-03    -14.9598E-03     12.6731E-03
              70     17.7309E-03     101.007E-03    -87.7075E+03     91.9139E+06     69.7285E+06    -1.14905E+06    -20.3810E-03     35.5257E-03    -15.1447E-03     13.6589E-03    -20.6424E-03     35.9109E-03    -14.9292E-03     13.6471E-03
              71     17.7311E-03     101.988E-03    -1.25998E+06     87.8309E+06     69.3380E+06    -2.24264E+06    -22.1715E-03     37.2537E-03    -15.0821E-03     14.0433E-03    -22.4334E-03     37.6218E-03    -14.8610E-03     14.0117E-03
              72     17.7314E-03     102.975E-03    -1.83786E+06     83.0467E+06     68.9300E+06    -2.11516E+06    -24.9374E-03     39.9386E-03    -15.0012E-03     14.6652E-03    -25.1957E-03     40.2855E-03    -14.7743E-03     14.6260E-03
              73     17.7318E-03     103.965E-03    -2.55284E+06     78.8179E+06     68.1797E+06    -1.51731E+06    -26.8072E-03     41.7459E-03    -14.9387E-03     15.9456E-03    -27.0641E-03     42.0759E-03    -14.7084E-03     15.9074E-03
              74     17.7321E-03     104.954E-03    -878.933E+03     75.4017E+06     69.0584E+06    -1.63693E+06    -28.7568E-03     43.6304E-03    -14.8737E-03     17.6132E-03    -29.0053E-03     43.9433E-03    -14.6364E-03     17.5652E-03
              75     17.7327E-03     105.947E-03    -3.01007E+06     71.3200E+06     68.7571E+06    -2.01110E+06    -31.4364E-03     46.2219E-03    -14.7855E-03     19.4647E-03    -31.6936E-03     46.5224E-03    -14.5408E-03     19.3996E-03
              76     17.7331E-03     106.943E-03     -777.83E+03     66.3070E+06     68.5584E+06    -2.93413E+06    -34.1247E-03     48.8106E-03    -14.6859E-03     22.0066E-03    -34.3697E-03     49.0896E-03    -14.4381E-03     21.9142E-03
              77     17.7342E-03     107.942E-03    -1.51456E+06     60.5190E+06     67.8993E+06    -2.61603E+06    -37.1695E-03     51.7485E-03    -14.5789E-03     26.7563E-03    -37.4213E-03     52.0135E-03    -14.3250E-03     26.6435E-03
              78     17.7343E-03     108.947E-03    -1.97799E+06     58.1273E+06     68.0968E+06     1.02487E+06    -39.9072E-03     54.3831E-03    -14.4760E-03     35.0430E-03    -40.1788E-03     54.6578E-03    -14.2169E-03     34.9485E-03
              79     17.7360E-03     109.955E-03    -5.53350E+06     55.4240E+06     61.5400E+06    -2.58540E+06    -41.5864E-03     55.9477E-03    -14.3613E-03     49.7400E-03    -41.8926E-03     56.2546E-03    -14.1260E-03     49.5733E-03
              80     17.7364E-03     110.969E-03    -5.19499E+06     39.0648E+06     37.1291E+06    -9.92725E+06    -39.3892E-03     53.6584E-03    -14.2692E-03     67.7699E-03    -39.6621E-03     53.9464E-03    -14.1327E-03     67.5020E-03
              81     17.7382E-03     111.977E-03     1.38323E+06     17.9161E+06     12.7216E+06    -10.1929E+06    -23.2455E-03     37.8256E-03    -14.5802E-03     76.7069E-03    -23.3739E-03     37.9886E-03    -14.5445E-03     76.5020E-03
              82     17.7347E-03     112.946E-03     1.05462E+06     4.73377E+06     15.7205E+06    -4.25112E+06    -381.092E-06     16.9167E-03    -16.5356E-03     40.2893E-03    -424.137E-06     16.9348E-03    -16.4654E-03     40.2280E-03
              83     16.7423E-03     113.812E-03     3.04260E+06     5.30918E+06     31.6914E+06    -903.496E+03     2.37176E-03     16.2412E-03    -18.6129E-03     13.9485E-03     2.33245E-03     16.2182E-03    -18.4666E-03     13.9355E-03
              84     15.8468E-03     113.713E-03     590.318E+03    -3.59811E+06     33.0138E+06    -3.24677E+06    -9.63820E-03     28.8607E-03    -19.2225E-03     23.8765E-03    -9.67975E-03     28.7957E-03    -19.0530E-03     23.8304E-03
              85     14.9670E-03     113.606E-03      6.4803E+06    -3.86180E+06     42.4609E+06    -2.49783E+06    -14.2746E-03     33.7137E-03    -19.4391E-03     17.9327E-03    -14.3021E-03     33.6223E-03    -19.2306E-03     17.8951E-03
              86     14.0890E-03     113.517E-03     10.2049E+06     3.06236E+06     51.5995E+06    -1.16782E+06    -14.8851E-03     34.4292E-03    -19.5441E-03     10.0930E-03    -14.9163E-03     34.3534E-03    -19.3054E-03     10.0730E-03
              87     13.2079E-03     113.445E-03     12.0601E+06    -1.03799E+06     51.8100E+06    -1.86640E+06    -18.0671E-03     37.6163E-03    -19.5493E-03     6.25597E-03    -18.0824E-03     37.5176E-03    -19.3062E-03     6.22630E-03
              88     12.3318E-03     113.379E-03     14.1687E+06    -960.405E+03     51.8581E+06    -1.57997E+06    -20.5909E-03     39.9736E-03    -19.3826E-03     3.85979E-03    -20.5961E-03     39.8716E-03    -19.1425E-03     3.83340E-03
              89     11.4562E-03     113.322E-03     15.2642E+06    -582.044E+03     50.1657E+06    -1.04297E+06    -20.9391E-03     40.0528E-03    -19.1136E-03     2.64851E-03    -20.9365E-03     39.9537E-03    -18.8841E-03     2.62970E-03
              90     10.5792E-03     113.272E-03     15.8444E+06     21.1549E+03     49.4996E+06    -1.32466E+06    -20.7099E-03     39.5493E-03    -18.8394E-03     1.97501E-03    -20.7039E-03     39.4537E-03    -18.6149E-03     1.95336E-03
              91     9.70119E-03     113.230E-03     16.4779E+06    -590.993E+03     47.2004E+06    -1.36896E+06    -20.3685E-03     38.9344E-03    -18.5659E-03     1.58118E-03    -20.3548E-03     38.8383E-03    -18.3530E-03     1.55968E-03
              92     8.82230E-03     113.193E-03     16.9600E+06    -117.232E+03     44.1155E+06    -1.22983E+06    -19.8595E-03     38.1619E-03    -18.3024E-03     1.32850E-03    -19.8394E-03     38.0720E-03    -18.1062E-03     1.30945E-03
              93     7.94239E-03     113.161E-03     17.2769E+06    -209.018E+03     41.4536E+06    -1.31674E+06    -19.2781E-03     37.3472E-03    -18.0691E-03     1.13385E-03    -19.2523E-03     37.2603E-03    -17.8866E-03     1.11423E-03
              94     7.06169E-03     113.133E-03     17.8102E+06    -128.365E+03     38.3648E+06    -1.44075E+06    -18.7292E-03     36.5965E-03    -17.8673E-03     969.997E-06    -18.6962E-03     36.5139E-03    -17.7012E-03     949.261E-06
              95     6.18017E-03     113.110E-03     18.3989E+06    -411.157E+03     34.3268E+06    -1.31283E+06    -18.2847E-03     35.9805E-03    -17.6959E-03     817.006E-06    -18.2424E-03     35.9015E-03    -17.5503E-03     798.317E-06
              96     5.29810E-03     113.090E-03     18.9212E+06    -64.7719E+03     31.1957E+06    -1.20961E+06    -17.9385E-03     35.4974E-03    -17.5589E-03     662.529E-06    -17.8896E-03     35.4239E-03    -17.4302E-03     645.501E-06
              97     4.41559E-03     113.073E-03     19.5003E+06    -342.564E+03     28.0598E+06    -1.19523E+06    -17.6769E-03     35.1266E-03    -17.4497E-03     519.718E-06    -17.6201E-03     35.0555E-03    -17.3372E-03     503.158E-06
              98     3.53279E-03     113.060E-03     20.1909E+06    -367.356E+03     25.3522E+06    -998.029E+03    -17.4825E-03     34.8495E-03    -17.3670E-03     375.723E-06    -17.4183E-03     34.7812E-03    -17.2690E-03     361.960E-06
              99     2.64970E-03     113.050E-03     20.8485E+06    -186.437E+03     23.8691E+06    -882.445E+03    -17.3518E-03     34.6652E-03    -17.3135E-03     222.239E-06    -17.2823E-03     34.5990E-03    -17.2241E-03     210.203E-06
             100     1.76648E-03     113.042E-03     21.6614E+06    -433.477E+03     22.6135E+06    -967.456E+03    -17.2753E-03     34.5606E-03    -17.2853E-03     70.9263E-06    -17.1996E-03     34.4938E-03    -17.2030E-03     58.0062E-06
             101     883.125E-06     113.038E-03     21.7631E+06    -645.761E+03     22.1470E+06    -760.660E+03    -17.1525E-03     34.5475E-03    -17.3950E-03    -96.7893E-06    -17.0752E-03     34.4802E-03    -17.3149E-03    -106.819E-06
             102     134.688E-09     112.054E-03     20.7509E+06    -1.75975E+06     19.9851E+06    -845.893E+03    -15.8253E-03     31.7817E-03    -15.9563E-03     359.070E-06    -15.7482E-03     31.7136E-03    -15.8839E-03     348.006E-06
             103     21.6141E-09     111.078E-03     16.8164E+06    -4.98157E+06     16.8165E+06    -943.530E+03    -13.6285E-03     27.1598E-03    -13.5313E-03     987.821E-06    -13.5616E-03     27.0860E-03    -13.4644E-03     975.422E-06
             104    -4.58775E-09     110.106E-03     12.2970E+06    -8.73311E+06     12.7215E+06    -1.19311E+06    -12.0509E-03     24.0911E-03    -12.0402E-03     1.23841E-03    -11.9952E-03     24.0112E-03    -11.9818E-03     1.22280E-03
             105     11.2362E-09     109.136E-03     4.40736E+06    -13.2658E+06     4.36349E+06    -1.44102E+06    -11.0435E-03     22.0837E-03    -11.0402E-03     1.53153E-03    -11.0086E-03     22.0047E-03    -11.0055E-03     1.51275E-03
             106    -13.2511E-09     108.167E-03    -8.40282E+06    -18.4485E+06    -8.22216E+06    -1.47350E+06    -10.4609E-03     20.9348E-03    -10.4739E-03     1.77586E-03    -10.4642E-03     20.8667E-03    -10.4761E-03     1.75670E-03
             107    -7.23736E-09     107.199E-03    -23.4933E+06    -23.8420E+06    -23.4293E+06    -1.63055E+06    -10.2455E-03     20.5016E-03    -10.2561E-03     1.97840E-03    -10.2945E-03     20.4505E-03    -10.3046E-03     1.95726E-03
             108     7.93813E-09     106.231E-03    -42.0631E+06    -29.9855E+06    -41.7208E+06    -2.05842E+06    -10.3061E-03     20.6234E-03    -10.3173E-03     2.13144E-03    -10.4124E-03     20.5950E-03    -10.4214E-03     2.10481E-03
             109    -26.6625E-09     105.263E-03    -60.9983E+06    -37.4773E+06    -61.0963E+06    -2.39127E+06    -10.5813E-03     21.1737E-03    -10.5924E-03     2.23652E-03    -10.7434E-03     21.1634E-03    -10.7551E-03     2.20561E-03
             110     22.3420E-09     104.294E-03    -70.0419E+06    -44.4378E+06    -70.2966E+06    -1.77910E+06    -11.0248E-03     22.0624E-03    -11.0376E-03     2.28695E-03    -11.2086E-03     22.0437E-03    -11.2231E-03     2.26394E-03
             111    -45.9032E-09     103.324E-03    -63.2404E+06    -48.7179E+06    -63.5927E+06    -722.626E+03    -11.5967E-03     23.1996E-03    -11.6029E-03     2.30883E-03    -11.7501E-03     23.1400E-03    -11.7585E-03     2.29945E-03
             112     52.1659E-09     102.353E-03    -51.2344E+06    -50.3449E+06    -51.2227E+06    -178.670E+03    -12.2077E-03     24.4180E-03    -12.2102E-03     2.29199E-03    -12.3166E-03     24.3148E-03    -12.3191E-03     2.28961E-03
             113    -64.9790E-09     101.381E-03    -42.1400E+06    -50.6093E+06    -42.3028E+06     135.134E+03    -12.7857E-03     25.5725E-03    -12.7868E-03     2.27132E-03    -12.8616E-03     25.4419E-03    -12.8638E-03     2.27296E-03
             114     71.6081E-09     100.408E-03    -36.6233E+06    -50.3980E+06    -36.4531E+06     55.4596E+03    -13.3051E-03     26.6090E-03    -13.3038E-03     2.24681E-03    -13.3623E-03     26.4630E-03    -13.3599E-03     2.24739E-03
             115    -76.2021E-09     99.4335E-03    -33.0841E+06    -50.7480E+06    -33.1511E+06    -148.973E+03    -13.7503E-03     27.5034E-03    -13.7531E-03     2.22408E-03    -13.7941E-03     27.3458E-03    -13.7973E-03     2.22199E-03
             116     72.9071E-09     98.4587E-03    -31.3585E+06    -51.5712E+06    -31.2602E+06    -275.791E+03    -14.1270E-03     28.2580E-03    -14.1311E-03     2.20188E-03    -14.1636E-03     28.0910E-03    -14.1671E-03     2.19813E-03
             117    -77.9244E-09     97.4830E-03    -30.3622E+06    -53.0041E+06    -30.3812E+06    -465.198E+03    -14.4348E-03     28.8750E-03    -14.4402E-03     2.18243E-03    -14.4657E-03     28.6981E-03    -14.4712E-03     2.17620E-03
             118     71.1064E-09     96.5069E-03    -30.0911E+06    -54.7324E+06    -30.1119E+06    -473.370E+03    -14.6845E-03     29.3681E-03    -14.6836E-03     2.16558E-03    -14.7120E-03     29.1818E-03    -14.7112E-03     2.15923E-03
             119    -64.9634E-09     95.5302E-03    -30.2520E+06    -56.6824E+06    -30.1901E+06    -581.460E+03    -14.8823E-03     29.7578E-03    -14.8755E-03     2.15186E-03    -14.9076E-03     29.5621E-03    -14.9004E-03     2.14408E-03
             120     69.5951E-09     94.5534E-03    -30.1918E+06    -58.6410E+06    -30.2923E+06    -506.874E+03    -15.0317E-03     30.0616E-03    -15.0298E-03     2.13929E-03    -15.0538E-03     29.8561E-03    -15.0525E-03     2.13246E-03
             121    -74.0657E-09     93.5762E-03    -30.3560E+06    -60.3208E+06    -30.3525E+06    -370.646E+03    -15.1471E-03     30.2953E-03    -15.1482E-03     2.12213E-03    -15.1674E-03     30.0818E-03    -15.1685E-03     2.11705E-03
             122     74.5647E-09     92.5989E-03    -30.6616E+06    -61.7581E+06    -30.6089E+06    -456.424E+03    -15.2381E-03     30.4773E-03    -15.2392E-03     2.11698E-03    -15.2575E-03     30.2574E-03    -15.2582E-03     2.11079E-03
             123    -78.3570E-09     91.6214E-03    -31.2263E+06    -63.5220E+06    -31.2256E+06    -562.646E+03    -15.3013E-03     30.6104E-03    -15.3092E-03     2.11650E-03    -15.3200E-03     30.3834E-03    -15.3279E-03     2.10892E-03
             124     66.1923E-09     90.6439E-03    -31.8993E+06    -65.6819E+06    -31.8942E+06    -654.772E+03    -15.3511E-03     30.7075E-03    -15.3565E-03     2.11475E-03    -15.3691E-03     30.4717E-03    -15.3744E-03     2.10598E-03
             125    -65.5295E-09     89.6662E-03    -32.5841E+06    -68.0624E+06    -32.6394E+06    -651.846E+03    -15.3882E-03     30.7771E-03    -15.3889E-03     2.11345E-03    -15.4051E-03     30.5314E-03    -15.4061E-03     2.10471E-03
             126     61.0160E-09     88.6885E-03    -33.3538E+06    -70.4190E+06    -33.2909E+06    -637.702E+03    -15.4141E-03     30.8272E-03    -15.4131E-03     2.11036E-03    -15.4305E-03     30.5718E-03    -15.4291E-03     2.10180E-03
             127    -56.0961E-09     87.7108E-03    -33.8618E+06    -72.8718E+06    -33.8571E+06    -753.954E+03    -15.4314E-03     30.8631E-03    -15.4318E-03     2.10251E-03    -15.4459E-03     30.5970E-03    -15.4463E-03     2.09245E-03
             128     48.4842E-09     86.7330E-03    -34.3774E+06    -75.3677E+06    -34.3996E+06    -686.354E+03    -15.4442E-03     30.8891E-03    -15.4449E-03     2.10545E-03    -15.4569E-03     30.6120E-03    -15.4578E-03     2.09626E-03
             129    -44.4852E-09     85.7552E-03    -34.7325E+06    -77.6530E+06    -34.7894E+06    -574.485E+03    -15.4519E-03     30.9074E-03    -15.4555E-03     2.10485E-03    -15.4626E-03     30.6200E-03    -15.4665E-03     2.09710E-03
             130     31.5702E-09     84.7775E-03    -34.9715E+06    -79.7472E+06    -34.9187E+06    -587.801E+03    -15.4599E-03     30.9258E-03    -15.4659E-03     2.10578E-03    -15.4685E-03     30.6284E-03    -15.4742E-03     2.09786E-03
             131    -30.7829E-09     83.7997E-03    -34.9930E+06    -81.6920E+06    -35.0888E+06    -528.869E+03    -15.4693E-03     30.9392E-03    -15.4700E-03     2.10320E-03    -15.4749E-03     30.6325E-03    -15.4762E-03     2.09603E-03
             132     25.6909E-09     82.8220E-03    -35.2382E+06    -83.3631E+06    -35.1802E+06    -449.461E+03    -15.4742E-03     30.9495E-03    -15.4752E-03     2.09912E-03    -15.4785E-03     30.6348E-03    -15.4792E-03     2.09298E-03
             133    -23.7018E-09     81.8442E-03    -35.2863E+06    -84.9162E+06    -35.3875E+06    -436.387E+03    -15.4797E-03     30.9642E-03    -15.4845E-03     2.10027E-03    -15.4816E-03     30.6421E-03    -15.4872E-03     2.09430E-03
             134     9.94155E-09     80.8664E-03    -35.3283E+06    -86.3263E+06    -35.2768E+06    -364.744E+03    -15.4850E-03     30.9790E-03    -15.4940E-03     2.10664E-03    -15.4853E-03     30.6498E-03    -15.4940E-03     2.10159E-03
             135    -13.5439E-09     79.8886E-03    -35.1840E+06    -87.6808E+06    -35.2578E+06    -351.528E+03    -15.4947E-03     30.9911E-03    -15.4963E-03     2.10438E-03    -15.4924E-03     30.6549E-03    -15.4945E-03     2.09951E-03
             136     11.4258E-09     78.9108E-03    -35.1211E+06    -88.8028E+06    -35.0740E+06    -245.009E+03    -15.5033E-03     31.0009E-03    -15.4976E-03     2.10143E-03    -15.4993E-03     30.6587E-03    -15.4933E-03     2.09792E-03
             137    -785.083E-12     77.9330E-03    -34.7511E+06    -89.8032E+06    -34.7535E+06    -307.806E+03    -15.5078E-03     31.0117E-03    -15.5040E-03     2.10045E-03    -15.5009E-03     30.6636E-03    -15.4971E-03     2.09613E-03
             138    -5.15061E-09     76.9551E-03    -34.4410E+06    -90.6433E+06    -34.4966E+06    -179.006E+03    -15.5062E-03     31.0164E-03    -15.5103E-03     2.09343E-03    -15.4969E-03     30.6632E-03    -15.5014E-03     2.09078E-03
             139     1.22117E-09     75.9775E-03    -34.3904E+06    -91.4510E+06    -34.3327E+06    -269.288E+03    -15.5103E-03     31.0294E-03    -15.5192E-03     2.09283E-03    -15.4999E-03     30.6719E-03    -15.5083E-03     2.08901E-03
             140    -14.3294E-09     74.9995E-03    -34.0213E+06    -92.2109E+06    -34.1616E+06    -125.168E+03    -15.5181E-03     31.0376E-03    -15.5195E-03     2.09988E-03    -15.5050E-03     30.6755E-03    -15.5073E-03     2.09793E-03
             141     21.4183E-09     74.0218E-03    -34.0861E+06    -92.8272E+06    -33.9548E+06    -129.232E+03    -15.5166E-03     31.0364E-03    -15.5198E-03     2.10012E-03    -15.5032E-03     30.6710E-03    -15.5055E-03     2.09812E-03
             142    -34.7015E-09     73.0439E-03    -33.7326E+06    -93.4310E+06    -33.8574E+06    -155.985E+03    -15.5219E-03     31.0496E-03    -15.5277E-03     2.09387E-03    -15.5060E-03     30.6805E-03    -15.5126E-03     2.09153E-03
             143     34.2622E-09     72.0661E-03    -33.8330E+06    -93.9414E+06    -33.7234E+06    -106.105E+03    -15.5305E-03     31.0566E-03    -15.5261E-03     2.10193E-03    -15.5145E-03     30.6849E-03    -15.5095E-03     2.10023E-03
             144    -26.8492E-09     71.0883E-03    -33.5450E+06    -94.3028E+06    -33.6301E+06    -82.2660E+03    -15.5313E-03     31.0564E-03    -15.5251E-03     2.09380E-03    -15.5135E-03     30.6824E-03    -15.5079E-03     2.09240E-03
             145     27.5093E-09     70.1105E-03    -33.6622E+06    -94.5210E+06    -33.6150E+06     7.46941E+03    -15.5310E-03     31.0655E-03    -15.5344E-03     2.08857E-03    -15.5135E-03     30.6905E-03    -15.5167E-03     2.08833E-03
             146    -35.7179E-09     69.1326E-03    -33.3484E+06    -94.6708E+06    -33.4216E+06    -25.3226E+03    -15.5334E-03     31.0765E-03    -15.5431E-03     2.10307E-03    -15.5144E-03     30.7000E-03    -15.5246E-03     2.10242E-03
             147     23.7698E-09     68.1548E-03    -33.3003E+06    -95.0140E+06    -33.2478E+06    -39.2001E+03    -15.5364E-03     31.0779E-03    -15.5415E-03     2.11341E-03    -15.5169E-03     30.6994E-03    -15.5217E-03     2.11257E-03
             148    -22.2921E-09     67.1770E-03    -33.2111E+06    -95.3763E+06    -33.2518E+06    -50.9690E+03    -15.5436E-03     31.0819E-03    -15.5383E-03     2.10439E-03    -15.5232E-03     30.7015E-03    -15.5181E-03     2.10340E-03
             149     27.7438E-09     66.1991E-03    -33.1116E+06    -95.5555E+06    -33.0609E+06    -29.2067E+03    -15.5430E-03     31.0918E-03    -15.5487E-03     2.09362E-03    -15.5221E-03     30.7100E-03    -15.5275E-03     2.09290E-03
             150    -44.6620E-09     65.2213E-03    -32.9201E+06    -95.7477E+06    -32.9624E+06    -31.0524E+03    -15.5448E-03     31.0976E-03    -15.5529E-03     2.10006E-03    -15.5227E-03     30.7145E-03    -15.5311E-03     2.09933E-03
             151     44.6797E-09     64.2434E-03    -32.9472E+06    -95.9677E+06    -32.9379E+06    -24.6354E+03    -15.5466E-03     31.0922E-03    -15.5456E-03     2.09799E-03    -15.5244E-03     30.7079E-03    -15.5233E-03     2.09733E-03
             152    -44.8341E-09     63.2656E-03    -32.9623E+06    -96.1109E+06    -32.9899E+06     17.5104E+03    -15.5409E-03     31.0849E-03    -15.5440E-03     2.09680E-03    -15.5185E-03     30.7000E-03    -15.5218E-03     2.09668E-03
             153     37.2208E-09     62.2877E-03    -32.9636E+06    -96.1538E+06    -32.9680E+06    -11.3750E+03    -15.5392E-03     31.0834E-03    -15.5442E-03     2.09421E-03    -15.5168E-03     30.6982E-03    -15.5218E-03     2.09372E-03
             154    -40.6042E-09     61.3099E-03    -32.7853E+06    -96.3610E+06    -32.7782E+06    -44.1856E+03    -15.5424E-03     31.0843E-03    -15.5419E-03     2.08918E-03    -15.5191E-03     30.6976E-03    -15.5185E-03     2.08828E-03
             155     42.9337E-09     60.3320E-03    -32.6719E+06    -96.5042E+06    -32.6643E+06     4.41149E+03    -15.5451E-03     31.0851E-03    -15.5400E-03     2.09851E-03    -15.5212E-03     30.6974E-03    -15.5160E-03     2.09823E-03
             156    -38.0582E-09     59.3543E-03    -32.7860E+06    -96.8123E+06    -32.7862E+06    -3.94829E+03    -15.5387E-03     31.0798E-03    -15.5412E-03     2.10622E-03    -15.5147E-03     30.6909E-03    -15.5172E-03     2.10584E-03
             157     26.7162E-09     58.3764E-03    -32.7280E+06    -96.9315E+06    -32.8001E+06     67.0854E+03    -15.5371E-03     31.0772E-03    -15.5400E-03     2.10542E-03    -15.5127E-03     30.6876E-03    -15.5160E-03     2.10595E-03
             158    -23.3194E-09     57.3986E-03    -32.8185E+06    -96.9365E+06    -32.6885E+06    -20.7611E+03    -15.5384E-03     31.0760E-03    -15.5376E-03     2.10364E-03    -15.5145E-03     30.6864E-03    -15.5129E-03     2.10303E-03
             159    -22.3127E-09     55.4430E-03    -32.5923E+06    -97.3341E+06    -32.5326E+06     59.0824E+03    -15.5314E-03     31.0633E-03    -15.5319E-03     2.09609E-03    -15.5061E-03     30.6711E-03    -15.5061E-03     2.09651E-03
             160     21.7639E-09     54.4651E-03    -32.4549E+06    -97.4766E+06    -32.4429E+06    -38.2037E+03    -15.5264E-03     31.0557E-03    -15.5294E-03     2.10185E-03    -15.5003E-03     30.6625E-03    -15.5032E-03     2.10102E-03
             161    -28.3931E-09     53.4873E-03    -32.4464E+06    -97.6849E+06    -32.5388E+06    -30.0208E+03    -15.5187E-03     31.0408E-03    -15.5221E-03     2.09941E-03    -15.4921E-03     30.6466E-03    -15.4961E-03     2.09868E-03
             162     25.9865E-09     52.5096E-03    -32.6003E+06    -97.7120E+06    -32.5214E+06     48.3459E+03    -15.5129E-03     31.0268E-03    -15.5140E-03     2.09795E-03    -15.4870E-03     30.6327E-03    -15.4876E-03     2.09824E-03
             163    -26.6105E-09     51.5318E-03    -32.5539E+06    -97.6340E+06    -32.6405E+06     25.1166E+03    -15.5025E-03     31.0100E-03    -15.5075E-03     2.09965E-03    -15.4763E-03     30.6164E-03    -15.4820E-03     2.09964E-03
             164     15.2312E-09     50.5540E-03    -32.7015E+06    -97.5058E+06    -32.7149E+06     176.903E+03    -15.4892E-03     30.9838E-03    -15.4945E-03     2.09919E-03    -15.4639E-03     30.5911E-03    -15.4693E-03     2.10114E-03
             165    -15.4204E-09     49.5763E-03    -32.6222E+06    -97.2526E+06    -32.5096E+06     20.6102E+03    -15.4784E-03     30.9539E-03    -15.4755E-03     2.09529E-03    -15.4534E-03     30.5622E-03    -15.4497E-03     2.09522E-03
             166     20.1666E-09     48.5986E-03    -32.5332E+06    -97.5313E+06    -32.5365E+06    -138.189E+03    -15.4621E-03     30.9220E-03    -15.4599E-03     2.09129E-03    -15.4361E-03     30.5288E-03    -15.4340E-03     2.08917E-03
             167    -23.1684E-09     47.6210E-03    -32.4863E+06    -98.0260E+06    -32.5158E+06    -98.2436E+03    -15.4424E-03     30.8850E-03    -15.4426E-03     2.08382E-03    -15.4155E-03     30.4892E-03    -15.4160E-03     2.08221E-03
             168     23.4314E-09     46.6434E-03    -32.4940E+06    -98.3257E+06    -32.5066E+06    -38.3238E+03    -15.4174E-03     30.8385E-03    -15.4210E-03     2.07902E-03    -15.3902E-03     30.4412E-03    -15.3939E-03     2.07819E-03
             169    -32.1758E-09     45.6658E-03    -32.6085E+06    -98.4824E+06    -32.6284E+06     26.4699E+03    -15.3824E-03     30.7827E-03    -15.4003E-03     2.07206E-03    -15.3553E-03     30.3850E-03    -15.3734E-03     2.07207E-03
             170     6.89056E-09     44.6883E-03    -32.6910E+06    -98.6052E+06    -32.6468E+06    -27.1737E+03    -15.3566E-03     30.7198E-03    -15.3632E-03     2.05824E-03    -15.3298E-03     30.3216E-03    -15.3360E-03     2.05756E-03
             171     5.38638E-09     43.7109E-03    -32.4751E+06    -98.7396E+06    -32.5785E+06     48.7615E+03    -15.3252E-03     30.6448E-03    -15.3195E-03     2.04531E-03    -15.2972E-03     30.2455E-03    -15.2922E-03     2.04561E-03
             172    -10.6586E-09     42.7335E-03    -32.5295E+06     -98.418E+06    -32.4981E+06     176.385E+03    -15.2734E-03     30.5553E-03    -15.2819E-03     2.03062E-03    -15.2463E-03     30.1576E-03    -15.2545E-03     2.03257E-03
             173    -490.077E-12     41.7563E-03    -32.5019E+06    -98.0754E+06    -32.4850E+06     86.0377E+03    -15.2213E-03     30.4496E-03    -15.2283E-03     2.01959E-03    -15.1946E-03     30.0535E-03    -15.2014E-03     2.02038E-03
             174    -2.31497E-09     40.7791E-03    -32.5788E+06    -98.0532E+06    -32.5170E+06     7.95676E+03    -15.1614E-03     30.3267E-03    -15.1653E-03     2.02064E-03    -15.1350E-03     29.9309E-03    -15.1384E-03     2.02043E-03
             175    -2.86953E-09     39.8022E-03    -32.8925E+06    -98.3544E+06    -32.9133E+06    -119.327E+03    -15.0929E-03     30.1919E-03    -15.0991E-03     1.99537E-03    -15.0670E-03     29.7956E-03    -15.0733E-03     1.99351E-03
             176    -4.98221E-09     38.8252E-03    -33.0194E+06    -98.5806E+06    -33.0713E+06     50.7476E+03    -15.0248E-03     30.0466E-03    -15.0218E-03     1.96771E-03    -14.9990E-03     29.6496E-03    -14.9963E-03     1.96805E-03
             177     15.8617E-09     37.8486E-03    -33.1432E+06    -98.6113E+06    -33.0287E+06    -43.4398E+03    -14.9415E-03     29.8861E-03    -14.9446E-03     1.96022E-03    -14.9164E-03     29.4891E-03    -14.9187E-03     1.95935E-03
             178    -32.5358E-09     36.8719E-03    -33.2449E+06    -98.9511E+06    -33.3055E+06    -108.330E+03    -14.8488E-03     29.6997E-03    -14.8510E-03     1.93952E-03    -14.8232E-03     29.3015E-03    -14.8258E-03     1.93782E-03
             179     42.9294E-09     35.8956E-03    -33.7299E+06    -99.3509E+06    -33.7058E+06    -55.2024E+03    -14.7448E-03     29.4855E-03    -14.7407E-03     1.91692E-03    -14.7205E-03     29.0866E-03    -14.7163E-03     1.91590E-03
             180    -47.4120E-09     34.9195E-03    -33.3604E+06    -99.2764E+06    -33.5222E+06     142.372E+03    -14.6234E-03     29.2538E-03    -14.6304E-03     1.88270E-03    -14.5977E-03     28.8544E-03    -14.6056E-03     1.88424E-03
             181     36.1087E-09     33.9436E-03    -33.4412E+06    -98.8435E+06    -33.2756E+06     140.630E+03    -14.4913E-03     28.9893E-03    -14.4980E-03     1.85560E-03    -14.4670E-03     28.5919E-03    -14.4726E-03     1.85713E-03
             182    -36.3143E-09     32.9679E-03    -33.2312E+06    -98.6482E+06    -33.3290E+06     41.6273E+03    -14.3419E-03     28.6832E-03    -14.3413E-03     1.82632E-03    -14.3167E-03     28.2865E-03    -14.3167E-03     1.82657E-03
             183     34.9679E-09     31.9926E-03    -33.2604E+06    -98.4457E+06    -33.2208E+06     117.771E+03    -14.1716E-03     28.3489E-03    -14.1773E-03     1.78121E-03    -14.1470E-03     27.9531E-03    -14.1525E-03     1.78245E-03
             184    -44.7709E-09     31.0177E-03    -32.8129E+06    -98.2075E+06    -32.8676E+06     75.6702E+03    -13.9932E-03     27.9908E-03    -13.9977E-03     1.72879E-03    -13.9672E-03     27.5951E-03    -13.9720E-03     1.72950E-03
             185     44.6566E-09     30.0430E-03    -32.7430E+06    -98.0770E+06    -32.6702E+06     34.3936E+03    -13.7989E-03     27.5952E-03    -13.7963E-03     1.68121E-03    -13.7730E-03     27.1997E-03    -13.7700E-03     1.68139E-03
             186    -40.4503E-09     29.0689E-03    -32.8574E+06    -98.0073E+06    -32.9274E+06     40.4552E+03    -13.5839E-03     27.1596E-03    -13.5757E-03     1.62436E-03    -13.5583E-03     26.7650E-03    -13.5506E-03     1.62463E-03
             187     48.8235E-09     28.0951E-03    -32.6527E+06    -97.5812E+06    -32.6916E+06     261.408E+03    -13.3511E-03     26.6911E-03    -13.3400E-03     1.56114E-03    -13.3255E-03     26.2980E-03    -13.3146E-03     1.56428E-03
             188    -39.0279E-09     27.1219E-03    -32.4982E+06    -96.8535E+06    -32.4861E+06     258.348E+03    -13.0879E-03     26.1836E-03    -13.0957E-03     1.49187E-03    -13.0628E-03     25.7936E-03    -13.0706E-03     1.49498E-03
             189     14.4230E-09     26.1491E-03    -32.1527E+06    -95.9856E+06    -32.1877E+06     280.918E+03    -12.8246E-03     25.6569E-03    -12.8323E-03     1.43194E-03    -12.7995E-03     25.2703E-03    -12.8075E-03     1.43535E-03
             190    -4.82059E-09     25.1768E-03    -31.9770E+06    -95.2079E+06    -31.9057E+06     199.945E+03    -12.5543E-03     25.1017E-03    -12.5475E-03     1.37565E-03    -12.5298E-03     24.7184E-03    -12.5226E-03     1.37802E-03
             191     7.25584E-09     24.2051E-03    -31.2991E+06    -94.3283E+06    -31.4831E+06     415.530E+03    -12.2658E-03     24.5111E-03    -12.2453E-03     1.30837E-03    -12.2399E-03     24.1305E-03    -12.2205E-03     1.31354E-03
             192     23.9621E-09     23.2341E-03    -30.8714E+06    -92.9025E+06    -30.8014E+06     566.673E+03    -11.9668E-03     23.9186E-03    -11.9518E-03     1.24792E-03    -11.9418E-03     23.5435E-03    -11.9263E-03     1.25505E-03
             193    -28.3400E-09     22.2635E-03    -30.3347E+06    -91.2135E+06    -30.3836E+06     523.873E+03    -11.6775E-03     23.3518E-03    -11.6743E-03     1.17907E-03    -11.6529E-03     22.9838E-03    -11.6500E-03     1.18565E-03
             194     37.2092E-09     21.2935E-03    -29.7734E+06    -89.3678E+06    -29.7864E+06     644.201E+03    -11.4236E-03     22.8264E-03    -11.4028E-03     1.12189E-03    -11.3997E-03     22.4660E-03    -11.3790E-03     1.13004E-03
             195    -9.73468E-09     20.3239E-03    -28.7405E+06    -87.1611E+06    -28.7712E+06     736.622E+03    -11.1940E-03     22.3655E-03    -11.1715E-03     1.08277E-03    -11.1696E-03     22.0132E-03    -11.1473E-03     1.09212E-03
             196     21.3903E-09     19.3548E-03    -27.3433E+06    -84.6516E+06    -27.3721E+06     838.356E+03    -11.0138E-03     21.9940E-03    -10.9802E-03     1.03113E-03    -10.9881E-03     21.6501E-03    -10.9546E-03     1.04180E-03
             197     25.9960E-09     18.3859E-03    -25.3027E+06    -81.6957E+06    -25.3329E+06     1.01394E+06    -10.8701E-03     21.7045E-03    -10.8345E-03     996.894E-06    -10.8414E-03     21.3695E-03    -10.8060E-03     1.00984E-03
             198    -10.7917E-09     17.4174E-03    -22.0894E+06    -78.2917E+06    -22.1237E+06     1.10787E+06    -10.7520E-03     21.4740E-03    -10.7220E-03     929.859E-06    -10.7169E-03     21.1467E-03    -10.6870E-03     944.021E-06
             199     48.3329E-09     16.4489E-03    -18.5833E+06    -74.7893E+06    -18.5435E+06     1.15001E+06    -10.6567E-03     21.2687E-03    -10.6120E-03     874.186E-06    -10.6143E-03     20.9486E-03    -10.5693E-03     888.900E-06
             200    -6.14144E-09     15.4808E-03    -15.9840E+06    -71.6754E+06    -15.9007E+06     890.495E+03    -10.4956E-03     20.9805E-03    -10.4850E-03     776.266E-06    -10.4485E-03     20.6684E-03    -10.4374E-03     787.637E-06
             201    -16.5176E-09     14.5128E-03    -14.7644E+06    -69.2195E+06    -14.7584E+06     629.253E+03    -10.2415E-03     20.4653E-03    -10.2238E-03     593.179E-06    -10.1936E-03     20.1621E-03    -10.1758E-03     601.197E-06
             202     70.7505E-09     13.5457E-03    -15.3039E+06    -67.8204E+06    -15.2246E+06     276.446E+03    -9.85253E-03     19.6648E-03    -9.81224E-03     446.742E-06    -9.80865E-03     19.3700E-03    -9.76783E-03     450.219E-06
             203    -52.2575E-09     12.5793E-03    -17.0536E+06    -67.4155E+06    -17.0912E+06    -26.6461E+03    -9.28218E-03     18.5601E-03    -9.27790E-03     290.856E-06    -9.24493E-03     18.2725E-03    -9.24088E-03     290.441E-06
             204     41.0879E-09     11.6142E-03    -19.7725E+06    -67.4680E+06    -19.8100E+06    -53.9641E+03    -8.60703E-03     17.1775E-03    -8.57046E-03     147.071E-06    -8.57937E-03     16.8976E-03    -8.54301E-03     146.307E-06
             205     35.1946E-09     10.6505E-03    -23.3456E+06    -67.9424E+06    -23.2657E+06    -165.978E+03    -7.86843E-03     15.6569E-03    -7.78847E-03     53.3010E-06    -7.85293E-03     15.3848E-03    -7.77243E-03     51.0803E-06
             206     32.4871E-09     9.68846E-03    -26.5148E+06    -68.3593E+06    -26.4305E+06    -134.711E+03    -7.25389E-03     14.4369E-03    -7.18298E-03     88.6923E-06    -7.24903E-03     14.1719E-03    -7.17756E-03     86.8653E-06
             207     27.6232E-09     8.72708E-03    -27.6400E+06    -68.5866E+06    -27.5296E+06    -14.3844E+03    -7.07082E-03     14.1316E-03    -7.06082E-03     343.824E-06    -7.06965E-03     13.8687E-03    -7.05893E-03     343.552E-06
             208    -68.5773E-09     7.76552E-03    -26.0880E+06    -68.8401E+06    -25.9671E+06     18.0580E+03    -7.49398E-03     15.0206E-03    -7.52662E-03     596.359E-06    -7.48697E-03     14.7519E-03    -7.51881E-03     596.520E-06
             209     52.6801E-09     6.80249E-03    -22.6140E+06    -69.1445E+06    -22.4897E+06    -110.991E+03    -8.44774E-03     16.8915E-03    -8.44376E-03     771.848E-06    -8.42799E-03     16.6112E-03    -8.42316E-03     770.352E-06
             210    -28.0051E-09     5.83721E-03    -18.4931E+06    -69.6493E+06    -18.4241E+06    -270.831E+03    -9.64978E-03     19.2996E-03    -9.64987E-03     886.528E-06    -9.61460E-03     19.0049E-03    -9.61418E-03     882.971E-06
             211     4.33699E-09     4.86954E-03    -14.2842E+06    -70.5079E+06    -14.3668E+06    -290.732E+03    -10.9094E-03     21.8755E-03    -10.9660E-03     916.617E-06    -10.8578E-03     21.5644E-03    -10.9149E-03     912.800E-06
             212    -82.0724E-09     3.89927E-03    -10.4672E+06    -71.5547E+06    -10.5041E+06    -303.418E+03    -12.1595E-03     24.3780E-03    -12.2185E-03     857.121E-06    -12.0929E-03     24.0506E-03    -12.1521E-03     853.148E-06
             213     54.7068E-09     2.92683E-03    -8.65230E+06    -72.6758E+06    -8.65707E+06    -417.334E+03    -13.3011E-03     26.5974E-03    -13.2962E-03     707.383E-06    -13.2265E-03     26.2591E-03    -13.2216E-03     701.947E-06
             214    -18.5953E-09     1.95232E-03    -11.8639E+06    -73.9269E+06    -11.9656E+06    -364.274E+03    -14.1533E-03     28.2912E-03    -14.1379E-03     512.220E-06    -14.0880E-03     27.9561E-03    -14.0733E-03     507.474E-06
             215     8.69275E-09     976.497E-06    -17.2787E+06    -74.8854E+06    -17.3351E+06    -208.361E+03    -14.6720E-03     29.3267E-03    -14.6546E-03     268.048E-06    -14.6246E-03     29.0025E-03    -14.6077E-03     265.353E-06
             216     886.683E-06    -20.8167E-18    -19.3670E+06    -75.3885E+06    -19.7248E+06    -120.295E+03    -14.8771E-03     29.7124E-03    -14.8353E-03     244.197E-06    -14.8359E-03     29.3922E-03    -14.7966E-03     242.650E-06
             217     1.77335E-03    -20.8167E-18    -19.4236E+06    -76.1382E+06    -20.8181E+06    -344.687E+03    -14.9313E-03     29.7963E-03    -14.8650E-03     427.488E-06    -14.8878E-03     29.4739E-03    -14.8306E-03     423.010E-06
             218     2.65992E-03    -20.8167E-18    -19.4558E+06    -77.2559E+06    -22.5261E+06    -527.836E+03    -15.0337E-03     29.9263E-03    -14.8927E-03     647.053E-06    -14.9863E-03     29.6009E-03    -14.8651E-03     640.187E-06
             219     3.54638E-03    -20.8167E-18    -19.4600E+06    -78.6051E+06    -24.8429E+06    -779.242E+03    -15.1739E-03     30.1034E-03    -14.9295E-03     877.156E-06    -15.1212E-03     29.7746E-03    -14.9115E-03     867.020E-06
             220     4.43272E-03    -20.8167E-18    -19.1729E+06    -80.0745E+06    -27.5847E+06    -1.17475E+06    -15.3458E-03     30.3212E-03    -14.9753E-03     1.11026E-03    -15.2856E-03     29.9886E-03    -14.9694E-03     1.09499E-03
             221     5.31888E-03    -20.8167E-18    -18.4232E+06    -81.5517E+06    -30.3797E+06    -1.62747E+06    -15.5572E-03     30.5887E-03    -15.0315E-03     1.36525E-03    -15.4870E-03     30.2517E-03    -15.0384E-03     1.34410E-03
             222     6.20484E-03    -20.8167E-18    -17.2277E+06    -82.1081E+06    -33.0930E+06    -2.00837E+06    -15.8143E-03     30.9125E-03    -15.0982E-03     1.65882E-03    -15.7334E-03     30.5749E-03    -15.1196E-03     1.63271E-03
             223     7.09052E-03    -20.8167E-18    -15.6586E+06     -83.026E+06    -33.8370E+06    -2.24350E+06    -16.1279E-03     31.3166E-03    -15.1888E-03     1.95636E-03    -16.0367E-03     30.9733E-03    -15.2149E-03     1.92715E-03
             224     7.97600E-03    -20.8167E-18    -13.7243E+06    -82.5843E+06    -34.2229E+06    -2.34269E+06    -16.5003E-03     31.7948E-03    -15.2944E-03     2.33255E-03    -16.3996E-03     31.4514E-03    -15.3259E-03     2.30200E-03
             225     8.86082E-03    -20.8167E-18    -11.5159E+06     -78.065E+06    -35.9982E+06    -2.71098E+06    -16.9327E-03     32.3367E-03    -15.4040E-03     2.72261E-03    -16.8249E-03     32.0153E-03    -15.4541E-03     2.68720E-03
             226     9.74575E-03    -20.8167E-18    -9.39426E+06    -71.1864E+06    -37.9210E+06    -2.41750E+06    -17.4630E-03     32.9923E-03    -15.5294E-03     3.22032E-03    -17.3517E-03     32.7050E-03    -15.6021E-03     3.18859E-03
             227     10.6293E-03    -20.8167E-18    -5.87473E+06    -62.3513E+06    -39.8548E+06    -4.42150E+06    -18.1151E-03     33.7889E-03    -15.6739E-03     3.82007E-03    -17.9963E-03     33.5435E-03    -15.7742E-03     3.76231E-03
             228     11.5133E-03    -20.8167E-18    -540.105E+03    -49.7086E+06    -41.3014E+06    -4.81581E+06    -18.9310E-03     34.7727E-03    -15.8418E-03     4.56636E-03    -18.8017E-03     34.5849E-03    -15.9754E-03     4.50326E-03
             229     12.3950E-03    -20.8167E-18     5.38773E+06    -30.9073E+06    -38.4482E+06    -5.27056E+06    -19.9104E-03     35.9666E-03    -16.0562E-03     5.41125E-03    -19.7829E-03     35.8601E-03    -16.2115E-03     5.34195E-03
             230     13.2774E-03    -20.8167E-18     9.65885E+06     -674.14E+03    -30.5272E+06    -2.67514E+06    -21.1565E-03     37.4820E-03    -16.3254E-03     6.86361E-03    -21.0631E-03     37.5090E-03    -16.4911E-03     6.82732E-03
             231     14.1559E-03    -20.8167E-18     7.73546E+06     34.0380E+06    -16.5329E+06     2.62979E+06    -23.0730E-03     39.7673E-03    -16.6942E-03     9.96120E-03    -23.0601E-03     39.9505E-03    -16.8375E-03     9.99172E-03
             232     15.0332E-03    -20.8167E-18     5.08174E+06     57.5138E+06     9.25896E+06     597.595E+03    -25.3069E-03     42.5322E-03    -17.2253E-03     13.0597E-03    -25.3788E-03     42.7994E-03    -17.2698E-03     13.0635E-03
             233     15.9080E-03    -20.8167E-18     5.41038E+06     71.2690E+06     43.4675E+06    -828.574E+03    -26.6695E-03     44.5367E-03    -17.8672E-03     20.7567E-03    -26.8114E-03     44.8231E-03    -17.7610E-03     20.7373E-03
             234     16.7728E-03    -20.8167E-18     2.77554E+06     72.6238E+06     60.8888E+06     3.12746E+06    -23.6483E-03     42.0147E-03    -18.3664E-03     29.7479E-03    -23.8351E-03     42.2907E-03    -18.1712E-03     29.7701E-03
             235     17.6906E-03     979.732E-06    -2.39094E+06     71.7544E+06     61.0004E+06      6.0591E+06    -22.1803E-03     39.8478E-03    -17.6675E-03     23.8636E-03    -22.3951E-03     40.1324E-03    -17.4631E-03     23.9163E-03
             236     17.7098E-03     1.97231E-03    -2.82578E+06     79.3315E+06     64.8519E+06     4.67591E+06    -27.6369E-03     43.9316E-03    -16.2947E-03     13.4438E-03    -27.8738E-03     44.2530E-03    -16.0814E-03     13.4631E-03
             237     17.7201E-03     2.96877E-03    -395.171E+03     86.0569E+06     69.9313E+06     2.55642E+06    -33.3344E-03     48.9123E-03    -15.5780E-03     8.44697E-03    -33.5777E-03     49.2575E-03    -15.3525E-03     8.42231E-03
             238     17.7209E-03     3.96971E-03     1.24809E+06     89.8908E+06     72.5024E+06     1.63062E+06    -34.0913E-03     49.4081E-03    -15.3168E-03     4.66169E-03    -34.3345E-03     49.7645E-03    -15.0864E-03     4.62387E-03
             239     17.7262E-03     4.96105E-03     1.14736E+06     91.0291E+06     72.2795E+06    -966.492E+03    -33.1679E-03     48.4031E-03    -15.2352E-03     3.06551E-03    -33.4117E-03     48.7645E-03    -15.0075E-03     2.99723E-03
             240     17.7219E-03     5.96104E-03    -6.57674E+06     86.0157E+06     65.4968E+06    -1.53188E+06    -32.7980E-03     48.0801E-03    -15.2821E-03    -1.00799E-03    -33.0606E-03     48.4350E-03    -15.0698E-03    -1.07855E-03
             241     17.7215E-03     6.95204E-03    -9.52146E+06     83.9332E+06     62.0374E+06     2.45512E+06    -30.0929E-03     45.4885E-03    -15.3956E-03    -2.55817E-03    -30.3615E-03     45.8410E-03    -15.1933E-03    -2.56628E-03
             242     17.7228E-03     7.93979E-03     1.03015E+06     93.7044E+06     71.2905E+06     900.943E+03    -27.6968E-03     43.1281E-03    -15.4313E-03    -1.70131E-03    -27.9400E-03     43.5012E-03    -15.2122E-03    -1.72329E-03
             243     17.7235E-03     8.93755E-03     2.00787E+06     95.8404E+06     73.1253E+06    -2.03998E+06    -27.1261E-03     42.5805E-03    -15.4544E-03     1.42763E-03    -27.3720E-03     42.9620E-03    -15.2306E-03     1.36950E-03
             244     17.7205E-03     9.92437E-03    -1.17110E+06     92.9896E+06     69.5014E+06     1.85314E+06    -25.6601E-03     41.1523E-03    -15.4922E-03     2.08270E-03    -25.9129E-03     41.5293E-03    -15.2778E-03     2.07946E-03
             245     17.7252E-03     10.9094E-03     943.672E+03     94.8452E+06     71.1337E+06     578.358E+03    -24.5888E-03     40.0730E-03    -15.4842E-03     791.990E-06    -24.8346E-03     40.4527E-03    -15.2674E-03     775.751E-06
             246     17.7214E-03     11.8995E-03    -970.595E+03     94.1756E+06     70.0847E+06    -180.087E+03    -24.9959E-03     40.4481E-03    -15.4522E-03     1.45110E-03    -25.2494E-03     40.8295E-03    -15.2369E-03     1.42499E-03
             247     17.7256E-03     12.8869E-03    -1.32900E+06     94.2345E+06     69.6555E+06     771.975E+03    -24.1676E-03     39.6012E-03    -15.4336E-03     2.25511E-03    -24.4233E-03     39.9848E-03    -15.2200E-03     2.24324E-03
             248     17.7236E-03     13.8731E-03    -2.12816E+06     94.4468E+06     69.2508E+06    -560.767E+03    -24.1186E-03     39.5236E-03    -15.4050E-03     3.52164E-03    -24.3793E-03     39.9114E-03    -15.1926E-03     3.49325E-03
             249     17.7253E-03     14.8627E-03    -2.39065E+06     94.8434E+06     69.0501E+06     548.035E+03    -23.8630E-03     39.2613E-03    -15.3983E-03     3.88455E-03    -24.1262E-03     39.6525E-03    -15.1871E-03     3.87191E-03
             250     17.7247E-03     15.8471E-03    -2.31539E+06     95.2485E+06     69.0183E+06    -92.1830E+03    -22.7868E-03     38.1904E-03    -15.4036E-03     5.20702E-03    -23.0514E-03     38.5848E-03    -15.1933E-03     5.18941E-03
             251     17.7257E-03     16.8342E-03    -2.52742E+06     95.5300E+06     68.8133E+06     100.979E+03    -22.5590E-03     37.9595E-03    -15.4006E-03     5.50132E-03    -22.8253E-03     38.3565E-03    -15.1914E-03     5.48792E-03
             252     17.7249E-03     17.8189E-03    -905.610E+03     97.1538E+06     69.8942E+06     362.096E+03    -21.6143E-03     37.0231E-03    -15.4089E-03     5.88001E-03    -21.8769E-03     37.4248E-03    -15.1990E-03     5.87278E-03
             253     17.7267E-03     18.8025E-03    -2.24517E+06     96.4068E+06     68.7449E+06    -1.18372E+06    -21.5824E-03     36.9838E-03    -15.4014E-03     6.93115E-03    -21.8498E-03     37.3862E-03    -15.1942E-03     6.90519E-03
             254     17.7243E-03     19.7894E-03    -3.43385E+06     95.5586E+06     67.8364E+06     1.12547E+06    -21.1831E-03     36.6054E-03    -15.4223E-03     7.19671E-03    -21.4541E-03     37.0068E-03    -15.2167E-03     7.20301E-03
             255     17.7264E-03     20.7719E-03    -717.505E+03     98.0380E+06     69.6474E+06     1.95140E+06    -19.0562E-03     34.5119E-03    -15.4557E-03     7.77184E-03    -19.3204E-03     34.9196E-03    -15.2486E-03     7.79430E-03
             256     17.7261E-03     21.7511E-03    -853.554E+03     98.5196E+06     69.8521E+06    -1.72523E+06    -18.9636E-03     34.4038E-03    -15.4402E-03     7.74348E-03    -19.2299E-03     34.8143E-03    -15.2325E-03     7.71942E-03
             257     17.7259E-03     22.7363E-03    -2.55685E+06     97.4962E+06     68.7613E+06    -298.273E+03    -19.5017E-03     34.9349E-03    -15.4332E-03     7.88729E-03    -19.7738E-03     35.3447E-03    -15.2270E-03     7.88142E-03
             258     17.7261E-03     23.7174E-03    -1.80652E+06     98.3535E+06     69.2841E+06     1.36552E+06    -18.6457E-03     34.0953E-03    -15.4497E-03     8.66794E-03    -18.9163E-03     34.5077E-03    -15.2432E-03     8.68614E-03
             259     17.7263E-03     24.6987E-03    -1.26893E+06     99.3566E+06     69.7278E+06     250.151E+03    -17.9581E-03     33.4162E-03    -15.4581E-03     8.23077E-03    -18.2279E-03     33.8320E-03    -15.2517E-03     8.23711E-03
             260     17.7263E-03     25.6791E-03    -987.704E+03     100.158E+06     70.1731E+06    -725.046E+03    -17.4612E-03     32.9271E-03    -15.4659E-03     8.49494E-03    -17.7324E-03     33.3469E-03    -15.2589E-03     8.49087E-03
             261     17.7265E-03     26.6600E-03    -2.29309E+06     99.3061E+06     69.1771E+06    -763.929E+03    -17.5828E-03     33.0451E-03    -15.4623E-03     9.47479E-03    -17.8586E-03     33.4647E-03    -15.2571E-03     9.47088E-03
             262     17.7260E-03     27.6411E-03    -2.99560E+06     98.7478E+06     68.6078E+06     1.00799E+06    -17.3428E-03     32.8201E-03    -15.4773E-03     9.29067E-03    -17.6198E-03     33.2381E-03    -15.2731E-03     9.31075E-03
             263     17.7261E-03     28.6210E-03    -1.39060E+06     100.303E+06     69.5602E+06     1.38239E+06    -15.9181E-03     31.4227E-03    -15.5045E-03     9.26573E-03    -16.1907E-03     31.8447E-03    -15.3002E-03     9.29402E-03
             264     17.7271E-03     29.5975E-03    -1.21749E+06     100.906E+06     69.9552E+06    -662.585E+03    -16.1321E-03     31.6220E-03    -15.4899E-03     9.93226E-03    -16.4063E-03     32.0472E-03    -15.2846E-03     9.93431E-03
             265     17.7257E-03     30.5800E-03    -1.24672E+06     101.140E+06     70.1320E+06    -579.967E+03    -16.4595E-03     31.9442E-03    -15.4847E-03     9.18590E-03    -16.7342E-03     32.3701E-03    -15.2789E-03     9.18837E-03
             266     17.7272E-03     31.5570E-03    -2.20696E+06     100.415E+06     69.3132E+06    -469.343E+03    -16.0540E-03     31.5484E-03    -15.4944E-03     9.75454E-03    -16.3313E-03     31.9734E-03    -15.2903E-03     9.76007E-03
             267     17.7255E-03     32.5371E-03    -2.21669E+06     100.367E+06     69.0636E+06     1.05616E+06    -15.8562E-03     31.3533E-03    -15.4971E-03     9.54121E-03    -16.1324E-03     31.7777E-03    -15.2941E-03     9.56696E-03
             268     17.7276E-03     33.5163E-03    -1.05876E+06     101.664E+06     70.0256E+06     461.188E+03    -15.0613E-03     30.5697E-03    -15.5084E-03     10.2699E-03    -15.3361E-03     30.9987E-03    -15.3042E-03     10.2901E-03
             269     17.7259E-03     34.4926E-03    -1.20923E+06     101.856E+06     70.0492E+06    -482.383E+03    -15.2598E-03     30.7556E-03    -15.4957E-03     9.79710E-03    -15.5360E-03     31.1859E-03    -15.2914E-03     9.80472E-03
             270     17.7277E-03     35.4717E-03    -90.9968E+03     103.008E+06     71.0185E+06     -95.836E+03    -15.2698E-03     30.7589E-03    -15.4891E-03     8.88008E-03    -15.5425E-03     31.1910E-03    -15.2833E-03     8.89239E-03
             271     17.7263E-03     36.4499E-03    -2.33822E+06     101.350E+06     69.6005E+06    -503.712E+03    -15.6198E-03     31.1108E-03    -15.4910E-03     9.80417E-03    -15.8999E-03     31.5405E-03    -15.2866E-03     9.81153E-03
             272     17.7265E-03     37.4294E-03    -4.67679E+06     99.6006E+06     67.6316E+06     382.549E+03    -16.1184E-03     31.6119E-03    -15.4935E-03     10.0118E-03    -16.4055E-03     32.0398E-03    -15.2930E-03     10.0299E-03
             273     17.7262E-03     38.4090E-03    -3.04183E+06     101.354E+06     69.0282E+06     334.005E+03    -15.0786E-03     30.5992E-03    -15.5207E-03     10.8393E-03    -15.3630E-03     31.0326E-03    -15.3181E-03     10.8603E-03
             274     17.7267E-03     39.3869E-03    -1.19678E+06     103.000E+06     70.7749E+06     95.4859E+03    -14.1947E-03     29.7385E-03    -15.5438E-03     11.2551E-03    -14.4748E-03     30.1748E-03    -15.3376E-03     11.2752E-03
             275     17.7262E-03     40.3622E-03    -936.147E+03     103.061E+06     70.9763E+06     64.1165E+03    -14.5166E-03     30.0484E-03    -15.5318E-03     10.5123E-03    -14.7943E-03     30.4828E-03    -15.3250E-03     10.5298E-03
             276     17.7269E-03     41.3408E-03    -1.50716E+06     102.665E+06     70.4048E+06    -572.966E+03    -15.1107E-03     30.6228E-03    -15.5121E-03     9.44134E-03    -15.3889E-03     31.0560E-03    -15.3068E-03     9.44861E-03
             277     17.7262E-03     42.3187E-03    -1.68884E+06     102.726E+06     70.4065E+06    -391.211E+03    -15.2167E-03     30.7304E-03    -15.5137E-03     9.52213E-03    -15.4963E-03     31.1644E-03    -15.3082E-03     9.53189E-03
             278     17.7267E-03     43.2978E-03    -1.85483E+06     102.750E+06     70.3660E+06     312.900E+03    -14.9615E-03     30.4875E-03    -15.5259E-03     9.91360E-03    -15.2420E-03     30.9220E-03    -15.3204E-03     9.93327E-03
             279     17.7260E-03     44.2754E-03    -1.88279E+06     102.634E+06     70.2245E+06     979.254E+03    -14.5608E-03     30.0994E-03    -15.5386E-03     9.55897E-03    -14.8402E-03     30.5328E-03    -15.3336E-03     9.58793E-03
             280     17.7267E-03     45.2515E-03    -1.17903E+06     103.239E+06     70.6308E+06     649.475E+03    -14.3980E-03     29.9358E-03    -15.5378E-03     8.90477E-03    -14.6747E-03     30.3700E-03    -15.3326E-03     8.92924E-03
             281     17.7264E-03     46.2300E-03    -1.62013E+06     103.384E+06     70.4780E+06    -699.738E+03    -14.6564E-03     30.1831E-03    -15.5267E-03     9.51140E-03    -14.9366E-03     30.6202E-03    -15.3219E-03     9.51860E-03
             282     17.7266E-03     47.2086E-03    -1.68630E+06     103.715E+06     70.5238E+06     27.3539E+03    -14.7483E-03     30.2710E-03    -15.5227E-03     10.2599E-03    -15.0303E-03     30.7106E-03    -15.3180E-03     10.2770E-03
             283     17.7266E-03     48.1859E-03    -2.01455E+06     103.529E+06     70.3805E+06    -470.302E+03    -14.8132E-03     30.3392E-03    -15.5260E-03     10.1226E-03    -15.0960E-03     30.7783E-03    -15.3213E-03     10.1331E-03
             284     17.7260E-03     49.1639E-03    -2.65062E+06     103.061E+06     69.6793E+06    -89.2399E+03    -14.7871E-03     30.3118E-03    -15.5247E-03     9.61426E-03    -15.0710E-03     30.7500E-03    -15.3219E-03     9.62947E-03
             285     17.7271E-03     50.1409E-03    -945.792E+03     104.650E+06     71.2913E+06     198.018E+03    -14.5273E-03     30.0542E-03    -15.5269E-03     9.37986E-03    -14.8064E-03     30.4948E-03    -15.3208E-03     9.39874E-03
             286     17.7260E-03     51.1196E-03    -2.25550E+06     103.596E+06     70.1739E+06    -29.9207E+03    -14.7693E-03     30.2967E-03    -15.5273E-03     9.56954E-03    -15.0520E-03     30.7356E-03    -15.3234E-03     9.58506E-03
             287     17.7265E-03     52.0965E-03    -2.76589E+06     103.356E+06     69.7600E+06     1.06899E+06    -14.9094E-03     30.4385E-03    -15.5291E-03     9.67841E-03    -15.1940E-03     30.8779E-03    -15.3262E-03     9.70796E-03
             288     17.7261E-03     53.0758E-03    -891.097E+03     105.381E+06     71.2297E+06     460.568E+03    -14.2030E-03     29.7393E-03    -15.5363E-03     9.45382E-03    -14.4833E-03     30.1840E-03    -15.3317E-03     9.47707E-03
             289     17.7273E-03     54.0508E-03    -563.762E+03     105.967E+06     71.7353E+06    -1.14383E+06    -14.3212E-03     29.8485E-03    -15.5273E-03     9.78945E-03    -14.6017E-03     30.2952E-03    -15.3215E-03     9.79211E-03
             290     17.7259E-03     55.0302E-03    -2.28135E+06     104.452E+06     70.3356E+06    -712.401E+03    -14.9368E-03     30.4529E-03    -15.5162E-03     9.35385E-03    -15.2213E-03     30.8963E-03    -15.3126E-03     9.36043E-03
             291     17.7270E-03     56.0078E-03    -2.79205E+06     104.131E+06     69.8490E+06     695.546E+03    -14.7037E-03     30.2325E-03    -15.5289E-03     9.86623E-03    -14.9901E-03     30.6762E-03    -15.3266E-03     9.89180E-03
             292     886.161E-06     57.4005E-03    -32.3755E+06    -96.0633E+06    -31.5310E+06     14.3770E+03    -15.5353E-03     31.0753E-03    -15.5400E-03     3.51038E-03    -15.5122E-03     30.6877E-03    -15.5115E-03     3.51000E-03
             293     1.77228E-03     57.4051E-03    -31.2449E+06    -93.0789E+06    -28.4080E+06     47.5948E+03    -15.5261E-03     31.0713E-03    -15.5452E-03     6.47170E-03    -15.5063E-03     30.6925E-03    -15.5070E-03     6.47124E-03
             294     2.65849E-03     57.4125E-03    -29.5531E+06    -88.6196E+06    -23.7073E+06     30.7248E+03    -15.5148E-03     31.0675E-03    -15.5527E-03     9.61362E-03    -15.4999E-03     30.7018E-03    -15.4999E-03     9.61236E-03
             295     3.54464E-03     57.4230E-03    -27.3565E+06    -83.4976E+06    -18.0045E+06     17.3169E+03    -15.5049E-03     31.0666E-03    -15.5616E-03     12.8138E-03    -15.4949E-03     30.7152E-03    -15.4909E-03     12.8117E-03
             296     4.43089E-03     57.4363E-03    -24.8839E+06    -78.3219E+06    -12.0830E+06    -48.6474E+03    -15.5001E-03     31.0700E-03    -15.5699E-03     16.0611E-03    -15.4941E-03     30.7327E-03    -15.4807E-03     16.0574E-03
             297     5.31709E-03     57.4528E-03    -22.3146E+06    -73.3790E+06    -6.48523E+06     31.1417E+03    -15.5046E-03     31.0807E-03    -15.5761E-03     19.3561E-03    -15.5014E-03     30.7566E-03    -15.4698E-03     19.3524E-03
             298     6.20337E-03     57.4723E-03    -19.8366E+06    -68.5878E+06    -1.65691E+06    -53.4063E+03    -15.5170E-03     31.0958E-03    -15.5788E-03     22.7032E-03    -15.5159E-03     30.7857E-03    -15.4589E-03     22.6973E-03
             299     7.08961E-03     57.4949E-03    -17.3569E+06    -64.0677E+06     2.09958E+06    -129.906E+03    -15.5378E-03     31.1143E-03    -15.5765E-03     26.1041E-03    -15.5371E-03     30.8185E-03    -15.4480E-03     26.0958E-03
             300     7.97593E-03     57.5208E-03    -14.9425E+06    -61.0044E+06     4.93691E+06    -49.6025E+03    -15.5742E-03     31.1464E-03    -15.5722E-03     29.5273E-03    -15.5710E-03     30.8593E-03    -15.4374E-03     29.5183E-03
             301     8.86221E-03     57.5498E-03    -12.8827E+06    -57.6791E+06     6.12949E+06    -75.9088E+03    -15.6219E-03     31.1826E-03    -15.5607E-03     32.9691E-03    -15.6166E-03     30.9090E-03    -15.4277E-03     32.9575E-03
             302     9.74853E-03     57.5820E-03    -10.9695E+06    -52.6719E+06     6.89858E+06     65.8952E+03    -15.6828E-03     31.2289E-03    -15.5461E-03     36.4111E-03    -15.6786E-03     30.9788E-03    -15.4193E-03     36.3987E-03
             303     10.6348E-03     57.6174E-03    -9.42706E+06    -50.2082E+06     6.74078E+06    -5.15004E+03    -15.7474E-03     31.2799E-03    -15.5324E-03     39.8140E-03    -15.7423E-03     31.0435E-03    -15.4122E-03     39.7973E-03
             304     11.5211E-03     57.6561E-03    -8.24915E+06    -45.6731E+06     4.39250E+06     168.311E+03    -15.7981E-03     31.3038E-03    -15.5057E-03     43.0337E-03    -15.7952E-03     31.0967E-03    -15.4056E-03     43.0152E-03
             305     12.4076E-03     57.6974E-03    -7.34625E+06    -33.0596E+06     4.69248E+06     186.274E+03    -15.8071E-03     31.2869E-03    -15.4798E-03     46.2711E-03    -15.8260E-03     31.1488E-03    -15.3977E-03     46.2483E-03
             306     13.2935E-03     57.7421E-03    -6.34038E+06    -20.8223E+06     4.56139E+06     474.356E+03    -15.8182E-03     31.2681E-03    -15.4499E-03     49.8262E-03    -15.8620E-03     31.2023E-03    -15.3878E-03     49.8024E-03
             307     14.1808E-03     57.7900E-03    -5.73841E+06    -7.03041E+06     620.294E+03     497.649E+03    -15.9110E-03     31.3103E-03    -15.3994E-03     54.0643E-03    -15.9894E-03     31.3416E-03    -15.3777E-03     54.0369E-03
             308     15.0662E-03     57.8429E-03    -5.89423E+06     26.6101E+06    -1.66721E+06    -250.279E+03    -15.9297E-03     31.2587E-03    -15.3290E-03     60.0222E-03    -16.0987E-03     31.5061E-03    -15.3674E-03     59.9910E-03
             309     15.9542E-03     57.9014E-03    -4.75640E+06     81.1289E+06     13.4769E+06     191.371E+03    -15.5785E-03     30.8858E-03    -15.3073E-03     60.2895E-03    -15.9005E-03     31.4398E-03    -15.3506E-03     60.2998E-03
             310     16.8377E-03     57.9546E-03    -2.75792E+06     108.342E+06     49.2638E+06     141.173E+03    -14.9762E-03     30.3978E-03    -15.4216E-03     33.0160E-03    -15.3230E-03     30.9765E-03    -15.3283E-03     33.0440E-03
             311     886.128E-06     58.3784E-03    -32.3791E+06     -95.988E+06    -31.6227E+06     35.8084E+03    -15.5355E-03     31.0770E-03    -15.5416E-03     3.51106E-03    -15.5124E-03     30.6900E-03    -15.5136E-03     3.51096E-03
             312     1.77232E-03     58.3829E-03    -31.2614E+06    -92.9490E+06    -28.4055E+06     2.45638E+03    -15.5273E-03     31.0736E-03    -15.5462E-03     6.47099E-03    -15.5078E-03     30.6954E-03    -15.5082E-03     6.46995E-03
             313     2.65845E-03     58.3904E-03    -29.5158E+06    -88.4704E+06    -23.6548E+06    -8.88939E+03    -15.5156E-03     31.0695E-03    -15.5539E-03     9.61184E-03    -15.5008E-03     30.7045E-03    -15.5011E-03     9.61007E-03
             314     3.54467E-03     58.4008E-03    -27.3188E+06    -83.3260E+06    -17.9396E+06    -62.5393E+03    -15.5062E-03     31.0691E-03    -15.5629E-03     12.8094E-03    -15.4964E-03     30.7185E-03    -15.4921E-03     12.8063E-03
             315     4.43085E-03     58.4142E-03    -24.8573E+06    -78.2179E+06    -11.9735E+06    -10.2787E+03    -15.5030E-03     31.0747E-03    -15.5717E-03     16.0536E-03    -15.4972E-03     30.7376E-03    -15.4821E-03     16.0504E-03
             316     5.31711E-03     58.4306E-03    -22.2502E+06    -73.3664E+06    -6.41918E+06     22.3017E+03    -15.5073E-03     31.0853E-03    -15.5780E-03     19.3485E-03    -15.5039E-03     30.7611E-03    -15.4715E-03     19.3448E-03
             317     6.20333E-03     58.4501E-03    -19.5948E+06    -68.3406E+06    -1.54186E+06     56.0228E+03    -15.5204E-03     31.1009E-03    -15.5805E-03     22.6944E-03    -15.5186E-03     30.7914E-03    -15.4607E-03     22.6899E-03
             318     7.08963E-03     58.4727E-03    -17.1860E+06    -63.8163E+06     2.29372E+06    -101.103E+03    -15.5430E-03     31.1220E-03    -15.5790E-03     26.0864E-03    -15.5421E-03     30.8268E-03    -15.4500E-03     26.0784E-03
             319     7.97589E-03     58.4986E-03    -14.8890E+06    -61.0334E+06     4.88288E+06    -164.289E+03    -15.5799E-03     31.1543E-03    -15.5744E-03     29.5074E-03    -15.5764E-03     30.8671E-03    -15.4399E-03     29.4969E-03
             320     8.86220E-03     58.5276E-03    -12.8302E+06    -57.5956E+06     6.17695E+06      2.7765E+03    -15.6359E-03     31.1998E-03    -15.5639E-03     32.9545E-03    -15.6306E-03     30.9265E-03    -15.4309E-03     32.9439E-03
             321     9.74848E-03     58.5598E-03    -11.1964E+06    -52.6633E+06     6.66582E+06    -55.0344E+03    -15.6909E-03     31.2401E-03    -15.5492E-03     36.4100E-03    -15.6876E-03     30.9908E-03    -15.4233E-03     36.3960E-03
             322     10.6348E-03     58.5953E-03    -9.74191E+06    -49.9770E+06     6.57907E+06     11.9275E+03    -15.7535E-03     31.2896E-03    -15.5361E-03     39.7931E-03    -15.7501E-03     31.0551E-03    -15.4166E-03     39.7766E-03
             323     11.5212E-03     58.6337E-03    -8.51636E+06    -45.9285E+06     4.01931E+06     35.6169E+03    -15.8078E-03     31.3172E-03    -15.5093E-03     43.0011E-03    -15.8054E-03     31.1098E-03    -15.4103E-03     42.9809E-03
             324     12.4072E-03     58.6753E-03    -7.52444E+06    -33.1925E+06     4.18223E+06     229.515E+03    -15.8217E-03     31.3047E-03    -15.4830E-03     46.2410E-03    -15.8406E-03     31.1669E-03    -15.4031E-03     46.2187E-03
             325     13.2941E-03     58.7196E-03    -6.78274E+06    -20.6195E+06     4.15186E+06     174.373E+03    -15.8980E-03     31.3544E-03    -15.4564E-03     49.8370E-03    -15.9439E-03     31.2910E-03    -15.3959E-03     49.8091E-03
             326     14.1795E-03     58.7680E-03    -5.99402E+06    -7.19232E+06    -94.4893E+03     581.255E+03    -15.8941E-03     31.3004E-03    -15.4063E-03     53.9075E-03    -15.9725E-03     31.3323E-03    -15.3876E-03     53.8813E-03
             327     15.0672E-03     58.8201E-03    -5.99669E+06     27.5112E+06    -2.11168E+06     580.360E+03    -15.8622E-03     31.1951E-03    -15.3329E-03     59.7311E-03    -16.0319E-03     31.4473E-03    -15.3747E-03     59.7108E-03
             328     15.9522E-03     58.8793E-03    -5.79902E+06     81.4623E+06     13.4286E+06    -1.07120E+06    -15.6437E-03     30.9595E-03    -15.3158E-03     59.5357E-03    -15.9711E-03     31.5165E-03    -15.3584E-03     59.5297E-03
             329     16.8427E-03     58.9315E-03    -3.53409E+06     107.977E+06     49.5430E+06    -368.320E+03    -15.0784E-03     30.5161E-03    -15.4377E-03     32.2885E-03    -15.4293E-03     31.0941E-03    -15.3414E-03     32.3100E-03
             330     886.164E-06     59.3562E-03    -32.3517E+06    -95.8379E+06    -31.5731E+06    -8.98453E+03    -15.5362E-03     31.0789E-03    -15.5427E-03     3.50934E-03    -15.5133E-03     30.6924E-03    -15.5147E-03     3.50866E-03
             331     1.77228E-03     59.3608E-03    -31.2188E+06    -92.7696E+06    -28.3550E+06    -40.3087E+03    -15.5283E-03     31.0755E-03    -15.5472E-03     6.46610E-03    -15.5088E-03     30.6981E-03    -15.5092E-03     6.46451E-03
             332     2.65848E-03     59.3682E-03    -29.5005E+06    -88.3092E+06    -23.6364E+06    -67.7487E+03    -15.5171E-03     31.0720E-03    -15.5549E-03     9.60653E-03    -15.5025E-03     30.7077E-03    -15.5022E-03     9.60401E-03
             333     3.54463E-03     59.3786E-03    -27.3514E+06    -83.1480E+06    -17.9417E+06    -64.4411E+03    -15.5079E-03     31.0719E-03    -15.5640E-03     12.8033E-03    -15.4985E-03     30.7222E-03    -15.4935E-03     12.8002E-03
             334     4.43087E-03     59.3920E-03    -24.8809E+06    -78.2335E+06    -12.0244E+06    -17.0267E+03    -15.5060E-03     31.0791E-03    -15.5731E-03     16.0471E-03    -15.5002E-03     30.7420E-03    -15.4837E-03     16.0437E-03
             335     5.31707E-03     59.4084E-03    -22.2620E+06    -73.2221E+06    -6.43565E+06     26.4025E+03    -15.5104E-03     31.0900E-03    -15.5796E-03     19.3389E-03    -15.5072E-03     30.7665E-03    -15.4733E-03     19.3351E-03
             336     6.20335E-03     59.4279E-03    -19.6220E+06    -68.2421E+06    -1.60800E+06    -37.0561E+03    -15.5252E-03     31.1074E-03    -15.5822E-03     22.6869E-03    -15.5236E-03     30.7985E-03    -15.4629E-03     22.6812E-03
             337     7.08958E-03     59.4505E-03    -17.0469E+06    -63.5382E+06     2.29553E+06    -7.71485E+03    -15.5522E-03     31.1334E-03    -15.5811E-03     26.0733E-03    -15.5510E-03     30.8394E-03    -15.4528E-03     26.0666E-03
             338     7.97588E-03     59.4763E-03    -14.8903E+06    -60.8642E+06     4.91222E+06    -92.1046E+03    -15.5951E-03     31.1732E-03    -15.5781E-03     29.4900E-03    -15.5918E-03     30.8868E-03    -15.4437E-03     29.4804E-03
             339     8.86215E-03     59.5053E-03    -12.8534E+06    -57.7013E+06     5.96099E+06    -85.2579E+03    -15.6412E-03     31.2087E-03    -15.5675E-03     32.9487E-03    -15.6355E-03     30.9353E-03    -15.4354E-03     32.9370E-03
             340     9.74843E-03     59.5376E-03    -11.0337E+06    -52.4550E+06     6.67856E+06     74.4569E+03    -15.6930E-03     31.2462E-03    -15.5532E-03     36.4084E-03    -15.6892E-03     30.9976E-03    -15.4277E-03     36.3961E-03
             341     10.6348E-03     59.5730E-03    -9.56825E+06    -49.8379E+06     6.65180E+06    -81.4465E+03    -15.7633E-03     31.3038E-03    -15.5405E-03     39.8011E-03    -15.7593E-03     31.0696E-03    -15.4211E-03     39.7834E-03
             342     11.5209E-03     59.6117E-03    -8.37259E+06    -45.8509E+06     4.05424E+06    -72.5632E+03    -15.8163E-03     31.3303E-03    -15.5140E-03     42.9824E-03    -15.8133E-03     31.1231E-03    -15.4151E-03     42.9608E-03
             343     12.4075E-03     59.6528E-03    -7.23369E+06    -33.4840E+06     4.16737E+06     72.2059E+03    -15.8417E-03     31.3300E-03    -15.4883E-03     46.2481E-03    -15.8586E-03     31.1904E-03    -15.4085E-03     46.2237E-03
             344     13.2933E-03     59.6977E-03    -6.21835E+06    -20.2823E+06     4.44133E+06     168.585E+03    -15.8964E-03     31.3584E-03    -15.4620E-03     49.9698E-03    -15.9404E-03     31.2954E-03    -15.4013E-03     49.9419E-03
             345     14.1804E-03     59.7457E-03    -5.55923E+06    -7.78995E+06    -182.941E+03    -36.5485E+03    -15.9288E-03     31.3406E-03    -15.4118E-03     53.9746E-03    -16.0040E-03     31.3690E-03    -15.3934E-03     53.9404E-03
             346     15.0657E-03     59.7977E-03    -4.01397E+06     27.7360E+06    -1.39331E+06     323.161E+03    -15.8451E-03     31.1837E-03    -15.3386E-03     60.0417E-03    -16.0066E-03     31.4335E-03    -15.3800E-03     60.0183E-03
             347     15.9536E-03     59.8574E-03    -4.56169E+06     82.9912E+06     16.7463E+06     887.197E+03    -15.5855E-03     30.9154E-03    -15.3299E-03     60.6424E-03    -15.9122E-03     31.4719E-03    -15.3599E-03     60.6619E-03
             348     16.8355E-03     59.9095E-03    -4.52983E+06     107.795E+06     51.1585E+06    -7.59744E+03    -14.9826E-03     30.4261E-03    -15.4435E-03     33.7779E-03    -15.3393E-03     31.0010E-03    -15.3375E-03     33.8045E-03
             349     886.119E-06     60.3340E-03    -32.2960E+06    -95.6202E+06    -31.5181E+06    -27.9066E+03    -15.5397E-03     31.0826E-03    -15.5429E-03     3.50442E-03    -15.5168E-03     30.6971E-03    -15.5151E-03     3.50349E-03
             350     1.77231E-03     60.3386E-03    -31.1932E+06     -92.598E+06    -28.3790E+06    -48.2386E+03    -15.5291E-03     31.0776E-03    -15.5486E-03     6.46341E-03    -15.5097E-03     30.7011E-03    -15.5110E-03     6.46171E-03
             351     2.65844E-03     60.3460E-03    -29.5355E+06    -88.1308E+06    -23.6849E+06    -60.5182E+03    -15.5186E-03     31.0746E-03    -15.5560E-03     9.60073E-03    -15.5043E-03     30.7113E-03    -15.5038E-03     9.59829E-03
             352     3.54466E-03     60.3564E-03    -27.4150E+06    -83.0693E+06    -18.0451E+06    -33.8970E+03    -15.5101E-03     31.0753E-03    -15.5652E-03     12.7977E-03    -15.5009E-03     30.7262E-03    -15.4952E-03     12.7949E-03
             353     4.43083E-03     60.3698E-03    -25.0025E+06    -78.1517E+06    -12.1614E+06    -2.35581E+03    -15.5083E-03     31.0826E-03    -15.5744E-03     16.0394E-03    -15.5030E-03     30.7464E-03    -15.4856E-03     16.0363E-03
             354     5.31709E-03     60.3862E-03    -22.3824E+06    -73.0696E+06    -6.60530E+06    -34.0539E+03    -15.5156E-03     31.0966E-03    -15.5810E-03     19.3327E-03    -15.5130E-03     30.7743E-03    -15.4757E-03     19.3282E-03
             355     6.20330E-03     60.4057E-03    -19.7680E+06    -68.0384E+06    -1.74675E+06    -53.6657E+03    -15.5302E-03     31.1145E-03    -15.5843E-03     22.6778E-03    -15.5295E-03     30.8071E-03    -15.4657E-03     22.6719E-03
             356     7.08958E-03     60.4283E-03    -17.3183E+06    -63.5606E+06     2.06801E+06    -34.9441E+03    -15.5590E-03     31.1428E-03    -15.5838E-03     26.0729E-03    -15.5588E-03     30.8494E-03    -15.4562E-03     26.0658E-03
             357     7.97583E-03     60.4542E-03    -14.9384E+06    -60.5503E+06     4.88007E+06     11.2247E+03    -15.6052E-03     31.1868E-03    -15.5815E-03     29.4952E-03    -15.6026E-03     30.9021E-03    -15.4477E-03     29.4870E-03
             358     8.86208E-03     60.4832E-03    -12.9571E+06    -57.5608E+06     5.96608E+06    -127.630E+03    -15.6492E-03     31.2212E-03    -15.5721E-03     32.9390E-03    -15.6442E-03     30.9486E-03    -15.4400E-03     32.9268E-03
             359     9.74843E-03     60.5153E-03    -11.1117E+06    -52.5243E+06     6.49771E+06    -87.0668E+03    -15.6891E-03     31.2460E-03    -15.5569E-03     36.4142E-03    -15.6853E-03     30.9974E-03    -15.4321E-03     36.3998E-03
             360     10.6346E-03     60.5509E-03    -9.57750E+06    -49.4713E+06     6.68081E+06    -24.1735E+03    -15.7485E-03     31.2919E-03    -15.5434E-03     39.8224E-03    -15.7451E-03     31.0595E-03    -15.4244E-03     39.8055E-03
             361     11.5211E-03     60.5893E-03    -8.34838E+06    -45.7825E+06     4.16567E+06    -223.072E+03    -15.8263E-03     31.3435E-03    -15.5172E-03     43.0173E-03    -15.8234E-03     31.1364E-03    -15.4179E-03     42.9937E-03
             362     12.4071E-03     60.6308E-03    -7.38000E+06    -33.4175E+06     4.15653E+06    -240.329E+03    -15.8321E-03     31.3231E-03    -15.4910E-03     46.2910E-03    -15.8499E-03     31.1840E-03    -15.4111E-03     46.2626E-03
             363     13.2940E-03     60.6752E-03    -6.35398E+06    -20.5086E+06     4.38853E+06    -69.8489E+03    -15.8286E-03     31.2907E-03    -15.4621E-03     50.0469E-03    -15.8727E-03     31.2267E-03    -15.4012E-03     50.0161E-03
             364     14.1797E-03     60.7236E-03    -5.47744E+06    -6.95589E+06     311.646E+03    -221.699E+03    -15.8992E-03     31.3089E-03    -15.4097E-03     54.0221E-03    -15.9758E-03     31.3405E-03    -15.3901E-03     53.9855E-03
             365     15.0671E-03     60.7754E-03    -6.10227E+06     26.4804E+06    -2.23923E+06    -62.5412E+03    -15.8460E-03     31.1817E-03    -15.3357E-03     59.8007E-03    -16.0148E-03     31.4294E-03    -15.3765E-03     59.7721E-03
             366     15.9529E-03     60.8343E-03    -4.04530E+06     82.2481E+06     14.6869E+06     1.41317E+06    -15.2894E-03     30.5987E-03    -15.3094E-03     60.0163E-03    -15.6068E-03     31.1511E-03    -15.3493E-03     60.0423E-03
             367     16.8450E-03     60.8876E-03    -2.30557E+06     109.543E+06     50.7185E+06     719.047E+03    -15.0432E-03     30.4626E-03    -15.4195E-03     33.2538E-03    -15.3880E-03     31.0410E-03    -15.3214E-03     33.2895E-03
             368     886.164E-06     61.3118E-03    -32.3850E+06    -95.4451E+06    -31.6098E+06    -22.3634E+03    -15.5397E-03     31.0839E-03    -15.5442E-03     3.49985E-03    -15.5174E-03     30.6995E-03    -15.5169E-03     3.49899E-03
             369     1.77227E-03     61.3164E-03    -31.3061E+06    -92.4407E+06    -28.4636E+06    -12.7670E+03    -15.5307E-03     31.0802E-03    -15.5495E-03     6.46142E-03    -15.5120E-03     30.7047E-03    -15.5124E-03     6.46019E-03
             370     2.65848E-03     61.3238E-03    -29.6423E+06    -87.9775E+06    -23.8106E+06    -14.6382E+03    -15.5207E-03     31.0778E-03    -15.5571E-03     9.59781E-03    -15.5070E-03     30.7156E-03    -15.5056E-03     9.59597E-03
             371     3.54462E-03     61.3342E-03    -27.5361E+06    -82.9862E+06    -18.1914E+06        -979.455    -15.5129E-03     31.0795E-03    -15.5666E-03     12.7916E-03    -15.5042E-03     30.7312E-03    -15.4973E-03     12.7893E-03
             372     4.43086E-03     61.3476E-03    -25.0793E+06    -78.0394E+06    -12.3077E+06     14.1529E+03    -15.5122E-03     31.0882E-03    -15.5760E-03     16.0339E-03    -15.5072E-03     30.7529E-03    -15.4880E-03     16.0310E-03
             373     5.31704E-03     61.3640E-03    -22.4993E+06    -72.8305E+06    -6.73912E+06    -52.8641E+03    -15.5194E-03     31.1023E-03    -15.5829E-03     19.3301E-03    -15.5175E-03     30.7816E-03    -15.4784E-03     19.3253E-03
             374     6.20330E-03     61.3835E-03    -19.8978E+06    -67.9657E+06    -1.85251E+06    -61.1964E+03    -15.5362E-03     31.1232E-03    -15.5870E-03     22.6736E-03    -15.5360E-03     30.8165E-03    -15.4689E-03     22.6675E-03
             375     7.08954E-03     61.4061E-03    -17.3748E+06    -63.4519E+06     2.07368E+06     2.61717E+03    -15.5622E-03     31.1494E-03    -15.5871E-03     26.0745E-03    -15.5624E-03     30.8566E-03    -15.4596E-03     26.0679E-03
             376     7.97581E-03     61.4320E-03    -15.1267E+06    -60.4504E+06     4.75394E+06    -42.2703E+03    -15.6022E-03     31.1864E-03    -15.5842E-03     29.5036E-03    -15.6006E-03     30.9027E-03    -15.4508E-03     29.4947E-03
             377     8.86210E-03     61.4609E-03    -12.9956E+06     -57.194E+06     6.06074E+06    -84.0981E+03    -15.6544E-03     31.2295E-03    -15.5750E-03     32.9526E-03    -15.6503E-03     30.9586E-03    -15.4430E-03     32.9409E-03
             378     9.74828E-03     61.4932E-03    -11.2967E+06    -52.5345E+06     6.40453E+06    -170.755E+03    -15.6870E-03     31.2467E-03    -15.5596E-03     36.4163E-03    -15.6840E-03     30.9984E-03    -15.4351E-03     36.4008E-03
             379     10.6348E-03     61.5285E-03    -9.75083E+06    -49.3624E+06     6.54787E+06    -55.6759E+03    -15.7295E-03     31.2742E-03    -15.5447E-03     39.8317E-03    -15.7269E-03     31.0428E-03    -15.4263E-03     39.8144E-03
             380     11.5209E-03     61.5672E-03    -8.66023E+06    -45.2360E+06     4.25749E+06    -146.033E+03    -15.7814E-03     31.2981E-03    -15.5167E-03     43.0604E-03    -15.7810E-03     31.0941E-03    -15.4173E-03     43.0379E-03
             381     12.4075E-03     61.6084E-03    -7.86097E+06    -33.7763E+06     3.75126E+06    -294.946E+03    -15.8258E-03     31.3137E-03    -15.4878E-03     46.3355E-03    -15.8449E-03     31.1740E-03    -15.4087E-03     46.3065E-03
             382     13.2934E-03     61.6530E-03    -7.15134E+06    -20.4012E+06     3.87332E+06    -308.569E+03    -15.8408E-03     31.2994E-03    -15.4587E-03     49.9556E-03    -15.8882E-03     31.2378E-03    -15.3993E-03     49.9217E-03
             383     14.1805E-03     61.7013E-03    -6.99013E+06    -6.78129E+06    -322.162E+03     82.7953E+03    -15.8943E-03     31.3018E-03    -15.4075E-03     53.9476E-03    -15.9777E-03     31.3372E-03    -15.3891E-03     53.9150E-03
             384     15.0660E-03     61.7531E-03    -6.51380E+06     26.3924E+06    -2.53899E+06     297.594E+03    -16.0773E-03     31.4183E-03    -15.3410E-03     59.5304E-03    -16.2480E-03     31.6670E-03    -15.3825E-03     59.5053E-03
             385     15.9532E-03     61.8121E-03    -5.91361E+06     81.3387E+06     14.2581E+06    -385.528E+03    -15.8300E-03     31.1696E-03    -15.3396E-03     58.9472E-03    -16.1572E-03     31.7232E-03    -15.3777E-03     58.9476E-03
             386     16.8354E-03     61.8636E-03    -3.34149E+06     109.489E+06     51.1351E+06     312.110E+03    -14.7515E-03     30.2104E-03    -15.4590E-03     32.6861E-03    -15.1042E-03     30.7917E-03    -15.3572E-03     32.7163E-03
             387     886.119E-06     62.2897E-03    -32.5738E+06    -95.3315E+06    -31.7597E+06    -6.53333E+03    -15.5383E-03     31.0840E-03    -15.5456E-03     3.49974E-03    -15.5169E-03     30.7006E-03    -15.5190E-03     3.49909E-03
             388     1.77231E-03     62.2942E-03    -31.4406E+06    -92.3170E+06    -28.5662E+06     3.55589E+03    -15.5329E-03     31.0831E-03    -15.5502E-03     6.45846E-03    -15.5149E-03     30.7086E-03    -15.5136E-03     6.45743E-03
             389     2.65843E-03     62.3017E-03    -29.7258E+06    -87.8569E+06    -23.8686E+06     5.40594E+03    -15.5234E-03     31.0820E-03    -15.5586E-03     9.59517E-03    -15.5102E-03     30.7206E-03    -15.5075E-03     9.59358E-03
             390     3.54465E-03     62.3121E-03    -27.5378E+06    -82.8680E+06    -18.2082E+06     6.85471E+03    -15.5169E-03     31.0856E-03    -15.5687E-03     12.7878E-03    -15.5084E-03     30.7379E-03    -15.4996E-03     12.7856E-03
             391     4.43081E-03     62.3254E-03    -25.0328E+06    -77.8442E+06    -12.3121E+06    -54.8255E+03    -15.5165E-03     31.0948E-03    -15.5784E-03     16.0326E-03    -15.5115E-03     30.7604E-03    -15.4907E-03     16.0288E-03
             392     5.31705E-03     62.3419E-03    -22.3965E+06    -72.7424E+06    -6.68220E+06    -7.26650E+03    -15.5224E-03     31.1082E-03    -15.5858E-03     19.3269E-03    -15.5203E-03     30.7877E-03    -15.4813E-03     19.3227E-03
             393     6.20327E-03     62.3613E-03    -19.8416E+06    -67.7906E+06    -1.77601E+06    -22.7050E+03    -15.5387E-03     31.1286E-03    -15.5899E-03     22.6771E-03    -15.5386E-03     30.8225E-03    -15.4717E-03     22.6716E-03
             394     7.08952E-03     62.3840E-03    -17.3363E+06    -63.3924E+06     2.06265E+06    -47.7671E+03    -15.5631E-03     31.1528E-03    -15.5896E-03     26.0764E-03    -15.5632E-03     30.8603E-03    -15.4623E-03     26.0691E-03
             395     7.97580E-03     62.4098E-03    -14.9772E+06    -60.2862E+06     4.85700E+06     31.2766E+03    -15.5979E-03     31.1843E-03    -15.5864E-03     29.5067E-03    -15.5958E-03     30.9010E-03    -15.4530E-03     29.4987E-03
             396     8.86203E-03     62.4388E-03    -13.0555E+06    -56.9722E+06     6.02577E+06    -88.9613E+03    -15.6408E-03     31.2166E-03    -15.5757E-03     32.9616E-03    -15.6373E-03     30.9469E-03    -15.4441E-03     32.9499E-03
             397     9.74843E-03     62.4710E-03    -11.2528E+06       -52.3E+06     6.49849E+06    -134.839E+03    -15.6884E-03     31.2485E-03    -15.5601E-03     36.4128E-03    -15.6856E-03     31.0013E-03    -15.4355E-03     36.3978E-03
             398     10.6345E-03     62.5064E-03    -9.72069E+06    -49.4647E+06     6.43276E+06    -130.975E+03    -15.7170E-03     31.2612E-03    -15.5442E-03     39.8294E-03    -15.7139E-03     31.0293E-03    -15.4262E-03     39.8112E-03
             399     11.5211E-03     62.5449E-03    -8.53131E+06    -44.9120E+06     4.25780E+06     37.4627E+03    -15.7503E-03     31.2647E-03    -15.5144E-03     43.0226E-03    -15.7497E-03     31.0620E-03    -15.4156E-03     43.0025E-03
             400     12.4073E-03     62.5862E-03    -7.82020E+06    -33.3439E+06     3.91311E+06    -135.742E+03    -15.8069E-03     31.2915E-03    -15.4846E-03     46.3381E-03    -15.8266E-03     31.1537E-03    -15.4054E-03     46.3112E-03
             401     13.2939E-03     62.6310E-03    -7.34711E+06    -20.7614E+06     3.46759E+06    -111.432E+03    -15.8601E-03     31.3143E-03    -15.4543E-03     49.9636E-03    -15.9073E-03     31.2517E-03    -15.3962E-03     49.9323E-03
             402     14.1797E-03     62.6786E-03    -6.67133E+06    -7.36802E+06    -626.672E+03     144.676E+03    -15.9366E-03     31.3416E-03    -15.4050E-03     54.1379E-03    -16.0173E-03     31.3742E-03    -15.3878E-03     54.1060E-03
             403     15.0668E-03     62.7315E-03    -6.55275E+06     26.9361E+06    -2.75574E+06     284.217E+03    -16.0967E-03     31.4356E-03    -15.3389E-03     60.2543E-03    -16.2687E-03     31.6879E-03    -15.3823E-03     60.2292E-03
             404     15.9517E-03     62.7902E-03    -6.64696E+06     81.8286E+06     12.6018E+06     636.969E+03    -15.8814E-03     31.2129E-03    -15.3315E-03     60.6218E-03    -16.2135E-03     31.7753E-03    -15.3775E-03     60.6363E-03
             405     16.8410E-03     62.8431E-03    -3.35211E+06     109.233E+06     49.9257E+06    -155.319E+03    -14.6666E-03     30.1167E-03    -15.4500E-03     33.9475E-03    -15.0196E-03     30.7008E-03    -15.3539E-03     33.9721E-03
             406     886.162E-06     63.2675E-03    -32.5682E+06    -95.2253E+06    -31.7935E+06    -2.63469E+03    -15.5409E-03     31.0871E-03    -15.5462E-03     3.50120E-03    -15.5196E-03     30.7044E-03    -15.5198E-03     3.50060E-03
             407     1.77227E-03     63.2721E-03    -31.4541E+06    -92.2066E+06    -28.5880E+06    -25.0568E+03    -15.5354E-03     31.0873E-03    -15.5519E-03     6.45701E-03    -15.5176E-03     30.7135E-03    -15.5156E-03     6.45562E-03
             408     2.65846E-03     63.2795E-03    -29.7288E+06    -87.7408E+06    -23.8704E+06    -18.5673E+03    -15.5259E-03     31.0866E-03    -15.5607E-03     9.59259E-03    -15.5129E-03     30.7258E-03    -15.5097E-03     9.59070E-03
             409     3.54460E-03     63.2899E-03    -27.5326E+06    -82.7175E+06    -18.2001E+06    -48.0725E+03    -15.5195E-03     31.0904E-03    -15.5708E-03     12.7887E-03    -15.5112E-03     30.7435E-03    -15.5020E-03     12.7858E-03
             410     4.43083E-03     63.3033E-03    -25.0722E+06    -77.6465E+06    -12.2827E+06    -64.0919E+03    -15.5182E-03     31.0989E-03    -15.5807E-03     16.0326E-03    -15.5138E-03     30.7655E-03    -15.4932E-03     16.0286E-03
             411     5.31702E-03     63.3197E-03    -22.4502E+06    -72.6933E+06    -6.72875E+06    -78.9658E+03    -15.5238E-03     31.1117E-03    -15.5880E-03     19.3300E-03    -15.5219E-03     30.7916E-03    -15.4836E-03     19.3249E-03
             412     6.20326E-03     63.3392E-03    -19.7542E+06    -67.6495E+06    -1.79438E+06     5.38514E+03    -15.5369E-03     31.1284E-03    -15.5915E-03     22.6805E-03    -15.5366E-03     30.8230E-03    -15.4737E-03     22.6754E-03
             413     7.08952E-03     63.3618E-03    -17.2624E+06    -63.1986E+06     2.13609E+06    -43.9820E+03    -15.5607E-03     31.1518E-03    -15.5911E-03     26.0787E-03    -15.5608E-03     30.8601E-03    -15.4637E-03     26.0715E-03
             414     7.97576E-03     63.3876E-03    -14.9073E+06    -60.3158E+06     4.80266E+06    -47.7781E+03    -15.5941E-03     31.1811E-03    -15.5870E-03     29.5077E-03    -15.5916E-03     30.8977E-03    -15.4539E-03     29.4987E-03
             415     8.86211E-03     63.4166E-03    -12.7931E+06    -56.6872E+06     6.18383E+06     54.7649E+03    -15.6323E-03     31.2082E-03    -15.5759E-03     32.9526E-03    -15.6280E-03     30.9394E-03    -15.4442E-03     32.9428E-03
             416     9.74829E-03     63.4488E-03    -11.1679E+06    -52.1241E+06     6.56361E+06    -155.695E+03    -15.6699E-03     31.2289E-03    -15.5590E-03     36.4086E-03    -15.6670E-03     30.9823E-03    -15.4344E-03     36.3933E-03
             417     10.6348E-03     63.4841E-03    -9.67995E+06    -49.3818E+06     6.44765E+06    -135.775E+03    -15.7141E-03     31.2563E-03    -15.5422E-03     39.7862E-03    -15.7109E-03     31.0247E-03    -15.4243E-03     39.7679E-03
             418     11.5210E-03     63.5226E-03    -8.42389E+06    -45.1393E+06     4.17309E+06    -65.1740E+03    -15.7800E-03     31.2934E-03    -15.5134E-03     43.0247E-03    -15.7784E-03     31.0896E-03    -15.4149E-03     43.0033E-03
             419     12.4074E-03     63.5640E-03    -7.39865E+06    -32.9207E+06     4.20355E+06     41.3422E+03    -15.7739E-03     31.2580E-03    -15.4841E-03     46.2686E-03    -15.7925E-03     31.1212E-03    -15.4046E-03     46.2441E-03
             420     13.2937E-03     63.6084E-03    -6.63520E+06    -20.4794E+06     3.93506E+06     87.4233E+03    -15.7963E-03     31.2475E-03    -15.4512E-03     49.9427E-03    -15.8410E-03     31.1846E-03    -15.3922E-03     49.9141E-03
             421     14.1806E-03     63.6568E-03    -6.42154E+06    -7.58426E+06    -635.540E+03     32.2386E+03    -15.9203E-03     31.3188E-03    -15.3985E-03     54.2088E-03    -15.9995E-03     31.3501E-03    -15.3814E-03     54.1755E-03
             422     15.0663E-03     63.7087E-03    -6.03949E+06     26.3413E+06    -2.65871E+06     627.769E+03    -15.7260E-03     31.0482E-03    -15.3222E-03     60.2346E-03    -15.8937E-03     31.2957E-03    -15.3649E-03     60.2156E-03
             423     15.9544E-03     63.7686E-03    -4.18332E+06     82.7614E+06     14.3982E+06     365.584E+03    -15.2904E-03     30.5827E-03    -15.2923E-03     60.4584E-03    -15.6120E-03     31.1415E-03    -15.3343E-03     60.4723E-03
             424     16.8394E-03     63.8190E-03    -2.51489E+06     110.272E+06     50.9503E+06    -491.750E+03    -15.2196E-03     30.6293E-03    -15.4097E-03     33.0709E-03    -15.5697E-03     31.2142E-03    -15.3112E-03     33.0904E-03
             425     886.118E-06     64.2454E-03    -32.5374E+06    -95.0841E+06    -31.7590E+06    -31.6594E+03    -15.5443E-03     31.0926E-03    -15.5483E-03     3.50189E-03    -15.5231E-03     30.7105E-03    -15.5220E-03     3.50092E-03
             426     1.77230E-03     64.2499E-03    -31.4153E+06    -92.0607E+06    -28.5944E+06    -46.2599E+03    -15.5366E-03     31.0908E-03    -15.5542E-03     6.45660E-03    -15.5188E-03     30.7176E-03    -15.5181E-03     6.45493E-03
             427     2.65842E-03     64.2573E-03    -29.7227E+06    -87.6114E+06    -23.9130E+06    -70.7498E+03    -15.5272E-03     31.0895E-03    -15.5624E-03     9.59471E-03    -15.5143E-03     30.7295E-03    -15.5118E-03     9.59214E-03
             428     3.54463E-03     64.2677E-03    -27.5813E+06    -82.5634E+06    -18.2319E+06    -66.9677E+03    -15.5195E-03     31.0918E-03    -15.5723E-03     12.7906E-03    -15.5116E-03     30.7458E-03    -15.5038E-03     12.7875E-03
             429     4.43080E-03     64.2811E-03    -25.1178E+06    -77.5271E+06    -12.3239E+06    -59.5139E+03    -15.5175E-03     31.0993E-03    -15.5818E-03     16.0354E-03    -15.5135E-03     30.7666E-03    -15.4946E-03     16.0315E-03
             430     5.31703E-03     64.2975E-03    -22.5295E+06    -72.4836E+06    -6.76510E+06    -100.352E+03    -15.5223E-03     31.1109E-03    -15.5887E-03     19.3330E-03    -15.5210E-03     30.7920E-03    -15.4847E-03     19.3277E-03
             431     6.20326E-03     64.3170E-03    -19.9004E+06    -67.6554E+06    -1.94646E+06    -110.908E+03    -15.5342E-03     31.1258E-03    -15.5916E-03     22.6849E-03    -15.5343E-03     30.8208E-03    -15.4744E-03     22.6782E-03
             432     7.08950E-03     64.3397E-03    -17.3096E+06    -62.9955E+06     2.03461E+06    -23.6725E+03    -15.5550E-03     31.1455E-03    -15.5905E-03     26.0810E-03    -15.5555E-03     30.8550E-03    -15.4639E-03     26.0741E-03
             433     7.97581E-03     64.3654E-03    -14.9941E+06    -60.1929E+06     4.78247E+06    -96.3266E+03    -15.5900E-03     31.1765E-03    -15.5865E-03     29.5025E-03    -15.5881E-03     30.8938E-03    -15.4536E-03     29.4929E-03
             434     8.86202E-03     64.3944E-03    -12.8378E+06    -56.7184E+06     5.98889E+06    -79.6394E+03    -15.6275E-03     31.2018E-03    -15.5743E-03     32.9517E-03    -15.6232E-03     30.9332E-03    -15.4435E-03     32.9402E-03
             435     9.74845E-03     64.4265E-03    -10.9929E+06    -51.7631E+06     6.74470E+06     18.5185E+03    -15.6604E-03     31.2182E-03    -15.5578E-03     36.3753E-03    -15.6574E-03     30.9729E-03    -15.4331E-03     36.3623E-03
             436     10.6346E-03     64.4619E-03    -9.65361E+06    -49.4069E+06     6.52190E+06    -127.075E+03    -15.7209E-03     31.2622E-03    -15.5413E-03     39.7568E-03    -15.7177E-03     31.0304E-03    -15.4230E-03     39.7386E-03
             437     11.5211E-03     64.5004E-03    -8.58824E+06    -45.0310E+06     4.10617E+06    -119.848E+03    -15.7880E-03     31.3006E-03    -15.5126E-03     43.0269E-03    -15.7873E-03     31.0976E-03    -15.4143E-03     43.0047E-03
             438     12.4074E-03     64.5417E-03    -7.74983E+06    -33.0083E+06     4.00010E+06    -12.1471E+03    -15.8052E-03     31.2899E-03    -15.4847E-03     46.1869E-03    -15.8250E-03     31.1534E-03    -15.4056E-03     46.1616E-03
             439     13.2938E-03     64.5861E-03    -6.87350E+06    -20.0365E+06     4.11543E+06            124.    -15.8221E-03     31.2770E-03    -15.4550E-03     49.7803E-03    -15.8690E-03     31.2165E-03    -15.3954E-03     49.7504E-03
             440     14.1801E-03     64.6343E-03    -5.98310E+06    -7.52066E+06    -173.284E+03    -7.05209E+03    -15.8153E-03     31.2164E-03    -15.4011E-03     53.9423E-03    -15.8927E-03     31.2463E-03    -15.3824E-03     53.9088E-03
             441     15.0669E-03     64.6868E-03    -4.72893E+06     25.9562E+06    -1.97824E+06    -369.144E+03    -15.6793E-03     31.0008E-03    -15.3215E-03     59.3012E-03    -15.8397E-03     31.2423E-03    -15.3622E-03     59.2694E-03
             442     15.9536E-03     64.7440E-03    -3.67018E+06     83.3585E+06     16.2161E+06    -372.308E+03    -15.4761E-03     30.7785E-03    -15.3025E-03     59.4421E-03    -15.7979E-03     31.3362E-03    -15.3369E-03     59.4453E-03
             443     16.8417E-03     64.7992E-03    -3.07447E+06     110.418E+06     51.7548E+06     469.831E+03    -15.2581E-03     30.6822E-03    -15.4241E-03     32.7577E-03    -15.6121E-03     31.2671E-03    -15.3210E-03     32.7890E-03
             444     886.150E-06     65.2232E-03    -32.5537E+06    -94.8840E+06    -31.7989E+06    -51.7358E+03    -15.5428E-03     31.0954E-03    -15.5526E-03     3.50220E-03    -15.5219E-03     30.7144E-03    -15.5268E-03     3.50097E-03
             445     1.77226E-03     65.2278E-03    -31.4565E+06    -91.8966E+06    -28.6649E+06    -86.1883E+03    -15.5362E-03     31.0913E-03    -15.5551E-03     6.45948E-03    -15.5188E-03     30.7191E-03    -15.5195E-03     6.45730E-03
             446     2.65845E-03     65.2352E-03    -29.7712E+06    -87.4712E+06    -23.9731E+06    -82.4967E+03    -15.5265E-03     31.0892E-03    -15.5628E-03     9.59762E-03    -15.5139E-03     30.7300E-03    -15.5126E-03     9.59491E-03
             447     3.54460E-03     65.2456E-03    -27.6237E+06    -82.4341E+06    -18.2978E+06    -82.8607E+03    -15.5181E-03     31.0904E-03    -15.5723E-03     12.7933E-03    -15.5106E-03     30.7452E-03    -15.5042E-03     12.7899E-03
             448     4.43081E-03     65.2590E-03    -25.1363E+06    -77.3704E+06    -12.3746E+06    -106.156E+03    -15.5154E-03     31.0968E-03    -15.5814E-03     16.0381E-03    -15.5116E-03     30.7650E-03    -15.4947E-03     16.0336E-03
             449     5.31702E-03     65.2753E-03    -22.4898E+06    -72.3130E+06    -6.75641E+06    -104.514E+03    -15.5198E-03     31.1079E-03    -15.5881E-03     19.3344E-03    -15.5186E-03     30.7898E-03    -15.4844E-03     19.3290E-03
             450     6.20326E-03     65.2949E-03    -19.8783E+06    -67.4896E+06    -1.91939E+06    -145.014E+03    -15.5313E-03     31.1222E-03    -15.5909E-03     22.6823E-03    -15.5316E-03     30.8179E-03    -15.4738E-03     22.6752E-03
             451     7.08954E-03     65.3174E-03    -17.3591E+06    -63.0055E+06     1.90153E+06    -129.248E+03    -15.5514E-03     31.1404E-03    -15.5890E-03     26.0793E-03    -15.5519E-03     30.8501E-03    -15.4629E-03     26.0710E-03
             452     7.97577E-03     65.3433E-03    -14.9808E+06     -59.947E+06     4.77323E+06    -61.3476E+03    -15.5860E-03     31.1708E-03    -15.5849E-03     29.4963E-03    -15.5843E-03     30.8893E-03    -15.4523E-03     29.4871E-03
             453     8.86213E-03     65.3721E-03    -12.9786E+06    -56.6556E+06     5.94214E+06    -156.283E+03    -15.6266E-03     31.1995E-03    -15.5729E-03     32.9300E-03    -15.6230E-03     30.9315E-03    -15.4422E-03     32.9175E-03
             454     9.74833E-03     65.4044E-03    -11.1278E+06    -51.7567E+06     6.53614E+06    -109.293E+03    -15.6729E-03     31.2293E-03    -15.5564E-03     36.3535E-03    -15.6702E-03     30.9844E-03    -15.4325E-03     36.3389E-03
             455     10.6348E-03     65.4396E-03    -9.57734E+06    -49.1425E+06     6.53797E+06       5.649E+03    -15.7420E-03     31.2838E-03    -15.5418E-03     39.7277E-03    -15.7388E-03     31.0532E-03    -15.4240E-03     39.7112E-03
             456     11.5210E-03     65.4781E-03    -8.53171E+06    -44.9585E+06     4.05155E+06     -53.852E+03    -15.7968E-03     31.3110E-03    -15.5142E-03     42.9374E-03    -15.7958E-03     31.1084E-03    -15.4164E-03     42.9161E-03
             457     12.4074E-03     65.5195E-03    -7.65988E+06    -32.5986E+06     4.07999E+06    -107.599E+03    -15.8409E-03     31.3289E-03    -15.4880E-03     46.1461E-03    -15.8611E-03     31.1943E-03    -15.4092E-03     46.1194E-03
             458     13.2936E-03     65.5639E-03    -6.87139E+06    -20.1567E+06     3.87559E+06    -70.6391E+03    -15.8871E-03     31.3478E-03    -15.4607E-03     49.7972E-03    -15.9337E-03     31.2872E-03    -15.4021E-03     49.7662E-03
             459     14.1800E-03     65.6121E-03    -6.20181E+06    -7.38221E+06    -351.740E+03    -148.506E+03    -15.8178E-03     31.2268E-03    -15.4089E-03     53.7605E-03    -15.8960E-03     31.2577E-03    -15.3910E-03     53.7252E-03
             460     15.0666E-03     65.6637E-03    -6.64429E+06     26.8845E+06    -2.61758E+06    -605.714E+03    -16.0676E-03     31.4071E-03    -15.3394E-03     59.3457E-03    -16.2388E-03     31.6577E-03    -15.3819E-03     59.3090E-03
             461     15.9525E-03     65.7231E-03    -6.59115E+06     82.4724E+06     13.3782E+06    -448.744E+03    -15.9147E-03     31.2507E-03    -15.3360E-03     59.3313E-03    -16.2472E-03     31.8138E-03    -15.3791E-03     59.3315E-03
             462     16.8377E-03     65.7753E-03    -3.49299E+06     109.879E+06     50.3562E+06     507.535E+03    -14.7406E-03     30.1982E-03    -15.4576E-03     32.7288E-03    -15.0947E-03     30.7839E-03    -15.3601E-03     32.7621E-03
             463     886.119E-06     66.2011E-03    -32.6906E+06    -94.6738E+06    -31.8945E+06    -59.0932E+03    -15.5422E-03     31.0919E-03    -15.5497E-03     3.50328E-03    -15.5222E-03     30.7122E-03    -15.5245E-03     3.50195E-03
             464     1.77229E-03     66.2056E-03    -31.5854E+06    -91.7038E+06    -28.7341E+06    -93.3842E+03    -15.5354E-03     31.0891E-03    -15.5538E-03     6.46236E-03    -15.5187E-03     30.7181E-03    -15.5187E-03     6.46009E-03
             465     2.65842E-03     66.2130E-03    -29.8908E+06    -87.3215E+06    -24.0452E+06    -108.342E+03    -15.5247E-03     31.0863E-03    -15.5616E-03     9.59847E-03    -15.5128E-03     30.7281E-03    -15.5119E-03     9.59543E-03
             466     3.54462E-03     66.2234E-03    -27.7058E+06    -82.2607E+06    -18.3855E+06    -134.574E+03    -15.5155E-03     31.0863E-03    -15.5708E-03     12.7943E-03    -15.5085E-03     30.7423E-03    -15.5033E-03     12.7902E-03
             467     4.43081E-03     66.2368E-03    -25.2116E+06    -77.1873E+06    -12.4619E+06    -177.752E+03    -15.5130E-03     31.0926E-03    -15.5797E-03     16.0392E-03    -15.5097E-03     30.7620E-03    -15.4935E-03     16.0338E-03
             468     5.31703E-03     66.2532E-03    -22.5326E+06    -72.1826E+06    -6.85754E+06    -202.235E+03    -15.5171E-03     31.1033E-03    -15.5861E-03     19.3331E-03    -15.5162E-03     30.7860E-03    -15.4831E-03     19.3265E-03
             469     6.20328E-03     66.2726E-03    -19.8427E+06    -67.3182E+06    -1.92426E+06    -168.178E+03    -15.5301E-03     31.1193E-03    -15.5892E-03     22.6770E-03    -15.5305E-03     30.8158E-03    -15.4724E-03     22.6696E-03
             470     7.08951E-03     66.2953E-03    -17.2979E+06    -62.8624E+06     1.95466E+06    -196.842E+03    -15.5507E-03     31.1384E-03    -15.5876E-03     26.0666E-03    -15.5512E-03     30.8486E-03    -15.4616E-03     26.0575E-03
             471     7.97584E-03     66.3210E-03    -14.9334E+06    -59.9494E+06     4.69172E+06    -144.629E+03    -15.5860E-03     31.1692E-03    -15.5832E-03     29.4837E-03    -15.5840E-03     30.8877E-03    -15.4511E-03     29.4735E-03
             472     8.86205E-03     66.3500E-03    -12.8499E+06    -56.4000E+06     6.02116E+06    -66.4003E+03    -15.6323E-03     31.2042E-03    -15.5719E-03     32.9106E-03    -15.6285E-03     30.9371E-03    -15.4414E-03     32.8993E-03
             473     9.74845E-03     66.3821E-03    -11.1749E+06    -51.7074E+06     6.44732E+06    -212.334E+03    -15.6910E-03     31.2472E-03    -15.5563E-03     36.3527E-03    -15.6885E-03     31.0029E-03    -15.4329E-03     36.3367E-03
             474     10.6346E-03     66.4175E-03    -9.54316E+06    -49.0373E+06     6.43825E+06    -127.364E+03    -15.7705E-03     31.3138E-03    -15.5433E-03     39.7378E-03    -15.7672E-03     31.0839E-03    -15.4262E-03     39.7195E-03
             475     11.5209E-03     66.4559E-03    -8.24395E+06    -44.7872E+06     4.13892E+06     30.2983E+03    -15.8138E-03     31.3316E-03    -15.5178E-03     42.9126E-03    -15.8118E-03     31.1293E-03    -15.4202E-03     42.8923E-03
             476     12.4072E-03     66.4972E-03    -7.35602E+06    -32.6466E+06     4.04890E+06    -18.4620E+03    -15.8318E-03     31.3230E-03    -15.4912E-03     46.2393E-03    -15.8503E-03     31.1877E-03    -15.4129E-03     46.2138E-03
             477     13.2937E-03     66.5419E-03    -6.52146E+06    -19.9375E+06     4.08034E+06    -164.468E+03    -15.8492E-03     31.3118E-03    -15.4626E-03     49.8233E-03    -15.8944E-03     31.2512E-03    -15.4038E-03     49.7913E-03
             478     14.1801E-03     66.5896E-03    -6.15466E+06    -7.25202E+06    -321.212E+03     20.6400E+03    -15.9528E-03     31.3660E-03    -15.4132E-03     53.8252E-03    -16.0312E-03     31.3977E-03    -15.3953E-03     53.7916E-03
             479     15.0662E-03     66.6417E-03    -6.30742E+06     27.4057E+06    -2.54525E+06     401.397E+03    -16.1403E-03     31.4882E-03    -15.3479E-03     60.2781E-03    -16.3118E-03     31.7420E-03    -15.3912E-03     60.2542E-03
             480     15.9521E-03     66.7018E-03    -6.72727E+06     82.3845E+06     13.0244E+06     16.7402E+03    -15.7699E-03     31.1096E-03    -15.3398E-03     60.3427E-03    -16.1028E-03     31.6734E-03    -15.3844E-03     60.3500E-03
             481     16.8398E-03     66.7526E-03    -4.00004E+06     109.566E+06     49.8988E+06    -404.253E+03    -14.6524E-03     30.1066E-03    -15.4542E-03     33.4960E-03    -15.0081E-03     30.6924E-03    -15.3578E-03     33.5185E-03
             482     886.157E-06     67.1789E-03    -32.8177E+06    -94.4494E+06    -32.0144E+06    -68.6192E+03    -15.5418E-03     31.0846E-03    -15.5428E-03     3.50658E-03    -15.5225E-03     30.7064E-03    -15.5184E-03     3.50513E-03
             483     1.77227E-03     67.1835E-03    -31.6662E+06    -91.4984E+06    -28.7426E+06    -99.9634E+03    -15.5341E-03     31.0853E-03    -15.5511E-03     6.46082E-03    -15.5182E-03     30.7155E-03    -15.5163E-03     6.45847E-03
             484     2.65845E-03     67.1909E-03    -29.9328E+06    -87.1173E+06    -24.0380E+06    -141.987E+03    -15.5224E-03     31.0819E-03    -15.5596E-03     9.59721E-03    -15.5111E-03     30.7248E-03    -15.5100E-03     9.59373E-03
             485     3.54461E-03     67.2013E-03    -27.7456E+06    -82.0306E+06    -18.4421E+06    -210.665E+03    -15.5133E-03     31.0817E-03    -15.5684E-03     12.7927E-03    -15.5067E-03     30.7389E-03    -15.5014E-03     12.7877E-03
             486     4.43083E-03     67.2146E-03    -25.2552E+06    -77.0170E+06    -12.5707E+06    -240.138E+03    -15.5105E-03     31.0875E-03    -15.5771E-03     16.0369E-03    -15.5075E-03     30.7579E-03    -15.4916E-03     16.0307E-03
             487     5.31704E-03     67.2310E-03    -22.6507E+06    -71.9820E+06    -6.96693E+06    -279.344E+03    -15.5158E-03     31.0995E-03    -15.5837E-03     19.3293E-03    -15.5156E-03     30.7835E-03    -15.4813E-03     19.3216E-03
             488     6.20328E-03     67.2505E-03    -19.9865E+06    -67.2346E+06    -2.06945E+06    -292.734E+03    -15.5292E-03     31.1161E-03    -15.5869E-03     22.6712E-03    -15.5302E-03     30.8135E-03    -15.4708E-03     22.6623E-03
             489     7.08956E-03     67.2731E-03    -17.4001E+06    -62.6596E+06     1.87610E+06    -244.844E+03    -15.5532E-03     31.1391E-03    -15.5859E-03     26.0574E-03    -15.5544E-03     30.8506E-03    -15.4604E-03     26.0476E-03
             490     7.97578E-03     67.2988E-03    -15.0060E+06    -59.8787E+06     4.60254E+06    -279.375E+03    -15.5872E-03     31.1692E-03    -15.5819E-03     29.4708E-03    -15.5855E-03     30.8883E-03    -15.4503E-03     29.4588E-03
             491     8.86214E-03     67.3278E-03    -12.8221E+06    -56.4196E+06     5.87322E+06    -160.731E+03    -15.6392E-03     31.2100E-03    -15.5708E-03     32.9140E-03    -15.6350E-03     30.9430E-03    -15.4411E-03     32.9014E-03
             492     9.74834E-03     67.3599E-03    -11.0190E+06    -51.2789E+06     6.63270E+06    -117.946E+03    -15.7028E-03     31.2597E-03    -15.5569E-03     36.3665E-03    -15.7005E-03     31.0169E-03    -15.4334E-03     36.3517E-03
             493     10.6347E-03     67.3953E-03    -9.60206E+06    -49.0383E+06     6.45615E+06    -291.734E+03    -15.7614E-03     31.3055E-03    -15.5441E-03     39.7748E-03    -15.7583E-03     31.0755E-03    -15.4268E-03     39.7544E-03
             494     11.5210E-03     67.4337E-03    -8.20834E+06    -44.8289E+06     4.04580E+06    -167.671E+03    -15.8283E-03     31.3463E-03    -15.5180E-03     42.9484E-03    -15.8259E-03     31.1439E-03    -15.4209E-03     42.9256E-03
             495     12.4073E-03     67.4750E-03    -7.04686E+06    -32.4808E+06     4.26035E+06    -2.33705E+03    -15.8094E-03     31.3012E-03    -15.4919E-03     46.2197E-03    -15.8269E-03     31.1660E-03    -15.4132E-03     46.1945E-03
             496     13.2936E-03     67.5196E-03    -6.41076E+06    -19.9742E+06     4.18389E+06     3.85966E+03    -15.8104E-03     31.2716E-03    -15.4613E-03     49.8228E-03    -15.8549E-03     31.2104E-03    -15.4021E-03     49.7930E-03
             497     14.1800E-03     67.5673E-03    -5.89161E+06    -6.97902E+06    -60.6853E+03        -275.609    -15.9998E-03     31.4118E-03    -15.4120E-03     54.0699E-03    -16.0781E-03     31.4446E-03    -15.3936E-03     54.0358E-03
             498     15.0663E-03     67.6199E-03    -5.18755E+06     26.6409E+06    -2.18911E+06     437.285E+03    -15.8138E-03     31.1532E-03    -15.3394E-03     60.1799E-03    -15.9785E-03     31.4004E-03    -15.3814E-03     60.1581E-03
             499     15.9537E-03     67.6790E-03    -3.99101E+06     83.0503E+06     14.7268E+06     651.897E+03    -15.2162E-03     30.5257E-03    -15.3095E-03     60.2485E-03    -15.5362E-03     31.0837E-03    -15.3505E-03     60.2661E-03
             500     16.8398E-03     67.7305E-03    -2.93585E+06     110.652E+06     50.8997E+06    -345.208E+03    -15.0654E-03     30.4845E-03    -15.4191E-03     33.4356E-03    -15.4171E-03     31.0710E-03    -15.3208E-03     33.4577E-03
             501     886.127E-06     68.1567E-03    -32.8835E+06    -94.1791E+06    -32.0571E+06    -72.0805E+03    -15.5361E-03     31.0792E-03    -15.5430E-03     3.50852E-03    -15.5175E-03     30.7025E-03    -15.5191E-03     3.50702E-03
             502     1.77230E-03     68.1613E-03    -31.7657E+06    -91.2956E+06    -28.8709E+06    -114.403E+03    -15.5298E-03     31.0777E-03    -15.5479E-03     6.45813E-03    -15.5145E-03     30.7092E-03    -15.5138E-03     6.45559E-03
             503     2.65844E-03     68.1687E-03    -30.0436E+06    -86.8541E+06    -24.1912E+06    -180.779E+03    -15.5196E-03     31.0755E-03    -15.5559E-03     9.59643E-03    -15.5090E-03     30.7200E-03    -15.5073E-03     9.59246E-03
             504     3.54464E-03     68.1791E-03    -27.8646E+06    -81.7773E+06    -18.5734E+06    -261.870E+03    -15.5115E-03     31.0767E-03    -15.5651E-03     12.7907E-03    -15.5057E-03     30.7355E-03    -15.4990E-03     12.7850E-03
             505     4.43082E-03     68.1924E-03    -25.3767E+06    -76.8153E+06    -12.6803E+06    -316.470E+03    -15.5093E-03     31.0837E-03    -15.5744E-03     16.0323E-03    -15.5071E-03     30.7554E-03    -15.4896E-03     16.0251E-03
             506     5.31706E-03     68.2088E-03    -22.7306E+06    -71.7920E+06    -7.07198E+06    -323.657E+03    -15.5144E-03     31.0955E-03    -15.5812E-03     19.3248E-03    -15.5147E-03     30.7808E-03    -15.4795E-03     19.3166E-03
             507     6.20329E-03     68.2283E-03    -20.1311E+06    -67.0431E+06    -2.18761E+06    -361.268E+03    -15.5295E-03     31.1143E-03    -15.5847E-03     22.6647E-03    -15.5314E-03     30.8130E-03    -15.4693E-03     22.6549E-03
             508     7.08954E-03     68.2509E-03    -17.5692E+06    -62.5781E+06     1.69312E+06    -366.161E+03    -15.5535E-03     31.1374E-03    -15.5839E-03     26.0547E-03    -15.5554E-03     30.8499E-03    -15.4592E-03     26.0434E-03
             509     7.97584E-03     68.2767E-03    -15.1755E+06    -59.5909E+06     4.50991E+06    -381.280E+03    -15.5946E-03     31.1754E-03    -15.5808E-03     29.4591E-03    -15.5941E-03     30.8963E-03    -15.4498E-03     29.4458E-03
             510     8.86207E-03     68.3055E-03    -13.0159E+06    -56.4788E+06     5.73968E+06    -400.922E+03    -15.6462E-03     31.2171E-03    -15.5709E-03     32.9139E-03    -15.6427E-03     30.9502E-03    -15.4414E-03     32.8982E-03
             511     9.74841E-03     68.3378E-03    -11.0984E+06    -51.1237E+06     6.54662E+06    -171.746E+03    -15.6892E-03     31.2457E-03    -15.5565E-03     36.3719E-03    -15.6874E-03     31.0040E-03    -15.4335E-03     36.3565E-03
             512     10.6347E-03     68.3730E-03    -9.62205E+06    -48.6713E+06     6.55293E+06    -255.785E+03    -15.7483E-03     31.2915E-03    -15.5431E-03     39.7582E-03    -15.7460E-03     31.0633E-03    -15.4259E-03     39.7383E-03
             513     11.5210E-03     68.4116E-03    -8.52260E+06    -44.9427E+06     3.80880E+06    -409.665E+03    -15.8170E-03     31.3326E-03    -15.5157E-03     42.9746E-03    -15.8156E-03     31.1304E-03    -15.4191E-03     42.9487E-03
             514     12.4072E-03     68.4528E-03    -7.47986E+06    -32.3417E+06     4.02396E+06    -171.584E+03    -15.8383E-03     31.3285E-03    -15.4902E-03     46.1366E-03    -15.8578E-03     31.1950E-03    -15.4124E-03     46.1092E-03
             515     13.2938E-03     68.4970E-03    -6.52204E+06    -19.7366E+06     4.18062E+06     68.4861E+03    -15.8617E-03     31.3248E-03    -15.4632E-03     49.6977E-03    -15.9072E-03     31.2651E-03    -15.4042E-03     49.6686E-03
             516     14.1801E-03     68.5454E-03    -6.03584E+06    -7.04803E+06    -262.902E+03    -102.490E+03    -15.8781E-03     31.2895E-03    -15.4114E-03     54.0222E-03    -15.9566E-03     31.3223E-03    -15.3938E-03     53.9873E-03
             517     15.0664E-03     68.5977E-03    -5.34568E+06     26.2132E+06    -2.39214E+06    -381.205E+03    -15.7480E-03     31.0825E-03    -15.3345E-03     59.4561E-03    -15.9117E-03     31.3272E-03    -15.3767E-03     59.4239E-03
             518     15.9533E-03     68.6551E-03    -3.76028E+06     83.2548E+06     15.4668E+06    -184.507E+03    -15.4712E-03     30.7859E-03    -15.3147E-03     59.0995E-03    -15.7905E-03     31.3426E-03    -15.3526E-03     59.1039E-03
             519     16.8415E-03     68.7087E-03    -2.69318E+06     111.065E+06     51.6351E+06     448.895E+03    -15.1475E-03     30.5818E-03    -15.4343E-03     32.5909E-03    -15.4990E-03     31.1682E-03    -15.3332E-03     32.6212E-03
             520     886.153E-06     69.1346E-03    -33.0119E+06    -93.9261E+06    -32.2395E+06    -41.2088E+03    -15.5307E-03     31.0731E-03    -15.5423E-03     3.50536E-03    -15.5129E-03     30.6981E-03    -15.5195E-03     3.50427E-03
             521     1.77228E-03     69.1391E-03    -31.9176E+06    -91.0230E+06    -29.0898E+06    -131.620E+03    -15.5247E-03     31.0688E-03    -15.5441E-03     6.45850E-03    -15.5102E-03     30.7022E-03    -15.5113E-03     6.45574E-03
             522     2.65847E-03     69.1466E-03    -30.1874E+06    -86.5658E+06    -24.4160E+06    -240.796E+03    -15.5168E-03     31.0685E-03    -15.5517E-03     9.59427E-03    -15.5070E-03     30.7150E-03    -15.5045E-03     9.58952E-03
             523     3.54463E-03     69.1569E-03    -28.0099E+06    -81.5394E+06    -18.7026E+06    -295.257E+03    -15.5097E-03     31.0716E-03    -15.5619E-03     12.7872E-03    -15.5048E-03     30.7320E-03    -15.4965E-03     12.7811E-03
             524     4.43085E-03     69.1703E-03    -25.5524E+06    -76.5430E+06    -12.7870E+06    -358.718E+03    -15.5086E-03     31.0802E-03    -15.5716E-03     16.0292E-03    -15.5075E-03     30.7537E-03    -15.4875E-03     16.0215E-03
             525     5.31705E-03     69.1867E-03    -22.9236E+06    -71.5964E+06    -7.23803E+06    -423.555E+03    -15.5139E-03     31.0926E-03    -15.5787E-03     19.3192E-03    -15.5152E-03     30.7794E-03    -15.4779E-03     19.3096E-03
             526     6.20331E-03     69.2061E-03    -20.2090E+06    -66.8394E+06    -2.31138E+06    -427.779E+03    -15.5297E-03     31.1123E-03    -15.5826E-03     22.6614E-03    -15.5320E-03     30.8123E-03    -15.4680E-03     22.6507E-03
             527     7.08956E-03     69.2287E-03    -17.6639E+06    -62.3846E+06     1.62067E+06    -458.559E+03    -15.5561E-03     31.1386E-03    -15.5825E-03     26.0435E-03    -15.5586E-03     30.8523E-03    -15.4583E-03     26.0310E-03
             528     7.97582E-03     69.2544E-03    -15.2851E+06    -59.4021E+06     4.41028E+06    -462.677E+03    -15.6022E-03     31.1823E-03    -15.5800E-03     29.4643E-03    -15.6024E-03     30.9045E-03    -15.4497E-03     29.4500E-03
             529     8.86209E-03     69.2834E-03    -13.2243E+06    -56.2478E+06     5.62492E+06    -498.588E+03    -15.6466E-03     31.2173E-03    -15.5707E-03     32.9068E-03    -15.6443E-03     30.9521E-03    -15.4418E-03     32.8899E-03
             530     9.74836E-03     69.3155E-03    -11.3776E+06    -51.4362E+06     6.12781E+06    -372.963E+03    -15.6822E-03     31.2376E-03    -15.5554E-03     36.3576E-03    -15.6807E-03     30.9953E-03    -15.4337E-03     36.3396E-03
             531     10.6347E-03     69.3509E-03    -9.76197E+06    -48.2940E+06     6.35575E+06    -232.585E+03    -15.7414E-03     31.2829E-03    -15.5415E-03     39.7459E-03    -15.7401E-03     31.0570E-03    -15.4255E-03     39.7264E-03
             532     11.5209E-03     69.3893E-03    -8.65101E+06    -44.6554E+06     3.82665E+06    -365.039E+03    -15.7993E-03     31.3137E-03    -15.5144E-03     42.9407E-03    -15.7990E-03     31.1131E-03    -15.4180E-03     42.9153E-03
             533     12.4074E-03     69.4306E-03     -7.9139E+06    -32.7539E+06     3.43666E+06    -327.300E+03    -15.8682E-03     31.3561E-03    -15.4879E-03     46.1734E-03    -15.8885E-03     31.2220E-03    -15.4117E-03     46.1439E-03
             534     13.2934E-03     69.4750E-03    -6.97433E+06    -19.4711E+06     3.77822E+06    -210.456E+03    -15.9236E-03     31.3875E-03    -15.4639E-03     49.7763E-03    -15.9714E-03     31.3305E-03    -15.4066E-03     49.7435E-03
             535     14.1797E-03     69.5229E-03    -6.08570E+06    -7.04007E+06    -539.038E+03    -23.3006E+03    -15.8111E-03     31.2236E-03    -15.4125E-03     53.8568E-03    -15.8889E-03     31.2564E-03    -15.3962E-03     53.8232E-03
             536     15.0668E-03     69.5750E-03    -6.27229E+06     27.1349E+06    -2.76002E+06    -520.316E+03    -15.9654E-03     31.3047E-03    -15.3393E-03     59.5311E-03    -16.1347E-03     31.5560E-03    -15.3833E-03     59.4959E-03
             537     15.9526E-03     69.6336E-03    -6.50662E+06     82.9236E+06     13.6608E+06    -645.476E+03    -15.9887E-03     31.3253E-03    -15.3366E-03     59.6586E-03    -16.3222E-03     31.8905E-03    -15.3791E-03     59.6552E-03
             538     16.8366E-03     69.6864E-03    -3.68848E+06     110.247E+06     50.3911E+06     551.041E+03    -14.8209E-03     30.2821E-03    -15.4612E-03     33.1394E-03    -15.1771E-03     30.8704E-03    -15.3638E-03     33.1719E-03
             539     886.130E-06     70.1124E-03    -33.1865E+06    -93.6800E+06    -32.4122E+06    -57.5212E+03    -15.5293E-03     31.0652E-03    -15.5359E-03     3.49856E-03    -15.5124E-03     30.6920E-03    -15.5140E-03     3.49725E-03
             540     1.77231E-03     70.1170E-03    -32.0132E+06    -90.6884E+06    -29.2243E+06    -178.814E+03    -15.5228E-03     31.0633E-03    -15.5405E-03     6.45847E-03    -15.5091E-03     30.6987E-03    -15.5087E-03     6.45510E-03
             541     2.65845E-03     70.1244E-03    -30.3023E+06    -86.2546E+06    -24.4986E+06    -290.455E+03    -15.5139E-03     31.0627E-03    -15.5488E-03     9.59111E-03    -15.5050E-03     30.7111E-03    -15.5023E-03     9.58572E-03
             542     3.54466E-03     70.1348E-03    -28.0973E+06    -81.2814E+06    -18.7993E+06    -368.577E+03    -15.5075E-03     31.0666E-03    -15.5591E-03     12.7854E-03    -15.5033E-03     30.7286E-03    -15.4945E-03     12.7783E-03
             543     4.43084E-03     70.1481E-03    -25.5698E+06    -76.2732E+06    -12.8391E+06    -405.619E+03    -15.5079E-03     31.0771E-03    -15.5692E-03     16.0258E-03    -15.5072E-03     30.7520E-03    -15.4857E-03     16.0174E-03
             544     5.31708E-03     70.1645E-03    -22.9297E+06    -71.3026E+06    -7.24557E+06    -488.221E+03    -15.5159E-03     31.0928E-03    -15.5769E-03     19.3148E-03    -15.5177E-03     30.7811E-03    -15.4765E-03     19.3044E-03
             545     6.20330E-03     70.1839E-03    -20.2987E+06    -66.6487E+06    -2.41674E+06    -557.531E+03    -15.5315E-03     31.1126E-03    -15.5812E-03     22.6549E-03    -15.5344E-03     30.8139E-03    -15.4672E-03     22.6425E-03
             546     7.08957E-03     70.2065E-03    -17.6950E+06    -62.1970E+06     1.51140E+06    -538.002E+03    -15.5603E-03     31.1418E-03    -15.5815E-03     26.0416E-03    -15.5631E-03     30.8566E-03    -15.4581E-03     26.0280E-03
             547     7.97581E-03     70.2323E-03    -15.3384E+06    -59.2384E+06     4.26743E+06    -548.385E+03    -15.5980E-03     31.1769E-03    -15.5790E-03     29.4665E-03    -15.5984E-03     30.9002E-03    -15.4495E-03     29.4510E-03
             548     8.86210E-03     70.2612E-03    -13.2254E+06    -56.0613E+06     5.51488E+06    -506.363E+03    -15.6422E-03     31.2114E-03    -15.5693E-03     32.9038E-03    -15.6400E-03     30.9473E-03    -15.4412E-03     32.8868E-03
             549     9.74839E-03     70.2933E-03    -11.4207E+06    -51.4909E+06     5.93671E+06    -534.785E+03    -15.6895E-03     31.2436E-03    -15.5541E-03     36.3629E-03    -15.6878E-03     31.0014E-03    -15.4332E-03     36.3428E-03
             550     10.6346E-03     70.3287E-03    -9.78254E+06    -48.3213E+06     6.09527E+06    -361.825E+03    -15.7373E-03     31.2773E-03    -15.5400E-03     39.7487E-03    -15.7357E-03     31.0517E-03    -15.4252E-03     39.7274E-03
             551     11.5211E-03     70.3671E-03    -8.53764E+06    -44.2811E+06     3.88495E+06    -334.728E+03    -15.8013E-03     31.3149E-03    -15.5137E-03     42.9339E-03    -15.8010E-03     31.1159E-03    -15.4176E-03     42.9089E-03
             552     12.4072E-03     70.4083E-03    -7.53774E+06    -32.7704E+06     3.57081E+06    -348.272E+03    -15.8196E-03     31.3056E-03    -15.4860E-03     46.2430E-03    -15.8380E-03     31.1706E-03    -15.4097E-03     46.2134E-03
             553     13.2939E-03     70.4529E-03    -6.89009E+06    -19.7135E+06     3.52689E+06    -261.682E+03    -15.8424E-03     31.2987E-03    -15.4564E-03     49.9040E-03    -15.8889E-03     31.2406E-03    -15.4002E-03     49.8708E-03
             554     14.1801E-03     70.5007E-03    -6.40977E+06    -6.78855E+06    -677.864E+03    -177.698E+03    -15.9245E-03     31.3311E-03    -15.4066E-03     53.8821E-03    -16.0042E-03     31.3659E-03    -15.3908E-03     53.8461E-03
             555     15.0661E-03     70.5523E-03    -6.31849E+06     27.5685E+06    -2.87559E+06     413.803E+03    -16.0125E-03     31.3498E-03    -15.3373E-03     60.1829E-03    -16.1834E-03     31.6045E-03    -15.3825E-03     60.1597E-03
             556     15.9526E-03     70.6126E-03    -6.63015E+06     82.9223E+06     13.1098E+06     387.429E+03    -15.6725E-03     30.9972E-03    -15.3248E-03     60.4686E-03    -16.0058E-03     31.5633E-03    -15.3698E-03     60.4814E-03
             557     16.8413E-03     70.6638E-03    -3.75470E+06     110.201E+06     50.0346E+06    -414.676E+03    -14.7743E-03     30.2145E-03    -15.4402E-03     33.2642E-03    -15.1298E-03     30.8027E-03    -15.3443E-03     33.2862E-03
             558     886.166E-06     71.0902E-03    -33.1947E+06    -93.3888E+06    -32.4588E+06    -119.967E+03    -15.5298E-03     31.0595E-03    -15.5297E-03     3.50037E-03    -15.5133E-03     30.6878E-03    -15.5085E-03     3.49826E-03
             559     1.77228E-03     71.0948E-03    -32.0953E+06    -90.3456E+06    -29.2637E+06    -217.941E+03    -15.5212E-03     31.0590E-03    -15.5379E-03     6.45623E-03    -15.5083E-03     30.6964E-03    -15.5066E-03     6.45236E-03
             560     2.65849E-03     71.1022E-03    -30.3817E+06    -85.9017E+06    -24.5508E+06    -330.012E+03    -15.5110E-03     31.0574E-03    -15.5464E-03     9.59139E-03    -15.5030E-03     30.7078E-03    -15.5006E-03     9.58549E-03
             561     3.54464E-03     71.1126E-03    -28.2235E+06    -80.9630E+06    -18.8967E+06    -432.294E+03    -15.5061E-03     31.0628E-03    -15.5567E-03     12.7844E-03    -15.5028E-03     30.7267E-03    -15.4928E-03     12.7765E-03
             562     4.43087E-03     71.1259E-03    -25.6862E+06    -75.9704E+06    -12.9838E+06    -545.308E+03    -15.5071E-03     31.0739E-03    -15.5668E-03     16.0248E-03    -15.5072E-03     30.7508E-03    -15.4843E-03     16.0147E-03
             563     5.31706E-03     71.1423E-03    -22.9649E+06    -71.0653E+06    -7.33858E+06    -570.107E+03    -15.5165E-03     31.0916E-03    -15.5751E-03     19.3139E-03    -15.5186E-03     30.7812E-03    -15.4755E-03     19.3025E-03
             564     6.20332E-03     71.1618E-03    -20.3074E+06    -66.3468E+06    -2.44245E+06    -608.704E+03    -15.5341E-03     31.1141E-03    -15.5800E-03     22.6539E-03    -15.5374E-03     30.8169E-03    -15.4666E-03     22.6408E-03
             565     7.08954E-03     71.1843E-03    -17.7634E+06    -62.0260E+06     1.34828E+06    -702.119E+03    -15.5583E-03     31.1384E-03    -15.5801E-03     26.0489E-03    -15.5615E-03     30.8544E-03    -15.4576E-03     26.0333E-03
             566     7.97583E-03     71.2101E-03    -15.3315E+06    -59.0931E+06     4.13987E+06    -635.885E+03    -15.5932E-03     31.1705E-03    -15.5774E-03     29.4605E-03    -15.5936E-03     30.8947E-03    -15.4488E-03     29.4439E-03
             567     8.86210E-03     71.2390E-03    -13.1775E+06    -55.9117E+06     5.45228E+06    -656.967E+03    -15.6386E-03     31.2062E-03    -15.5676E-03     32.9021E-03    -15.6364E-03     30.9429E-03    -15.4402E-03     32.8831E-03
             568     9.74840E-03     71.2711E-03    -11.2974E+06    -51.3097E+06     6.00965E+06    -637.251E+03    -15.6836E-03     31.2362E-03    -15.5527E-03     36.3532E-03    -15.6817E-03     30.9946E-03    -15.4318E-03     36.3318E-03
             569     10.6347E-03     71.3065E-03    -9.76743E+06    -48.4793E+06     6.00031E+06    -554.015E+03    -15.7390E-03     31.2772E-03    -15.5382E-03     39.7577E-03    -15.7369E-03     31.0509E-03    -15.4237E-03     39.7340E-03
             570     11.5209E-03     71.3449E-03    -8.46583E+06    -44.0431E+06     3.91334E+06    -439.216E+03    -15.7941E-03     31.3058E-03    -15.5117E-03     42.9636E-03    -15.7938E-03     31.1078E-03    -15.4160E-03     42.9373E-03
             571     12.4075E-03     71.3862E-03    -7.49109E+06    -32.5351E+06     3.78961E+06    -424.832E+03    -15.7748E-03     31.2582E-03    -15.4834E-03     46.1585E-03    -15.7936E-03     31.1240E-03    -15.4064E-03     46.1280E-03
             572     13.2937E-03     71.4304E-03    -6.62967E+06    -20.1791E+06     3.56077E+06    -250.032E+03    -15.7811E-03     31.2315E-03    -15.4504E-03     49.7789E-03    -15.8254E-03     31.1703E-03    -15.3937E-03     49.7460E-03
             573     14.1803E-03     71.4785E-03    -6.22450E+06    -6.40152E+06    -420.794E+03    -162.347E+03    -15.9445E-03     31.3441E-03    -15.3996E-03     53.8745E-03    -16.0243E-03     31.3803E-03    -15.3834E-03     53.8386E-03
             574     15.0667E-03     71.5305E-03    -5.46304E+06     26.8273E+06    -2.63247E+06     231.924E+03    -15.8445E-03     31.1718E-03    -15.3273E-03     60.0073E-03    -16.0101E-03     31.4209E-03    -15.3714E-03     59.9825E-03
             575     15.9537E-03     71.5896E-03    -3.51253E+06     83.2372E+06     14.1799E+06     681.932E+03    -15.2038E-03     30.5009E-03    -15.2970E-03     60.1126E-03    -15.5204E-03     31.0593E-03    -15.3417E-03     60.1305E-03
             576     16.8389E-03     71.6414E-03    -2.53073E+06     111.317E+06     50.5523E+06    -267.320E+03    -15.1117E-03     30.5202E-03    -15.4085E-03     33.3262E-03    -15.4612E-03     31.1093E-03    -15.3135E-03     33.3494E-03
             577     886.133E-06     72.0681E-03    -33.3455E+06    -93.0278E+06    -32.5150E+06    -168.192E+03    -15.5259E-03     31.0552E-03    -15.5293E-03     3.50121E-03    -15.5106E-03     30.6856E-03    -15.5086E-03     3.49847E-03
             578     1.77232E-03     72.0726E-03    -32.1591E+06    -89.9754E+06    -29.3291E+06    -268.294E+03    -15.5173E-03     31.0527E-03    -15.5354E-03     6.45514E-03    -15.5052E-03     30.6921E-03    -15.5050E-03     6.45061E-03
             579     2.65846E-03     72.0800E-03    -30.4506E+06    -85.5271E+06    -24.6224E+06    -374.003E+03    -15.5099E-03     31.0537E-03    -15.5438E-03     9.59304E-03    -15.5026E-03     30.7061E-03    -15.4988E-03     9.58657E-03
             580     3.54467E-03     72.0904E-03    -28.2452E+06    -80.5905E+06    -18.9420E+06    -499.263E+03    -15.5052E-03     31.0597E-03    -15.5545E-03     12.7856E-03    -15.5025E-03     30.7256E-03    -15.4914E-03     12.7768E-03
             581     4.43084E-03     72.1038E-03    -25.7770E+06    -75.5986E+06    -13.0636E+06    -620.022E+03    -15.5065E-03     31.0713E-03    -15.5649E-03     16.0266E-03    -15.5074E-03     30.7503E-03    -15.4832E-03     16.0155E-03
             582     5.31709E-03     72.1201E-03    -23.1227E+06    -70.8096E+06    -7.50639E+06    -731.054E+03    -15.5146E-03     31.0877E-03    -15.5731E-03     19.3165E-03    -15.5176E-03     30.7791E-03    -15.4745E-03     19.3030E-03
             583     6.20330E-03     72.1396E-03    -20.3604E+06    -66.0971E+06    -2.57678E+06    -742.714E+03    -15.5318E-03     31.1098E-03    -15.5780E-03     22.6594E-03    -15.5356E-03     30.8141E-03    -15.4655E-03     22.6446E-03
             584     7.08958E-03     72.1622E-03    -17.7556E+06    -61.6508E+06     1.38085E+06    -803.832E+03    -15.5554E-03     31.1338E-03    -15.5785E-03     26.0458E-03    -15.5591E-03     30.8517E-03    -15.4565E-03     26.0289E-03
             585     7.97583E-03     72.1879E-03    -15.3413E+06    -59.0503E+06     4.05444E+06    -857.747E+03    -15.5927E-03     31.1684E-03    -15.5757E-03     29.4589E-03    -15.5931E-03     30.8930E-03    -15.4475E-03     29.4394E-03
             586     8.86212E-03     72.2168E-03    -13.1889E+06    -55.6851E+06     5.38809E+06    -757.217E+03    -15.6394E-03     31.2054E-03    -15.5659E-03     32.8979E-03    -15.6375E-03     30.9432E-03    -15.4391E-03     32.8776E-03
             587     9.74840E-03     72.2489E-03    -11.3997E+06    -51.1633E+06     5.93857E+06    -810.775E+03    -15.6793E-03     31.2305E-03    -15.5512E-03     36.3249E-03    -15.6780E-03     30.9898E-03    -15.4308E-03     36.3013E-03
             588     10.6347E-03     72.2842E-03    -9.79583E+06    -48.5099E+06     5.90919E+06    -701.638E+03    -15.7322E-03     31.2687E-03    -15.5365E-03     39.7310E-03    -15.7301E-03     31.0424E-03    -15.4224E-03     39.7054E-03
             589     11.5211E-03     72.3227E-03    -8.66443E+06    -43.9812E+06     3.75843E+06    -514.823E+03    -15.7852E-03     31.2946E-03    -15.5094E-03     42.9191E-03    -15.7858E-03     31.0974E-03    -15.4143E-03     42.8919E-03
             590     12.4073E-03     72.3638E-03    -7.75811E+06    -32.3788E+06     3.58895E+06    -560.421E+03    -15.8129E-03     31.2950E-03    -15.4821E-03     46.0396E-03    -15.8330E-03     31.1623E-03    -15.4060E-03     46.0072E-03
             591     13.2939E-03     72.4081E-03    -6.87535E+06    -20.2299E+06     3.33365E+06    -449.562E+03    -15.8510E-03     31.3042E-03    -15.4532E-03     49.6230E-03    -15.8963E-03     31.2435E-03    -15.3972E-03     49.5873E-03
             592     14.1801E-03     72.4562E-03    -6.08583E+06    -6.41397E+06    -564.567E+03    -140.712E+03    -15.9314E-03     31.3355E-03    -15.4041E-03     53.7378E-03    -16.0103E-03     31.3717E-03    -15.3888E-03     53.7021E-03
             593     15.0665E-03     72.5083E-03    -5.55465E+06     26.8840E+06    -2.73005E+06    -551.914E+03    -15.8239E-03     31.1557E-03    -15.3318E-03     59.0798E-03    -15.9887E-03     31.4042E-03    -15.3764E-03     59.0448E-03
             594     15.9532E-03     72.5664E-03    -4.17941E+06     83.0761E+06     14.6681E+06    -818.558E+03    -15.4784E-03     30.7927E-03    -15.3143E-03     58.7928E-03    -15.7979E-03     31.3497E-03    -15.3554E-03     58.7885E-03
             595     16.8426E-03     72.6187E-03    -2.59059E+06     111.511E+06      51.257E+06     486.277E+03    -15.1557E-03     30.5907E-03    -15.4350E-03     32.8060E-03    -15.5067E-03     31.1797E-03    -15.3367E-03     32.8368E-03
             596     886.158E-06     73.0459E-03    -33.4201E+06    -92.5639E+06    -32.6857E+06    -206.547E+03    -15.5202E-03     31.0485E-03    -15.5283E-03     3.50074E-03    -15.5057E-03     30.6816E-03    -15.5091E-03     3.49751E-03
             597     1.77229E-03     73.0504E-03    -32.3235E+06    -89.5599E+06    -29.4893E+06    -337.621E+03    -15.5150E-03     31.0472E-03    -15.5323E-03     6.45857E-03    -15.5041E-03     30.6892E-03    -15.5030E-03     6.45315E-03
             598     2.65850E-03     73.0579E-03    -30.5378E+06    -85.1284E+06    -24.7521E+06    -461.568E+03    -15.5081E-03     31.0492E-03    -15.5411E-03     9.59456E-03    -15.5017E-03     30.7039E-03    -15.4971E-03     9.58696E-03
             599     3.54465E-03     73.0682E-03    -28.3158E+06    -80.1562E+06    -19.0407E+06    -612.646E+03    -15.5034E-03     31.0554E-03    -15.5520E-03     12.7893E-03    -15.5015E-03     30.7236E-03    -15.4899E-03     12.7791E-03
             600     4.43088E-03     73.0816E-03    -25.7554E+06    -75.2691E+06    -13.0893E+06    -700.474E+03    -15.5044E-03     31.0672E-03    -15.5628E-03     16.0296E-03    -15.5057E-03     30.7478E-03    -15.4817E-03     16.0175E-03
             601     5.31707E-03     73.0979E-03    -23.1186E+06    -70.3831E+06    -7.51406E+06    -809.368E+03    -15.5128E-03     31.0838E-03    -15.5710E-03     19.3200E-03    -15.5165E-03     30.7774E-03    -15.4730E-03     19.3055E-03
             602     6.20334E-03     73.1174E-03    -20.4618E+06    -65.8419E+06    -2.68257E+06    -949.533E+03    -15.5290E-03     31.1047E-03    -15.5758E-03     22.6602E-03    -15.5335E-03     30.8106E-03    -15.4640E-03     22.6427E-03
             603     7.08956E-03     73.1400E-03    -17.8261E+06    -61.3746E+06     1.25901E+06    -931.283E+03    -15.5539E-03     31.1300E-03    -15.5761E-03     26.0407E-03    -15.5582E-03     30.8495E-03    -15.4550E-03     26.0220E-03
             604     7.97586E-03     73.1657E-03    -15.4439E+06    -58.7349E+06     4.00395E+06    -1.01495E+06    -15.5948E-03     31.1688E-03    -15.5739E-03     29.4518E-03    -15.5961E-03     30.8951E-03    -15.4463E-03     29.4304E-03
             605     8.86211E-03     73.1946E-03    -13.2444E+06    -55.6788E+06     5.17298E+06    -1.00205E+06    -15.6381E-03     31.2020E-03    -15.5639E-03     32.8890E-03    -15.6361E-03     30.9403E-03    -15.4381E-03     32.8655E-03
             606     9.74842E-03     73.2267E-03    -11.3540E+06    -50.7999E+06     5.86710E+06    -862.679E+03    -15.6917E-03     31.2416E-03    -15.5499E-03     36.3173E-03    -15.6906E-03     31.0029E-03    -15.4304E-03     36.2929E-03
             607     10.6347E-03     73.2620E-03    -9.91830E+06    -48.5606E+06     5.68548E+06    -861.201E+03    -15.7471E-03     31.2836E-03    -15.5365E-03     39.6804E-03    -15.7451E-03     31.0575E-03    -15.4233E-03     39.6527E-03
             608     11.5210E-03     73.3004E-03    -8.64277E+06    -44.1392E+06     3.42074E+06    -645.046E+03    -15.7929E-03     31.3025E-03    -15.5097E-03     42.8487E-03    -15.7926E-03     31.1050E-03    -15.4160E-03     42.8198E-03
             609     12.4075E-03     73.3416E-03    -7.71345E+06    -32.1881E+06     3.41158E+06    -541.977E+03    -15.8622E-03     31.3467E-03    -15.4846E-03     46.0378E-03    -15.8822E-03     31.2152E-03    -15.4096E-03     46.0055E-03
             610     13.2934E-03     73.3860E-03    -6.98770E+06    -19.6556E+06     3.24602E+06    -643.719E+03    -15.9506E-03     31.4110E-03    -15.4604E-03     49.6229E-03    -15.9973E-03     31.3537E-03    -15.4056E-03     49.5844E-03
             611     14.1799E-03     73.4338E-03    -6.16866E+06    -6.95460E+06    -978.477E+03    -571.077E+03    -15.9274E-03     31.3412E-03    -15.4139E-03     53.7642E-03    -16.0051E-03     31.3752E-03    -15.3997E-03     53.7231E-03
             612     15.0661E-03     73.4863E-03    -5.87099E+06     27.4806E+06    -3.01468E+06    -435.613E+03    -16.0299E-03     31.3758E-03    -15.3459E-03     59.2660E-03    -16.1971E-03     31.6285E-03    -15.3923E-03     59.2315E-03
             613     15.9525E-03     73.5437E-03    -6.72200E+06     83.0618E+06     13.3558E+06    -201.643E+03    -16.1117E-03     31.4609E-03    -15.3492E-03     59.4792E-03    -16.4461E-03     32.0275E-03    -15.3931E-03     59.4805E-03
             614     16.8351E-03     73.5978E-03    -3.93472E+06     110.460E+06     50.3935E+06     225.722E+03    -14.7457E-03     30.2219E-03    -15.4762E-03     32.9051E-03    -15.1035E-03     30.8117E-03    -15.3787E-03     32.9328E-03
             615     886.150E-06     74.0237E-03    -33.5962E+06    -92.0325E+06    -32.7669E+06    -224.363E+03    -15.5185E-03     31.0412E-03    -15.5227E-03     3.50315E-03    -15.5056E-03     30.6773E-03    -15.5043E-03     3.49969E-03
             616     1.77232E-03     74.0283E-03    -32.4199E+06    -89.0598E+06    -29.6097E+06    -399.904E+03    -15.5141E-03     31.0433E-03    -15.5292E-03     6.45894E-03    -15.5042E-03     30.6880E-03    -15.5011E-03     6.45272E-03
             617     2.65846E-03     74.0357E-03    -30.6814E+06    -84.6535E+06    -24.9098E+06    -590.898E+03    -15.5050E-03     31.0433E-03    -15.5383E-03     9.59741E-03    -15.4997E-03     30.7009E-03    -15.4956E-03     9.58814E-03
             618     3.54469E-03     74.0461E-03    -28.4398E+06    -79.7205E+06    -19.1964E+06    -720.338E+03    -15.4998E-03     31.0489E-03    -15.5491E-03     12.7925E-03    -15.4990E-03     30.7198E-03    -15.4883E-03     12.7808E-03
             619     4.43085E-03     74.0594E-03    -25.8949E+06    -74.8561E+06    -13.2418E+06    -879.998E+03    -15.5010E-03     31.0608E-03    -15.5598E-03     16.0331E-03    -15.5034E-03     30.7439E-03    -15.4799E-03     16.0186E-03
             620     5.31712E-03     74.0758E-03    -23.1430E+06    -70.0556E+06    -7.61107E+06    -928.325E+03    -15.5109E-03     31.0792E-03    -15.5682E-03     19.3233E-03    -15.5150E-03     30.7745E-03    -15.4712E-03     19.3072E-03
             621     6.20331E-03     74.0952E-03    -20.4961E+06    -65.3474E+06    -2.73227E+06    -1.02963E+06    -15.5278E-03     31.1009E-03    -15.5731E-03     22.6590E-03    -15.5331E-03     30.8094E-03    -15.4623E-03     22.6405E-03
             622     7.08961E-03     74.1178E-03    -17.9393E+06    -61.2384E+06     1.03154E+06    -1.14385E+06    -15.5545E-03     31.1280E-03    -15.5735E-03     26.0416E-03    -15.5592E-03     30.8486E-03    -15.4535E-03     26.0203E-03
             623     7.97584E-03     74.1435E-03    -15.4993E+06    -58.3329E+06     3.82767E+06    -1.10711E+06    -15.5945E-03     31.1659E-03    -15.5713E-03     29.4537E-03    -15.5964E-03     30.8946E-03    -15.4451E-03     29.4310E-03
             624     8.86214E-03     74.1724E-03    -13.3915E+06    -55.4305E+06     4.99985E+06    -1.24447E+06    -15.6438E-03     31.2060E-03    -15.5622E-03     32.8790E-03    -15.6427E-03     30.9460E-03    -15.4374E-03     32.8524E-03
             625     9.74843E-03     74.2045E-03    -11.4336E+06    -50.9086E+06     5.53210E+06    -1.10668E+06    -15.6986E-03     31.2470E-03    -15.5484E-03     36.3304E-03    -15.6973E-03     31.0083E-03    -15.4303E-03     36.3029E-03
             626     10.6347E-03     74.2399E-03    -9.79587E+06    -48.2277E+06     5.64017E+06    -916.759E+03    -15.7630E-03     31.2994E-03    -15.5364E-03     39.6868E-03    -15.7609E-03     31.0750E-03    -15.4241E-03     39.6584E-03
             627     11.5210E-03     74.2781E-03    -8.59413E+06    -44.2912E+06     3.22886E+06    -878.114E+03    -15.8277E-03     31.3391E-03    -15.5115E-03     42.8853E-03    -15.8267E-03     31.1411E-03    -15.4186E-03     42.8533E-03
             628     12.4071E-03     74.3195E-03    -7.45937E+06    -32.2122E+06     3.29957E+06    -673.206E+03    -15.8624E-03     31.3496E-03    -15.4872E-03     46.1249E-03    -15.8808E-03     31.2177E-03    -15.4132E-03     46.0909E-03
             629     13.2938E-03     74.3638E-03    -6.67154E+06    -19.3821E+06     3.38616E+06    -511.298E+03    -15.8868E-03     31.3480E-03    -15.4612E-03     49.8328E-03    -15.9325E-03     31.2914E-03    -15.4065E-03     49.7962E-03
             630     14.1797E-03     74.4120E-03    -6.40786E+06    -6.71493E+06    -1.04524E+06    -749.261E+03    -15.9004E-03     31.3116E-03    -15.4112E-03     53.9323E-03    -15.9796E-03     31.3472E-03    -15.3974E-03     53.8890E-03
             631     15.0667E-03     74.4632E-03    -6.36283E+06     26.7393E+06    -3.48179E+06    -98.5648E+03    -16.0868E-03     31.4300E-03    -15.3432E-03     60.0598E-03    -16.2559E-03     31.6815E-03    -15.3902E-03     60.0295E-03
             632     15.9521E-03     74.5236E-03    -5.36153E+06     83.2116E+06     12.4793E+06     694.071E+03    -15.7489E-03     31.0793E-03    -15.3304E-03     60.7756E-03    -16.0768E-03     31.6474E-03    -15.3809E-03     60.7916E-03
             633     16.8416E-03     74.5752E-03    -2.86293E+06     111.183E+06     49.6521E+06    -239.650E+03    -14.7385E-03     30.1849E-03    -15.4464E-03     33.3626E-03    -15.0910E-03     30.7780E-03    -15.3552E-03     33.3867E-03
             634     886.159E-06     75.0015E-03    -33.6753E+06    -91.3860E+06    -32.9353E+06    -269.553E+03    -15.5153E-03     31.0368E-03    -15.5214E-03     3.50254E-03    -15.5035E-03     30.6765E-03    -15.5048E-03     3.49850E-03
             635     1.77230E-03     75.0060E-03    -32.5280E+06    -88.5296E+06    -29.7133E+06    -483.561E+03    -15.5095E-03     31.0361E-03    -15.5267E-03     6.46062E-03    -15.5007E-03     30.6838E-03    -15.4997E-03     6.45331E-03
             636     2.65850E-03     75.0135E-03    -30.7914E+06    -84.0908E+06    -25.0280E+06    -659.199E+03    -15.5019E-03     31.0371E-03    -15.5352E-03     9.60129E-03    -15.4978E-03     30.6977E-03    -15.4937E-03     9.59114E-03
             637     3.54465E-03     75.0238E-03    -28.5939E+06    -79.2349E+06    -19.3820E+06    -868.946E+03    -15.4959E-03     31.0416E-03    -15.5457E-03     12.7951E-03    -15.4962E-03     30.7153E-03    -15.4863E-03     12.7816E-03
             638     4.43091E-03     75.0372E-03    -26.0666E+06    -74.3782E+06    -13.4635E+06    -991.479E+03    -15.4983E-03     31.0545E-03    -15.5562E-03     16.0371E-03    -15.5019E-03     30.7406E-03    -15.4779E-03     16.0212E-03
             639     5.31708E-03     75.0536E-03    -23.3820E+06    -69.6446E+06    -7.88629E+06    -1.18460E+06    -15.5078E-03     31.0725E-03    -15.5646E-03     19.3256E-03    -15.5133E-03     30.7706E-03    -15.4692E-03     19.3062E-03
             640     6.20338E-03     75.0730E-03    -20.5474E+06    -65.0069E+06    -2.95844E+06    -1.20964E+06    -15.5253E-03     31.0949E-03    -15.5696E-03     22.6612E-03    -15.5310E-03     30.8055E-03    -15.4604E-03     22.6403E-03
             641     7.08957E-03     75.0956E-03    -17.9254E+06    -60.7871E+06     955.052E+03    -1.29768E+06    -15.5539E-03     31.1245E-03    -15.5706E-03     26.0461E-03    -15.5591E-03     30.8475E-03    -15.4517E-03     26.0228E-03
             642     7.97589E-03     75.1213E-03    -15.4754E+06    -58.1760E+06     3.61437E+06    -1.36708E+06    -15.5954E-03     31.1637E-03    -15.5684E-03     29.4564E-03    -15.5971E-03     30.8935E-03    -15.4435E-03     29.4304E-03
             643     8.86214E-03     75.1502E-03    -13.2770E+06    -54.9837E+06     4.96858E+06    -1.31528E+06    -15.6501E-03     31.2102E-03    -15.5601E-03     32.8923E-03    -15.6490E-03     30.9524E-03    -15.4363E-03     32.8648E-03
             644     9.74838E-03     75.1823E-03    -11.5238E+06    -50.9488E+06     5.32536E+06    -1.39449E+06    -15.6901E-03     31.2366E-03    -15.5464E-03     36.3402E-03    -15.6889E-03     30.9981E-03    -15.4292E-03     36.3090E-03
             645     10.6348E-03     75.2176E-03    -9.84721E+06    -48.2719E+06     5.40395E+06    -1.15698E+06    -15.7519E-03     31.2854E-03    -15.5335E-03     39.7399E-03    -15.7496E-03     31.0611E-03    -15.4222E-03     39.7084E-03
             646     11.5210E-03     75.2560E-03    -8.48529E+06    -44.0358E+06     3.31210E+06    -998.750E+03    -15.8298E-03     31.3389E-03    -15.5091E-03     42.9661E-03    -15.8288E-03     31.1419E-03    -15.4164E-03     42.9325E-03
             647     12.4074E-03     75.2972E-03    -7.62643E+06    -32.3931E+06     3.08186E+06    -917.413E+03    -15.8244E-03     31.3076E-03    -15.4832E-03     46.2383E-03    -15.8431E-03     31.1753E-03    -15.4098E-03     46.2014E-03
             648     13.2935E-03     75.3416E-03    -6.52161E+06    -19.5326E+06     3.31955E+06    -622.356E+03    -15.7793E-03     31.2321E-03    -15.4528E-03     49.8152E-03    -15.8237E-03     31.1744E-03    -15.3984E-03     49.7775E-03
             649     14.1806E-03     75.3894E-03    -6.25063E+06    -6.39335E+06    -920.973E+03    -80.5449E+03    -15.9168E-03     31.3174E-03    -15.4005E-03     53.9592E-03    -15.9960E-03     31.3543E-03    -15.3868E-03     53.9244E-03
             650     15.0661E-03     75.4416E-03    -6.28359E+06     26.4327E+06    -3.45404E+06    -276.988E+03    -15.8943E-03     31.2229E-03    -15.3286E-03     60.1025E-03    -16.0624E-03     31.4726E-03    -15.3751E-03     60.0711E-03
             651     15.9537E-03     75.5007E-03    -4.51196E+06     83.2870E+06     13.9318E+06    -840.268E+03    -15.3624E-03     30.6691E-03    -15.3067E-03     59.8295E-03    -15.6851E-03     31.2310E-03    -15.3513E-03     59.8277E-03
             652     16.8393E-03     75.5515E-03    -2.63968E+06     111.667E+06     50.6602E+06    -144.277E+03    -15.0814E-03     30.5033E-03    -15.4220E-03     32.2820E-03    -15.4321E-03     31.0942E-03    -15.3268E-03     32.3064E-03
             653     886.143E-06     75.9793E-03    -33.9243E+06    -90.6905E+06    -33.1429E+06    -335.883E+03    -15.5097E-03     31.0290E-03    -15.5193E-03     3.50437E-03    -15.4998E-03     30.6728E-03    -15.5043E-03     3.49947E-03
             654     1.77233E-03     75.9839E-03    -32.7611E+06    -87.8715E+06    -29.9422E+06    -564.121E+03    -15.5053E-03     31.0281E-03    -15.5228E-03     6.46629E-03    -15.4984E-03     30.6798E-03    -15.4976E-03     6.45794E-03
             655     2.65847E-03     75.9913E-03    -30.9687E+06    -83.5280E+06    -25.2412E+06    -786.789E+03    -15.4978E-03     31.0291E-03    -15.5313E-03     9.60192E-03    -15.4951E-03     30.6932E-03    -15.4915E-03     9.59011E-03
             656     3.54471E-03     76.0017E-03    -28.7454E+06    -78.6141E+06    -19.5680E+06    -980.510E+03    -15.4936E-03     31.0355E-03    -15.5419E-03     12.7974E-03    -15.4953E-03     30.7128E-03    -15.4841E-03     12.7824E-03
             657     4.43086E-03     76.0150E-03    -26.1857E+06    -73.8786E+06    -13.6782E+06    -1.20264E+06    -15.4955E-03     31.0481E-03    -15.5526E-03     16.0394E-03    -15.5001E-03     30.7372E-03    -15.4759E-03     16.0208E-03
             658     5.31715E-03     76.0314E-03    -23.4552E+06    -69.0528E+06    -8.07819E+06    -1.35157E+06    -15.5038E-03     31.0647E-03    -15.5609E-03     19.3280E-03    -15.5103E-03     30.7662E-03    -15.4671E-03     19.3065E-03
             659     6.20332E-03     76.0508E-03    -20.7408E+06    -64.6940E+06    -3.24396E+06    -1.55480E+06    -15.5211E-03     31.0869E-03    -15.5658E-03     22.6658E-03    -15.5279E-03     30.7998E-03    -15.4581E-03     22.6406E-03
             660     7.08965E-03     76.0734E-03    -17.9950E+06    -60.3862E+06     720.766E+03    -1.52951E+06    -15.5496E-03     31.1161E-03    -15.5666E-03     26.0537E-03    -15.5554E-03     30.8416E-03    -15.4493E-03     26.0273E-03
             661     7.97586E-03     76.0991E-03    -15.5474E+06    -57.8068E+06     3.50324E+06    -1.61789E+06    -15.5950E-03     31.1601E-03    -15.5651E-03     29.4668E-03    -15.5975E-03     30.8920E-03    -15.4412E-03     29.4375E-03
             662     8.86216E-03     76.1280E-03    -13.3169E+06    -54.9024E+06     4.71915E+06    -1.59052E+06    -15.6385E-03     31.1946E-03    -15.5561E-03     32.9129E-03    -15.6373E-03     30.9376E-03    -15.4336E-03     32.8818E-03
             663     9.74847E-03     76.1602E-03    -11.4152E+06    -50.5105E+06     5.40335E+06    -1.47777E+06    -15.6833E-03     31.2261E-03    -15.5428E-03     36.3409E-03    -15.6822E-03     30.9895E-03    -15.4260E-03     36.3087E-03
             664     10.6347E-03     76.1953E-03    -9.81270E+06    -48.4081E+06     5.21837E+06    -1.55883E+06    -15.7386E-03     31.2674E-03    -15.5289E-03     39.7611E-03    -15.7356E-03     31.0427E-03    -15.4184E-03     39.7244E-03
             665     11.5211E-03     76.2339E-03    -8.41230E+06    -44.1142E+06     3.09505E+06    -1.22434E+06    -15.7677E-03     31.2693E-03    -15.5016E-03     42.9678E-03    -15.7659E-03     31.0720E-03    -15.4100E-03     42.9315E-03
             666     12.4074E-03     76.2749E-03    -7.38265E+06    -32.1126E+06     3.20099E+06    -990.061E+03    -15.7783E-03     31.2515E-03    -15.4731E-03     46.2318E-03    -15.7964E-03     31.1200E-03    -15.3998E-03     46.1941E-03
             667     13.2941E-03     76.3193E-03    -6.77464E+06    -19.8369E+06     2.95538E+06    -831.792E+03    -15.8505E-03     31.2938E-03    -15.4433E-03     49.7475E-03    -15.8953E-03     31.2355E-03    -15.3899E-03     49.7069E-03
             668     14.1799E-03     76.3670E-03    -5.69344E+06    -7.07929E+06    -1.08420E+06    -276.836E+03    -15.8711E-03     31.2639E-03    -15.3928E-03     53.9578E-03    -15.9463E-03     31.2969E-03    -15.3797E-03     53.9207E-03
             669     15.0670E-03     76.4197E-03    -5.07262E+06     27.4823E+06    -2.84978E+06    -238.262E+03    -15.7856E-03     31.1028E-03    -15.3172E-03     59.7458E-03    -15.9489E-03     31.3539E-03    -15.3640E-03     59.7154E-03
             670     15.9531E-03     76.4772E-03    -6.10871E+06     83.3423E+06     13.9566E+06    -475.665E+03    -15.6624E-03     30.9665E-03    -15.3041E-03     59.7912E-03    -15.9933E-03     31.5311E-03    -15.3463E-03     59.7922E-03
             671     16.8403E-03     76.5311E-03    -4.13508E+06     110.816E+06     50.3359E+06    -222.267E+03    -15.1137E-03     30.5419E-03    -15.4281E-03     32.8235E-03    -15.4718E-03     31.1327E-03    -15.3312E-03     32.8455E-03
             672     886.173E-06     76.9572E-03    -34.0696E+06    -89.9196E+06    -33.2886E+06    -368.059E+03    -15.5073E-03     31.0200E-03    -15.5127E-03     3.50319E-03    -15.4990E-03     30.6681E-03    -15.4994E-03     3.49787E-03
             673     1.77230E-03     76.9617E-03    -32.9149E+06    -87.1274E+06    -30.1114E+06    -655.764E+03    -15.5026E-03     31.0212E-03    -15.5186E-03     6.46581E-03    -15.4973E-03     30.6770E-03    -15.4951E-03     6.45628E-03
             674     2.65852E-03     76.9691E-03    -31.1685E+06    -82.8106E+06    -25.4530E+06    -947.187E+03    -15.4945E-03     31.0220E-03    -15.5274E-03     9.60410E-03    -15.4936E-03     30.6902E-03    -15.4894E-03     9.59022E-03
             675     3.54467E-03     76.9795E-03    -28.8845E+06    -77.9942E+06    -19.8076E+06    -1.18712E+06    -15.4902E-03     31.0283E-03    -15.5380E-03     12.8002E-03    -15.4932E-03     30.7093E-03    -15.4821E-03     12.7826E-03
             676     4.43093E-03     76.9929E-03    -26.3022E+06    -73.1773E+06    -13.8665E+06    -1.41926E+06    -15.4905E-03     31.0391E-03    -15.5486E-03     16.0431E-03    -15.4964E-03     30.7321E-03    -15.4737E-03     16.0217E-03
             677     5.31710E-03     77.0092E-03    -23.5411E+06    -68.5813E+06    -8.29296E+06    -1.62131E+06    -15.4978E-03     31.0545E-03    -15.5567E-03     19.3336E-03    -15.5050E-03     30.7588E-03    -15.4646E-03     19.3086E-03
             678     6.20342E-03     77.0287E-03    -20.7676E+06    -64.0352E+06    -3.35332E+06    -1.76506E+06    -15.5168E-03     31.0783E-03    -15.5615E-03     22.6738E-03    -15.5245E-03     30.7947E-03    -15.4553E-03     22.6458E-03
             679     7.08960E-03     77.0512E-03    -18.1241E+06    -60.1234E+06     488.756E+03    -1.94487E+06    -15.5443E-03     31.1066E-03    -15.5622E-03     26.0615E-03    -15.5508E-03     30.8339E-03    -15.4463E-03     26.0298E-03
             680     7.97595E-03     77.0770E-03    -15.5166E+06    -57.3644E+06     3.38122E+06    -1.88735E+06    -15.5832E-03     31.1435E-03    -15.5603E-03     29.4831E-03    -15.5859E-03     30.8777E-03    -15.4377E-03     29.4504E-03
             681     8.86218E-03     77.1058E-03    -13.3345E+06    -54.7789E+06     4.62735E+06    -1.87928E+06    -15.6266E-03     31.1777E-03    -15.5512E-03     32.9077E-03    -15.6255E-03     30.9215E-03    -15.4293E-03     32.8729E-03
             682     9.74850E-03     77.1379E-03    -11.3615E+06    -50.2966E+06     5.23460E+06    -1.78805E+06    -15.6746E-03     31.2112E-03    -15.5367E-03     36.3635E-03    -15.6733E-03     30.9759E-03    -15.4211E-03     36.3272E-03
             683     10.6348E-03     77.1732E-03    -9.71855E+06    -48.0420E+06     5.20190E+06    -1.74044E+06    -15.7173E-03     31.2397E-03    -15.5224E-03     39.7521E-03    -15.7144E-03     31.0167E-03    -15.4126E-03     39.7131E-03
             684     11.5211E-03     77.2115E-03    -8.35826E+06    -44.4162E+06     2.69964E+06    -1.63192E+06    -15.7516E-03     31.2449E-03    -15.4933E-03     42.9205E-03    -15.7485E-03     31.0466E-03    -15.4033E-03     42.8790E-03
             685     12.4077E-03     77.2526E-03    -7.22682E+06    -32.1103E+06     3.00233E+06    -1.23520E+06    -15.7793E-03     31.2445E-03    -15.4651E-03     46.1183E-03    -15.7962E-03     31.1130E-03    -15.3931E-03     46.0773E-03
             686     13.2938E-03     77.2971E-03    -6.22835E+06    -19.8837E+06     3.09414E+06    -977.985E+03    -15.8561E-03     31.2931E-03    -15.4371E-03     49.7893E-03    -15.8983E-03     31.2337E-03    -15.3837E-03     49.7468E-03
             687     14.1804E-03     77.3450E-03    -5.60057E+06    -7.38270E+06    -1.29235E+06    -1.03173E+06    -15.8637E-03     31.2499E-03    -15.3862E-03     53.8009E-03    -15.9374E-03     31.2813E-03    -15.3739E-03     53.7541E-03
             688     15.0667E-03     77.3965E-03    -5.39524E+06     26.6256E+06    -3.45328E+06     5.56301E+03    -15.8696E-03     31.1824E-03    -15.3128E-03     59.6438E-03    -16.0327E-03     31.4309E-03    -15.3608E-03     59.6159E-03
             689     15.9534E-03     77.4560E-03    -4.58579E+06     83.6338E+06     12.7647E+06     1.05090E+06    -15.6706E-03     30.9654E-03    -15.2948E-03     60.0423E-03    -15.9921E-03     31.5305E-03    -15.3455E-03     60.0621E-03
             690     16.8393E-03     77.5080E-03    -2.99552E+06     111.475E+06     49.3990E+06    -323.186E+03    -15.1237E-03     30.5436E-03    -15.4199E-03     32.8071E-03    -15.4747E-03     31.1365E-03    -15.3302E-03     32.8280E-03
             691     886.146E-06     77.9349E-03    -34.3196E+06    -89.0431E+06    -33.5453E+06    -423.173E+03    -15.5048E-03     31.0123E-03    -15.5076E-03     3.50670E-03    -15.4986E-03     30.6656E-03    -15.4964E-03     3.50067E-03
             692     1.77234E-03     77.9395E-03    -33.1556E+06    -86.2640E+06    -30.3435E+06    -764.862E+03    -15.4982E-03     31.0129E-03    -15.5147E-03     6.46619E-03    -15.4950E-03     30.6738E-03    -15.4933E-03     6.45525E-03
             693     2.65849E-03     77.9469E-03    -31.3571E+06    -81.9609E+06    -25.6766E+06    -1.11181E+06    -15.4905E-03     31.0139E-03    -15.5234E-03     9.60742E-03    -15.4914E-03     30.6870E-03    -15.4875E-03     9.59142E-03
             694     3.54472E-03     77.9573E-03    -29.1001E+06    -77.2381E+06    -20.0459E+06    -1.44053E+06    -15.4842E-03     31.0180E-03    -15.5338E-03     12.8050E-03    -15.4890E-03     30.7034E-03    -15.4798E-03     12.7841E-03
             695     4.43089E-03     77.9706E-03    -26.4629E+06    -72.4776E+06    -14.1183E+06    -1.68758E+06    -15.4830E-03     31.0268E-03    -15.5438E-03     16.0477E-03    -15.4904E-03     30.7239E-03    -15.4709E-03     16.0228E-03
             696     5.31718E-03     77.9870E-03    -23.6785E+06    -67.8908E+06    -8.45685E+06    -1.93530E+06    -15.4919E-03     31.0438E-03    -15.5519E-03     19.3388E-03    -15.5006E-03     30.7520E-03    -15.4614E-03     19.3098E-03
             697     6.20336E-03     78.0064E-03    -20.8423E+06    -63.5375E+06    -3.53445E+06    -2.09528E+06    -15.5092E-03     31.0657E-03    -15.5565E-03     22.6824E-03    -15.5177E-03     30.7849E-03    -15.4518E-03     22.6501E-03
             698     7.08970E-03     78.0291E-03    -18.1239E+06    -59.4830E+06     452.261E+03    -2.22239E+06    -15.5365E-03     31.0937E-03    -15.5572E-03     26.0698E-03    -15.5439E-03     30.8242E-03    -15.4424E-03     26.0345E-03
             699     7.97591E-03     78.0547E-03    -15.6893E+06    -57.2002E+06     3.11597E+06    -2.29958E+06    -15.5704E-03     31.1248E-03    -15.5544E-03     29.4829E-03    -15.5739E-03     30.8604E-03    -15.4331E-03     29.4449E-03
             700     8.86227E-03     78.0837E-03    -13.3428E+06    -54.3331E+06     4.47865E+06    -2.20000E+06    -15.6193E-03     31.1641E-03    -15.5447E-03     32.9099E-03    -15.6188E-03     30.9103E-03    -15.4242E-03     32.8710E-03
             701     9.74854E-03     78.1156E-03    -11.4040E+06    -50.2467E+06     5.00285E+06    -2.15472E+06    -15.6615E-03     31.1915E-03    -15.5300E-03     36.3503E-03    -15.6602E-03     30.9569E-03    -15.4156E-03     36.3093E-03
             702     10.6349E-03     78.1510E-03    -9.71998E+06    -47.6917E+06     5.11497E+06    -2.00085E+06    -15.7085E-03     31.2241E-03    -15.5156E-03     39.6987E-03    -15.7060E-03     31.0029E-03    -15.4068E-03     39.6563E-03
             703     11.5213E-03     78.1891E-03    -8.44298E+06    -44.4016E+06     2.63598E+06    -1.97454E+06    -15.7801E-03     31.2685E-03    -15.4885E-03     42.8768E-03    -15.7773E-03     31.0705E-03    -15.3986E-03     42.8308E-03
             704     12.4074E-03     78.2305E-03    -7.25109E+06    -32.5524E+06     2.69024E+06    -1.61146E+06    -15.8169E-03     31.2792E-03    -15.4624E-03     46.1100E-03    -15.8329E-03     31.1462E-03    -15.3912E-03     46.0641E-03
             705     13.2941E-03     78.2746E-03    -6.29979E+06    -19.6213E+06     2.95823E+06    -1.27171E+06    -15.8099E-03     31.2441E-03    -15.4343E-03     49.6766E-03    -15.8526E-03     31.1862E-03    -15.3819E-03     49.6304E-03
             706     14.1803E-03     78.3228E-03    -6.09708E+06    -7.69134E+06    -1.72922E+06    -882.354E+03    -15.9507E-03     31.3356E-03    -15.3849E-03     53.6488E-03    -16.0258E-03     31.3668E-03    -15.3735E-03     53.6035E-03
             707     15.0667E-03     78.3742E-03    -5.70915E+06     25.5068E+06    -3.68274E+06    -404.071E+03    -16.0208E-03     31.3415E-03    -15.3208E-03     59.4049E-03    -16.1838E-03     31.5855E-03    -15.3679E-03     59.3710E-03
             708     15.9532E-03     78.4335E-03    -3.77222E+06     83.5204E+06     13.7687E+06    -51.8433E+03    -15.6464E-03     30.9559E-03    -15.3096E-03     59.6638E-03    -15.9653E-03     31.5180E-03    -15.3564E-03     59.6688E-03
             709     16.8407E-03     78.4859E-03    -2.17043E+06     112.351E+06     50.2770E+06     229.785E+03    -15.0653E-03     30.4956E-03    -15.4303E-03     32.6579E-03    -15.4144E-03     31.0900E-03    -15.3386E-03     32.6856E-03
             710     886.170E-06     78.9127E-03    -34.6839E+06    -88.0520E+06    -33.8745E+06    -477.942E+03    -15.5008E-03     31.0028E-03    -15.5020E-03     3.50887E-03    -15.4974E-03     30.6620E-03    -15.4935E-03     3.50213E-03
             711     1.77231E-03     78.9173E-03    -33.4633E+06    -85.2334E+06    -30.6758E+06    -899.773E+03    -15.4929E-03     31.0026E-03    -15.5098E-03     6.47068E-03    -15.4922E-03     30.6696E-03    -15.4910E-03     6.45799E-03
             712     2.65852E-03     78.9247E-03    -31.6547E+06    -81.0003E+06    -25.9586E+06    -1.32019E+06    -15.4836E-03     31.0020E-03    -15.5183E-03     9.61232E-03    -15.4870E-03     30.6807E-03    -15.4848E-03     9.59363E-03
             713     3.54469E-03     78.9351E-03    -29.3330E+06    -76.3374E+06    -20.2540E+06    -1.67992E+06    -15.4769E-03     31.0055E-03    -15.5286E-03     12.8088E-03    -15.4839E-03     30.6961E-03    -15.4766E-03     12.7848E-03
             714     4.43095E-03     78.9484E-03    -26.7070E+06    -71.6679E+06    -14.3434E+06    -2.02355E+06    -15.4767E-03     31.0151E-03    -15.5383E-03     16.0509E-03    -15.4862E-03     30.7169E-03    -15.4674E-03     16.0216E-03
             715     5.31714E-03     78.9648E-03    -23.8744E+06    -67.1221E+06    -8.69742E+06    -2.28149E+06    -15.4842E-03     31.0302E-03    -15.5461E-03     19.3439E-03    -15.4946E-03     30.7429E-03    -15.4576E-03     19.3104E-03
             716     6.20345E-03     78.9843E-03    -21.0596E+06    -62.9541E+06    -3.76337E+06    -2.46875E+06    -15.5007E-03     31.0513E-03    -15.5506E-03     22.6846E-03    -15.5108E-03     30.7741E-03    -15.4476E-03     22.6475E-03
             717     7.08967E-03     79.0068E-03    -18.3579E+06    -58.9721E+06     153.381E+03    -2.54235E+06    -15.5246E-03     31.0752E-03    -15.5506E-03     26.0707E-03    -15.5335E-03     30.8091E-03    -15.4377E-03     26.0312E-03
             718     7.97602E-03     79.0326E-03    -15.8162E+06    -56.6738E+06     2.94189E+06    -2.63039E+06    -15.5641E-03     31.1120E-03    -15.5479E-03     29.4738E-03    -15.5687E-03     30.8507E-03    -15.4280E-03     29.4315E-03
             719     8.86228E-03     79.0613E-03    -13.6341E+06    -54.1115E+06     4.08960E+06    -2.64170E+06    -15.6134E-03     31.1513E-03    -15.5379E-03     32.9159E-03    -15.6141E-03     30.8996E-03    -15.4192E-03     32.8713E-03
             720     9.74860E-03     79.0936E-03    -11.6051E+06    -49.9089E+06     4.72081E+06    -2.53190E+06    -15.6645E-03     31.1883E-03    -15.5238E-03     36.3141E-03    -15.6643E-03     30.9561E-03    -15.4110E-03     36.2683E-03
             721     10.6349E-03     79.1285E-03    -9.80821E+06    -47.6655E+06     4.70026E+06    -2.43109E+06    -15.7240E-03     31.2342E-03    -15.5103E-03     39.6668E-03    -15.7214E-03     31.0140E-03    -15.4034E-03     39.6189E-03
             722     11.5212E-03     79.1672E-03    -8.49796E+06    -44.1229E+06     2.43352E+06    -2.18905E+06    -15.7811E-03     31.2659E-03    -15.4848E-03     42.8552E-03    -15.7788E-03     31.0697E-03    -15.3963E-03     42.8064E-03
             723     12.4078E-03     79.2079E-03    -7.56061E+06    -32.8943E+06     2.17569E+06    -1.96407E+06    -15.8176E-03     31.2762E-03    -15.4586E-03     46.1412E-03    -15.8339E-03     31.1426E-03    -15.3891E-03     46.0907E-03
             724     13.2937E-03     79.2528E-03    -6.67949E+06    -19.9501E+06     2.33566E+06    -1.42932E+06    -15.9115E-03     31.3450E-03    -15.4335E-03     49.6736E-03    -15.9548E-03     31.2870E-03    -15.3832E-03     49.6252E-03
             725     14.1803E-03     79.2999E-03    -5.82734E+06    -7.89591E+06    -1.83927E+06    -862.554E+03    -15.9696E-03     31.3589E-03    -15.3893E-03     53.7324E-03    -16.0431E-03     31.3889E-03    -15.3786E-03     53.6873E-03
             726     15.0663E-03     79.3531E-03    -5.59989E+06     25.5367E+06    -4.28769E+06     -651.83E+03    -16.1017E-03     31.4264E-03    -15.3247E-03     59.7037E-03    -16.2635E-03     31.6715E-03    -15.3751E-03     59.6662E-03
             727     15.9526E-03     79.4103E-03    -5.82944E+06     83.1859E+06     13.0555E+06    -604.142E+03    -15.7766E-03     31.0985E-03    -15.3219E-03     59.8269E-03    -16.1062E-03     31.6648E-03    -15.3688E-03     59.8257E-03
             728     16.8383E-03     79.4646E-03    -3.43565E+06     111.743E+06     50.2354E+06     163.164E+03    -14.8206E-03     30.2627E-03    -15.4421E-03     32.9208E-03    -15.1769E-03     30.8578E-03    -15.3480E-03     32.9491E-03
             729     886.159E-06     79.8905E-03    -34.7735E+06    -86.9019E+06    -34.0450E+06    -559.099E+03    -15.4932E-03     30.9917E-03    -15.4985E-03     3.51090E-03    -15.4917E-03     30.6570E-03    -15.4923E-03     3.50312E-03
             730     1.77234E-03     79.8951E-03    -33.6205E+06    -84.0750E+06    -30.8382E+06    -1.03926E+06    -15.4862E-03     30.9901E-03    -15.5039E-03     6.47339E-03    -15.4878E-03     30.6633E-03    -15.4874E-03     6.45890E-03
             731     2.65851E-03     79.9025E-03    -31.8283E+06    -79.8925E+06    -26.1167E+06    -1.50546E+06    -15.4767E-03     30.9889E-03    -15.5123E-03     9.61546E-03    -15.4823E-03     30.6737E-03    -15.4808E-03     9.59437E-03
             732     3.54474E-03     79.9129E-03    -29.5519E+06    -75.3000E+06    -20.4373E+06    -1.95355E+06    -15.4705E-03     30.9929E-03    -15.5224E-03     12.8113E-03    -15.4798E-03     30.6893E-03    -15.4726E-03     12.7838E-03
             733     4.43093E-03     79.9262E-03    -26.8971E+06    -70.7212E+06    -14.5227E+06    -2.32456E+06    -15.4699E-03     31.0021E-03    -15.5322E-03     16.0542E-03    -15.4814E-03     30.7092E-03    -15.4633E-03     16.0211E-03
             734     5.31721E-03     79.9426E-03    -24.1318E+06    -66.2947E+06    -8.96197E+06    -2.63520E+06    -15.4766E-03     31.0162E-03    -15.5396E-03     19.3461E-03    -15.4891E-03     30.7337E-03    -15.4533E-03     19.3080E-03
             735     6.20343E-03     79.9620E-03    -21.3121E+06    -62.2565E+06    -4.06867E+06    -2.83197E+06    -15.4930E-03     31.0370E-03    -15.5440E-03     22.6855E-03    -15.5050E-03     30.7641E-03    -15.4431E-03     22.6438E-03
             736     7.08975E-03     79.9846E-03    -18.5310E+06    -58.3794E+06    -165.658E+03    -2.99134E+06    -15.5181E-03     31.0619E-03    -15.5438E-03     26.0639E-03    -15.5283E-03     30.7995E-03    -15.4331E-03     26.0187E-03
             737     7.97602E-03     80.0102E-03    -15.9350E+06    -56.1815E+06     2.61598E+06    -3.03877E+06    -15.5602E-03     31.1014E-03    -15.5412E-03     29.4665E-03    -15.5657E-03     30.8432E-03    -15.4235E-03     29.4190E-03
             738     8.86233E-03     80.0392E-03    -13.6089E+06    -53.7774E+06     3.85893E+06    -3.00064E+06    -15.6088E-03     31.1406E-03    -15.5318E-03     32.9009E-03    -15.6095E-03     30.8908E-03    -15.4148E-03     32.8517E-03
             739     9.74866E-03     80.0711E-03    -11.6290E+06    -49.5938E+06     4.35223E+06    -3.00398E+06    -15.6640E-03     31.1813E-03    -15.5173E-03     36.3398E-03    -15.6638E-03     30.9512E-03    -15.4067E-03     36.2878E-03
             740     10.6349E-03     80.1066E-03    -9.96832E+06    -47.5847E+06     4.26921E+06    -2.83574E+06    -15.7313E-03     31.2359E-03    -15.5046E-03     39.6951E-03    -15.7290E-03     31.0169E-03    -15.3998E-03     39.6420E-03
             741     11.5214E-03     80.1445E-03    -8.45266E+06    -44.1432E+06     1.99526E+06    -2.59742E+06    -15.7906E-03     31.2703E-03    -15.4797E-03     42.8801E-03    -15.7873E-03     31.0745E-03    -15.3935E-03     42.8260E-03
             742     12.4074E-03     80.1861E-03    -7.39815E+06    -32.8232E+06     1.93457E+06    -2.22312E+06    -15.8301E-03     31.2853E-03    -15.4552E-03     46.1240E-03    -15.8454E-03     31.1522E-03    -15.3872E-03     46.0702E-03
             743     13.2943E-03     80.2300E-03    -6.53063E+06    -20.7984E+06     1.81945E+06    -1.75798E+06    -15.8953E-03     31.3251E-03    -15.4299E-03     49.8534E-03    -15.9359E-03     31.2634E-03    -15.3811E-03     49.8008E-03
             744     14.1798E-03     80.2788E-03    -5.76179E+06    -7.70753E+06    -2.01450E+06    -1.15371E+06    -15.9607E-03     31.3456E-03    -15.3849E-03     53.8949E-03    -16.0340E-03     31.3769E-03    -15.3754E-03     53.8462E-03
             745     15.0671E-03     80.3291E-03    -6.10964E+06     26.0304E+06    -4.45098E+06    -300.613E+03    -16.0748E-03     31.3943E-03    -15.3195E-03     60.1328E-03    -16.2403E-03     31.6434E-03    -15.3706E-03     60.1000E-03
             746     15.9528E-03     80.3908E-03    -6.10440E+06     82.4574E+06     11.0310E+06     9.44745E+03    -15.7807E-03     31.0887E-03    -15.3079E-03     59.8219E-03    -16.1065E-03     31.6535E-03    -15.3635E-03     59.8287E-03
             747     16.8407E-03     80.4394E-03    -3.64905E+06     111.511E+06     48.6232E+06    -203.467E+03    -14.9353E-03     30.3681E-03    -15.4328E-03     32.7652E-03    -15.2891E-03     30.9638E-03    -15.3461E-03     32.7890E-03
             748     886.168E-06     80.8683E-03    -34.8855E+06    -85.5963E+06    -34.0917E+06    -638.655E+03    -15.4845E-03     30.9787E-03    -15.4942E-03     3.51205E-03    -15.4854E-03     30.6507E-03    -15.4899E-03     3.50324E-03
             749     1.77234E-03     80.8729E-03    -33.6984E+06    -82.7966E+06    -30.9174E+06    -1.15063E+06    -15.4789E-03     30.9761E-03    -15.4972E-03     6.47338E-03    -15.4826E-03     30.6559E-03    -15.4829E-03     6.45745E-03
             750     2.65854E-03     80.8803E-03    -31.9209E+06    -78.6515E+06    -26.2114E+06    -1.68978E+06    -15.4703E-03     30.9758E-03    -15.5055E-03     9.61564E-03    -15.4781E-03     30.6671E-03    -15.4762E-03     9.59217E-03
             751     3.54473E-03     80.8906E-03    -29.6182E+06    -74.1314E+06    -20.5246E+06    -2.18406E+06    -15.4639E-03     30.9797E-03    -15.5158E-03     12.8122E-03    -15.4751E-03     30.6822E-03    -15.4680E-03     12.7817E-03
             752     4.43098E-03     80.9040E-03    -27.0122E+06    -69.6380E+06    -14.6480E+06    -2.64209E+06    -15.4633E-03     30.9889E-03    -15.5256E-03     16.0542E-03    -15.4768E-03     30.7018E-03    -15.4587E-03     16.0170E-03
             753     5.31720E-03     80.9203E-03    -24.1955E+06    -65.3799E+06    -9.10129E+06    -2.96052E+06    -15.4711E-03     31.0043E-03    -15.5332E-03     19.3445E-03    -15.4851E-03     30.7267E-03    -15.4488E-03     19.3022E-03
             754     6.20349E-03     80.9398E-03    -21.3710E+06    -61.4057E+06    -4.28221E+06    -3.25083E+06    -15.4867E-03     31.0240E-03    -15.5372E-03     22.6829E-03    -15.4999E-03     30.7557E-03    -15.4386E-03     22.6357E-03
             755     7.08976E-03     80.9623E-03    -18.6322E+06    -57.6599E+06    -445.531E+03    -3.45067E+06    -15.5148E-03     31.0519E-03    -15.5370E-03     26.0658E-03    -15.5261E-03     30.7936E-03    -15.4287E-03     26.0146E-03
             756     7.97605E-03     80.9881E-03    -16.0310E+06    -55.6886E+06     2.28379E+06    -3.53809E+06    -15.5562E-03     31.0910E-03    -15.5347E-03     29.4710E-03    -15.5624E-03     30.8359E-03    -15.4193E-03     29.4170E-03
             757     8.86237E-03     81.0168E-03    -13.6136E+06    -53.3211E+06     3.54912E+06    -3.55570E+06    -15.6033E-03     31.1287E-03    -15.5254E-03     32.9023E-03    -15.6043E-03     30.8817E-03    -15.4105E-03     32.8459E-03
             758     9.74866E-03     81.0490E-03    -11.5076E+06    -49.2886E+06     4.17212E+06    -3.46769E+06    -15.6468E-03     31.1578E-03    -15.5109E-03     36.3421E-03    -15.6462E-03     30.9293E-03    -15.4019E-03     36.2842E-03
             759     10.6351E-03     81.0841E-03    -9.75116E+06    -47.3860E+06     4.22670E+06    -3.29886E+06    -15.7198E-03     31.2178E-03    -15.4980E-03     39.7216E-03    -15.7166E-03     30.9995E-03    -15.3941E-03     39.6625E-03
             760     11.5212E-03     81.1226E-03    -8.49262E+06    -44.1404E+06     1.81654E+06    -3.04625E+06    -15.8175E-03     31.2916E-03    -15.4741E-03     42.9144E-03    -15.8143E-03     31.0962E-03    -15.3887E-03     42.8545E-03
             761     12.4079E-03     81.1635E-03    -7.25869E+06    -32.8813E+06     1.85324E+06    -2.70407E+06    -15.8590E-03     31.3111E-03    -15.4521E-03     46.1735E-03    -15.8734E-03     31.1777E-03    -15.3847E-03     46.1134E-03
             762     13.2935E-03     81.2083E-03    -6.20991E+06    -21.2172E+06     1.80907E+06    -2.17888E+06    -15.8116E-03     31.2374E-03    -15.4258E-03     49.7479E-03    -15.8498E-03     31.1730E-03    -15.3770E-03     49.6900E-03
             763     14.1812E-03     81.2555E-03    -5.79333E+06    -8.65324E+06    -2.42881E+06    -1.43517E+06    -15.9641E-03     31.3418E-03    -15.3777E-03     53.9423E-03    -16.0355E-03     31.3690E-03    -15.3689E-03     53.8899E-03
             764     15.0661E-03     81.3085E-03    -4.76045E+06     24.8503E+06    -4.08044E+06    -320.060E+03    -15.9509E-03     31.2622E-03    -15.3113E-03     60.0285E-03    -16.1083E-03     31.5027E-03    -15.3608E-03     59.9962E-03
             765     15.9535E-03     81.3666E-03    -3.78042E+06     82.8021E+06     13.4210E+06     331.363E+03    -15.5840E-03     30.8814E-03    -15.2973E-03     60.1331E-03    -15.9010E-03     31.4400E-03    -15.3448E-03     60.1440E-03
             766     16.8384E-03     81.4195E-03    -3.10477E+06     112.308E+06     49.8437E+06     6.37846E+03    -15.1728E-03     30.5920E-03    -15.4191E-03     33.2311E-03    -15.5260E-03     31.1883E-03    -15.3283E-03     33.2560E-03
             767     886.175E-06     81.8461E-03    -34.8969E+06    -84.1476E+06    -34.1466E+06    -700.585E+03    -15.4783E-03     30.9642E-03    -15.4859E-03     3.50978E-03    -15.4813E-03     30.6436E-03    -15.4840E-03     3.50016E-03
             768     1.77235E-03     81.8507E-03    -33.7075E+06    -81.3819E+06    -30.9210E+06    -1.30177E+06    -15.4727E-03     30.9631E-03    -15.4903E-03     6.47449E-03    -15.4785E-03     30.6500E-03    -15.4781E-03     6.45661E-03
             769     2.65854E-03     81.8581E-03    -31.8782E+06       -77.3E+06    -26.2215E+06    -1.87316E+06    -15.4640E-03     30.9628E-03    -15.4988E-03     9.61504E-03    -15.4735E-03     30.6607E-03    -15.4716E-03     9.58920E-03
             770     3.54476E-03     81.8684E-03    -29.6106E+06    -72.8196E+06    -20.5609E+06    -2.43469E+06    -15.4574E-03     30.9665E-03    -15.5091E-03     12.8104E-03    -15.4704E-03     30.6755E-03    -15.4634E-03     12.7766E-03
             771     4.43098E-03     81.8818E-03    -27.0088E+06    -68.4511E+06    -14.6962E+06    -2.90165E+06    -15.4576E-03     30.9767E-03    -15.5190E-03     16.0524E-03    -15.4728E-03     30.6955E-03    -15.4541E-03     16.0118E-03
             772     5.31724E-03     81.8981E-03    -24.2634E+06    -64.2764E+06    -9.23567E+06    -3.35763E+06    -15.4649E-03     30.9913E-03    -15.5265E-03     19.3432E-03    -15.4806E-03     30.7195E-03    -15.4443E-03     19.2958E-03
             773     6.20351E-03     81.9175E-03    -21.3841E+06    -60.4411E+06    -4.44804E+06     -3.7005E+06    -15.4815E-03     31.0120E-03    -15.5306E-03     22.6817E-03    -15.4959E-03     30.7488E-03    -15.4342E-03     22.6288E-03
             774     7.08979E-03     81.9401E-03    -18.6204E+06    -56.9257E+06    -617.224E+03    -3.88456E+06    -15.5054E-03     31.0358E-03    -15.5304E-03     26.0689E-03    -15.5174E-03     30.7814E-03    -15.4240E-03     26.0122E-03
             775     7.97611E-03     81.9657E-03    -16.0520E+06    -54.9653E+06     2.10513E+06    -4.06803E+06    -15.5478E-03     31.0755E-03    -15.5277E-03     29.4839E-03    -15.5549E-03     30.8244E-03    -15.4142E-03     29.4231E-03
             776     8.86239E-03     81.9947E-03    -13.6812E+06     -52.822E+06     3.38032E+06    -4.16605E+06    -15.6016E-03     31.1204E-03    -15.5189E-03     32.9136E-03    -15.6033E-03     30.8763E-03    -15.4055E-03     32.8494E-03
             777     9.74876E-03     82.0266E-03    -11.6569E+06    -48.9969E+06     3.92042E+06    -4.02461E+06    -15.6466E-03     31.1515E-03    -15.5049E-03     36.3244E-03    -15.6468E-03     30.9251E-03    -15.3974E-03     36.2593E-03
             778     10.6350E-03     82.0620E-03    -9.90805E+06    -47.2209E+06     3.98510E+06    -3.81747E+06    -15.7205E-03     31.2133E-03    -15.4928E-03     39.7085E-03    -15.7180E-03     30.9964E-03    -15.3900E-03     39.6428E-03
             779     11.5216E-03     82.1001E-03    -8.38972E+06    -44.0033E+06     1.66184E+06    -3.54446E+06    -15.8188E-03     31.2882E-03    -15.4693E-03     42.9068E-03    -15.8150E-03     31.0935E-03    -15.3851E-03     42.8404E-03
             780     12.4074E-03     82.1416E-03    -7.30790E+06    -32.9577E+06     1.54956E+06    -3.24707E+06    -15.8454E-03     31.2925E-03    -15.4470E-03     46.1360E-03    -15.8596E-03     31.1592E-03    -15.3809E-03     46.0689E-03
             781     13.2945E-03     82.1855E-03    -6.20646E+06    -21.6305E+06     1.54068E+06    -2.65803E+06    -15.8957E-03     31.3196E-03    -15.4239E-03     49.6426E-03    -15.9330E-03     31.2536E-03    -15.3758E-03     49.5783E-03
             782     14.1797E-03     82.2336E-03    -5.24506E+06    -9.93030E+06    -2.74543E+06    -1.76980E+06    -15.9008E-03     31.2776E-03    -15.3767E-03     53.9612E-03    -15.9672E-03     31.2980E-03    -15.3685E-03     53.9048E-03
             783     15.0674E-03     82.2860E-03    -4.76296E+06     23.1838E+06    -4.86455E+06    -1.15827E+06    -15.8000E-03     31.1032E-03    -15.3032E-03     59.6923E-03    -15.9528E-03     31.3355E-03    -15.3542E-03     59.6498E-03
             784     15.9535E-03     82.3440E-03    -3.55238E+06     82.4495E+06     12.6771E+06     257.258E+03    -15.4801E-03     30.7609E-03    -15.2808E-03     59.8875E-03    -15.7940E-03     31.3182E-03    -15.3319E-03     59.8981E-03
             785     16.8422E-03     82.3974E-03    -2.58665E+06     113.107E+06     50.0318E+06     893.920E+03    -15.2784E-03     30.6843E-03    -15.4059E-03     33.1414E-03    -15.6306E-03     31.2837E-03    -15.3159E-03     33.1777E-03
             786     886.170E-06     82.8239E-03    -34.7831E+06    -82.5800E+06    -34.0290E+06    -786.229E+03    -15.4734E-03     30.9511E-03    -15.4777E-03     3.50913E-03    -15.4783E-03     30.6380E-03    -15.4776E-03     3.49841E-03
             787     1.77236E-03     82.8284E-03    -33.6147E+06    -79.7963E+06    -30.8905E+06    -1.43856E+06    -15.4668E-03     30.9503E-03    -15.4835E-03     6.47338E-03    -15.4745E-03     30.6450E-03    -15.4735E-03     6.45374E-03
             788     2.65855E-03     82.8359E-03    -31.8504E+06    -75.8225E+06    -26.2212E+06    -2.09293E+06    -15.4573E-03     30.9494E-03    -15.4922E-03     9.61317E-03    -15.4688E-03     30.6547E-03    -15.4671E-03     9.58449E-03
             789     3.54477E-03     82.8462E-03    -29.5864E+06    -71.3932E+06    -20.5844E+06    -2.65869E+06    -15.4509E-03     30.9532E-03    -15.5024E-03     12.8096E-03    -15.4658E-03     30.6694E-03    -15.4589E-03     12.7730E-03
             790     4.43101E-03     82.8596E-03    -26.9850E+06    -67.1093E+06    -14.7407E+06    -3.23486E+06    -15.4507E-03     30.9629E-03    -15.5123E-03     16.0523E-03    -15.4676E-03     30.6885E-03    -15.4495E-03     16.0074E-03
             791     5.31727E-03     82.8759E-03    -24.1614E+06    -63.0040E+06    -9.22759E+06    -3.71770E+06    -15.4581E-03     30.9779E-03    -15.5198E-03     19.3428E-03    -15.4752E-03     30.7123E-03    -15.4396E-03     19.2908E-03
             792     6.20353E-03     82.8953E-03    -21.4118E+06    -59.3697E+06    -4.50457E+06    -4.13845E+06    -15.4726E-03     30.9965E-03    -15.5239E-03     22.6836E-03    -15.4887E-03     30.7388E-03    -15.4292E-03     22.6250E-03
             793     7.08984E-03     82.9178E-03    -18.6351E+06    -56.0823E+06    -739.785E+03    -4.42036E+06    -15.4965E-03     31.0199E-03    -15.5234E-03     26.0676E-03    -15.5097E-03     30.7700E-03    -15.4187E-03     26.0039E-03
             794     7.97614E-03     82.9436E-03    -16.0702E+06    -54.1692E+06     1.99117E+06    -4.52514E+06    -15.5396E-03     31.0602E-03    -15.5206E-03     29.4864E-03    -15.5477E-03     30.8132E-03    -15.4088E-03     29.4197E-03
             795     8.86249E-03     82.9723E-03    -13.8829E+06    -52.1403E+06     3.16040E+06    -4.66575E+06    -15.5955E-03     31.1070E-03    -15.5116E-03     32.9142E-03    -15.5989E-03     30.8669E-03    -15.4000E-03     32.8435E-03
             796     9.74874E-03     83.0045E-03    -11.7975E+06    -48.7011E+06     3.61953E+06    -4.63808E+06    -15.6654E-03     31.1642E-03    -15.4988E-03     36.3366E-03    -15.6663E-03     30.9399E-03    -15.3930E-03     36.2636E-03
             797     10.6352E-03     83.0395E-03    -10.0033E+06    -47.0141E+06     3.61051E+06    -4.35586E+06    -15.7466E-03     31.2352E-03    -15.4886E-03     39.7312E-03    -15.7443E-03     31.0201E-03    -15.3879E-03     39.6584E-03
             798     11.5212E-03     83.0781E-03    -8.63311E+06    -43.8182E+06     1.31372E+06    -4.04529E+06    -15.7987E-03     31.2648E-03    -15.4661E-03     42.9127E-03    -15.7959E-03     31.0720E-03    -15.3835E-03     42.8399E-03
             799     12.4080E-03     83.1190E-03    -7.48856E+06    -33.0247E+06     1.18799E+06    -3.69166E+06    -15.8458E-03     31.2892E-03    -15.4434E-03     46.1132E-03    -15.8602E-03     31.1563E-03    -15.3787E-03     46.0403E-03
             800     13.2936E-03     83.1636E-03    -6.64660E+06    -22.1247E+06     911.461E+03    -3.16548E+06    -15.9165E-03     31.3372E-03    -15.4207E-03     49.7336E-03    -15.9545E-03     31.2705E-03    -15.3745E-03     49.6627E-03
             801     14.1808E-03     83.2113E-03    -5.77185E+06    -10.7026E+06    -3.47361E+06    -2.39932E+06    -15.9195E-03     31.2945E-03    -15.3750E-03     53.8335E-03    -15.9864E-03     31.3130E-03    -15.3685E-03     53.7688E-03
             802     15.0665E-03     83.2631E-03    -5.40988E+06     22.5055E+06    -5.48660E+06    -1.38536E+06    -16.0068E-03     31.3158E-03    -15.3089E-03     59.4387E-03    -16.1612E-03     31.5468E-03    -15.3612E-03     59.3921E-03
             803     15.9534E-03     83.3222E-03    -5.50725E+06     80.8594E+06     11.1626E+06    -295.073E+03    -15.8387E-03     31.1404E-03    -15.3016E-03     59.0497E-03    -16.1584E-03     31.6951E-03    -15.3551E-03     59.0512E-03
             804     16.8384E-03     83.3741E-03    -3.59549E+06     112.893E+06     49.4353E+06     991.225E+03    -15.0807E-03     30.5135E-03    -15.4327E-03     32.7475E-03    -15.4372E-03     31.1146E-03    -15.3440E-03     32.7852E-03
             805     886.192E-06     83.8017E-03    -34.6062E+06    -80.8306E+06    -33.9139E+06    -887.068E+03    -15.4672E-03     30.9393E-03    -15.4720E-03     3.51001E-03    -15.4739E-03     30.6345E-03    -15.4742E-03     3.49799E-03
             806     1.77236E-03     83.8062E-03    -33.4585E+06    -78.1056E+06    -30.7669E+06    -1.58738E+06    -15.4598E-03     30.9371E-03    -15.4773E-03     6.47200E-03    -15.4693E-03     30.6398E-03    -15.4694E-03     6.45043E-03
             807     2.65858E-03     83.8136E-03    -31.7263E+06    -74.1776E+06    -26.1004E+06    -2.25224E+06    -15.4502E-03     30.9358E-03    -15.4857E-03     9.61292E-03    -15.4636E-03     30.6490E-03    -15.4626E-03     9.58218E-03
             808     3.54478E-03     83.8240E-03    -29.5011E+06    -69.8597E+06    -20.5314E+06    -2.92135E+06    -15.4434E-03     30.9389E-03    -15.4956E-03     12.8099E-03    -15.4602E-03     30.6626E-03    -15.4541E-03     12.7698E-03
             809     4.43104E-03     83.8373E-03    -26.9020E+06    -65.5571E+06    -14.7049E+06    -3.55318E+06    -15.4424E-03     30.9475E-03    -15.5051E-03     16.0537E-03    -15.4612E-03     30.6807E-03    -15.4446E-03     16.0047E-03
             810     5.31728E-03     83.8537E-03    -24.1497E+06    -61.7047E+06    -9.22205E+06    -4.10997E+06    -15.4486E-03     30.9613E-03    -15.5126E-03     19.3444E-03    -15.4676E-03     30.7022E-03    -15.4343E-03     19.2873E-03
             811     6.20359E-03     83.8730E-03    -21.3154E+06    -58.1452E+06    -4.45395E+06    -4.49819E+06    -15.4637E-03     30.9803E-03    -15.5166E-03     22.6815E-03    -15.4811E-03     30.7285E-03    -15.4236E-03     22.6182E-03
             812     7.08986E-03     83.8956E-03    -18.6977E+06    -54.9958E+06    -781.993E+03    -4.89925E+06    -15.4931E-03     31.0093E-03    -15.5162E-03     26.0673E-03    -15.5080E-03     30.7649E-03    -15.4132E-03     25.9975E-03
             813     7.97620E-03     83.9212E-03    -16.1178E+06    -53.4303E+06     1.79104E+06    -5.08070E+06    -15.5352E-03     31.0486E-03    -15.5134E-03     29.4856E-03    -15.5444E-03     30.8057E-03    -15.4036E-03     29.4117E-03
             814     8.86248E-03     83.9502E-03    -13.7866E+06    -51.3479E+06     3.02049E+06    -5.08041E+06    -15.5894E-03     31.0939E-03    -15.5045E-03     32.9166E-03    -15.5933E-03     30.8578E-03    -15.3950E-03     32.8405E-03
             815     9.74888E-03     83.9821E-03    -11.8890E+06    -48.2007E+06     3.36052E+06    -5.19059E+06    -15.6704E-03     31.1627E-03    -15.4923E-03     36.3823E-03    -15.6721E-03     30.9414E-03    -15.3884E-03     36.3021E-03
             816     10.6350E-03     84.0175E-03    -10.1457E+06    -46.9243E+06     3.18129E+06    -4.95466E+06    -15.7437E-03     31.2261E-03    -15.4824E-03     39.7728E-03    -15.7417E-03     31.0123E-03    -15.3837E-03     39.6923E-03
             817     11.5216E-03     84.0556E-03    -8.68900E+06    -43.7084E+06     982.296E+03    -4.51503E+06    -15.8112E-03     31.2719E-03    -15.4608E-03     42.9626E-03    -15.8083E-03     31.0802E-03    -15.3799E-03     42.8837E-03
             818     12.4074E-03     84.0970E-03    -7.59267E+06    -33.3491E+06     761.546E+03    -4.19427E+06    -15.8422E-03     31.2810E-03    -15.4388E-03     46.1844E-03    -15.8560E-03     31.1473E-03    -15.3757E-03     46.1051E-03
             819     13.2945E-03     84.1412E-03    -6.58401E+06    -22.3308E+06     626.437E+03    -3.62606E+06    -15.8882E-03     31.3037E-03    -15.4155E-03     49.7839E-03    -15.9252E-03     31.2362E-03    -15.3704E-03     49.7072E-03
             820     14.1801E-03     84.1890E-03    -6.14139E+06    -11.1701E+06    -3.93752E+06    -2.61588E+06    -16.0583E-03     31.4317E-03    -15.3734E-03     53.8154E-03    -16.1258E-03     31.4491E-03    -15.3680E-03     53.7475E-03
             821     15.0668E-03     84.2411E-03    -6.28627E+06     20.9215E+06    -6.57375E+06    -1.22042E+06    -16.2472E-03     31.5645E-03    -15.3173E-03     59.8537E-03    -16.4032E-03     31.7916E-03    -15.3714E-03     59.8082E-03
             822     15.9522E-03     84.3003E-03    -6.21195E+06     79.7059E+06     9.92900E+06     310.470E+03    -16.0090E-03     31.3272E-03    -15.3182E-03     60.0203E-03    -16.3305E-03     31.8808E-03    -15.3751E-03     60.0289E-03
             823     16.8393E-03     84.3527E-03    -3.65622E+06     113.063E+06     49.0329E+06     589.383E+03    -14.8055E-03     30.2514E-03    -15.4459E-03     33.3479E-03    -15.1628E-03     30.8549E-03    -15.3594E-03     33.3809E-03
             824     886.165E-06     84.7794E-03    -34.5525E+06    -78.8793E+06    -33.7772E+06    -982.667E+03    -15.4583E-03     30.9247E-03    -15.4664E-03     3.51235E-03    -15.4677E-03     30.6294E-03    -15.4708E-03     3.49910E-03
             825     1.77239E-03     84.7840E-03    -33.3927E+06    -76.2598E+06    -30.6354E+06    -1.74936E+06    -15.4518E-03     30.9220E-03    -15.4703E-03     6.47287E-03    -15.4638E-03     30.6336E-03    -15.4644E-03     6.44921E-03
             826     2.65857E-03     84.7914E-03    -31.5871E+06    -72.4641E+06    -25.9744E+06    -2.45070E+06    -15.4422E-03     30.9206E-03    -15.4784E-03     9.61343E-03    -15.4576E-03     30.6420E-03    -15.4574E-03     9.58013E-03
             827     3.54482E-03     84.8017E-03    -29.3121E+06    -68.0986E+06    -20.3489E+06    -3.16191E+06    -15.4348E-03     30.9229E-03    -15.4882E-03     12.8110E-03    -15.4535E-03     30.6548E-03    -15.4487E-03     12.7679E-03
             828     4.43104E-03     84.8151E-03    -26.7307E+06    -63.9420E+06    -14.5487E+06    -3.87221E+06    -15.4325E-03     30.9299E-03    -15.4974E-03     16.0552E-03    -15.4530E-03     30.6707E-03    -15.4387E-03     16.0021E-03
             829     5.31734E-03     84.8314E-03    -23.9917E+06    -60.2508E+06    -9.09859E+06    -4.42751E+06    -15.4390E-03     30.9437E-03    -15.5047E-03     19.3447E-03    -15.4594E-03     30.6914E-03    -15.4280E-03     19.2834E-03
             830     6.20359E-03     84.8508E-03    -21.2771E+06    -56.8785E+06    -4.43474E+06    -4.90626E+06    -15.4578E-03     30.9663E-03    -15.5085E-03     22.6842E-03    -15.4768E-03     30.7207E-03    -15.4174E-03     22.6157E-03
             831     7.08993E-03     84.8733E-03    -18.5481E+06    -53.7109E+06    -737.246E+03    -5.27977E+06    -15.4880E-03     30.9964E-03    -15.5083E-03     26.0754E-03    -15.5042E-03     30.7582E-03    -15.4073E-03     26.0006E-03
             832     7.97620E-03     84.8990E-03    -16.0960E+06    -52.5659E+06     1.67824E+06    -5.60329E+06    -15.5298E-03     31.0356E-03    -15.5058E-03     29.4911E-03    -15.5399E-03     30.7971E-03    -15.3978E-03     29.4104E-03
             833     8.86259E-03     84.9278E-03    -13.7844E+06    -50.7172E+06     2.76581E+06    -5.64971E+06    -15.5897E-03     31.0866E-03    -15.4969E-03     32.9487E-03    -15.5942E-03     30.8541E-03    -15.3896E-03     32.8653E-03
             834     9.74881E-03     84.9599E-03    -11.7982E+06    -47.4526E+06     3.30445E+06    -5.58380E+06    -15.6490E-03     31.1339E-03    -15.4850E-03     36.4207E-03    -15.6513E-03     30.9163E-03    -15.3825E-03     36.3355E-03
             835     10.6353E-03     84.9951E-03    -10.1696E+06    -46.8186E+06     2.96234E+06    -5.57395E+06    -15.7176E-03     31.1915E-03    -15.4738E-03     39.8006E-03    -15.7156E-03     30.9785E-03    -15.3764E-03     39.7122E-03
             836     11.5214E-03     85.0335E-03    -8.73587E+06    -43.9437E+06     548.799E+03    -5.11620E+06    -15.8009E-03     31.2516E-03    -15.4507E-03     43.0642E-03    -15.7973E-03     31.0594E-03    -15.3716E-03     42.9776E-03
             837     12.4080E-03     85.0747E-03    -7.59864E+06    -33.2322E+06     616.839E+03    -4.57482E+06    -15.8667E-03     31.2972E-03    -15.4305E-03     46.2499E-03    -15.8805E-03     31.1643E-03    -15.3682E-03     46.1656E-03
             838     13.2939E-03     85.1188E-03    -6.83589E+06    -22.6400E+06     350.150E+03    -3.95138E+06    -15.9500E-03     31.3608E-03    -15.4108E-03     49.7945E-03    -15.9874E-03     31.2925E-03    -15.3663E-03     49.7134E-03
             839     14.1807E-03     85.1671E-03    -6.34910E+06    -12.3560E+06    -4.38921E+06    -2.87331E+06    -16.0704E-03     31.4419E-03    -15.3715E-03     54.0103E-03    -16.1367E-03     31.4545E-03    -15.3663E-03     53.9390E-03
             840     15.0663E-03     85.2190E-03    -6.24379E+06     19.1114E+06    -6.98281E+06    -874.749E+03    -16.1208E-03     31.4332E-03    -15.3124E-03     60.2179E-03    -16.2736E-03     31.6519E-03    -15.3660E-03     60.1776E-03
             841     15.9534E-03     85.2786E-03    -5.63261E+06     78.7864E+06     8.56367E+06     436.865E+03    -15.7221E-03     31.0166E-03    -15.2945E-03     60.3208E-03    -16.0374E-03     31.5667E-03    -15.3577E-03     60.3327E-03
             842     16.8395E-03     85.3301E-03    -2.89538E+06     113.660E+06     48.3567E+06    -98.4273E+03    -14.9133E-03     30.3319E-03    -15.4186E-03     32.8479E-03    -15.2659E-03     30.9375E-03    -15.3374E-03     32.8720E-03
             843     886.212E-06     85.7572E-03    -34.3467E+06    -76.7180E+06    -33.5949E+06    -1.03649E+06    -15.4501E-03     30.9069E-03    -15.4568E-03     3.51209E-03    -15.4619E-03     30.6219E-03    -15.4637E-03     3.49814E-03
             844     1.77237E-03     85.7617E-03    -33.1940E+06    -74.2392E+06    -30.3815E+06    -1.90159E+06    -15.4434E-03     30.9054E-03    -15.4620E-03     6.47289E-03    -15.4578E-03     30.6265E-03    -15.4581E-03     6.44726E-03
             845     2.65862E-03     85.7691E-03    -31.3929E+06    -70.6046E+06    -25.7354E+06    -2.69664E+06    -15.4332E-03     30.9035E-03    -15.4703E-03     9.61430E-03    -15.4507E-03     30.6335E-03    -15.4511E-03     9.57783E-03
             846     3.54481E-03     85.7795E-03    -29.0852E+06    -66.2443E+06    -20.1750E+06    -3.45137E+06    -15.4237E-03     30.9029E-03    -15.4792E-03     12.8131E-03    -15.4442E-03     30.6435E-03    -15.4419E-03     12.7662E-03
             847     4.43111E-03     85.7928E-03    -26.4893E+06    -62.2069E+06    -14.3251E+06    -4.14972E+06    -15.4217E-03     30.9101E-03    -15.4884E-03     16.0574E-03    -15.4438E-03     30.6589E-03    -15.4314E-03     16.0007E-03
             848     5.31734E-03     85.8091E-03    -23.7594E+06    -58.7129E+06    -8.92708E+06    -4.77798E+06    -15.4297E-03     30.9251E-03    -15.4955E-03     19.3489E-03    -15.4514E-03     30.6800E-03    -15.4205E-03     19.2831E-03
             849     6.20368E-03     85.8285E-03    -20.9935E+06    -55.4530E+06    -4.29072E+06    -5.25446E+06    -15.4486E-03     30.9477E-03    -15.4991E-03     22.6973E-03    -15.4685E-03     30.7087E-03    -15.4098E-03     22.6243E-03
             850     7.08994E-03     85.8510E-03    -18.4201E+06    -52.4414E+06    -717.080E+03    -5.69493E+06    -15.4755E-03     30.9740E-03    -15.4985E-03     26.0945E-03    -15.4929E-03     30.7419E-03    -15.3994E-03     26.0144E-03
             851     7.97633E-03     85.8767E-03    -15.9193E+06    -51.4006E+06     1.77978E+06    -6.02414E+06    -15.5241E-03     31.0205E-03    -15.4964E-03     29.5174E-03    -15.5352E-03     30.7875E-03    -15.3899E-03     29.4313E-03
             852     8.86257E-03     85.9055E-03    -13.7374E+06    -50.0840E+06     2.66791E+06    -6.17951E+06    -15.5806E-03     31.0682E-03    -15.4876E-03     32.9922E-03    -15.5856E-03     30.8388E-03    -15.3817E-03     32.9020E-03
             853     9.74900E-03     85.9376E-03    -11.7886E+06    -46.8020E+06     3.11886E+06    -6.10023E+06    -15.6220E-03     31.0964E-03    -15.4743E-03     36.4508E-03    -15.6249E-03     30.8822E-03    -15.3738E-03     36.3590E-03
             854     10.6352E-03     85.9728E-03    -10.0884E+06    -46.3087E+06     2.90435E+06    -5.97612E+06    -15.6967E-03     31.1593E-03    -15.4626E-03     39.8570E-03    -15.6949E-03     30.9489E-03    -15.3663E-03     39.7634E-03
             855     11.5218E-03     86.0112E-03    -8.80638E+06    -44.0599E+06     212.200E+03    -5.73963E+06    -15.7909E-03     31.2297E-03    -15.4388E-03     43.0757E-03    -15.7870E-03     31.0375E-03    -15.3610E-03     42.9811E-03
             856     12.4079E-03     86.0524E-03    -7.78506E+06    -33.3049E+06     314.940E+03    -5.05986E+06    -15.8839E-03     31.3037E-03    -15.4198E-03     46.3325E-03    -15.8982E-03     31.1712E-03    -15.3586E-03     46.2420E-03
             857     13.2944E-03     86.0970E-03    -6.85828E+06    -23.2403E+06     86.9470E+03    -4.26881E+06    -15.9739E-03     31.3765E-03    -15.4026E-03     49.9426E-03    -16.0103E-03     31.3058E-03    -15.3585E-03     49.8574E-03
             858     14.1802E-03     86.1445E-03    -6.28402E+06    -13.8193E+06    -4.95594E+06    -3.05769E+06    -16.0393E-03     31.4022E-03    -15.3628E-03     54.1635E-03    -16.1026E-03     31.4084E-03    -15.3584E-03     54.0899E-03
             859     15.0672E-03     86.1972E-03    -5.68008E+06     17.0971E+06    -7.46195E+06    -1.28554E+06    -15.9929E-03     31.2928E-03    -15.2999E-03     60.0657E-03    -16.1387E-03     31.5007E-03    -15.3537E-03     60.0209E-03
             860     15.9532E-03     86.2557E-03    -4.43874E+06     78.7884E+06     8.82600E+06    -354.091E+03    -15.5703E-03     30.8452E-03    -15.2749E-03     59.9659E-03    -15.8797E-03     31.3929E-03    -15.3385E-03     59.9688E-03
             861     16.8405E-03     86.3082E-03    -2.81234E+06     114.312E+06     48.3557E+06    -139.761E+03    -15.1243E-03     30.5251E-03    -15.4009E-03     32.7905E-03    -15.4778E-03     31.1342E-03    -15.3208E-03     32.8140E-03
             862     886.169E-06     86.7349E-03    -33.9565E+06    -74.3739E+06    -33.2491E+06    -1.13253E+06    -15.4407E-03     30.8870E-03    -15.4463E-03     3.51209E-03    -15.4545E-03     30.6127E-03    -15.4555E-03     3.49691E-03
             863     1.77242E-03     86.7395E-03    -32.7951E+06    -72.0616E+06    -30.0077E+06    -2.01989E+06    -15.4331E-03     30.8852E-03    -15.4521E-03     6.47366E-03    -15.4492E-03     30.6161E-03    -15.4501E-03     6.44651E-03
             864     2.65860E-03     86.7469E-03    -31.0294E+06    -68.5374E+06    -25.3638E+06    -2.90689E+06    -15.4217E-03     30.8819E-03    -15.4602E-03     9.61579E-03    -15.4409E-03     30.6212E-03    -15.4427E-03     9.57661E-03
             865     3.54488E-03     86.7572E-03    -28.7986E+06    -64.2968E+06    -19.9298E+06    -3.73419E+06    -15.4110E-03     30.8794E-03    -15.4684E-03     12.8161E-03    -15.4332E-03     30.6289E-03    -15.4330E-03     12.7656E-03
             866     4.43110E-03     86.7705E-03    -26.2556E+06    -60.4357E+06    -14.1714E+06    -4.42403E+06    -15.4081E-03     30.8849E-03    -15.4769E-03     16.0642E-03    -15.4318E-03     30.6420E-03    -15.4220E-03     16.0040E-03
             867     5.31744E-03     86.7868E-03    -23.5472E+06    -56.9311E+06    -8.73970E+06    -5.11542E+06    -15.4155E-03     30.8991E-03    -15.4836E-03     19.3631E-03    -15.4391E-03     30.6623E-03    -15.4106E-03     19.2930E-03
             868     6.20369E-03     86.8062E-03    -20.7679E+06    -54.0482E+06    -4.15684E+06    -5.69780E+06    -15.4307E-03     30.9176E-03    -15.4869E-03     22.7178E-03    -15.4517E-03     30.6851E-03    -15.3992E-03     22.6391E-03
             869     7.09008E-03     86.8287E-03    -18.0778E+06    -51.0988E+06    -524.626E+03    -6.01551E+06    -15.4587E-03     30.9444E-03    -15.4857E-03     26.1225E-03    -15.4766E-03     30.7183E-03    -15.3880E-03     26.0383E-03
             870     7.97635E-03     86.8544E-03    -15.7797E+06    -50.1709E+06     1.88772E+06    -6.39707E+06    -15.5096E-03     30.9928E-03    -15.4832E-03     29.5666E-03    -15.5220E-03     30.7655E-03    -15.3781E-03     29.4757E-03
             871     8.86275E-03     86.8832E-03    -13.6116E+06    -49.1358E+06     2.73671E+06    -6.64187E+06    -15.5578E-03     31.0318E-03    -15.4740E-03     33.0315E-03    -15.5636E-03     30.8069E-03    -15.3693E-03     32.9353E-03
             872     9.74904E-03     86.9153E-03    -11.7197E+06    -46.2819E+06     2.98496E+06    -6.58729E+06    -15.6098E-03     31.0697E-03    -15.4599E-03     36.4948E-03    -15.6129E-03     30.8583E-03    -15.3609E-03     36.3967E-03
             873     10.6355E-03     86.9505E-03    -10.0718E+06    -45.6158E+06     2.85157E+06    -6.46220E+06    -15.7017E-03     31.1508E-03    -15.4492E-03     39.9050E-03    -15.7007E-03     30.9439E-03    -15.3542E-03     39.8051E-03
             874     11.5217E-03     86.9889E-03    -8.68077E+06    -43.8412E+06     212.122E+03    -6.20208E+06    -15.7959E-03     31.2233E-03    -15.4274E-03     43.1207E-03    -15.7918E-03     31.0321E-03    -15.3501E-03     43.0201E-03
             875     12.4081E-03     87.0302E-03    -7.51987E+06    -33.7641E+06     55.4829E+03    -5.66138E+06    -15.8327E-03     31.2395E-03    -15.4068E-03     46.4528E-03    -15.8445E-03     31.1047E-03    -15.3467E-03     46.3547E-03
             876     13.2944E-03     87.0746E-03    -6.56256E+06    -24.0221E+06    -277.947E+03    -4.72567E+06    -15.9394E-03     31.3265E-03    -15.3871E-03     50.0764E-03    -15.9727E-03     31.2520E-03    -15.3441E-03     49.9854E-03
             877     14.1810E-03     87.1226E-03    -5.95808E+06    -15.0627E+06    -5.39147E+06    -3.32750E+06    -16.0708E-03     31.4187E-03    -15.3480E-03     54.2123E-03    -16.1300E-03     31.4190E-03    -15.3444E-03     54.1353E-03
             878     15.0667E-03     87.1747E-03    -5.67580E+06     15.6469E+06    -7.84786E+06    -2.02143E+06    -16.0063E-03     31.2943E-03    -15.2880E-03     59.9671E-03    -16.1491E-03     31.4953E-03    -15.3417E-03     59.9127E-03
             879     15.9537E-03     87.2335E-03    -5.18352E+06     78.1966E+06     8.73770E+06    -914.554E+03    -15.7276E-03     30.9975E-03    -15.2698E-03     59.8946E-03    -16.0396E-03     31.5433E-03    -15.3320E-03     59.8896E-03
             880     16.8400E-03     87.2855E-03    -3.59818E+06     114.449E+06     48.1504E+06     32.7478E+03    -15.1765E-03     30.5769E-03    -15.4004E-03     32.8029E-03    -15.5340E-03     31.1883E-03    -15.3204E-03     32.8282E-03
             881     886.234E-06     87.7127E-03    -33.5136E+06    -71.9659E+06    -32.7627E+06    -1.16555E+06    -15.4281E-03     30.8615E-03    -15.4334E-03     3.51293E-03    -15.4438E-03     30.5978E-03    -15.4443E-03     3.49732E-03
             882     1.77239E-03     87.7172E-03    -32.4158E+06    -69.7098E+06    -29.6529E+06    -2.10750E+06    -15.4187E-03     30.8573E-03    -15.4387E-03     6.47620E-03    -15.4367E-03     30.5989E-03    -15.4389E-03     6.44793E-03
             883     2.65867E-03     87.7246E-03    -30.6500E+06    -66.3113E+06    -25.0360E+06    -3.07666E+06    -15.4062E-03     30.8524E-03    -15.4463E-03     9.61945E-03    -15.4272E-03     30.6018E-03    -15.4308E-03     9.57808E-03
             884     3.54488E-03     87.7349E-03    -28.4507E+06    -62.2461E+06    -19.5718E+06    -3.92676E+06    -15.3948E-03     30.8491E-03    -15.4543E-03     12.8233E-03    -15.4188E-03     30.6079E-03    -15.4206E-03     12.7703E-03
             885     4.43121E-03     87.7482E-03    -25.9310E+06    -58.5148E+06    -13.8906E+06    -4.72021E+06    -15.3897E-03     30.8516E-03    -15.4620E-03     16.0776E-03    -15.4150E-03     30.6175E-03    -15.4090E-03     16.0135E-03
             886     5.31746E-03     87.7645E-03    -23.2251E+06    -55.0825E+06    -8.49416E+06    -5.42514E+06    -15.3926E-03     30.8602E-03    -15.4676E-03     19.3852E-03    -15.4175E-03     30.6318E-03    -15.3966E-03     19.3111E-03
             887     6.20384E-03     87.7839E-03    -20.5294E+06    -52.3848E+06    -3.86347E+06    -6.08885E+06    -15.4075E-03     30.8779E-03    -15.4704E-03     22.7432E-03    -15.4302E-03     30.6530E-03    -15.3840E-03     22.6594E-03
             888     7.09012E-03     87.8064E-03    -17.8775E+06    -49.9456E+06    -426.512E+03    -6.48329E+06    -15.4356E-03     30.9038E-03    -15.4682E-03     26.1656E-03    -15.4543E-03     30.6829E-03    -15.3720E-03     26.0754E-03
             889     7.97655E-03     87.8321E-03    -15.4108E+06    -48.8544E+06     2.08887E+06    -6.63058E+06    -15.4795E-03     30.9440E-03    -15.4645E-03     29.6197E-03    -15.4922E-03     30.7225E-03    -15.3609E-03     29.5258E-03
             890     8.86285E-03     87.8609E-03    -13.4706E+06    -47.9830E+06     2.92772E+06    -6.99808E+06    -15.5368E-03     30.9917E-03    -15.4550E-03     33.0778E-03    -15.5438E-03     30.7721E-03    -15.3512E-03     32.9771E-03
             891     9.74930E-03     87.8929E-03    -11.5377E+06    -45.5487E+06     3.04477E+06    -7.16986E+06    -15.6098E-03     31.0512E-03    -15.4414E-03     36.5659E-03    -15.6132E-03     30.8431E-03    -15.3434E-03     36.4603E-03
             892     10.6355E-03     87.9282E-03    -9.87731E+06    -45.1945E+06     2.79481E+06    -6.89645E+06    -15.6930E-03     31.1245E-03    -15.4315E-03     40.0137E-03    -15.6916E-03     30.9194E-03    -15.3377E-03     39.9083E-03
             893     11.5220E-03     87.9666E-03    -8.62329E+06    -43.5088E+06     99.4949E+03    -6.65434E+06    -15.7629E-03     31.1722E-03    -15.4092E-03     43.2575E-03    -15.7588E-03     30.9826E-03    -15.3331E-03     43.1511E-03
             894     12.4083E-03     88.0078E-03    -7.56643E+06    -34.0767E+06    -231.168E+03    -6.18482E+06    -15.8275E-03     31.2160E-03    -15.3885E-03     46.5595E-03    -15.8387E-03     31.0801E-03    -15.3293E-03     46.4547E-03
             895     13.2948E-03     88.0524E-03    -6.58840E+06    -24.9738E+06    -596.282E+03    -5.33638E+06    -15.9488E-03     31.3193E-03    -15.3705E-03     50.1959E-03    -15.9804E-03     31.2406E-03    -15.3277E-03     50.0970E-03
             896     14.1807E-03     88.1004E-03    -5.73974E+06    -16.1867E+06    -5.51040E+06    -4.10884E+06    -16.0379E-03     31.3703E-03    -15.3324E-03     54.1962E-03    -16.0940E-03     31.3645E-03    -15.3282E-03     54.1092E-03
             897     15.0676E-03     88.1525E-03    -5.31335E+06     14.1330E+06    -7.91854E+06    -2.28097E+06    -16.0840E-03     31.3591E-03    -15.2751E-03     59.9279E-03    -16.2226E-03     31.5520E-03    -15.3275E-03     59.8699E-03
             898     15.9536E-03     88.2110E-03    -5.29267E+06     77.0304E+06     7.19010E+06    -645.018E+03    -15.8821E-03     31.1385E-03    -15.2564E-03     60.2934E-03    -16.1913E-03     31.6816E-03    -15.3245E-03     60.2908E-03
             899     16.8395E-03     88.2645E-03    -3.71799E+06     114.239E+06     46.8591E+06    -133.354E+03    -15.1679E-03     30.5586E-03    -15.3906E-03     33.1640E-03    -15.5244E-03     31.1715E-03    -15.3166E-03     33.1870E-03
             900     886.187E-06     88.6904E-03    -32.9494E+06    -69.5739E+06    -32.1506E+06    -1.11639E+06    -15.4101E-03     30.8254E-03    -15.4152E-03     3.51657E-03    -15.4274E-03     30.5719E-03    -15.4273E-03     3.50160E-03
             901     1.77247E-03     88.6949E-03    -31.8395E+06    -67.2273E+06    -29.0407E+06    -2.14494E+06    -15.3996E-03     30.8201E-03    -15.4205E-03     6.47948E-03    -15.4193E-03     30.5723E-03    -15.4220E-03     6.45073E-03
             902     2.65867E-03     88.7023E-03    -30.1583E+06    -63.9659E+06    -24.5019E+06    -3.18550E+06    -15.3856E-03     30.8132E-03    -15.4276E-03     9.62690E-03    -15.4084E-03     30.5728E-03    -15.4136E-03     9.58414E-03
             903     3.54499E-03     88.7126E-03    -27.9854E+06    -60.0964E+06    -19.0670E+06    -4.08819E+06    -15.3723E-03     30.8074E-03    -15.4351E-03     12.8349E-03    -15.3978E-03     30.5755E-03    -15.4027E-03     12.7799E-03
             904     4.43123E-03     88.7259E-03    -25.4824E+06    -56.3748E+06    -13.3927E+06    -4.97111E+06    -15.3636E-03     30.8054E-03    -15.4418E-03     16.0963E-03    -15.3905E-03     30.5805E-03    -15.3901E-03     16.0291E-03
             905     5.31762E-03     88.7422E-03    -22.7852E+06    -53.2107E+06    -8.11106E+06    -5.76419E+06    -15.3630E-03     30.8090E-03    -15.4460E-03     19.4107E-03    -15.3890E-03     30.5888E-03    -15.3764E-03     19.3323E-03
             906     6.20391E-03     88.7615E-03    -20.1143E+06    -50.6361E+06    -3.51721E+06    -6.33954E+06    -15.3769E-03     30.8244E-03    -15.4475E-03     22.7822E-03    -15.4005E-03     30.6071E-03    -15.3625E-03     22.6953E-03
             907     7.09034E-03     88.7840E-03    -17.6342E+06    -48.5399E+06    -97.8427E+03    -6.85742E+06    -15.4033E-03     30.8480E-03    -15.4448E-03     26.2148E-03    -15.4232E-03     30.6334E-03    -15.3493E-03     26.1198E-03
             908     7.97667E-03     88.8097E-03    -15.2327E+06    -47.8450E+06     2.15599E+06    -7.08478E+06    -15.4437E-03     30.8829E-03    -15.4392E-03     29.6781E-03    -15.4570E-03     30.6660E-03    -15.3370E-03     29.5785E-03
             909     8.86314E-03     88.8385E-03    -13.0121E+06    -46.5922E+06     3.30928E+06    -7.20065E+06    -15.5141E-03     30.9437E-03    -15.4296E-03     33.1635E-03    -15.5214E-03     30.7298E-03    -15.3267E-03     33.0602E-03
             910     9.74942E-03     88.8705E-03    -11.4359E+06    -44.6420E+06     3.24467E+06    -7.55630E+06    -15.5870E-03     31.0035E-03    -15.4165E-03     36.6757E-03    -15.5914E-03     30.7994E-03    -15.3190E-03     36.5652E-03
             911     10.6359E-03     88.9059E-03    -9.79586E+06    -44.8886E+06     2.76431E+06    -7.49990E+06    -15.6532E-03     31.0588E-03    -15.4057E-03     40.1318E-03    -15.6517E-03     30.8552E-03    -15.3125E-03     40.0187E-03
             912     11.5222E-03     88.9442E-03    -8.40052E+06    -43.2564E+06     189.788E+03    -7.04434E+06    -15.7556E-03     31.1394E-03    -15.3837E-03     43.3676E-03    -15.7508E-03     30.9506E-03    -15.3079E-03     43.2563E-03
             913     12.4087E-03     88.9855E-03    -7.47148E+06    -33.9145E+06    -43.6893E+03    -6.68869E+06    -15.8601E-03     31.2264E-03    -15.3663E-03     46.6878E-03    -15.8714E-03     31.0909E-03    -15.3065E-03     46.5764E-03
             914     13.2948E-03     89.0301E-03    -6.45261E+06    -25.7105E+06    -659.885E+03    -5.97513E+06    -15.9413E-03     31.2917E-03    -15.3504E-03     50.3760E-03    -15.9710E-03     31.2091E-03    -15.3071E-03     50.2690E-03
             915     14.1814E-03     89.0783E-03    -5.74747E+06    -17.4103E+06    -5.81119E+06    -4.70126E+06    -16.0366E-03     31.3492E-03    -15.3127E-03     54.3144E-03    -16.0905E-03     31.3378E-03    -15.3081E-03     54.2199E-03
             916     15.0673E-03     89.1299E-03    -5.47441E+06     11.9386E+06    -8.35755E+06    -2.74281E+06    -16.1725E-03     31.4321E-03    -15.2596E-03     60.1241E-03    -16.3086E-03     31.6154E-03    -15.3107E-03     60.0597E-03
             917     15.9536E-03     89.1895E-03    -4.83161E+06     75.7894E+06     6.65577E+06    -719.200E+03    -15.8819E-03     31.1230E-03    -15.2411E-03     60.3491E-03    -16.1862E-03     31.6599E-03    -15.3107E-03     60.3458E-03
             918     16.8411E-03     89.2414E-03    -3.31981E+06     114.650E+06     46.5800E+06    -155.498E+03    -15.1838E-03     30.5590E-03    -15.3752E-03     33.0473E-03    -15.5383E-03     31.1737E-03    -15.3038E-03     33.0703E-03
             919     886.274E-06     89.6681E-03    -32.2185E+06    -67.1941E+06    -31.4802E+06    -1.11135E+06    -15.3843E-03     30.7746E-03    -15.3904E-03     3.52025E-03    -15.4023E-03     30.5311E-03    -15.4036E-03     3.50535E-03
             920     1.77246E-03     89.6726E-03    -31.1642E+06    -64.7178E+06    -28.3219E+06    -2.12788E+06    -15.3728E-03     30.7677E-03    -15.3948E-03     6.48597E-03    -15.3938E-03     30.5304E-03    -15.3974E-03     6.45745E-03
             921     2.65879E-03     89.6800E-03    -29.5153E+06    -61.5150E+06    -23.7040E+06    -3.20143E+06    -15.3577E-03     30.7596E-03    -15.4020E-03     9.63745E-03    -15.3819E-03     30.5294E-03    -15.3885E-03     9.59450E-03
             922     3.54502E-03     89.6903E-03    -27.3760E+06    -57.8065E+06    -18.3499E+06    -4.21797E+06    -15.3408E-03     30.7494E-03    -15.4086E-03     12.8520E-03    -15.3677E-03     30.5271E-03    -15.3768E-03     12.7953E-03
             923     4.43141E-03     89.7036E-03    -24.9229E+06    -54.1329E+06    -12.8179E+06    -5.13835E+06    -15.3280E-03     30.7415E-03    -15.4135E-03     16.1210E-03    -15.3562E-03     30.5262E-03    -15.3629E-03     16.0516E-03
             924     5.31771E-03     89.7198E-03    -22.3617E+06    -51.1667E+06    -7.60361E+06    -6.00195E+06    -15.3253E-03     30.7418E-03    -15.4164E-03     19.4461E-03    -15.3529E-03     30.5304E-03    -15.3479E-03     19.3647E-03
             925     6.20415E-03     89.7391E-03    -19.7301E+06    -48.9953E+06    -3.15190E+06    -6.62240E+06    -15.3359E-03     30.7524E-03    -15.4165E-03     22.8333E-03    -15.3605E-03     30.5421E-03    -15.3326E-03     22.7428E-03
             926     7.09050E-03     89.7616E-03    -17.2341E+06    -46.9311E+06     341.166E+03    -7.02766E+06    -15.3601E-03     30.7727E-03    -15.4126E-03     26.2765E-03    -15.3811E-03     30.5649E-03    -15.3179E-03     26.1794E-03
             927     7.97698E-03     89.7872E-03    -14.9714E+06    -46.5981E+06     2.47881E+06    -7.49260E+06    -15.4051E-03     30.8112E-03    -15.4061E-03     29.7587E-03    -15.4194E-03     30.5998E-03    -15.3045E-03     29.6539E-03
             928     8.86336E-03     89.8160E-03    -12.8982E+06    -45.7022E+06     3.31726E+06    -7.57708E+06    -15.4654E-03     30.8600E-03    -15.3946E-03     33.2960E-03    -15.4734E-03     30.6504E-03    -15.2930E-03     33.1879E-03
             929     9.74985E-03     89.8482E-03    -11.0664E+06    -43.2554E+06     3.74463E+06    -7.65128E+06    -15.5399E-03     30.9212E-03    -15.3813E-03     36.8099E-03    -15.5452E-03     30.7228E-03    -15.2838E-03     36.6983E-03
             930     10.6362E-03     89.8833E-03    -9.77313E+06    -44.3065E+06     2.95895E+06    -7.94985E+06    -15.6310E-03     31.0015E-03    -15.3705E-03     40.2535E-03    -15.6305E-03     30.8005E-03    -15.2773E-03     40.1347E-03
             931     11.5227E-03     89.9219E-03     -8.4483E+06    -43.1084E+06     78.5856E+03    -7.66482E+06    -15.7536E-03     31.1030E-03    -15.3493E-03     43.5883E-03    -15.7491E-03     30.9152E-03    -15.2742E-03     43.4690E-03
             932     12.4089E-03     89.9631E-03    -7.30842E+06    -33.7102E+06     38.2863E+03    -7.10242E+06    -15.8436E-03     31.1774E-03    -15.3339E-03     46.9327E-03    -15.8545E-03     31.0427E-03    -15.2742E-03     46.8161E-03
             933     13.2954E-03     90.0079E-03    -6.49487E+06    -25.9551E+06    -656.524E+03    -6.49291E+06    -15.9372E-03     31.2568E-03    -15.3196E-03     50.5832E-03    -15.9668E-03     31.1731E-03    -15.2758E-03     50.4697E-03
             934     14.1815E-03     90.0557E-03    -5.76820E+06    -18.7695E+06    -6.08523E+06    -5.14478E+06    -16.1116E-03     31.3974E-03    -15.2858E-03     54.5341E-03    -16.1635E-03     31.3798E-03    -15.2806E-03     54.4337E-03
             935     15.0679E-03     90.1082E-03    -5.62674E+06     9.50817E+06    -8.68918E+06    -3.09966E+06    -16.2698E-03     31.5101E-03    -15.2403E-03     60.3376E-03    -16.4032E-03     31.6825E-03    -15.2894E-03     60.2683E-03
             936     15.9543E-03     90.1669E-03    -5.09085E+06     74.1368E+06     5.63996E+06    -1.23616E+06    -15.8925E-03     31.1138E-03    -15.2214E-03     60.3215E-03    -16.1932E-03     31.6433E-03    -15.2933E-03     60.3109E-03
             937     16.8396E-03     90.2200E-03    -3.28880E+06     114.393E+06     45.8538E+06    -371.399E+03    -15.2177E-03     30.5742E-03    -15.3565E-03     33.4653E-03    -15.5697E-03     31.1877E-03    -15.2883E-03     33.4853E-03
             938     886.232E-06     90.6458E-03    -31.5438E+06    -64.8355E+06    -30.7859E+06    -1.10251E+06    -15.3473E-03     30.7036E-03    -15.3563E-03     3.52467E-03    -15.3664E-03     30.4699E-03    -15.3705E-03     3.50989E-03
             939     1.77258E-03     90.6503E-03    -30.5360E+06    -62.2691E+06    -27.6690E+06    -2.05028E+06    -15.3348E-03     30.6935E-03    -15.3587E-03     6.49615E-03    -15.3572E-03     30.4666E-03    -15.3624E-03     6.46865E-03
             940     2.65882E-03     90.6576E-03    -28.9533E+06    -59.0221E+06    -23.0371E+06    -3.11898E+06    -15.3168E-03     30.6817E-03    -15.3649E-03     9.65394E-03    -15.3428E-03     30.4622E-03    -15.3526E-03     9.61208E-03
             941     3.54521E-03     90.6679E-03    -26.8900E+06    -55.3446E+06    -17.6751E+06    -4.23685E+06    -15.2970E-03     30.6676E-03    -15.3706E-03     12.8760E-03    -15.3259E-03     30.4558E-03    -15.3397E-03     12.8191E-03
             942     4.43151E-03     90.6811E-03    -24.4813E+06    -51.8723E+06    -12.2111E+06    -5.24488E+06    -15.2808E-03     30.6550E-03    -15.3742E-03     16.1552E-03    -15.3109E-03     30.4495E-03    -15.3245E-03     16.0845E-03
             943     5.31797E-03     90.6974E-03    -21.9373E+06    -49.0084E+06    -7.00890E+06    -6.08669E+06    -15.2751E-03     30.6510E-03    -15.3758E-03     19.4947E-03    -15.3046E-03     30.4489E-03    -15.3080E-03     19.4122E-03
             944     6.20434E-03     90.7167E-03    -19.4458E+06    -47.2189E+06    -2.68293E+06    -6.81929E+06    -15.2824E-03     30.6569E-03    -15.3744E-03     22.8971E-03    -15.3088E-03     30.4544E-03    -15.2912E-03     22.8041E-03
             945     7.09085E-03     90.7391E-03    -16.9534E+06    -45.4536E+06     610.461E+03    -7.27565E+06    -15.3030E-03     30.6714E-03    -15.3684E-03     26.3647E-03    -15.3251E-03     30.4701E-03    -15.2748E-03     26.2645E-03
             946     7.97728E-03     90.7647E-03    -14.6812E+06    -45.0102E+06     2.89132E+06    -7.65710E+06    -15.3478E-03     30.7086E-03    -15.3608E-03     29.8763E-03    -15.3635E-03     30.5041E-03    -15.2598E-03     29.7695E-03
             947     8.86380E-03     90.7936E-03    -12.6846E+06    -44.8448E+06     3.56641E+06    -7.96153E+06    -15.4032E-03     30.7512E-03    -15.3480E-03     33.4272E-03    -15.4117E-03     30.5451E-03    -15.2468E-03     33.3144E-03
             948     9.75027E-03     90.8256E-03    -10.9508E+06    -42.2305E+06     3.82671E+06    -7.90925E+06    -15.4791E-03     30.8114E-03    -15.3323E-03     36.9913E-03    -15.4854E-03     30.6178E-03    -15.2360E-03     36.8765E-03
             949     10.6368E-03     90.8610E-03    -9.47979E+06    -43.0593E+06     3.46986E+06    -8.10148E+06    -15.6033E-03     30.9264E-03    -15.3230E-03     40.4569E-03    -15.6040E-03     30.7304E-03    -15.2295E-03     40.3362E-03
             950     11.5231E-03     90.8992E-03    -8.53379E+06    -42.9086E+06     118.276E+03    -8.15219E+06    -15.7302E-03     31.0331E-03    -15.3030E-03     43.8444E-03    -15.7264E-03     30.8464E-03    -15.2278E-03     43.7190E-03
             951     12.4096E-03     90.9410E-03    -7.52292E+06    -33.6402E+06    -64.4893E+03    -7.64906E+06    -15.8448E-03     31.1342E-03    -15.2894E-03     47.1351E-03    -15.8567E-03     31.0002E-03    -15.2300E-03     47.0115E-03
             952     13.2959E-03     90.9852E-03    -6.64733E+06    -26.2623E+06    -595.673E+03    -6.84480E+06    -15.9829E-03     31.2635E-03    -15.2806E-03     50.7258E-03    -16.0130E-03     31.1785E-03    -15.2359E-03     50.6076E-03
             953     14.1822E-03     91.0340E-03    -6.31680E+06    -20.1428E+06    -6.27641E+06    -5.66474E+06    -16.1926E-03     31.4464E-03    -15.2538E-03     54.7903E-03    -16.2451E-03     31.4231E-03    -15.2468E-03     54.6830E-03
             954     15.0682E-03     91.0856E-03    -5.69692E+06     7.22563E+06    -8.65481E+06    -3.74017E+06    -16.3727E-03     31.5897E-03    -15.2170E-03     60.5574E-03    -16.5036E-03     31.7511E-03    -15.2625E-03     60.4795E-03
             955     15.9540E-03     91.1457E-03    -4.54981E+06     72.7949E+06     5.27820E+06    -1.69488E+06    -16.0941E-03     31.2976E-03    -15.2035E-03     60.1090E-03    -16.3897E-03     31.8202E-03    -15.2761E-03     60.0909E-03
             956     16.8422E-03     91.1963E-03    -2.96180E+06     114.110E+06     45.2883E+06    -507.388E+03    -15.3019E-03     30.6470E-03    -15.3450E-03     33.0901E-03    -15.6508E-03     31.2591E-03    -15.2798E-03     33.1070E-03
             957     886.348E-06     91.6234E-03    -30.9058E+06    -62.5879E+06    -30.0953E+06    -992.353E+03    -15.2969E-03     30.6051E-03    -15.3082E-03     3.53043E-03    -15.3171E-03     30.3807E-03    -15.3231E-03     3.51708E-03
             958     1.77260E-03     91.6278E-03    -29.9478E+06    -59.9816E+06    -27.0435E+06    -1.88153E+06    -15.2821E-03     30.5907E-03    -15.3086E-03     6.50960E-03    -15.3057E-03     30.3735E-03    -15.3134E-03     6.48430E-03
             959     2.65901E-03     91.6352E-03    -28.3935E+06    -56.4885E+06    -22.4515E+06    -2.95742E+06    -15.2603E-03     30.5734E-03    -15.3130E-03     9.67612E-03    -15.2880E-03     30.3648E-03    -15.3022E-03     9.63639E-03
             960     3.54533E-03     91.6454E-03    -26.3722E+06    -52.8290E+06    -16.9493E+06    -4.12638E+06    -15.2377E-03     30.5557E-03    -15.3180E-03     12.9079E-03    -15.2688E-03     30.3548E-03    -15.2879E-03     12.8524E-03
             961     4.43180E-03     91.6586E-03    -24.0718E+06    -49.4932E+06    -11.4176E+06    -5.20624E+06    -15.2189E-03     30.5398E-03    -15.3210E-03     16.2002E-03    -15.2515E-03     30.3444E-03    -15.2714E-03     16.1301E-03
             962     5.31820E-03     91.6748E-03    -21.5748E+06    -46.8624E+06    -6.40587E+06    -6.14076E+06    -15.2082E-03     30.5287E-03    -15.3205E-03     19.5590E-03    -15.2399E-03     30.3360E-03    -15.2533E-03     19.4760E-03
             963     6.20474E-03     91.6941E-03    -19.0421E+06    -45.2666E+06    -2.12023E+06    -6.86726E+06    -15.2119E-03     30.5292E-03    -15.3173E-03     22.9816E-03    -15.2399E-03     30.3351E-03    -15.2347E-03     22.8881E-03
             964     7.09121E-03     91.7165E-03    -16.6786E+06    -43.8737E+06     1.03074E+06    -7.47981E+06    -15.2296E-03     30.5390E-03    -15.3093E-03     26.4767E-03    -15.2532E-03     30.3446E-03    -15.2164E-03     26.3740E-03
             965     7.97780E-03     91.7421E-03    -14.4425E+06    -43.5591E+06     3.17644E+06    -7.84061E+06    -15.2688E-03     30.5681E-03    -15.2994E-03     30.0202E-03    -15.2858E-03     30.3700E-03    -15.1994E-03     29.9112E-03
             966     8.86432E-03     91.7709E-03    -12.5456E+06    -43.5614E+06     3.94993E+06    -8.12532E+06    -15.3357E-03     30.6217E-03    -15.2860E-03     33.5923E-03    -15.3459E-03     30.4213E-03    -15.1849E-03     33.4775E-03
             967     9.75087E-03     91.8030E-03    -10.8575E+06    -41.4935E+06     3.95981E+06    -8.28062E+06    -15.4108E-03     30.6800E-03    -15.2692E-03     37.1947E-03    -15.4178E-03     30.4897E-03    -15.1735E-03     37.0753E-03
             968     10.6374E-03     91.8383E-03    -9.44041E+06    -41.7914E+06     3.76805E+06    -8.30932E+06    -15.5588E-03     30.8191E-03    -15.2603E-03     40.7269E-03    -15.5614E-03     30.6289E-03    -15.1671E-03     40.6038E-03
             969     11.5238E-03     91.8769E-03    -8.33923E+06    -42.0936E+06     736.052E+03    -8.36557E+06    -15.7434E-03     30.9889E-03    -15.2455E-03     44.0414E-03    -15.7408E-03     30.8051E-03    -15.1687E-03     43.9133E-03
             970     12.4102E-03     91.9183E-03    -7.60515E+06    -33.6689E+06     14.8997E+03    -8.06372E+06    -15.8657E-03     31.1017E-03    -15.2360E-03     47.3894E-03    -15.8781E-03     30.9675E-03    -15.1761E-03     47.2606E-03
             971     13.2964E-03     91.9634E-03    -6.63747E+06    -26.6233E+06    -381.479E+03    -7.37138E+06    -16.0353E-03     31.2691E-03    -15.2338E-03     51.0099E-03    -16.0652E-03     31.1821E-03    -15.1875E-03     50.8849E-03
             972     14.1827E-03     92.0111E-03    -5.90865E+06    -21.5030E+06    -6.17279E+06    -5.94189E+06    -16.2406E-03     31.4534E-03    -15.2128E-03     55.1602E-03    -16.2894E-03     31.4228E-03    -15.2039E-03     55.0493E-03
             973     15.0686E-03     92.0645E-03    -6.04386E+06     5.30872E+06    -8.86519E+06    -4.25334E+06    -16.4574E-03     31.6393E-03    -15.1819E-03     60.9974E-03    -16.5871E-03     31.7921E-03    -15.2252E-03     60.9127E-03
             974     15.9553E-03     92.1226E-03    -5.44022E+06     71.0484E+06     4.01679E+06    -2.38860E+06    -16.4008E-03     31.5765E-03    -15.1757E-03     60.6915E-03    -16.6993E-03     32.0962E-03    -15.2507E-03     60.6636E-03
             975     16.8386E-03     92.1764E-03    -3.09276E+06     113.190E+06     44.1215E+06    -710.673E+03    -15.4224E-03     30.7499E-03    -15.3275E-03     33.2122E-03    -15.7711E-03     31.3614E-03    -15.2665E-03     33.2258E-03
             976     886.327E-06     92.6008E-03    -30.3489E+06    -60.6551E+06    -29.5224E+06    -799.493E+03    -15.2305E-03     30.4695E-03    -15.2391E-03     3.53775E-03    -15.2515E-03     30.2531E-03    -15.2547E-03     3.52690E-03
             977     1.77279E-03     92.6053E-03    -29.3784E+06    -57.7879E+06    -26.4204E+06    -1.66444E+06    -15.2114E-03     30.4517E-03    -15.2402E-03     6.52764E-03    -15.2363E-03     30.2437E-03    -15.2459E-03     6.50517E-03
             978     2.65913E-03     92.6126E-03    -27.8444E+06    -54.0511E+06    -21.7782E+06    -2.72570E+06    -15.1857E-03     30.4290E-03    -15.2433E-03     9.70478E-03    -15.2151E-03     30.2309E-03    -15.2335E-03     9.66808E-03
             979     3.54563E-03     92.6228E-03    -25.8786E+06    -50.2624E+06    -16.2265E+06    -3.90263E+06    -15.1587E-03     30.4056E-03    -15.2469E-03     12.9503E-03    -15.1920E-03     30.2157E-03    -15.2177E-03     12.8978E-03
             980     4.43206E-03     92.6360E-03    -23.5761E+06    -47.1008E+06    -10.6206E+06    -5.03299E+06    -15.1362E-03     30.3850E-03    -15.2487E-03     16.2602E-03    -15.1710E-03     30.1997E-03    -15.1994E-03     16.1924E-03
             981     5.31864E-03     92.6522E-03    -21.1590E+06    -44.5437E+06    -5.64631E+06    -6.07029E+06    -15.1208E-03     30.3672E-03    -15.2464E-03     19.6399E-03    -15.1548E-03     30.1843E-03    -15.1794E-03     19.5579E-03
             982     6.20515E-03     92.6714E-03    -18.7027E+06    -43.3533E+06    -1.57403E+06    -6.91161E+06    -15.1203E-03     30.3611E-03    -15.2408E-03     23.0909E-03    -15.1501E-03     30.1752E-03    -15.1587E-03     22.9969E-03
             983     7.09180E-03     92.6938E-03    -16.3643E+06    -42.0855E+06     1.53894E+06    -7.47847E+06    -15.1357E-03     30.3665E-03    -15.2308E-03     26.6144E-03    -15.1609E-03     30.1798E-03    -15.1383E-03     26.5118E-03
             984     7.97839E-03     92.7193E-03    -14.2924E+06    -42.1213E+06     3.47808E+06    -7.98606E+06    -15.1767E-03     30.3956E-03    -15.2188E-03     30.1934E-03    -15.1955E-03     30.2039E-03    -15.1196E-03     30.0826E-03
             985     8.86505E-03     92.7482E-03    -12.3470E+06    -42.2585E+06     4.27056E+06    -8.25073E+06    -15.2482E-03     30.4527E-03    -15.2045E-03     33.8099E-03    -15.2596E-03     30.2579E-03    -15.1040E-03     33.6937E-03
             986     9.75166E-03     92.7802E-03    -10.7578E+06    -40.3994E+06     4.29244E+06    -8.48030E+06    -15.3548E-03     30.5435E-03    -15.1887E-03     37.4419E-03    -15.3634E-03     30.3580E-03    -15.0931E-03     37.3201E-03
             987     10.6382E-03     92.8157E-03    -9.36005E+06    -40.8445E+06     4.09167E+06    -8.55023E+06    -15.5170E-03     30.6993E-03    -15.1823E-03     41.0615E-03    -15.5210E-03     30.5132E-03    -15.0890E-03     40.9354E-03
             988     11.5247E-03     92.8544E-03    -8.29827E+06    -41.1040E+06     1.06766E+06    -8.67400E+06    -15.7205E-03     30.8911E-03    -15.1706E-03     44.4337E-03    -15.7196E-03     30.7117E-03    -15.0936E-03     44.3018E-03
             989     12.4109E-03     92.8960E-03    -7.21644E+06    -33.4352E+06     395.390E+03    -8.45199E+06    -15.8637E-03     31.0294E-03    -15.1657E-03     47.8085E-03    -15.8751E-03     30.8954E-03    -15.1048E-03     47.6749E-03
             990     13.2975E-03     92.9407E-03    -6.43387E+06    -27.2857E+06    -335.662E+03    -7.66198E+06    -16.0523E-03     31.2201E-03    -15.1678E-03     51.5751E-03    -16.0803E-03     31.1294E-03    -15.1206E-03     51.4465E-03
             991     14.1833E-03     92.9896E-03    -5.96838E+06    -22.6320E+06    -6.20207E+06    -6.43087E+06    -16.3553E-03     31.5100E-03    -15.1547E-03     55.6545E-03    -16.4032E-03     31.4744E-03    -15.1442E-03     55.5370E-03
             992     15.0699E-03     93.0415E-03    -5.46716E+06     3.61942E+06    -8.45935E+06    -4.32029E+06    -16.6005E-03     31.7365E-03    -15.1360E-03     61.4049E-03    -16.7259E-03     31.8799E-03    -15.1756E-03     61.3190E-03
             993     15.9548E-03     93.1023E-03    -5.54690E+06     69.3225E+06     3.81718E+06    -2.67761E+06    -16.2645E-03     31.3946E-03    -15.1300E-03     61.1844E-03    -16.5612E-03     31.9065E-03    -15.2034E-03     61.1551E-03
             994     16.8435E-03     93.1535E-03    -3.57723E+06     112.186E+06     43.6812E+06    -1.39635E+06    -15.6222E-03     30.9056E-03    -15.2834E-03     33.4917E-03    -15.9717E-03     31.5139E-03    -15.2225E-03     33.4978E-03
             995     886.488E-06     93.5782E-03    -29.9604E+06    -59.0054E+06    -29.2113E+06    -702.559E+03    -15.1397E-03     30.2876E-03    -15.1479E-03     3.54825E-03    -15.1616E-03     30.0784E-03    -15.1650E-03     3.53867E-03
             996     1.77287E-03     93.5826E-03    -28.9573E+06    -55.7941E+06    -26.0158E+06    -1.44111E+06    -15.1178E-03     30.2662E-03    -15.1484E-03     6.55068E-03    -15.1441E-03     30.0671E-03    -15.1556E-03     6.53113E-03
             997     2.65943E-03     93.5899E-03    -27.4737E+06    -51.7720E+06    -21.2713E+06    -2.39690E+06    -15.0872E-03     30.2376E-03    -15.1504E-03     9.74218E-03    -15.1188E-03     30.0496E-03    -15.1418E-03     9.70978E-03
             998     3.54590E-03     93.6001E-03    -25.5495E+06    -47.7194E+06    -15.6991E+06    -3.56333E+06    -15.0547E-03     30.2066E-03    -15.1519E-03     13.0063E-03    -15.0908E-03     30.0282E-03    -15.1242E-03     12.9582E-03
             999     4.43253E-03     93.6132E-03    -23.2781E+06    -44.6003E+06    -10.0234E+06    -4.82408E+06    -15.0265E-03     30.1786E-03    -15.1520E-03     16.3374E-03    -15.0643E-03     30.0045E-03    -15.1037E-03     16.2724E-03
            1000     5.31910E-03     93.6293E-03    -20.8132E+06    -42.2554E+06    -4.95538E+06    -5.88268E+06    -15.0075E-03     30.1556E-03    -15.1481E-03     19.7432E-03    -15.0440E-03     29.9826E-03    -15.0814E-03     19.6637E-03
            1001     6.20581E-03     93.6485E-03    -18.4564E+06    -41.2394E+06    -953.484E+03    -6.79490E+06    -15.0035E-03     30.1438E-03    -15.1403E-03     23.2251E-03    -15.0361E-03     29.9672E-03    -15.0585E-03     23.1329E-03
            1002     7.09248E-03     93.6708E-03    -16.2042E+06    -40.4334E+06     1.90825E+06    -7.45009E+06    -15.0200E-03     30.1479E-03    -15.1279E-03     26.7885E-03    -15.0474E-03     29.9686E-03    -15.0362E-03     26.6865E-03
            1003     7.97924E-03     93.6964E-03    -14.0992E+06    -40.3618E+06     3.88261E+06     -7.9635E+06    -15.0650E-03     30.1795E-03    -15.1145E-03     30.4100E-03    -15.0858E-03     29.9957E-03    -15.0161E-03     30.2998E-03
            1004     8.86594E-03     93.7251E-03    -12.2764E+06    -41.0769E+06     4.52407E+06    -8.41215E+06    -15.1494E-03     30.2495E-03    -15.1001E-03     34.0804E-03    -15.1625E-03     30.0601E-03    -15.0001E-03     33.9624E-03
            1005     9.75267E-03     93.7574E-03    -10.6066E+06    -39.1031E+06     4.66920E+06    -8.57116E+06    -15.2825E-03     30.3684E-03    -15.0859E-03     37.7972E-03    -15.2927E-03     30.1885E-03    -14.9904E-03     37.6745E-03
            1006     10.6392E-03     93.7928E-03    -9.20802E+06    -39.7861E+06     4.53921E+06    -8.80675E+06    -15.4469E-03     30.5291E-03    -15.0822E-03     41.4880E-03    -15.4522E-03     30.3474E-03    -14.9885E-03     41.3590E-03
            1007     11.5258E-03     93.8317E-03    -8.06972E+06    -40.2828E+06     1.65650E+06    -8.92880E+06    -15.6410E-03     30.7137E-03    -15.0728E-03     44.9391E-03    -15.6408E-03     30.5371E-03    -14.9944E-03     44.8044E-03
            1008     12.4124E-03     93.8734E-03    -7.15008E+06    -32.7085E+06     1.06634E+06    -8.94707E+06    -15.8713E-03     30.9437E-03    -15.0724E-03     48.3001E-03    -15.8845E-03     30.8123E-03    -15.0093E-03     48.1602E-03
            1009     13.2984E-03     93.9185E-03    -6.13884E+06    -27.9264E+06     218.322E+03    -8.17838E+06    -16.1230E-03     31.2067E-03    -15.0837E-03     51.9975E-03    -16.1495E-03     31.1117E-03    -15.0333E-03     51.8623E-03
            1010     14.1851E-03     93.9671E-03    -5.45423E+06    -23.8568E+06    -5.65550E+06    -6.84413E+06    -16.5069E-03     31.5894E-03    -15.0825E-03     56.2164E-03    -16.5518E-03     31.5467E-03    -15.0683E-03     56.0933E-03
            1011     15.0698E-03     94.0206E-03    -4.99188E+06     1.47270E+06    -7.62001E+06    -4.94968E+06    -16.6623E-03     31.7388E-03    -15.0765E-03     61.8269E-03    -16.7840E-03     31.8701E-03    -15.1095E-03     61.7330E-03
            1012     15.9571E-03     94.0793E-03    -4.24754E+06     68.0396E+06     4.56393E+06    -2.55898E+06    -16.3416E-03     31.4159E-03    -15.0743E-03     61.2777E-03    -16.6299E-03     31.9174E-03    -15.1440E-03     61.2493E-03
            1013     16.8413E-03     94.1320E-03    -3.26713E+06     111.265E+06     43.1461E+06    -1.35375E+06    -16.0575E-03     31.2956E-03    -15.2381E-03     33.5317E-03    -16.4025E-03     31.8989E-03    -15.1790E-03     33.5365E-03
            1014     886.507E-06     94.5553E-03    -29.8425E+06    -57.3658E+06    -29.2340E+06    -791.422E+03    -15.0214E-03     30.0504E-03    -15.0290E-03     3.56650E-03    -15.0450E-03     29.8493E-03    -15.0488E-03     3.55580E-03
            1015     1.77315E-03     94.5598E-03    -28.7910E+06    -54.1450E+06    -26.0759E+06    -1.34723E+06    -14.9949E-03     30.0229E-03    -15.0281E-03     6.57875E-03    -15.0226E-03     29.8319E-03    -15.0382E-03     6.56046E-03
            1016     2.65968E-03     94.5670E-03    -27.2302E+06    -49.7413E+06    -21.2138E+06    -2.07150E+06    -14.9588E-03     29.9866E-03    -15.0277E-03     9.78967E-03    -14.9923E-03     29.8083E-03    -15.0222E-03     9.76154E-03
            1017     3.54639E-03     94.5771E-03    -25.3181E+06    -45.2757E+06    -15.4162E+06    -3.15243E+06    -14.9197E-03     29.9470E-03    -15.0273E-03     13.0760E-03    -14.9586E-03     29.7800E-03    -15.0020E-03     13.0334E-03
            1018     4.43302E-03     94.5902E-03    -23.1827E+06    -42.0459E+06    -9.61273E+06    -4.40169E+06    -14.8856E-03     29.9111E-03    -15.0255E-03     16.4339E-03    -14.9272E-03     29.7490E-03    -14.9789E-03     16.3745E-03
            1019     5.31982E-03     94.6063E-03    -20.8988E+06    -39.9115E+06    -4.55531E+06    -5.62610E+06    -14.8617E-03     29.8812E-03    -15.0195E-03     19.8722E-03    -14.9026E-03     29.7194E-03    -14.9541E-03     19.7961E-03
            1020     6.20657E-03     94.6254E-03    -18.5003E+06    -39.1115E+06    -549.413E+03    -6.57108E+06    -14.8578E-03     29.8675E-03    -15.0096E-03     23.3922E-03    -14.8942E-03     29.7009E-03    -14.9288E-03     23.3030E-03
            1021     7.09343E-03     94.6477E-03    -16.3025E+06    -38.6393E+06     2.24358E+06    -7.29928E+06    -14.8754E-03     29.8711E-03    -14.9957E-03     27.0039E-03    -14.9063E-03     29.7004E-03    -14.9048E-03     26.9041E-03
            1022     7.98026E-03     94.6732E-03    -14.3125E+06    -38.6380E+06     4.02615E+06    -7.90829E+06    -14.9276E-03     29.9082E-03    -14.9805E-03     30.6863E-03    -14.9521E-03     29.7330E-03    -14.8836E-03     30.5771E-03
            1023     8.86714E-03     94.7021E-03    -12.5064E+06    -39.5814E+06     4.81078E+06    -8.40778E+06    -15.0320E-03     29.9995E-03    -14.9675E-03     34.4310E-03    -15.0488E-03     29.8174E-03    -14.8679E-03     34.3133E-03
            1024     9.75389E-03     94.7342E-03    -10.9426E+06    -37.9499E+06     4.80289E+06    -8.76708E+06    -15.1642E-03     30.1184E-03    -14.9542E-03     38.2394E-03    -15.1777E-03     29.9444E-03    -14.8593E-03     38.1145E-03
            1025     10.6407E-03     94.7700E-03    -9.51473E+06    -38.4791E+06     4.85818E+06    -9.00945E+06    -15.3462E-03     30.2987E-03    -14.9526E-03     41.9723E-03    -15.3553E-03     30.1234E-03    -14.8587E-03     41.8409E-03
            1026     11.5273E-03     94.8087E-03    -8.25065E+06    -39.3516E+06     2.25259E+06    -9.24482E+06    -15.6017E-03     30.5505E-03    -14.9488E-03     45.4745E-03    -15.6046E-03     30.3779E-03    -14.8686E-03     45.3359E-03
            1027     12.4136E-03     94.8509E-03    -7.24300E+06    -31.6891E+06     1.79760E+06    -9.26606E+06    -15.8976E-03     30.8542E-03    -14.9566E-03     48.8844E-03    -15.9138E-03     30.7270E-03    -14.8912E-03     48.7405E-03
            1028     13.3002E-03     94.8960E-03    -6.38576E+06    -28.0748E+06     761.034E+03    -8.92219E+06    -16.2953E-03     31.2778E-03    -14.9825E-03     52.5766E-03    -16.3240E-03     31.1820E-03    -14.9287E-03     52.4315E-03
            1029     14.1854E-03     94.9452E-03    -5.49046E+06    -25.6105E+06    -5.54176E+06    -7.41985E+06    -16.5964E-03     31.5914E-03    -14.9950E-03     56.7739E-03    -16.6394E-03     31.5401E-03    -14.9776E-03     56.6434E-03
            1030     15.0724E-03     94.9986E-03    -5.29579E+06    -661.837E+03    -7.14759E+06    -5.27982E+06    -16.8896E-03     31.8951E-03    -15.0056E-03     61.9785E-03    -17.0107E-03     32.0158E-03    -15.0327E-03     61.8795E-03
            1031     15.9572E-03     95.0574E-03    -4.96710E+06     66.2140E+06     4.65877E+06    -3.30746E+06    -16.9169E-03     31.9449E-03    -15.0280E-03     61.1893E-03    -17.2073E-03     32.4392E-03    -15.0935E-03     61.1472E-03
            1032     16.8440E-03     95.1115E-03    -3.42612E+06     110.029E+06     42.8291E+06    -1.37257E+06    -16.3333E-03     31.5467E-03    -15.2134E-03     33.8095E-03    -16.6779E-03     32.1455E-03    -15.1538E-03     33.8118E-03
            1033     886.716E-06     95.5322E-03    -29.8927E+06    -55.5926E+06    -29.2669E+06    -882.209E+03    -14.8698E-03     29.7452E-03    -14.8754E-03     3.58706E-03    -14.8963E-03     29.5531E-03    -14.8977E-03     3.57522E-03
            1034     1.77334E-03     95.5366E-03    -28.8888E+06    -52.6662E+06    -26.4859E+06    -1.42105E+06    -14.8381E-03     29.7113E-03    -14.8731E-03     6.61689E-03    -14.8679E-03     29.5283E-03    -14.8873E-03     6.59770E-03
            1035     2.66015E-03     95.5438E-03    -27.3389E+06    -48.0967E+06    -21.8492E+06    -1.92688E+06    -14.7943E-03     29.6632E-03    -14.8689E-03     9.84969E-03    -14.8297E-03     29.4942E-03    -14.8688E-03     9.82352E-03
            1036     3.54688E-03     95.5539E-03    -25.4786E+06    -43.1133E+06    -15.8338E+06    -2.68739E+06    -14.7467E-03     29.6124E-03    -14.8656E-03     13.1622E-03    -14.7890E-03     29.4570E-03    -14.8454E-03     13.1257E-03
            1037     4.43378E-03     95.5669E-03    -23.3905E+06    -39.5729E+06    -9.61693E+06    -3.83455E+06    -14.7067E-03     29.5690E-03    -14.8622E-03     16.5521E-03    -14.7529E-03     29.4195E-03    -14.8190E-03     16.5001E-03
            1038     5.32063E-03     95.5829E-03    -21.2432E+06    -37.4801E+06    -4.37299E+06    -5.03878E+06    -14.6803E-03     29.5350E-03    -14.8547E-03     20.0282E-03    -14.7267E-03     29.3856E-03    -14.7914E-03     19.9600E-03
            1039     6.20762E-03     95.6020E-03    -19.1295E+06    -36.8553E+06    -474.767E+03    -6.23250E+06    -14.6742E-03     29.5170E-03    -14.8427E-03     23.6006E-03    -14.7171E-03     29.3624E-03    -14.7639E-03     23.5160E-03
            1040     7.09457E-03     95.6242E-03    -16.9442E+06    -36.8694E+06     2.23130E+06     -7.0429E+06    -14.6951E-03     29.5224E-03    -14.8273E-03     27.2677E-03    -14.7316E-03     29.3614E-03    -14.7381E-03     27.1715E-03
            1041     7.98162E-03     95.6498E-03    -15.0200E+06    -36.8008E+06     3.99926E+06    -7.65732E+06    -14.7592E-03     29.5706E-03    -14.8114E-03     31.0340E-03    -14.7898E-03     29.4056E-03    -14.7163E-03     30.9284E-03
            1042     8.86856E-03     95.6786E-03    -13.3458E+06    -37.9394E+06     4.77335E+06    -8.33652E+06    -14.8729E-03     29.6721E-03    -14.7992E-03     34.8636E-03    -14.8961E-03     29.4993E-03    -14.7009E-03     34.7473E-03
            1043     9.75554E-03     95.7109E-03    -11.8037E+06    -36.5795E+06     4.81484E+06    -8.79334E+06    -15.0257E-03     29.8136E-03    -14.7880E-03     38.7356E-03    -15.0454E-03     29.6477E-03    -14.6937E-03     38.6108E-03
            1044     10.6424E-03     95.7466E-03    -10.3402E+06    -37.0572E+06     4.92825E+06    -9.27560E+06    -15.2550E-03     30.0454E-03    -14.7903E-03     42.5443E-03    -15.2704E-03     29.8781E-03    -14.6969E-03     42.4099E-03
            1045     11.5290E-03     95.7859E-03    -9.01928E+06    -38.1627E+06     2.52404E+06    -9.63890E+06    -15.5798E-03     30.3751E-03    -14.7953E-03     46.1428E-03    -15.5886E-03     30.2091E-03    -14.7143E-03     45.9994E-03
            1046     12.4156E-03     95.8280E-03    -7.79554E+06    -30.9459E+06     2.07298E+06    -9.73811E+06    -15.9503E-03     30.7649E-03    -14.8147E-03     49.6532E-03    -15.9707E-03     30.6418E-03    -14.7481E-03     49.5035E-03
            1047     13.3015E-03     95.8738E-03    -6.78654E+06    -28.0149E+06     1.09988E+06    -9.31656E+06    -16.3832E-03     31.2378E-03    -14.8547E-03     53.4678E-03    -16.4147E-03     31.1427E-03    -14.7987E-03     53.3177E-03
            1048     14.1878E-03     95.9232E-03    -6.22859E+06    -27.2748E+06    -5.63908E+06    -8.16788E+06    -16.8432E-03     31.7285E-03    -14.8853E-03     57.4384E-03    -16.8877E-03     31.6704E-03    -14.8649E-03     57.2977E-03
            1049     15.0726E-03     95.9763E-03    -5.34677E+06    -2.95388E+06    -6.71207E+06    -5.81233E+06    -17.3512E-03     32.2755E-03    -14.9243E-03     62.9416E-03    -17.4718E-03     32.3861E-03    -14.9458E-03     62.8338E-03
            1050     15.9579E-03     96.0375E-03    -4.76934E+06     64.5786E+06     5.24388E+06    -3.28715E+06    -17.4207E-03     32.3967E-03    -14.9760E-03     62.0978E-03    -17.7112E-03     32.8843E-03    -15.0365E-03     62.0538E-03
            1051     16.8419E-03     96.0889E-03    -3.34514E+06     108.359E+06     42.5597E+06    -1.63186E+06    -16.5668E-03     31.7458E-03    -15.1790E-03     34.1488E-03    -16.9093E-03     32.3377E-03    -15.1184E-03     34.1471E-03
            1052     886.807E-06     96.5087E-03    -29.8598E+06    -53.7529E+06    -29.2744E+06    -833.185E+03    -14.6729E-03     29.3545E-03    -14.6816E-03     3.61138E-03    -14.7018E-03     29.1716E-03    -14.7068E-03     3.60021E-03
            1053     1.77375E-03     96.5131E-03    -29.0865E+06    -51.1448E+06     -26.829E+06    -1.45110E+06    -14.6405E-03     29.3168E-03    -14.6763E-03     6.66472E-03    -14.6730E-03     29.1422E-03    -14.6941E-03     6.64520E-03
            1054     2.66060E-03     96.5203E-03    -27.7764E+06    -46.8020E+06    -22.7811E+06    -1.85926E+06    -14.5904E-03     29.2586E-03    -14.6682E-03     9.92301E-03    -14.6285E-03     29.0981E-03    -14.6740E-03     9.89781E-03
            1055     3.54763E-03     96.5303E-03    -26.0459E+06    -41.4717E+06    -17.0030E+06    -2.26771E+06    -14.5323E-03     29.1929E-03    -14.6606E-03     13.2661E-03    -14.5780E-03     29.0483E-03    -14.6477E-03     13.2351E-03
            1056     4.43461E-03     96.5432E-03    -24.1455E+06    -37.2977E+06    -10.4193E+06    -3.11378E+06    -14.4833E-03     29.1382E-03    -14.6549E-03     16.6938E-03    -14.5353E-03     29.0023E-03    -14.6179E-03     16.6513E-03
            1057     5.32175E-03     96.5592E-03    -22.0691E+06    -35.1795E+06    -4.70139E+06    -4.29239E+06    -14.4537E-03     29.1003E-03    -14.6466E-03     20.2188E-03    -14.5070E-03     28.9640E-03    -14.5871E-03     20.1604E-03
            1058     6.20886E-03     96.5782E-03    -20.0674E+06    -34.4691E+06    -605.258E+03    -5.42777E+06    -14.4472E-03     29.0803E-03    -14.6332E-03     23.8472E-03    -14.4979E-03     28.9392E-03    -14.5571E-03     23.7733E-03
            1059     7.09608E-03     96.6005E-03    -18.2763E+06    -34.9075E+06     1.94153E+06    -6.56810E+06    -14.4776E-03     29.0944E-03    -14.6168E-03     27.5885E-03    -14.5232E-03     28.9455E-03    -14.5300E-03     27.4987E-03
            1060     7.98323E-03     96.6259E-03    -16.3650E+06    -35.0208E+06     3.55531E+06    -7.35526E+06    -14.5484E-03     29.1486E-03    -14.6001E-03     31.4428E-03    -14.5875E-03     28.9949E-03    -14.5079E-03     31.3414E-03
            1061     8.87044E-03     96.6549E-03    -14.6980E+06    -36.1059E+06     4.45690E+06    -8.00054E+06    -14.6783E-03     29.2675E-03    -14.5892E-03     35.3599E-03    -14.7103E-03     29.1062E-03    -14.4932E-03     35.2483E-03
            1062     9.75751E-03     96.6872E-03    -13.2577E+06    -34.9701E+06     4.53831E+06    -8.75429E+06    -14.8766E-03     29.4584E-03    -14.5818E-03     39.3332E-03    -14.9054E-03     29.3028E-03    -14.4892E-03     39.2094E-03
            1063     10.6445E-03     96.7233E-03    -11.7847E+06    -35.3547E+06     4.69361E+06    -9.44831E+06    -15.1602E-03     29.7509E-03    -14.5907E-03     43.2625E-03    -15.1847E-03     29.5945E-03    -14.4989E-03     43.1263E-03
            1064     11.5313E-03     96.7625E-03    -10.4102E+06    -36.8967E+06     2.59231E+06    -10.0424E+06    -15.5541E-03     30.1618E-03    -14.6077E-03     46.9898E-03    -15.5717E-03     30.0039E-03    -14.5261E-03     46.8417E-03
            1065     12.4176E-03     96.8054E-03    -9.15798E+06    -29.9404E+06     2.20751E+06    -10.3508E+06    -15.9806E-03     30.6210E-03    -14.6404E-03     50.5893E-03    -16.0096E-03     30.5048E-03    -14.5727E-03     50.4319E-03
            1066     13.3039E-03     96.8513E-03    -7.81218E+06    -28.3251E+06     1.15630E+06    -9.98250E+06    -16.4585E-03     31.1540E-03    -14.6955E-03     54.3891E-03    -16.4950E-03     31.0589E-03    -14.6373E-03     54.2305E-03
            1067     14.1894E-03     96.9013E-03    -6.74299E+06    -28.3378E+06    -5.47829E+06    -8.74293E+06    -17.1476E-03     31.8948E-03    -14.7472E-03     58.5501E-03    -17.1943E-03     31.8329E-03    -14.7237E-03     58.4012E-03
            1068     15.0749E-03     96.9555E-03    -6.44858E+06    -5.12087E+06    -6.53467E+06    -6.68816E+06    -17.6891E-03     32.5032E-03    -14.8141E-03     64.0535E-03    -17.8139E-03     32.6059E-03    -14.8300E-03     63.9335E-03
            1069     15.9600E-03     97.0161E-03    -5.28326E+06     61.9220E+06     4.19806E+06    -3.73172E+06    -17.7254E-03     32.6074E-03    -14.8820E-03     63.2699E-03    -18.0157E-03     33.0866E-03    -14.9431E-03     63.2187E-03
            1070     16.8454E-03     97.0698E-03    -2.64357E+06     106.894E+06     42.0091E+06    -1.79937E+06    -17.2104E-03     32.3223E-03    -15.1119E-03     34.5108E-03    -17.5479E-03     32.9081E-03    -15.0531E-03     34.5043E-03
            1071     887.097E-06     97.4849E-03    -30.1598E+06    -52.0798E+06    -29.5952E+06    -702.470E+03    -14.4237E-03     28.8598E-03    -14.4361E-03     3.64140E-03    -14.4561E-03     28.6861E-03    -14.4649E-03     3.63196E-03
            1072     1.77411E-03     97.4892E-03    -29.5728E+06    -49.6377E+06    -27.3102E+06    -1.23328E+06    -14.3913E-03     28.8196E-03    -14.4282E-03     6.72175E-03    -14.4277E-03     28.6539E-03    -14.4499E-03     6.70513E-03
            1073     2.66130E-03     97.4963E-03    -28.5433E+06    -45.6879E+06    -23.6967E+06    -1.63274E+06    -14.3396E-03     28.7578E-03    -14.4183E-03     10.0112E-03    -14.3818E-03     28.6053E-03    -14.4291E-03     9.98901E-03
            1074     3.54844E-03     97.5062E-03    -27.1214E+06    -40.4021E+06    -18.6055E+06    -1.81431E+06    -14.2737E-03     28.6801E-03    -14.4063E-03     13.3895E-03    -14.3241E-03     28.5446E-03    -14.4014E-03     13.3645E-03
            1075     4.43576E-03     97.5192E-03    -25.3954E+06    -35.5093E+06    -12.0712E+06    -2.26241E+06    -14.2127E-03     28.6096E-03    -14.3969E-03     16.8621E-03    -14.2712E-03     28.4869E-03    -14.3689E-03     16.8309E-03
            1076     5.32305E-03     97.5350E-03    -23.5986E+06    -32.9659E+06    -5.76270E+06    -3.28315E+06    -14.1755E-03     28.5636E-03    -14.3881E-03     20.4384E-03    -14.2381E-03     28.4421E-03    -14.3349E-03     20.3933E-03
            1077     6.21047E-03     97.5540E-03    -21.6775E+06    -32.3144E+06    -1.26522E+06    -4.46715E+06    -14.1735E-03     28.5480E-03    -14.3745E-03     24.1344E-03    -14.2344E-03     28.4209E-03    -14.3025E-03     24.0732E-03
            1078     7.09785E-03     97.5761E-03    -19.8973E+06    -32.6244E+06     1.47842E+06    -5.55948E+06    -14.2143E-03     28.5722E-03    -14.3579E-03     27.9616E-03    -14.2704E-03     28.4376E-03    -14.2744E-03     27.8852E-03
            1079     7.98529E-03     97.6017E-03    -18.4179E+06    -32.9875E+06     2.91140E+06    -6.82529E+06    -14.3017E-03     28.6438E-03    -14.3420E-03     31.9038E-03    -14.3530E-03     28.5041E-03    -14.2529E-03     31.8097E-03
            1080     8.87266E-03     97.6306E-03    -16.6531E+06    -34.3309E+06     3.75136E+06    -7.74685E+06    -14.4593E-03     28.7928E-03    -14.3335E-03     35.9282E-03    -14.5025E-03     28.6441E-03    -14.2408E-03     35.8204E-03
            1081     9.75993E-03     97.6633E-03    -15.0077E+06    -33.0190E+06     4.18099E+06    -8.53335E+06    -14.6976E-03     29.0297E-03    -14.3321E-03     40.0281E-03    -14.7373E-03     28.8867E-03    -14.2415E-03     39.9077E-03
            1082     10.6471E-03     97.6993E-03    -13.5825E+06    -33.4933E+06     4.38706E+06    -9.58951E+06    -15.0485E-03     29.3981E-03    -14.3495E-03     44.0994E-03    -15.0842E-03     29.2539E-03    -14.2593E-03     43.9619E-03
            1083     11.5338E-03     97.7392E-03    -12.1151E+06    -35.1596E+06     2.59951E+06    -10.4437E+06    -15.5045E-03     29.8842E-03    -14.3796E-03     47.9834E-03    -15.5331E-03     29.7374E-03    -14.2981E-03     47.8305E-03
            1084     12.4204E-03     97.7822E-03    -10.6923E+06    -28.7778E+06     2.29751E+06    -10.8696E+06    -16.0141E-03     30.4421E-03    -14.4280E-03     51.6659E-03    -16.0526E-03     30.3338E-03    -14.3592E-03     51.5021E-03
            1085     13.3063E-03     97.8290E-03    -9.40905E+06    -28.2046E+06     931.402E+03    -10.8320E+06    -16.6699E-03     31.1740E-03    -14.5040E-03     55.4701E-03    -16.7147E-03     31.0825E-03    -14.4448E-03     55.3003E-03
            1086     14.1921E-03     97.8793E-03    -8.24247E+06    -29.1954E+06    -5.77736E+06    -9.69261E+06    -17.4014E-03     31.9830E-03    -14.5816E-03     59.7030E-03    -17.4548E-03     31.9203E-03    -14.5562E-03     59.5414E-03
            1087     15.0768E-03     97.9347E-03    -7.15469E+06    -7.41496E+06    -6.49417E+06    -7.39359E+06    -18.0522E-03     32.7297E-03    -14.6775E-03     64.8795E-03    -18.1782E-03     32.8229E-03    -14.6889E-03     64.7489E-03
            1088     15.9613E-03     97.9951E-03    -6.09154E+06     59.4966E+06     4.83270E+06    -5.24926E+06    -18.2015E-03     32.9802E-03    -14.7787E-03     63.7834E-03    -18.4958E-03     33.4501E-03    -14.8320E-03     63.7110E-03
            1089     16.8453E-03     98.0497E-03    -3.27219E+06     104.778E+06     42.1710E+06    -2.65119E+06    -17.9503E-03     32.9931E-03    -15.0427E-03     34.6947E-03    -18.2903E-03     33.5711E-03    -14.9790E-03     34.6753E-03
            1090     887.288E-06     98.4605E-03    -31.1807E+06    -50.7811E+06    -30.5455E+06    -472.077E+03    -14.1155E-03     28.2428E-03    -14.1274E-03     3.67712E-03    -14.1535E-03     28.0785E-03    -14.1612E-03     3.67070E-03
            1091     1.77471E-03     98.4648E-03    -30.6682E+06    -48.4367E+06    -28.3861E+06    -805.963E+03    -14.0826E-03     28.2021E-03    -14.1195E-03     6.79080E-03    -14.1246E-03     28.0456E-03    -14.1468E-03     6.77977E-03
            1092     2.66205E-03     98.4718E-03    -29.8626E+06    -44.7275E+06    -24.9094E+06    -1.08139E+06    -14.0309E-03     28.1404E-03    -14.1096E-03     10.1150E-03    -14.0793E-03     27.9963E-03    -14.1260E-03     10.1001E-03
            1093     3.54956E-03     98.4818E-03    -28.6680E+06    -39.7626E+06    -20.2537E+06    -1.18329E+06    -13.9654E-03     28.0617E-03    -14.0963E-03     13.5331E-03    -14.0220E-03     27.9341E-03    -14.0984E-03     13.5165E-03
            1094     4.43705E-03     98.4945E-03    -27.1747E+06    -34.3857E+06    -14.2241E+06    -1.31996E+06    -13.8957E-03     27.9791E-03    -14.0833E-03     17.0511E-03    -13.9616E-03     27.8676E-03    -14.0652E-03     17.0323E-03
            1095     5.32471E-03     98.5104E-03    -25.5178E+06    -31.0844E+06    -7.54001E+06    -1.96272E+06    -13.8508E-03     27.9246E-03    -14.0738E-03     20.6843E-03    -13.9230E-03     27.8178E-03    -14.0295E-03     20.6565E-03
            1096     6.21234E-03     98.5292E-03    -23.8766E+06    -30.0682E+06    -2.37434E+06    -3.23605E+06    -13.8509E-03     27.9129E-03    -14.0620E-03     24.4563E-03    -13.9244E-03     27.8017E-03    -13.9956E-03     24.4114E-03
            1097     7.10006E-03     98.5514E-03    -22.0900E+06    -30.5856E+06     578.955E+03    -4.52256E+06    -13.9037E-03     27.9502E-03    -14.0465E-03     28.3715E-03    -13.9723E-03     27.8302E-03    -13.9673E-03     28.3090E-03
            1098     7.98773E-03     98.5769E-03    -20.4148E+06    -30.4563E+06     2.39276E+06    -5.75098E+06    -14.0211E-03     28.0546E-03    -14.0334E-03     32.4230E-03    -14.0851E-03     27.9310E-03    -13.9477E-03     32.3433E-03
            1099     8.87531E-03     98.6061E-03    -18.9539E+06    -32.0309E+06     3.12159E+06    -7.46998E+06    -14.2162E-03     28.2461E-03    -14.0298E-03     36.5671E-03    -14.2731E-03     28.1129E-03    -13.9403E-03     36.4634E-03
            1100     9.76282E-03     98.6386E-03    -17.0224E+06    -31.2412E+06     3.61644E+06    -8.55345E+06    -14.5009E-03     28.5373E-03    -14.0364E-03     40.8116E-03    -14.5522E-03     28.4068E-03    -13.9483E-03     40.6914E-03
            1101     10.6500E-03     98.6753E-03    -15.1482E+06    -30.9095E+06     4.27538E+06    -9.68406E+06    -14.9190E-03     28.9835E-03    -14.0645E-03     45.0429E-03    -14.9658E-03     28.8545E-03    -13.9764E-03     44.9047E-03
            1102     11.5370E-03     98.7153E-03    -13.4097E+06    -33.2950E+06     2.71457E+06    -10.9994E+06    -15.4521E-03     29.5623E-03    -14.1102E-03     49.0163E-03    -15.4899E-03     29.4264E-03    -14.0289E-03     48.8567E-03
            1103     12.4235E-03     98.7593E-03    -11.7107E+06    -27.4978E+06     2.52206E+06    -11.5845E+06    -16.0988E-03     30.2773E-03    -14.1784E-03     52.8468E-03    -16.1447E-03     30.1767E-03    -14.1090E-03     52.6740E-03
            1104     13.3095E-03     98.8064E-03    -10.0634E+06    -27.1985E+06     1.36036E+06    -11.8139E+06    -16.9177E-03     31.1989E-03    -14.2812E-03     56.7933E-03    -16.9683E-03     31.1133E-03    -14.2204E-03     56.6106E-03
            1105     14.1944E-03     98.8580E-03    -8.21067E+06    -30.2992E+06    -5.59274E+06    -11.2207E+06    -17.7540E-03     32.1442E-03    -14.3902E-03     60.9618E-03    -17.8070E-03     32.0767E-03    -14.3624E-03     60.7797E-03
            1106     15.0795E-03     98.9133E-03    -6.17121E+06    -10.0272E+06    -5.97432E+06    -8.98615E+06    -18.4604E-03     32.9802E-03    -14.5198E-03     66.1750E-03    -18.5804E-03     33.0600E-03    -14.5262E-03     66.0224E-03
            1107     15.9635E-03     98.9757E-03    -4.49262E+06     57.2319E+06     5.07532E+06    -5.58052E+06    -18.7924E-03     33.4443E-03    -14.6520E-03     65.1653E-03    -19.0776E-03     33.9021E-03    -14.7031E-03     65.0857E-03
            1108     16.8474E-03     99.0296E-03    -3.22571E+06     102.222E+06     41.3352E+06    -2.89208E+06    -18.9781E-03     33.9381E-03    -14.9600E-03     36.3294E-03    -19.3149E-03     34.5065E-03    -14.8969E-03     36.3037E-03
            1109     887.692E-06     99.4355E-03    -32.9812E+06    -49.9878E+06    -32.3918E+06    -180.827E+03    -13.7400E-03     27.4904E-03    -13.7504E-03     3.71761E-03    -13.7855E-03     27.3353E-03    -13.7920E-03     3.71500E-03
            1110     1.77530E-03     99.4397E-03    -32.5755E+06    -47.7708E+06    -30.2293E+06    -261.906E+03    -13.7084E-03     27.4523E-03    -13.7439E-03     6.86784E-03    -13.7583E-03     27.3046E-03    -13.7786E-03     6.86393E-03
            1111     2.66308E-03     99.4467E-03    -31.8365E+06    -44.1598E+06    -26.7703E+06    -283.455E+03    -13.6595E-03     27.3945E-03    -13.7351E-03     10.2315E-03    -13.7159E-03     27.2588E-03    -13.7587E-03     10.2270E-03
            1112     3.55081E-03     99.4565E-03    -30.8309E+06    -39.3990E+06    -22.1839E+06    -273.487E+03    -13.5983E-03     27.3217E-03    -13.7234E-03     13.6929E-03    -13.6634E-03     27.2018E-03    -13.7325E-03     13.6882E-03
            1113     4.43870E-03     99.4693E-03    -29.4882E+06    -33.9230E+06    -16.5019E+06    -226.965E+03    -13.5327E-03     27.2431E-03    -13.7104E-03     17.2571E-03    -13.6074E-03     27.1405E-03    -13.7010E-03     17.2526E-03
            1114     5.32660E-03     99.4849E-03    -27.8838E+06    -29.6976E+06    -9.86098E+06    -615.699E+03    -13.4853E-03     27.1860E-03    -13.7008E-03     20.9523E-03    -13.5679E-03     27.0929E-03    -13.6666E-03     20.9422E-03
            1115     6.21462E-03     99.5039E-03    -26.1630E+06    -27.9126E+06    -3.88122E+06    -1.69128E+06    -13.4870E-03     27.1796E-03    -13.6927E-03     24.7987E-03    -13.5727E-03     27.0846E-03    -13.6337E-03     24.7741E-03
            1116     7.10261E-03     99.5259E-03    -24.4924E+06    -28.2084E+06    -332.637E+03    -3.35045E+06    -13.5587E-03     27.2407E-03    -13.6820E-03     28.8073E-03    -13.6413E-03     27.1372E-03    -13.6073E-03     28.7604E-03
            1117     7.99058E-03     99.5516E-03    -22.5451E+06    -28.1925E+06     1.58976E+06    -4.95755E+06    -13.7019E-03     27.3749E-03    -13.6730E-03     32.9784E-03    -13.7785E-03     27.2667E-03    -13.5915E-03     32.9094E-03
            1118     8.87847E-03     99.5807E-03    -20.6510E+06    -28.7605E+06     2.92120E+06    -6.71235E+06    -13.9466E-03     27.6233E-03    -13.6767E-03     37.2579E-03    -14.0163E-03     27.5091E-03    -13.5904E-03     37.1646E-03
            1119     9.76611E-03     99.6138E-03    -18.9499E+06    -29.1089E+06     3.21482E+06    -8.77065E+06    -14.2984E-03     27.9928E-03    -13.6943E-03     41.6611E-03    -14.3617E-03     27.8761E-03    -13.6086E-03     41.5387E-03
            1120     10.6536E-03     99.6506E-03    -16.7430E+06    -28.2163E+06     4.03370E+06    -10.1527E+06    -14.7708E-03     28.5058E-03    -13.7350E-03     46.0817E-03    -14.8290E-03     28.3927E-03    -13.6497E-03     45.9381E-03
            1121     11.5405E-03     99.6915E-03    -14.6170E+06    -30.7604E+06     3.05314E+06    -11.6254E+06    -15.4392E-03     29.2401E-03    -13.8009E-03     50.2129E-03    -15.4871E-03     29.1181E-03    -13.7199E-03     50.0457E-03
            1122     12.4271E-03     99.7356E-03    -12.6552E+06    -26.1699E+06     2.70433E+06    -12.5209E+06    -16.2178E-03     30.1116E-03    -13.8938E-03     54.2063E-03    -16.2708E-03     30.0189E-03    -13.8240E-03     54.0216E-03
            1123     13.3127E-03     99.7843E-03    -10.6547E+06    -25.7152E+06     1.69738E+06    -13.1127E+06    -17.1020E-03     31.1256E-03    -14.0236E-03     58.2884E-03    -17.1586E-03     31.0482E-03    -13.9623E-03     58.0890E-03
            1124     14.1981E-03     99.8362E-03    -8.70826E+06    -30.9051E+06    -5.50809E+06    -12.9971E+06    -18.2029E-03     32.3702E-03    -14.1673E-03     62.5339E-03    -18.2590E-03     32.3017E-03    -14.1374E-03     62.3277E-03
            1125     15.0820E-03     99.8931E-03    -7.23048E+06    -12.6827E+06    -6.21652E+06    -10.8451E+06    -19.2274E-03     33.5729E-03    -14.3455E-03     67.1881E-03    -19.3511E-03     33.6439E-03    -14.3477E-03     67.0081E-03
            1126     15.9662E-03     99.9551E-03    -5.31500E+06     53.8309E+06     5.34042E+06    -7.30199E+06    -19.6973E-03     34.2334E-03    -14.5361E-03     65.2450E-03    -19.9839E-03     34.6767E-03    -14.5797E-03     65.1363E-03
            1127     16.8492E-03     100.012E-03    -3.74617E+06     99.1986E+06     41.2650E+06    -3.13340E+06    -19.9616E-03     34.8589E-03    -14.8973E-03     36.7654E-03    -20.2975E-03     35.4140E-03    -14.8294E-03     36.7309E-03
            1128     888.006E-06     100.410E-03    -36.3676E+06    -49.7565E+06    -35.6748E+06     101.978E+03    -13.2940E-03     26.5964E-03    -13.3024E-03     3.75898E-03    -13.3520E-03     26.4521E-03    -13.3559E-03     3.76007E-03
            1129     1.77613E-03     100.414E-03    -35.7619E+06    -47.6565E+06    -33.3759E+06     263.276E+03    -13.2652E-03     26.5635E-03    -13.2984E-03     6.94785E-03    -13.3265E-03     26.4255E-03    -13.3443E-03     6.95082E-03
            1130     2.66419E-03     100.421E-03    -34.8866E+06    -44.1852E+06    -29.7155E+06     494.222E+03    -13.2228E-03     26.5150E-03    -13.2922E-03     10.3542E-03    -13.2902E-03     26.3878E-03    -13.3261E-03     10.3599E-03
            1131     3.55238E-03     100.431E-03    -33.7103E+06    -39.4118E+06    -24.8393E+06     745.141E+03    -13.1713E-03     26.4556E-03    -13.2844E-03     13.8594E-03    -13.2469E-03     26.3437E-03    -13.3025E-03     13.8680E-03
            1132     4.44057E-03     100.443E-03    -32.2337E+06    -33.8619E+06    -18.9658E+06     867.290E+03    -13.1208E-03     26.3967E-03    -13.2759E-03     17.4737E-03    -13.2057E-03     26.3020E-03    -13.2749E-03     17.4836E-03
            1133     5.32888E-03     100.459E-03    -30.4262E+06    -28.7970E+06    -12.2415E+06     626.174E+03    -13.0856E-03     26.3556E-03    -13.2700E-03     21.2254E-03    -13.1788E-03     26.2740E-03    -13.2453E-03     21.2317E-03
            1134     6.21720E-03     100.478E-03    -28.3797E+06    -26.0375E+06    -5.67855E+06    -371.693E+03    -13.0972E-03     26.3650E-03    -13.2678E-03     25.1474E-03    -13.1940E-03     26.2851E-03    -13.2173E-03     25.1402E-03
            1135     7.10555E-03     100.500E-03    -26.2113E+06    -25.4737E+06    -1.14998E+06    -2.10856E+06    -13.1866E-03     26.4519E-03    -13.2653E-03     29.2539E-03    -13.2805E-03     26.3657E-03    -13.1961E-03     29.2234E-03
            1136     7.99383E-03     100.525E-03    -24.1757E+06    -25.5151E+06     1.07672E+06    -4.28197E+06    -13.3630E-03     26.6274E-03    -13.2644E-03     33.5392E-03    -13.4507E-03     26.5356E-03    -13.1869E-03     33.4795E-03
            1137     8.88198E-03     100.555E-03    -21.9800E+06    -25.7099E+06     2.49799E+06    -6.33056E+06    -13.6493E-03     26.9255E-03    -13.2762E-03     37.9835E-03    -13.7292E-03     26.8288E-03    -13.1945E-03     37.8956E-03
            1138     9.76994E-03     100.588E-03    -19.8286E+06    -25.5205E+06     3.54345E+06    -8.58963E+06    -14.0724E-03     27.3802E-03    -13.3078E-03     42.5567E-03    -14.1455E-03     27.2820E-03    -13.2243E-03     42.4372E-03
            1139     10.6575E-03     100.626E-03    -17.8640E+06    -25.6042E+06     3.89900E+06    -10.7748E+06    -14.6292E-03     27.9929E-03    -13.3636E-03     47.1635E-03    -14.6964E-03     27.8944E-03    -13.2811E-03     47.0125E-03
            1140     11.5447E-03     100.667E-03    -15.7581E+06    -27.8369E+06     3.21771E+06    -12.3347E+06    -15.4011E-03     28.8516E-03    -13.4505E-03     51.6106E-03    -15.4592E-03     28.7456E-03    -13.3712E-03     51.4347E-03
            1141     12.4310E-03     100.713E-03    -13.6091E+06    -24.2852E+06     2.77656E+06    -13.6997E+06    -16.3293E-03     29.8987E-03    -13.5694E-03     55.7785E-03    -16.3900E-03     29.8169E-03    -13.5006E-03     55.5788E-03
            1142     13.3169E-03     100.761E-03    -11.1825E+06    -23.8435E+06     1.96998E+06    -14.6432E+06    -17.3814E-03     31.1129E-03    -13.7315E-03     59.9137E-03    -17.4444E-03     31.0458E-03    -13.6708E-03     59.6942E-03
            1143     14.2015E-03     100.815E-03    -9.15941E+06    -30.7900E+06    -4.99029E+06    -14.5519E+06    -18.7449E-03     32.6644E-03    -13.9195E-03     64.3507E-03    -18.8056E-03     32.5978E-03    -13.8865E-03     64.1230E-03
            1144     15.0853E-03     100.873E-03    -7.50732E+06    -15.3860E+06    -6.59465E+06    -12.5703E+06    -20.2267E-03     34.3798E-03    -14.1531E-03     69.0985E-03    -20.3513E-03     34.4423E-03    -14.1529E-03     68.8914E-03
            1145     15.9665E-03     100.937E-03    -5.81362E+06     49.6232E+06     5.03408E+06    -8.78718E+06    -21.1433E-03     35.5644E-03    -14.4211E-03     67.1967E-03    -21.4336E-03     35.9957E-03    -14.4595E-03     67.0595E-03
            1146     16.8481E-03     100.993E-03    -2.57147E+06     94.5958E+06     41.0697E+06    -3.83692E+06    -20.8683E-03     35.7149E-03    -14.8466E-03     38.2593E-03    -21.1969E-03     36.2511E-03    -14.7747E-03     38.2098E-03
            1147     888.518E-06     101.383E-03    -41.8948E+06    -49.8963E+06    -41.3034E+06     223.170E+03    -12.7781E-03     25.5644E-03    -12.7862E-03     3.79952E-03    -12.8554E-03     25.4355E-03    -12.8596E-03     3.80222E-03
            1148     1.77697E-03     101.387E-03    -40.9626E+06    -47.9062E+06    -38.5279E+06     427.202E+03    -12.7564E-03     25.5416E-03    -12.7852E-03     7.02568E-03    -12.8359E-03     25.4174E-03    -12.8490E-03     7.03086E-03
            1149     2.66555E-03     101.394E-03    -39.3767E+06    -44.5982E+06    -34.2193E+06     756.968E+03    -12.7253E-03     25.5096E-03    -12.7843E-03     10.4712E-03    -12.8080E-03     25.3934E-03    -12.8336E-03     10.4805E-03
            1150     3.55410E-03     101.404E-03    -37.4050E+06    -39.9217E+06    -28.5989E+06     1.21606E+06    -12.6918E-03     25.4752E-03    -12.7833E-03     14.0196E-03    -12.7797E-03     25.3714E-03    -12.8142E-03     14.0346E-03
            1151     4.44276E-03     101.416E-03    -35.1744E+06    -34.0155E+06    -21.9701E+06     1.53177E+06    -12.6638E-03     25.4468E-03    -12.7830E-03     17.6815E-03    -12.7588E-03     25.3598E-03    -12.7925E-03     17.7001E-03
            1152     5.33141E-03     101.432E-03    -32.7003E+06    -28.3008E+06    -14.6869E+06     1.37322E+06    -12.6569E-03     25.4426E-03    -12.7857E-03     21.4883E-03    -12.7586E-03     25.3703E-03    -12.7707E-03     21.5045E-03
            1153     6.22012E-03     101.451E-03    -30.0733E+06    -24.3365E+06    -7.54868E+06     497.905E+03    -12.6910E-03     25.4838E-03    -12.7928E-03     25.4808E-03    -12.7960E-03     25.4174E-03    -12.7516E-03     25.4851E-03
            1154     7.10881E-03     101.473E-03    -27.4277E+06    -22.6793E+06    -2.21274E+06    -1.37126E+06    -12.7980E-03     25.5991E-03    -12.8011E-03     29.6841E-03    -12.9003E-03     25.5299E-03    -12.7395E-03     29.6636E-03
            1155     7.99743E-03     101.499E-03    -24.7842E+06    -22.3463E+06     791.863E+03    -3.68259E+06    -13.0112E-03     25.8235E-03    -12.8122E-03     34.0953E-03    -13.1060E-03     25.7486E-03    -12.7399E-03     34.0438E-03
            1156     8.88589E-03     101.528E-03    -22.3776E+06    -22.2968E+06     2.44228E+06    -6.25812E+06    -13.3418E-03     26.1777E-03    -12.8358E-03     38.6987E-03    -13.4283E-03     26.0985E-03    -12.7589E-03     38.6123E-03
            1157     9.77408E-03     101.562E-03    -19.9756E+06    -21.9847E+06     3.69517E+06    -8.65936E+06    -13.8109E-03     26.6918E-03    -12.8808E-03     43.4694E-03    -13.8898E-03     26.6110E-03    -12.8015E-03     43.3497E-03
            1158     10.6619E-03     101.600E-03    -17.7541E+06    -22.0863E+06     4.36519E+06    -10.9770E+06    -14.4744E-03     27.4286E-03    -12.9543E-03     48.3230E-03    -14.5466E-03     27.3467E-03    -12.8747E-03     48.1700E-03
            1159     11.5490E-03     101.642E-03    -15.5188E+06    -24.6546E+06     3.84254E+06    -13.3595E+06    -15.3396E-03     28.4026E-03    -13.0630E-03     53.0656E-03    -15.4018E-03     28.3110E-03    -12.9855E-03     52.8771E-03
            1160     12.4358E-03     101.689E-03    -13.1933E+06    -21.8763E+06     3.48080E+06    -14.9125E+06    -16.3809E-03     29.5885E-03    -13.2075E-03     57.4695E-03    -16.4441E-03     29.5170E-03    -13.1393E-03     57.2547E-03
            1161     13.3210E-03     101.739E-03    -11.1442E+06    -21.5764E+06     2.83544E+06    -16.0248E+06    -17.7153E-03     31.1197E-03    -13.4044E-03     61.9918E-03    -17.7834E-03     31.0634E-03    -13.3428E-03     61.7541E-03
            1162     14.2056E-03     101.794E-03    -8.62259E+06    -30.2436E+06    -3.95823E+06    -16.6957E+06    -19.2984E-03     32.9372E-03    -13.6387E-03     66.8264E-03    -19.3603E-03     32.8726E-03    -13.6021E-03     66.5695E-03
            1163     15.0884E-03     101.854E-03    -6.21498E+06    -18.5136E+06    -6.48292E+06    -14.4434E+06    -20.8985E-03     34.8174E-03    -13.9190E-03     71.9128E-03    -21.0158E-03     34.8658E-03    -13.9155E-03     71.6785E-03
            1164     15.9711E-03     101.919E-03    -4.75479E+06     44.7297E+06     4.37208E+06    -9.17266E+06    -22.1854E-03     36.4255E-03    -14.2402E-03     70.3988E-03    -22.4700E-03     36.8395E-03    -14.2763E-03     70.2501E-03
            1165     16.8510E-03     101.978E-03    -2.74090E+06     89.9515E+06     40.5525E+06    -4.26474E+06    -22.4289E-03     37.1695E-03    -14.7406E-03     40.1235E-03    -22.7565E-03     37.6892E-03    -14.6643E-03     40.0612E-03
            1166     888.951E-06     102.355E-03    -50.4868E+06    -49.7705E+06    -49.9203E+06    -204.553E+03    -12.2048E-03     24.4162E-03    -12.2113E-03     3.83526E-03    -12.3127E-03     24.3129E-03    -12.3156E-03     3.83249E-03
            1167     1.77799E-03     102.359E-03    -48.6237E+06    -47.8611E+06    -46.3406E+06    -271.226E+03    -12.1947E-03     24.4102E-03    -12.2155E-03     7.09000E-03    -12.3013E-03     24.3087E-03    -12.3073E-03     7.08625E-03
            1168     2.66697E-03     102.366E-03    -45.8506E+06    -44.7995E+06    -40.9576E+06    -240.165E+03    -12.1814E-03     24.4043E-03    -12.2229E-03     10.5698E-03    -12.2864E-03     24.3062E-03    -12.2962E-03     10.5663E-03
            1169     3.55604E-03     102.376E-03    -42.2088E+06    -40.5093E+06    -34.0946E+06     113.434E+03    -12.1720E-03     24.4041E-03    -12.2322E-03     14.1548E-03    -12.2750E-03     24.3123E-03    -12.2827E-03     14.1557E-03
            1170     4.44510E-03     102.388E-03    -38.2199E+06    -34.5827E+06    -26.1558E+06     764.844E+03    -12.1748E-03     24.4181E-03    -12.2433E-03     17.8585E-03    -12.2781E-03     24.3388E-03    -12.2685E-03     17.8675E-03
            1171     5.33420E-03     102.404E-03    -34.4356E+06    -28.0785E+06    -17.7688E+06     1.09448E+06    -12.2019E-03     24.4598E-03    -12.2579E-03     21.7140E-03    -12.3080E-03     24.3955E-03    -12.2561E-03     21.7269E-03
            1172     6.22329E-03     102.423E-03    -30.8419E+06    -22.9305E+06    -9.70815E+06     474.400E+03    -12.2704E-03     24.5480E-03    -12.2775E-03     25.7692E-03    -12.3780E-03     24.4928E-03    -12.2481E-03     25.7736E-03
            1173     7.11234E-03     102.445E-03    -27.4838E+06    -19.8879E+06    -3.28304E+06    -1.16804E+06    -12.4060E-03     24.7062E-03    -12.3002E-03     30.0614E-03    -12.5110E-03     24.6525E-03    -12.2479E-03     30.0439E-03
            1174     8.00131E-03     102.471E-03    -24.4833E+06    -18.9582E+06     477.473E+03    -3.64817E+06    -12.6484E-03     24.9744E-03    -12.3260E-03     34.6087E-03    -12.7459E-03     24.9163E-03    -12.2607E-03     34.5581E-03
            1175     8.89007E-03     102.501E-03    -21.5827E+06    -18.4426E+06     2.66501E+06    -6.35254E+06    -13.0177E-03     25.3814E-03    -12.3637E-03     39.3755E-03    -13.1059E-03     25.3198E-03    -12.2923E-03     39.2884E-03
            1176     9.77853E-03     102.535E-03    -19.1118E+06    -18.5174E+06     4.10689E+06    -8.88357E+06    -13.5322E-03     25.9561E-03    -12.4238E-03     44.3543E-03    -13.6122E-03     25.8905E-03    -12.3487E-03     44.2324E-03
            1177     10.6666E-03     102.574E-03    -16.8692E+06    -18.2572E+06     5.10627E+06    -11.2970E+06    -14.2603E-03     26.7739E-03    -12.5136E-03     49.5275E-03    -14.3343E-03     26.7085E-03    -12.4372E-03     49.3710E-03
            1178     11.5540E-03     102.617E-03    -14.6529E+06    -20.2913E+06     5.09556E+06    -14.2544E+06    -15.2276E-03     27.8703E-03    -12.6427E-03     54.5908E-03    -15.2934E-03     27.7973E-03    -12.5666E-03     54.3914E-03
            1179     12.4404E-03     102.665E-03    -12.4013E+06    -19.8499E+06     4.46773E+06    -16.0899E+06    -16.4024E-03     29.2153E-03    -12.8128E-03     59.3419E-03    -16.4659E-03     29.1513E-03    -12.7437E-03     59.1124E-03
            1180     13.3263E-03     102.716E-03    -10.3400E+06    -18.8005E+06     4.25865E+06    -16.9189E+06    -17.8958E-03     30.9353E-03    -13.0395E-03     64.3445E-03    -17.9662E-03     30.8900E-03    -12.9760E-03     64.0953E-03
            1181     14.2102E-03     102.773E-03    -8.58782E+06    -27.4543E+06    -2.25100E+06    -19.0290E+06    -19.7710E-03     33.0856E-03    -13.3145E-03     69.5077E-03    -19.8406E-03     33.0337E-03    -13.2735E-03     69.2195E-03
            1182     15.0932E-03     102.835E-03    -5.96500E+06    -23.4763E+06    -6.86854E+06    -17.2633E+06    -21.6526E-03     35.2975E-03    -13.6449E-03     74.4384E-03    -21.7643E-03     35.3247E-03    -13.6366E-03     74.1640E-03
            1183     15.9738E-03     102.903E-03    -3.90327E+06     37.8639E+06     3.66219E+06    -9.91510E+06    -23.1409E-03     37.1644E-03    -14.0235E-03     72.6172E-03    -23.4158E-03     37.5494E-03    -14.0545E-03     72.4519E-03
            1184     16.8542E-03     102.963E-03    -2.68016E+06     86.0008E+06     40.6886E+06    -3.88793E+06    -24.3514E-03     38.9590E-03    -14.6076E-03     41.4992E-03    -24.6768E-03     39.4624E-03    -14.5250E-03     41.4328E-03
            1185     889.510E-06     103.326E-03    -62.2659E+06    -47.9946E+06    -61.9053E+06    -1.40653E+06    -11.5989E-03     23.2038E-03    -11.6049E-03     3.85440E-03    -11.7509E-03     23.1439E-03    -11.7546E-03     3.83615E-03
            1186     1.77897E-03     103.330E-03    -59.2630E+06    -46.3380E+06    -57.3273E+06    -2.54066E+06    -11.6040E-03     23.2184E-03    -11.6144E-03     7.12441E-03    -11.7500E-03     23.1557E-03    -11.7479E-03     7.09144E-03
            1187     2.66851E-03     103.337E-03    -54.6245E+06    -43.7219E+06    -50.5407E+06    -3.30512E+06    -11.6125E-03     23.2441E-03    -11.6316E-03     10.6246E-03    -11.7490E-03     23.1780E-03    -11.7417E-03     10.5817E-03
            1188     3.55801E-03     103.347E-03    -48.7794E+06    -40.1580E+06    -42.1285E+06    -3.61559E+06    -11.6317E-03     23.2847E-03    -11.6530E-03     14.2334E-03    -11.7564E-03     23.2158E-03    -11.7347E-03     14.1863E-03
            1189     4.44756E-03     103.359E-03    -42.1714E+06    -35.4147E+06    -32.6808E+06    -2.84536E+06    -11.6670E-03     23.3444E-03    -11.6773E-03     17.9661E-03    -11.7793E-03     23.2760E-03    -11.7282E-03     17.9286E-03
            1190     5.33708E-03     103.375E-03    -35.9156E+06    -28.7228E+06    -22.5945E+06    -1.33228E+06    -11.7292E-03     23.4346E-03    -11.7054E-03     21.8592E-03    -11.8347E-03     23.3762E-03    -11.7247E-03     21.8410E-03
            1191     6.22658E-03     103.394E-03    -30.9230E+06    -21.9466E+06    -12.8559E+06    -781.717E+03    -11.8348E-03     23.5744E-03    -11.7396E-03     25.9634E-03    -11.9396E-03     23.5287E-03    -11.7272E-03     25.9518E-03
            1192     7.11602E-03     103.416E-03    -26.7483E+06    -17.3212E+06    -4.88336E+06    -1.95825E+06    -12.0070E-03     23.7857E-03    -11.7787E-03     30.3375E-03    -12.1096E-03     23.7460E-03    -11.7392E-03     30.3101E-03
            1193     8.00531E-03     103.443E-03    -23.0458E+06    -15.4860E+06     101.045E+03    -4.09949E+06    -12.2742E-03     24.0953E-03    -11.8210E-03     35.0115E-03    -12.3689E-03     24.0528E-03    -11.7647E-03     34.9556E-03
            1194     8.89441E-03     103.473E-03    -20.2005E+06    -14.7133E+06     2.82455E+06    -6.61379E+06    -12.6626E-03     24.5358E-03    -11.8731E-03     39.9511E-03    -12.7493E-03     24.4903E-03    -11.8084E-03     39.8613E-03
            1195     9.78322E-03     103.508E-03    -17.6787E+06    -14.7583E+06     4.77175E+06    -9.16684E+06    -13.2254E-03     25.1735E-03    -11.9481E-03     45.1714E-03    -13.3043E-03     25.1234E-03    -11.8772E-03     45.0465E-03
            1196     10.6715E-03     103.547E-03    -15.3205E+06    -14.2855E+06     6.19633E+06    -11.7718E+06    -13.9931E-03     26.0461E-03    -12.0529E-03     50.6684E-03    -14.0664E-03     25.9962E-03    -11.9790E-03     50.5067E-03
            1197     11.5592E-03     103.591E-03    -13.3749E+06    -15.4820E+06     6.79545E+06    -14.5515E+06    -15.0140E-03     27.2124E-03    -12.1984E-03     56.0791E-03    -15.0823E-03     27.1585E-03    -12.1226E-03     55.8769E-03
            1198     12.4461E-03     103.640E-03    -11.9120E+06    -17.3970E+06     5.72744E+06    -16.7512E+06    -16.3791E-03     28.7696E-03    -12.3905E-03     61.2938E-03    -16.4452E-03     28.7151E-03    -12.3194E-03     61.0565E-03
            1199     13.3312E-03     103.693E-03    -10.0608E+06    -15.9361E+06     5.40045E+06    -18.2183E+06    -18.0708E-03     30.7160E-03    -12.6452E-03     66.6732E-03    -18.1456E-03     30.6828E-03    -12.5805E-03     66.4076E-03
            1200     14.2158E-03     103.752E-03    -7.97566E+06    -22.7092E+06     541.808E+03    -20.4529E+06    -20.2248E-03     33.1890E-03    -12.9641E-03     72.2307E-03    -20.3031E-03     33.1568E-03    -12.9169E-03     71.9231E-03
            1201     15.0973E-03     103.817E-03    -7.00366E+06    -28.7776E+06    -7.48134E+06    -19.3337E+06    -22.6134E-03     35.9640E-03    -13.3506E-03     77.1367E-03    -22.7246E-03     35.9700E-03    -13.3361E-03     76.8305E-03
            1202     15.9782E-03     103.886E-03    -5.42977E+06     28.6017E+06     995.004E+03    -11.5646E+06    -24.7827E-03     38.5900E-03    -13.8073E-03     75.4738E-03    -25.0566E-03     38.9435E-03    -13.8359E-03     75.2742E-03
            1203     16.8558E-03     103.950E-03    -3.29254E+06     81.5249E+06     40.0403E+06    -4.01248E+06    -26.3052E-03     40.7989E-03    -14.4936E-03     43.8191E-03    -26.6340E-03     41.2893E-03    -14.4068E-03     43.7387E-03
            1204     889.964E-06     104.296E-03    -69.2394E+06    -43.5466E+06    -69.0556E+06    -2.90803E+06    -11.0288E-03     22.0650E-03    -11.0362E-03     3.83190E-03    -11.2118E-03     22.0478E-03    -11.2179E-03     3.79430E-03
            1205     1.77997E-03     104.300E-03    -67.0960E+06    -42.1925E+06    -65.6300E+06    -5.23707E+06    -11.0400E-03     22.0818E-03    -11.0418E-03     7.09314E-03    -11.2192E-03     22.0633E-03    -11.2115E-03     7.02541E-03
            1206     2.66994E-03     104.307E-03    -63.3632E+06    -40.1803E+06    -60.2532E+06    -7.44643E+06    -11.0592E-03     22.1172E-03    -11.0580E-03     10.5900E-03    -11.2305E-03     22.0956E-03    -11.2091E-03     10.4937E-03
            1207     3.55994E-03     104.317E-03    -57.7930E+06    -37.5792E+06    -52.5449E+06    -9.06315E+06    -11.0953E-03     22.1784E-03    -11.0832E-03     14.2043E-03    -11.2537E-03     22.1506E-03    -11.2076E-03     14.0870E-03
            1208     4.44991E-03     104.329E-03    -50.3140E+06    -34.9927E+06    -42.7206E+06    -9.43889E+06    -11.1578E-03     22.2760E-03    -11.1182E-03     17.9459E-03    -11.2969E-03     22.2361E-03    -11.2081E-03     17.8235E-03
            1209     5.33989E-03     104.345E-03    -41.1044E+06    -30.1165E+06    -31.3411E+06    -7.84745E+06    -11.2493E-03     22.4079E-03    -11.1586E-03     21.8542E-03    -11.3661E-03     22.3627E-03    -11.2120E-03     21.7521E-03
            1210     6.22982E-03     104.364E-03    -32.0709E+06    -22.5839E+06    -19.0571E+06    -5.23976E+06    -11.3848E-03     22.5906E-03    -11.2058E-03     25.9862E-03    -11.4853E-03     22.5523E-03    -11.2219E-03     25.9173E-03
            1211     7.11963E-03     104.387E-03    -25.6657E+06    -15.6580E+06    -8.15520E+06    -4.04163E+06    -11.5858E-03     22.8467E-03    -11.2609E-03     30.4240E-03    -11.6806E-03     22.8184E-03    -11.2417E-03     30.3700E-03
            1212     8.00930E-03     104.413E-03    -21.6753E+06    -12.4749E+06    -1.04459E+06    -5.06881E+06    -11.8743E-03     23.1944E-03    -11.3201E-03     35.2033E-03    -11.9646E-03     23.1665E-03    -11.2758E-03     35.1352E-03
            1213     8.89877E-03     104.444E-03    -18.3842E+06    -11.1041E+06     3.03297E+06    -7.19178E+06    -12.2827E-03     23.6691E-03    -11.3864E-03     40.3147E-03    -12.3656E-03     23.6385E-03    -11.3285E-03     40.2180E-03
            1214     9.78788E-03     104.479E-03    -15.4957E+06    -10.9000E+06     5.72264E+06    -9.75758E+06    -12.8699E-03     24.3429E-03    -11.4730E-03     45.7974E-03    -12.9444E-03     24.3071E-03    -11.4061E-03     45.6656E-03
            1215     10.6765E-03     104.519E-03    -13.0889E+06    -10.4061E+06     7.76179E+06    -12.1584E+06    -13.6711E-03     25.2609E-03    -11.5898E-03     51.5969E-03    -13.7405E-03     25.2243E-03    -11.5169E-03     51.4311E-03
            1216     11.5645E-03     104.565E-03    -11.2101E+06    -11.0707E+06     8.92406E+06    -14.5570E+06    -14.7638E-03     26.5120E-03    -11.7482E-03     57.4078E-03    -14.8300E-03     26.4732E-03    -11.6713E-03     57.2066E-03
            1217     12.4514E-03     104.615E-03    -9.67322E+06    -14.2761E+06     8.10981E+06    -16.6952E+06    -16.2771E-03     28.2362E-03    -11.9591E-03     63.1477E-03    -16.3392E-03     28.1898E-03    -11.8839E-03     62.9122E-03
            1218     13.3373E-03     104.670E-03    -8.83772E+06    -12.2854E+06     7.51205E+06    -18.6128E+06    -18.2330E-03     30.4720E-03    -12.2390E-03     69.0887E-03    -18.3096E-03     30.4519E-03    -12.1708E-03     68.8184E-03
            1219     14.2206E-03     104.731E-03    -8.47269E+06    -18.1648E+06     3.43741E+06    -21.0251E+06    -20.6603E-03     33.2614E-03    -12.6012E-03     75.3245E-03    -20.7519E-03     33.2486E-03    -12.5454E-03     75.0087E-03
            1220     15.1029E-03     104.799E-03    -7.43392E+06    -32.5509E+06    -6.89594E+06    -20.2476E+06    -23.5782E-03     36.6213E-03    -13.0431E-03     80.5773E-03    -23.6891E-03     36.6105E-03    -13.0196E-03     80.2541E-03
            1221     15.9813E-03     104.871E-03    -6.19002E+06     18.5509E+06    -2.57225E+06    -13.3668E+06    -26.5867E-03     40.1596E-03    -13.5729E-03     79.8101E-03    -26.8568E-03     40.4813E-03    -13.6037E-03     79.5725E-03
            1222     16.8572E-03     104.940E-03    -3.28824E+06     75.1208E+06     38.3478E+06    -5.05768E+06    -28.3892E-03     42.7571E-03    -14.3679E-03     47.2912E-03    -28.7181E-03     43.2300E-03    -14.2803E-03     47.1829E-03
            1223     890.414E-06     105.265E-03    -60.8036E+06    -36.9620E+06    -60.5766E+06    -3.72786E+06    -10.5857E-03     21.1761E-03    -10.5904E-03     3.74679E-03    -10.7483E-03     21.1674E-03    -10.7515E-03     3.69860E-03
            1224     1.78081E-03     105.269E-03    -59.8581E+06    -35.7498E+06    -58.6517E+06    -6.67968E+06    -10.5991E-03     21.1926E-03    -10.5936E-03     6.94059E-03    -10.7615E-03     21.1857E-03    -10.7482E-03     6.85423E-03
            1225     2.67123E-03     105.276E-03    -58.1954E+06    -33.9798E+06    -55.4507E+06    -9.90003E+06    -10.6208E-03     21.2266E-03    -10.6058E-03     10.3703E-03    -10.7821E-03     21.2215E-03    -10.7494E-03     10.2423E-03
            1226     3.56163E-03     105.286E-03    -55.8325E+06    -32.5000E+06    -51.1008E+06    -12.6770E+06    -10.6588E-03     21.2839E-03    -10.6250E-03     13.9281E-03    -10.8169E-03     21.2765E-03    -10.7525E-03     13.7641E-03
            1227     4.45201E-03     105.299E-03    -52.3634E+06    -31.5167E+06    -45.5568E+06    -14.7241E+06    -10.7199E-03     21.3718E-03    -10.6519E-03     17.6386E-03    -10.8701E-03     21.3563E-03    -10.7580E-03     17.4480E-03
            1228     5.34234E-03     105.314E-03    -46.7845E+06    -29.4439E+06    -38.9365E+06    -15.5180E+06    -10.8071E-03     21.4895E-03    -10.6825E-03     21.5519E-03    -10.9421E-03     21.4669E-03    -10.7666E-03     21.3509E-03
            1229     6.23265E-03     105.334E-03    -38.1432E+06    -24.3032E+06    -29.4254E+06    -13.7268E+06    -10.9366E-03     21.6593E-03    -10.7227E-03     25.7168E-03    -11.0500E-03     21.6363E-03    -10.7793E-03     25.5385E-03
            1230     7.12290E-03     105.356E-03    -28.1514E+06    -16.8388E+06    -16.1953E+06    -10.0047E+06    -11.1386E-03     21.9225E-03    -10.7839E-03     30.1854E-03    -11.2323E-03     21.9035E-03    -10.7997E-03     30.0547E-03
            1231     8.01298E-03     105.383E-03    -20.4138E+06    -10.9051E+06    -4.02416E+06    -7.76378E+06    -11.4425E-03     22.3015E-03    -10.8591E-03     35.0324E-03    -11.5243E-03     22.2838E-03    -10.8338E-03     34.9299E-03
            1232     8.90279E-03     105.414E-03    -16.0446E+06    -7.92653E+06     3.05970E+06    -8.35715E+06    -11.8727E-03     22.8105E-03    -10.9378E-03     40.3009E-03    -11.9483E-03     22.7920E-03    -10.8877E-03     40.1896E-03
            1233     9.79233E-03     105.450E-03    -13.1977E+06    -6.82580E+06     6.99419E+06    -10.4657E+06    -12.4703E-03     23.5020E-03    -11.0316E-03     46.0261E-03    -12.5406E-03     23.4809E-03    -10.9676E-03     45.8859E-03
            1234     10.6813E-03     105.491E-03    -10.5939E+06    -6.93647E+06     9.66992E+06    -12.7819E+06    -13.2913E-03     24.4462E-03    -11.1549E-03     52.1241E-03    -13.3552E-03     24.4199E-03    -11.0812E-03     51.9514E-03
            1235     11.5696E-03     105.537E-03    -8.40445E+06    -7.47458E+06     11.4063E+06    -14.5858E+06    -14.4627E-03     25.7832E-03    -11.3205E-03     58.4479E-03    -14.5227E-03     25.7537E-03    -11.2404E-03     58.2476E-03
            1236     12.4569E-03     105.589E-03    -6.88992E+06    -10.5237E+06     11.4874E+06    -16.5740E+06    -16.0926E-03     27.6379E-03    -11.5454E-03     64.8093E-03    -16.1498E-03     27.6001E-03    -11.4627E-03     64.5768E-03
            1237     13.3424E-03     105.647E-03    -6.11293E+06    -9.60202E+06     10.7944E+06    -17.5565E+06    -18.2262E-03     30.0690E-03    -11.8427E-03     71.4640E-03    -18.2965E-03     30.0522E-03    -11.7660E-03     71.2085E-03
            1238     14.2267E-03     105.711E-03    -6.52304E+06    -12.5294E+06     8.45431E+06    -19.6576E+06    -20.9629E-03     33.2007E-03    -12.2378E-03     78.4573E-03    -21.0588E-03     33.2046E-03    -12.1679E-03     78.1590E-03
            1239     15.1075E-03     105.781E-03    -6.55391E+06    -34.1964E+06    -4.73754E+06    -21.5676E+06    -24.4238E-03     37.1476E-03    -12.7239E-03     84.7337E-03    -24.5322E-03     37.1254E-03    -12.6885E-03     84.3890E-03
            1240     15.9861E-03     105.858E-03    -4.78340E+06     7.56855E+06    -5.04071E+06    -15.1272E+06    -28.1357E-03     41.4511E-03    -13.3154E-03     84.9918E-03    -28.3897E-03     41.7299E-03    -13.3446E-03     84.7177E-03
            1241     16.8611E-03     105.931E-03    -3.27717E+06     67.8070E+06     37.1529E+06    -5.56021E+06    -30.6790E-03     44.8957E-03    -14.2166E-03     50.9635E-03    -31.0062E-03     45.3445E-03    -14.1244E-03     50.8327E-03
            1242     890.721E-06     106.233E-03    -41.8414E+06    -29.6158E+06    -41.2427E+06    -3.61580E+06    -10.3156E-03     20.6334E-03    -10.3178E-03     3.57663E-03    -10.4220E-03     20.6058E-03    -10.4204E-03     3.52986E-03
            1243     1.78143E-03     106.237E-03    -41.4820E+06    -28.3540E+06    -40.0523E+06    -6.83504E+06    -10.3329E-03     20.6554E-03    -10.3225E-03     6.63589E-03    -10.4412E-03     20.6319E-03    -10.4215E-03     6.54746E-03
            1244     2.67213E-03     106.244E-03    -41.1458E+06    -26.8245E+06    -38.0974E+06    -9.94762E+06    -10.3573E-03     20.6918E-03    -10.3345E-03     9.92099E-03    -10.4689E-03     20.6726E-03    -10.4264E-03     9.79227E-03
            1245     3.56282E-03     106.254E-03    -40.8419E+06    -25.9986E+06    -35.9128E+06    -12.8518E+06    -10.3930E-03     20.7435E-03    -10.3505E-03     13.3379E-03    -10.5076E-03     20.7249E-03    -10.4331E-03     13.1716E-03
            1246     4.45348E-03     106.267E-03    -40.4227E+06    -25.6573E+06    -34.0409E+06    -15.6135E+06    -10.4394E-03     20.8061E-03    -10.3667E-03     16.9267E-03    -10.5552E-03     20.7860E-03    -10.4411E-03     16.7246E-03
            1247     5.34415E-03     106.283E-03    -39.6666E+06    -24.8185E+06    -32.0686E+06    -18.2750E+06    -10.5048E-03     20.8886E-03    -10.3838E-03     20.7491E-03    -10.6210E-03     20.8689E-03    -10.4506E-03     20.5125E-03
            1248     6.23476E-03     106.302E-03    -37.4906E+06    -23.2943E+06    -29.3617E+06    -19.7384E+06    -10.5940E-03     20.9975E-03    -10.4035E-03     24.8691E-03    -10.7056E-03     20.9785E-03    -10.4622E-03     24.6133E-03
            1249     7.12533E-03     106.325E-03    -31.8362E+06    -18.8654E+06    -23.2299E+06    -18.2837E+06    -10.7323E-03     21.1668E-03    -10.4345E-03     29.3601E-03    -10.8312E-03     21.1531E-03    -10.4772E-03     29.1228E-03
            1250     8.01581E-03     106.352E-03    -22.9881E+06    -12.1040E+06    -11.5943E+06    -14.6502E+06    -10.9882E-03     21.4820E-03    -10.4939E-03     34.2757E-03    -11.0700E-03     21.4729E-03    -10.5010E-03     34.0847E-03
            1251     8.90610E-03     106.384E-03    -14.6904E+06    -6.71334E+06     663.356E+03    -11.8176E+06    -11.4202E-03     21.9980E-03    -10.5778E-03     39.6693E-03    -11.4869E-03     21.9868E-03    -10.5434E-03     39.5139E-03
            1252     9.79593E-03     106.420E-03    -9.88401E+06    -3.75452E+06     8.29282E+06    -11.4802E+06    -12.0230E-03     22.6979E-03    -10.6748E-03     45.5870E-03    -12.0825E-03     22.6849E-03    -10.6136E-03     45.4345E-03
            1253     10.6854E-03     106.462E-03    -7.98317E+06    -3.61313E+06     12.0789E+06    -12.7187E+06    -12.8647E-03     23.6616E-03    -10.7969E-03     52.0220E-03    -12.9230E-03     23.6437E-03    -10.7197E-03     51.8511E-03
            1254     11.5741E-03     106.509E-03    -6.65907E+06    -3.91348E+06     14.2092E+06    -14.7087E+06    -14.0636E-03     25.0240E-03    -10.9603E-03     58.8678E-03    -14.1227E-03     25.0043E-03    -10.8740E-03     58.6674E-03
            1255     12.4616E-03     106.563E-03    -5.07216E+06    -7.35588E+06     14.9927E+06    -16.4190E+06    -15.7486E-03     26.9352E-03    -11.1866E-03     65.9222E-03    -15.8044E-03     26.9034E-03    -11.0936E-03     65.6935E-03
            1256     13.3479E-03     106.622E-03    -4.41452E+06    -9.01402E+06     14.1396E+06    -16.2578E+06    -18.0422E-03     29.5319E-03    -11.4897E-03     73.4424E-03    -18.1070E-03     29.5081E-03    -11.3995E-03     73.2055E-03
            1257     14.2315E-03     106.690E-03    -4.39075E+06    -6.20022E+06     14.5490E+06    -17.7016E+06    -21.0481E-03     32.9507E-03    -11.9026E-03     81.4061E-03    -21.1483E-03     32.9713E-03    -11.8145E-03     81.1341E-03
            1258     15.1132E-03     106.764E-03    -5.58329E+06    -32.2859E+06     588.460E+03    -20.6067E+06    -24.9906E-03     37.4139E-03    -12.4232E-03     88.8021E-03    -25.1021E-03     37.3895E-03    -12.3654E-03     88.4672E-03
            1259     15.9904E-03     106.845E-03    -6.98976E+06    -3.43781E+06    -4.41007E+06    -16.2266E+06    -29.5640E-03     42.6385E-03    -13.0746E-03     90.4574E-03    -29.8224E-03     42.8733E-03    -13.0815E-03     90.1540E-03
            1260     16.8632E-03     106.924E-03    -3.94389E+06     59.2675E+06     37.1359E+06    -7.00641E+06    -33.0101E-03     47.0769E-03    -14.0668E-03     55.3607E-03    -33.3410E-03     47.4969E-03    -13.9613E-03     55.1910E-03
            1261     890.840E-06     107.201E-03    -23.6564E+06    -22.7264E+06    -23.2091E+06    -3.09723E+06    -10.2520E-03     20.5064E-03    -10.2544E-03     3.32497E-03    -10.3037E-03     20.4608E-03    -10.3032E-03     3.28483E-03
            1262     1.78168E-03     107.205E-03    -23.9809E+06    -21.2612E+06    -22.4119E+06    -5.94878E+06    -10.2714E-03     20.5300E-03    -10.2586E-03     6.17206E-03    -10.3280E-03     20.4910E-03    -10.3051E-03     6.09498E-03
            1263     2.67249E-03     107.212E-03    -24.3244E+06    -20.2014E+06    -21.3344E+06    -8.72442E+06    -10.2975E-03     20.5678E-03    -10.2703E-03     9.23514E-03    -10.3590E-03     20.5331E-03    -10.3124E-03     9.12208E-03
            1264     3.56330E-03     107.222E-03    -24.5051E+06    -19.4240E+06    -19.7487E+06    -11.4719E+06    -10.3305E-03     20.6165E-03    -10.2860E-03     12.4253E-03    -10.3964E-03     20.5837E-03    -10.3211E-03     12.2766E-03
            1265     4.45409E-03     107.235E-03    -24.5123E+06    -19.2571E+06    -17.6711E+06    -14.2509E+06    -10.3718E-03     20.6773E-03    -10.3055E-03     15.7828E-03    -10.4410E-03     20.6424E-03    -10.3304E-03     15.5981E-03
            1266     5.34483E-03     107.251E-03    -24.6616E+06    -18.6510E+06    -16.0060E+06    -16.8493E+06    -10.4146E-03     20.7371E-03    -10.3225E-03     19.3791E-03    -10.4881E-03     20.7032E-03    -10.3397E-03     19.1606E-03
            1267     6.23558E-03     107.270E-03    -25.2458E+06    -18.4494E+06    -15.3750E+06    -19.3955E+06    -10.4621E-03     20.7967E-03    -10.3346E-03     23.2936E-03    -10.5399E-03     20.7640E-03    -10.3481E-03     23.0420E-03
            1268     7.12634E-03     107.293E-03    -25.4456E+06    -17.1440E+06    -15.6234E+06    -21.3103E+06    -10.5189E-03     20.8579E-03    -10.3390E-03     27.6460E-03    -10.5995E-03     20.8326E-03    -10.3553E-03     27.3694E-03
            1269     8.01712E-03     107.321E-03    -23.1974E+06    -13.3000E+06    -12.7114E+06    -20.8234E+06    -10.6445E-03     20.9976E-03    -10.3531E-03     32.5412E-03    -10.7239E-03     20.9843E-03    -10.3637E-03     32.2706E-03
            1270     8.90775E-03     107.352E-03    -17.3099E+06    -7.72359E+06    -4.61334E+06    -18.2609E+06    -10.9434E-03     21.3388E-03    -10.3954E-03     38.0361E-03    -11.0138E-03     21.3337E-03    -10.3822E-03     37.7980E-03
            1271     9.79813E-03     107.389E-03    -10.1549E+06    -3.75839E+06     5.52388E+06    -15.0071E+06    -11.5073E-03     21.9797E-03    -10.4725E-03     44.1444E-03    -11.5634E-03     21.9705E-03    -10.4247E-03     43.9472E-03
            1272     10.6879E-03     107.432E-03    -5.10108E+06    -1.54452E+06     13.8560E+06    -13.2421E+06    -12.3701E-03     22.9551E-03    -10.5850E-03     50.9130E-03    -12.4184E-03     22.9396E-03    -10.5060E-03     50.7365E-03
            1273     11.5770E-03     107.480E-03    -3.62313E+06    -924.734E+03     17.9267E+06    -13.4262E+06    -13.5644E-03     24.3000E-03    -10.7355E-03     58.2392E-03    -13.6161E-03     24.2836E-03    -10.6393E-03     58.0571E-03
            1274     12.4652E-03     107.535E-03    -4.37057E+06    -3.98840E+06     19.0129E+06    -14.9688E+06    -15.2427E-03     26.1898E-03    -10.9471E-03     66.0140E-03    -15.3028E-03     26.1651E-03    -10.8399E-03     65.8064E-03
            1275     13.3515E-03     107.598E-03    -4.11214E+06    -9.32182E+06     17.7446E+06    -15.4089E+06    -17.6484E-03     28.8874E-03    -11.2390E-03     74.4994E-03    -17.7122E-03     28.8521E-03    -11.1308E-03     74.2763E-03
            1276     14.2362E-03     107.668E-03    -4.24175E+06    -1.65502E+06     19.8300E+06    -15.4478E+06    -20.8938E-03     32.5423E-03    -11.6485E-03     83.6308E-03    -21.0017E-03     32.5719E-03    -11.5408E-03     83.3903E-03
            1277     15.1171E-03     107.746E-03    -4.89814E+06    -26.8853E+06     8.13153E+06    -18.7866E+06    -25.1635E-03     37.3504E-03    -12.1869E-03     92.3716E-03    -25.2822E-03     37.3330E-03    -12.1002E-03     92.0608E-03
            1278     15.9947E-03     107.833E-03    -3.04762E+06    -12.6403E+06    -3.50555E+06    -17.0639E+06    -30.3625E-03     43.2111E-03    -12.8486E-03     96.6890E-03    -30.5937E-03     43.3972E-03    -12.8434E-03     96.3651E-03
            1279     16.8668E-03     107.920E-03    -1.44351E+06     49.1310E+06     33.9994E+06    -7.76698E+06    -35.1440E-03     49.0401E-03    -13.8961E-03     61.8401E-03    -35.4587E-03     49.4261E-03    -13.7953E-03     61.6392E-03
            1280     890.713E-06     108.169E-03    -8.46831E+06    -16.8471E+06    -8.20086E+06    -2.57304E+06    -10.4687E-03     20.9392E-03    -10.4705E-03     2.98939E-03    -10.4747E-03     20.8791E-03    -10.4748E-03     2.95595E-03
            1281     1.78141E-03     108.173E-03    -8.60617E+06    -15.2080E+06    -7.53237E+06    -4.92161E+06    -10.4913E-03     20.9657E-03    -10.4744E-03     5.55092E-03    -10.5014E-03     20.9131E-03    -10.4775E-03     5.48698E-03
            1282     2.67208E-03     108.180E-03    -8.73397E+06    -14.3299E+06    -6.24283E+06    -7.32834E+06    -10.5215E-03     21.0105E-03    -10.4890E-03     8.29779E-03    -10.5354E-03     20.9607E-03    -10.4868E-03     8.20257E-03
            1283     3.56274E-03     108.190E-03    -9.18456E+06    -13.6147E+06    -4.79320E+06    -9.64706E+06    -10.5549E-03     21.0618E-03    -10.5069E-03     11.1628E-03    -10.5743E-03     21.0142E-03    -10.4978E-03     11.0374E-03
            1284     4.45337E-03     108.203E-03    -10.0916E+06    -13.3535E+06    -3.28996E+06    -12.0002E+06    -10.5863E-03     21.1129E-03    -10.5265E-03     14.1886E-03    -10.6130E-03     21.0658E-03    -10.5090E-03     14.0326E-03
            1285     5.34400E-03     108.219E-03    -11.0481E+06    -13.0446E+06    -2.06715E+06    -14.3546E+06    -10.6085E-03     21.1517E-03    -10.5432E-03     17.4411E-03    -10.6423E-03     21.1060E-03    -10.5186E-03     17.2544E-03
            1286     6.23465E-03     108.238E-03    -11.8412E+06    -12.7800E+06    -640.951E+03    -16.5937E+06    -10.6226E-03     21.1800E-03    -10.5573E-03     20.9970E-03    -10.6631E-03     21.1348E-03    -10.5248E-03     20.7812E-03
            1287     7.12530E-03     108.261E-03    -12.9928E+06    -12.3583E+06     110.135E+03    -18.7738E+06    -10.6275E-03     21.1915E-03    -10.5640E-03     24.9770E-03    -10.6756E-03     21.1493E-03    -10.5267E-03     24.7328E-03
            1288     8.01598E-03     108.288E-03    -14.3986E+06    -11.0523E+06    -672.098E+03    -20.5414E+06    -10.6186E-03     21.1750E-03    -10.5564E-03     29.5723E-03    -10.6748E-03     21.1428E-03    -10.5228E-03     29.3050E-03
            1289     8.90680E-03     108.321E-03    -14.9749E+06    -7.48516E+06    -351.608E+03    -20.9172E+06    -10.6843E-03     21.2310E-03    -10.5466E-03     34.9134E-03    -10.7494E-03     21.2173E-03    -10.5158E-03     34.6411E-03
            1290     9.79758E-03     108.358E-03    -13.0168E+06    -5.56578E+06     3.51932E+06    -19.1242E+06    -11.0297E-03     21.5934E-03    -10.5637E-03     41.1094E-03    -11.0941E-03     21.5816E-03    -10.5192E-03     40.8596E-03
            1291     10.6879E-03     108.401E-03    -8.87833E+06    -1.95629E+06     11.0539E+06    -16.0397E+06    -11.7510E-03     22.3760E-03    -10.6250E-03     48.1741E-03    -11.8123E-03     22.3668E-03    -10.5540E-03     47.9628E-03
            1292     11.5775E-03     108.450E-03    -4.99062E+06    -826.142E+03     18.4272E+06    -13.1411E+06    -12.9069E-03     23.6480E-03    -10.7411E-03     55.9786E-03    -12.9641E-03     23.6311E-03    -10.6406E-03     55.8021E-03
            1293     12.4660E-03     108.507E-03    -4.14524E+06    -1.28814E+06     22.6628E+06    -11.6521E+06    -14.5863E-03     25.5061E-03    -10.9198E-03     64.4635E-03    -14.6507E-03     25.4856E-03    -10.7986E-03     64.3014E-03
            1294     13.3533E-03     108.572E-03    -6.27772E+06    -7.37655E+06     22.3511E+06    -13.0770E+06    -17.0605E-03     28.2457E-03    -11.1851E-03     74.0183E-03    -17.1390E-03     28.2109E-03    -11.0536E-03     73.8289E-03
            1295     14.2377E-03     108.645E-03    -6.89970E+06    -362.459E+03     23.7159E+06    -13.7513E+06    -20.3174E-03     31.8787E-03    -11.5613E-03     84.4066E-03    -20.4366E-03     31.9035E-03    -11.4322E-03     84.1927E-03
            1296     15.1199E-03     108.728E-03    -5.65358E+06    -16.6378E+06     17.2198E+06    -18.4859E+06    -24.4873E-03     36.5631E-03    -12.0758E-03     94.9896E-03    -24.6221E-03     36.5691E-03    -11.9574E-03     94.6887E-03
            1297     15.9976E-03     108.820E-03    -4.03706E+06    -19.7316E+06    -1.56578E+06    -20.4757E+06    -30.1876E-03     42.8869E-03    -12.6993E-03     102.563E-03    -30.4047E-03     43.0247E-03    -12.6727E-03     102.195E-03
            1298     16.8705E-03     108.916E-03    -2.48488E+06     33.5592E+06     28.6992E+06    -7.89261E+06    -36.6907E-03     50.4405E-03    -13.7498E-03     69.9212E-03    -36.9887E-03     50.7666E-03    -13.6514E-03     69.7004E-03
            1299     890.239E-06     109.138E-03     4.18540E+06    -11.9077E+06     4.13913E+06    -2.25127E+06    -11.0495E-03     22.0903E-03    -11.0408E-03     2.57736E-03    -11.0173E-03     22.0187E-03    -11.0089E-03     2.54800E-03
            1300     1.78048E-03     109.142E-03     3.73312E+06    -10.1504E+06     4.37939E+06    -4.10897E+06    -11.0717E-03     22.1207E-03    -11.0490E-03     4.78099E-03    -11.0447E-03     22.0582E-03    -11.0178E-03     4.72739E-03
            1301     2.67068E-03     109.149E-03      3.2156E+06    -9.44519E+06     5.56460E+06    -6.01832E+06    -11.1078E-03     22.1754E-03    -11.0677E-03     7.13558E-03    -11.0862E-03     22.1156E-03    -11.0308E-03     7.05706E-03
            1302     3.56085E-03     109.159E-03     2.69389E+06    -8.92297E+06     6.89286E+06    -7.68455E+06    -11.1457E-03     22.2355E-03    -11.0898E-03     9.58610E-03    -11.1295E-03     22.1771E-03    -11.0463E-03     9.48577E-03
            1303     4.45101E-03     109.172E-03     2.12317E+06    -8.42283E+06     8.28773E+06    -9.48555E+06    -11.1788E-03     22.2913E-03    -11.1125E-03     12.1744E-03    -11.1684E-03     22.2344E-03    -11.0619E-03     12.0505E-03
            1304     5.34114E-03     109.188E-03     1.22436E+06    -8.20089E+06     9.97596E+06    -11.4160E+06    -11.2006E-03     22.3364E-03    -11.1358E-03     14.9524E-03    -11.1976E-03     22.2796E-03    -11.0758E-03     14.8032E-03
            1305     6.23126E-03     109.207E-03    -258.252E+03    -8.11485E+06     11.2828E+06    -13.2042E+06    -11.1986E-03     22.3529E-03    -11.1543E-03     18.0037E-03    -11.2052E-03     22.2970E-03    -11.0857E-03     17.8312E-03
            1306     7.12145E-03     109.230E-03    -1.99375E+06    -7.73992E+06     12.3082E+06    -14.8467E+06    -11.1654E-03     22.3302E-03    -11.1648E-03     21.4449E-03    -11.1830E-03     22.2775E-03    -11.0892E-03     21.2509E-03
            1307     8.01171E-03     109.257E-03    -3.98327E+06    -6.92196E+06     12.9790E+06    -16.4483E+06    -11.0876E-03     22.2514E-03    -11.1638E-03     25.4278E-03    -11.1175E-03     22.2049E-03    -11.0831E-03     25.2129E-03
            1308     8.90211E-03     109.289E-03    -6.48440E+06    -5.33731E+06     12.6802E+06    -17.3367E+06    -10.9889E-03     22.1350E-03    -11.1461E-03     30.1957E-03    -11.0335E-03     22.1008E-03    -11.0655E-03     29.9691E-03
            1309     9.79267E-03     109.326E-03    -9.27562E+06    -5.02552E+06     11.7106E+06    -17.5829E+06    -10.9959E-03     22.1163E-03    -11.1203E-03     35.9803E-03    -11.0540E-03     22.0895E-03    -11.0410E-03     35.7504E-03
            1310     10.6834E-03     109.369E-03    -10.7626E+06    -3.40791E+06     12.8936E+06    -16.4493E+06    -11.3098E-03     22.4199E-03    -11.1100E-03     42.9038E-03    -11.3801E-03     22.4025E-03    -11.0250E-03     42.6879E-03
            1311     11.5735E-03     109.420E-03    -9.87004E+06    -2.21768E+06     17.7466E+06    -14.0398E+06    -12.1411E-03     23.2902E-03    -11.1491E-03     50.9947E-03    -12.2175E-03     23.2722E-03    -11.0428E-03     50.8084E-03
            1312     12.4628E-03     109.478E-03    -6.52231E+06    -2.22630E+06     24.4945E+06    -11.2591E+06    -13.7024E-03     24.9638E-03    -11.2614E-03     60.2535E-03    -13.7760E-03     24.9353E-03    -11.1262E-03     60.0996E-03
            1313     13.3504E-03     109.545E-03    -3.58439E+06    -4.55594E+06     29.5173E+06    -9.76852E+06    -16.1623E-03     27.6319E-03    -11.4695E-03     70.9996E-03    -16.2346E-03     27.5897E-03    -11.3101E-03     70.8575E-03
            1314     14.2359E-03     109.622E-03    -4.11872E+06     741.827E+03     31.0913E+06    -10.7260E+06    -19.1509E-03     30.9268E-03    -11.7759E-03     82.4149E-03    -19.2555E-03     30.9294E-03    -11.6155E-03     82.2474E-03
            1315     15.1189E-03     109.708E-03    -6.57505E+06    -4.01455E+06     29.6821E+06    -15.9073E+06    -22.6853E-03     34.8967E-03    -12.2114E-03     94.7279E-03    -22.8371E-03     34.9251E-03    -12.0476E-03     94.4719E-03
            1316     15.9991E-03     109.806E-03    -9.44311E+06    -22.1193E+06     9.42480E+06    -19.8506E+06    -28.3348E-03     41.0796E-03    -12.7447E-03     107.327E-03    -28.5605E-03     41.1663E-03    -12.6518E-03     106.978E-03
            1317     16.8716E-03     109.912E-03    -8.21412E+06     14.3422E+06     26.1826E+06    -10.9850E+06    -36.7782E-03     50.4672E-03    -13.6889E-03     81.4735E-03    -37.0731E-03     50.7092E-03    -13.5669E-03     81.2039E-03
            1318     889.401E-06     110.108E-03     12.2514E+06    -7.64623E+06     12.6018E+06    -1.92740E+06    -12.0622E-03     24.1091E-03    -12.0469E-03     2.08248E-03    -12.0082E-03     24.0348E-03    -11.9905E-03     2.05723E-03
            1319     1.77876E-03     110.112E-03     12.0566E+06    -6.12450E+06      12.934E+06    -3.30961E+06    -12.0944E-03     24.1586E-03    -12.0641E-03     3.84717E-03    -12.0441E-03     24.0917E-03    -12.0081E-03     3.80376E-03
            1320     2.66809E-03     110.119E-03     11.6906E+06    -5.63077E+06     13.9410E+06    -4.61297E+06    -12.1396E-03     24.2281E-03    -12.0885E-03     5.72172E-03    -12.0933E-03     24.1628E-03    -12.0276E-03     5.66114E-03
            1321     3.55738E-03     110.129E-03     11.2540E+06    -5.20090E+06     15.2566E+06    -5.97896E+06    -12.1914E-03     24.3092E-03    -12.1178E-03     7.67601E-03    -12.1499E-03     24.2449E-03    -12.0503E-03     7.59744E-03
            1322     4.44661E-03     110.142E-03     10.6466E+06    -4.72403E+06     16.8723E+06    -7.21955E+06    -12.2426E-03     24.3934E-03    -12.1509E-03     9.73692E-03    -12.2073E-03     24.3301E-03    -12.0751E-03     9.64195E-03
            1323     5.33579E-03     110.158E-03     9.53968E+06    -4.57867E+06     18.4113E+06    -8.28174E+06    -12.2825E-03     24.4674E-03    -12.1849E-03     11.9500E-03    -12.2554E-03     24.4043E-03    -12.1000E-03     11.8409E-03
            1324     6.22497E-03     110.177E-03     8.08189E+06    -4.48882E+06     19.8880E+06    -9.41479E+06    -12.3039E-03     24.5210E-03    -12.2171E-03     14.3840E-03    -12.2865E-03     24.4586E-03    -12.1229E-03     14.2599E-03
            1325     7.11413E-03     110.200E-03     6.29550E+06    -4.23795E+06     21.3825E+06    -10.6034E+06    -12.2903E-03     24.5354E-03    -12.2451E-03     17.1123E-03    -12.2847E-03     24.4749E-03    -12.1412E-03     16.9725E-03
            1326     8.00338E-03     110.227E-03     4.02181E+06    -3.71084E+06     22.6581E+06    -11.4529E+06    -12.2323E-03     24.4968E-03    -12.2645E-03     20.2627E-03    -12.2409E-03     24.4406E-03    -12.1517E-03     20.1116E-03
            1327     8.89269E-03     110.259E-03     1.44497E+06    -3.10712E+06     23.5787E+06    -11.9152E+06    -12.1124E-03     24.3837E-03    -12.2713E-03     24.0776E-03    -12.1364E-03     24.3332E-03    -12.1510E-03     23.9203E-03
            1328     9.78229E-03     110.295E-03    -954.851E+03    -2.92018E+06     24.1419E+06    -12.2261E+06    -11.9423E-03     24.2044E-03    -12.2621E-03     28.8007E-03    -11.9798E-03     24.1579E-03    -12.1357E-03     28.6392E-03
            1329     10.6721E-03     110.339E-03    -3.29408E+06    -3.18542E+06     24.0293E+06    -12.3260E+06    -11.8200E-03     24.0567E-03    -12.2367E-03     34.6678E-03    -11.8691E-03     24.0129E-03    -12.1072E-03     34.5048E-03
            1330     11.5622E-03     110.389E-03    -4.94001E+06    -2.68215E+06     25.4655E+06    -11.8085E+06    -11.9885E-03     24.2048E-03    -12.2163E-03     41.9858E-03    -12.0494E-03     24.1646E-03    -12.0779E-03     41.8289E-03
            1331     12.4521E-03     110.449E-03    -4.97684E+06    -2.92399E+06     29.3580E+06    -11.4025E+06    -12.8584E-03     25.0944E-03    -12.2360E-03     51.3012E-03    -12.9268E-03     25.0496E-03    -12.0778E-03     51.1479E-03
            1332     13.3407E-03     110.517E-03    -1.92624E+06    -4.73101E+06     33.8433E+06    -10.4903E+06    -14.6643E-03     26.9902E-03    -12.3260E-03     62.9467E-03    -14.7265E-03     26.9309E-03    -12.1471E-03     62.8008E-03
            1333     14.2272E-03     110.597E-03     1.84967E+06     791.909E+03     40.2102E+06    -7.74306E+06    -17.1527E-03     29.6658E-03    -12.5131E-03     75.3354E-03    -17.2257E-03     29.6317E-03    -12.3158E-03     75.2158E-03
            1334     15.1119E-03     110.686E-03     256.728E+03     5.01025E+06     42.5909E+06    -8.32118E+06    -19.8321E-03     32.6240E-03    -12.7919E-03     88.7049E-03    -19.9524E-03     32.6397E-03    -12.5866E-03     88.5618E-03
            1335     15.9948E-03     110.787E-03    -4.72689E+06    -16.2918E+06     24.3682E+06    -13.7890E+06    -24.2173E-03     37.3514E-03    -13.1341E-03     106.016E-03    -24.3941E-03     37.3833E-03    -12.9818E-03     105.770E-03
            1336     16.8744E-03     110.904E-03    -6.13419E+06     1.83120E+06     22.4513E+06    -13.4360E+06    -33.3318E-03     47.1256E-03    -13.7938E-03     91.8614E-03    -33.5704E-03     47.2854E-03    -13.6753E-03     91.5734E-03
            1337     888.058E-06     111.080E-03     16.6392E+06    -4.16557E+06     17.0285E+06    -1.44980E+06    -13.6398E-03     27.2088E-03    -13.5690E-03     1.52137E-03    -13.5754E-03     27.1390E-03    -13.5019E-03     1.50226E-03
            1338     1.77608E-03     111.084E-03     16.2613E+06    -3.12861E+06     17.4647E+06    -2.40044E+06    -13.6727E-03     27.2960E-03    -13.6233E-03     2.67036E-03    -13.6124E-03     27.2314E-03    -13.5550E-03     2.63862E-03
            1339     2.66404E-03     111.092E-03     15.8968E+06    -2.73700E+06     18.3134E+06    -3.35100E+06    -13.7235E-03     27.3820E-03    -13.6585E-03     3.93749E-03    -13.6668E-03     27.3186E-03    -13.5860E-03     3.89310E-03
            1340     3.55195E-03     111.102E-03     15.3660E+06    -2.46490E+06     19.7003E+06    -4.18305E+06    -13.7891E-03     27.4876E-03    -13.6984E-03     5.28476E-03    -13.7376E-03     27.4244E-03    -13.6186E-03     5.22924E-03
            1341     4.43976E-03     111.115E-03     14.4719E+06    -2.28818E+06     21.2220E+06    -4.79027E+06    -13.8704E-03     27.6149E-03    -13.7444E-03     6.71924E-03    -13.8259E-03     27.5517E-03    -13.6560E-03     6.65547E-03
            1342     5.32750E-03     111.131E-03     13.6149E+06    -2.17790E+06     23.2170E+06    -5.36988E+06    -13.9674E-03     27.7659E-03    -13.7985E-03     8.25851E-03    -13.9304E-03     27.7018E-03    -13.6990E-03     8.18682E-03
            1343     6.21513E-03     111.150E-03     12.7147E+06    -2.04474E+06     25.7607E+06    -5.96526E+06    -14.0696E-03     27.9302E-03    -13.8607E-03     9.93381E-03    -14.0411E-03     27.8645E-03    -13.7473E-03     9.85398E-03
            1344     7.10270E-03     111.173E-03     11.4771E+06    -1.91673E+06     28.1836E+06    -6.44238E+06    -14.1670E-03     28.0938E-03    -13.9267E-03     11.7991E-03    -14.1486E-03     28.0271E-03    -13.7997E-03     11.7126E-03
            1345     7.99012E-03     111.200E-03     10.2153E+06    -1.73006E+06     30.5826E+06    -6.89090E+06    -14.2532E-03     28.2482E-03    -13.9950E-03     13.9462E-03    -14.2450E-03     28.1810E-03    -13.8544E-03     13.8534E-03
            1346     8.87757E-03     111.231E-03     9.09693E+06    -1.50217E+06     32.9633E+06    -7.12910E+06    -14.3019E-03     28.3646E-03    -14.0627E-03     16.5013E-03    -14.3035E-03     28.2970E-03    -13.9089E-03     16.4050E-03
            1347     9.76491E-03     111.268E-03     7.65871E+06    -1.42867E+06     34.6008E+06     -7.1833E+06    -14.2322E-03     28.3530E-03    -14.1208E-03     19.6647E-03    -14.2438E-03     28.2857E-03    -13.9568E-03     19.5673E-03
            1348     10.6525E-03     111.310E-03     6.23895E+06    -1.83177E+06     36.0301E+06    -7.33558E+06    -13.9876E-03     28.1491E-03    -14.1615E-03     23.6707E-03    -14.0082E-03     28.0801E-03    -13.9878E-03     23.5710E-03
            1349     11.5404E-03     111.360E-03     5.30236E+06    -1.80688E+06     37.7898E+06    -7.74009E+06    -13.6685E-03     27.8478E-03    -14.1793E-03     28.9387E-03    -13.6968E-03     27.7782E-03    -13.9954E-03     28.8335E-03
            1350     12.4289E-03     111.419E-03     4.32127E+06    -2.13008E+06     39.0643E+06    -7.71374E+06    -13.5787E-03     27.7587E-03    -14.1799E-03     36.1670E-03    -13.6142E-03     27.6879E-03    -13.9878E-03     36.0615E-03
            1351     13.3178E-03     111.489E-03     2.63877E+06    -3.20816E+06     40.0300E+06    -8.81450E+06    -13.8754E-03     28.0601E-03    -14.1847E-03     45.7659E-03    -13.9210E-03     27.9870E-03    -13.9837E-03     45.6447E-03
            1352     14.2064E-03     111.570E-03     3.88919E+06    -1.98082E+06     43.5531E+06    -8.58201E+06    -14.2689E-03     28.4731E-03    -14.2042E-03     57.2892E-03    -14.3196E-03     28.4045E-03    -13.9892E-03     57.1676E-03
            1353     15.0933E-03     111.662E-03     7.80002E+06     5.27616E+06     48.1127E+06    -4.07855E+06    -15.8863E-03     30.1356E-03    -14.2493E-03     71.7605E-03    -15.9489E-03     30.1056E-03    -14.0277E-03     71.6881E-03
            1354     15.9796E-03     111.763E-03     7.99105E+06    -5.70621E+06     39.7739E+06    -5.75901E+06    -18.9491E-03     33.2965E-03    -14.3474E-03     90.4239E-03    -19.0281E-03     33.2689E-03    -14.1519E-03     90.3126E-03
            1355     16.8623E-03     111.887E-03     4.01877E+06    -2.23881E+06     21.2790E+06    -10.2198E+06    -21.9007E-03     36.3976E-03    -14.4969E-03     88.7243E-03    -22.0056E-03     36.4490E-03    -14.3931E-03     88.5320E-03
            1356     886.163E-06     112.056E-03     20.1586E+06    -1.66023E+06     19.9682E+06    -986.441E+03    -15.8735E-03     31.8040E-03    -15.9305E-03     569.367E-06    -15.7995E-03     31.7372E-03    -15.8575E-03     556.333E-06
            1357     1.77215E-03     112.061E-03     19.3735E+06    -1.15018E+06     20.5279E+06    -1.40663E+06    -15.9463E-03     31.8657E-03    -15.9195E-03     1.03846E-03    -15.8778E-03     31.8018E-03    -15.8433E-03     1.01970E-03
            1358     2.65813E-03     112.068E-03     18.8058E+06    -826.283E+03     21.6437E+06    -1.82720E+06    -16.0105E-03     31.9656E-03    -15.9552E-03     1.57722E-03    -15.9470E-03     31.9026E-03    -15.8730E-03     1.55274E-03
            1359     3.54401E-03     112.078E-03     18.0447E+06    -911.155E+03     22.9549E+06    -2.09716E+06    -16.1104E-03     32.1148E-03    -16.0044E-03     2.15812E-03    -16.0525E-03     32.0505E-03    -15.9145E-03     2.12984E-03
            1360     4.42980E-03     112.091E-03     17.4109E+06    -821.462E+03     25.1646E+06    -2.35051E+06    -16.2582E-03     32.3306E-03    -16.0724E-03     2.77453E-03    -16.2069E-03     32.2646E-03    -15.9706E-03     2.74265E-03
            1361     5.31540E-03     112.107E-03     16.7668E+06    -667.373E+03     28.0853E+06    -2.64649E+06    -16.4587E-03     32.6199E-03    -16.1612E-03     3.43169E-03    -16.4151E-03     32.5513E-03    -16.0442E-03     3.39562E-03
            1362     6.20078E-03     112.127E-03     16.1498E+06    -748.076E+03     31.1751E+06    -2.81952E+06    -16.7105E-03     32.9806E-03    -16.2702E-03     4.13470E-03    -16.6744E-03     32.9081E-03    -16.1366E-03     4.09599E-03
            1363     7.08586E-03     112.150E-03     15.7535E+06    -640.269E+03     34.7402E+06    -2.97200E+06    -17.0207E-03     33.4219E-03    -16.4011E-03     4.90880E-03    -16.9921E-03     33.3453E-03    -16.2494E-03     4.86766E-03
            1364     7.97066E-03     112.177E-03     15.2989E+06    -530.138E+03     38.1383E+06    -3.11139E+06    -17.3945E-03     33.9481E-03    -16.5536E-03     5.78901E-03    -17.3734E-03     33.8678E-03    -16.3843E-03     5.74554E-03
            1365     8.85495E-03     112.208E-03     14.6022E+06    -566.003E+03     40.6743E+06    -3.18020E+06    -17.7764E-03     34.5002E-03    -16.7238E-03     6.82205E-03    -17.7626E-03     34.4170E-03    -16.5407E-03     6.77708E-03
            1366     9.73892E-03     112.245E-03     14.1498E+06    -656.933E+03     43.2836E+06    -3.06977E+06    -18.0544E-03     34.9625E-03    -16.9081E-03     8.08689E-03    -18.0468E-03     34.8759E-03    -16.7113E-03     8.04272E-03
            1367     10.6226E-03     112.287E-03     13.7319E+06    -661.991E+03     45.6885E+06    -3.19602E+06    -18.1317E-03     35.2239E-03    -17.0923E-03     9.74979E-03    -18.1300E-03     35.1344E-03    -16.8828E-03     9.70338E-03
            1368     11.5063E-03     112.336E-03     12.7219E+06    -726.843E+03     46.9099E+06    -3.39950E+06    -18.0279E-03     35.2894E-03    -17.2614E-03     12.0872E-03    -18.0335E-03     35.1993E-03    -17.0443E-03     12.0376E-03
            1369     12.3902E-03     112.394E-03     11.7161E+06    -1.53601E+06     48.0638E+06    -3.49288E+06    -17.6124E-03     35.0225E-03    -17.4102E-03     15.4663E-03    -17.6240E-03     34.9284E-03    -17.1846E-03     15.4149E-03
            1370     13.2741E-03     112.462E-03     11.0438E+06    -1.00632E+06     49.0420E+06    -3.65783E+06    -16.0436E-03     33.5357E-03    -17.4921E-03     20.2999E-03    -16.0611E-03     33.4445E-03    -17.2614E-03     20.2464E-03
            1371     14.1597E-03     112.542E-03     8.40704E+06    -95.7699E+03     47.8715E+06    -5.21339E+06    -13.7717E-03     31.2247E-03    -17.4530E-03     27.2310E-03    -13.8028E-03     31.1443E-03    -17.2257E-03     27.1577E-03
            1372     15.0510E-03     112.630E-03     7.15024E+06    -814.886E+03     44.9284E+06    -3.72524E+06    -13.9460E-03     31.3028E-03    -17.3568E-03     38.7930E-03    -13.9818E-03     31.2286E-03    -17.1414E-03     38.7363E-03
            1373     15.9372E-03     112.740E-03     8.93892E+06    -1.87574E+06     40.8504E+06    -2.06004E+06    -12.9310E-03     30.1671E-03    -17.2360E-03     51.0043E-03    -12.9603E-03     30.1033E-03    -17.0420E-03     50.9644E-03
            1374     16.8262E-03     112.856E-03     5.34772E+06     1.17368E+06     27.0559E+06    -3.86591E+06    -5.54333E-03     22.3906E-03    -16.8472E-03     48.0229E-03    -5.57903E-03     22.3722E-03    -16.7214E-03     47.9621E-03
            1375     16.8377E-03     55.9987E-03    -2.96841E+06     108.449E+06     50.1868E+06     237.674E+03    -15.0629E-03     30.4964E-03    -15.4335E-03     32.9193E-03    -15.4116E-03     31.0740E-03    -15.3355E-03     32.9480E-03
            1376     15.9539E-03     55.9457E-03    -4.32077E+06     82.0218E+06     14.4843E+06    -464.326E+03    -15.6889E-03     31.0005E-03    -15.3115E-03     59.6415E-03    -16.0107E-03     31.5560E-03    -15.3518E-03     59.6423E-03
            1377     15.0664E-03     55.8872E-03    -5.51114E+06     25.5988E+06    -2.06885E+06    -316.943E+03    -15.9242E-03     31.2496E-03    -15.3255E-03     59.8213E-03    -16.0895E-03     31.4923E-03    -15.3649E-03     59.7891E-03
            1378     14.1805E-03     55.8345E-03    -5.92631E+06    -8.65365E+06    -205.808E+03    -18.3576E+03    -15.9001E-03     31.2959E-03    -15.3958E-03     54.0986E-03    -15.9759E-03     31.3206E-03    -15.3757E-03     54.0646E-03
            1379     13.2937E-03     55.7866E-03    -6.78969E+06    -20.6932E+06     4.36747E+06     125.413E+03    -15.8805E-03     31.3261E-03    -15.4456E-03     49.9893E-03    -15.9267E-03     31.2621E-03    -15.3839E-03     49.9608E-03
            1380     12.4077E-03     55.7420E-03    -7.37078E+06    -33.0503E+06     4.60467E+06     374.790E+03    -15.8310E-03     31.3034E-03    -15.4724E-03     46.3854E-03    -15.8499E-03     31.1655E-03    -15.3908E-03     46.3651E-03
            1381     11.5212E-03     55.7005E-03    -8.15449E+06    -45.7649E+06     4.48259E+06     293.764E+03    -15.7804E-03     31.2791E-03    -15.4987E-03     43.1053E-03    -15.7771E-03     31.0713E-03    -15.3981E-03     43.0884E-03
            1382     10.6349E-03     55.6620E-03    -9.33242E+06    -50.1228E+06     6.83415E+06     213.733E+03    -15.7156E-03     31.2423E-03    -15.5267E-03     39.8591E-03    -15.7102E-03     31.0061E-03    -15.4064E-03     39.8453E-03
            1383     9.74854E-03     55.6265E-03    -10.8477E+06    -53.0741E+06     6.82574E+06     103.512E+03    -15.6613E-03     31.2035E-03    -15.5423E-03     36.4433E-03    -15.6558E-03     30.9514E-03    -15.4154E-03     36.4314E-03
            1384     8.86224E-03     55.5943E-03    -12.6060E+06    -57.7011E+06     6.38032E+06     159.141E+03    -15.6233E-03     31.1817E-03    -15.5584E-03     32.9870E-03    -15.6169E-03     30.9073E-03    -15.4246E-03     32.9785E-03
            1385     7.97596E-03     55.5652E-03    -14.5894E+06    -61.0366E+06     5.14762E+06     178.330E+03    -15.5768E-03     31.1461E-03    -15.5693E-03     29.5375E-03    -15.5722E-03     30.8581E-03    -15.4339E-03     29.5314E-03
            1386     7.08964E-03     55.5394E-03    -17.0557E+06    -64.2474E+06     2.28769E+06     59.1003E+03    -15.5379E-03     31.1112E-03    -15.5733E-03     26.1117E-03    -15.5357E-03     30.8138E-03    -15.4440E-03     26.1058E-03
            1387     6.20339E-03     55.5167E-03    -19.5280E+06    -68.7035E+06    -1.60601E+06     10.8442E+03    -15.5152E-03     31.0899E-03    -15.5746E-03     22.7140E-03    -15.5125E-03     30.7786E-03    -15.4547E-03     22.7089E-03
            1388     5.31711E-03     55.4972E-03    -22.1921E+06    -73.6800E+06    -6.54794E+06    -79.9249E+03    -15.5029E-03     31.0747E-03    -15.5718E-03     19.3643E-03    -15.4986E-03     30.7490E-03    -15.4655E-03     19.3592E-03
            1389     4.43091E-03     55.4807E-03    -24.8594E+06    -78.7081E+06    -12.1023E+06    -1.41755E+03    -15.4998E-03     31.0654E-03    -15.5655E-03     16.0644E-03    -15.4931E-03     30.7261E-03    -15.4759E-03     16.0613E-03
            1390     3.54466E-03     55.4673E-03    -27.2776E+06    -83.7415E+06    -17.9519E+06     13.0459E+03    -15.5027E-03     31.0593E-03    -15.5566E-03     12.8144E-03    -15.4920E-03     30.7066E-03    -15.4854E-03     12.8122E-03
            1391     2.65850E-03     55.4569E-03    -29.4141E+06    -88.8590E+06    -23.5139E+06    -4.66494E+03    -15.5113E-03     31.0590E-03    -15.5477E-03     9.61376E-03    -15.4956E-03     30.6916E-03    -15.4938E-03     9.61204E-03
            1392     1.77229E-03     55.4495E-03    -31.0521E+06    -93.2599E+06    -28.1835E+06         936.756    -15.5216E-03     31.0612E-03    -15.5395E-03     6.47319E-03    -15.5009E-03     30.6809E-03    -15.5002E-03     6.47213E-03
            1393     886.170E-06     55.4449E-03    -32.1637E+06    -96.2445E+06    -31.3589E+06     8.94125E+03    -15.5291E-03     31.0630E-03    -15.5339E-03     3.50824E-03    -15.5050E-03     30.6740E-03    -15.5045E-03     3.50778E-03
            1394     16.8422E-03     55.0205E-03    -2.84612E+06     108.593E+06     51.1302E+06    -609.553E+03    -15.0619E-03     30.4856E-03    -15.4237E-03     32.9092E-03    -15.4111E-03     31.0619E-03    -15.3214E-03     32.9274E-03
            1395     15.9529E-03     54.9686E-03    -3.61886E+06     81.4552E+06     15.1407E+06     200.480E+03    -15.4964E-03     30.8022E-03    -15.3058E-03     60.0293E-03    -15.8142E-03     31.3524E-03    -15.3429E-03     60.0398E-03
            1396     15.0671E-03     54.9092E-03    -4.91100E+06     25.2303E+06    -2.07097E+06     626.292E+03    -15.8431E-03     31.1677E-03    -15.3246E-03     60.1164E-03    -16.0048E-03     31.4075E-03    -15.3644E-03     60.0967E-03
            1397     14.1801E-03     54.8572E-03    -6.14789E+06    -8.22464E+06    -100.575E+03     281.135E+03    -15.8963E-03     31.2948E-03    -15.3985E-03     54.2941E-03    -15.9742E-03     31.3220E-03    -15.3782E-03     54.2640E-03
            1398     13.2940E-03     54.8087E-03    -6.70341E+06    -21.1718E+06     4.22992E+06     63.0345E+03    -15.8874E-03     31.3356E-03    -15.4483E-03     49.9973E-03    -15.9321E-03     31.2692E-03    -15.3867E-03     49.9681E-03
            1399     12.4074E-03     54.7642E-03    -7.62516E+06    -33.4730E+06     4.40649E+06     161.013E+03    -15.8507E-03     31.3251E-03    -15.4744E-03     46.3627E-03    -15.8701E-03     31.1858E-03    -15.3928E-03     46.3395E-03
            1400     11.5213E-03     54.7228E-03    -8.44166E+06    -45.5519E+06     4.36959E+06     282.795E+03    -15.7995E-03     31.2983E-03    -15.4988E-03     43.1389E-03    -15.7977E-03     31.0922E-03    -15.3986E-03     43.1219E-03
            1401     10.6349E-03     54.6842E-03    -9.47754E+06    -50.3567E+06     6.75773E+06     173.228E+03    -15.7273E-03     31.2535E-03    -15.5262E-03     39.8806E-03    -15.7222E-03     31.0164E-03    -15.4057E-03     39.8663E-03
            1402     9.74858E-03     54.6488E-03    -10.9403E+06    -52.9505E+06     6.88431E+06     204.279E+03    -15.6690E-03     31.2098E-03    -15.5409E-03     36.4472E-03    -15.6642E-03     30.9583E-03    -15.4138E-03     36.4365E-03
            1403     8.86226E-03     54.6165E-03    -12.7114E+06    -57.8909E+06     6.21909E+06     79.7729E+03    -15.6223E-03     31.1782E-03    -15.5559E-03     32.9914E-03    -15.6160E-03     30.9032E-03    -15.4224E-03     32.9819E-03
            1404     7.97596E-03     54.5875E-03    -14.7147E+06    -61.1864E+06     5.08963E+06     160.396E+03    -15.5766E-03     31.1437E-03    -15.5670E-03     29.5399E-03    -15.5723E-03     30.8552E-03    -15.4315E-03     29.5336E-03
            1405     7.08968E-03     54.5616E-03    -16.9270E+06    -64.1689E+06     2.35218E+06     159.152E+03    -15.5385E-03     31.1092E-03    -15.5707E-03     26.1146E-03    -15.5359E-03     30.8119E-03    -15.4414E-03     26.1100E-03
            1406     6.20339E-03     54.5390E-03    -19.5003E+06    -68.7804E+06    -1.55709E+06     11.4165E+03    -15.5167E-03     31.0886E-03    -15.5718E-03     22.7135E-03    -15.5138E-03     30.7768E-03    -15.4516E-03     22.7085E-03
            1407     5.31716E-03     54.5194E-03    -22.1199E+06    -73.7666E+06    -6.40926E+06     56.9931E+03    -15.5045E-03     31.0731E-03    -15.5686E-03     19.3614E-03    -15.4999E-03     30.7467E-03    -15.4616E-03     19.3581E-03
            1408     4.43090E-03     54.5030E-03    -24.7512E+06    -78.8910E+06    -11.9979E+06     27.4402E+03    -15.4981E-03     31.0598E-03    -15.5616E-03     16.0620E-03    -15.4907E-03     30.7193E-03    -15.4714E-03     16.0592E-03
            1409     3.54471E-03     54.4895E-03    -27.2121E+06    -83.7833E+06    -17.8783E+06     18.1182E+03    -15.4988E-03     31.0510E-03    -15.5522E-03     12.8138E-03    -15.4879E-03     30.6978E-03    -15.4806E-03     12.8117E-03
            1410     2.65848E-03     54.4791E-03    -29.3361E+06    -88.9804E+06    -23.4893E+06    -14.4493E+03    -15.5075E-03     31.0504E-03    -15.5428E-03     9.61397E-03    -15.4913E-03     30.6823E-03    -15.4887E-03     9.61212E-03
            1411     1.77234E-03     54.4716E-03    -31.0286E+06    -93.3575E+06    -28.1698E+06    -26.3477E+03    -15.5167E-03     31.0513E-03    -15.5346E-03     6.47113E-03    -15.4957E-03     30.6704E-03    -15.4950E-03     6.46971E-03
            1412     886.138E-06     54.4671E-03    -32.0919E+06    -96.3900E+06    -31.3237E+06    -23.4084E+03    -15.5234E-03     31.0535E-03    -15.5301E-03     3.50861E-03    -15.4987E-03     30.6636E-03    -15.5005E-03     3.50774E-03
            1413     16.8382E-03     54.0438E-03    -3.15773E+06     107.839E+06     49.7433E+06    -471.011E+03    -14.8250E-03     30.2593E-03    -15.4343E-03     33.6703E-03    -15.1740E-03     30.8357E-03    -15.3374E-03     33.6906E-03
            1414     15.9536E-03     53.9905E-03    -6.88260E+06     80.1862E+06     12.4555E+06     303.643E+03    -15.6732E-03     30.9911E-03    -15.3179E-03     60.6707E-03    -16.0030E-03     31.5450E-03    -15.3619E-03     60.6815E-03
            1415     15.0662E-03     53.9320E-03    -6.96533E+06     25.8633E+06    -2.68351E+06     447.087E+03    -16.0123E-03     31.3457E-03    -15.3334E-03     60.1744E-03    -16.1846E-03     31.5929E-03    -15.3742E-03     60.1518E-03
            1416     14.1802E-03     53.8790E-03    -6.35646E+06    -8.05895E+06    -197.824E+03     307.666E+03    -15.9599E-03     31.3609E-03    -15.4010E-03     54.2280E-03    -16.0389E-03     31.3894E-03    -15.3811E-03     54.1981E-03
            1417     13.2938E-03     53.8311E-03    -7.19382E+06    -21.4795E+06     3.88874E+06     49.7507E+03    -15.8808E-03     31.3296E-03    -15.4488E-03     49.9894E-03    -15.9271E-03     31.2628E-03    -15.3878E-03     49.9601E-03
            1418     12.4076E-03     53.7864E-03    -7.72962E+06    -33.8217E+06     4.09043E+06     6.56114E+03    -15.8484E-03     31.3233E-03    -15.4749E-03     46.3432E-03    -15.8673E-03     31.1829E-03    -15.3942E-03     46.3180E-03
            1419     11.5212E-03     53.7450E-03    -8.44180E+06    -45.5561E+06     4.44467E+06     148.355E+03    -15.8186E-03     31.3185E-03    -15.5000E-03     43.0836E-03    -15.8169E-03     31.1123E-03    -15.3995E-03     43.0648E-03
            1420     10.6349E-03     53.7065E-03     -9.6291E+06    -50.2727E+06     6.69920E+06     176.875E+03    -15.7473E-03     31.2725E-03    -15.5252E-03     39.8625E-03    -15.7431E-03     31.0362E-03    -15.4048E-03     39.8482E-03
            1421     9.74859E-03     53.6710E-03    -11.0530E+06    -53.0893E+06     6.81572E+06     123.558E+03    -15.6736E-03     31.2124E-03    -15.5388E-03     36.4468E-03    -15.6691E-03     30.9605E-03    -15.4117E-03     36.4351E-03
            1422     8.86229E-03     53.6388E-03    -12.7754E+06    -57.8479E+06     6.23372E+06     139.196E+03    -15.6211E-03     31.1746E-03    -15.5535E-03     33.0004E-03    -15.6152E-03     30.8999E-03    -15.4199E-03     32.9916E-03
            1423     7.97598E-03     53.6097E-03    -14.7915E+06    -61.4366E+06     4.94563E+06     21.6631E+03    -15.5789E-03     31.1429E-03    -15.5639E-03     29.5437E-03    -15.5745E-03     30.8534E-03    -15.4287E-03     29.5356E-03
            1424     7.08970E-03     53.5839E-03    -16.9925E+06    -64.1845E+06     2.37771E+06     91.9318E+03    -15.5417E-03     31.1091E-03    -15.5674E-03     26.1102E-03    -15.5394E-03     30.8118E-03    -15.4378E-03     26.1047E-03
            1425     6.20343E-03     53.5611E-03    -19.4561E+06    -68.8346E+06    -1.49008E+06     138.304E+03    -15.5174E-03     31.0852E-03    -15.5678E-03     22.7118E-03    -15.5143E-03     30.7730E-03    -15.4472E-03     22.7083E-03
            1426     5.31716E-03     53.5416E-03    -22.1439E+06    -73.9122E+06    -6.35200E+06     81.3089E+03    -15.5031E-03     31.0673E-03    -15.5642E-03     19.3575E-03    -15.4985E-03     30.7401E-03    -15.4566E-03     19.3545E-03
            1427     4.43095E-03     53.5251E-03    -24.7309E+06    -78.8912E+06    -11.9391E+06     72.4701E+03    -15.4946E-03     31.0510E-03    -15.5564E-03     16.0599E-03    -15.4872E-03     30.7104E-03    -15.4658E-03     16.0577E-03
            1428     3.54470E-03     53.5118E-03    -27.1846E+06    -83.9043E+06    -17.8847E+06     17.9506E+03    -15.4947E-03     31.0411E-03    -15.5464E-03     12.8134E-03    -15.4834E-03     30.6873E-03    -15.4747E-03     12.8113E-03
            1429     2.65853E-03     53.5013E-03    -29.3274E+06    -89.0226E+06    -23.5051E+06     13.5679E+03    -15.5021E-03     31.0387E-03    -15.5366E-03     9.61214E-03    -15.4858E-03     30.6704E-03    -15.4825E-03     9.61066E-03
            1430     1.77232E-03     53.4939E-03    -31.0171E+06    -93.4689E+06    -28.1706E+06    -21.7934E+03    -15.5111E-03     31.0393E-03    -15.5282E-03     6.46935E-03    -15.4899E-03     30.6579E-03    -15.4886E-03     6.46799E-03
            1431     886.180E-06     53.4893E-03    -32.0988E+06    -96.5365E+06    -31.3704E+06    -27.3315E+03    -15.5172E-03     31.0405E-03    -15.5233E-03     3.50771E-03    -15.4923E-03     30.6499E-03    -15.4936E-03     3.50678E-03
            1432     16.8400E-03     53.0653E-03    -3.65166E+06     107.466E+06     50.1613E+06     570.592E+03    -14.7917E-03     30.2403E-03    -15.4486E-03     33.0094E-03    -15.1424E-03     30.8141E-03    -15.3483E-03     33.0433E-03
            1433     15.9519E-03     53.0129E-03    -6.41399E+06     80.4963E+06     13.5292E+06     40.9279E+03    -15.7699E-03     31.1006E-03    -15.3307E-03     59.9213E-03    -16.0991E-03     31.6535E-03    -15.3705E-03     59.9285E-03
            1434     15.0668E-03     52.9536E-03    -6.83619E+06     25.9224E+06    -2.63058E+06    -492.792E+03    -16.1054E-03     31.4414E-03    -15.3359E-03     59.8094E-03    -16.2774E-03     31.6887E-03    -15.3768E-03     59.7742E-03
            1435     14.1803E-03     52.9017E-03    -6.96177E+06    -8.72805E+06    -631.085E+03    -107.218E+03    -15.9729E-03     31.3725E-03    -15.3996E-03     54.1283E-03    -16.0534E-03     31.3991E-03    -15.3801E-03     54.0930E-03
            1436     13.2939E-03     52.8532E-03    -6.86504E+06    -21.1768E+06     4.20438E+06     28.6942E+03    -15.8670E-03     31.3153E-03    -15.4483E-03     49.9746E-03    -15.9126E-03     31.2491E-03    -15.3866E-03     49.9450E-03
            1437     12.4075E-03     52.8087E-03    -7.73140E+06    -33.6811E+06     4.11732E+06    -94.9837E+03    -15.8544E-03     31.3282E-03    -15.4738E-03     46.3201E-03    -15.8735E-03     31.1884E-03    -15.3931E-03     46.2935E-03
            1438     11.5213E-03     52.7673E-03    -8.66559E+06    -46.1535E+06     4.16813E+06     44.1055E+03    -15.8273E-03     31.3253E-03    -15.4980E-03     43.0484E-03    -15.8256E-03     31.1169E-03    -15.3977E-03     43.0282E-03
            1439     10.6349E-03     52.7287E-03    -9.68234E+06    -50.1141E+06     6.74370E+06     154.975E+03    -15.7401E-03     31.2633E-03    -15.5232E-03     39.8348E-03    -15.7364E-03     31.0277E-03    -15.4028E-03     39.8202E-03
            1440     9.74862E-03     52.6933E-03    -11.1865E+06    -53.2466E+06     6.61924E+06     48.2201E+03    -15.6754E-03     31.2116E-03    -15.5362E-03     36.4572E-03    -15.6711E-03     30.9594E-03    -15.4097E-03     36.4445E-03
            1441     8.86230E-03     52.6610E-03    -12.8572E+06    -57.9899E+06     6.22317E+06     55.9980E+03    -15.6315E-03     31.1824E-03    -15.5509E-03     32.9973E-03    -15.6258E-03     30.9071E-03    -15.4170E-03     32.9874E-03
            1442     7.97602E-03     52.6319E-03    -14.8969E+06    -61.3285E+06     4.93279E+06     58.6904E+03    -15.5819E-03     31.1418E-03    -15.5599E-03     29.5384E-03    -15.5781E-03     30.8530E-03    -15.4247E-03     29.5308E-03
            1443     7.08973E-03     52.6060E-03    -17.2420E+06    -64.4679E+06     2.20697E+06    -33.7746E+03    -15.5424E-03     31.1049E-03    -15.5625E-03     26.1069E-03    -15.5407E-03     30.8067E-03    -15.4330E-03     26.0998E-03
            1444     6.20346E-03     52.5834E-03    -19.6207E+06    -68.9334E+06    -1.54614E+06     92.4609E+03    -15.5157E-03     31.0781E-03    -15.5624E-03     22.7076E-03    -15.5132E-03     30.7657E-03    -15.4417E-03     22.7035E-03
            1445     5.31721E-03     52.5638E-03    -22.1063E+06    -73.9963E+06    -6.36254E+06     111.678E+03    -15.4985E-03     31.0567E-03    -15.5582E-03     19.3543E-03    -15.4935E-03     30.7291E-03    -15.4507E-03     19.3516E-03
            1446     4.43095E-03     52.5474E-03    -24.7295E+06    -78.9474E+06    -11.9295E+06     80.2120E+03    -15.4910E-03     31.0413E-03    -15.5502E-03     16.0564E-03    -15.4836E-03     30.7003E-03    -15.4596E-03     16.0543E-03
            1447     3.54475E-03     52.5340E-03    -27.2344E+06    -83.9604E+06    -17.8948E+06     84.1108E+03    -15.4904E-03     31.0300E-03    -15.5396E-03     12.8097E-03    -15.4793E-03     30.6760E-03    -15.4678E-03     12.8085E-03
            1448     2.65852E-03     52.5236E-03    -29.4335E+06    -89.0669E+06    -23.5892E+06     25.4245E+03    -15.4949E-03     31.0240E-03    -15.5291E-03     9.60862E-03    -15.4789E-03     30.6558E-03    -15.4752E-03     9.60728E-03
            1449     1.77236E-03     52.5161E-03    -31.0999E+06    -93.5398E+06    -28.2839E+06    -24.7795E+03    -15.5031E-03     31.0237E-03    -15.5206E-03     6.46894E-03    -15.4821E-03     30.6422E-03    -15.4813E-03     6.46754E-03
            1450     886.155E-06     52.5115E-03    -32.1896E+06    -96.6818E+06    -31.3882E+06    -14.2170E+03    -15.5106E-03     31.0263E-03    -15.5157E-03     3.50742E-03    -15.4859E-03     30.6352E-03    -15.4858E-03     3.50667E-03
            1451     16.8396E-03     52.0888E-03    -3.19062E+06     107.950E+06     51.1554E+06     611.666E+03    -15.1141E-03     30.5520E-03    -15.4378E-03     33.1919E-03    -15.4657E-03     31.1271E-03    -15.3340E-03     33.2265E-03
            1452     15.9539E-03     52.0346E-03    -4.36734E+06     81.4449E+06     15.3196E+06    -71.8915E+03    -15.5855E-03     30.9025E-03    -15.3170E-03     60.0298E-03    -15.9089E-03     31.4551E-03    -15.3522E-03     60.0373E-03
            1453     15.0664E-03     51.9762E-03    -5.54521E+06     25.0890E+06    -2.25627E+06    -94.1855E+03    -15.9170E-03     31.2462E-03    -15.3292E-03     59.7599E-03    -16.0814E-03     31.4865E-03    -15.3688E-03     59.7306E-03
            1454     14.1801E-03     51.9236E-03    -6.19502E+06    -8.79875E+06    -155.319E+03    -139.452E+03    -15.9646E-03     31.3634E-03    -15.3988E-03     54.0764E-03    -16.0418E-03     31.3879E-03    -15.3779E-03     54.0407E-03
            1455     13.2940E-03     51.8757E-03    -6.69334E+06    -20.9534E+06     4.45542E+06    -116.037E+03    -15.9062E-03     31.3518E-03    -15.4456E-03     49.9689E-03    -15.9517E-03     31.2862E-03    -15.3832E-03     49.9373E-03
            1456     12.4075E-03     51.8308E-03    -7.40071E+06    -33.8819E+06     4.25988E+06     3.77459E+03    -15.8441E-03     31.3138E-03    -15.4697E-03     46.2627E-03    -15.8615E-03     31.1723E-03    -15.3886E-03     46.2375E-03
            1457     11.5213E-03     51.7894E-03    -8.42989E+06    -46.5516E+06     4.11449E+06    -41.9879E+03    -15.7963E-03     31.2911E-03    -15.4947E-03     43.0322E-03    -15.7928E-03     31.0804E-03    -15.3945E-03     43.0110E-03
            1458     10.6350E-03     51.7510E-03    -9.58986E+06    -50.2778E+06     6.79874E+06     113.173E+03    -15.7379E-03     31.2594E-03    -15.5215E-03     39.8413E-03    -15.7336E-03     31.0228E-03    -15.4007E-03     39.8262E-03
            1459     9.74861E-03     51.7155E-03    -11.0553E+06    -53.1236E+06     6.69367E+06     87.1953E+03    -15.6882E-03     31.2217E-03    -15.5335E-03     36.4567E-03    -15.6836E-03     30.9698E-03    -15.4069E-03     36.4445E-03
            1460     8.86236E-03     51.6832E-03    -12.8795E+06    -58.2258E+06     6.12106E+06     8.80656E+03    -15.6411E-03     31.1877E-03    -15.5466E-03     32.9797E-03    -15.6350E-03     30.9115E-03    -15.4129E-03     32.9692E-03
            1461     7.97605E-03     51.6541E-03    -14.9209E+06    -61.3391E+06     4.98555E+06     83.2184E+03    -15.5832E-03     31.1382E-03    -15.5550E-03     29.5284E-03    -15.5795E-03     30.8494E-03    -15.4195E-03     29.5211E-03
            1462     7.08977E-03     51.6283E-03    -17.2947E+06    -64.4933E+06     2.17044E+06     39.3014E+03    -15.5413E-03     31.0979E-03    -15.5566E-03     26.1040E-03    -15.5397E-03     30.7997E-03    -15.4271E-03     26.0978E-03
            1463     6.20351E-03     51.6056E-03    -19.8396E+06    -69.1759E+06    -1.73631E+06    -56.1397E+03    -15.5130E-03     31.0686E-03    -15.5557E-03     22.7006E-03    -15.5109E-03     30.7556E-03    -15.4353E-03     22.6947E-03
            1464     5.31723E-03     51.5861E-03    -22.3607E+06    -74.0663E+06    -6.57278E+06     35.0517E+03    -15.4935E-03     31.0441E-03    -15.5507E-03     19.3493E-03    -15.4894E-03     30.7168E-03    -15.4437E-03     19.3457E-03
            1465     4.43100E-03     51.5696E-03    -24.8717E+06    -79.0985E+06    -12.0467E+06     93.6063E+03    -15.4862E-03     31.0287E-03    -15.5425E-03     16.0500E-03    -15.4790E-03     30.6874E-03    -15.4520E-03     16.0480E-03
            1466     3.54476E-03     51.5562E-03    -27.3025E+06    -83.9676E+06    -17.8703E+06     93.4962E+03    -15.4837E-03     31.0154E-03    -15.5317E-03     12.8008E-03    -15.4729E-03     30.6614E-03    -15.4597E-03     12.7997E-03
            1467     2.65857E-03     51.5458E-03    -29.4148E+06    -89.0635E+06    -23.5395E+06     14.6279E+03    -15.4870E-03     31.0079E-03    -15.5209E-03     9.60394E-03    -15.4711E-03     30.6396E-03    -15.4668E-03     9.60247E-03
            1468     1.77235E-03     51.5383E-03    -31.0880E+06    -93.6528E+06    -28.2575E+06    -38.9604E+03    -15.4948E-03     31.0072E-03    -15.5124E-03     6.46594E-03    -15.4736E-03     30.6251E-03    -15.4728E-03     6.46436E-03
            1469     886.187E-06     51.5337E-03    -32.1768E+06    -96.7921E+06    -31.4522E+06     8.38830E+03    -15.5009E-03     31.0094E-03    -15.5085E-03     3.50647E-03    -15.4759E-03     30.6178E-03    -15.4787E-03     3.50601E-03
            1470     16.8402E-03     51.1095E-03    -3.29293E+06     107.671E+06     51.2160E+06    -186.065E+03    -15.0792E-03     30.5160E-03    -15.4369E-03     33.2907E-03    -15.4314E-03     31.0903E-03    -15.3321E-03     33.3146E-03
            1471     15.9529E-03     51.0581E-03    -4.62647E+06     80.9601E+06     15.0134E+06     341.829E+03    -15.6753E-03     30.9888E-03    -15.3135E-03     60.5127E-03    -15.9996E-03     31.5406E-03    -15.3492E-03     60.5248E-03
            1472     15.0668E-03     50.9979E-03    -5.13984E+06     25.1458E+06    -2.07828E+06     533.051E+03    -15.9686E-03     31.2914E-03    -15.3228E-03     59.9488E-03    -16.1312E-03     31.5311E-03    -15.3622E-03     59.9274E-03
            1473     14.1804E-03     50.9463E-03    -5.66458E+06    -8.13389E+06     302.258E+03     174.101E+03    -15.9339E-03     31.3258E-03    -15.3919E-03     53.9102E-03    -16.0097E-03     31.3518E-03    -15.3704E-03     53.8787E-03
            1474     13.2938E-03     50.8975E-03    -6.49219E+06    -21.4856E+06     4.17610E+06     11.8601E+03    -15.8711E-03     31.3100E-03    -15.4389E-03     49.9374E-03    -15.9143E-03     31.2417E-03    -15.3774E-03     49.9076E-03
            1475     12.4078E-03     50.8533E-03    -7.36061E+06    -34.3321E+06     4.19728E+06     16.0306E+03    -15.8252E-03     31.2910E-03    -15.4658E-03     46.2789E-03    -15.8416E-03     31.1473E-03    -15.3844E-03     46.2539E-03
            1476     11.5212E-03     50.8117E-03    -8.15284E+06    -46.3128E+06     4.32720E+06     94.9053E+03    -15.7858E-03     31.2775E-03    -15.4918E-03     43.0663E-03    -15.7814E-03     31.0673E-03    -15.3912E-03     43.0468E-03
            1477     10.6350E-03     50.7732E-03    -9.39011E+06    -50.6471E+06     6.81198E+06     28.7183E+03    -15.7524E-03     31.2705E-03    -15.5182E-03     39.8220E-03    -15.7465E-03     31.0318E-03    -15.3970E-03     39.8057E-03
            1478     9.74870E-03     50.7377E-03    -10.9305E+06    -53.0536E+06     6.88709E+06     148.082E+03    -15.6951E-03     31.2243E-03    -15.5292E-03     36.4216E-03    -15.6902E-03     30.9723E-03    -15.4020E-03     36.4102E-03
            1479     8.86238E-03     50.7054E-03    -12.6913E+06    -58.3028E+06     6.17845E+06     54.1734E+03    -15.6370E-03     31.1782E-03    -15.5412E-03     32.9654E-03    -15.6299E-03     30.9012E-03    -15.4074E-03     32.9555E-03
            1480     7.97612E-03     50.6764E-03    -14.7729E+06    -61.5624E+06     5.03988E+06     72.0882E+03    -15.5874E-03     31.1367E-03    -15.5493E-03     29.5166E-03    -15.5828E-03     30.8465E-03    -15.4134E-03     29.5091E-03
            1481     7.08982E-03     50.6505E-03    -17.0466E+06    -64.4139E+06     2.31265E+06     87.5337E+03    -15.5413E-03     31.0911E-03    -15.5498E-03     26.0921E-03    -15.5389E-03     30.7928E-03    -15.4201E-03     26.0866E-03
            1482     6.20355E-03     50.6279E-03    -19.5822E+06    -69.2735E+06    -1.58964E+06    -1.11009E+03    -15.5117E-03     31.0601E-03    -15.5484E-03     22.6835E-03    -15.5084E-03     30.7460E-03    -15.4275E-03     22.6782E-03
            1483     5.31729E-03     50.6083E-03    -22.3096E+06    -74.2700E+06    -6.52608E+06     29.6869E+03    -15.4917E-03     31.0341E-03    -15.5424E-03     19.3358E-03    -15.4871E-03     30.7056E-03    -15.4350E-03     19.3321E-03
            1484     4.43103E-03     50.5919E-03    -24.9550E+06    -79.1561E+06    -12.1011E+06     52.3896E+03    -15.4789E-03     31.0118E-03    -15.5329E-03     16.0375E-03    -15.4720E-03     30.6704E-03    -15.4425E-03     16.0351E-03
            1485     3.54481E-03     50.5784E-03    -27.3189E+06    -84.0447E+06    -17.9093E+06        -597.026    -15.4744E-03     30.9962E-03    -15.5218E-03     12.7906E-03    -15.4635E-03     30.6419E-03    -15.4498E-03     12.7883E-03
            1486     2.65857E-03     50.5680E-03    -29.3955E+06    -89.0613E+06    -23.5534E+06    -18.6756E+03    -15.4785E-03     30.9891E-03    -15.5106E-03     9.59546E-03    -15.4624E-03     30.6207E-03    -15.4566E-03     9.59356E-03
            1487     1.77239E-03     50.5606E-03    -31.0920E+06    -93.8163E+06    -28.2448E+06    -19.1588E+03    -15.4858E-03     30.9876E-03    -15.5018E-03     6.45804E-03    -15.4644E-03     30.6047E-03    -15.4619E-03     6.45672E-03
            1488     886.176E-06     50.5560E-03    -32.2647E+06    -96.8674E+06    -31.4587E+06     79.2823E+03    -15.4899E-03     30.9866E-03    -15.4967E-03     3.50230E-03    -15.4652E-03     30.5947E-03    -15.4667E-03     3.50276E-03
            1489     16.8393E-03     50.1330E-03    -3.30993E+06     107.240E+06     50.7927E+06     45.1977E+03    -14.9771E-03     30.4126E-03    -15.4355E-03     33.0837E-03    -15.3266E-03     30.9838E-03    -15.3322E-03     33.1096E-03
            1490     15.9530E-03     50.0793E-03    -6.11144E+06     80.0628E+06     13.9930E+06    -68.2914E+03    -15.7733E-03     31.0848E-03    -15.3114E-03     60.1080E-03    -16.1011E-03     31.6345E-03    -15.3487E-03     60.1133E-03
            1491     15.0669E-03     50.0206E-03    -6.37233E+06     25.4557E+06    -2.47118E+06     124.699E+03    -16.0259E-03     31.3422E-03    -15.3163E-03     59.7786E-03    -16.1947E-03     31.5859E-03    -15.3563E-03     59.7517E-03
            1492     14.1805E-03     49.9682E-03    -6.03540E+06    -7.98612E+06     40.5029E+03     206.744E+03    -15.8970E-03     31.2809E-03    -15.3838E-03     54.0482E-03    -15.9746E-03     31.3085E-03    -15.3633E-03     54.0173E-03
            1493     13.2943E-03     49.9202E-03    -6.44988E+06    -21.6820E+06     4.14723E+06     125.965E+03    -15.8177E-03     31.2522E-03    -15.4346E-03     50.0422E-03    -15.8603E-03     31.1830E-03    -15.3730E-03     50.0140E-03
            1494     12.4074E-03     49.8753E-03    -7.33800E+06    -34.6709E+06     4.18300E+06     57.8793E+03    -15.8221E-03     31.2858E-03    -15.4636E-03     46.3064E-03    -15.8380E-03     31.1404E-03    -15.3818E-03     46.2819E-03
            1495     11.5214E-03     49.8341E-03    -8.29129E+06    -46.2787E+06     4.44683E+06     104.160E+03    -15.8281E-03     31.3163E-03    -15.4882E-03     43.0218E-03    -15.8248E-03     31.1063E-03    -15.3868E-03     43.0023E-03
            1496     10.6351E-03     49.7953E-03    -9.48958E+06    -50.8044E+06     6.74755E+06     45.0416E+03    -15.7501E-03     31.2619E-03    -15.5118E-03     39.8282E-03    -15.7444E-03     31.0226E-03    -15.3907E-03     39.8121E-03
            1497     9.74876E-03     49.7600E-03    -10.8808E+06    -53.2799E+06     6.98032E+06     72.5367E+03    -15.6868E-03     31.2103E-03    -15.5235E-03     36.4061E-03    -15.6815E-03     30.9569E-03    -15.3955E-03     36.3937E-03
            1498     8.86245E-03     49.7277E-03    -12.6386E+06    -58.2055E+06     6.28313E+06     126.044E+03    -15.6363E-03     31.1712E-03    -15.5349E-03     32.9598E-03    -15.6293E-03     30.8945E-03    -15.4007E-03     32.9509E-03
            1499     7.97615E-03     49.6986E-03    -14.6560E+06    -61.7843E+06     5.04872E+06     20.0658E+03    -15.5901E-03     31.1321E-03    -15.5420E-03     29.4992E-03    -15.5846E-03     30.8406E-03    -15.4059E-03     29.4910E-03
            1500     7.08989E-03     49.6728E-03    -16.9290E+06    -64.4363E+06     2.41052E+06     53.5943E+03    -15.5427E-03     31.0841E-03    -15.5415E-03     26.0680E-03    -15.5397E-03     30.7854E-03    -15.4114E-03     26.0621E-03
            1501     6.20361E-03     49.6501E-03    -19.4222E+06    -69.4087E+06    -1.46196E+06     87.0755E+03    -15.5099E-03     31.0490E-03    -15.5391E-03     22.6650E-03    -15.5058E-03     30.7338E-03    -15.4176E-03     22.6609E-03
            1502     5.31734E-03     49.6306E-03    -22.0545E+06    -74.4251E+06    -6.28637E+06     141.173E+03    -15.4887E-03     31.0212E-03    -15.5325E-03     19.3130E-03    -15.4830E-03     30.6912E-03    -15.4240E-03     19.3108E-03
            1503     4.43110E-03     49.6141E-03    -24.6882E+06    -79.0782E+06    -11.9262E+06     48.5718E+03    -15.4710E-03     30.9924E-03    -15.5214E-03     16.0194E-03    -15.4631E-03     30.6507E-03    -15.4306E-03     16.0169E-03
            1504     3.54484E-03     49.6007E-03    -27.1676E+06    -84.1606E+06    -17.9043E+06    -49.5210E+03    -15.4654E-03     30.9746E-03    -15.5093E-03     12.7761E-03    -15.4536E-03     30.6196E-03    -15.4374E-03     12.7731E-03
            1505     2.65863E-03     49.5903E-03    -29.3121E+06    -89.1577E+06    -23.5986E+06    -14.5341E+03    -15.4674E-03     30.9647E-03    -15.4973E-03     9.58190E-03    -15.4507E-03     30.5959E-03    -15.4435E-03     9.58005E-03
            1506     1.77239E-03     49.5829E-03    -31.0253E+06    -93.9600E+06    -28.1420E+06     17.2237E+03    -15.4741E-03     30.9628E-03    -15.4887E-03     6.44922E-03    -15.4522E-03     30.5789E-03    -15.4482E-03     6.44837E-03
            1507     886.210E-06     49.5783E-03    -32.1907E+06    -96.9139E+06    -31.2421E+06     25.4637E+03    -15.4787E-03     30.9595E-03    -15.4809E-03     3.49671E-03    -15.4538E-03     30.5670E-03    -15.4499E-03     3.49647E-03
            1508     16.8403E-03     49.1547E-03    -2.84221E+06     107.595E+06     51.1448E+06     406.319E+03    -15.1756E-03     30.6074E-03    -15.4319E-03     33.2751E-03    -15.5243E-03     31.1797E-03    -15.3280E-03     33.3057E-03
            1509     15.9537E-03     49.1017E-03    -4.24856E+06     80.6437E+06     15.2648E+06     341.892E+03    -15.7347E-03     31.0406E-03    -15.3059E-03     60.2121E-03    -16.0557E-03     31.5886E-03    -15.3404E-03     60.2229E-03
            1510     15.0669E-03     49.0427E-03    -5.54615E+06     25.0496E+06    -2.04877E+06    -206.350E+03    -15.9073E-03     31.2215E-03    -15.3142E-03     59.8577E-03    -16.0719E-03     31.4613E-03    -15.3527E-03     59.8268E-03
            1511     14.1805E-03     48.9906E-03    -5.97412E+06    -8.60061E+06     107.242E+03     27.7701E+03    -15.8952E-03     31.2802E-03    -15.3850E-03     54.1051E-03    -15.9718E-03     31.3048E-03    -15.3634E-03     54.0717E-03
            1512     13.2938E-03     48.9424E-03    -6.64127E+06    -21.4418E+06     4.49937E+06     187.044E+03    -15.8637E-03     31.2986E-03    -15.4348E-03     50.0509E-03    -15.9083E-03     31.2304E-03    -15.3716E-03     50.0234E-03
            1513     12.4079E-03     48.8977E-03    -7.50760E+06    -34.3059E+06     4.31983E+06     38.9211E+03    -15.8447E-03     31.3047E-03    -15.4600E-03     46.3396E-03    -15.8621E-03     31.1612E-03    -15.3778E-03     46.3149E-03
            1514     11.5214E-03     48.8562E-03    -8.32926E+06    -46.8177E+06     4.29038E+06     35.0913E+03    -15.8268E-03     31.3099E-03    -15.4831E-03     43.0360E-03    -15.8226E-03     31.0975E-03    -15.3817E-03     43.0157E-03
            1515     10.6352E-03     48.8177E-03    -9.41718E+06    -50.6278E+06     6.81441E+06     71.0793E+03    -15.7588E-03     31.2648E-03    -15.5060E-03     39.8419E-03    -15.7531E-03     31.0262E-03    -15.3848E-03     39.8262E-03
            1516     9.74878E-03     48.7821E-03    -10.9490E+06    -53.6144E+06     6.80917E+06     23.5876E+03    -15.6903E-03     31.2067E-03    -15.5164E-03     36.4148E-03    -15.6845E-03     30.9520E-03    -15.3887E-03     36.4019E-03
            1517     8.86253E-03     48.7500E-03    -12.6509E+06    -58.2417E+06     6.39106E+06     123.934E+03    -15.6459E-03     31.1732E-03    -15.5273E-03     32.9347E-03    -15.6391E-03     30.8961E-03    -15.3925E-03     32.9257E-03
            1518     7.97624E-03     48.7208E-03    -14.7361E+06    -61.7599E+06     5.00212E+06     31.7790E+03    -15.5889E-03     31.1211E-03    -15.5322E-03     29.4779E-03    -15.5837E-03     30.8299E-03    -15.3963E-03     29.4699E-03
            1519     7.08996E-03     48.6951E-03    -17.0394E+06    -64.6970E+06     2.33053E+06         486.429    -15.5415E-03     31.0723E-03    -15.5309E-03     26.0407E-03    -15.5386E-03     30.7725E-03    -15.4007E-03     26.0341E-03
            1520     6.20368E-03     48.6724E-03    -19.5678E+06    -69.5421E+06    -1.52325E+06     162.175E+03    -15.5078E-03     31.0348E-03    -15.5271E-03     22.6405E-03    -15.5041E-03     30.7193E-03    -15.4055E-03     22.6373E-03
            1521     5.31742E-03     48.6529E-03    -22.1830E+06    -74.4669E+06    -6.40036E+06     110.877E+03    -15.4800E-03     30.9988E-03    -15.5188E-03     19.2870E-03    -15.4747E-03     30.6690E-03    -15.4106E-03     19.2844E-03
            1522     4.43114E-03     48.6364E-03    -24.6877E+06    -79.0185E+06    -11.9506E+06     35.4395E+03    -15.4621E-03     30.9689E-03    -15.5068E-03     15.9971E-03    -15.4542E-03     30.6276E-03    -15.4162E-03     15.9944E-03
            1523     3.54491E-03     48.6230E-03    -27.1286E+06    -84.2784E+06    -17.8978E+06     23.2064E+03    -15.4542E-03     30.9481E-03    -15.4939E-03     12.7558E-03    -15.4420E-03     30.5924E-03    -15.4219E-03     12.7538E-03
            1524     2.65865E-03     48.6126E-03    -29.3305E+06    -89.2655E+06    -23.5968E+06     32.8971E+03    -15.4530E-03     30.9342E-03    -15.4812E-03     9.56677E-03    -15.4362E-03     30.5648E-03    -15.4272E-03     9.56554E-03
            1525     1.77244E-03     48.6052E-03    -31.0164E+06    -94.0254E+06    -28.1605E+06     11.6521E+03    -15.4577E-03     30.9298E-03    -15.4720E-03     6.43853E-03    -15.4358E-03     30.5455E-03    -15.4315E-03     6.43761E-03
            1526     886.207E-06     48.6006E-03    -32.1277E+06    -97.0205E+06    -31.2859E+06    -71.8783E+03    -15.4619E-03     30.9264E-03    -15.4645E-03     3.49141E-03    -15.4366E-03     30.5333E-03    -15.4337E-03     3.48991E-03
            1527     16.8396E-03     48.1765E-03    -3.49529E+06     106.813E+06     50.9734E+06    -274.075E+03    -15.1445E-03     30.5777E-03    -15.4332E-03     33.3229E-03    -15.4945E-03     31.1467E-03    -15.3282E-03     33.3444E-03
            1528     15.9531E-03     48.1242E-03    -4.77426E+06     80.6739E+06     15.0771E+06     262.292E+03    -15.6515E-03     30.9603E-03    -15.3089E-03     60.1923E-03    -15.9739E-03     31.5085E-03    -15.3435E-03     60.2022E-03
            1529     15.0668E-03     48.0650E-03    -5.03046E+06     25.0008E+06    -2.04871E+06     487.510E+03    -15.9183E-03     31.2374E-03    -15.3191E-03     60.0983E-03    -16.0804E-03     31.4764E-03    -15.3584E-03     60.0766E-03
            1530     14.1804E-03     48.0130E-03    -5.93069E+06    -9.02052E+06     29.9404E+03     258.415E+03    -15.9838E-03     31.3722E-03    -15.3884E-03     54.1518E-03    -16.0598E-03     31.3950E-03    -15.3666E-03     54.1211E-03
            1531     13.2943E-03     47.9645E-03    -6.56211E+06    -21.1307E+06     4.57256E+06     172.138E+03    -15.9074E-03     31.3412E-03    -15.4338E-03     50.0765E-03    -15.9521E-03     31.2744E-03    -15.3708E-03     50.0487E-03
            1532     12.4076E-03     47.9200E-03    -7.16122E+06    -34.1567E+06     4.47045E+06     108.470E+03    -15.8623E-03     31.3194E-03    -15.4571E-03     46.3976E-03    -15.8785E-03     31.1759E-03    -15.3748E-03     46.3737E-03
            1533     11.5215E-03     47.8785E-03    -8.23240E+06    -46.9184E+06     4.22127E+06    -34.2334E+03    -15.8365E-03     31.3152E-03    -15.4787E-03     43.0562E-03    -15.8315E-03     31.1022E-03    -15.3776E-03     43.0350E-03
            1534     10.6351E-03     47.8399E-03    -9.43745E+06    -50.8841E+06     6.75818E+06     75.6413E+03    -15.7771E-03     31.2776E-03    -15.5005E-03     39.8073E-03    -15.7711E-03     31.0378E-03    -15.3793E-03     39.7916E-03
            1535     9.74893E-03     47.8045E-03    -10.9597E+06    -53.5563E+06     6.80987E+06     106.032E+03    -15.7128E-03     31.2211E-03    -15.5083E-03     36.3902E-03    -15.7072E-03     30.9667E-03    -15.3807E-03     36.3783E-03
            1536     8.86260E-03     47.7721E-03    -12.7434E+06    -58.5433E+06     6.21055E+06     35.7228E+03    -15.6502E-03     31.1670E-03    -15.5168E-03     32.9117E-03    -15.6431E-03     30.8888E-03    -15.3824E-03     32.9016E-03
            1537     7.97634E-03     47.7432E-03    -14.7271E+06    -61.6565E+06     5.08306E+06     118.607E+03    -15.5919E-03     31.1126E-03    -15.5207E-03     29.4438E-03    -15.5869E-03     30.8217E-03    -15.3845E-03     29.4369E-03
            1538     7.09004E-03     47.7173E-03    -17.1774E+06    -64.9419E+06     2.17228E+06     74.4896E+03    -15.5404E-03     31.0577E-03    -15.5172E-03     26.0096E-03    -15.5377E-03     30.7571E-03    -15.3873E-03     26.0039E-03
            1539     6.20379E-03     47.6947E-03    -19.6550E+06    -69.6827E+06    -1.61137E+06     97.1285E+03    -15.5023E-03     31.0143E-03    -15.5121E-03     22.6013E-03    -15.4987E-03     30.6983E-03    -15.3906E-03     22.5974E-03
            1540     5.31749E-03     47.6751E-03    -22.1521E+06    -74.3624E+06    -6.43503E+06     50.6658E+03    -15.4707E-03     30.9729E-03    -15.5022E-03     19.2566E-03    -15.4653E-03     30.6436E-03    -15.3944E-03     19.2532E-03
            1541     4.43124E-03     47.6587E-03    -24.7632E+06    -79.1743E+06    -12.0235E+06     14.0671E+03    -15.4498E-03     30.9392E-03    -15.4895E-03     15.9687E-03    -15.4420E-03     30.5974E-03    -15.3989E-03     15.9657E-03
            1542     3.54496E-03     47.6453E-03    -27.2368E+06    -84.3445E+06    -17.8764E+06     81.8697E+03    -15.4390E-03     30.9149E-03    -15.4759E-03     12.7329E-03    -15.4273E-03     30.5590E-03    -15.4035E-03     12.7317E-03
            1543     2.65872E-03     47.6349E-03    -29.3685E+06    -89.3429E+06    -23.5238E+06     55.1690E+03    -15.4360E-03     30.8985E-03    -15.4625E-03     9.54915E-03    -15.4194E-03     30.5287E-03    -15.4080E-03     9.54821E-03
            1544     1.77246E-03     47.6275E-03    -31.0453E+06    -94.0246E+06    -28.2683E+06     8.26403E+03    -15.4383E-03     30.8901E-03    -15.4518E-03     6.42683E-03    -15.4163E-03     30.5060E-03    -15.4118E-03     6.42586E-03
            1545     886.238E-06     47.6229E-03    -32.1154E+06    -97.2045E+06    -31.3816E+06    -70.7847E+03    -15.4417E-03     30.8870E-03    -15.4453E-03     3.48283E-03    -15.4158E-03     30.4931E-03    -15.4147E-03     3.48135E-03
            1546     16.8400E-03     47.1985E-03    -3.12925E+06     106.881E+06     50.8821E+06    -285.397E+03    -14.9785E-03     30.4116E-03    -15.4331E-03     33.1485E-03    -15.3258E-03     30.9797E-03    -15.3291E-03     33.1709E-03
            1547     15.9535E-03     47.1466E-03    -5.64494E+06     79.8556E+06     14.3328E+06    -231.186E+03    -15.5744E-03     30.8894E-03    -15.3151E-03     60.0779E-03    -15.8988E-03     31.4357E-03    -15.3510E-03     60.0822E-03
            1548     15.0665E-03     47.0874E-03    -6.37351E+06     24.7712E+06    -2.62559E+06     417.211E+03    -15.9995E-03     31.3254E-03    -15.3259E-03     60.1621E-03    -16.1679E-03     31.5668E-03    -15.3657E-03     60.1393E-03
            1549     14.1804E-03     47.0348E-03    -6.11575E+06    -8.68850E+06    -13.8469E+03     320.726E+03    -16.0229E-03     31.4148E-03    -15.3919E-03     54.1135E-03    -16.1002E-03     31.4396E-03    -15.3705E-03     54.0835E-03
            1550     13.2939E-03     46.9871E-03    -6.58464E+06    -21.1965E+06     4.52183E+06     84.8673E+03    -15.9533E-03     31.3882E-03    -15.4350E-03     50.1006E-03    -15.9980E-03     31.3212E-03    -15.3721E-03     50.0715E-03
            1551     12.4078E-03     46.9420E-03    -7.38729E+06    -34.4948E+06     4.30754E+06     129.255E+03    -15.9057E-03     31.3609E-03    -15.4553E-03     46.3664E-03    -15.9222E-03     31.2163E-03    -15.3730E-03     46.3427E-03
            1552     11.5215E-03     46.9008E-03    -8.28602E+06    -46.7920E+06     4.32984E+06     77.3820E+03    -15.8671E-03     31.3413E-03    -15.4742E-03     43.0229E-03    -15.8628E-03     31.1289E-03    -15.3727E-03     43.0031E-03
            1553     10.6353E-03     46.8621E-03    -9.52097E+06    -51.0161E+06     6.72346E+06     63.1042E+03    -15.8003E-03     31.2933E-03    -15.4930E-03     39.7843E-03    -15.7945E-03     31.0531E-03    -15.3717E-03     39.7684E-03
            1554     9.74896E-03     46.8267E-03    -10.9262E+06    -53.7069E+06     6.80438E+06     143.242E+03    -15.7260E-03     31.2244E-03    -15.4984E-03     36.3457E-03    -15.7200E-03     30.9693E-03    -15.3707E-03     36.3342E-03
            1555     8.86274E-03     46.7944E-03    -12.7128E+06    -58.4677E+06     6.17031E+06     88.5175E+03    -15.6602E-03     31.1644E-03    -15.5042E-03     32.8726E-03    -15.6529E-03     30.8866E-03    -15.3702E-03     32.8631E-03
            1556     7.97643E-03     46.7654E-03    -14.8028E+06     -61.977E+06     4.94473E+06     64.0102E+03    -15.5971E-03     31.1032E-03    -15.5061E-03     29.4003E-03    -15.5918E-03     30.8111E-03    -15.3701E-03     29.3927E-03
            1557     7.09019E-03     46.7396E-03    -17.0163E+06    -64.8955E+06     2.31119E+06     201.093E+03    -15.5394E-03     31.0405E-03    -15.5011E-03     25.9588E-03    -15.5361E-03     30.7397E-03    -15.3707E-03     25.9547E-03
            1558     6.20388E-03     46.7170E-03    -19.5908E+06    -69.7335E+06    -1.66357E+06     42.5182E+03    -15.4925E-03     30.9861E-03    -15.4936E-03     22.5604E-03    -15.4885E-03     30.6698E-03    -15.3724E-03     22.5557E-03
            1559     5.31762E-03     46.6975E-03    -22.1824E+06    -74.4161E+06    -6.43623E+06    -1.64476E+03    -15.4587E-03     30.9416E-03    -15.4829E-03     19.2183E-03    -15.4534E-03     30.6121E-03    -15.3750E-03     19.2142E-03
            1560     4.43131E-03     46.6811E-03    -24.7741E+06    -79.3447E+06    -11.9631E+06     74.9563E+03    -15.4342E-03     30.9037E-03    -15.4695E-03     15.9352E-03    -15.4263E-03     30.5609E-03    -15.3783E-03     15.9331E-03
            1561     3.54505E-03     46.6677E-03    -27.2536E+06    -84.3818E+06    -17.8320E+06     57.8836E+03    -15.4207E-03     30.8754E-03    -15.4547E-03     12.7051E-03    -15.4091E-03     30.5193E-03    -15.3820E-03     12.7035E-03
            1562     2.65877E-03     46.6573E-03    -29.3719E+06    -89.4066E+06    -23.5031E+06     24.5806E+03    -15.4154E-03     30.8559E-03    -15.4405E-03     9.52796E-03    -15.3988E-03     30.4857E-03    -15.3857E-03     9.52663E-03
            1563     1.77251E-03     46.6499E-03    -31.0016E+06    -94.0580E+06    -28.1617E+06    -5.78853E+03    -15.4168E-03     30.8463E-03    -15.4295E-03     6.41266E-03    -15.3946E-03     30.4618E-03    -15.3890E-03     6.41152E-03
            1564     886.248E-06     46.6453E-03    -32.0864E+06    -97.3635E+06    -31.3174E+06    -26.8946E+03    -15.4183E-03     30.8416E-03    -15.4232E-03     3.47545E-03    -15.3922E-03     30.4467E-03    -15.3921E-03     3.47453E-03
            1565     16.8400E-03     46.2212E-03    -3.22948E+06     106.572E+06     50.4159E+06     154.373E+03    -14.9092E-03     30.3467E-03    -15.4374E-03     33.1242E-03    -15.2574E-03     30.9155E-03    -15.3352E-03     33.1538E-03
            1566     15.9526E-03     46.1692E-03    -5.48036E+06     80.0400E+06     14.0658E+06     538.254E+03    -15.6553E-03     30.9750E-03    -15.3196E-03     60.3735E-03    -15.9806E-03     31.5241E-03    -15.3574E-03     60.3889E-03
            1567     15.0669E-03     46.1091E-03    -6.27888E+06     24.7027E+06    -2.68453E+06    -127.723E+03    -16.0650E-03     31.3933E-03    -15.3283E-03     60.0826E-03    -16.2325E-03     31.6339E-03    -15.3684E-03     60.0522E-03
            1568     14.1802E-03     46.0576E-03    -6.26901E+06    -8.88420E+06    -185.397E+03    -46.8684E+03    -16.0223E-03     31.4146E-03    -15.3924E-03     54.1027E-03    -16.0996E-03     31.4387E-03    -15.3713E-03     54.0680E-03
            1569     13.2941E-03     46.0087E-03    -6.69068E+06    -21.3015E+06     4.55492E+06     158.034E+03    -16.0119E-03     31.4460E-03    -15.4341E-03     49.9639E-03    -16.0571E-03     31.3787E-03    -15.3708E-03     49.9356E-03
            1570     12.4078E-03     45.9645E-03    -7.65984E+06    -34.4329E+06     4.10487E+06     115.927E+03    -15.9332E-03     31.3831E-03    -15.4498E-03     46.2608E-03    -15.9510E-03     31.2395E-03    -15.3683E-03     46.2369E-03
            1571     11.5216E-03     45.9228E-03    -8.46811E+06    -46.9572E+06     4.07346E+06     94.5194E+03    -15.8941E-03     31.3602E-03    -15.4661E-03     43.0079E-03    -15.8901E-03     31.1476E-03    -15.3654E-03     42.9883E-03
            1572     10.6353E-03     45.8844E-03    -9.54030E+06    -51.0739E+06     6.63872E+06     108.071E+03    -15.8264E-03     31.3089E-03    -15.4825E-03     39.7068E-03    -15.8204E-03     31.0685E-03    -15.3614E-03     39.6915E-03
            1573     9.74912E-03     45.8489E-03    -11.0459E+06    -53.8248E+06     6.64938E+06     56.2129E+03    -15.7369E-03     31.2219E-03    -15.4850E-03     36.2902E-03    -15.7311E-03     30.9665E-03    -15.3577E-03     36.2776E-03
            1574     8.86284E-03     45.8167E-03    -12.7031E+06    -58.5476E+06     6.24416E+06     135.951E+03    -15.6713E-03     31.1605E-03    -15.4892E-03     32.8034E-03    -15.6641E-03     30.8822E-03    -15.3546E-03     32.7945E-03
            1575     7.97661E-03     45.7877E-03    -14.7719E+06    -62.0211E+06     4.91192E+06     105.521E+03    -15.5983E-03     31.0863E-03    -15.4880E-03     29.3421E-03    -15.5929E-03     30.7940E-03    -15.3521E-03     29.3351E-03
            1576     7.09030E-03     45.7619E-03    -17.0763E+06    -65.0964E+06     2.23828E+06     54.4768E+03    -15.5314E-03     31.0126E-03    -15.4812E-03     25.9047E-03    -15.5280E-03     30.7110E-03    -15.3509E-03     25.8987E-03
            1577     6.20404E-03     45.7393E-03    -19.4175E+06    -69.5643E+06    -1.48960E+06     114.544E+03    -15.4817E-03     30.9542E-03    -15.4726E-03     22.5104E-03    -15.4773E-03     30.6383E-03    -15.3510E-03     22.5067E-03
            1578     5.31771E-03     45.7198E-03    -22.1191E+06    -74.6468E+06    -6.37158E+06     39.2462E+03    -15.4432E-03     30.9039E-03    -15.4607E-03     19.1734E-03    -15.4373E-03     30.5730E-03    -15.3522E-03     19.1698E-03
            1579     4.43144E-03     45.7034E-03    -24.7650E+06    -79.4329E+06    -11.8989E+06     83.0464E+03    -15.4162E-03     30.8621E-03    -15.4459E-03     15.8958E-03    -15.4082E-03     30.5187E-03    -15.3543E-03     15.8938E-03
            1580     3.54513E-03     45.6901E-03    -27.2235E+06    -84.4246E+06    -17.8366E+06     64.8363E+03    -15.3986E-03     30.8283E-03    -15.4297E-03     12.6729E-03    -15.3869E-03     30.4719E-03    -15.3570E-03     12.6715E-03
            1581     2.65885E-03     45.6797E-03    -29.4173E+06    -89.4393E+06    -23.5233E+06     6.04837E+03    -15.3918E-03     30.8064E-03    -15.4147E-03     9.50303E-03    -15.3753E-03     30.4362E-03    -15.3599E-03     9.50146E-03
            1582     1.77255E-03     45.6723E-03    -31.1297E+06    -94.1569E+06    -28.2453E+06    -43.7632E+03    -15.3915E-03     30.7942E-03    -15.4027E-03     6.39349E-03    -15.3697E-03     30.4096E-03    -15.3623E-03     6.39186E-03
            1583     886.281E-06     45.6678E-03    -32.2308E+06    -97.5056E+06    -31.4315E+06    -15.0801E+03    -15.3875E-03     30.7868E-03    -15.3993E-03     3.46323E-03    -15.3617E-03     30.3916E-03    -15.3683E-03     3.46247E-03
            1584     16.8392E-03     45.2446E-03    -3.75669E+06     106.134E+06     51.0328E+06     67.3283E+03    -14.9856E-03     30.4366E-03    -15.4510E-03     33.1469E-03    -15.3382E-03     31.0046E-03    -15.3443E-03     33.1737E-03
            1585     15.9534E-03     45.1903E-03    -5.82834E+06     80.0180E+06     14.7419E+06    -105.677E+03    -15.8269E-03     31.1530E-03    -15.3261E-03     60.3675E-03    -16.1562E-03     31.7029E-03    -15.3600E-03     60.3730E-03
            1586     15.0665E-03     45.1320E-03    -5.56560E+06     25.0835E+06    -2.34178E+06     71.6290E+03    -16.0713E-03     31.3969E-03    -15.3257E-03     59.8626E-03    -16.2357E-03     31.6374E-03    -15.3657E-03     59.8347E-03
            1587     14.1804E-03     45.0792E-03    -6.34648E+06    -9.16954E+06    -254.231E+03    -58.2023E+03    -16.0813E-03     31.4687E-03    -15.3874E-03     54.1086E-03    -16.1588E-03     31.4919E-03    -15.3662E-03     54.0735E-03
            1588     13.2942E-03     45.0312E-03    -6.97044E+06    -21.8177E+06     4.13681E+06     67.4557E+03    -16.0293E-03     31.4544E-03    -15.4251E-03     49.8292E-03    -16.0745E-03     31.3854E-03    -15.3627E-03     49.7997E-03
            1589     12.4079E-03     44.9865E-03    -7.50586E+06    -34.2671E+06     4.29085E+06     146.170E+03    -15.9597E-03     31.3996E-03    -15.4399E-03     46.1290E-03    -15.9772E-03     31.2563E-03    -15.3578E-03     46.1054E-03
            1590     11.5217E-03     44.9451E-03    -8.48206E+06    -46.8669E+06     4.09724E+06     64.6486E+03    -15.9086E-03     31.3617E-03    -15.4531E-03     42.8805E-03    -15.9048E-03     31.1495E-03    -15.3523E-03     42.8605E-03
            1591     10.6355E-03     44.9065E-03    -9.60419E+06    -51.3984E+06     6.55356E+06     32.6407E+03    -15.8253E-03     31.2930E-03    -15.4677E-03     39.6204E-03    -15.8190E-03     31.0512E-03    -15.3465E-03     39.6041E-03
            1592     9.74927E-03     44.8712E-03    -11.0218E+06    -53.7090E+06     6.75501E+06     128.915E+03    -15.7504E-03     31.2188E-03    -15.4684E-03     36.2080E-03    -15.7448E-03     30.9638E-03    -15.3407E-03     36.1964E-03
            1593     8.86304E-03     44.8389E-03    -12.8333E+06    -58.7755E+06     6.07753E+06     34.9683E+03    -15.6707E-03     31.1401E-03    -15.4694E-03     32.7427E-03    -15.6635E-03     30.8611E-03    -15.3352E-03     32.7326E-03
            1594     7.97676E-03     44.8100E-03    -14.7826E+06    -62.0394E+06     5.01279E+06     146.825E+03    -15.5936E-03     31.0607E-03    -15.4671E-03     29.2706E-03    -15.5882E-03     30.7681E-03    -15.3307E-03     29.2641E-03
            1595     7.09049E-03     44.7842E-03    -17.1267E+06    -65.0646E+06     2.19255E+06     45.4933E+03    -15.5209E-03     30.9787E-03    -15.4577E-03     25.8453E-03    -15.5177E-03     30.6773E-03    -15.3276E-03     25.8393E-03
            1596     6.20417E-03     44.7617E-03    -19.6450E+06    -69.7731E+06    -1.59753E+06    -23.3026E+03    -15.4672E-03     30.9148E-03    -15.4477E-03     22.4530E-03    -15.4635E-03     30.5983E-03    -15.3260E-03     22.4476E-03
            1597     5.31788E-03     44.7422E-03    -22.1053E+06    -74.6878E+06    -6.34723E+06     128.502E+03    -15.4261E-03     30.8603E-03    -15.4342E-03     19.1198E-03    -15.4202E-03     30.5291E-03    -15.3255E-03     19.1175E-03
            1598     4.43154E-03     44.7259E-03    -24.7535E+06    -79.5655E+06    -11.9522E+06     95.8924E+03    -15.3942E-03     30.8119E-03    -15.4176E-03     15.8467E-03    -15.3860E-03     30.4679E-03    -15.3261E-03     15.8448E-03
            1599     3.54524E-03     44.7125E-03    -27.2493E+06    -84.4277E+06    -17.8425E+06     86.2341E+03    -15.3738E-03     30.7741E-03    -15.4003E-03     12.6311E-03    -15.3621E-03     30.4177E-03    -15.3276E-03     12.6299E-03
            1600     2.65892E-03     44.7022E-03    -29.4003E+06    -89.4784E+06    -23.5718E+06     11.8044E+03    -15.3644E-03     30.7483E-03    -15.3839E-03     9.47034E-03    -15.3476E-03     30.3779E-03    -15.3294E-03     9.46886E-03
            1601     1.77262E-03     44.6948E-03    -31.1058E+06    -94.2543E+06    -28.2806E+06    -26.2393E+03    -15.3614E-03     30.7328E-03    -15.3714E-03     6.36932E-03    -15.3393E-03     30.3477E-03    -15.3310E-03     6.36792E-03
            1602     886.302E-06     44.6903E-03    -32.2624E+06    -97.6773E+06    -31.4474E+06    -36.1559E+03    -15.3590E-03     30.7240E-03    -15.3650E-03     3.44711E-03    -15.3331E-03     30.3280E-03    -15.3339E-03     3.44608E-03
            1603     16.8396E-03     44.2657E-03    -2.77947E+06     106.621E+06     50.9176E+06     485.139E+03    -15.1097E-03     30.5556E-03    -15.4459E-03     33.2406E-03    -15.4571E-03     31.1239E-03    -15.3418E-03     33.2716E-03
            1604     15.9529E-03     44.2129E-03    -5.13336E+06     79.8698E+06     14.5007E+06    -359.021E+03    -15.8664E-03     31.1834E-03    -15.3170E-03     60.0879E-03    -16.1907E-03     31.7309E-03    -15.3528E-03     60.0887E-03
            1605     15.0669E-03     44.1539E-03    -6.14061E+06     24.7467E+06    -2.36718E+06    -208.908E+03    -16.1415E-03     31.4572E-03    -15.3158E-03     59.7452E-03    -16.3085E-03     31.6972E-03    -15.3546E-03     59.7134E-03
            1606     14.1806E-03     44.1014E-03    -6.02020E+06    -9.21417E+06    -11.7306E+03     108.354E+03    -16.1036E-03     31.4769E-03    -15.3732E-03     53.8690E-03    -16.1797E-03     31.4989E-03    -15.3512E-03     53.8360E-03
            1607     13.2943E-03     44.0532E-03    -6.74439E+06    -22.0761E+06     4.24160E+06     1.18974E+03    -15.9930E-03     31.4030E-03    -15.4100E-03     49.6861E-03    -16.0367E-03     31.3320E-03    -15.3470E-03     49.6558E-03
            1608     12.4082E-03     44.0087E-03    -7.47884E+06    -34.4889E+06     4.33752E+06     68.4097E+03    -15.9793E-03     31.4032E-03    -15.4239E-03     46.0529E-03    -15.9963E-03     31.2587E-03    -15.3414E-03     46.0283E-03
            1609     11.5220E-03     43.9673E-03    -8.32623E+06    -46.8439E+06     4.34210E+06     136.864E+03    -15.9057E-03     31.3413E-03    -15.4356E-03     42.7772E-03    -15.9015E-03     31.1286E-03    -15.3338E-03     42.7582E-03
            1610     10.6357E-03     43.9288E-03    -9.53973E+06    -51.3626E+06     6.62703E+06     33.0175E+03    -15.8129E-03     31.2614E-03    -15.4485E-03     39.5905E-03    -15.8064E-03     31.0195E-03    -15.3271E-03     39.5742E-03
            1611     9.74950E-03     43.8933E-03    -10.9224E+06    -54.0171E+06     6.78415E+06     16.3691E+03    -15.7494E-03     31.1975E-03    -15.4481E-03     36.1370E-03    -15.7428E-03     30.9408E-03    -15.3201E-03     36.1239E-03
            1612     8.86323E-03     43.8613E-03    -12.5941E+06    -58.6878E+06     6.31437E+06     135.511E+03    -15.6701E-03     31.1175E-03    -15.4474E-03     32.6677E-03    -15.6621E-03     30.8382E-03    -15.3125E-03     32.6589E-03
            1613     7.97697E-03     43.8323E-03    -14.7255E+06    -62.2659E+06     4.98060E+06     37.6787E+03    -15.5859E-03     31.0282E-03    -15.4424E-03     29.1996E-03    -15.5799E-03     30.7345E-03    -15.3058E-03     29.1918E-03
            1614     7.09067E-03     43.8066E-03    -16.9627E+06    -64.9698E+06     2.38740E+06     136.298E+03    -15.5121E-03     30.9434E-03    -15.4313E-03     25.7692E-03    -15.5085E-03     30.6420E-03    -15.3006E-03     25.7644E-03
            1615     6.20436E-03     43.7841E-03    -19.5912E+06    -69.8932E+06    -1.64012E+06     70.8896E+03    -15.4530E-03     30.8713E-03    -15.4183E-03     22.3833E-03    -15.4488E-03     30.5542E-03    -15.2968E-03     22.3790E-03
            1616     5.31803E-03     43.7647E-03    -22.3461E+06    -74.8709E+06    -6.54975E+06     41.2953E+03    -15.4063E-03     30.8086E-03    -15.4023E-03     19.0533E-03    -15.4010E-03     30.4772E-03    -15.2941E-03     19.0498E-03
            1617     4.43171E-03     43.7483E-03    -24.8457E+06    -79.5716E+06    -12.0273E+06     116.818E+03    -15.3696E-03     30.7535E-03    -15.3839E-03     15.7859E-03    -15.3617E-03     30.4098E-03    -15.2927E-03     15.7844E-03
            1618     3.54536E-03     43.7351E-03    -27.2532E+06    -84.4876E+06    -17.9179E+06     38.6649E+03    -15.3451E-03     30.7098E-03    -15.3648E-03     12.5796E-03    -15.3332E-03     30.3532E-03    -15.2923E-03     12.5778E-03
            1619     2.65902E-03     43.7247E-03    -29.3592E+06    -89.5189E+06    -23.6134E+06     29.3862E+03    -15.3303E-03     30.6775E-03    -15.3472E-03     9.42860E-03    -15.3132E-03     30.3069E-03    -15.2929E-03     9.42735E-03
            1620     1.77267E-03     43.7174E-03    -31.0254E+06    -94.3657E+06    -28.2890E+06    -5.24946E+03    -15.3254E-03     30.6598E-03    -15.3344E-03     6.34169E-03    -15.3028E-03     30.2741E-03    -15.2940E-03     6.34056E-03
            1621     886.338E-06     43.7128E-03    -32.0979E+06    -97.8117E+06    -31.3963E+06     25.8608E+03    -15.3261E-03     30.6509E-03    -15.3248E-03     3.43030E-03    -15.2993E-03     30.2539E-03    -15.2934E-03     3.43008E-03
            1622     16.8399E-03     43.2877E-03    -3.02236E+06     106.361E+06     51.0561E+06     248.970E+03    -15.2328E-03     30.6630E-03    -15.4302E-03     33.1107E-03    -15.5801E-03     31.2291E-03    -15.3248E-03     33.1388E-03
            1623     15.9535E-03     43.2352E-03    -4.33768E+06     80.2085E+06     15.2286E+06     160.485E+03    -15.8359E-03     31.1340E-03    -15.2981E-03     59.7339E-03    -16.1562E-03     31.6795E-03    -15.3320E-03     59.7416E-03
            1624     15.0670E-03     43.1758E-03    -5.31662E+06     24.4430E+06    -2.10148E+06    -58.7441E+03    -16.1243E-03     31.4197E-03    -15.2955E-03     59.5848E-03    -16.2868E-03     31.6562E-03    -15.3337E-03     59.5548E-03
            1625     14.1810E-03     43.1236E-03    -6.07869E+06    -9.58135E+06    -76.5468E+03    -68.4121E+03    -16.0461E-03     31.3998E-03    -15.3537E-03     53.8314E-03    -16.1215E-03     31.4198E-03    -15.3314E-03     53.7964E-03
            1626     13.2947E-03     43.0756E-03    -6.38468E+06    -21.7649E+06     4.55288E+06     132.611E+03    -15.9710E-03     31.3631E-03    -15.3921E-03     49.7714E-03    -16.0138E-03     31.2927E-03    -15.3285E-03     49.7429E-03
            1627     12.4084E-03     43.0307E-03    -7.30388E+06    -34.8965E+06     4.29689E+06     87.3891E+03    -15.9380E-03     31.3447E-03    -15.4067E-03     46.0887E-03    -15.9534E-03     31.1979E-03    -15.3241E-03     46.0644E-03
            1628     11.5222E-03     42.9896E-03    -8.21884E+06    -47.1013E+06     4.39565E+06     150.238E+03    -15.9226E-03     31.3410E-03    -15.4184E-03     42.7775E-03    -15.9175E-03     31.1268E-03    -15.3162E-03     42.7586E-03
            1629     10.6360E-03     42.9510E-03    -9.31476E+06    -51.1207E+06     6.81818E+06     144.645E+03    -15.8364E-03     31.2644E-03    -15.4280E-03     39.5619E-03    -15.8295E-03     31.0231E-03    -15.3063E-03     39.5472E-03
            1630     9.74969E-03     42.9157E-03    -10.9067E+06    -54.2429E+06     6.67707E+06    -43.7056E+03    -15.7444E-03     31.1688E-03    -15.4244E-03     36.0917E-03    -15.7373E-03     30.9110E-03    -15.2966E-03     36.0779E-03
            1631     8.86347E-03     42.8835E-03    -12.6257E+06    -58.8872E+06     6.31706E+06     74.3154E+03    -15.6714E-03     31.0934E-03    -15.4220E-03     32.5820E-03    -15.6633E-03     30.8131E-03    -15.2867E-03     32.5724E-03
            1632     7.97719E-03     42.8547E-03    -14.6157E+06    -62.1654E+06     5.07491E+06     138.456E+03    -15.5813E-03     30.9952E-03    -15.4139E-03     29.1154E-03    -15.5750E-03     30.7017E-03    -15.2772E-03     29.1089E-03
            1633     7.09089E-03     42.8290E-03    -16.9749E+06    -65.2068E+06     2.27458E+06     32.0781E+03    -15.5029E-03     30.9026E-03    -15.3997E-03     25.6848E-03    -15.4988E-03     30.6002E-03    -15.2692E-03     25.6786E-03
            1634     6.20457E-03     42.8066E-03    -19.3254E+06    -69.8868E+06    -1.41215E+06     187.529E+03    -15.4404E-03     30.8251E-03    -15.3846E-03     22.2947E-03    -15.4352E-03     30.5072E-03    -15.2624E-03     22.2920E-03
            1635     5.31824E-03     42.7872E-03    -21.9661E+06    -74.9608E+06    -6.30838E+06     170.294E+03    -15.3855E-03     30.7513E-03    -15.3659E-03     18.9697E-03    -15.3785E-03     30.4185E-03    -15.2569E-03     18.9679E-03
            1636     4.43187E-03     42.7709E-03    -24.7048E+06    -79.5976E+06    -11.9746E+06     59.3190E+03    -15.3415E-03     30.6858E-03    -15.3443E-03     15.7153E-03    -15.3329E-03     30.3416E-03    -15.2529E-03     15.7130E-03
            1637     3.54551E-03     42.7576E-03    -27.1545E+06    -84.5704E+06    -17.9187E+06     74.3837E+03    -15.3100E-03     30.6331E-03    -15.3231E-03     12.5198E-03    -15.2975E-03     30.2759E-03    -15.2507E-03     12.5185E-03
            1638     2.65913E-03     42.7474E-03    -29.3243E+06    -89.5582E+06    -23.6446E+06     36.2995E+03    -15.2907E-03     30.5948E-03    -15.3041E-03     9.38256E-03    -15.2734E-03     30.2240E-03    -15.2499E-03     9.38141E-03
            1639     1.77275E-03     42.7400E-03    -30.9758E+06    -94.5187E+06    -28.2763E+06     38.6328E+03    -15.2835E-03     30.5741E-03    -15.2905E-03     6.31006E-03    -15.2604E-03     30.1875E-03    -15.2500E-03     6.30951E-03
            1640     886.381E-06     42.7355E-03    -32.1048E+06    -97.8552E+06    -31.3344E+06      107.48E+03    -15.2781E-03     30.5621E-03    -15.2840E-03     3.41025E-03    -15.2513E-03     30.1649E-03    -15.2523E-03     3.41108E-03
            1641     16.8406E-03     42.3103E-03    -2.97935E+06     106.226E+06     51.1926E+06    -232.042E+03    -15.4178E-03     30.8313E-03    -15.4135E-03     33.0205E-03    -15.7647E-03     31.3963E-03    -15.3073E-03     33.0416E-03
            1642     15.9538E-03     42.2570E-03    -4.89262E+06     79.8402E+06     15.0955E+06     212.147E+03    -15.8079E-03     31.0842E-03    -15.2762E-03     59.9158E-03    -16.1297E-03     31.6283E-03    -15.3094E-03     59.9244E-03
            1643     15.0678E-03     42.1982E-03    -5.39070E+06     24.5506E+06    -1.99847E+06     413.820E+03    -15.9841E-03     31.2615E-03    -15.2774E-03     59.7546E-03    -16.1468E-03     31.4980E-03    -15.3152E-03     59.7315E-03
            1644     14.1809E-03     42.1459E-03    -5.70442E+06    -9.49882E+06     116.965E+03     86.2724E+03    -15.9920E-03     31.3326E-03    -15.3407E-03     54.0272E-03    -16.0658E-03     31.3522E-03    -15.3181E-03     53.9943E-03
            1645     13.2949E-03     42.0976E-03    -6.49765E+06    -22.1727E+06     4.42867E+06     45.0234E+03    -15.9771E-03     31.3570E-03    -15.3799E-03     49.8756E-03    -16.0197E-03     31.2849E-03    -15.3162E-03     49.8460E-03
            1646     12.4086E-03     42.0532E-03    -7.24599E+06    -34.8113E+06     4.45808E+06     193.516E+03    -15.9491E-03     31.3428E-03    -15.3937E-03     46.1606E-03    -15.9646E-03     31.1960E-03    -15.3104E-03     46.1378E-03
            1647     11.5223E-03     42.0116E-03    -8.05972E+06    -47.1942E+06     4.38562E+06     77.4134E+03    -15.9564E-03     31.3582E-03    -15.4019E-03     42.7840E-03    -15.9503E-03     31.1433E-03    -15.2998E-03     42.7642E-03
            1648     10.6362E-03     41.9734E-03    -9.16874E+06    -51.2548E+06     6.94482E+06     206.384E+03    -15.8842E-03     31.2917E-03    -15.4074E-03     39.4599E-03    -15.8765E-03     31.0493E-03    -15.2851E-03     39.4458E-03
            1649     9.74998E-03     41.9379E-03    -10.7762E+06    -53.9818E+06     6.80165E+06     173.173E+03    -15.7605E-03     31.1589E-03    -15.3984E-03     36.0155E-03    -15.7532E-03     30.9020E-03    -15.2705E-03     36.0046E-03
            1650     8.86371E-03     41.9059E-03    -12.6747E+06    -59.2228E+06     6.07941E+06     9.80297E+03    -15.6703E-03     31.0622E-03    -15.3919E-03     32.4911E-03    -15.6616E-03     30.7806E-03    -15.2572E-03     32.4808E-03
            1651     7.97746E-03     41.8771E-03    -14.7180E+06    -62.1987E+06     5.06526E+06     159.854E+03    -15.5822E-03     30.9633E-03    -15.3811E-03     29.0110E-03    -15.5763E-03     30.6697E-03    -15.2443E-03     29.0048E-03
            1652     7.09115E-03     41.8515E-03    -17.0550E+06    -65.1702E+06     2.21086E+06     120.922E+03    -15.4942E-03     30.8569E-03    -15.3626E-03     25.5814E-03    -15.4905E-03     30.5548E-03    -15.2324E-03     25.5764E-03
            1653     6.20482E-03     41.8290E-03    -19.6679E+06      -70.18E+06    -1.68738E+06     70.5516E+03    -15.4209E-03     30.7648E-03    -15.3439E-03     22.1942E-03    -15.4165E-03     30.4464E-03    -15.2220E-03     22.1900E-03
            1654     5.31847E-03     41.8098E-03    -22.1379E+06    -74.9011E+06    -6.40058E+06     202.794E+03    -15.3582E-03     30.6803E-03    -15.3221E-03     18.8788E-03    -15.3520E-03     30.3482E-03    -15.2134E-03     18.8774E-03
            1655     4.43208E-03     41.7935E-03    -24.6790E+06    -79.6305E+06    -11.9555E+06     166.262E+03    -15.3063E-03     30.6046E-03    -15.2984E-03     15.6338E-03    -15.2975E-03     30.2602E-03    -15.2069E-03     15.6329E-03
            1656     3.54568E-03     41.7803E-03    -27.1917E+06    -84.6150E+06    -17.9067E+06     82.5023E+03    -15.2687E-03     30.5439E-03    -15.2751E-03     12.4523E-03    -15.2564E-03     30.1865E-03    -15.2025E-03     12.4511E-03
            1657     2.65926E-03     41.7700E-03    -29.2501E+06    -89.6152E+06    -23.6085E+06     56.9128E+03    -15.2466E-03     30.5008E-03    -15.2542E-03     9.33020E-03    -15.2289E-03     30.1296E-03    -15.1999E-03     9.32933E-03
            1658     1.77285E-03     41.7627E-03    -30.9176E+06    -94.6856E+06    -28.1274E+06     94.1069E+03    -15.2345E-03     30.4744E-03    -15.2399E-03     6.27112E-03    -15.2111E-03     30.0866E-03    -15.1984E-03     6.27129E-03
            1659     886.417E-06     41.7582E-03    -32.0655E+06    -97.7977E+06    -31.1922E+06     124.893E+03    -15.2263E-03     30.4582E-03    -15.2320E-03     3.38951E-03    -15.1996E-03     30.0610E-03    -15.1996E-03     3.39057E-03
            1660     16.8402E-03     41.3316E-03    -3.04742E+06     105.920E+06     50.9606E+06    -258.775E+03    -15.3502E-03     30.7637E-03    -15.4135E-03     33.1487E-03    -15.6967E-03     31.3276E-03    -15.3078E-03     33.1697E-03
            1661     15.9543E-03     41.2796E-03    -5.32963E+06     79.5266E+06     14.7488E+06     142.678E+03    -15.8148E-03     31.0931E-03    -15.2783E-03     60.3449E-03    -16.1384E-03     31.6373E-03    -15.3121E-03     60.3527E-03
            1662     15.0671E-03     41.2205E-03    -5.94092E+06     24.6208E+06    -2.30771E+06     255.366E+03    -16.0717E-03     31.3489E-03    -15.2771E-03     60.1426E-03    -16.2373E-03     31.5875E-03    -15.3158E-03     60.1170E-03
            1663     14.1814E-03     41.1682E-03    -5.91510E+06    -9.32485E+06    -60.7948E+03     302.386E+03    -16.0713E-03     31.4070E-03    -15.3357E-03     54.1845E-03    -16.1463E-03     31.4281E-03    -15.3139E-03     54.1542E-03
            1664     13.2948E-03     41.1199E-03    -6.48459E+06    -22.3090E+06     4.41848E+06     70.5507E+03    -16.0280E-03     31.3994E-03    -15.3714E-03     49.8863E-03    -16.0702E-03     31.3266E-03    -15.3075E-03     49.8570E-03
            1665     12.4087E-03     41.0753E-03    -7.27336E+06    -34.7875E+06     4.47173E+06     12.0091E+03    -16.0338E-03     31.4133E-03    -15.3795E-03     46.0996E-03    -16.0494E-03     31.2667E-03    -15.2962E-03     46.0743E-03
            1666     11.5226E-03     41.0339E-03    -8.18848E+06    -47.3073E+06     4.22986E+06     79.8398E+03    -16.0014E-03     31.3825E-03    -15.3810E-03     42.6829E-03    -15.9956E-03     31.1673E-03    -15.2794E-03     42.6631E-03
            1667     10.6364E-03     40.9954E-03    -9.34442E+06    -51.6891E+06     6.69228E+06     114.343E+03    -15.9021E-03     31.2842E-03    -15.3821E-03     39.3184E-03    -15.8942E-03     31.0403E-03    -15.2602E-03     39.3032E-03
            1668     9.75026E-03     40.9603E-03    -10.7611E+06    -53.8457E+06     6.92959E+06     341.268E+03    -15.7872E-03     31.1565E-03    -15.3693E-03     35.8791E-03    -15.7802E-03     30.9001E-03    -15.2410E-03     35.8703E-03
            1669     8.86402E-03     40.9282E-03    -12.6414E+06    -59.0934E+06     6.05282E+06     182.946E+03    -15.6772E-03     31.0343E-03    -15.3572E-03     32.3798E-03    -15.6684E-03     30.7534E-03    -15.2229E-03     32.3717E-03
            1670     7.97775E-03     40.8996E-03    -14.7246E+06    -62.5261E+06     4.88695E+06     71.9597E+03    -15.5810E-03     30.9231E-03    -15.3421E-03     28.8875E-03    -15.5744E-03     30.6281E-03    -15.2057E-03     28.8802E-03
            1671     7.09146E-03     40.8739E-03    -17.0347E+06    -65.1206E+06     2.29727E+06     259.046E+03    -15.4824E-03     30.8026E-03    -15.3202E-03     25.4535E-03    -15.4787E-03     30.5006E-03    -15.1896E-03     25.4503E-03
            1672     6.20512E-03     40.8517E-03    -19.6369E+06    -70.2145E+06    -1.70771E+06     190.219E+03    -15.3967E-03     30.6940E-03    -15.2973E-03     22.0787E-03    -15.3921E-03     30.3754E-03    -15.1756E-03     22.0761E-03
            1673     5.31873E-03     40.8324E-03    -22.3983E+06    -75.0810E+06    -6.59788E+06     118.051E+03    -15.3242E-03     30.5963E-03    -15.2722E-03     18.7756E-03    -15.3187E-03     30.2640E-03    -15.1638E-03     18.7731E-03
            1674     4.43232E-03     40.8162E-03    -24.9346E+06    -79.5343E+06    -12.0144E+06     121.935E+03    -15.2649E-03     30.5108E-03    -15.2460E-03     15.5438E-03    -15.2574E-03     30.1674E-03    -15.1545E-03     15.5424E-03
            1675     3.54587E-03     40.8030E-03    -27.2376E+06    -84.6710E+06    -17.8511E+06      38.061E+03    -15.2231E-03     30.4438E-03    -15.2206E-03     12.3771E-03    -15.2110E-03     30.0862E-03    -15.1476E-03     12.3754E-03
            1676     2.65943E-03     40.7929E-03    -29.3811E+06    -89.7514E+06    -23.5955E+06     85.3634E+03    -15.1942E-03     30.3917E-03    -15.1976E-03     9.27116E-03    -15.1769E-03     30.0200E-03    -15.1428E-03     9.27067E-03
            1677     1.77294E-03     40.7855E-03    -31.0719E+06    -94.7516E+06    -28.1864E+06     118.844E+03    -15.1782E-03     30.3594E-03    -15.1811E-03     6.22981E-03    -15.1554E-03     29.9716E-03    -15.1396E-03     6.23032E-03
            1678     886.489E-06     40.7811E-03    -32.1896E+06    -97.7392E+06    -31.2894E+06     48.1331E+03    -15.1678E-03     30.3381E-03    -15.1703E-03     3.37336E-03    -15.1417E-03     29.9415E-03    -15.1384E-03     3.37343E-03
            1679     16.8402E-03     40.3542E-03    -3.16467E+06     105.550E+06     50.3987E+06    -80.2197E+03    -15.1551E-03     30.5905E-03    -15.4354E-03     33.7087E-03    -15.5022E-03     31.1550E-03    -15.3319E-03     33.7321E-03
            1680     15.9529E-03     40.3014E-03    -5.77154E+06     79.1117E+06     13.7617E+06         693.828    -16.0744E-03     31.3723E-03    -15.2979E-03     60.3336E-03    -16.3993E-03     31.9176E-03    -15.3354E-03     60.3378E-03
            1681     15.0676E-03     40.2426E-03    -6.44439E+06     24.7211E+06    -2.76780E+06     207.818E+03    -16.3214E-03     31.6063E-03    -15.2849E-03     59.9969E-03    -16.4893E-03     31.8471E-03    -15.3252E-03     59.9695E-03
            1682     14.1809E-03     40.1902E-03    -6.70805E+06    -9.30939E+06    -462.628E+03    -23.2127E+03    -16.2267E-03     31.5585E-03    -15.3318E-03     54.0290E-03    -16.3052E-03     31.5815E-03    -15.3109E-03     53.9939E-03
            1683     13.2951E-03     40.1421E-03    -6.80258E+06    -22.0509E+06     4.27356E+06    -91.3101E+03    -16.1547E-03     31.5125E-03    -15.3578E-03     49.8073E-03    -16.1987E-03     31.4416E-03    -15.2946E-03     49.7756E-03
            1684     12.4090E-03     40.0974E-03    -7.47376E+06    -35.1531E+06     4.10376E+06     18.2814E+03    -16.1126E-03     31.4697E-03    -15.3571E-03     45.9431E-03    -16.1282E-03     31.3221E-03    -15.2748E-03     45.9177E-03
            1685     11.5229E-03     40.0560E-03    -8.46510E+06    -47.5491E+06     3.99004E+06     63.7786E+03    -16.0205E-03     31.3740E-03    -15.3535E-03     42.5227E-03    -16.0152E-03     31.1583E-03    -15.2523E-03     42.5027E-03
            1686     10.6368E-03     40.0178E-03    -9.61196E+06    -51.8021E+06     6.42882E+06     90.5529E+03    -15.9082E-03     31.2589E-03    -15.3507E-03     39.2048E-03    -15.9011E-03     31.0151E-03    -15.2295E-03     39.1894E-03
            1687     9.75058E-03     39.9825E-03     -10.996E+06    -54.1766E+06     6.73528E+06     239.663E+03    -15.8032E-03     31.1376E-03    -15.3344E-03     35.7197E-03    -15.7966E-03     30.8801E-03    -15.2062E-03     35.7097E-03
            1688     8.86438E-03     39.9507E-03    -12.6580E+06    -58.7507E+06     6.19697E+06     318.705E+03    -15.6904E-03     31.0077E-03    -15.3173E-03     32.2294E-03    -15.6824E-03     30.7282E-03    -15.1828E-03     32.2231E-03
            1689     7.97812E-03     39.9219E-03    -14.7968E+06    -62.6664E+06     4.74378E+06     111.087E+03    -15.5713E-03     30.8681E-03    -15.2967E-03     28.7466E-03    -15.5647E-03     30.5726E-03    -15.1607E-03     28.7398E-03
            1690     7.09181E-03     39.8966E-03    -17.0311E+06    -65.3753E+06     2.22034E+06     162.314E+03    -15.4617E-03     30.7330E-03    -15.2713E-03     25.3164E-03    -15.4576E-03     30.4298E-03    -15.1407E-03     25.3120E-03
            1691     6.20543E-03     39.8742E-03    -19.4423E+06    -70.1891E+06    -1.44307E+06     355.929E+03    -15.3693E-03     30.6149E-03    -15.2457E-03     21.9475E-03    -15.3641E-03     30.2958E-03    -15.1229E-03     21.9470E-03
            1692     5.31904E-03     39.8552E-03    -22.1359E+06    -75.0119E+06    -6.30263E+06     255.393E+03    -15.2866E-03     30.5037E-03    -15.2171E-03     18.6558E-03    -15.2804E-03     30.1709E-03    -15.1077E-03     18.6552E-03
            1693     4.43257E-03     39.8390E-03    -24.8504E+06    -79.4974E+06    -11.9542E+06     26.3379E+03    -15.2192E-03     30.4062E-03    -15.1870E-03     15.4435E-03    -15.2114E-03     30.0627E-03    -15.0955E-03     15.4409E-03
            1694     3.54611E-03     39.8259E-03    -27.3953E+06    -84.8234E+06    -17.8795E+06     49.4598E+03    -15.1697E-03     30.3291E-03    -15.1594E-03     12.2922E-03    -15.1581E-03     29.9709E-03    -15.0860E-03     12.2906E-03
            1695     2.65958E-03     39.8157E-03    -29.6015E+06    -89.8742E+06    -23.6226E+06     120.836E+03    -15.1342E-03     30.2686E-03    -15.1344E-03     9.20630E-03    -15.1179E-03     29.8966E-03    -15.0793E-03     9.20628E-03
            1696     1.77308E-03     39.8085E-03    -31.3290E+06    -94.7139E+06    -28.3802E+06     105.191E+03    -15.1147E-03     30.2301E-03    -15.1155E-03     6.18711E-03    -15.0929E-03     29.8432E-03    -15.0746E-03     6.18746E-03
            1697     886.526E-06     39.8040E-03    -32.4652E+06    -97.7427E+06    -31.6355E+06    -4.14844E+03    -15.1009E-03     30.2045E-03    -15.1036E-03     3.34588E-03    -15.0756E-03     29.8088E-03    -15.0730E-03     3.34529E-03
            1698     16.8383E-03     39.3751E-03    -3.22511E+06     105.338E+06     50.1034E+06     537.174E+03    -15.1401E-03     30.5876E-03    -15.4475E-03     33.8099E-03    -15.4865E-03     31.1512E-03    -15.3451E-03     33.8404E-03
            1699     15.9537E-03     39.3235E-03    -6.34113E+06     79.0272E+06     13.3084E+06     541.761E+03    -16.3574E-03     31.6593E-03    -15.3019E-03     59.5366E-03    -16.6831E-03     32.2045E-03    -15.3408E-03     59.5452E-03
            1700     15.0669E-03     39.2642E-03    -6.91866E+06     24.9994E+06    -2.77944E+06    -321.766E+03    -16.4491E-03     31.7264E-03    -15.2773E-03     59.2612E-03    -16.6192E-03     31.9688E-03    -15.3175E-03     59.2263E-03
            1701     14.1816E-03     39.2125E-03    -6.45475E+06    -9.25014E+06    -333.911E+03    -513.114E+03    -16.2906E-03     31.6074E-03    -15.3168E-03     53.7316E-03    -16.3679E-03     31.6299E-03    -15.2957E-03     53.6901E-03
            1702     13.2952E-03     39.1640E-03    -6.87673E+06    -22.4427E+06     4.00881E+06    -158.665E+03    -16.2500E-03     31.5851E-03    -15.3352E-03     49.6296E-03    -16.2934E-03     31.5128E-03    -15.2726E-03     49.5968E-03
            1703     12.4094E-03     39.1194E-03    -7.59526E+06    -35.3333E+06     3.98992E+06     35.2349E+03    -16.1405E-03     31.4693E-03    -15.3288E-03     45.7770E-03    -16.1561E-03     31.3209E-03    -15.2466E-03     45.7519E-03
            1704     11.5232E-03     39.0783E-03     -8.4851E+06    -47.6104E+06     3.96848E+06     80.7400E+03    -16.0382E-03     31.3593E-03    -15.3212E-03     42.3823E-03    -16.0328E-03     31.1433E-03    -15.2200E-03     42.3626E-03
            1705     10.6371E-03     39.0399E-03    -9.68044E+06    -51.8999E+06     6.38887E+06     76.7181E+03    -15.9235E-03     31.2376E-03    -15.3141E-03     39.0609E-03    -15.9164E-03     30.9934E-03    -15.1928E-03     39.0453E-03
            1706     9.75099E-03     39.0050E-03    -11.1337E+06    -54.4207E+06     6.53231E+06     100.958E+03    -15.8094E-03     31.1021E-03    -15.2927E-03     35.5691E-03    -15.8027E-03     30.8438E-03    -15.1650E-03     35.5573E-03
            1707     8.86479E-03     38.9730E-03    -12.8051E+06    -58.9279E+06     6.15557E+06     277.581E+03    -15.6911E-03     30.9626E-03    -15.2716E-03     32.0656E-03    -15.6834E-03     30.6825E-03    -15.1368E-03     32.0588E-03
            1708     7.97854E-03     38.9446E-03    -14.8633E+06    -62.4060E+06     4.80798E+06     298.569E+03    -15.5581E-03     30.8041E-03    -15.2460E-03     28.5872E-03    -15.5522E-03     30.5100E-03    -15.1099E-03     28.5829E-03
            1709     7.09219E-03     38.9191E-03    -17.3537E+06    -65.6796E+06     1.96674E+06     143.671E+03    -15.4359E-03     30.6518E-03    -15.2159E-03     25.1718E-03    -15.4325E-03     30.3480E-03    -15.0857E-03     25.1672E-03
            1710     6.20582E-03     38.8970E-03    -19.8069E+06    -70.3502E+06    -1.66061E+06     250.775E+03    -15.3334E-03     30.5199E-03    -15.1865E-03     21.8050E-03    -15.3295E-03     30.2008E-03    -15.0641E-03     21.8032E-03
            1711     5.31935E-03     38.8779E-03    -22.2240E+06    -74.7620E+06    -6.29339E+06     243.022E+03    -15.2428E-03     30.3973E-03    -15.1545E-03     18.5299E-03    -15.2374E-03     30.0658E-03    -15.0453E-03     18.5292E-03
            1712     4.43288E-03     38.8619E-03    -24.8426E+06    -79.5547E+06    -11.8740E+06     185.206E+03    -15.1674E-03     30.2893E-03    -15.1219E-03     15.3294E-03    -15.1597E-03     29.9454E-03    -15.0299E-03     15.3289E-03
            1713     3.54632E-03     38.8489E-03    -27.4851E+06    -84.9023E+06    -17.9053E+06     144.441E+03    -15.1095E-03     30.2008E-03    -15.0912E-03     12.1968E-03    -15.0983E-03     29.8424E-03    -15.0178E-03     12.1965E-03
            1714     2.65979E-03     38.8388E-03    -29.7463E+06    -89.9610E+06    -23.6702E+06     110.640E+03    -15.0692E-03     30.1333E-03    -15.0641E-03     9.13110E-03    -15.0533E-03     29.7611E-03    -15.0089E-03     9.13098E-03
            1715     1.77318E-03     38.8315E-03    -31.4878E+06    -94.6525E+06    -28.5432E+06     99.5643E+03    -15.0439E-03     30.0868E-03    -15.0429E-03     6.13563E-03    -15.0228E-03     29.7007E-03    -15.0027E-03     6.13592E-03
            1716     886.615E-06     38.8271E-03    -32.6368E+06    -97.7625E+06    -31.8511E+06     38.3648E+03    -15.0302E-03     30.0583E-03    -15.0281E-03     3.31234E-03    -15.0055E-03     29.6630E-03    -14.9983E-03     3.31231E-03
            1717     16.8406E-03     38.3982E-03    -3.93348E+06     105.130E+06     51.4823E+06     1.03752E+06    -15.4231E-03     30.8511E-03    -15.4280E-03     33.6976E-03    -15.7733E-03     31.4113E-03    -15.3174E-03     33.7347E-03
            1718     15.9531E-03     38.3437E-03    -4.96258E+06     79.9682E+06     16.3838E+06     214.415E+03    -16.1353E-03     31.4183E-03    -15.2830E-03     59.0910E-03    -16.4579E-03     31.9597E-03    -15.3098E-03     59.0967E-03
            1719     15.0685E-03     38.2869E-03    -5.04648E+06     25.2680E+06    -1.87315E+06    -836.276E+03    -16.4049E-03     31.6581E-03    -15.2531E-03     58.7931E-03    -16.5668E-03     31.8971E-03    -15.2918E-03     58.7518E-03
            1720     14.1814E-03     38.2341E-03    -5.56943E+06    -9.60553E+06    -82.4402E+03    -113.912E+03    -16.3083E-03     31.5989E-03    -15.2907E-03     53.7158E-03    -16.3808E-03     31.6179E-03    -15.2691E-03     53.6794E-03
            1721     13.2960E-03     38.1861E-03    -6.65124E+06    -22.6826E+06     4.19348E+06     109.365E+03    -16.2411E-03     31.5486E-03    -15.3076E-03     49.4966E-03    -16.2831E-03     31.4744E-03    -15.2441E-03     49.4673E-03
            1722     12.4096E-03     38.1416E-03    -7.60841E+06    -35.3598E+06     4.02889E+06     39.8946E+03    -16.1571E-03     31.4551E-03    -15.2980E-03     45.6727E-03    -16.1726E-03     31.3064E-03    -15.2156E-03     45.6477E-03
            1723     11.5237E-03     38.1005E-03    -8.46232E+06    -47.5815E+06     4.04295E+06     102.173E+03    -16.0799E-03     31.3655E-03    -15.2856E-03     42.2454E-03    -16.0745E-03     31.1494E-03    -15.1841E-03     42.2260E-03
            1724     10.6376E-03     38.0623E-03    -9.63139E+06    -51.9806E+06     6.32129E+06     96.0690E+03    -15.9466E-03     31.2186E-03    -15.2720E-03     38.9226E-03    -15.9389E-03     30.9739E-03    -15.1510E-03     38.9073E-03
            1725     9.75145E-03     38.0273E-03    -11.1621E+06    -54.6318E+06     6.37538E+06     87.8482E+03    -15.8131E-03     31.0584E-03    -15.2452E-03     35.4164E-03    -15.8061E-03     30.7992E-03    -15.1180E-03     35.4044E-03
            1726     8.86525E-03     37.9956E-03    -12.9085E+06    -59.2185E+06     5.98277E+06     218.882E+03    -15.6810E-03     30.9006E-03    -15.2196E-03     31.8872E-03    -15.6731E-03     30.6194E-03    -15.0851E-03     31.8798E-03
            1727     7.97897E-03     37.9671E-03    -14.9480E+06    -62.4194E+06     4.83134E+06     393.030E+03    -15.5424E-03     30.7324E-03    -15.1900E-03     28.4097E-03    -15.5369E-03     30.4382E-03    -15.0536E-03     28.4067E-03
            1728     7.09264E-03     37.9419E-03    -17.3374E+06    -65.6157E+06     2.03635E+06     396.227E+03    -15.4103E-03     30.5654E-03    -15.1550E-03     24.9981E-03    -15.4070E-03     30.2617E-03    -15.0246E-03     24.9969E-03
            1729     6.20620E-03     37.9198E-03    -20.0290E+06    -70.3830E+06    -1.91004E+06     151.470E+03    -15.2928E-03     30.4130E-03    -15.1202E-03     21.6478E-03    -15.2896E-03     30.0944E-03    -14.9987E-03     21.6448E-03
            1730     5.31974E-03     37.9009E-03    -22.6643E+06    -74.8010E+06    -6.64163E+06     126.264E+03    -15.1928E-03     30.2770E-03    -15.0843E-03     18.3849E-03    -15.1890E-03     29.9465E-03    -14.9761E-03     18.3827E-03
            1731     4.43318E-03     37.8849E-03    -25.2028E+06    -79.6278E+06    -12.0221E+06     189.773E+03    -15.1093E-03     30.1583E-03    -15.0490E-03     15.1966E-03    -15.1030E-03     29.8147E-03    -14.9571E-03     15.1961E-03
            1732     3.54662E-03     37.8720E-03    -27.6041E+06    -84.8463E+06    -17.9197E+06     178.158E+03    -15.0443E-03     30.0596E-03    -15.0153E-03     12.0845E-03    -15.0337E-03     29.7017E-03    -14.9418E-03     12.0846E-03
            1733     2.65997E-03     37.8620E-03    -29.8055E+06    -90.0086E+06    -23.7715E+06     125.109E+03    -14.9969E-03     29.9820E-03    -14.9851E-03     9.04246E-03    -14.9811E-03     29.6098E-03    -14.9303E-03     9.04254E-03
            1734     1.77335E-03     37.8548E-03    -31.5499E+06    -94.6204E+06    -28.5694E+06     75.4628E+03    -14.9652E-03     29.9277E-03    -14.9625E-03     6.07474E-03    -14.9444E-03     29.5419E-03    -14.9224E-03     6.07472E-03
            1735     886.657E-06     37.8504E-03    -32.6876E+06    -97.7719E+06    -31.8090E+06     16.7354E+03    -14.9474E-03     29.8965E-03    -14.9491E-03     3.28565E-03    -14.9229E-03     29.5012E-03    -14.9190E-03     3.28534E-03
            1736     16.8407E-03     37.4201E-03    -3.63092E+06     105.237E+06     51.6990E+06    -122.142E+03    -15.8065E-03     31.1989E-03    -15.3924E-03     33.3068E-03    -16.1550E-03     31.7582E-03    -15.2812E-03     33.3283E-03
            1737     15.9552E-03     37.3663E-03    -2.94448E+06     80.8533E+06     17.5527E+06    -303.461E+03    -15.7285E-03     30.9768E-03    -15.2483E-03     59.5489E-03    -16.0426E-03     31.5166E-03    -15.2736E-03     59.5504E-03
            1738     15.0674E-03     37.3084E-03    -4.47474E+06     25.0550E+06    -1.82960E+06     329.813E+03    -16.2810E-03     31.5120E-03    -15.2310E-03     59.1853E-03    -16.4388E-03     31.7481E-03    -15.2699E-03     59.1597E-03
            1739     14.1827E-03     37.2564E-03    -5.76292E+06    -10.1132E+06    -450.715E+03     457.161E+03    -16.4541E-03     31.7203E-03    -15.2662E-03     53.7180E-03    -16.5266E-03     31.7378E-03    -15.2455E-03     53.6884E-03
            1740     13.2959E-03     37.2080E-03    -6.33693E+06    -22.7271E+06     4.26804E+06     346.018E+03    -16.2619E-03     31.5388E-03    -15.2769E-03     49.4119E-03    -16.3022E-03     31.4636E-03    -15.2135E-03     49.3857E-03
            1741     12.4102E-03     37.1637E-03    -7.33559E+06    -35.0641E+06     4.19513E+06     242.247E+03    -16.1831E-03     31.4465E-03    -15.2634E-03     45.5086E-03    -16.1978E-03     31.2985E-03    -15.1810E-03     45.4863E-03
            1742     11.5241E-03     37.1226E-03    -8.48616E+06    -47.7860E+06     3.86022E+06     107.830E+03    -16.1066E-03     31.3520E-03    -15.2455E-03     42.1021E-03    -16.1006E-03     31.1351E-03    -15.1446E-03     42.0828E-03
            1743     10.6381E-03     37.0846E-03    -9.71910E+06    -51.9408E+06     6.22697E+06     175.046E+03    -15.9804E-03     31.2064E-03    -15.2260E-03     38.7485E-03    -15.9731E-03     30.9621E-03    -15.1054E-03     38.7343E-03
            1744     9.75196E-03     37.0497E-03    -11.2186E+06    -54.7579E+06     6.24574E+06     137.241E+03    -15.8233E-03     31.0160E-03    -15.1928E-03     35.2378E-03    -15.8160E-03     30.7565E-03    -15.0659E-03     35.2266E-03
            1745     8.86577E-03     37.0181E-03    -13.0199E+06    -59.4418E+06     5.83422E+06     238.696E+03    -15.6727E-03     30.8345E-03    -15.1617E-03     31.6865E-03    -15.6648E-03     30.5524E-03    -15.0275E-03     31.6794E-03
            1746     7.97948E-03     36.9898E-03    -15.0640E+06    -62.6385E+06     4.74127E+06     377.665E+03    -15.5232E-03     30.6503E-03    -15.1271E-03     28.2134E-03    -15.5178E-03     30.3553E-03    -14.9908E-03     28.2102E-03
            1747     7.09310E-03     36.9647E-03    -17.2696E+06    -65.4995E+06     2.11118E+06     399.842E+03    -15.3808E-03     30.4679E-03    -15.0871E-03     24.7954E-03    -15.3774E-03     30.1646E-03    -14.9565E-03     24.7942E-03
            1748     6.20667E-03     36.9428E-03    -19.7294E+06    -70.2097E+06    -1.66279E+06     337.021E+03    -15.2535E-03     30.3012E-03    -15.0477E-03     21.4589E-03    -15.2494E-03     29.9826E-03    -14.9256E-03     21.4584E-03
            1749     5.32013E-03     36.9239E-03    -22.5533E+06    -74.8949E+06    -6.57997E+06     197.976E+03    -15.1409E-03     30.1476E-03    -15.0067E-03     18.2063E-03    -15.1365E-03     29.8163E-03    -14.8983E-03     18.2050E-03
            1750     4.43357E-03     36.9081E-03    -25.3169E+06    -79.6233E+06    -12.1785E+06     130.634E+03    -15.0450E-03     30.0113E-03    -14.9663E-03     15.0404E-03    -15.0390E-03     29.6681E-03    -14.8751E-03     15.0392E-03
            1751     3.54689E-03     36.8952E-03    -27.8573E+06    -84.8996E+06    -18.1211E+06     118.964E+03    -14.9702E-03     29.8993E-03    -14.9291E-03     11.9530E-03    -14.9604E-03     29.5418E-03    -14.8562E-03     11.9524E-03
            1752     2.66024E-03     36.8853E-03    -30.0371E+06    -89.9786E+06    -23.9267E+06     120.615E+03    -14.9144E-03     29.8105E-03    -14.8961E-03     8.93975E-03    -14.8996E-03     29.4390E-03    -14.8417E-03     8.93979E-03
            1753     1.77348E-03     36.8782E-03    -31.7729E+06    -94.5851E+06    -28.7833E+06     43.2600E+03    -14.8769E-03     29.7479E-03    -14.8710E-03     6.00241E-03    -14.8569E-03     29.3629E-03    -14.8317E-03     6.00200E-03
            1754     886.768E-06     36.8738E-03    -32.9011E+06    -97.8316E+06    -32.0685E+06    -57.8553E+03    -14.8558E-03     29.7119E-03    -14.8560E-03     3.24672E-03    -14.8320E-03     29.3170E-03    -14.8268E-03     3.24546E-03
            1755     16.8418E-03     36.4408E-03    -3.04714E+06     105.000E+06     50.4601E+06    -777.935E+03    -15.7115E-03     31.0931E-03    -15.3817E-03     33.0581E-03    -16.0555E-03     31.6528E-03    -15.2772E-03     33.0697E-03
            1756     15.9542E-03     36.3902E-03    -5.08672E+06     79.7969E+06     14.4891E+06     64.6452E+03    -15.9875E-03     31.2163E-03    -15.2288E-03     59.9588E-03    -16.3073E-03     31.7593E-03    -15.2647E-03     59.9629E-03
            1757     15.0686E-03     36.3297E-03    -6.30052E+06     24.6405E+06    -2.81122E+06     898.676E+03    -16.3513E-03     31.5621E-03    -15.2108E-03     59.5350E-03    -16.5163E-03     31.8003E-03    -15.2514E-03     59.5164E-03
            1758     14.1819E-03     36.2783E-03    -6.37810E+06    -10.0079E+06    -706.744E+03     523.149E+03    -16.5141E-03     31.7558E-03    -15.2417E-03     53.3794E-03    -16.5894E-03     31.7750E-03    -15.2215E-03     53.3505E-03
            1759     13.2969E-03     36.2300E-03    -6.93484E+06    -22.6118E+06     3.89995E+06     309.135E+03    -16.3609E-03     31.6051E-03    -15.2443E-03     49.2542E-03    -16.4036E-03     31.5317E-03    -15.1819E-03     49.2275E-03
            1760     12.4106E-03     36.1859E-03    -7.71130E+06    -35.2383E+06     3.96840E+06     340.067E+03    -16.2130E-03     31.4374E-03    -15.2244E-03     45.3940E-03    -16.2289E-03     31.2893E-03    -15.1423E-03     45.3729E-03
            1761     11.5247E-03     36.1448E-03    -8.60901E+06    -47.6470E+06     3.80190E+06     273.355E+03    -16.1386E-03     31.3394E-03    -15.2008E-03     41.9346E-03    -16.1333E-03     31.1233E-03    -15.1002E-03     41.9176E-03
            1762     10.6386E-03     36.1069E-03    -9.84252E+06    -52.1300E+06     6.18300E+06     167.971E+03    -16.0011E-03     31.1766E-03    -15.1756E-03     38.5421E-03    -15.9939E-03     30.9315E-03    -15.0548E-03     38.5279E-03
            1763     9.75253E-03     36.0721E-03    -11.4195E+06    -54.7385E+06     6.22847E+06     270.601E+03    -15.8348E-03     30.9706E-03    -15.1358E-03     35.0148E-03    -15.8284E-03     30.7114E-03    -15.0088E-03     35.0054E-03
            1764     8.86632E-03     36.0407E-03    -13.2276E+06    -59.6410E+06     5.65966E+06     253.017E+03    -15.6703E-03     30.7680E-03    -15.0977E-03     31.4803E-03    -15.6628E-03     30.4855E-03    -14.9638E-03     31.4734E-03
            1765     7.98004E-03     36.0125E-03    -15.2205E+06    -62.7558E+06     4.60793E+06     313.015E+03    -15.5082E-03     30.5648E-03    -15.0566E-03     27.9877E-03    -15.5032E-03     30.2696E-03    -14.9205E-03     27.9838E-03
            1766     7.09366E-03     35.9876E-03    -17.5295E+06    -65.4880E+06     1.93361E+06     340.768E+03    -15.3476E-03     30.3577E-03    -15.0101E-03     24.5709E-03    -15.3453E-03     30.0550E-03    -14.8801E-03     24.5691E-03
            1767     6.20717E-03     35.9658E-03    -20.0571E+06    -70.2122E+06    -1.82856E+06     374.236E+03    -15.2096E-03     30.1745E-03    -14.9649E-03     21.2408E-03    -15.2068E-03     29.8565E-03    -14.8431E-03     21.2408E-03
            1768     5.32063E-03     35.9471E-03    -22.6314E+06    -74.7629E+06    -6.63261E+06     344.707E+03    -15.0821E-03     30.0003E-03    -14.9182E-03     18.0034E-03    -15.0782E-03     29.6699E-03    -14.8101E-03     18.0041E-03
            1769     4.43395E-03     35.9314E-03    -25.3668E+06    -79.5951E+06    -12.3103E+06     229.197E+03    -14.9728E-03     29.8455E-03    -14.8727E-03     14.8611E-03    -14.9670E-03     29.5028E-03    -14.7820E-03     14.8612E-03
            1770     3.54727E-03     35.9187E-03    -27.9953E+06    -84.9217E+06    -18.3302E+06     169.336E+03    -14.8859E-03     29.7171E-03    -14.8313E-03     11.8016E-03    -14.8765E-03     29.3600E-03    -14.7592E-03     11.8017E-03
            1771     2.66047E-03     35.9088E-03    -30.3244E+06    -89.9821E+06    -24.1835E+06     121.503E+03    -14.8208E-03     29.6159E-03    -14.7951E-03     8.82138E-03    -14.8071E-03     29.2452E-03    -14.7416E-03     8.82146E-03
            1772     1.77370E-03     35.9018E-03    -32.1381E+06    -94.4790E+06    -29.2404E+06     55.9581E+03    -14.7779E-03     29.5441E-03    -14.7663E-03     5.92097E-03    -14.7592E-03     29.1608E-03    -14.7289E-03     5.92073E-03
            1773     886.833E-06     35.8974E-03    -33.2949E+06    -97.9710E+06    -32.5936E+06    -31.6239E+03    -14.7533E-03     29.5006E-03    -14.7473E-03     3.20422E-03    -14.7304E-03     29.1063E-03    -14.7200E-03     3.20331E-03
            1774     16.8391E-03     35.4632E-03    -3.14871E+06     104.734E+06     50.9716E+06    -238.430E+03    -15.5872E-03     30.9715E-03    -15.3842E-03     32.0621E-03    -15.9310E-03     31.5280E-03    -15.2767E-03     32.0799E-03
            1775     15.9548E-03     35.4108E-03    -6.34202E+06     78.1794E+06     14.2770E+06     118.773E+03    -16.2636E-03     31.4893E-03    -15.2257E-03     59.3214E-03    -16.5876E-03     32.0269E-03    -15.2585E-03     59.3245E-03
            1776     15.0687E-03     35.3526E-03    -6.64908E+06     24.5531E+06    -2.58337E+06     503.296E+03    -16.5607E-03     31.7518E-03    -15.1911E-03     59.6466E-03    -16.7287E-03     31.9908E-03    -15.2300E-03     59.6219E-03
            1777     14.1832E-03     35.2995E-03    -6.90417E+06    -9.55303E+06    -486.655E+03     348.277E+03    -16.4918E-03     31.7062E-03    -15.2144E-03     53.3982E-03    -16.5703E-03     31.7277E-03    -15.1930E-03     53.3672E-03
            1778     13.2968E-03     35.2524E-03    -7.41889E+06    -22.6496E+06     3.80728E+06     188.824E+03    -16.4146E-03     31.6273E-03    -15.2127E-03     49.0614E-03    -16.4595E-03     31.5543E-03    -15.1500E-03     49.0330E-03
            1779     12.4112E-03     35.2078E-03    -8.00256E+06    -35.3796E+06     4.00035E+06     197.541E+03    -16.3007E-03     31.4862E-03    -15.1855E-03     45.2997E-03    -16.3177E-03     31.3377E-03    -15.1026E-03     45.2768E-03
            1780     11.5252E-03     35.1672E-03    -8.69684E+06    -47.5807E+06     3.98674E+06     357.832E+03    -16.1871E-03     31.3407E-03    -15.1535E-03     41.7719E-03    -16.1824E-03     31.1246E-03    -15.0520E-03     41.7559E-03
            1781     10.6392E-03     35.1291E-03    -9.91557E+06    -52.1695E+06     6.16370E+06     318.894E+03    -16.0246E-03     31.1447E-03    -15.1201E-03     38.3462E-03    -16.0176E-03     30.8995E-03    -14.9993E-03     38.3340E-03
            1782     9.75313E-03     35.0947E-03    -11.4728E+06    -54.8366E+06     6.24411E+06     364.749E+03    -15.8500E-03     30.9234E-03    -15.0734E-03     34.7715E-03    -15.8437E-03     30.6637E-03    -14.9461E-03     34.7634E-03
            1783     8.86694E-03     35.0634E-03    -13.3233E+06    -59.5636E+06     5.59249E+06     346.159E+03    -15.6786E-03     30.7053E-03    -15.0268E-03     31.2283E-03    -15.6715E-03     30.4234E-03    -14.8931E-03     31.2228E-03
            1784     7.98067E-03     35.0354E-03    -15.4326E+06    -62.8850E+06     4.34741E+06     255.614E+03    -15.4946E-03     30.4717E-03    -14.9771E-03     27.7192E-03    -15.4900E-03     30.1765E-03    -14.8418E-03     27.7147E-03
            1785     7.09426E-03     35.0106E-03    -17.7470E+06    -65.5635E+06     1.76459E+06     393.145E+03    -15.3171E-03     30.2406E-03    -14.9234E-03     24.3125E-03    -15.3154E-03     29.9380E-03    -14.7938E-03     24.3114E-03
            1786     6.20776E-03     34.9890E-03    -20.3053E+06    -70.1950E+06    -2.11620E+06     384.109E+03    -15.1584E-03     30.0289E-03    -14.8705E-03     20.9906E-03    -15.1565E-03     29.7118E-03    -14.7499E-03     20.9908E-03
            1787     5.32113E-03     34.9705E-03    -22.9823E+06    -74.7092E+06    -6.91793E+06     322.359E+03    -15.0147E-03     29.8324E-03    -14.8177E-03     17.7727E-03    -15.0121E-03     29.5031E-03    -14.7107E-03     17.7732E-03
            1788     4.43445E-03     34.9549E-03    -25.5712E+06    -79.5204E+06    -12.4887E+06     308.863E+03    -14.8906E-03     29.6577E-03    -14.7670E-03     14.6564E-03    -14.8856E-03     29.3158E-03    -14.6771E-03     14.6576E-03
            1789     3.54763E-03     34.9423E-03    -28.1170E+06    -84.8876E+06    -18.5325E+06     266.590E+03    -14.7913E-03     29.5122E-03    -14.7209E-03     11.6303E-03    -14.7823E-03     29.1557E-03    -14.6497E-03     11.6316E-03
            1790     2.66080E-03     34.9325E-03    -30.3452E+06    -89.8489E+06    -24.3865E+06     166.841E+03    -14.7163E-03     29.3972E-03    -14.6808E-03     8.68842E-03    -14.7026E-03     29.0274E-03    -14.6285E-03     8.68911E-03
            1791     1.77387E-03     34.9255E-03    -32.0180E+06    -94.4754E+06    -29.1799E+06     32.6317E+03    -14.6658E-03     29.3168E-03    -14.6510E-03     5.83080E-03    -14.6467E-03     28.9332E-03    -14.6135E-03     5.83027E-03
            1792     886.968E-06     34.9213E-03    -33.0370E+06    -98.0269E+06    -32.3532E+06     75.9388E+03    -14.6352E-03     29.2700E-03    -14.6348E-03     3.15329E-03    -14.6113E-03     28.8747E-03    -14.6065E-03     3.15377E-03
            1793     16.8430E-03     34.4850E-03    -2.93430E+06     104.564E+06     50.2218E+06     267.768E+03    -15.7330E-03     31.1183E-03    -15.3853E-03     32.9437E-03    -16.0755E-03     31.6759E-03    -15.2815E-03     32.9680E-03
            1794     15.9547E-03     34.4332E-03    -5.58181E+06     78.5374E+06     14.4938E+06     735.591E+03    -16.4731E-03     31.6945E-03    -15.2213E-03     59.8705E-03    -16.7951E-03     32.2334E-03    -15.2546E-03     59.8810E-03
            1795     15.0691E-03     34.3736E-03    -6.28400E+06     24.6631E+06    -1.80587E+06     229.347E+03    -16.7204E-03     31.9003E-03    -15.1799E-03     59.7001E-03    -16.8879E-03     32.1383E-03    -15.2156E-03     59.6712E-03
            1796     14.1830E-03     34.3220E-03    -6.33867E+06    -9.65680E+06    -159.164E+03     94.8938E+03    -16.6105E-03     31.8021E-03    -15.1917E-03     53.4282E-03    -16.6861E-03     31.8214E-03    -15.1693E-03     53.3936E-03
            1797     13.2976E-03     34.2739E-03    -6.76359E+06    -22.7043E+06     4.11667E+06     238.572E+03    -16.4971E-03     31.6786E-03    -15.1815E-03     48.9857E-03    -16.5388E-03     31.6038E-03    -15.1182E-03     48.9578E-03
            1798     12.4116E-03     34.2301E-03    -7.60154E+06    -35.4697E+06     4.05217E+06     204.011E+03    -16.4051E-03     31.5496E-03    -15.1445E-03     45.0857E-03    -16.4200E-03     31.3999E-03    -15.0618E-03     45.0628E-03
            1799     11.5258E-03     34.1892E-03    -8.68073E+06    -47.8790E+06     3.89723E+06     319.925E+03    -16.2585E-03     31.3611E-03    -15.1025E-03     41.5707E-03    -16.2531E-03     31.1435E-03    -15.0010E-03     41.5542E-03
            1800     10.6399E-03     34.1516E-03    -9.86379E+06    -52.0682E+06     6.17270E+06     523.376E+03    -16.0732E-03     31.1326E-03    -15.0594E-03     38.0718E-03    -16.0660E-03     30.8876E-03    -14.9387E-03     38.0624E-03
            1801     9.75378E-03     34.1172E-03    -11.4336E+06    -54.9750E+06     6.08479E+06     435.809E+03    -15.8828E-03     30.8853E-03    -15.0026E-03     34.4960E-03    -15.8758E-03     30.6250E-03    -14.8758E-03     34.4889E-03
            1802     8.86767E-03     34.0861E-03    -13.2115E+06    -59.5262E+06     5.64667E+06     467.599E+03    -15.6900E-03     30.6369E-03    -14.9470E-03     30.9036E-03    -15.6825E-03     30.3548E-03    -14.8133E-03     30.8996E-03
            1803     7.98136E-03     34.0583E-03    -15.4304E+06    -62.8009E+06     4.26623E+06     434.521E+03    -15.4790E-03     30.3666E-03    -14.8876E-03     27.4069E-03    -15.4743E-03     30.0719E-03    -14.7528E-03     27.4048E-03
            1804     7.09497E-03     34.0338E-03    -17.8642E+06    -65.7554E+06     1.56524E+06     358.257E+03    -15.2831E-03     30.1085E-03    -14.8254E-03     24.0094E-03    -15.2814E-03     29.8054E-03    -14.6963E-03     24.0080E-03
            1805     6.20840E-03     34.0123E-03    -20.3225E+06    -70.0687E+06    -2.16918E+06     422.597E+03    -15.1019E-03     29.8665E-03    -14.7646E-03     20.7024E-03    -15.1001E-03     29.5501E-03    -14.6444E-03     20.7031E-03
            1806     5.32175E-03     33.9940E-03    -22.9395E+06    -74.6641E+06    -6.99619E+06     324.406E+03    -14.9383E-03     29.6432E-03    -14.7048E-03     17.5083E-03    -14.9355E-03     29.3141E-03    -14.5983E-03     17.5089E-03
            1807     4.43495E-03     33.9786E-03    -25.6383E+06    -79.5484E+06    -12.6011E+06     327.689E+03    -14.7981E-03     29.4464E-03    -14.6483E-03     14.4236E-03    -14.7933E-03     29.1047E-03    -14.5588E-03     14.4251E-03
            1808     3.54809E-03     33.9661E-03    -28.1572E+06    -84.7572E+06    -18.6031E+06     313.860E+03    -14.6851E-03     29.2820E-03    -14.5969E-03     11.4354E-03    -14.6763E-03     28.9263E-03    -14.5262E-03     11.4374E-03
            1809     2.66112E-03     33.9565E-03    -30.2903E+06    -89.6192E+06    -24.4244E+06     112.343E+03    -14.5989E-03     29.1515E-03    -14.5526E-03     8.53756E-03    -14.5852E-03     28.7829E-03    -14.5009E-03     8.53758E-03
            1810     1.77413E-03     33.9496E-03    -31.8891E+06    -94.5541E+06    -29.1029E+06     1.93966E+03    -14.5398E-03     29.0606E-03    -14.5208E-03     5.72303E-03    -14.5200E-03     28.6763E-03    -14.4830E-03     5.72213E-03
            1811     887.047E-06     33.9454E-03    -32.9948E+06    -98.0400E+06    -32.1303E+06     64.4847E+03    -14.5042E-03     29.0078E-03    -14.5036E-03     3.09564E-03    -14.4804E-03     28.6121E-03    -14.4742E-03     3.09599E-03
            1812     16.8373E-03     33.5055E-03    -3.80060E+06     103.738E+06     50.1211E+06     335.401E+03    -15.8016E-03     31.1997E-03    -15.3981E-03     32.8024E-03    -16.1468E-03     31.7543E-03    -15.2924E-03     32.8265E-03
            1813     15.9546E-03     33.4545E-03    -5.94877E+06     79.1323E+06     15.0803E+06     245.749E+03    -16.7875E-03     32.0111E-03    -15.2236E-03     59.2383E-03    -17.1126E-03     32.5522E-03    -15.2543E-03     59.2401E-03
            1814     15.0690E-03     33.3953E-03    -5.64201E+06     24.9078E+06    -1.77707E+06     37.7207E+03    -16.8859E-03     32.0494E-03    -15.1634E-03     59.2171E-03    -17.0499E-03     32.2869E-03    -15.2003E-03     59.1846E-03
            1815     14.1837E-03     33.3436E-03    -5.85787E+06    -10.1468E+06    -384.297E+03     73.7525E+03    -16.7231E-03     31.8882E-03    -15.1651E-03     53.1308E-03    -16.7948E-03     31.9042E-03    -15.1438E-03     53.0957E-03
            1816     13.2977E-03     33.2958E-03    -6.36626E+06    -22.7417E+06     4.09389E+06     368.349E+03    -16.6308E-03     31.7760E-03    -15.1453E-03     48.7722E-03    -16.6703E-03     31.7004E-03    -15.0826E-03     48.7458E-03
            1817     12.4122E-03     33.2520E-03    -7.44695E+06    -35.6740E+06     3.93232E+06     530.615E+03    -16.5001E-03     31.5974E-03    -15.0973E-03     44.7676E-03    -16.5136E-03     31.4464E-03    -15.0151E-03     44.7488E-03
            1818     11.5265E-03     33.2114E-03    -8.64531E+06    -47.8060E+06     3.84099E+06     490.769E+03    -16.3398E-03     31.3844E-03    -15.0446E-03     41.2416E-03    -16.3340E-03     31.1671E-03    -14.9435E-03     41.2273E-03
            1819     10.6406E-03     33.1740E-03    -9.86323E+06    -52.3602E+06     6.03187E+06     471.606E+03    -16.1390E-03     31.1291E-03    -14.9901E-03     37.7438E-03    -16.1310E-03     30.8828E-03    -14.8698E-03     37.7338E-03
            1820     9.75462E-03     33.1398E-03    -11.2578E+06    -54.8861E+06     6.16598E+06     581.096E+03    -15.9230E-03     30.8451E-03    -14.9221E-03     34.1375E-03    -15.9153E-03     30.5847E-03    -14.7953E-03     34.1323E-03
            1821     8.86845E-03     33.1089E-03    -13.1017E+06    -59.6875E+06     5.58456E+06     554.916E+03    -15.6911E-03     30.5467E-03    -14.8556E-03     30.5365E-03    -15.6826E-03     30.2636E-03    -14.7221E-03     30.5338E-03
            1822     7.98220E-03     33.0814E-03    -15.1769E+06    -62.6612E+06     4.44175E+06     621.037E+03    -15.4636E-03     30.2505E-03    -14.7870E-03     27.0492E-03    -15.4580E-03     29.9558E-03    -14.6519E-03     27.0495E-03
            1823     7.09573E-03     33.0570E-03    -17.6229E+06    -65.6981E+06     1.64066E+06     509.483E+03    -15.2414E-03     29.9563E-03    -14.7149E-03     23.6600E-03    -15.2387E-03     29.6530E-03    -14.5858E-03     23.6606E-03
            1824     6.20916E-03     33.0358E-03    -20.2539E+06    -70.0493E+06    -2.19172E+06     377.540E+03    -15.0362E-03     29.6816E-03    -14.6454E-03     20.3753E-03    -15.0340E-03     29.3652E-03    -14.5254E-03     20.3756E-03
            1825     5.32240E-03     33.0177E-03    -22.8789E+06    -74.5886E+06    -7.00387E+06     387.634E+03    -14.8523E-03     29.4303E-03    -14.5780E-03     17.2122E-03    -14.8493E-03     29.1016E-03    -14.4717E-03     17.2137E-03
            1826     4.43556E-03     33.0025E-03    -25.5509E+06    -79.6032E+06    -12.5567E+06     391.059E+03    -14.6954E-03     29.2104E-03    -14.5150E-03     14.1599E-03    -14.6900E-03     28.8682E-03    -14.4253E-03     14.1623E-03
            1827     3.54857E-03     32.9902E-03    -28.0328E+06    -84.4884E+06    -18.5071E+06     260.633E+03    -14.5656E-03     29.0231E-03    -14.4576E-03     11.2162E-03    -14.5567E-03     28.6685E-03    -14.3869E-03     11.2176E-03
            1828     2.66153E-03     32.9807E-03    -30.1224E+06    -89.4785E+06    -24.3212E+06     54.7012E+03    -14.4669E-03     28.8756E-03    -14.4087E-03     8.36662E-03    -14.4526E-03     28.5073E-03    -14.3569E-03     8.36591E-03
            1829     1.77437E-03     32.9739E-03    -31.7933E+06    -94.6368E+06    -29.0290E+06     5.41329E+03    -14.3995E-03     28.7728E-03    -14.3733E-03     5.60378E-03    -14.3792E-03     28.3879E-03    -14.3352E-03     5.60294E-03
            1830     887.222E-06     32.9697E-03    -32.8753E+06    -98.0601E+06    -32.1234E+06     33.5362E+03    -14.3581E-03     28.7089E-03    -14.3507E-03     3.03555E-03    -14.3338E-03     28.3128E-03    -14.3215E-03     3.03550E-03
            1831     16.8435E-03     32.5280E-03    -2.76764E+06     104.352E+06     50.6974E+06     409.635E+03    -16.0811E-03     31.4621E-03    -15.3810E-03     32.6313E-03    -16.4213E-03     32.0159E-03    -15.2748E-03     32.6546E-03
            1832     15.9549E-03     32.4749E-03    -4.38093E+06     79.0499E+06     15.2944E+06    -327.936E+03    -16.6874E-03     31.8868E-03    -15.1994E-03     58.9155E-03    -17.0029E-03     32.4229E-03    -15.2312E-03     58.9090E-03
            1833     15.0699E-03     32.4173E-03    -5.33205E+06     24.6117E+06    -2.04704E+06     58.3613E+03    -16.9724E-03     32.1099E-03    -15.1375E-03     58.7938E-03    -17.1333E-03     32.3452E-03    -15.1757E-03     58.7610E-03
            1834     14.1838E-03     32.3651E-03    -5.83063E+06    -10.2838E+06    -454.287E+03     366.862E+03    -16.8758E-03     32.0066E-03    -15.1308E-03     53.0043E-03    -16.9471E-03     32.0221E-03    -15.1097E-03     52.9725E-03
            1835     13.2986E-03     32.3177E-03    -6.74892E+06    -23.1500E+06     3.90950E+06     486.902E+03    -16.7669E-03     31.8660E-03    -15.0991E-03     48.3844E-03    -16.8073E-03     31.7889E-03    -15.0362E-03     48.3592E-03
            1836     12.4129E-03     32.2738E-03    -7.50855E+06    -35.5315E+06     4.04015E+06     678.060E+03    -16.5813E-03     31.6208E-03    -15.0396E-03     44.3590E-03    -16.5952E-03     31.4703E-03    -14.9570E-03     44.3420E-03
            1837     11.5272E-03     32.2337E-03    -8.38657E+06    -47.9143E+06     3.87100E+06     686.954E+03    -16.4056E-03     31.3812E-03    -14.9756E-03     40.8345E-03    -16.3983E-03     31.1628E-03    -14.8746E-03     40.8229E-03
            1838     10.6414E-03     32.1963E-03    -9.66174E+06    -52.2818E+06     6.14506E+06     554.394E+03    -16.1953E-03     31.1053E-03    -14.9099E-03     37.3693E-03    -16.1865E-03     30.8587E-03    -14.7894E-03     37.3603E-03
            1839     9.75550E-03     32.1624E-03    -11.2011E+06    -55.0721E+06     6.14010E+06     556.380E+03    -15.9511E-03     30.7812E-03    -14.8300E-03     33.7223E-03    -15.9427E-03     30.5197E-03    -14.7032E-03     33.7169E-03
            1840     8.86939E-03     32.1318E-03    -12.8835E+06    -59.5940E+06     5.70250E+06     692.164E+03    -15.6929E-03     30.4453E-03    -14.7524E-03     30.1335E-03    -15.6835E-03     30.1621E-03    -14.6188E-03     30.1327E-03
            1841     7.98308E-03     32.1045E-03    -14.9481E+06    -62.7817E+06     4.48613E+06     644.353E+03    -15.4405E-03     30.1133E-03    -14.6728E-03     26.6482E-03    -15.4336E-03     29.8175E-03    -14.5377E-03     26.6490E-03
            1842     7.09664E-03     32.0804E-03    -17.2146E+06    -65.4691E+06     1.89577E+06     674.889E+03    -15.1915E-03     29.7823E-03    -14.5908E-03     23.2655E-03    -15.1873E-03     29.4791E-03    -14.4615E-03     23.2684E-03
            1843     6.20997E-03     32.0595E-03    -19.8244E+06    -69.9646E+06    -1.98100E+06     542.977E+03    -14.9615E-03     29.4736E-03    -14.5121E-03     20.0103E-03    -14.9576E-03     29.1567E-03    -14.3918E-03     20.0128E-03
            1844     5.32318E-03     32.0416E-03    -22.6452E+06    -74.6262E+06    -6.79898E+06     508.865E+03    -14.7575E-03     29.1942E-03    -14.4367E-03     16.8770E-03    -14.7535E-03     28.8646E-03    -14.3296E-03     16.8800E-03
            1845     4.43621E-03     32.0266E-03    -25.3343E+06    -79.3966E+06    -12.3855E+06     417.455E+03    -14.5787E-03     28.9443E-03    -14.3657E-03     13.8680E-03    -14.5728E-03     28.6026E-03    -14.2757E-03     13.8708E-03
            1846     3.54914E-03     32.0145E-03    -27.7694E+06    -84.2697E+06    -18.4305E+06     200.553E+03    -14.4311E-03     28.7325E-03    -14.3014E-03     10.9751E-03    -14.4213E-03     28.3785E-03    -14.2311E-03     10.9758E-03
            1847     2.66193E-03     32.0051E-03    -29.9126E+06    -89.4092E+06    -24.2867E+06     96.3415E+03    -14.3177E-03     28.5658E-03    -14.2481E-03     8.18066E-03    -14.3026E-03     28.1975E-03    -14.1966E-03     8.18053E-03
            1848     1.77468E-03     31.9985E-03    -31.6098E+06    -94.7156E+06    -28.8945E+06     55.5523E+03    -14.2418E-03     28.4520E-03    -14.2103E-03     5.47925E-03    -14.2207E-03     28.0663E-03    -14.1716E-03     5.47908E-03
            1849     887.337E-06     31.9944E-03    -32.7873E+06    -98.0370E+06    -31.9830E+06     91.0101E+03    -14.1929E-03     28.3796E-03    -14.1867E-03     2.96616E-03    -14.1684E-03     27.9834E-03    -14.1569E-03     2.96687E-03
            1850     16.8389E-03     31.5493E-03    -2.45908E+06     104.361E+06     50.3116E+06     2.66963E+03    -16.3898E-03     31.7564E-03    -15.3666E-03     32.9848E-03    -16.7281E-03     32.3106E-03    -15.2628E-03     33.0006E-03
            1851     15.9557E-03     31.4965E-03    -3.72887E+06     78.7640E+06     14.9065E+06     433.128E+03    -16.8273E-03     31.9998E-03    -15.1725E-03     59.0429E-03    -17.1378E-03     32.5334E-03    -15.2067E-03     59.0445E-03
            1852     15.0696E-03     31.4386E-03    -5.47985E+06     24.3000E+06    -2.08544E+06     428.063E+03    -17.0398E-03     32.1459E-03    -15.1061E-03     58.5340E-03    -17.2005E-03     32.3795E-03    -15.1438E-03     58.5058E-03
            1853     14.1848E-03     31.3867E-03    -6.38046E+06    -10.0276E+06    -475.612E+03     647.569E+03    -17.0632E-03     32.1518E-03    -15.0886E-03     52.6936E-03    -17.1376E-03     32.1693E-03    -15.0672E-03     52.6649E-03
            1854     13.2992E-03     31.3392E-03    -6.97658E+06    -23.6089E+06     3.66579E+06     560.604E+03    -16.8666E-03     31.9099E-03    -15.0433E-03     48.0807E-03    -16.9067E-03     31.8308E-03    -14.9807E-03     48.0564E-03
            1855     12.4138E-03     31.2959E-03    -7.54193E+06    -35.7801E+06     3.83507E+06     551.190E+03    -16.6773E-03     31.6493E-03    -14.9720E-03     44.0620E-03    -16.6905E-03     31.4976E-03    -14.8900E-03     44.0434E-03
            1856     11.5282E-03     31.2557E-03    -8.20597E+06    -47.8304E+06     3.93758E+06     757.212E+03    -16.4904E-03     31.3864E-03    -14.8960E-03     40.4835E-03    -16.4821E-03     31.1678E-03    -14.7951E-03     40.4728E-03
            1857     10.6424E-03     31.2188E-03    -9.42414E+06    -52.2202E+06     6.21834E+06     785.832E+03    -16.2417E-03     31.0595E-03    -14.8177E-03     36.9508E-03    -16.2317E-03     30.8126E-03    -14.6973E-03     36.9450E-03
            1858     9.75650E-03     31.1850E-03    -11.0854E+06    -55.1103E+06     6.09376E+06     670.186E+03    -15.9677E-03     30.6934E-03    -14.7257E-03     33.2732E-03    -15.9584E-03     30.4315E-03    -14.5993E-03     33.2695E-03
            1859     8.87042E-03     31.1549E-03    -12.8959E+06    -59.6571E+06     5.62504E+06     678.438E+03    -15.6963E-03     30.3323E-03    -14.6360E-03     29.6861E-03    -15.6867E-03     30.0489E-03    -14.5027E-03     29.6853E-03
            1860     7.98413E-03     31.1278E-03    -14.8976E+06    -62.6969E+06     4.44752E+06     748.106E+03    -15.4070E-03     29.9515E-03    -14.5444E-03     26.2000E-03    -15.3999E-03     29.6560E-03    -14.4097E-03     26.2022E-03
            1861     7.09761E-03     31.1041E-03    -17.2516E+06    -65.4658E+06     1.78388E+06     671.628E+03    -15.1295E-03     29.5812E-03    -14.4517E-03     22.8400E-03    -15.1253E-03     29.2782E-03    -14.3228E-03     22.8429E-03
            1862     6.21092E-03     31.0834E-03    -19.7670E+06    -69.8403E+06    -1.85861E+06     758.366E+03    -14.8796E-03     29.2432E-03    -14.3636E-03     19.6044E-03    -14.8757E-03     28.9266E-03    -14.2430E-03     19.6097E-03
            1863     5.32402E-03     31.0658E-03    -22.4873E+06    -74.5171E+06    -6.68383E+06     686.383E+03    -14.6469E-03     28.9256E-03    -14.2787E-03     16.5076E-03    -14.6424E-03     28.5961E-03    -14.1715E-03     16.5130E-03
            1864     4.43696E-03     31.0510E-03    -25.1752E+06    -79.0327E+06    -12.3467E+06     432.454E+03    -14.4450E-03     28.6444E-03    -14.1993E-03     13.5507E-03    -14.4389E-03     28.3041E-03    -14.1099E-03     13.5537E-03
            1865     3.54974E-03     31.0391E-03    -27.6678E+06    -84.1582E+06    -18.5112E+06     241.358E+03    -14.2789E-03     28.4078E-03    -14.1290E-03     10.7112E-03    -14.2686E-03     28.0543E-03    -14.0594E-03     10.7124E-03
            1866     2.66242E-03     31.0299E-03    -29.7699E+06    -89.3353E+06    -24.3513E+06     164.054E+03    -14.1520E-03     28.2234E-03    -14.0714E-03     7.98028E-03    -14.1362E-03     27.8553E-03    -14.0204E-03     7.98106E-03
            1867     1.77498E-03     31.0234E-03    -31.3740E+06    -94.7581E+06    -28.7707E+06     147.243E+03    -14.0675E-03     28.0992E-03    -14.0317E-03     5.34255E-03    -14.0453E-03     27.7127E-03    -13.9927E-03     5.34360E-03
            1868     887.525E-06     31.0194E-03    -32.4452E+06    -97.9227E+06    -31.6640E+06     124.219E+03    -14.0143E-03     28.0218E-03    -14.0075E-03     2.88678E-03    -13.9887E-03     27.6252E-03    -13.9768E-03     2.88792E-03
            1869     16.8426E-03     30.5689E-03    -3.14058E+06     103.660E+06     50.2353E+06    -445.059E+03    -16.5199E-03     31.8722E-03    -15.3523E-03     31.8262E-03    -16.8585E-03     32.4220E-03    -15.2469E-03     31.8359E-03
            1870     15.9559E-03     30.5183E-03    -5.47145E+06     77.9031E+06     14.1263E+06     503.171E+03    -16.8880E-03     32.0371E-03    -15.1491E-03     58.5479E-03    -17.2037E-03     32.5689E-03    -15.1835E-03     58.5501E-03
            1871     15.0709E-03     30.4598E-03    -6.11819E+06     24.6255E+06    -2.37774E+06     981.417E+03    -17.2797E-03     32.3507E-03    -15.0710E-03     58.7108E-03    -17.4441E-03     32.5877E-03    -15.1097E-03     58.6885E-03
            1872     14.1853E-03     30.4080E-03    -6.38990E+06    -9.89876E+06    -483.519E+03     557.029E+03    -17.1933E-03     32.2339E-03    -15.0406E-03     52.3865E-03    -17.2674E-03     32.2515E-03    -15.0194E-03     52.3562E-03
            1873     13.3001E-03     30.3611E-03    -6.62364E+06    -23.5356E+06     3.68582E+06     513.223E+03    -16.9533E-03     31.9375E-03    -14.9843E-03     47.8523E-03    -16.9914E-03     31.8579E-03    -14.9221E-03     47.8274E-03
            1874     12.4146E-03     30.3176E-03    -7.41102E+06    -36.0175E+06     3.78506E+06     542.001E+03    -16.8228E-03     31.7233E-03    -14.9004E-03     43.7354E-03    -16.8347E-03     31.5700E-03    -14.8185E-03     43.7166E-03
            1875     11.5292E-03     30.2780E-03    -8.39524E+06    -47.9898E+06     3.71930E+06     714.660E+03    -16.6106E-03     31.4182E-03    -14.8076E-03     40.0466E-03    -16.6026E-03     31.1993E-03    -14.7073E-03     40.0354E-03
            1876     10.6435E-03     30.2411E-03    -9.45870E+06    -52.3195E+06     6.12698E+06     880.658E+03    -16.2955E-03     31.0100E-03    -14.7144E-03     36.4729E-03    -16.2852E-03     30.7626E-03    -14.5942E-03     36.4684E-03
            1877     9.75766E-03     30.2080E-03    -10.9537E+06    -54.9183E+06     6.14708E+06     923.622E+03    -15.9885E-03     30.5975E-03    -14.6090E-03     32.7919E-03    -15.9788E-03     30.3361E-03    -14.4828E-03     32.7915E-03
            1878     8.87156E-03     30.1779E-03    -12.8539E+06    -59.6699E+06     5.44865E+06     802.475E+03    -15.6861E-03     30.1918E-03    -14.5057E-03     29.1835E-03    -15.6759E-03     29.9083E-03    -14.3733E-03     29.1844E-03
            1879     7.98527E-03     30.1514E-03    -15.0129E+06    -62.6931E+06     4.31953E+06     823.804E+03    -15.3670E-03     29.7692E-03    -14.4022E-03     25.7032E-03    -15.3602E-03     29.4740E-03    -14.2679E-03     25.7065E-03
            1880     7.09870E-03     30.1279E-03    -17.4225E+06    -65.3015E+06     1.63955E+06     855.196E+03    -15.0623E-03     29.3597E-03    -14.2973E-03     22.3716E-03    -15.0590E-03     29.0579E-03    -14.1692E-03     22.3770E-03
            1881     6.21194E-03     30.1076E-03    -20.0642E+06    -69.8922E+06    -2.10673E+06     794.784E+03    -14.7803E-03     28.9787E-03    -14.1984E-03     19.1571E-03    -14.7774E-03     28.6626E-03    -14.0785E-03     19.1630E-03
            1882     5.32495E-03     30.0902E-03    -22.6425E+06    -74.1478E+06    -6.85163E+06     737.309E+03    -14.5204E-03     28.6241E-03    -14.1037E-03     16.1099E-03    -14.5169E-03     28.2969E-03    -13.9977E-03     16.1161E-03
            1883     4.43776E-03     30.0758E-03    -25.2396E+06    -78.7520E+06    -12.5113E+06     486.225E+03    -14.2941E-03     28.3108E-03    -14.0167E-03     13.2035E-03    -14.2885E-03     27.9723E-03    -13.9285E-03     13.2073E-03
            1884     3.55042E-03     30.0641E-03    -27.6671E+06    -83.9880E+06    -18.5980E+06     295.737E+03    -14.1107E-03     28.0515E-03    -13.9408E-03     10.4256E-03    -14.1005E-03     27.6989E-03    -13.8719E-03     10.4276E-03
            1885     2.66292E-03     30.0551E-03    -29.7295E+06    -89.3357E+06    -24.3955E+06     232.422E+03    -13.9721E-03     27.8509E-03    -13.8789E-03     7.76063E-03    -13.9560E-03     27.4829E-03    -13.8282E-03     7.76234E-03
            1886     1.77535E-03     30.0487E-03    -31.3208E+06    -94.6638E+06    -28.8078E+06     230.759E+03    -13.8768E-03     27.7124E-03    -13.8356E-03     5.19265E-03    -13.8544E-03     27.3263E-03    -13.7970E-03     5.19480E-03
            1887     887.673E-06     30.0447E-03    -32.3553E+06    -97.7413E+06    -31.5994E+06     106.451E+03    -13.8197E-03     27.6276E-03    -13.8079E-03     2.80725E-03    -13.7940E-03     27.2317E-03    -13.7772E-03     2.80818E-03
            1888     16.8414E-03     29.5910E-03    -3.57141E+06     103.130E+06     49.7753E+06     192.735E+03    -16.5362E-03     31.8937E-03    -15.3575E-03     33.0138E-03    -16.8775E-03     32.4441E-03    -15.2529E-03     33.0312E-03
            1889     15.9558E-03     29.5397E-03    -6.37284E+06     77.5864E+06     13.5988E+06     561.119E+03    -17.3521E-03     32.4943E-03    -15.1421E-03     59.4070E-03    -17.6731E-03     33.0286E-03    -15.1774E-03     59.4075E-03
            1890     15.0707E-03     29.4804E-03    -6.21442E+06     24.7529E+06    -2.35480E+06     310.144E+03    -17.6087E-03     32.6506E-03    -15.0419E-03     58.5754E-03    -17.7732E-03     32.8878E-03    -15.0806E-03     58.5427E-03
            1891     14.1861E-03     29.4297E-03    -5.85608E+06    -9.87041E+06    -300.559E+03     560.960E+03    -17.3802E-03     32.3736E-03    -14.9934E-03     52.0636E-03    -17.4512E-03     32.3896E-03    -14.9721E-03     52.0329E-03
            1892     13.3008E-03     29.3825E-03    -6.53409E+06    -23.3629E+06     3.70500E+06     547.257E+03    -17.1797E-03     32.0990E-03    -14.9192E-03     47.4480E-03    -17.2175E-03     32.0198E-03    -14.8573E-03     47.4232E-03
            1893     12.4156E-03     29.3395E-03    -7.41517E+06    -36.3037E+06     3.52916E+06     564.449E+03    -16.9551E-03     31.7719E-03    -14.8168E-03     43.2234E-03    -16.9659E-03     31.6172E-03    -14.7357E-03     43.2049E-03
            1894     11.5303E-03     29.2999E-03    -8.35473E+06    -48.2800E+06     3.54009E+06     778.035E+03    -16.6993E-03     31.4080E-03    -14.7087E-03     39.4941E-03    -16.6901E-03     31.1875E-03    -14.6089E-03     39.4838E-03
            1895     10.6448E-03     29.2638E-03    -9.54797E+06    -52.2228E+06     5.99024E+06     997.433E+03    -16.3624E-03     30.9622E-03    -14.5998E-03     35.9324E-03    -16.3523E-03     30.7154E-03    -14.4803E-03     35.9295E-03
            1896     9.75890E-03     29.2307E-03    -11.0542E+06    -54.9236E+06     5.93584E+06     1.01516E+06    -16.0123E-03     30.4911E-03    -14.4788E-03     32.2564E-03    -16.0026E-03     30.2300E-03    -14.3535E-03     32.2574E-03
            1897     8.87287E-03     29.2012E-03    -12.8110E+06    -59.5308E+06     5.40849E+06     1.04251E+06    -15.6656E-03     30.0276E-03    -14.3620E-03     28.6246E-03    -15.6553E-03     29.7448E-03    -14.2301E-03     28.6287E-03
            1898     7.98648E-03     29.1749E-03    -14.9879E+06    -62.7298E+06     4.21115E+06     983.747E+03    -15.3231E-03     29.5684E-03    -14.2453E-03     25.1634E-03    -15.3158E-03     29.2730E-03    -14.1116E-03     25.1690E-03
            1899     7.09993E-03     29.1519E-03    -17.3791E+06    -65.2114E+06     1.63068E+06     1.03474E+06    -14.9844E-03     29.1125E-03    -14.1281E-03     21.8401E-03    -14.9809E-03     28.8110E-03    -14.0002E-03     21.8479E-03
            1900     6.21305E-03     29.1320E-03    -19.9564E+06    -69.6649E+06    -2.16953E+06     950.420E+03    -14.6650E-03     28.6825E-03    -14.0175E-03     18.6728E-03    -14.6618E-03     28.3674E-03    -13.8984E-03     18.6809E-03
            1901     5.32596E-03     29.1150E-03    -22.6570E+06    -73.8952E+06    -6.97244E+06     699.865E+03    -14.3793E-03     28.2927E-03    -13.9134E-03     15.6711E-03    -14.3761E-03     27.9670E-03    -13.8083E-03     15.6769E-03
            1902     4.43865E-03     29.1008E-03    -25.2208E+06    -78.4196E+06    -12.6416E+06     525.412E+03    -14.1293E-03     27.9476E-03    -13.8183E-03     12.8249E-03    -14.1238E-03     27.6108E-03    -13.7312E-03     12.8293E-03
            1903     3.55113E-03     29.0894E-03    -27.6429E+06    -83.8510E+06    -18.7348E+06     338.203E+03    -13.9290E-03     27.6653E-03    -13.7362E-03     10.1158E-03    -13.9188E-03     27.3135E-03    -13.6682E-03     10.1184E-03
            1904     2.66349E-03     29.0806E-03    -29.7186E+06    -89.3506E+06    -24.3975E+06     338.663E+03    -13.7762E-03     27.4461E-03    -13.6699E-03     7.52108E-03    -13.7600E-03     27.0779E-03    -13.6192E-03     7.52421E-03
            1905     1.77571E-03     29.0744E-03    -31.3406E+06    -94.4650E+06    -28.8356E+06     331.187E+03    -13.6699E-03     27.2921E-03    -13.6222E-03     5.03212E-03    -13.6479E-03     26.9071E-03    -13.5839E-03     5.03560E-03
            1906     887.893E-06     29.0705E-03    -32.4475E+06    -97.4664E+06    -31.7761E+06     177.821E+03    -13.6065E-03     27.1961E-03    -13.5896E-03     2.71826E-03    -13.5813E-03     26.8019E-03    -13.5601E-03     2.72013E-03
            1907     16.8391E-03     28.6113E-03    -4.03251E+06     102.949E+06     50.7063E+06     451.331E+03    -16.8065E-03     32.1776E-03    -15.3711E-03     32.0740E-03    -17.1509E-03     32.7261E-03    -15.2610E-03     32.0914E-03
            1908     15.9559E-03     28.5591E-03    -6.14664E+06     78.0079E+06     15.0980E+06    -366.125E+03    -17.8718E-03     33.0050E-03    -15.1332E-03     58.0986E-03    -18.1933E-03     33.5378E-03    -15.1619E-03     58.0828E-03
            1909     15.0719E-03     28.5018E-03    -5.95772E+06     24.2797E+06    -2.51987E+06    -77.7042E+03    -17.8572E-03     32.8579E-03    -15.0007E-03     57.6326E-03    -18.0180E-03     33.0911E-03    -15.0399E-03     57.5935E-03
            1910     14.1864E-03     28.4505E-03    -6.33840E+06    -10.2162E+06    -864.663E+03     401.852E+03    -17.6060E-03     32.5385E-03    -14.9324E-03     51.4651E-03    -17.6775E-03     32.5537E-03    -14.9128E-03     51.4317E-03
            1911     13.3020E-03     28.4040E-03    -6.74746E+06    -23.5400E+06     3.32137E+06     664.787E+03    -17.3821E-03     32.2214E-03    -14.8393E-03     46.8264E-03    -17.4196E-03     32.1417E-03    -14.7787E-03     46.8027E-03
            1912     12.4169E-03     28.3612E-03    -7.53434E+06    -36.3516E+06     3.30138E+06     708.395E+03    -17.0616E-03     31.7814E-03    -14.7198E-03     42.6931E-03    -17.0723E-03     31.6267E-03    -14.6397E-03     42.6765E-03
            1913     11.5315E-03     28.3221E-03    -8.38581E+06    -48.3916E+06     3.32308E+06     845.406E+03    -16.7609E-03     31.3579E-03    -14.5971E-03     38.9465E-03    -16.7511E-03     31.1369E-03    -14.4981E-03     38.9373E-03
            1914     10.6461E-03     28.2862E-03    -9.51409E+06    -52.4627E+06     5.84543E+06     1.08812E+06    -16.4259E-03     30.8991E-03    -14.4733E-03     35.3247E-03    -16.4148E-03     30.6511E-03    -14.3542E-03     35.3232E-03
            1915     9.76035E-03     28.2537E-03    -11.0836E+06    -54.7177E+06     5.90053E+06     1.20587E+06    -16.0290E-03     30.3652E-03    -14.3363E-03     31.6387E-03    -16.0195E-03     30.1051E-03    -14.2114E-03     31.6424E-03
            1916     8.87420E-03     28.2246E-03    -12.9293E+06    -59.5596E+06     5.20495E+06     1.13076E+06    -15.6478E-03     29.8518E-03    -14.2040E-03     28.0346E-03    -15.6375E-03     29.5691E-03    -14.0729E-03     28.0401E-03
            1917     7.98791E-03     28.1988E-03    -14.9667E+06    -62.5960E+06     4.16826E+06     1.19686E+06    -15.2697E-03     29.3430E-03    -14.0733E-03     24.5637E-03    -15.2624E-03     29.0483E-03    -13.9400E-03     24.5721E-03
            1918     7.10121E-03     28.1762E-03    -17.3489E+06    -65.1989E+06     1.51130E+06     1.15720E+06    -14.8881E-03     28.8310E-03    -13.9429E-03     21.2655E-03    -14.8842E-03     28.5297E-03    -13.8157E-03     21.2751E-03
            1919     6.21429E-03     28.1567E-03    -19.8622E+06    -69.3076E+06    -2.16527E+06     1.07040E+06    -14.5399E-03     28.3611E-03    -13.8212E-03     18.1419E-03    -14.5367E-03     28.0476E-03    -13.7027E-03     18.1517E-03
            1920     5.32706E-03     28.1401E-03    -22.4707E+06    -73.5253E+06    -6.99733E+06     817.913E+03    -14.2223E-03     27.9293E-03    -13.7070E-03     15.1913E-03    -14.2186E-03     27.6051E-03    -13.6028E-03     15.1988E-03
            1921     4.43959E-03     28.1263E-03    -25.1194E+06    -78.1558E+06    -12.7823E+06     549.211E+03    -13.9518E-03     27.5551E-03    -13.6034E-03     12.4122E-03    -13.9459E-03     27.2197E-03    -13.5175E-03     12.4170E-03
            1922     3.55193E-03     28.1151E-03    -27.5370E+06    -83.7178E+06    -18.8789E+06     469.777E+03    -13.7316E-03     27.2461E-03    -13.5145E-03     9.77685E-03    -13.7208E-03     26.8951E-03    -13.4476E-03     9.78121E-03
            1923     2.66408E-03     28.1066E-03    -29.6446E+06    -89.3341E+06    -24.4303E+06     443.056E+03    -13.5637E-03     27.0072E-03    -13.4435E-03     7.26378E-03    -13.5471E-03     26.6391E-03    -13.3932E-03     7.26830E-03
            1924     1.77614E-03     28.1004E-03    -31.2350E+06    -94.1940E+06    -28.7502E+06     439.563E+03    -13.4469E-03     26.8386E-03    -13.3917E-03     4.85659E-03    -13.4248E-03     26.4546E-03    -13.3536E-03     4.86150E-03
            1925     888.076E-06     28.0967E-03    -32.2760E+06    -97.0436E+06    -31.6176E+06     320.132E+03    -13.3759E-03     26.7313E-03    -13.3554E-03     2.62010E-03    -13.3507E-03     26.3388E-03    -13.3260E-03     2.62383E-03
            1926     16.8434E-03     27.6317E-03    -2.32889E+06     103.924E+06     51.2620E+06     638.813E+03    -17.3933E-03     32.7197E-03    -15.3264E-03     31.7849E-03    -17.7284E-03     33.2668E-03    -15.2174E-03     31.8018E-03
            1927     15.9572E-03     27.5795E-03    -3.77760E+06     78.3262E+06     15.5117E+06    -80.2162E+03    -17.7008E-03     32.7752E-03    -15.0744E-03     57.5658E-03    -18.0078E-03     33.3018E-03    -15.1049E-03     57.5525E-03
            1928     15.0721E-03     27.5224E-03    -5.84240E+06     23.3773E+06    -2.96863E+06     58.7693E+03    -17.9970E-03     32.9365E-03    -14.9395E-03     57.1123E-03    -18.1544E-03     33.1647E-03    -14.9798E-03     57.0741E-03
            1929     14.1883E-03     27.4716E-03    -6.03739E+06    -10.7070E+06    -1.00755E+06     422.790E+03    -17.8090E-03     32.6656E-03    -14.8566E-03     50.9426E-03    -17.8775E-03     32.6776E-03    -14.8374E-03     50.9089E-03
            1930     13.3030E-03     27.4253E-03    -6.76446E+06    -23.6735E+06     3.40030E+06     635.449E+03    -17.4425E-03     32.1927E-03    -14.7502E-03     46.3625E-03    -17.4794E-03     32.1117E-03    -14.6890E-03     46.3386E-03
            1931     12.4181E-03     27.3830E-03    -7.51953E+06    -36.0694E+06     3.37879E+06     900.543E+03    -17.1841E-03     31.8004E-03    -14.6162E-03     42.1804E-03    -17.1948E-03     31.6465E-03    -14.5361E-03     42.1663E-03
            1932     11.5331E-03     27.3444E-03    -8.45615E+06    -48.8601E+06     2.94782E+06     903.938E+03    -16.8731E-03     31.3477E-03    -14.4746E-03     38.3775E-03    -16.8621E-03     31.1247E-03    -14.3768E-03     38.3691E-03
            1933     10.6476E-03     27.3088E-03    -9.59216E+06    -52.7152E+06     5.68614E+06     1.10076E+06    -16.4655E-03     30.7999E-03    -14.3344E-03     34.6829E-03    -16.4540E-03     30.5507E-03    -14.2156E-03     34.6818E-03
            1934     9.76181E-03     27.2769E-03    -10.9485E+06    -54.6621E+06     5.96577E+06     1.36566E+06    -16.0481E-03     30.2296E-03    -14.1815E-03     30.9723E-03    -16.0379E-03     29.9692E-03    -14.0566E-03     30.9782E-03
            1935     8.87579E-03     27.2482E-03    -12.7969E+06    -59.3266E+06     5.15783E+06     1.36504E+06    -15.6311E-03     29.6630E-03    -14.0319E-03     27.3805E-03    -15.6203E-03     29.3812E-03    -13.9015E-03     27.3892E-03
            1936     7.98937E-03     27.2229E-03    -14.9193E+06    -62.6160E+06     4.00810E+06     1.28598E+06    -15.2004E-03     29.0865E-03    -13.8860E-03     23.9057E-03    -15.1925E-03     28.7917E-03    -13.7536E-03     23.9155E-03
            1937     7.10266E-03     27.2008E-03    -17.2592E+06    -64.9560E+06     1.47566E+06     1.33997E+06    -14.7845E-03     28.5270E-03    -13.7425E-03     20.6438E-03    -14.7803E-03     28.2267E-03    -13.6159E-03     20.6559E-03
            1938     6.21560E-03     27.1817E-03    -19.8279E+06    -68.9978E+06    -2.33772E+06     1.14763E+06    -14.3994E-03     28.0075E-03    -13.6081E-03     17.5615E-03    -14.3961E-03     27.6957E-03    -13.4910E-03     17.5723E-03
            1939     5.32825E-03     27.1656E-03    -22.4378E+06    -73.0367E+06    -7.14217E+06     901.661E+03    -14.0537E-03     27.5372E-03    -13.4835E-03     14.6753E-03    -14.0503E-03     27.2156E-03    -13.3808E-03     14.6839E-03
            1940     4.44063E-03     27.1521E-03    -24.9769E+06    -77.9036E+06    -12.9194E+06     671.987E+03    -13.7575E-03     27.1289E-03    -13.3715E-03     11.9663E-03    -13.7511E-03     26.7948E-03    -13.2869E-03     11.9727E-03
            1941     3.55277E-03     27.1413E-03    -27.3621E+06    -83.6401E+06    -18.9684E+06     602.696E+03    -13.5174E-03     26.7935E-03    -13.2761E-03     9.41358E-03    -13.5056E-03     26.4427E-03    -13.2100E-03     9.41972E-03
            1942     2.66474E-03     27.1329E-03    -29.4078E+06    -89.1819E+06    -24.4067E+06     628.302E+03    -13.3351E-03     26.5352E-03    -13.2001E-03     6.99059E-03    -13.3176E-03     26.1674E-03    -13.1501E-03     6.99756E-03
            1943     1.77656E-03     27.1270E-03    -31.0470E+06    -93.8761E+06    -28.5943E+06     536.981E+03    -13.2077E-03     26.3518E-03    -13.1441E-03     4.66898E-03    -13.1854E-03     25.9690E-03    -13.1059E-03     4.67517E-03
            1944     888.322E-06     27.1234E-03    -32.1042E+06    -96.4595E+06    -31.3929E+06     386.859E+03    -13.1226E-03     26.2312E-03    -13.1085E-03     2.51159E-03    -13.0978E-03     25.8410E-03    -13.0791E-03     2.51620E-03
            1945     16.8415E-03     26.6511E-03    -2.86074E+06     103.310E+06     51.1932E+06    -159.502E+03    -17.7072E-03     33.0102E-03    -15.3030E-03     32.1676E-03    -18.0438E-03     33.5550E-03    -15.1927E-03     32.1721E-03
            1946     15.9580E-03     26.6010E-03    -3.82422E+06     78.1068E+06     15.4802E+06     992.189E+03    -18.0633E-03     33.0937E-03    -15.0304E-03     58.0243E-03    -18.3695E-03     33.6187E-03    -15.0608E-03     58.0223E-03
            1947     15.0737E-03     26.5424E-03    -5.03947E+06     23.5174E+06    -2.68824E+06     897.577E+03    -18.1882E-03     33.0654E-03    -14.8772E-03     56.9924E-03    -18.3412E-03     33.2918E-03    -14.9174E-03     56.9641E-03
            1948     14.1888E-03     26.4927E-03    -6.07816E+06    -10.8761E+06    -1.00841E+06     504.547E+03    -17.9423E-03     32.7226E-03    -14.7803E-03     50.5094E-03    -18.0098E-03     32.7329E-03    -14.7608E-03     50.4765E-03
            1949     13.3045E-03     26.4467E-03    -6.51189E+06    -23.8912E+06     3.35124E+06     704.031E+03    -17.6270E-03     32.2840E-03    -14.6569E-03     45.9330E-03    -17.6618E-03     32.2010E-03    -14.5961E-03     45.9099E-03
            1950     12.4195E-03     26.4047E-03    -7.36817E+06    -36.4677E+06     3.25379E+06     892.719E+03    -17.3199E-03     31.8242E-03    -14.5043E-03     41.5939E-03    -17.3286E-03     31.6678E-03    -14.4245E-03     41.5799E-03
            1951     11.5345E-03     26.3664E-03    -8.28320E+06    -48.8200E+06     2.93525E+06     1.09310E+06    -16.9768E-03     31.3208E-03    -14.3440E-03     37.7191E-03    -16.9646E-03     31.0974E-03    -14.2465E-03     37.7133E-03
            1952     10.6492E-03     26.3316E-03    -9.41862E+06    -52.8829E+06     5.50335E+06     1.18744E+06    -16.5319E-03     30.7162E-03    -14.1843E-03     34.0081E-03    -16.5187E-03     30.4659E-03    -14.0665E-03     34.0083E-03
            1953     9.76346E-03     26.3000E-03    -10.9516E+06    -54.8711E+06     5.72443E+06     1.41600E+06    -16.0739E-03     30.0868E-03    -14.0129E-03     30.2647E-03    -16.0629E-03     29.8255E-03    -13.8888E-03     30.2715E-03
            1954     8.87743E-03     26.2720E-03    -12.6407E+06    -59.0858E+06     5.16639E+06     1.59824E+06    -15.6026E-03     29.4487E-03    -13.8460E-03     26.6372E-03    -15.5913E-03     29.1677E-03    -13.7162E-03     26.6491E-03
            1955     7.99099E-03     26.2473E-03    -14.8017E+06    -62.4280E+06     3.84977E+06     1.51936E+06    -15.1241E-03     28.8078E-03    -13.6837E-03     23.1997E-03    -15.1155E-03     28.5139E-03    -13.5525E-03     23.2127E-03
            1956     7.10419E-03     26.2257E-03    -17.1542E+06    -64.8175E+06     1.34038E+06     1.41425E+06    -14.6693E-03     28.1957E-03    -13.5264E-03     19.9661E-03    -14.6646E-03     27.8961E-03    -13.4008E-03     19.9793E-03
            1957     6.21702E-03     26.2071E-03    -19.6192E+06    -68.5015E+06    -2.36680E+06     1.32369E+06    -14.2467E-03     27.6262E-03    -13.3795E-03     16.9394E-03    -14.2431E-03     27.3166E-03    -13.2635E-03     16.9527E-03
            1958     5.32953E-03     26.1914E-03    -22.2692E+06    -72.6274E+06    -7.34727E+06     1.00211E+06    -13.8693E-03     27.1130E-03    -13.2437E-03     14.1221E-03    -13.8653E-03     26.7934E-03    -13.1429E-03     14.1322E-03
            1959     4.44172E-03     26.1784E-03    -24.8580E+06    -77.6213E+06    -13.1342E+06     823.252E+03    -13.5474E-03     26.6706E-03    -13.1232E-03     11.4955E-03    -13.5405E-03     26.3380E-03    -13.0403E-03     11.5040E-03
            1960     3.55368E-03     26.1679E-03    -27.2249E+06    -83.5583E+06    -19.0824E+06     785.729E+03    -13.2890E-03     26.3104E-03    -13.0214E-03     9.02946E-03    -13.2765E-03     25.9600E-03    -12.9562E-03     9.03804E-03
            1961     2.66543E-03     26.1598E-03    -29.2095E+06    -88.9379E+06    -24.3446E+06     783.429E+03    -13.0904E-03     26.0304E-03    -12.9400E-03     6.69792E-03    -13.0723E-03     25.6634E-03    -12.8904E-03     6.70694E-03
            1962     1.77704E-03     26.1540E-03    -30.7242E+06    -93.4282E+06    -28.3874E+06     699.754E+03    -12.9483E-03     25.8291E-03    -12.8807E-03     4.46977E-03    -12.9254E-03     25.4477E-03    -12.8426E-03     4.47810E-03
            1963     888.547E-06     26.1506E-03    -31.7900E+06    -95.7334E+06    -31.1067E+06     434.525E+03    -12.8579E-03     25.7026E-03    -12.8448E-03     2.40449E-03    -12.8329E-03     25.3152E-03    -12.8154E-03     2.40973E-03
            1964     16.8425E-03     25.6716E-03    -3.69253E+06     102.326E+06     50.4644E+06    -254.626E+03    -17.9371E-03     33.2345E-03    -15.2974E-03     31.5504E-03    -18.2757E-03     33.7769E-03    -15.1881E-03     31.5516E-03
            1965     15.9580E-03     25.6198E-03    -6.56487E+06     77.0402E+06     13.9487E+06     590.337E+03    -18.5734E-03     33.5752E-03    -15.0018E-03     57.5111E-03    -18.8892E-03     34.1008E-03    -15.0343E-03     57.5008E-03
            1966     15.0743E-03     25.5634E-03    -6.28323E+06     24.1835E+06    -3.04033E+06     1.04226E+06    -18.4845E-03     33.3080E-03    -14.8235E-03     56.6103E-03    -18.6427E-03     33.5385E-03    -14.8646E-03     56.5824E-03
            1967     14.1901E-03     25.5133E-03    -6.00499E+06    -10.5903E+06    -1.05316E+06     715.301E+03    -18.1890E-03     32.8949E-03    -14.7059E-03     50.1822E-03    -18.2557E-03     32.9057E-03    -14.6871E-03     50.1515E-03
            1968     13.3056E-03     25.4679E-03    -6.63994E+06    -24.2736E+06     2.96271E+06     681.064E+03    -17.9204E-03     32.4787E-03    -14.5583E-03     45.2772E-03    -17.9541E-03     32.3941E-03    -14.4987E-03     45.2534E-03
            1969     12.4211E-03     25.4264E-03    -7.32682E+06    -36.6723E+06     3.02966E+06     1.01323E+06    -17.4853E-03     31.8672E-03    -14.3819E-03     40.9262E-03    -17.4926E-03     31.7096E-03    -14.3030E-03     40.9138E-03
            1970     11.5361E-03     25.3887E-03    -8.16557E+06    -48.7712E+06     2.82298E+06     1.14810E+06    -17.0649E-03     31.2665E-03    -14.2016E-03     36.9677E-03    -17.0516E-03     31.0429E-03    -14.1049E-03     36.9628E-03
            1971     10.6508E-03     25.3543E-03    -9.37082E+06    -53.1083E+06     5.23628E+06     1.35330E+06    -16.6077E-03     30.6297E-03    -14.0220E-03     33.2034E-03    -16.5932E-03     30.3783E-03    -13.9052E-03     33.2060E-03
            1972     9.76528E-03     25.3235E-03    -10.8425E+06    -54.9785E+06     5.52164E+06     1.50983E+06    -16.0896E-03     29.9203E-03    -13.8307E-03     29.4643E-03    -16.0773E-03     29.6584E-03    -13.7077E-03     29.4725E-03
            1973     8.87918E-03     25.2960E-03    -12.5929E+06    -59.1204E+06     4.98822E+06     1.70031E+06    -15.5618E-03     29.2079E-03    -13.6462E-03     25.8382E-03    -15.5497E-03     28.9268E-03    -13.5172E-03     25.8517E-03
            1974     7.99274E-03     25.2719E-03    -14.6132E+06    -62.0898E+06     3.85407E+06     1.78598E+06    -15.0396E-03     28.5075E-03    -13.4679E-03     22.4330E-03    -15.0305E-03     28.2149E-03    -13.3374E-03     22.4496E-03
            1975     7.10582E-03     25.2509E-03    -17.0238E+06    -64.5125E+06     1.17243E+06     1.61293E+06    -14.5385E-03     27.8340E-03    -13.2955E-03     19.2474E-03    -14.5332E-03     27.5358E-03    -13.1714E-03     19.2634E-03
            1976     6.21855E-03     25.2329E-03    -19.5606E+06    -68.1276E+06    -2.52868E+06     1.41604E+06    -14.0797E-03     27.2160E-03    -13.1363E-03     16.2826E-03    -14.0760E-03     26.9083E-03    -13.0218E-03     16.2972E-03
            1977     5.33087E-03     25.2177E-03    -22.0875E+06    -72.0921E+06    -7.56283E+06     1.21962E+06    -13.6695E-03     26.6590E-03    -12.9895E-03     13.5416E-03    -13.6650E-03     26.3421E-03    -12.8907E-03     13.5546E-03
            1978     4.44289E-03     25.2051E-03    -24.6350E+06    -77.4591E+06    -13.3809E+06     1.03316E+06    -13.3251E-03     26.1857E-03    -12.8606E-03     11.0004E-03    -13.3170E-03     25.8539E-03    -12.7794E-03     11.0117E-03
            1979     3.55463E-03     25.1950E-03    -26.9950E+06    -83.3183E+06    -19.1458E+06     1.04134E+06    -13.0472E-03     25.7993E-03    -12.7521E-03     8.62902E-03    -13.0338E-03     25.4499E-03    -12.6879E-03     8.64097E-03
            1980     2.66618E-03     25.1872E-03    -29.0448E+06    -88.6572E+06    -24.3243E+06     1.00103E+06    -12.8299E-03     25.4953E-03    -12.6653E-03     6.39359E-03    -12.8115E-03     25.1295E-03    -12.6163E-03     6.40547E-03
            1981     1.77754E-03     25.1817E-03    -30.6307E+06    -92.7907E+06    -28.4271E+06     880.974E+03    -12.6733E-03     25.2755E-03    -12.6022E-03     4.26312E-03    -12.6507E-03     24.8972E-03    -12.5654E-03     4.27383E-03
            1982     888.786E-06     25.1783E-03    -31.6022E+06    -94.8424E+06    -31.0315E+06     501.966E+03    -12.5826E-03     25.1447E-03    -12.5621E-03     2.29821E-03    -12.5581E-03     24.7614E-03    -12.5339E-03     2.30434E-03
            1983     16.8421E-03     24.6907E-03    -3.44654E+06     102.146E+06     50.7552E+06     534.398E+03    -18.3163E-03     33.5975E-03    -15.2812E-03     31.3753E-03    -18.6527E-03     34.1371E-03    -15.1705E-03     31.3837E-03
            1984     15.9590E-03     24.6394E-03    -6.12980E+06     76.9584E+06     14.4820E+06     299.753E+03    -18.7851E-03     33.7538E-03    -14.9687E-03     56.8472E-03    -19.0973E-03     34.2754E-03    -14.9990E-03     56.8307E-03
            1985     15.0749E-03     24.5836E-03    -6.36506E+06     24.0112E+06    -3.13122E+06     66.3381E+03    -18.8117E-03     33.5806E-03    -14.7689E-03     55.7823E-03    -18.9682E-03     33.8088E-03    -14.8101E-03     55.7402E-03
            1986     14.1910E-03     24.5338E-03    -6.09694E+06    -10.7450E+06    -1.30073E+06     692.682E+03    -18.5632E-03     33.1872E-03    -14.6240E-03     49.5510E-03    -18.6290E-03     33.1970E-03    -14.6061E-03     49.5190E-03
            1987     13.3072E-03     24.4888E-03    -6.50185E+06    -24.3956E+06     2.88840E+06     915.605E+03    -18.1468E-03     32.5974E-03    -14.4506E-03     44.4532E-03    -18.1787E-03     32.5113E-03    -14.3914E-03     44.4322E-03
            1988     12.4227E-03     24.4481E-03    -7.45164E+06    -36.7403E+06     2.80852E+06     1.00569E+06    -17.6736E-03     31.9237E-03    -14.2501E-03     40.1169E-03    -17.6806E-03     31.7657E-03    -14.1720E-03     40.1045E-03
            1989     11.5379E-03     24.4109E-03    -8.34921E+06    -48.9415E+06     2.55809E+06     1.24807E+06    -17.1903E-03     31.2369E-03    -14.0466E-03     36.1653E-03    -17.1769E-03     31.0127E-03    -13.9507E-03     36.1620E-03
            1990     10.6528E-03     24.3772E-03    -9.34300E+06    -53.2217E+06     5.09986E+06     1.41895E+06    -16.6511E-03     30.4973E-03    -13.8462E-03     32.3601E-03    -16.6358E-03     30.2452E-03    -13.7300E-03     32.3638E-03
            1991     9.76712E-03     24.3470E-03    -10.7230E+06    -55.1383E+06     5.34153E+06     1.64976E+06    -16.0829E-03     29.7189E-03    -13.6360E-03     28.5909E-03    -16.0693E-03     29.4560E-03    -13.5138E-03     28.6013E-03
            1992     8.88111E-03     24.3202E-03    -12.4551E+06    -59.1261E+06     4.80998E+06     1.83641E+06    -15.5078E-03     28.9416E-03    -13.4338E-03     25.0001E-03    -15.4945E-03     28.6603E-03    -13.3059E-03     25.0156E-03
            1993     7.99454E-03     24.2968E-03    -14.4677E+06    -61.9477E+06     3.77956E+06     1.93672E+06    -14.9405E-03     28.1804E-03    -13.2399E-03     21.6231E-03    -14.9306E-03     27.8883E-03    -13.1102E-03     21.6419E-03
            1994     7.10757E-03     24.2765E-03    -16.7191E+06    -64.0297E+06     1.17844E+06     1.88538E+06    -14.3946E-03     27.4477E-03    -13.0531E-03     18.4918E-03    -14.3884E-03     27.1514E-03    -12.9301E-03     18.5115E-03
            1995     6.22011E-03     24.2591E-03    -19.2506E+06    -67.6788E+06    -2.66901E+06     1.60182E+06    -13.8974E-03     26.7787E-03    -12.8813E-03     15.5992E-03    -13.8925E-03     26.4730E-03    -12.7686E-03     15.6164E-03
            1996     5.33229E-03     24.2444E-03    -21.8276E+06    -71.6826E+06    -7.69696E+06     1.38738E+06    -13.4595E-03     26.1841E-03    -12.7246E-03     12.9403E-03    -13.4541E-03     25.8691E-03    -12.6275E-03     12.9556E-03
            1997     4.44411E-03     24.2323E-03    -24.2956E+06    -77.2146E+06    -13.5310E+06     1.34998E+06    -13.0907E-03     25.6778E-03    -12.5871E-03     10.4945E-03    -13.0809E-03     25.3469E-03    -12.5076E-03     10.5099E-03
            1998     3.55564E-03     24.2225E-03    -26.5917E+06    -83.0536E+06    -19.1719E+06     1.33434E+06    -12.7914E-03     25.2638E-03    -12.4725E-03     8.22241E-03    -12.7763E-03     24.9151E-03    -12.4094E-03     8.23821E-03
            1999     2.66693E-03     24.2151E-03    -28.5278E+06    -88.1842E+06    -24.0122E+06     1.30474E+06    -12.5596E-03     24.9415E-03    -12.3819E-03     6.08488E-03    -12.5397E-03     24.5769E-03    -12.3328E-03     6.10073E-03
            2000     1.77805E-03     24.2098E-03    -30.0343E+06    -91.9738E+06    -27.8655E+06     1.07143E+06    -12.3959E-03     24.7106E-03    -12.3147E-03     4.05527E-03    -12.3723E-03     24.3347E-03    -12.2771E-03     4.06847E-03
            2001     889.069E-06     24.2065E-03    -31.0058E+06    -93.7563E+06    -30.5135E+06     657.422E+03    -12.2979E-03     24.5637E-03    -12.2658E-03     2.18622E-03    -12.2728E-03     24.1842E-03    -12.2375E-03     2.19438E-03
            2002     16.8433E-03     23.7097E-03    -2.96165E+06     102.284E+06     51.5139E+06       629.3E+03    -18.8572E-03     34.1177E-03    -15.2605E-03     30.9243E-03    -19.1903E-03     34.6540E-03    -15.1469E-03     30.9298E-03
            2003     15.9593E-03     23.6588E-03    -4.53872E+06     77.5483E+06     15.8143E+06    -234.283E+03    -19.1116E-03     34.0340E-03    -14.9224E-03     55.9276E-03    -19.4158E-03     34.5515E-03    -14.9492E-03     55.9003E-03
            2004     15.0761E-03     23.6035E-03    -5.39065E+06     23.2557E+06    -3.08045E+06     181.469E+03    -19.1285E-03     33.8248E-03    -14.6963E-03     55.0413E-03    -19.2781E-03     34.0468E-03    -14.7376E-03     54.9990E-03
            2005     14.1927E-03     23.5539E-03    -6.24735E+06    -11.2265E+06    -1.60314E+06     776.746E+03    -18.8207E-03     33.3481E-03    -14.5274E-03     48.6717E-03    -18.8850E-03     33.3551E-03    -14.5101E-03     48.6401E-03
            2006     13.3087E-03     23.5099E-03    -6.90415E+06    -24.5098E+06     2.69800E+06     906.191E+03    -18.3236E-03     32.6559E-03    -14.3323E-03     43.6622E-03    -18.3563E-03     32.5693E-03    -14.2733E-03     43.6410E-03
            2007     12.4244E-03     23.4696E-03    -7.36104E+06    -36.8968E+06     2.73710E+06     1.08729E+06    -17.8519E-03     31.9613E-03    -14.1094E-03     39.2570E-03    -17.8576E-03     31.8020E-03    -14.0316E-03     39.2456E-03
            2008     11.5399E-03     23.4332E-03    -8.06266E+06    -48.9543E+06     2.55108E+06     1.25470E+06    -17.3038E-03     31.1864E-03    -13.8826E-03     35.3072E-03    -17.2885E-03     30.9613E-03    -13.7872E-03     35.3042E-03
            2009     10.6547E-03     23.4002E-03    -9.05890E+06    -53.5528E+06     4.98408E+06     1.46741E+06    -16.6970E-03     30.3580E-03    -13.6610E-03     31.5017E-03    -16.6794E-03     30.1036E-03    -13.5453E-03     31.5063E-03
            2010     9.76921E-03     23.3707E-03    -10.4550E+06    -55.3072E+06     5.29131E+06     1.82341E+06    -16.0644E-03     29.4962E-03    -13.4319E-03     27.6946E-03    -16.0489E-03     29.2320E-03    -13.3101E-03     27.7075E-03
            2011     8.88303E-03     23.3448E-03    -12.1926E+06    -59.0459E+06     4.74466E+06     2.01126E+06    -15.4402E-03     28.6524E-03    -13.2122E-03     24.1273E-03    -15.4255E-03     28.3710E-03    -13.0852E-03     24.1453E-03
            2012     7.99648E-03     23.3220E-03    -14.1498E+06    -61.8159E+06     3.72054E+06     2.05318E+06    -14.8251E-03     27.8280E-03    -13.0029E-03     20.7835E-03    -14.8136E-03     27.5361E-03    -12.8742E-03     20.8041E-03
            2013     7.10933E-03     23.3024E-03    -16.3872E+06    -63.6741E+06     1.19519E+06     2.06749E+06    -14.2362E-03     27.0392E-03    -12.8030E-03     17.7162E-03    -14.2288E-03     26.7441E-03    -12.6809E-03     17.7384E-03
            2014     6.22177E-03     23.2857E-03    -18.8392E+06    -67.0476E+06    -2.70758E+06     1.88800E+06    -13.7030E-03     26.3224E-03    -12.6194E-03     14.9041E-03    -13.6969E-03     26.0192E-03    -12.5084E-03     14.9251E-03
            2015     5.33374E-03     23.2716E-03    -21.4181E+06    -71.3732E+06    -7.88151E+06     1.66294E+06    -13.2365E-03     25.6898E-03    -12.4534E-03     12.3394E-03    -13.2292E-03     25.3760E-03    -12.3582E-03     12.3584E-03
            2016     4.44535E-03     23.2600E-03    -23.8895E+06    -76.9778E+06    -13.5887E+06     1.67721E+06    -12.8462E-03     25.1555E-03    -12.3094E-03     9.99331E-03    -12.8346E-03     24.8253E-03    -12.2310E-03     10.0131E-03
            2017     3.55665E-03     23.2507E-03    -26.1405E+06    -82.6424E+06    -19.0476E+06     1.71109E+06    -12.5293E-03     24.7187E-03    -12.1894E-03     7.81947E-03    -12.5127E-03     24.3712E-03    -12.1269E-03     7.84020E-03
            2018     2.66771E-03     23.2435E-03    -28.0733E+06    -87.5333E+06    -23.7192E+06     1.57248E+06    -12.2861E-03     24.3806E-03    -12.0945E-03     5.78140E-03    -12.2653E-03     24.0181E-03    -12.0454E-03     5.80076E-03
            2019     1.77858E-03     23.2385E-03    -29.5408E+06    -90.9261E+06    -27.4021E+06     1.26773E+06    -12.1123E-03     24.1354E-03    -12.0231E-03     3.85110E-03    -12.0885E-03     23.7634E-03    -11.9854E-03     3.86686E-03
            2020     889.317E-06     23.2353E-03    -30.4982E+06    -92.4580E+06    -29.8966E+06     797.849E+03    -12.0040E-03     23.9763E-03    -11.9723E-03     2.07749E-03    -11.9791E-03     23.6016E-03    -11.9435E-03     2.08748E-03
            2021     16.8430E-03     22.7269E-03    -2.28556E+06     102.383E+06     51.2477E+06    -57.8887E+03    -19.3276E-03     34.5560E-03    -15.2284E-03     29.9179E-03    -19.6543E-03     35.0895E-03    -15.1173E-03     29.9119E-03
            2022     15.9610E-03     22.6789E-03    -3.62457E+06     77.1078E+06     15.0605E+06     914.454E+03    -19.3904E-03     34.2563E-03    -14.8658E-03     55.5821E-03    -19.6859E-03     34.7689E-03    -14.8971E-03     55.5666E-03
            2023     15.0773E-03     22.6224E-03    -6.07194E+06     23.2445E+06    -3.49577E+06     1.17538E+06    -19.5025E-03     34.1232E-03    -14.6207E-03     54.8636E-03    -19.6542E-03     34.3461E-03    -14.6631E-03     54.8320E-03
            2024     14.1941E-03     22.5745E-03    -6.53390E+06    -10.9196E+06    -1.62806E+06     575.369E+03    -19.0854E-03     33.5129E-03    -14.4275E-03     47.9617E-03    -19.1504E-03     33.5207E-03    -14.4103E-03     47.9270E-03
            2025     13.3103E-03     22.5305E-03    -6.35915E+06    -25.0377E+06     2.66264E+06     663.995E+03    -18.5352E-03     32.7442E-03    -14.2090E-03     42.9682E-03    -18.5636E-03     32.6534E-03    -14.1501E-03     42.9440E-03
            2026     12.4264E-03     22.4911E-03    -6.81544E+06    -36.8623E+06     2.94388E+06     1.08088E+06    -18.0112E-03     31.9748E-03    -13.9636E-03     38.4099E-03    -18.0138E-03     31.8139E-03    -13.8856E-03     38.3987E-03
            2027     11.5417E-03     22.4556E-03    -7.54042E+06    -49.1775E+06     2.49872E+06     1.36690E+06    -17.4191E-03     31.1323E-03    -13.7132E-03     34.3966E-03    -17.4004E-03     30.9050E-03    -13.6184E-03     34.3953E-03
            2028     10.6569E-03     22.4233E-03    -8.74278E+06    -53.8422E+06     4.83478E+06     1.61578E+06    -16.7368E-03     30.2067E-03    -13.4700E-03     30.5549E-03    -16.7165E-03     29.9503E-03    -13.3550E-03     30.5617E-03
            2029     9.77118E-03     22.3947E-03    -10.0858E+06    -55.5183E+06     5.22577E+06     1.91053E+06    -16.0436E-03     29.2656E-03    -13.2220E-03     26.7734E-03    -16.0257E-03     28.9996E-03    -13.1007E-03     26.7877E-03
            2030     8.88513E-03     22.3695E-03    -11.6528E+06    -58.9718E+06     4.87885E+06     2.16616E+06    -15.3603E-03     28.3462E-03    -12.9859E-03     23.2169E-03    -15.3430E-03     28.0641E-03    -12.8591E-03     23.2372E-03
            2031     7.99838E-03     22.3477E-03    -13.6675E+06    -61.6298E+06     3.77822E+06     2.27319E+06    -14.6887E-03     27.4510E-03    -12.7623E-03     19.9330E-03    -14.6750E-03     27.1591E-03    -12.6343E-03     19.9566E-03
            2032     7.11117E-03     22.3288E-03    -15.9434E+06    -63.3767E+06     1.26660E+06     2.26880E+06    -14.0625E-03     26.6136E-03    -12.5511E-03     16.9400E-03    -14.0533E-03     26.3192E-03    -12.4297E-03     16.9650E-03
            2033     6.22339E-03     22.3128E-03    -18.3507E+06    -66.5077E+06    -2.70167E+06     2.15929E+06    -13.4948E-03     25.8525E-03    -12.3576E-03     14.2188E-03    -13.4870E-03     25.5512E-03    -12.2481E-03     14.2434E-03
            2034     5.33519E-03     22.2993E-03    -20.8409E+06    -71.0243E+06    -7.95744E+06     2.07520E+06    -13.0046E-03     25.1889E-03    -12.1843E-03     11.7559E-03    -12.9947E-03     24.8760E-03    -12.0909E-03     11.7803E-03
            2035     4.44657E-03     22.2882E-03    -23.3579E+06    -76.7239E+06    -13.5594E+06     2.12550E+06    -12.5977E-03     24.6333E-03    -12.0356E-03     9.51114E-03    -12.5839E-03     24.3035E-03    -11.9583E-03     9.53680E-03
            2036     3.55765E-03     22.2793E-03    -25.6614E+06    -82.1012E+06    -18.8127E+06     2.15958E+06    -12.2690E-03     24.1808E-03    -11.9118E-03     7.43782E-03    -12.2511E-03     23.8349E-03    -11.8496E-03     7.46440E-03
            2037     2.66847E-03     22.2725E-03    -27.6432E+06    -86.5968E+06    -23.4793E+06     1.96254E+06    -12.0144E-03     23.8270E-03    -11.8125E-03     5.50008E-03    -11.9931E-03     23.4682E-03    -11.7643E-03     5.52452E-03
            2038     1.77909E-03     22.2677E-03    -29.1562E+06    -89.6511E+06    -27.1078E+06     1.46484E+06    -11.8301E-03     23.5690E-03    -11.7389E-03     3.66337E-03    -11.8066E-03     23.2024E-03    -11.7022E-03     3.68171E-03
            2039     889.591E-06     22.2648E-03    -30.0551E+06    -90.9357E+06    -29.5095E+06     854.424E+03    -11.7160E-03     23.4073E-03    -11.6914E-03     1.97317E-03    -11.6916E-03     23.0391E-03    -11.6635E-03     1.98390E-03
            2040     16.8450E-03     21.7466E-03    -3.58885E+06     100.746E+06     50.2716E+06      33.249E+03    -19.4470E-03     34.6777E-03    -15.2307E-03     30.5907E-03    -19.7770E-03     35.2068E-03    -15.1202E-03     30.5829E-03
            2041     15.9603E-03     21.6972E-03    -6.59593E+06     76.5931E+06     13.5724E+06     1.79847E+06    -20.1621E-03     35.0039E-03    -14.8418E-03     55.9857E-03    -20.4693E-03     35.5202E-03    -14.8754E-03     55.9763E-03
            2042     15.0783E-03     21.6417E-03    -6.14721E+06     24.5777E+06    -3.41950E+06     971.781E+03    -20.0386E-03     34.5962E-03    -14.5576E-03     54.1990E-03    -20.1909E-03     34.8238E-03    -14.6014E-03     54.1623E-03
            2043     14.1953E-03     21.5943E-03    -5.81370E+06    -10.8036E+06    -1.50552E+06     280.993E+03    -19.4452E-03     33.7779E-03    -14.3326E-03     47.1973E-03    -19.5056E-03     33.7837E-03    -14.3161E-03     47.1581E-03
            2044     13.3121E-03     21.5513E-03    -6.19154E+06    -25.2958E+06     2.27832E+06     500.109E+03    -18.8407E-03     32.9242E-03    -14.0835E-03     42.0938E-03    -18.8664E-03     32.8316E-03    -14.0265E-03     42.0672E-03
            2045     12.4280E-03     21.5127E-03    -6.53722E+06    -37.7645E+06     2.55266E+06     988.013E+03    -18.1774E-03     31.9898E-03    -13.8124E-03     37.4546E-03    -18.1762E-03     31.8239E-03    -13.7354E-03     37.4424E-03
            2046     11.5439E-03     21.4778E-03    -7.41524E+06    -49.4669E+06     2.39326E+06     1.56116E+06    -17.5107E-03     31.0508E-03    -13.5402E-03     33.3681E-03    -17.4902E-03     30.8215E-03    -13.4457E-03     33.3696E-03
            2047     10.6588E-03     21.4467E-03    -8.48946E+06    -53.8374E+06     4.78634E+06     1.80442E+06    -16.7612E-03     30.0374E-03    -13.2763E-03     29.5585E-03    -16.7393E-03     29.7804E-03    -13.1619E-03     29.5681E-03
            2048     9.77335E-03     21.4188E-03    -9.83399E+06    -55.7134E+06     5.06015E+06     1.97653E+06    -16.0013E-03     29.0115E-03    -13.0102E-03     25.8088E-03    -15.9813E-03     28.7442E-03    -12.8899E-03     25.8243E-03
            2049     8.88711E-03     21.3947E-03    -11.4067E+06    -59.0817E+06     4.79722E+06     2.26536E+06    -15.2547E-03     28.0146E-03    -12.7599E-03     22.2982E-03    -15.2358E-03     27.7315E-03    -12.6337E-03     22.3200E-03
            2050     8.00034E-03     21.3736E-03     -13.238E+06    -61.4236E+06     3.93479E+06     2.49739E+06    -14.5361E-03     27.0614E-03    -12.5253E-03     19.0894E-03    -14.5207E-03     26.7695E-03    -12.3974E-03     19.1161E-03
            2051     7.11291E-03     21.3556E-03    -15.3517E+06    -63.0158E+06     1.38864E+06     2.44823E+06    -13.8686E-03     26.1735E-03    -12.3049E-03     16.1841E-03    -13.8571E-03     25.8798E-03    -12.1844E-03     16.2116E-03
            2052     6.22499E-03     21.3402E-03    -17.6475E+06    -66.1749E+06    -2.57187E+06     2.44274E+06    -13.2767E-03     25.3821E-03    -12.1054E-03     13.5614E-03    -13.2660E-03     25.0813E-03    -11.9968E-03     13.5898E-03
            2053     5.33656E-03     21.3275E-03    -20.1615E+06    -70.7606E+06    -7.92002E+06     2.60880E+06    -12.7700E-03     24.6975E-03    -11.9276E-03     11.2057E-03    -12.7571E-03     24.3849E-03    -11.8353E-03     11.2370E-03
            2054     4.44774E-03     21.3169E-03    -22.6726E+06    -76.2951E+06    -13.4386E+06     2.73836E+06    -12.3521E-03     24.1281E-03    -11.7760E-03     9.06439E-03    -12.3357E-03     23.7993E-03    -11.6997E-03     9.09804E-03
            2055     3.55859E-03     21.3085E-03    -24.9890E+06    -81.4068E+06    -18.5175E+06     2.71278E+06    -12.0160E-03     23.6665E-03    -11.6506E-03     7.09141E-03    -11.9962E-03     23.3227E-03    -11.5889E-03     7.12521E-03
            2056     2.66917E-03     21.3020E-03    -26.9179E+06    -85.3290E+06    -22.9323E+06     2.39211E+06    -11.7553E-03     23.3057E-03    -11.5504E-03     5.24242E-03    -11.7330E-03     22.9515E-03    -11.5023E-03     5.27244E-03
            2057     1.77957E-03     21.2975E-03    -28.3934E+06    -88.0615E+06    -26.4774E+06     1.74121E+06    -11.5676E-03     23.0440E-03    -11.4764E-03     3.49177E-03    -11.5436E-03     22.6833E-03    -11.4399E-03     3.51370E-03
            2058     889.800E-06     21.2947E-03    -29.3993E+06    -89.1876E+06    -28.8663E+06     994.348E+03    -11.4579E-03     22.8825E-03    -11.4245E-03     1.88185E-03    -11.4338E-03     22.5210E-03    -11.3969E-03     1.89441E-03
            2059     16.8400E-03     20.7640E-03    -4.21112E+06     100.279E+06     51.7980E+06     724.400E+03    -19.9943E-03     35.2351E-03    -15.2408E-03     29.7639E-03    -20.3276E-03     35.7592E-03    -15.1212E-03     29.7599E-03
            2060     15.9613E-03     20.7140E-03    -6.67989E+06     76.5120E+06     15.5858E+06    -498.692E+03    -20.8670E-03     35.6828E-03    -14.8158E-03     53.9284E-03    -21.1741E-03     36.1926E-03    -14.8391E-03     53.8834E-03
            2061     15.0793E-03     20.6610E-03    -5.63380E+06     24.7592E+06    -3.29135E+06     161.346E+03    -20.4342E-03     34.9180E-03    -14.4838E-03     52.5548E-03    -20.5814E-03     35.1427E-03    -14.5280E-03     52.5058E-03
            2062     14.1967E-03     20.6136E-03    -5.88686E+06    -10.6962E+06    -1.58052E+06     508.647E+03    -19.7805E-03     34.0098E-03    -14.2294E-03     46.0383E-03    -19.8399E-03     34.0150E-03    -14.2132E-03     46.0013E-03
            2063     13.3136E-03     20.5720E-03    -6.55606E+06    -25.4746E+06     2.10486E+06     411.751E+03    -19.0892E-03     33.0418E-03    -13.9527E-03     40.8126E-03    -19.1152E-03     32.9481E-03    -13.8957E-03     40.7848E-03
            2064     12.4303E-03     20.5340E-03    -7.12995E+06    -38.6439E+06     1.98903E+06     868.471E+03    -18.3068E-03     31.9633E-03    -13.6565E-03     36.3845E-03    -18.3058E-03     31.7940E-03    -13.5802E-03     36.3710E-03
            2065     11.5457E-03     20.5004E-03    -7.41850E+06    -49.8321E+06     2.31127E+06     1.46256E+06    -17.5525E-03     30.9178E-03    -13.3653E-03     32.3283E-03    -17.5310E-03     30.6863E-03    -13.2707E-03     32.3289E-03
            2066     10.6610E-03     20.4699E-03    -8.12771E+06    -53.9766E+06     4.91955E+06     1.90859E+06    -16.7551E-03     29.8395E-03    -13.0844E-03     28.5182E-03    -16.7311E-03     29.5807E-03    -12.9697E-03     28.5295E-03
            2067     9.77534E-03     20.4434E-03    -9.43876E+06    -55.7483E+06     5.25455E+06     2.16063E+06    -15.9208E-03     28.7248E-03    -12.8040E-03     24.8214E-03    -15.8989E-03     28.4562E-03    -12.6832E-03     24.8395E-03
            2068     8.88910E-03     20.4200E-03    -10.9883E+06    -59.1092E+06     4.93199E+06     2.30828E+06    -15.1216E-03     27.6641E-03    -12.5425E-03     21.3954E-03    -15.1006E-03     27.3799E-03    -12.4162E-03     21.4181E-03
            2069     8.00215E-03     20.4000E-03    -12.6753E+06    -61.3987E+06     4.19229E+06     2.50358E+06    -14.3640E-03     26.6644E-03    -12.3004E-03     18.2657E-03    -14.3461E-03     26.3714E-03    -12.1720E-03     18.2927E-03
            2070     7.11459E-03     20.3827E-03    -14.6653E+06    -62.5522E+06     1.58041E+06     2.63795E+06    -13.6613E-03     25.7353E-03    -12.0740E-03     15.4649E-03    -13.6473E-03     25.4425E-03    -11.9541E-03     15.4950E-03
            2071     6.22644E-03     20.3683E-03    -16.9832E+06    -66.1211E+06    -2.60698E+06     2.77455E+06    -13.0528E-03     24.9245E-03    -11.8717E-03     12.9506E-03    -13.0387E-03     24.6229E-03    -11.7642E-03     12.9834E-03
            2072     5.33782E-03     20.3561E-03    -19.3652E+06    -70.5908E+06    -7.83967E+06     3.18402E+06    -12.5404E-03     24.2336E-03    -11.6932E-03     10.7011E-03    -12.5240E-03     23.9205E-03    -11.6019E-03     10.7400E-03
            2073     4.44879E-03     20.3461E-03    -21.7610E+06    -75.7616E+06    -13.1336E+06     3.43680E+06    -12.1186E-03     23.6605E-03    -11.5420E-03     8.65969E-03    -12.0988E-03     23.3326E-03    -11.4662E-03     8.70244E-03
            2074     3.55942E-03     20.3381E-03    -24.0020E+06    -80.3795E+06    -17.9604E+06     3.35236E+06    -11.7808E-03     23.1984E-03    -11.4176E-03     6.77828E-03    -11.7583E-03     22.8575E-03    -11.3561E-03     6.82039E-03
            2075     2.66981E-03     20.3320E-03    -25.9370E+06    -83.7443E+06    -22.2721E+06     2.87698E+06    -11.5206E-03     22.8390E-03    -11.3184E-03     5.01354E-03    -11.4966E-03     22.4903E-03    -11.2707E-03     5.04987E-03
            2076     1.77997E-03     20.3277E-03    -27.4457E+06    -86.1419E+06    -25.6475E+06     2.09246E+06    -11.3368E-03     22.5825E-03    -11.2457E-03     3.34158E-03    -11.3120E-03     22.2288E-03    -11.2092E-03     3.36808E-03
            2077     890.040E-06     20.3251E-03    -28.4052E+06    -87.0969E+06    -27.9401E+06     1.19352E+06    -11.2285E-03     22.4221E-03    -11.1936E-03     1.80739E-03    -11.2037E-03     22.0683E-03    -11.1658E-03     1.82253E-03
            2078     16.8471E-03     19.7804E-03    -2.15163E+06     101.425E+06     52.0335E+06     867.614E+03    -20.9685E-03     36.1467E-03    -15.1782E-03     28.6892E-03    -21.2895E-03     36.6693E-03    -15.0620E-03     28.6834E-03
            2079     15.9627E-03     19.7319E-03    -3.26486E+06     76.8076E+06     16.0569E+06     135.616E+03    -20.7892E-03     35.5149E-03    -14.7257E-03     52.6022E-03    -21.0746E-03     36.0148E-03    -14.7520E-03     52.5641E-03
            2080     15.0808E-03     19.6793E-03    -5.80171E+06     23.9074E+06    -3.34528E+06     24.1019E+03    -20.6375E-03     35.0251E-03    -14.3875E-03     51.3432E-03    -20.7813E-03     35.2429E-03    -14.4305E-03     51.2913E-03
            2081     14.1986E-03     19.6332E-03    -5.74326E+06    -10.1436E+06    -1.12540E+06     387.402E+03    -20.0103E-03     34.1221E-03    -14.1118E-03     44.8000E-03    -20.0687E-03     34.1274E-03    -14.0944E-03     44.7610E-03
            2082     13.3159E-03     19.5921E-03    -6.08293E+06    -26.2260E+06     2.37489E+06     584.730E+03    -19.1679E-03     32.9839E-03    -13.8160E-03     39.6709E-03    -19.1897E-03     32.8841E-03    -13.7573E-03     39.6457E-03
            2083     12.4319E-03     19.5558E-03    -6.83121E+06    -38.6371E+06     2.32245E+06     771.737E+03    -18.3818E-03     31.8844E-03    -13.5026E-03     35.3132E-03    -18.3790E-03     31.7135E-03    -13.4251E-03     35.2989E-03
            2084     11.5480E-03     19.5227E-03    -7.22762E+06    -50.4220E+06     2.23686E+06     1.07003E+06    -17.5708E-03     30.7645E-03    -13.1937E-03     31.2964E-03    -17.5468E-03     30.5294E-03    -13.0989E-03     31.2924E-03
            2085     10.6629E-03     19.4938E-03    -7.78860E+06    -54.4294E+06     5.14273E+06     1.78190E+06    -16.6911E-03     29.5916E-03    -12.9005E-03     27.4859E-03    -16.6646E-03     29.3294E-03    -12.7846E-03     27.4960E-03
            2086     9.77732E-03     19.4680E-03    -8.79099E+06    -55.7169E+06     5.72917E+06     2.18665E+06    -15.8074E-03     28.4180E-03    -12.6106E-03     23.8586E-03    -15.7827E-03     28.1477E-03    -12.4884E-03     23.8774E-03
            2087     8.89091E-03     19.4459E-03    -10.1659E+06    -59.0386E+06     5.38979E+06     2.34229E+06    -14.9649E-03     27.3070E-03    -12.3421E-03     20.5188E-03    -14.9404E-03     27.0212E-03    -12.2148E-03     20.5422E-03
            2088     8.00381E-03     19.4266E-03    -11.9136E+06    -61.4060E+06     4.51298E+06     2.53334E+06    -14.1721E-03     26.2682E-03    -12.0961E-03     17.4839E-03    -14.1508E-03     25.9735E-03    -11.9672E-03     17.5116E-03
            2089     7.11607E-03     19.4104E-03    -13.9431E+06    -62.4059E+06     1.82249E+06     2.82120E+06    -13.4528E-03     25.3210E-03    -11.8683E-03     14.7829E-03    -13.4356E-03     25.0276E-03    -11.7484E-03     14.8156E-03
            2090     6.22773E-03     19.3966E-03    -16.1643E+06    -66.0767E+06    -2.61389E+06     3.20613E+06    -12.8352E-03     24.5009E-03    -11.6658E-03     12.3835E-03    -12.8170E-03     24.1984E-03    -11.5596E-03     12.4220E-03
            2091     5.33892E-03     19.3852E-03    -18.4988E+06    -70.6257E+06    -7.73457E+06     3.72543E+06    -12.3235E-03     23.8137E-03    -11.4902E-03     10.2385E-03    -12.3028E-03     23.4990E-03    -11.3996E-03     10.2845E-03
            2092     4.44968E-03     19.3757E-03    -20.7388E+06    -75.0546E+06    -12.7165E+06     4.12607E+06    -11.9063E-03     23.2484E-03    -11.3421E-03     8.29461E-03    -11.8830E-03     22.9219E-03    -11.2668E-03     8.34634E-03
            2093     3.56014E-03     19.3682E-03    -22.8355E+06    -79.1066E+06    -17.3130E+06     4.00808E+06    -11.5739E-03     22.7950E-03    -11.2210E-03     6.49709E-03    -11.5484E-03     22.4578E-03    -11.1598E-03     6.54772E-03
            2094     2.67030E-03     19.3624E-03    -24.6318E+06    -81.7811E+06    -21.3631E+06     3.45852E+06    -11.3193E-03     22.4444E-03    -11.1252E-03     4.80997E-03    -11.2929E-03     22.1023E-03    -11.0777E-03     4.85385E-03
            2095     1.78033E-03     19.3584E-03    -26.0506E+06    -83.8469E+06    -24.4875E+06     2.49551E+06    -11.1427E-03     22.1990E-03    -11.0563E-03     3.21344E-03    -11.1159E-03     21.8531E-03    -11.0194E-03     3.24516E-03
            2096     890.173E-06     19.3558E-03    -27.0071E+06    -84.6216E+06    -26.5427E+06     1.39389E+06    -11.0437E-03     22.0482E-03    -11.0045E-03     1.73567E-03    -11.0176E-03     21.7028E-03    -10.9753E-03     1.75341E-03
            2097     16.8439E-03     18.7973E-03    -3.33833E+06     99.9853E+06     51.4257E+06    -104.569E+03    -21.4451E-03     36.5885E-03    -15.1434E-03     28.9753E-03    -21.7677E-03     37.1051E-03    -15.0264E-03     28.9531E-03
            2098     15.9642E-03     18.7501E-03    -4.20725E+06     76.9812E+06     15.8297E+06     1.35810E+06    -21.3350E-03     35.9953E-03    -14.6603E-03     52.9279E-03    -21.6226E-03     36.4954E-03    -14.6867E-03     52.9014E-03
            2099     15.0823E-03     18.6973E-03    -4.44604E+06     24.9637E+06    -2.61861E+06     800.215E+03    -20.9918E-03     35.2842E-03    -14.2924E-03     50.6780E-03    -21.1288E-03     35.5017E-03    -14.3352E-03     50.6347E-03
            2100     14.2004E-03     18.6525E-03    -5.30521E+06    -10.8276E+06    -934.641E+03     222.938E+03    -20.1498E-03     34.1456E-03    -13.9958E-03     43.7328E-03    -20.2032E-03     34.1444E-03    -13.9771E-03     43.6920E-03
            2101     13.3172E-03     18.6129E-03    -5.71745E+06    -26.2123E+06     2.74435E+06     504.904E+03    -19.2493E-03     32.9330E-03    -13.6837E-03     38.6636E-03    -19.2687E-03     32.8311E-03    -13.6237E-03     38.6378E-03
            2102     12.4341E-03     18.5771E-03    -6.11607E+06    -38.7932E+06     2.82816E+06     686.773E+03    -18.4153E-03     31.7713E-03    -13.3561E-03     34.2634E-03    -18.4086E-03     31.5971E-03    -13.2768E-03     34.2485E-03
            2103     11.5497E-03     18.5457E-03    -6.83620E+06    -50.9030E+06     2.39382E+06     921.536E+03    -17.5373E-03     30.5713E-03    -13.0340E-03     30.2547E-03    -17.5103E-03     30.3325E-03    -12.9383E-03     30.2493E-03
            2104     10.6648E-03     18.5174E-03    -7.46859E+06    -55.1450E+06     5.16520E+06     1.31552E+06    -16.5898E-03     29.3217E-03    -12.7319E-03     26.5033E-03    -16.5604E-03     29.0551E-03    -12.6153E-03     26.5078E-03
            2105     9.77902E-03     18.4931E-03    -8.21757E+06    -55.8403E+06     6.11115E+06     1.97306E+06    -15.6663E-03     28.1037E-03    -12.4374E-03     22.9408E-03    -15.6388E-03     27.8312E-03    -12.3140E-03     22.9572E-03
            2106     8.89250E-03     18.4718E-03    -9.46079E+06    -59.1416E+06     5.74551E+06     2.35605E+06    -14.7938E-03     26.9600E-03    -12.1662E-03     19.6721E-03    -14.7660E-03     26.6720E-03    -12.0380E-03     19.6960E-03
            2107     8.00524E-03     18.4538E-03    -11.1338E+06    -61.3228E+06     4.92437E+06     2.63142E+06    -13.9784E-03     25.8987E-03    -11.9203E-03     16.7313E-03    -13.9537E-03     25.6026E-03    -11.7906E-03     16.7604E-03
            2108     7.11730E-03     18.4383E-03    -13.0252E+06    -62.5400E+06     2.14679E+06     2.94616E+06    -13.2525E-03     24.9471E-03    -11.6946E-03     14.1352E-03    -13.2310E-03     24.6511E-03    -11.5743E-03     14.1697E-03
            2109     6.22881E-03     18.4255E-03    -15.1225E+06    -66.2975E+06    -2.30612E+06     3.66504E+06    -12.6384E-03     24.1341E-03    -11.4956E-03     11.8420E-03    -12.6152E-03     23.8285E-03    -11.3891E-03     11.8866E-03
            2110     5.33979E-03     18.4145E-03    -17.3670E+06    -70.5314E+06    -7.43346E+06     4.36867E+06    -12.1314E-03     23.4553E-03    -11.3239E-03     9.80430E-03    -12.1055E-03     23.1389E-03    -11.2336E-03     9.85870E-03
            2111     4.45041E-03     18.4057E-03    -19.5067E+06    -74.3183E+06    -12.1318E+06     4.72242E+06    -11.7244E-03     22.9053E-03    -11.1809E-03     7.94794E-03    -11.6968E-03     22.5798E-03    -11.1056E-03     8.00743E-03
            2112     3.56066E-03     18.3986E-03    -21.3719E+06    -77.5124E+06    -16.4169E+06     4.61658E+06    -11.4032E-03     22.4675E-03    -11.0643E-03     6.22810E-03    -11.3740E-03     22.1348E-03    -11.0030E-03     6.28663E-03
            2113     2.67073E-03     18.3932E-03    -22.9361E+06    -79.5754E+06    -20.0765E+06     3.95050E+06    -11.1594E-03     22.1324E-03    -10.9729E-03     4.61294E-03    -11.1297E-03     21.7969E-03    -10.9247E-03     4.66320E-03
            2114     1.78055E-03     18.3893E-03    -24.1298E+06    -81.1031E+06    -22.8361E+06     2.92674E+06    -10.9910E-03     21.8986E-03    -10.9076E-03     3.07965E-03    -10.9610E-03     21.5612E-03    -10.8692E-03     3.11696E-03
            2115     890.334E-06     18.3870E-03    -24.9710E+06    -81.7371E+06    -24.6661E+06     1.64811E+06    -10.8976E-03     21.7554E-03    -10.8578E-03     1.66429E-03    -10.8681E-03     21.4187E-03    -10.8264E-03     1.68532E-03
            2116     16.8454E-03     17.8134E-03    -3.82593E+06     99.3953E+06     51.7393E+06    -33.5608E+03    -21.8976E-03     37.0361E-03    -15.1385E-03     27.4337E-03    -22.2192E-03     37.5469E-03    -15.0184E-03     27.4077E-03
            2117     15.9640E-03     17.7662E-03    -6.82896E+06     76.1639E+06     14.9236E+06    -97.6744E+03    -22.0215E-03     36.6402E-03    -14.6187E-03     51.4466E-03    -22.3159E-03     37.1374E-03    -14.6446E-03     51.3957E-03
            2118     15.0838E-03     17.7155E-03    -6.46006E+06     25.4481E+06    -3.36875E+06     567.546E+03    -21.3937E-03     35.6060E-03    -14.2123E-03     49.5787E-03    -21.5378E-03     35.8273E-03    -14.2566E-03     49.5307E-03
            2119     14.2016E-03     17.6719E-03    -5.81946E+06    -10.5779E+06    -1.08774E+06     251.659E+03    -20.3770E-03     34.2676E-03    -13.8906E-03     42.4715E-03    -20.4311E-03     34.2667E-03    -13.8723E-03     42.4312E-03
            2120     13.3194E-03     17.6333E-03    -5.75155E+06    -26.3514E+06     2.66156E+06     7.72769E+03    -19.3346E-03     32.8944E-03    -13.5599E-03     37.5104E-03    -19.3526E-03     32.7908E-03    -13.5000E-03     37.4788E-03
            2121     12.4355E-03     17.5990E-03    -6.05285E+06    -39.2780E+06     2.85027E+06     461.089E+03    -18.3749E-03     31.5964E-03    -13.2215E-03     33.2179E-03    -18.3664E-03     31.4188E-03    -13.1416E-03     33.2007E-03
            2122     11.5515E-03     17.5684E-03    -6.49062E+06    -51.0834E+06     2.68736E+06     783.527E+03    -17.4384E-03     30.3323E-03    -12.8939E-03     29.2448E-03    -17.4094E-03     30.0911E-03    -12.7970E-03     29.2382E-03
            2123     10.6663E-03     17.5418E-03    -7.21138E+06    -55.5787E+06     5.21546E+06     1.05627E+06    -16.4754E-03     29.0627E-03    -12.5873E-03     25.5493E-03    -16.4438E-03     28.7932E-03    -12.4702E-03     25.5509E-03
            2124     9.78050E-03     17.5183E-03    -8.12669E+06    -56.4697E+06     6.20274E+06     1.54785E+06    -15.5171E-03     27.8087E-03    -12.2916E-03     22.0401E-03    -15.4883E-03     27.5325E-03    -12.1669E-03     22.0514E-03
            2125     8.89381E-03     17.4983E-03    -9.18185E+06    -59.3100E+06     6.10364E+06     2.22490E+06    -14.6237E-03     26.6449E-03    -12.0212E-03     18.8367E-03    -14.5946E-03     26.3550E-03    -11.8914E-03     18.8591E-03
            2126     8.00639E-03     17.4811E-03    -10.5541E+06    -61.2968E+06     5.28624E+06     2.50828E+06    -13.8007E-03     25.5779E-03    -11.7772E-03     15.9835E-03    -13.7736E-03     25.2804E-03    -11.6466E-03     16.0112E-03
            2127     7.11831E-03     17.4667E-03    -12.2537E+06    -62.8881E+06     2.38141E+06     3.04658E+06    -13.0749E-03     24.6300E-03    -11.5551E-03     13.4906E-03    -13.0493E-03     24.3308E-03    -11.4343E-03     13.5264E-03
            2128     6.22961E-03     17.4545E-03    -14.1930E+06    -66.8956E+06    -1.98976E+06     4.02712E+06    -12.4736E-03     23.8348E-03    -11.3612E-03     11.2966E-03    -12.4452E-03     23.5244E-03    -11.2536E-03     11.3460E-03
            2129     5.34050E-03     17.4444E-03    -16.1431E+06    -70.2818E+06    -6.69492E+06     4.91726E+06    -11.9793E-03     23.1734E-03    -11.1941E-03     9.35020E-03    -11.9487E-03     22.8555E-03    -11.1023E-03     9.41176E-03
            2130     4.45093E-03     17.4359E-03    -17.9608E+06    -73.3806E+06    -11.1723E+06     5.21602E+06    -11.5823E-03     22.6369E-03    -11.0546E-03     7.57629E-03    -11.5497E-03     22.3125E-03    -10.9780E-03     7.64222E-03
            2131     3.56112E-03     17.4293E-03    -19.4805E+06    -75.7225E+06    -14.9652E+06     4.98738E+06    -11.2715E-03     22.2133E-03    -10.9419E-03     5.92768E-03    -11.2375E-03     21.8848E-03    -10.8786E-03     5.99105E-03
            2132     2.67100E-03     17.4241E-03    -20.6579E+06    -77.1187E+06    -18.1553E+06     4.28085E+06    -11.0364E-03     21.8901E-03    -10.8536E-03     4.38937E-03    -11.0016E-03     21.5608E-03    -10.8026E-03     4.44393E-03
            2133     1.78081E-03     17.4205E-03    -21.4863E+06    -78.1318E+06    -20.3977E+06     3.17268E+06    -10.8747E-03     21.6653E-03    -10.7906E-03     2.93418E-03    -10.8393E-03     21.3354E-03    -10.7481E-03     2.97468E-03
            2134     890.405E-06     17.4183E-03    -21.9348E+06    -78.4211E+06    -21.6770E+06     1.84975E+06    -10.7816E-03     21.5252E-03    -10.7436E-03     1.57612E-03    -10.7462E-03     21.1964E-03    -10.7065E-03     1.59976E-03
            2135     16.8453E-03     16.8279E-03    -2.91621E+06     100.046E+06     52.7650E+06     486.160E+03    -22.5083E-03     37.6253E-03    -15.1170E-03     26.7102E-03    -22.8246E-03     38.1334E-03    -14.9940E-03     26.6871E-03
            2136     15.9660E-03     16.7834E-03    -4.85208E+06     76.5401E+06     16.0314E+06     484.711E+03    -22.3186E-03     36.8880E-03    -14.5694E-03     50.2211E-03    -22.6002E-03     37.3776E-03    -14.5932E-03     50.1744E-03
            2137     15.0842E-03     16.7327E-03    -6.53700E+06     24.9911E+06    -3.70396E+06    -214.015E+03    -21.6411E-03     35.7806E-03    -14.1395E-03     48.0923E-03    -21.7810E-03     35.9969E-03    -14.1848E-03     48.0334E-03
            2138     14.2035E-03     16.6911E-03    -6.23453E+06    -9.79498E+06    -1.13467E+06    -403.687E+03    -20.5379E-03     34.3368E-03    -13.7989E-03     41.1749E-03    -20.5930E-03     34.3384E-03    -13.7814E-03     41.1264E-03
            2139     13.3204E-03     16.6540E-03    -5.93290E+06    -26.8718E+06     2.29335E+06    -249.164E+03    -19.3899E-03     32.8434E-03    -13.4535E-03     36.4320E-03    -19.4063E-03     32.7367E-03    -13.3945E-03     36.3976E-03
            2140     12.4373E-03     16.6208E-03    -6.21610E+06    -39.9672E+06     2.67513E+06     135.826E+03    -18.2988E-03     31.4074E-03    -13.1085E-03     32.2001E-03    -18.2892E-03     31.2261E-03    -13.0282E-03     32.1794E-03
            2141     11.5527E-03     16.5917E-03    -6.64730E+06    -51.3273E+06     2.72123E+06     542.283E+03    -17.3255E-03     30.1043E-03    -12.7788E-03     28.3038E-03    -17.2965E-03     29.8616E-03    -12.6811E-03     28.2947E-03
            2142     10.6676E-03     16.5660E-03    -7.28964E+06    -55.7965E+06     5.37128E+06     832.461E+03    -16.3612E-03     28.8326E-03    -12.4714E-03     24.5639E-03    -16.3296E-03     28.5615E-03    -12.3531E-03     24.5631E-03
            2143     9.78163E-03     16.5440E-03    -8.27191E+06    -57.1109E+06     6.29857E+06     1.25447E+06    -15.3889E-03     27.5644E-03    -12.1754E-03     21.0985E-03    -15.3598E-03     27.2848E-03    -12.0491E-03     21.1064E-03
            2144     8.89482E-03     16.5249E-03    -9.32232E+06    -59.5748E+06     6.30089E+06     1.68049E+06    -14.4815E-03     26.3874E-03    -11.9059E-03     17.9542E-03    -14.4528E-03     26.0959E-03    -11.7745E-03     17.9698E-03
            2145     8.00729E-03     16.5089E-03    -10.4179E+06    -61.4598E+06     5.52968E+06     2.16290E+06    -13.6586E-03     25.3222E-03    -11.6636E-03     15.1653E-03    -13.6309E-03     25.0233E-03    -11.5317E-03     15.1887E-03
            2146     7.11905E-03     16.4953E-03    -11.9597E+06    -63.7013E+06     2.50938E+06     3.04778E+06    -12.9448E-03     24.3885E-03    -11.4438E-03     12.7530E-03    -12.9167E-03     24.0846E-03    -11.3215E-03     12.7890E-03
            2147     6.23029E-03     16.4839E-03    -13.7194E+06    -67.4659E+06    -1.68370E+06     4.21217E+06    -12.3540E-03     23.6057E-03    -11.2516E-03     10.6494E-03    -12.3229E-03     23.2912E-03    -11.1423E-03     10.7013E-03
            2148     5.34101E-03     16.4743E-03    -15.3252E+06    -70.0842E+06    -5.91582E+06     5.02264E+06    -11.8688E-03     22.9546E-03    -11.0858E-03     8.78679E-03    -11.8355E-03     22.6353E-03    -10.9915E-03     8.84980E-03
            2149     4.45142E-03     16.4665E-03    -16.5593E+06    -72.1568E+06    -9.86906E+06     5.27802E+06    -11.4753E-03     22.4216E-03    -10.9463E-03     7.10311E-03    -11.4394E-03     22.0993E-03    -10.8670E-03     7.16990E-03
            2150     3.56145E-03     16.4601E-03    -17.4663E+06    -73.8413E+06    -13.1110E+06     4.91647E+06    -11.1658E-03     21.9997E-03    -10.8340E-03     5.54506E-03    -11.1271E-03     21.6750E-03    -10.7671E-03     5.60755E-03
            2151     2.67133E-03     16.4554E-03    -18.0334E+06    -74.5915E+06    -15.5431E+06     4.16688E+06    -10.9307E-03     21.6779E-03    -10.7472E-03     4.10064E-03    -10.8902E-03     21.3537E-03    -10.6906E-03     4.15375E-03
            2152     1.78093E-03     16.4519E-03    -18.3648E+06    -75.1031E+06    -17.2532E+06     3.07594E+06    -10.7676E-03     21.4532E-03    -10.6856E-03     2.74137E-03    -10.7255E-03     21.1293E-03    -10.6364E-03     2.78064E-03
            2153     890.535E-06     16.4499E-03    -18.5508E+06    -75.0061E+06    -18.1997E+06     1.77843E+06    -10.6803E-03     21.3169E-03    -10.6366E-03     1.47300E-03    -10.6379E-03     20.9952E-03    -10.5920E-03     1.49573E-03
            2154     16.8463E-03     15.8438E-03    -3.70061E+06     99.1438E+06     53.2322E+06     172.024E+03    -22.9763E-03     38.0873E-03    -15.1110E-03     26.2547E-03    -23.2934E-03     38.5888E-03    -14.9832E-03     26.2234E-03
            2155     15.9654E-03     15.7986E-03    -4.95890E+06     77.1956E+06     16.7685E+06     566.132E+03    -22.8529E-03     37.3851E-03    -14.5322E-03     49.0645E-03    -23.1324E-03     37.8724E-03    -14.5531E-03     49.0147E-03
            2156     15.0863E-03     15.7507E-03    -5.06267E+06     26.0576E+06    -3.45627E+06     110.307E+03    -21.8358E-03     35.9078E-03    -14.0720E-03     46.5508E-03    -21.9663E-03     36.1229E-03    -14.1197E-03     46.4957E-03
            2157     14.2037E-03     15.7101E-03    -5.75093E+06    -9.85337E+06    -1.28629E+06    -664.662E+03    -20.5423E-03     34.2631E-03    -13.7207E-03     39.7336E-03    -20.5924E-03     34.2615E-03    -13.7046E-03     39.6826E-03
            2158     13.3220E-03     15.6744E-03    -6.21877E+06    -27.2205E+06     2.05681E+06    -614.872E+03    -19.3599E-03     32.7305E-03    -13.3706E-03     35.1095E-03    -19.3756E-03     32.6216E-03    -13.3118E-03     35.0712E-03
            2159     12.4380E-03     15.6431E-03    -6.54685E+06    -40.6986E+06     2.52471E+06    -104.049E+03    -18.2705E-03     31.2919E-03    -13.0214E-03     31.0973E-03    -18.2605E-03     31.1069E-03    -12.9403E-03     31.0742E-03
            2160     11.5539E-03     15.6148E-03    -7.00759E+06    -51.5036E+06     2.79093E+06     255.642E+03    -17.2761E-03     29.9631E-03    -12.6870E-03     27.2037E-03    -17.2481E-03     29.7194E-03    -12.5882E-03     27.1914E-03
            2161     10.6685E-03     15.5906E-03    -7.61621E+06    -56.1910E+06     5.49377E+06     507.359E+03    -16.2875E-03     28.6637E-03    -12.3762E-03     23.3966E-03    -16.2568E-03     28.3906E-03    -12.2562E-03     23.3920E-03
            2162     9.78251E-03     15.5696E-03    -8.40730E+06    -57.4487E+06     6.65434E+06     839.561E+03    -15.3238E-03     27.4011E-03    -12.0773E-03     19.8970E-03    -15.2951E-03     27.1193E-03    -11.9485E-03     19.8998E-03
            2163     8.89566E-03     15.5519E-03    -9.31814E+06    -59.7456E+06     6.70137E+06     1.03828E+06    -14.4113E-03     26.2144E-03    -11.8031E-03     16.7609E-03    -14.3828E-03     25.9212E-03    -11.6694E-03     16.7685E-03
            2164     8.00802E-03     15.5368E-03    -10.5068E+06    -62.1824E+06     5.85117E+06     1.62926E+06    -13.5867E-03     25.1431E-03    -11.5564E-03     14.0083E-03    -13.5587E-03     24.8401E-03    -11.4218E-03     14.0251E-03
            2165     7.11977E-03     15.5241E-03    -11.9484E+06    -64.8396E+06     2.85094E+06     2.93185E+06    -12.8761E-03     24.2074E-03    -11.3313E-03     11.6568E-03    -12.8467E-03     23.8971E-03    -11.2057E-03     11.6915E-03
            2166     6.23090E-03     15.5134E-03    -13.5037E+06    -67.8400E+06    -1.06056E+06     4.06115E+06    -12.2748E-03     23.4072E-03    -11.1324E-03     9.64995E-03    -12.2429E-03     23.0896E-03    -11.0198E-03     9.70004E-03
            2167     5.34163E-03     15.5045E-03    -14.7074E+06    -69.6938E+06    -4.90298E+06     4.56583E+06    -11.7732E-03     22.7335E-03    -10.9604E-03     7.91089E-03    -11.7388E-03     22.4138E-03    -10.8625E-03     7.96811E-03
            2168     4.45189E-03     15.4971E-03    -15.4607E+06    -71.0139E+06    -8.39840E+06     4.64310E+06    -11.3668E-03     22.1824E-03    -10.8156E-03     6.36231E-03    -11.3291E-03     21.8621E-03    -10.7322E-03     6.42098E-03
            2169     3.56193E-03     15.4913E-03    -15.8441E+06    -71.9120E+06    -11.2815E+06     4.26937E+06    -11.0445E-03     21.7428E-03    -10.6983E-03     4.94950E-03    -11.0032E-03     21.4226E-03    -10.6274E-03     5.00370E-03
            2170     2.67160E-03     15.4867E-03    -16.0140E+06    -72.3106E+06    -13.3793E+06     3.52251E+06    -10.8016E-03     21.4095E-03    -10.6079E-03     3.65075E-03    -10.7575E-03     21.0906E-03    -10.5468E-03     3.69558E-03
            2171     1.78123E-03     15.4836E-03    -16.0154E+06    -72.3132E+06    -14.7826E+06     2.57499E+06    -10.6298E-03     21.1729E-03    -10.5431E-03     2.43365E-03    -10.5836E-03     20.8560E-03    -10.4890E-03     2.46648E-03
            2172     890.596E-06     15.4815E-03    -15.9739E+06    -71.9466E+06    -15.6462E+06     1.46557E+06    -10.5275E-03     21.0283E-03    -10.5008E-03     1.30838E-03    -10.4804E-03     20.7144E-03    -10.4515E-03     1.32708E-03
            2173     16.8447E-03     14.8571E-03    -3.37511E+06     98.9522E+06     53.3476E+06     270.526E+03    -23.6004E-03     38.6879E-03    -15.0875E-03     24.2598E-03    -23.9111E-03     39.1832E-03    -14.9594E-03     24.2264E-03
            2174     15.9673E-03     14.8143E-03    -5.59023E+06     76.9310E+06     15.9180E+06     110.755E+03    -22.9440E-03     37.4265E-03    -14.4826E-03     46.7782E-03    -23.2182E-03     37.9079E-03    -14.5064E-03     46.7208E-03
            2175     15.0859E-03     14.7680E-03    -6.63373E+06     27.0985E+06    -4.34971E+06    -39.8943E+03    -21.8933E-03     35.9050E-03    -14.0117E-03     44.7073E-03    -22.0276E-03     36.1246E-03    -14.0631E-03     44.6505E-03
            2176     14.2058E-03     14.7293E-03    -6.29775E+06    -9.17064E+06    -1.47251E+06    -712.603E+03    -20.5210E-03     34.1770E-03    -13.6560E-03     38.1835E-03    -20.5720E-03     34.1774E-03    -13.6409E-03     38.1327E-03
            2177     13.3222E-03     14.6954E-03    -6.57084E+06    -28.0192E+06     1.72417E+06    -852.679E+03    -19.3148E-03     32.6180E-03    -13.3032E-03     33.7819E-03    -19.3292E-03     32.5047E-03    -13.2444E-03     33.7414E-03
            2178     12.4392E-03     14.6649E-03    -6.98054E+06    -41.0440E+06     2.50196E+06    -427.608E+03    -18.3372E-03     31.2849E-03    -12.9477E-03     29.7174E-03    -18.3280E-03     31.0980E-03    -12.8656E-03     29.6906E-03
            2179     11.5547E-03     14.6384E-03    -7.34377E+06    -51.7943E+06     2.90624E+06    -96.5441E+03    -17.3452E-03     29.9463E-03    -12.6011E-03     25.7403E-03    -17.3181E-03     29.7009E-03    -12.5009E-03     25.7239E-03
            2180     10.6696E-03     14.6152E-03    -7.94868E+06    -56.4259E+06     5.71395E+06     80.3509E+03    -16.3469E-03     28.6234E-03    -12.2765E-03     21.8282E-03    -16.3173E-03     28.3488E-03    -12.1546E-03     21.8185E-03
            2181     9.78355E-03     14.5956E-03    -8.65266E+06    -57.7519E+06     7.18753E+06     181.195E+03    -15.3808E-03     27.3437E-03    -11.9629E-03     18.2110E-03    -15.3533E-03     27.0597E-03    -11.8307E-03     18.2056E-03
            2182     8.89672E-03     14.5788E-03    -9.59991E+06    -59.9556E+06     7.37192E+06     438.219E+03    -14.4547E-03     26.1254E-03    -11.6707E-03     15.0088E-03    -14.4280E-03     25.8305E-03    -11.5330E-03     15.0089E-03
            2183     8.00918E-03     14.5649E-03    -10.9241E+06    -63.3061E+06     6.28190E+06     1.17695E+06    -13.5988E-03     25.0033E-03    -11.4045E-03     12.2790E-03    -13.5717E-03     24.6945E-03    -11.2655E-03     12.2902E-03
            2184     7.12088E-03     14.5530E-03    -12.4129E+06    -66.1216E+06     3.43979E+06     2.49069E+06    -12.8458E-03     24.0064E-03    -11.1606E-03     10.0175E-03    -12.8176E-03     23.6894E-03    -11.0295E-03     10.0467E-03
            2185     6.23207E-03     14.5432E-03    -13.5891E+06    -67.8975E+06    -270.113E+03     3.42235E+06    -12.1926E-03     23.1345E-03    -10.9419E-03     8.14782E-03    -12.1620E-03     22.8154E-03    -10.8251E-03     8.18982E-03
            2186     5.34264E-03     14.5349E-03    -14.4869E+06    -69.1710E+06    -4.24591E+06     3.66688E+06    -11.6400E-03     22.3923E-03    -10.7523E-03     6.59672E-03    -11.6062E-03     22.0739E-03    -10.6522E-03     6.64247E-03
            2187     4.45287E-03     14.5281E-03    -15.0479E+06    -69.9627E+06    -7.80742E+06     3.57484E+06    -11.1912E-03     21.7853E-03    -10.5941E-03     5.25658E-03    -11.1538E-03     21.4688E-03    -10.5099E-03     5.30158E-03
            2188     3.56264E-03     14.5226E-03    -15.2914E+06    -70.3376E+06    -10.5798E+06     3.20751E+06    -10.8421E-03     21.3093E-03    -10.4672E-03     4.06855E-03    -10.8013E-03     20.9952E-03    -10.3960E-03     4.10914E-03
            2189     2.67227E-03     14.5185E-03    -15.2890E+06    -70.3522E+06    -12.6042E+06     2.57995E+06    -10.5828E-03     20.9515E-03    -10.3687E-03     2.98913E-03    -10.5390E-03     20.6403E-03    -10.3076E-03     3.02187E-03
            2190     1.78157E-03     14.5155E-03    -15.1336E+06    -70.1574E+06    -13.9205E+06     1.76871E+06    -10.3982E-03     20.6943E-03    -10.2962E-03     1.98052E-03    -10.3519E-03     20.3857E-03    -10.2421E-03     2.00300E-03
            2191     890.874E-06     14.5137E-03    -14.8932E+06    -69.6077E+06    -14.5432E+06     994.860E+03    -10.2822E-03     20.5274E-03    -10.2451E-03     1.04550E-03    -10.2347E-03     20.2220E-03    -10.1953E-03     1.05817E-03
            2192     16.8491E-03     13.8713E-03    -3.60709E+06     98.2768E+06     53.7719E+06     471.001E+03    -23.9246E-03     39.0127E-03    -15.0882E-03     24.4074E-03    -24.2336E-03     39.5019E-03    -14.9566E-03     24.3738E-03
            2193     15.9672E-03     13.8305E-03    -5.36512E+06     77.5250E+06     16.1333E+06     922.161E+03    -23.2913E-03     37.7522E-03    -14.4609E-03     46.3380E-03    -23.5608E-03     38.2312E-03    -14.4849E-03     46.2885E-03
            2194     15.0880E-03     13.7849E-03    -5.71634E+06     28.0142E+06    -4.56700E+06    -226.104E+03    -21.9925E-03     35.9638E-03    -13.9713E-03     43.2266E-03    -22.1187E-03     36.1825E-03    -14.0265E-03     43.1677E-03
            2195     14.2053E-03     13.7489E-03    -6.32950E+06    -8.90417E+06    -1.73275E+06    -774.655E+03    -20.6085E-03     34.2166E-03    -13.6081E-03     36.7347E-03    -20.6573E-03     34.2163E-03    -13.5946E-03     36.6840E-03
            2196     13.3236E-03     13.7159E-03    -6.83056E+06    -28.0004E+06     1.61143E+06    -943.842E+03    -19.5422E-03     32.7835E-03    -13.2413E-03     32.3044E-03    -19.5564E-03     32.6695E-03    -13.1828E-03     32.2630E-03
            2197     12.4398E-03     13.6871E-03    -7.13837E+06    -41.6565E+06     2.53045E+06    -773.664E+03    -18.5641E-03     31.4292E-03    -12.8650E-03     28.0631E-03    -18.5539E-03     31.2384E-03    -12.7816E-03     28.0323E-03
            2198     11.5559E-03     13.6616E-03    -7.64962E+06    -52.0380E+06     3.10423E+06    -428.787E+03    -17.6258E-03     30.1169E-03    -12.4911E-03     23.8030E-03    -17.5994E-03     29.8697E-03    -12.3890E-03     23.7826E-03
            2199     10.6710E-03     13.6399E-03    -8.26277E+06    -56.5195E+06     6.25893E+06    -472.015E+03    -16.6157E-03     28.7494E-03    -12.1337E-03     19.6954E-03    -16.5878E-03     28.4734E-03    -12.0085E-03     19.6789E-03
            2200     9.78518E-03     13.6213E-03    -9.04125E+06    -57.9170E+06     8.09848E+06    -519.562E+03    -15.6004E-03     27.3849E-03    -11.7845E-03     15.9113E-03    -15.5756E-03     27.0989E-03    -11.6469E-03     15.8972E-03
            2201     8.89863E-03     13.6059E-03    -10.1136E+06    -60.5990E+06     8.47992E+06    -146.632E+03    -14.5986E-03     26.0540E-03    -11.4554E-03     12.6410E-03    -14.5749E-03     25.7547E-03    -11.3105E-03     12.6338E-03
            2202     8.01115E-03     13.5930E-03    -11.6862E+06    -64.5584E+06     7.10096E+06     862.661E+03    -13.6524E-03     24.8036E-03    -11.1512E-03     9.98663E-03    -13.6283E-03     24.4882E-03    -11.0051E-03     9.99392E-03
            2203     7.12298E-03     13.5823E-03    -13.3160E+06    -67.0043E+06     3.73999E+06     1.80993E+06    -12.7932E-03     23.6630E-03    -10.8698E-03     7.89306E-03    -12.7685E-03     23.3424E-03    -10.7347E-03     7.91366E-03
            2204     6.23401E-03     13.5732E-03    -14.5246E+06    -67.9261E+06    -537.328E+03     2.34983E+06    -12.0430E-03     22.6606E-03    -10.6176E-03     6.24925E-03    -12.0166E-03     22.3431E-03    -10.5007E-03     6.27760E-03
            2205     5.34453E-03     13.5658E-03    -15.2465E+06    -68.6560E+06    -4.86346E+06     2.53659E+06    -11.4089E-03     21.8101E-03    -10.4012E-03     4.95239E-03    -11.3787E-03     21.4961E-03    -10.3038E-03     4.98372E-03
            2206     4.45443E-03     13.5595E-03    -15.6779E+06    -69.0589E+06    -8.43933E+06     2.36232E+06    -10.8915E-03     21.1156E-03    -10.2240E-03     3.89487E-03    -10.8577E-03     20.8053E-03    -10.1434E-03     3.92436E-03
            2207     3.56404E-03     13.5546E-03    -15.7887E+06    -69.1879E+06    -11.2104E+06     1.97521E+06    -10.4984E-03     20.5823E-03    -10.0839E-03     2.99794E-03    -10.4608E-03     20.2755E-03    -10.0167E-03     3.02274E-03
            2208     2.67323E-03     13.5507E-03    -15.6874E+06    -68.9365E+06    -13.0874E+06     1.47966E+06    -10.2110E-03     20.1878E-03    -9.97686E-03     2.19522E-03    -10.1705E-03     19.8849E-03    -9.91959E-03     2.21385E-03
            2209     1.78235E-03     13.5480E-03    -15.5116E+06    -68.7119E+06    -14.3118E+06     936.775E+03    -10.0083E-03     19.9075E-03    -9.89925E-03     1.45229E-03    -9.96545E-03     19.6072E-03    -9.84869E-03     1.46409E-03
            2210     891.177E-06     13.5463E-03    -15.3673E+06    -68.2568E+06    -15.0185E+06     464.355E+03    -9.88933E-03     19.7292E-03    -9.83985E-03     773.391E-06    -9.84543E-03     19.4320E-03    -9.79368E-03     779.234E-06
            2211     16.8419E-03     12.8854E-03    -3.34027E+06     97.9254E+06     54.6956E+06     264.857E+03    -24.2072E-03     39.3199E-03    -15.1127E-03     22.4404E-03    -24.5114E-03     39.8013E-03    -14.9764E-03     22.4012E-03
            2212     15.9670E-03     12.8436E-03    -5.46302E+06     77.4308E+06     16.6290E+06     80.8640E+03    -23.6205E-03     38.0859E-03    -14.4654E-03     43.5894E-03    -23.8847E-03     38.5573E-03    -14.4866E-03     43.5258E-03
            2213     15.0868E-03     12.8036E-03    -6.15962E+06     28.8972E+06    -5.00814E+06     347.886E+03    -22.2862E-03     36.2352E-03    -13.9490E-03     41.0047E-03    -22.4111E-03     36.4554E-03    -14.0070E-03     40.9524E-03
            2214     14.2065E-03     12.7672E-03    -6.82771E+06    -7.85295E+06    -1.63526E+06    -582.957E+03    -21.0342E-03     34.5962E-03    -13.5620E-03     34.8545E-03    -21.0848E-03     34.5995E-03    -13.5489E-03     34.8060E-03
            2215     13.3240E-03     12.7367E-03    -7.14207E+06    -28.2757E+06     1.65744E+06    -1.31287E+06    -20.0280E-03     33.1891E-03    -13.1610E-03     30.2378E-03    -20.0421E-03     33.0726E-03    -13.1014E-03     30.1915E-03
            2216     12.4414E-03     12.7086E-03    -7.54931E+06    -42.4978E+06     2.71363E+06    -956.807E+03    -19.1053E-03     31.8470E-03    -12.7416E-03     25.8274E-03    -19.0952E-03     31.6513E-03    -12.6555E-03     25.7942E-03
            2217     11.5577E-03     12.6847E-03    -8.11552E+06     -52.078E+06     3.85967E+06    -732.019E+03    -18.1511E-03     30.4675E-03    -12.3163E-03     21.1981E-03    -18.1273E-03     30.2189E-03    -12.2098E-03     21.1740E-03
            2218     10.6734E-03     12.6641E-03    -8.89938E+06    -56.4005E+06     7.31332E+06    -920.864E+03    -17.0778E-03     28.9796E-03    -11.9017E-03     16.8433E-03    -17.0543E-03     28.7031E-03    -11.7705E-03     16.8211E-03
            2219     9.78810E-03     12.6471E-03    -10.0114E+06    -57.9985E+06     9.32100E+06    -1.13938E+06    -15.8918E-03     27.3873E-03    -11.4955E-03     12.9779E-03    -15.8731E-03     27.1002E-03    -11.3503E-03     12.9561E-03
            2220     8.90171E-03     12.6330E-03    -11.4666E+06    -61.6456E+06     9.13820E+06    -670.684E+03    -14.7243E-03     25.8368E-03    -11.1126E-03     9.84171E-03    -14.7065E-03     25.5330E-03    -10.9608E-03     9.82800E-03
            2221     8.01444E-03     12.6215E-03    -13.1102E+06    -65.7950E+06     7.22843E+06     398.705E+03    -13.6338E-03     24.3928E-03    -10.7590E-03     7.41281E-03    -13.6151E-03     24.0730E-03    -10.6084E-03     7.41435E-03
            2222     7.12615E-03     12.6119E-03    -14.7492E+06    -67.2878E+06     2.96874E+06     1.06950E+06    -12.6386E-03     23.0695E-03    -10.4309E-03     5.61896E-03    -12.6195E-03     22.7505E-03    -10.2971E-03     5.63023E-03
            2223     6.23710E-03     12.6039E-03    -16.0271E+06    -67.9627E+06    -2.01875E+06     1.20302E+06    -11.7761E-03     21.9167E-03    -10.1406E-03     4.29080E-03    -11.7550E-03     21.6032E-03    -10.0289E-03     4.30454E-03
            2224     5.34724E-03     12.5973E-03    -16.7666E+06    -68.2886E+06    -6.31082E+06     1.20848E+06    -11.0495E-03     20.9449E-03    -9.89542E-03     3.29269E-03    -11.0252E-03     20.6370E-03    -9.80365E-03     3.30704E-03
            2225     4.45689E-03     12.5918E-03    -17.0401E+06    -68.4252E+06    -9.86248E+06     1.03058E+06    -10.4590E-03     20.1541E-03    -9.69511E-03     2.53618E-03    -10.4307E-03     19.8510E-03    -9.62050E-03     2.54861E-03
            2226     3.56596E-03     12.5873E-03    -17.1235E+06    -68.4496E+06    -12.7390E+06     748.188E+03    -10.0021E-03     19.5400E-03    -9.53790E-03     1.93133E-03    -9.97004E-03     19.2411E-03    -9.47752E-03     1.94039E-03
            2227     2.67481E-03     12.5839E-03    -17.1039E+06    -68.1949E+06    -14.7344E+06     456.238E+03    -9.66908E-03     19.0909E-03    -9.42182E-03     1.41175E-03    -9.63438E-03     18.7961E-03    -9.37181E-03     1.41724E-03
            2228     1.78326E-03     12.5814E-03    -17.0867E+06    -68.0492E+06    -16.0313E+06     249.654E+03    -9.44862E-03     18.7915E-03    -9.34290E-03     932.488E-06    -9.41216E-03     18.4993E-03    -9.29961E-03     935.467E-06
            2229     891.707E-06     12.5800E-03    -17.0732E+06    -67.7245E+06    -16.8098E+06     81.0168E+03    -9.32358E-03     18.6186E-03    -9.29501E-03     494.288E-06    -9.28639E-03     18.3291E-03    -9.25611E-03     495.210E-06
            2230     16.8501E-03     11.8970E-03    -2.34396E+06     97.7238E+06     54.0784E+06     607.048E+03    -24.5854E-03     39.7010E-03    -15.1156E-03     21.4309E-03    -24.8793E-03     40.1767E-03    -14.9835E-03     21.3945E-03
            2231     15.9678E-03     11.8604E-03    -5.74636E+06     77.0756E+06     15.1037E+06     1.14141E+06    -23.8118E-03     38.2612E-03    -14.4494E-03     41.8281E-03    -24.0683E-03     38.7270E-03    -14.4773E-03     41.7763E-03
            2232     15.0880E-03     11.8191E-03    -7.09237E+06     30.2880E+06    -4.71608E+06    -25.9829E+03    -22.8312E-03     36.7468E-03    -13.9156E-03     38.5829E-03    -22.9588E-03     36.9705E-03    -13.9728E-03     38.5240E-03
            2233     14.2071E-03     11.7865E-03    -6.29652E+06    -7.14575E+06    -707.551E+03    -1.02226E+06    -21.7706E-03     35.2564E-03    -13.4857E-03     32.5217E-03    -21.8183E-03     35.2584E-03    -13.4698E-03     32.4665E-03
            2234     13.3259E-03     11.7561E-03    -6.75429E+06    -28.7928E+06     2.36329E+06    -930.427E+03    -20.8980E-03     33.9225E-03    -13.0245E-03     27.6542E-03    -20.9088E-03     33.8003E-03    -12.9611E-03     27.6121E-03
            2235     12.4439E-03     11.7300E-03    -8.01642E+06    -42.7043E+06     3.65766E+06    -906.206E+03    -19.9468E-03     32.4802E-03    -12.5334E-03     22.7647E-03    -19.9389E-03     32.2817E-03    -12.4416E-03     22.7319E-03
            2236     11.5611E-03     11.7072E-03    -8.89506E+06    -52.2344E+06     4.88458E+06    -1.08848E+06    -18.8189E-03     30.8505E-03    -12.0316E-03     17.9347E-03    -18.7994E-03     30.6000E-03    -11.9185E-03     17.9061E-03
            2237     10.6774E-03     11.6883E-03    -9.72460E+06    -55.9598E+06     8.92612E+06    -1.34656E+06    -17.4834E-03     29.0307E-03    -11.5474E-03     13.4947E-03    -17.4664E-03     28.7547E-03    -11.4075E-03     13.4674E-03
            2238     9.79237E-03     11.6730E-03    -11.1375E+06    -58.1923E+06     10.8721E+06    -1.57422E+06    -16.0409E-03     27.1223E-03    -11.0815E-03     9.89586E-03    -16.0293E-03     26.8332E-03    -10.9266E-03     9.86873E-03
            2239     8.90617E-03     11.6605E-03    -12.9556E+06    -62.7647E+06     9.67230E+06    -1.09993E+06    -14.6722E-03     25.3180E-03    -10.6458E-03     7.13491E-03    -14.6608E-03     25.0098E-03    -10.4877E-03     7.11595E-03
            2240     8.01871E-03     11.6505E-03    -14.8392E+06    -66.8206E+06     6.19738E+06    -252.694E+03    -13.4323E-03     23.6767E-03    -10.2443E-03     5.10021E-03    -13.4191E-03     23.3556E-03    -10.0949E-03     5.09360E-03
            2241     7.13026E-03     11.6423E-03    -16.3807E+06    -67.3936E+06     1.44075E+06     196.259E+03    -12.3344E-03     22.2125E-03    -9.87810E-03     3.67945E-03    -12.3209E-03     21.8975E-03    -9.74943E-03     3.67963E-03
            2242     6.24081E-03     11.6354E-03    -17.5927E+06    -67.8198E+06    -3.60248E+06     144.247E+03    -11.3877E-03     20.9446E-03    -9.55682E-03     2.68635E-03    -11.3723E-03     20.6364E-03    -9.45099E-03     2.68656E-03
            2243     5.35067E-03     11.6298E-03    -18.4516E+06    -68.0855E+06    -8.21808E+06    -79.5426E+03    -10.5951E-03     19.8776E-03    -9.28256E-03     1.97229E-03    -10.5768E-03     19.5760E-03    -9.19817E-03     1.97010E-03
            2244     4.45977E-03     11.6251E-03    -18.9889E+06    -68.1983E+06    -12.0850E+06    -200.027E+03    -9.94246E-03     18.9978E-03    -9.05534E-03     1.45440E-03    -9.92106E-03     18.7019E-03    -8.98934E-03     1.45099E-03
            2245     3.56845E-03     11.6213E-03    -19.3130E+06    -68.2377E+06    -15.1893E+06    -251.864E+03    -9.41846E-03     18.2936E-03    -8.87516E-03     1.06539E-03    -9.39410E-03     18.0025E-03    -8.82416E-03     1.06157E-03
            2246     2.67658E-03     11.6183E-03    -19.5622E+06    -68.0867E+06    -17.4582E+06    -239.152E+03    -9.02759E-03     17.7698E-03    -8.74219E-03     755.450E-06    -9.00139E-03     17.4830E-03    -8.70239E-03     751.984E-06
            2247     1.78458E-03     11.6161E-03    -19.7194E+06    -68.0164E+06    -18.9185E+06    -189.961E+03    -8.77167E-03     17.4255E-03    -8.65387E-03     484.431E-06    -8.74424E-03     17.1415E-03    -8.62125E-03     481.747E-06
            2248     892.289E-06     11.6148E-03    -19.7696E+06    -67.7454E+06    -19.6294E+06    -115.998E+03    -8.64136E-03     17.2367E-03    -8.59538E-03     249.624E-06    -8.61355E-03     16.9552E-03    -8.56663E-03     248.011E-06
            2249     16.8412E-03     10.9117E-03    -3.31088E+06     96.1209E+06     55.1475E+06     760.573E+03    -24.9506E-03     40.0965E-03    -15.1459E-03     20.5480E-03    -25.2460E-03     40.5614E-03    -15.0047E-03     20.5091E-03
            2250     15.9665E-03     10.8730E-03    -5.75152E+06     77.9676E+06     16.7705E+06     397.285E+03    -24.8365E-03     39.2749E-03    -14.4384E-03     39.3936E-03    -25.0909E-03     39.7371E-03    -14.4593E-03     39.3256E-03
            2251     15.0887E-03     10.8364E-03    -4.38005E+06     31.5829E+06    -3.68768E+06    -491.269E+03    -23.7389E-03     37.5758E-03    -13.8369E-03     35.6259E-03    -23.8512E-03     37.7955E-03    -13.8948E-03     35.5582E-03
            2252     14.2089E-03     10.8036E-03    -5.65387E+06    -7.75674E+06    -189.693E+03    -360.809E+03    -22.9035E-03     36.2428E-03    -13.3393E-03     29.7901E-03    -22.9452E-03     36.2376E-03    -13.3208E-03     29.7417E-03
            2253     13.3290E-03     10.7752E-03    -7.19552E+06    -28.4840E+06     3.22591E+06    -169.893E+03    -22.0894E-03     34.8795E-03    -12.7900E-03     24.2355E-03    -22.1023E-03     34.7565E-03    -12.7222E-03     24.2020E-03
            2254     12.4481E-03     10.7504E-03    -8.40390E+06    -42.3908E+06     5.04085E+06    -626.165E+03    -20.8097E-03     33.0181E-03    -12.2084E-03     19.2173E-03    -20.8048E-03     32.8184E-03    -12.1096E-03     19.1880E-03
            2255     11.5662E-03     10.7294E-03    -9.49917E+06    -51.6350E+06     6.42507E+06    -1.40309E+06    -19.2740E-03     30.9026E-03    -11.6286E-03     14.5020E-03    -19.2598E-03     30.6529E-03    -11.5079E-03     14.4698E-03
            2256     10.6826E-03     10.7126E-03    -10.4863E+06    -55.8018E+06     10.4735E+06    -2.05835E+06    -17.5540E-03     28.6411E-03    -11.0871E-03     10.4219E-03    -17.5428E-03     28.3643E-03    -10.9386E-03     10.3859E-03
            2257     9.79766E-03     10.6992E-03    -11.8906E+06    -58.5435E+06     12.6946E+06    -1.93628E+06    -15.8783E-03     26.4614E-03    -10.5832E-03     7.28771E-03    -15.8724E-03     26.1687E-03    -10.4176E-03     7.25630E-03
            2258     8.91116E-03     10.6887E-03    -14.0471E+06    -63.8970E+06     10.1321E+06    -1.30963E+06    -14.3556E-03     24.4698E-03    -10.1142E-03     5.03144E-03    -14.3485E-03     24.1567E-03    -9.95049E-03     5.01005E-03
            2259     8.02343E-03     10.6803E-03    -16.2037E+06    -67.3550E+06     5.06752E+06    -813.821E+03    -13.0314E-03     22.7149E-03    -9.68350E-03     3.46383E-03    -13.0224E-03     22.3946E-03    -9.53700E-03     3.45016E-03
            2260     7.13454E-03     10.6735E-03    -17.8733E+06    -67.5786E+06    -214.781E+03    -748.816E+03    -11.8927E-03     21.1891E-03    -9.29644E-03     2.41200E-03    -11.8840E-03     20.8777E-03    -9.17361E-03     2.40009E-03
            2261     6.24476E-03     10.6680E-03    -19.1277E+06    -67.6963E+06    -5.40156E+06    -797.933E+03    -10.9253E-03     19.8808E-03    -8.95550E-03     1.71183E-03    -10.9151E-03     19.5781E-03    -8.85661E-03     1.69992E-03
            2262     5.35409E-03     10.6634E-03    -20.2458E+06    -68.0610E+06    -10.5276E+06    -941.587E+03    -10.1093E-03     18.7674E-03    -8.65816E-03     1.21719E-03    -10.0966E-03     18.4718E-03    -8.58275E-03     1.20388E-03
            2263     4.46284E-03     10.6596E-03    -21.2168E+06    -68.3749E+06    -14.7885E+06    -958.668E+03    -9.42210E-03     17.8282E-03    -8.40611E-03     861.235E-06    -9.40766E-03     17.5386E-03    -8.35014E-03     848.023E-06
            2264     3.57091E-03     10.6565E-03    -22.0133E+06    -68.5412E+06    -18.1922E+06    -781.877E+03    -8.85616E-03     17.0550E-03    -8.19879E-03     595.901E-06    -8.84050E-03     16.7706E-03    -8.15845E-03     585.212E-06
            2265     2.67865E-03     10.6540E-03    -22.6207E+06    -68.4220E+06    -20.6935E+06    -555.356E+03    -8.40892E-03     16.4460E-03    -8.03705E-03     390.922E-06    -8.39284E-03     16.1667E-03    -8.00851E-03     383.347E-06
            2266     1.78589E-03     10.6522E-03    -23.0316E+06    -68.2920E+06    -22.3159E+06    -354.741E+03    -8.08892E-03     16.0108E-03    -7.92183E-03     230.081E-06    -8.07273E-03     15.7350E-03    -7.90099E-03     225.247E-06
            2267     893.027E-06     10.6511E-03    -23.2624E+06    -68.0935E+06    -23.0786E+06    -212.769E+03    -7.91604E-03     15.7482E-03    -7.83220E-03     105.254E-06    -7.90018E-03     15.4750E-03    -7.81513E-03     102.375E-06
            2268     16.8480E-03     9.92248E-03    -1.28134E+06     97.3475E+06     56.0891E+06    -75.7961E+03    -26.0263E-03     41.1531E-03    -15.1268E-03     18.7040E-03    -26.3107E-03     41.6159E-03    -14.9857E-03     18.6471E-03
            2269     15.9695E-03     9.88602E-03    -3.49444E+06     77.4955E+06     17.8487E+06    -669.513E+03    -25.7117E-03     40.0767E-03    -14.3650E-03     35.6672E-03    -25.9483E-03     40.5243E-03    -14.3830E-03     35.5783E-03
            2270     15.0908E-03     9.85211E-03    -6.82240E+06     31.0082E+06    -3.85910E+06     1.16869E+06    -25.0583E-03     38.7504E-03    -13.6921E-03     32.8776E-03    -25.1779E-03     38.9670E-03    -13.7464E-03     32.8269E-03
            2271     14.2127E-03     9.81964E-03    -8.21804E+06    -6.25655E+06     509.090E+03     337.184E+03    -24.4319E-03     37.5264E-03    -13.0944E-03     26.4128E-03    -24.4872E-03     37.5289E-03    -13.0709E-03     26.3705E-03
            2272     13.3339E-03     9.79323E-03    -8.29246E+06    -28.8491E+06     4.07668E+06    -451.093E+03    -23.0231E-03     35.4683E-03    -12.4452E-03     20.5749E-03    -23.0402E-03     35.3419E-03    -12.3710E-03     20.5377E-03
            2273     12.4539E-03     9.77029E-03    -8.72199E+06    -41.4182E+06     6.85830E+06    -542.403E+03    -21.2610E-03     33.0496E-03    -11.7886E-03     15.8482E-03    -21.2606E-03     32.8515E-03    -11.6816E-03     15.8205E-03
            2274     11.5720E-03     9.75196E-03    -9.70409E+06    -50.4508E+06     8.80070E+06    -1.73750E+06    -19.2292E-03     30.3902E-03    -11.1610E-03     11.5780E-03    -19.2206E-03     30.1426E-03    -11.0298E-03     11.5422E-03
            2275     10.6884E-03     9.73740E-03    -11.0986E+06    -55.6096E+06     12.1513E+06    -2.61247E+06    -17.2059E-03     27.7993E-03    -10.5933E-03     8.06174E-03    -17.2002E-03     27.5215E-03    -10.4358E-03     8.01924E-03
            2276     9.80291E-03     9.72640E-03    -13.0241E+06    -59.6084E+06     13.5221E+06    -2.32676E+06    -15.3617E-03     25.4422E-03    -10.0805E-03     5.53877E-03    -15.3610E-03     25.1445E-03    -9.90759E-03     5.50273E-03
            2277     8.91594E-03     9.71783E-03    -15.2314E+06    -64.8459E+06     9.71855E+06    -1.40431E+06    -13.7945E-03     23.4021E-03    -9.60762E-03     3.82012E-03    -13.7913E-03     23.0866E-03    -9.44292E-03     3.79775E-03
            2278     8.02766E-03     9.71118E-03    -17.3743E+06    -67.3942E+06     3.56275E+06    -1.26369E+06    -12.4674E-03     21.6435E-03    -9.17603E-03     2.72002E-03    -12.4621E-03     21.3269E-03    -9.03530E-03     2.70066E-03
            2279     7.13830E-03     9.70585E-03    -19.1103E+06    -67.7236E+06    -2.11212E+06    -1.51388E+06    -11.3593E-03     20.1523E-03    -8.79297E-03     2.02551E-03    -11.3538E-03     19.8447E-03    -8.67762E-03     2.00376E-03
            2280     6.24800E-03     9.70154E-03    -20.5612E+06    -67.9254E+06    -7.63632E+06    -1.50897E+06    -10.4338E-03     18.8866E-03    -8.45288E-03     1.57723E-03    -10.4272E-03     18.5881E-03    -8.36275E-03     1.55613E-03
            2281     5.35701E-03     9.69800E-03    -21.8612E+06    -68.3281E+06    -12.8091E+06    -1.34294E+06    -9.64691E-03     17.7993E-03    -8.15241E-03     1.24405E-03    -9.63868E-03     17.5081E-03    -8.08568E-03     1.22551E-03
            2282     4.46524E-03     9.69511E-03    -23.1848E+06    -68.8624E+06    -17.2909E+06    -1.09375E+06    -8.97508E-03     16.8659E-03    -7.89082E-03     977.569E-06    -8.96615E-03     16.5803E-03    -7.84381E-03     962.562E-06
            2283     3.57302E-03     9.69276E-03    -24.3840E+06    -69.0712E+06    -20.8357E+06    -802.807E+03    -8.40524E-03     16.0728E-03    -7.66760E-03     749.625E-06    -8.39684E-03     15.7931E-03    -7.63627E-03     738.617E-06
            2284     2.68021E-03     9.69093E-03    -25.2918E+06    -68.9212E+06    -23.4191E+06    -535.277E+03    -7.93165E-03     15.4155E-03    -7.48383E-03     544.345E-06    -7.92424E-03     15.1415E-03    -7.46432E-03     536.988E-06
            2285     1.78712E-03     9.68961E-03    -25.9482E+06    -68.6747E+06    -25.1609E+06    -316.342E+03    -7.56214E-03     14.9049E-03    -7.34274E-03     358.672E-06    -7.55584E-03     14.6356E-03    -7.33134E-03     354.302E-06
            2286     893.641E-06     9.68871E-03    -26.3744E+06    -68.4613E+06    -26.1423E+06    -184.129E+03    -7.32905E-03     14.5622E-03    -7.23314E-03     181.217E-06    -7.32376E-03     14.2961E-03    -7.22634E-03     178.690E-06
            2287     16.8444E-03     8.92957E-03    -1.45632E+06     95.3966E+06     53.9499E+06     278.849E+03    -26.6650E-03     41.7186E-03    -15.0536E-03     17.4584E-03    -26.9387E-03     42.1694E-03    -14.9200E-03     17.4040E-03
            2288     15.9700E-03     8.90216E-03    -8.11913E+06     75.5316E+06     13.6609E+06     3.45409E+06    -26.8205E-03     41.0556E-03    -14.2352E-03     34.4413E-03    -27.0647E-03     41.4995E-03    -14.2646E-03     34.4006E-03
            2289     15.0936E-03     8.86348E-03    -10.5003E+06     33.9591E+06    -3.18722E+06     1.29683E+06    -27.0646E-03     40.5419E-03    -13.4773E-03     30.6149E-03    -27.2047E-03     40.7746E-03    -13.5273E-03     30.5594E-03
            2290     14.2182E-03     8.83559E-03    -8.72820E+06    -5.25863E+06     1.79721E+06    -1.15910E+06    -25.6573E-03     38.4222E-03    -12.7649E-03     22.8436E-03    -25.7154E-03     38.4256E-03    -12.7356E-03     22.7811E-03
            2291     13.3399E-03     8.81036E-03    -8.27587E+06    -29.3691E+06     4.84934E+06    -784.091E+03    -23.4273E-03     35.4640E-03    -12.0367E-03     17.5042E-03    -23.4429E-03     35.3321E-03    -11.9578E-03     17.4637E-03
            2292     12.4599E-03     8.79101E-03    -8.94122E+06    -40.5044E+06     8.59008E+06    -1.17667E+06    -21.0594E-03     32.4049E-03    -11.3455E-03     13.1654E-03    -21.0630E-03     32.2083E-03    -11.2309E-03     13.1308E-03
            2293     11.5777E-03     8.77495E-03    -9.97905E+06    -49.1917E+06     11.2687E+06    -1.95037E+06    -18.6765E-03     29.3912E-03    -10.7147E-03     9.46343E-03    -18.6742E-03     29.1462E-03    -10.5726E-03     9.42594E-03
            2294     10.6934E-03     8.76352E-03    -11.8338E+06    -55.3288E+06     14.0075E+06    -2.75235E+06    -16.4281E-03     26.5910E-03    -10.1629E-03     6.69191E-03    -16.4289E-03     26.3129E-03    -9.99549E-03     6.64832E-03
            2295     9.80717E-03     8.75459E-03    -14.1065E+06    -60.9294E+06     13.8765E+06    -2.55809E+06    -14.5548E-03     24.2320E-03    -9.67717E-03     4.89136E-03    -14.5581E-03     23.9287E-03    -9.49898E-03     4.85274E-03
            2296     8.91951E-03     8.74814E-03    -16.3339E+06    -65.6670E+06       9.076E+06    -1.83316E+06    -13.0359E-03     22.2719E-03    -9.23602E-03     3.71891E-03    -13.0361E-03     21.9548E-03    -9.07174E-03     3.69121E-03
            2297     8.03057E-03     8.74304E-03    -18.1395E+06    -67.1590E+06     2.14126E+06    -1.77679E+06    -11.7934E-03     20.6304E-03    -8.83701E-03     3.05355E-03    -11.7903E-03     20.3183E-03    -8.70262E-03     3.02767E-03
            2298     7.14062E-03     8.73916E-03    -19.8050E+06    -67.9979E+06    -4.19983E+06    -1.97445E+06    -10.7856E-03     19.2735E-03    -8.48795E-03     2.67488E-03    -10.7802E-03     18.9686E-03    -8.38163E-03     2.64721E-03
            2299     6.24987E-03     8.73595E-03    -21.4363E+06    -68.4089E+06    -9.71729E+06    -1.81890E+06    -9.95684E-03     18.1384E-03    -8.18156E-03     2.40238E-03    -9.95094E-03     17.8417E-03    -8.09987E-03     2.37727E-03
            2300     5.35837E-03     8.73345E-03    -22.9880E+06    -69.0488E+06    -14.8443E+06    -1.39168E+06    -9.25748E-03     17.1680E-03    -7.91055E-03     2.15886E-03    -9.25091E-03     16.8778E-03    -7.85132E-03     2.13966E-03
            2301     4.46639E-03     8.73139E-03    -24.3524E+06    -69.4914E+06    -18.9937E+06    -879.966E+03    -8.65916E-03     16.3332E-03    -7.67404E-03     1.90929E-03    -8.65271E-03     16.0487E-03    -7.63294E-03     1.89701E-03
            2302     3.57380E-03     8.72982E-03    -25.5531E+06    -69.5662E+06    -22.2579E+06    -552.452E+03    -8.14288E-03     15.6140E-03    -7.47113E-03     1.63247E-03    -8.13755E-03     15.3356E-03    -7.44450E-03     1.62467E-03
            2303     2.68086E-03     8.72862E-03    -26.5313E+06    -69.3089E+06    -24.6424E+06    -356.251E+03    -7.71116E-03     15.0150E-03    -7.30381E-03     1.31429E-03    -7.70762E-03     14.7427E-03    -7.28806E-03     1.30924E-03
            2304     1.78746E-03     8.72779E-03    -27.1570E+06    -69.0436E+06    -26.3630E+06    -208.369E+03    -7.37179E-03     14.5473E-03    -7.17552E-03     940.940E-06    -7.36926E-03     14.2797E-03    -7.16785E-03     937.967E-06
            2305     893.816E-06     8.72733E-03    -27.4978E+06    -68.7541E+06    -27.2806E+06    -72.5464E+03    -7.14859E-03     14.2400E-03    -7.09139E-03     542.108E-06    -7.14683E-03     13.9757E-03    -7.08823E-03     541.026E-06
            2306     16.8506E-03     7.94754E-03    -5.32063E+06      91.756E+06     57.0542E+06     3.20800E+06    -28.1619E-03     43.1830E-03    -15.0211E-03     16.7083E-03    -28.4530E-03     43.6155E-03    -14.8611E-03     16.6834E-03
            2307     15.9712E-03     7.90891E-03    -9.70556E+06     78.7159E+06     20.8454E+06     2.46786E+06    -29.2182E-03     43.3157E-03    -14.0976E-03     32.6484E-03    -29.4829E-03     43.7650E-03    -14.0934E-03     32.5816E-03
            2308     15.0997E-03     7.87663E-03    -6.75270E+06     37.8669E+06     484.499E+03    -1.13069E+06    -28.5336E-03     41.7223E-03    -13.1887E-03     26.3479E-03    -28.6615E-03     41.9596E-03    -13.2314E-03     26.2564E-03
            2309     14.2230E-03     7.84882E-03    -7.43411E+06    -6.43381E+06     3.34281E+06    -1.07092E+06    -25.9326E-03     38.3354E-03    -12.4028E-03     19.3028E-03    -25.9817E-03     38.3258E-03    -12.3660E-03     19.2435E-03
            2310     13.3458E-03     7.82929E-03    -9.12575E+06    -28.5793E+06     6.27836E+06    -1.11711E+06    -23.0923E-03     34.7430E-03    -11.6508E-03     14.7038E-03    -23.1140E-03     34.6129E-03    -11.5647E-03     14.6609E-03
            2311     12.4649E-03     7.81170E-03    -9.81271E+06    -40.3629E+06     10.0399E+06    -1.70911E+06    -20.2166E-03     31.1906E-03    -10.9740E-03     11.4270E-03    -20.2263E-03     30.9932E-03    -10.8510E-03     11.3875E-03
            2312     11.5820E-03     7.79980E-03    -11.2083E+06    -48.0431E+06     13.6181E+06    -2.20313E+06    -17.5738E-03     27.9656E-03    -10.3917E-03     8.43207E-03    -17.5825E-03     27.7245E-03    -10.2377E-03     8.39256E-03
            2313     10.6965E-03     7.79057E-03    -13.0807E+06    -55.1738E+06     15.8417E+06    -2.90757E+06    -15.2984E-03     25.2017E-03    -9.90333E-03     6.64178E-03    -15.3083E-03     24.9235E-03    -9.72515E-03     6.59695E-03
            2314     9.80944E-03     7.78428E-03    -15.3999E+06    -61.9707E+06     14.1898E+06    -2.79048E+06    -13.5315E-03     23.0162E-03    -9.48471E-03     5.54158E-03    -13.5402E-03     22.7092E-03    -9.30157E-03     5.50037E-03
            2315     8.92080E-03     7.77933E-03    -17.4264E+06    -66.0713E+06     7.85895E+06    -2.64839E+06    -12.1575E-03     21.2674E-03    -9.10991E-03     4.89310E-03    -12.1609E-03     20.9517E-03    -8.94954E-03     4.85514E-03
            2316     8.03116E-03     7.77595E-03    -18.9127E+06    -67.4741E+06     620.767E+03    -2.55473E+06    -11.0948E-03     19.8776E-03    -8.78273E-03     4.56187E-03    -11.0930E-03     19.5672E-03    -8.65437E-03     4.52609E-03
            2317     7.14061E-03     7.77308E-03    -20.3264E+06    -68.4148E+06    -5.77291E+06    -2.27549E+06    -10.2591E-03     18.7629E-03    -8.50374E-03     4.36114E-03    -10.2536E-03     18.4590E-03    -8.40393E-03     4.32965E-03
            2318     6.24940E-03     7.77099E-03    -21.7960E+06    -69.2515E+06    -11.4098E+06    -1.86179E+06    -9.58325E-03     17.8480E-03    -8.26478E-03     4.13303E-03    -9.57552E-03     17.5502E-03    -8.18981E-03     4.10741E-03
            2319     5.35768E-03     7.76923E-03    -23.1697E+06    -69.9015E+06    -16.0477E+06    -1.25291E+06    -9.02648E-03     17.0881E-03    -8.06160E-03     3.85449E-03    -9.01786E-03     16.7956E-03    -8.00688E-03     3.83712E-03
            2320     4.46542E-03     7.76797E-03    -24.2900E+06    -70.1697E+06    -19.5697E+06    -778.715E+03    -8.56268E-03     16.4544E-03    -7.89177E-03     3.49126E-03    -8.55411E-03     16.1673E-03    -7.85265E-03     3.48034E-03
            2321     3.57284E-03     7.76698E-03    -25.0538E+06    -69.9598E+06    -22.0333E+06    -464.871E+03    -8.18224E-03     15.9364E-03    -7.75421E-03     3.02589E-03    -8.17419E-03     15.6550E-03    -7.72661E-03     3.01928E-03
            2322     2.67986E-03     7.76631E-03    -25.5889E+06    -69.5966E+06    -23.8770E+06    -317.524E+03    -7.88519E-03     15.5330E-03    -7.64786E-03     2.44434E-03    -7.87765E-03     15.2568E-03    -7.62922E-03     2.43983E-03
            2323     1.78671E-03     7.76587E-03    -25.9226E+06    -69.3359E+06    -25.1279E+06    -219.408E+03    -7.67838E-03     15.2508E-03    -7.57245E-03     1.73258E-03    -7.67106E-03     14.9782E-03    -7.55997E-03     1.72950E-03
            2324     893.385E-06     7.76563E-03    -26.0660E+06    -69.0434E+06    -25.7803E+06    -75.1541E+03    -7.54588E-03     15.0804E-03    -7.53449E-03     970.576E-06    -7.53875E-03     14.8103E-03    -7.52548E-03     969.481E-06
            2325     16.8442E-03     6.95342E-03    -5.13876E+06     93.0600E+06     60.4850E+06     2.05078E+06    -31.2423E-03     46.1762E-03    -14.9339E-03     15.2288E-03    -31.5396E-03     46.6101E-03    -14.7589E-03     15.1724E-03
            2326     15.9790E-03     6.91717E-03    -512.129E+03     83.3236E+06     32.0938E+06     717.182E+03    -31.2975E-03     45.1815E-03    -13.8840E-03     29.8838E-03    -31.5358E-03     45.6208E-03    -13.8436E-03     29.7818E-03
            2327     15.1041E-03     6.88724E-03    -3.47884E+06     37.1690E+06     5.64278E+06     1.09705E+06    -28.6532E-03     41.5361E-03    -12.8828E-03     22.7391E-03    -28.7659E-03     41.7522E-03    -12.9034E-03     22.6791E-03
            2328     14.2293E-03     6.86461E-03    -7.60213E+06    -4.96882E+06     7.46433E+06     731.796E+03    -25.1718E-03     37.2641E-03    -12.0923E-03     16.3516E-03    -25.2271E-03     37.2534E-03    -12.0367E-03     16.3198E-03
            2329     13.3496E-03     6.84788E-03    -9.84551E+06    -27.4682E+06     9.88484E+06    -1.08262E+06    -21.7380E-03     33.1243E-03    -11.3863E-03     13.1273E-03    -21.7690E-03     32.9944E-03    -11.2828E-03     13.0886E-03
            2330     12.4682E-03     6.83489E-03    -11.6976E+06    -39.9806E+06     12.6769E+06    -2.01847E+06    -18.6989E-03     29.4875E-03    -10.7886E-03     10.9691E-03    -18.7220E-03     29.2905E-03    -10.6503E-03     10.9279E-03
            2331     11.5833E-03     6.82556E-03    -12.9077E+06    -47.4607E+06     16.3158E+06    -2.91996E+06    -15.9993E-03     26.3078E-03    -10.3085E-03     9.05166E-03    -16.0211E-03     26.0681E-03    -10.1394E-03     9.00444E-03
            2332     10.6968E-03     6.81950E-03    -14.7164E+06    -55.0517E+06     17.7041E+06    -3.30994E+06    -13.9582E-03     23.8867E-03    -9.92849E-03     8.15079E-03    -13.9793E-03     23.6088E-03    -9.73881E-03     8.10155E-03
            2333     9.80834E-03     6.81470E-03    -16.6357E+06    -62.5726E+06     13.8004E+06    -3.58868E+06    -12.4391E-03     22.0490E-03    -9.60987E-03     7.62480E-03    -12.4527E-03     21.7414E-03    -9.42601E-03     7.57379E-03
            2334     8.91893E-03     6.81169E-03    -18.2082E+06    -66.3638E+06     6.34839E+06    -3.60354E+06    -11.3364E-03     20.6721E-03    -9.33567E-03     7.29778E-03    -11.3412E-03     20.3583E-03    -9.18130E-03     7.24782E-03
            2335     8.02851E-03     6.80913E-03    -19.5905E+06    -68.2414E+06    -907.786E+03    -3.48444E+06    -10.5398E-03     19.6502E-03    -9.11039E-03     7.08411E-03    -10.5381E-03     19.3393E-03    -8.98757E-03     7.03655E-03
            2336     7.13760E-03     6.80742E-03    -20.5940E+06    -69.3719E+06    -6.93900E+06    -2.90316E+06    -9.94172E-03     18.8701E-03    -8.92840E-03     6.81444E-03    -9.93443E-03     18.5636E-03    -8.83264E-03     6.77504E-03
            2337     6.24614E-03     6.80588E-03    -21.4483E+06    -70.3348E+06    -12.1356E+06    -2.10051E+06    -9.47675E-03     18.2588E-03    -8.78207E-03     6.42980E-03    -9.46467E-03     17.9561E-03    -8.70966E-03     6.40126E-03
            2338     5.35430E-03     6.80487E-03    -22.1649E+06    -70.7600E+06    -15.9257E+06    -1.46174E+06    -9.12201E-03     17.7914E-03    -8.66937E-03     5.90458E-03    -9.10733E-03     17.4930E-03    -8.61426E-03     5.88466E-03
            2339     4.46222E-03     6.80398E-03    -22.5577E+06    -70.7252E+06    -18.3747E+06    -1.08406E+06    -8.85816E-03     17.4443E-03    -8.58613E-03     5.22410E-03    -8.84188E-03     17.1501E-03    -8.54274E-03     5.20936E-03
            2340     3.56989E-03     6.80343E-03    -22.6898E+06    -70.4353E+06    -20.1335E+06    -848.204E+03    -8.67192E-03     17.1983E-03    -8.52636E-03     4.38790E-03    -8.65414E-03     16.9082E-03    -8.49199E-03     4.37643E-03
            2341     2.67748E-03     6.80297E-03    -22.6406E+06     -69.963E+06    -21.2471E+06    -625.120E+03    -8.55222E-03     17.0390E-03    -8.48681E-03     3.42454E-03    -8.53324E-03     16.7528E-03    -8.45877E-03     3.41612E-03
            2342     1.78498E-03     6.80270E-03    -22.5990E+06    -69.7348E+06    -21.9347E+06    -433.294E+03    -8.48623E-03     16.9495E-03    -8.46328E-03     2.36451E-03    -8.46637E-03     16.6654E-03    -8.43907E-03     2.35870E-03
            2343     892.505E-06     6.80252E-03    -22.6085E+06    -69.4120E+06    -22.3352E+06    -219.741E+03    -8.45615E-03     16.9055E-03    -8.44936E-03     1.29710E-03    -8.43621E-03     16.6236E-03    -8.42760E-03     1.29415E-03
            2344     16.8564E-03     5.95515E-03    -4.05639E+06     92.3303E+06     59.1661E+06    -1.43379E+06    -32.8399E-03     47.5970E-03    -14.7572E-03     14.6253E-03    -33.1261E-03     48.0251E-03    -14.5893E-03     14.5155E-03
            2345     15.9810E-03     5.92594E-03    -3.80870E+06     79.5234E+06     31.8674E+06     2.25105E+06    -31.4805E-03     45.1457E-03    -13.6652E-03     27.5730E-03    -31.7222E-03     45.5640E-03    -13.6157E-03     27.4927E-03
            2346     15.1094E-03     5.89781E-03    -7.04528E+06     37.7689E+06     11.5334E+06     4.98175E+06    -27.7314E-03     40.4272E-03    -12.6958E-03     20.6164E-03    -27.8652E-03     40.6371E-03    -12.6827E-03     20.6155E-03
            2347     14.2318E-03     5.88206E-03    -9.46093E+06    -1.43230E+06     12.4749E+06     2.43349E+06    -23.3991E-03     35.3619E-03    -11.9628E-03     15.4541E-03    -23.4737E-03     35.3620E-03    -11.8847E-03     15.4512E-03
            2348     13.3511E-03     5.86887E-03    -11.9603E+06    -25.3899E+06     13.9835E+06    -597.668E+03    -19.6946E-03     31.0645E-03    -11.3699E-03     13.7546E-03    -19.7443E-03     30.9413E-03    -11.2459E-03     13.7267E-03
            2349     12.4670E-03     5.85946E-03    -13.7459E+06    -38.4886E+06     16.5237E+06    -2.76716E+06    -16.5962E-03     27.5115E-03    -10.9153E-03     12.4227E-03    -16.6370E-03     27.3191E-03    -10.7569E-03     12.3746E-03
            2350     11.5808E-03     5.85353E-03    -15.1414E+06    -47.2380E+06     19.0643E+06    -4.15740E+06    -14.2801E-03     24.8646E-03    -10.5845E-03     11.6504E-03    -14.3174E-03     24.6253E-03    -10.3987E-03     11.5887E-03
            2351     10.6924E-03     5.84906E-03    -16.1990E+06    -55.1653E+06     19.2639E+06    -4.70818E+06    -12.6884E-03     23.0300E-03    -10.3417E-03     11.2157E-03    -12.7190E-03     22.7515E-03    -10.1419E-03     11.1493E-03
            2352     9.80326E-03     5.84627E-03    -17.4245E+06    -62.9361E+06     13.6609E+06    -4.85557E+06    -11.5885E-03     21.7333E-03    -10.1448E-03     10.8639E-03    -11.6053E-03     21.4252E-03    -9.95996E-03     10.7972E-03
            2353     8.91296E-03     5.84397E-03    -18.6232E+06    -66.9454E+06     5.41673E+06    -4.94880E+06    -10.8654E-03     20.8494E-03    -9.98406E-03     10.4980E-03    -10.8701E-03     20.5347E-03    -9.83290E-03     10.4311E-03
            2354     8.02237E-03     5.84246E-03    -19.2914E+06    -69.1440E+06    -1.52018E+06    -4.69946E+06    -10.3972E-03     20.2620E-03    -9.86483E-03     10.0260E-03    -10.3917E-03     19.9470E-03    -9.74420E-03     9.96310E-03
            2355     7.13128E-03     5.84106E-03    -19.7527E+06    -70.9027E+06    -7.37565E+06    -4.02089E+06    -10.0809E-03     19.8586E-03    -9.77767E-03     9.38061E-03    -10.0666E-03     19.5438E-03    -9.68310E-03     9.32708E-03
            2356     6.24005E-03     5.84014E-03    -19.8245E+06    -71.6552E+06    -11.5711E+06    -3.05566E+06    -9.87106E-03     19.5889E-03    -9.71785E-03     8.55396E-03    -9.84977E-03     19.2764E-03    -9.64306E-03     8.51332E-03
            2357     5.34864E-03     5.83926E-03    -19.5181E+06    -71.6546E+06    -14.1747E+06    -2.39465E+06    -9.73718E-03     19.4179E-03    -9.68068E-03     7.56938E-03    -9.71051E-03     19.1085E-03    -9.61935E-03     7.53760E-03
            2358     4.45717E-03     5.83866E-03    -19.1181E+06    -71.4889E+06    -15.7784E+06    -1.92021E+06    -9.66484E-03     19.3252E-03    -9.66035E-03     6.45330E-03    -9.63404E-03     19.0184E-03    -9.60786E-03     6.42788E-03
            2359     3.56572E-03     5.83812E-03    -18.8137E+06    -71.0908E+06    -16.8292E+06    -1.50137E+06    -9.63742E-03     19.2877E-03    -9.65031E-03     5.24682E-03    -9.60412E-03     18.9840E-03    -9.60410E-03     5.22698E-03
            2360     2.67426E-03     5.83775E-03    -18.6173E+06    -70.6439E+06    -17.6132E+06    -1.13618E+06    -9.63081E-03     19.2768E-03    -9.64594E-03     3.98390E-03    -9.59602E-03     18.9760E-03    -9.60458E-03     3.96892E-03
            2361     1.78284E-03     5.83746E-03    -18.5160E+06    -70.4079E+06    -18.1638E+06    -692.459E+03    -9.63299E-03     19.2791E-03    -9.64609E-03     2.70492E-03    -9.59722E-03     18.9802E-03    -9.60797E-03     2.69578E-03
            2362     891.401E-06     5.83730E-03    -18.4940E+06    -69.9843E+06    -18.3858E+06    -376.131E+03    -9.64365E-03     19.2923E-03    -9.64864E-03     1.47680E-03    -9.60805E-03     18.9958E-03    -9.61227E-03     1.47184E-03
            2363     16.8516E-03     4.96307E-03    -3.49619E+06     89.7291E+06     60.0530E+06    -119.732E+03    -33.1618E-03     47.8546E-03    -14.6928E-03     17.4694E-03    -33.4419E-03     48.2668E-03    -14.5176E-03     17.3751E-03
            2364     15.9843E-03     4.93086E-03    -10.6859E+06     72.9738E+06     29.1855E+06     3.05676E+06    -30.8065E-03     44.4129E-03    -13.6064E-03     26.3913E-03    -31.0625E-03     44.8058E-03    -13.5508E-03     26.3294E-03
            2365     15.1092E-03     4.91282E-03    -13.8182E+06     39.3114E+06     13.7555E+06     5.29158E+06    -25.4847E-03     38.2145E-03    -12.7298E-03     18.7984E-03    -25.6520E-03     38.4329E-03    -12.6980E-03     18.8138E-03
            2366     14.2295E-03     4.90044E-03    -14.9902E+06     3.50950E+06     16.4436E+06     2.77594E+06    -20.6268E-03     32.7791E-03    -12.1523E-03     16.3943E-03    -20.7403E-03     32.8044E-03    -12.0534E-03     16.4039E-03
            2367     13.3468E-03     4.89211E-03    -15.8269E+06    -22.5368E+06     17.2697E+06    -1.39762E+06    -17.1410E-03     28.8820E-03    -11.7410E-03     16.2548E-03    -17.2184E-03     28.7734E-03    -11.5990E-03     16.2209E-03
            2368     12.4606E-03     4.88639E-03    -16.5314E+06    -36.3512E+06     19.8440E+06    -4.26385E+06    -14.5621E-03     26.0328E-03    -11.4707E-03     16.1021E-03    -14.6245E-03     25.8500E-03    -11.2948E-03     16.0374E-03
            2369     11.5723E-03     4.88216E-03    -17.1925E+06    -46.1987E+06     21.5745E+06    -6.31543E+06    -12.9613E-03     24.2638E-03    -11.3025E-03     15.6172E-03    -13.0139E-03     24.0288E-03    -11.1027E-03     15.5292E-03
            2370     10.6834E-03     4.87944E-03    -17.7813E+06    -56.0093E+06     19.6912E+06    -7.13422E+06    -11.9839E-03     23.1744E-03    -11.1905E-03     15.0360E-03    -12.0217E-03     22.8931E-03    -10.9850E-03     14.9393E-03
            2371     9.79336E-03     4.87734E-03    -18.1096E+06    -63.4157E+06     13.2769E+06    -7.08504E+06    -11.4168E-03     22.5179E-03    -11.1011E-03     14.2568E-03    -11.4357E-03     22.2088E-03    -10.9165E-03     14.1620E-03
            2372     8.90331E-03     4.87584E-03    -17.8521E+06    -67.6210E+06     4.93535E+06    -7.27900E+06    -11.1077E-03     22.1357E-03    -11.0280E-03     13.3724E-03    -11.1068E-03     21.8169E-03    -10.8794E-03     13.2760E-03
            2373     8.01285E-03     4.87445E-03    -17.2396E+06    -70.8556E+06    -2.15963E+06    -6.72664E+06    -10.9590E-03     21.9373E-03    -10.9783E-03     12.2582E-03    -10.9398E-03     21.6115E-03    -10.8614E-03     12.1696E-03
            2374     7.12251E-03     4.87344E-03    -16.6374E+06    -72.7046E+06    -7.08918E+06    -5.50648E+06    -10.8860E-03     21.8349E-03    -10.9489E-03     11.0083E-03    -10.8538E-03     21.5060E-03    -10.8548E-03     10.9359E-03
            2375     6.23206E-03     4.87245E-03    -16.0747E+06    -73.1923E+06    -10.0761E+06    -4.60011E+06    -10.8617E-03     21.7959E-03    -10.9342E-03     9.67605E-03    -10.8216E-03     21.4680E-03    -10.8552E-03     9.61566E-03
            2376     5.34171E-03     4.87172E-03    -15.3804E+06    -72.9927E+06    -11.6244E+06    -3.72130E+06    -10.8603E-03     21.7897E-03    -10.9294E-03     8.29237E-03    -10.8147E-03     21.4639E-03    -10.8594E-03     8.24356E-03
            2377     4.45137E-03     4.87104E-03    -14.8974E+06    -72.7419E+06    -12.6971E+06    -2.83698E+06    -10.8730E-03     21.8023E-03    -10.9293E-03     6.89853E-03    -10.8237E-03     21.4786E-03    -10.8657E-03     6.86133E-03
            2378     3.56105E-03     4.87052E-03    -14.6317E+06    -72.1062E+06    -13.3818E+06    -2.13787E+06    -10.8926E-03     21.8238E-03    -10.9313E-03     5.50495E-03    -10.8419E-03     21.5039E-03    -10.8724E-03     5.47693E-03
            2379     2.67077E-03     4.87009E-03    -14.4793E+06    -71.7087E+06    -13.8859E+06    -1.50601E+06    -10.9115E-03     21.8452E-03    -10.9338E-03     4.12675E-03    -10.8598E-03     21.5278E-03    -10.8782E-03     4.10700E-03
            2380     1.78049E-03     4.86981E-03    -14.3928E+06    -71.3525E+06    -14.1808E+06    -922.808E+03    -10.9266E-03     21.8625E-03    -10.9359E-03     2.77923E-03    -10.8746E-03     21.5471E-03    -10.8825E-03     2.76713E-03
            2381     890.248E-06     4.86959E-03    -14.3173E+06    -70.7845E+06    -14.3311E+06    -465.463E+03    -10.9202E-03     21.8715E-03    -10.9513E-03     1.51597E-03    -10.8684E-03     21.5591E-03    -10.8996E-03     1.50986E-03
            2382     16.8539E-03     3.96383E-03    -3.59621E+06     87.1873E+06     59.7415E+06     3.01049E+06    -32.8398E-03     47.6241E-03    -14.7843E-03     16.5704E-03    -33.1093E-03     48.0174E-03    -14.6068E-03     16.5242E-03
            2383     15.9815E-03     3.93960E-03    -11.8178E+06     69.3660E+06     29.1288E+06     6.14079E+06    -28.0989E-03     41.8890E-03    -13.7901E-03     23.4745E-03    -28.3437E-03     42.2543E-03    -13.7279E-03     23.4716E-03
            2384     15.1046E-03     3.92954E-03    -16.8948E+06     41.1812E+06     15.2200E+06     6.15463E+06    -21.6922E-03     34.8053E-03    -13.1131E-03     18.9151E-03    -21.8748E-03     35.0305E-03    -13.0722E-03     18.9563E-03
            2385     14.2220E-03     3.92218E-03    -18.9644E+06      9.4723E+06     18.5983E+06     1.12266E+06    -17.2156E-03     29.9922E-03    -12.7766E-03     20.1523E-03    -17.3592E-03     30.0485E-03    -12.6699E-03     20.1479E-03
            2386     13.3351E-03     3.91786E-03    -19.0388E+06    -19.0168E+06     18.5550E+06    -4.01137E+06    -14.9136E-03     27.4993E-03    -12.5857E-03     20.8716E-03    -15.0132E-03     27.4101E-03    -12.4377E-03     20.8080E-03
            2387     12.4472E-03     3.91360E-03    -18.4010E+06    -34.1432E+06     19.7199E+06    -7.21909E+06    -13.5963E-03     26.0726E-03    -12.4763E-03     20.3063E-03    -13.6704E-03     25.9031E-03    -12.3015E-03     20.2055E-03
            2388     11.5589E-03     3.91112E-03    -17.9989E+06    -45.1373E+06     18.2648E+06    -9.26084E+06    -12.7689E-03     25.1790E-03    -12.4101E-03     19.1631E-03    -12.8218E-03     24.9548E-03    -12.2272E-03     19.0385E-03
            2389     10.6694E-03     3.90869E-03    -17.3695E+06    -56.7411E+06     12.8686E+06    -10.4058E+06    -12.4006E-03     24.7639E-03    -12.3633E-03     17.6973E-03    -12.4251E-03     24.4879E-03    -12.1915E-03     17.5593E-03
            2390     9.78044E-03     3.90717E-03    -15.8101E+06    -64.3710E+06     5.85527E+06    -10.7853E+06    -12.2674E-03     24.5875E-03    -12.3201E-03     16.0879E-03    -12.2624E-03     24.2807E-03    -12.1746E-03     15.9460E-03
            2391     8.89106E-03     3.90562E-03    -14.0902E+06    -69.1319E+06    -384.868E+03    -10.2320E+06    -12.2401E-03     24.5241E-03    -12.2840E-03     14.4446E-03    -12.2103E-03     24.1998E-03    -12.1652E-03     14.3105E-03
            2392     8.00202E-03     3.90440E-03    -13.0451E+06    -73.6324E+06    -5.37407E+06    -8.79722E+06    -12.2354E-03     24.4928E-03    -12.2574E-03     12.7480E-03    -12.1865E-03     24.1516E-03    -12.1586E-03     12.6329E-03
            2393     7.11284E-03     3.90330E-03    -12.2507E+06    -74.9919E+06    -8.28883E+06    -7.08750E+06    -12.2391E-03     24.4770E-03    -12.2379E-03     11.1053E-03    -12.1799E-03     24.1320E-03    -12.1529E-03     11.0127E-03
            2394     6.22378E-03     3.90237E-03    -11.5986E+06    -75.0611E+06    -9.52457E+06    -5.75188E+06    -12.2333E-03     24.4589E-03    -12.2256E-03     9.53056E-03    -12.1689E-03     24.1143E-03    -12.1475E-03     9.45541E-03
            2395     5.33465E-03     3.90156E-03    -11.3258E+06    -74.9553E+06    -10.2459E+06    -4.55608E+06    -12.2287E-03     24.4451E-03    -12.2165E-03     8.03015E-03    -12.1619E-03     24.1017E-03    -12.1426E-03     7.97063E-03
            2396     4.44556E-03     3.90090E-03    -11.0907E+06    -74.3663E+06    -10.3665E+06    -3.46417E+06    -12.2222E-03     24.4321E-03    -12.2099E-03     6.60207E-03    -12.1549E-03     24.0914E-03    -12.1378E-03     6.55682E-03
            2397     3.55646E-03     3.90033E-03    -10.8602E+06    -73.5822E+06    -10.6451E+06    -2.53032E+06    -12.2092E-03     24.4125E-03    -12.2032E-03     5.21976E-03    -12.1415E-03     24.0757E-03    -12.1340E-03     5.18670E-03
            2398     2.66734E-03     3.89992E-03    -10.7179E+06    -73.0059E+06    -10.6325E+06    -1.75698E+06    -12.2032E-03     24.4029E-03    -12.1998E-03     3.89868E-03    -12.1356E-03     24.0688E-03    -12.1315E-03     3.87571E-03
            2399     1.77825E-03     3.89958E-03    -10.6058E+06    -72.5027E+06    -10.4746E+06    -1.11214E+06    -12.2024E-03     24.3991E-03    -12.1967E-03     2.61577E-03    -12.1352E-03     24.0671E-03    -12.1285E-03     2.60123E-03
            2400     889.125E-06     3.89943E-03    -10.5039E+06    -71.8196E+06    -10.4635E+06    -553.264E+03    -12.1803E-03     24.3867E-03    -12.2064E-03     1.41788E-03    -12.1135E-03     24.0579E-03    -12.1393E-03     1.41064E-03
            2401     16.8503E-03     2.96869E-03    -4.27363E+06     82.0337E+06     58.5755E+06     6.31332E+06    -29.9981E-03     45.1326E-03    -15.1345E-03     18.2640E-03    -30.2527E-03     45.4940E-03    -14.9543E-03     18.2796E-03
            2402     15.9746E-03     2.95321E-03    -10.7855E+06     67.5416E+06     31.7841E+06     10.1057E+06    -22.8243E-03     37.2165E-03    -14.3922E-03     24.6657E-03    -23.0521E-03     37.5544E-03    -14.3156E-03     24.7427E-03
            2403     15.0915E-03     2.94960E-03    -14.6877E+06     46.2099E+06     16.4501E+06     7.20662E+06    -17.3553E-03     31.3609E-03    -14.0056E-03     23.6149E-03    -17.5317E-03     31.6019E-03    -13.9690E-03     23.6835E-03
            2404     14.2038E-03     2.94779E-03    -16.6220E+06     17.1140E+06     14.9372E+06    -226.332E+03    -15.4888E-03     29.3672E-03    -13.8784E-03     25.8429E-03    -15.6249E-03     29.4616E-03    -13.8044E-03     25.8265E-03
            2405     13.3167E-03     2.94255E-03    -16.5696E+06    -14.5688E+06     11.8467E+06    -7.50012E+06    -14.9111E-03     28.7164E-03    -13.8053E-03     24.2909E-03    -14.9938E-03     28.6540E-03    -13.7009E-03     24.1851E-03
            2406     12.4297E-03     2.94047E-03    -15.0670E+06    -32.9695E+06     9.05209E+06    -10.8447E+06    -14.3816E-03     28.1219E-03    -13.7403E-03     21.8715E-03    -14.4244E-03     27.9678E-03    -13.6254E-03     21.7257E-03
            2407     11.5417E-03     2.93760E-03    -13.6515E+06    -44.8210E+06     4.30033E+06    -12.1614E+06    -14.1052E-03     27.7836E-03    -13.6784E-03     19.5965E-03    -14.1161E-03     27.5742E-03    -13.5721E-03     19.4355E-03
            2408     10.6545E-03     2.93594E-03    -12.6971E+06    -57.2763E+06    -4.21791E+06    -13.1302E+06    -13.9885E-03     27.5984E-03    -13.6099E-03     17.2437E-03    -13.9636E-03     27.3372E-03    -13.5295E-03     17.0713E-03
            2409     9.76663E-03     2.93408E-03    -12.0691E+06    -65.9440E+06    -11.6509E+06    -13.2299E+06    -13.9426E-03     27.4876E-03    -13.5450E-03     15.1127E-03    -13.8910E-03     27.1927E-03    -13.4901E-03     14.9397E-03
            2410     8.87932E-03     2.93273E-03    -11.5539E+06    -72.4358E+06    -14.6487E+06    -11.7421E+06    -13.8899E-03     27.3892E-03    -13.4992E-03     13.1375E-03    -13.8218E-03     27.0652E-03    -13.4507E-03     12.9842E-03
            2411     7.99156E-03     2.93150E-03    -11.1815E+06    -76.8147E+06    -15.3574E+06    -9.50308E+06    -13.8160E-03     27.2785E-03    -13.4625E-03     11.3684E-03    -13.7385E-03     26.9330E-03    -13.4117E-03     11.2444E-03
            2412     7.10395E-03     2.93047E-03    -10.8107E+06    -77.7624E+06    -15.0862E+06    -7.76024E+06    -13.7285E-03     27.1561E-03    -13.4276E-03     9.75422E-03    -13.6482E-03     26.8049E-03    -13.3746E-03     9.65302E-03
            2413     6.21612E-03     2.92960E-03    -10.3680E+06    -77.5664E+06    -14.0026E+06     -6.0543E+06    -13.6395E-03     27.0372E-03    -13.3978E-03     8.27745E-03    -13.5587E-03     26.6848E-03    -13.3403E-03     8.19848E-03
            2414     5.32829E-03     2.92886E-03    -9.93818E+06    -76.9904E+06    -12.7630E+06    -4.69386E+06    -13.5572E-03     26.9289E-03    -13.3717E-03     6.91218E-03    -13.4769E-03     26.5769E-03    -13.3094E-03     6.85096E-03
            2415     4.44036E-03     2.92822E-03    -9.55813E+06    -76.2564E+06    -11.6236E+06    -3.66800E+06    -13.4787E-03     26.8278E-03    -13.3491E-03     5.63813E-03    -13.3991E-03     26.4772E-03    -13.2828E-03     5.59030E-03
            2416     3.55237E-03     2.92774E-03    -9.19903E+06    -75.2836E+06    -10.5457E+06    -2.67152E+06    -13.4123E-03     26.7433E-03    -13.3310E-03     4.44211E-03    -13.3339E-03     26.3955E-03    -13.2613E-03     4.40726E-03
            2417     2.66432E-03     2.92733E-03    -8.91082E+06    -74.3885E+06    -9.72456E+06    -1.81892E+06    -13.3615E-03     26.6787E-03    -13.3172E-03     3.30843E-03    -13.2841E-03     26.3338E-03    -13.2450E-03     3.28470E-03
            2418     1.77621E-03     2.92705E-03    -8.80002E+06    -73.7630E+06    -9.13067E+06    -1.17767E+06    -13.3270E-03     26.6349E-03    -13.3079E-03     2.21698E-03    -13.2509E-03     26.2921E-03    -13.2338E-03     2.20161E-03
            2419     888.125E-06     2.92686E-03    -8.72731E+06    -73.0186E+06    -8.79519E+06    -655.543E+03    -13.3080E-03     26.6081E-03    -13.3001E-03     1.19259E-03    -13.2331E-03     26.2684E-03    -13.2255E-03     1.18404E-03
            2420     16.8356E-03     1.97663E-03    -4.73577E+06     75.3885E+06     58.9975E+06     7.59781E+06    -24.2524E-03     40.2974E-03    -16.0450E-03     22.8019E-03    -24.4911E-03     40.6168E-03    -15.8524E-03     22.8582E-03
            2421     15.9545E-03     1.97203E-03    -4.69123E+06     66.6053E+06     40.2473E+06     10.0284E+06    -18.9948E-03     34.6245E-03    -15.6297E-03     29.5017E-03    -19.1916E-03     34.9246E-03    -15.5183E-03     29.5999E-03
            2422     15.0663E-03     1.97498E-03    -3.55050E+06     54.5410E+06     19.1534E+06     6.30673E+06    -17.2349E-03     32.6069E-03    -15.3720E-03     27.6700E-03    -17.3672E-03     32.8642E-03    -15.3502E-03     27.7353E-03
            2423     14.1811E-03     1.96819E-03    -4.57921E+06     26.1096E+06     6.66988E+06    -1.07189E+06    -17.3987E-03     32.6157E-03    -15.2170E-03     25.8861E-03    -17.4730E-03     32.7467E-03    -15.2148E-03     25.8624E-03
            2424     13.2973E-03     1.96620E-03    -5.90955E+06    -9.91687E+06    -3.25962E+06    -8.07683E+06    -17.1534E-03     32.2308E-03    -15.0774E-03     21.6768E-03    -17.1659E-03     32.1963E-03    -15.0707E-03     21.5661E-03
            2425     12.4116E-03     1.96317E-03    -6.89191E+06    -31.9372E+06    -11.6691E+06    -12.4497E+06    -16.6859E-03     31.6200E-03    -14.9340E-03     18.5644E-03    -16.6584E-03     31.4881E-03    -14.9361E-03     18.3994E-03
            2426     11.5271E-03     1.96141E-03    -6.84930E+06    -46.3541E+06    -16.9744E+06    -13.0570E+06    -16.3289E-03     31.1371E-03    -14.8081E-03     15.7834E-03    -16.2721E-03     30.9404E-03    -14.8159E-03     15.6118E-03
            2427     10.6410E-03     1.95953E-03    -7.86717E+06    -58.4372E+06    -23.3003E+06    -12.0468E+06    -16.0088E-03     30.6952E-03    -14.6864E-03     13.4702E-03    -15.9302E-03     30.4485E-03    -14.7067E-03     13.3124E-03
            2428     9.75570E-03     1.95819E-03    -10.0808E+06    -68.2291E+06    -28.5695E+06    -11.2274E+06    -15.7276E-03     30.3054E-03    -14.5778E-03     11.5354E-03    -15.6380E-03     30.0205E-03    -14.6071E-03     11.3888E-03
            2429     8.86936E-03     1.95698E-03    -12.2878E+06    -75.9762E+06    -29.7646E+06    -9.77004E+06    -15.4586E-03     29.9540E-03    -14.4954E-03     9.88276E-03    -15.3669E-03     29.6352E-03    -14.5162E-03     9.75531E-03
            2430     7.98328E-03     1.95601E-03    -13.4464E+06    -79.7198E+06    -28.6805E+06    -8.25812E+06    -15.2168E-03     29.6425E-03    -14.4257E-03     8.46446E-03    -15.1270E-03     29.3051E-03    -14.4340E-03     8.35681E-03
            2431     7.09670E-03     1.95519E-03    -13.7490E+06    -80.5376E+06    -26.4567E+06    -6.75127E+06    -14.9956E-03     29.3602E-03    -14.3646E-03     7.21515E-03    -14.9093E-03     29.0158E-03    -14.3602E-03     7.12719E-03
            2432     6.21008E-03     1.95450E-03    -13.6423E+06    -79.9694E+06    -23.4567E+06    -5.45889E+06    -14.8025E-03     29.1155E-03    -14.3130E-03     6.09093E-03    -14.7208E-03     28.7695E-03    -14.2946E-03     6.01983E-03
            2433     5.32324E-03     1.95391E-03    -13.1894E+06    -79.0444E+06    -20.5358E+06    -4.30923E+06    -14.6302E-03     28.8984E-03    -14.2683E-03     5.06664E-03    -14.5518E-03     28.5521E-03    -14.2372E-03     5.01053E-03
            2434     4.43625E-03     1.95346E-03    -12.7213E+06    -78.0654E+06    -17.9869E+06    -3.24175E+06    -14.4810E-03     28.7115E-03    -14.2305E-03     4.11791E-03    -14.4054E-03     28.3657E-03    -14.1888E-03     4.07569E-03
            2435     3.54914E-03     1.95306E-03    -12.4154E+06    -76.9203E+06    -15.7866E+06    -2.37906E+06    -14.3608E-03     28.5607E-03    -14.1999E-03     3.23756E-03    -14.2885E-03     28.2170E-03    -14.1493E-03     3.20658E-03
            2436     2.66194E-03     1.95276E-03    -12.1609E+06    -75.7837E+06    -14.0574E+06    -1.59480E+06    -14.2677E-03     28.4432E-03    -14.1755E-03     2.40111E-03    -14.1983E-03     28.1023E-03    -14.1183E-03     2.38033E-03
            2437     1.77468E-03     1.95253E-03    -11.9369E+06    -74.8981E+06    -12.8437E+06    -1.00916E+06    -14.1976E-03     28.3556E-03    -14.1579E-03     1.60169E-03    -14.1301E-03     28.0170E-03    -14.0962E-03     1.58854E-03
            2438     887.333E-06     1.95238E-03    -11.8561E+06    -74.2248E+06    -12.1623E+06    -592.519E+03    -14.1607E-03     28.3052E-03    -14.1445E-03     862.387E-06    -14.0947E-03     27.9689E-03    -14.0805E-03     854.671E-06
            2439     16.8085E-03     993.003E-06    -967.431E+03     72.3852E+06     59.0568E+06     5.38960E+06    -22.2407E-03     39.7538E-03    -17.5131E-03     27.4919E-03    -22.4471E-03     40.0422E-03    -17.3214E-03     27.5379E-03
            2440     15.9217E-03     992.139E-06     1.14003E+06     68.6832E+06     43.9976E+06     3.77987E+06    -22.3644E-03     39.5062E-03    -17.1418E-03     26.3996E-03    -22.5298E-03     39.7909E-03    -17.0231E-03     26.4326E-03
            2441     15.0436E-03     990.128E-06     4.97848E+06     58.6406E+06     16.2043E+06     2.86296E+06    -22.2215E-03     38.9100E-03    -16.6885E-03     20.5039E-03    -22.3080E-03     39.1747E-03    -16.6998E-03     20.5320E-03
            2442     14.1642E-03     986.682E-06     7.06037E+06     32.0929E+06    -6.95438E+06     711.306E+03    -21.1669E-03     37.4585E-03    -16.2915E-03     16.6542E-03    -21.1695E-03     37.6199E-03    -16.3831E-03     16.6576E-03
            2443     13.2815E-03     984.252E-06     4.94471E+06    -4.09799E+06    -21.3364E+06    -4.89180E+06    -19.8881E-03     35.8888E-03    -16.0006E-03     12.7137E-03    -19.8272E-03     35.8926E-03    -16.1086E-03     12.6471E-03
            2444     12.4001E-03     982.898E-06     1.80663E+06    -30.9164E+06    -30.7492E+06    -8.74184E+06    -19.0095E-03     34.7732E-03    -15.7637E-03     10.4669E-03    -18.9115E-03     34.6609E-03    -15.8752E-03     10.3516E-03
            2445     11.5162E-03     981.539E-06    -2.51174E+06    -48.8827E+06    -35.0118E+06    -8.77376E+06    -18.2147E-03     33.7867E-03    -15.5720E-03     8.73107E-03    -18.1059E-03     33.5969E-03    -15.6725E-03     8.61611E-03
            2446     10.6329E-03     980.596E-06    -6.19068E+06    -60.7263E+06    -35.8976E+06    -7.26369E+06    -17.5562E-03     32.9708E-03    -15.4146E-03     7.34587E-03    -17.4472E-03     32.7283E-03    -15.4971E-03     7.25083E-03
            2447     9.74791E-03     979.753E-06    -9.29492E+06    -70.4283E+06    -36.3373E+06    -5.70254E+06    -17.0024E-03     32.2813E-03    -15.2789E-03     6.21231E-03    -16.8942E-03     31.9954E-03    -15.3450E-03     6.13772E-03
            2448     8.86328E-03     979.094E-06    -12.1337E+06    -77.6891E+06    -35.8750E+06    -5.20956E+06    -16.5484E-03     31.7118E-03    -15.1634E-03     5.28567E-03    -16.4445E-03     31.3930E-03    -15.2125E-03     5.21766E-03
            2449     7.97774E-03     978.553E-06    -14.2998E+06    -81.8437E+06    -34.4477E+06    -4.74680E+06    -16.1612E-03     31.2253E-03    -15.0640E-03     4.50035E-03    -16.0642E-03     30.8868E-03    -15.0969E-03     4.43848E-03
            2450     7.09215E-03     978.085E-06    -15.8527E+06    -82.4135E+06    -33.0823E+06    -4.01158E+06    -15.8350E-03     30.8080E-03    -14.9730E-03     3.82294E-03    -15.7469E-03     30.4669E-03    -14.9959E-03     3.77069E-03
            2451     6.20617E-03     977.690E-06    -16.7259E+06    -81.5580E+06    -30.9551E+06    -3.45769E+06    -15.5543E-03     30.4503E-03    -14.8960E-03     3.22297E-03    -15.4748E-03     30.1117E-03    -14.9083E-03     3.17799E-03
            2452     5.31999E-03     977.390E-06    -17.2118E+06    -80.8218E+06    -27.9519E+06    -2.78745E+06    -15.3179E-03     30.1535E-03    -14.8356E-03     2.67655E-03    -15.2463E-03     29.8149E-03    -14.8332E-03     2.64030E-03
            2453     4.43361E-03     977.120E-06    -17.4370E+06    -79.4971E+06    -24.9693E+06    -2.01448E+06    -15.1241E-03     29.9093E-03    -14.7853E-03     2.17035E-03    -15.0598E-03     29.5734E-03    -14.7695E-03     2.14415E-03
            2454     3.54710E-03     976.931E-06    -17.4738E+06    -78.1374E+06    -22.3599E+06     -1.4208E+06    -14.9651E-03     29.7086E-03    -14.7435E-03     1.70511E-03    -14.9068E-03     29.3756E-03    -14.7166E-03     1.68663E-03
            2455     2.66043E-03     976.742E-06    -17.4432E+06    -76.8728E+06    -20.1928E+06    -978.035E+03    -14.8387E-03     29.5487E-03    -14.7101E-03     1.26380E-03    -14.7851E-03     29.2189E-03    -14.6743E-03     1.25107E-03
            2456     1.77368E-03     976.630E-06    -17.3106E+06    -75.7618E+06    -18.5589E+06    -597.425E+03    -14.7450E-03     29.4298E-03    -14.6849E-03     842.425E-06    -14.6948E-03     29.1030E-03    -14.6427E-03     834.650E-06
            2457     886.874E-06     976.546E-06    -17.2443E+06    -75.1007E+06    -17.6097E+06    -303.265E+03    -14.6889E-03     29.3534E-03    -14.6645E-03     454.812E-06    -14.6406E-03     29.0284E-03    -14.6187E-03     450.873E-06


