********************************************************************************
Field Output Report, written Mon Aug 12 22:31:48 2024

Source 1
---------

   ODB: G:/Abaqus_calc_2019/1740/Vel_40/odb/zeides_2a_8_red_1000_cal_10_vel_40_fric_025.odb
   Step: Step-1
   Frame: Increment   2162112: Step Time =   0.2639

Loc 1 : Nodal values from source 1

Output sorted by column "Nodal Label".

Field Output reported at nodes for region: DIE_2A_8_D0_36-1.Region_1
   Computation algorithm: EXTRAPOLATE_COMPUTE_AVERAGE
   Averaged at nodes
   Averaging regions: ODB_REGIONS

      Node Label     COORD.COOR1     COORD.COOR2
                          @Loc 1          @Loc 1
-------------------------------------------------
               1     17.3301E-03     144.017E-03


Field Output reported at nodes for region: DIE_2A_8_D0_36-1.Region_2
   Computation algorithm: EXTRAPOLATE_COMPUTE_AVERAGE
   Averaged at nodes
   Averaging regions: ODB_REGIONS

      Node Label     COORD.COOR1     COORD.COOR2
                          @Loc 1          @Loc 1
-------------------------------------------------
               1     17.3301E-03     144.017E-03


Field Output reported at nodes for part: WIRE-1
   Computation algorithm: EXTRAPOLATE_COMPUTE_AVERAGE
   Averaged at nodes
   Averaging regions: ODB_REGIONS

      Node Label     COORD.COOR1     COORD.COOR2           S.S11           S.S22           S.S33           S.S12         PE.PE11         PE.PE22         PE.PE33         PE.PE12         LE.LE11         LE.LE22         LE.LE33         LE.LE12
                          @Loc 1          @Loc 1          @Loc 1          @Loc 1          @Loc 1          @Loc 1          @Loc 1          @Loc 1          @Loc 1          @Loc 1          @Loc 1          @Loc 1          @Loc 1          @Loc 1
-------------------------------------------------------------------------------------------------------------------------------------------------------------------------------------------------------------------------------------------------
               1     183.570E-09     67.4861E-03    -121.325E+06    -252.280E+06    -122.197E+06       -45.5E+03    -105.936E-03     211.609E-03    -105.673E-03     3.82671E-03    -106.000E-03     210.701E-03    -105.743E-03     3.76803E-03
               2     16.1999E-03     68.1372E-03    -2.81043E+06     115.397E+06     101.995E+06     264.020E+03    -104.000E-03     209.749E-03    -105.749E-03     4.47765E-03    -104.359E-03     210.212E-03    -105.402E-03     3.59246E-03
               3     16.2060E-03     136.224E-03    -10.3352E+06     12.1881E+06     23.6959E+06    -4.94985E+06    -105.174E-03     210.101E-03    -104.927E-03     8.14961E-03    -105.277E-03     210.146E-03    -104.811E-03     7.98213E-03
               4     57.0890E-09     135.232E-03      44.209E+06    -3.07430E+06     42.2223E+06    -1.91468E+06    -108.375E-03     216.258E-03    -107.883E-03    -2.41362E-03    -108.215E-03     216.113E-03    -107.732E-03    -2.46922E-03
               5     171.113E-09     83.2667E-18    -67.4836E+06    -197.640E+06    -67.0985E+06    -161.549E+03    -103.033E-03     205.896E-03    -102.863E-03     236.544E-06    -102.986E-03     205.103E-03    -102.814E-03     225.358E-06
               6     16.1155E-03     83.2667E-18    -409.232E+03     122.188E+06     105.277E+06     3.04119E+06    -135.098E-03     243.537E-03    -108.438E-03     53.2008E-03    -135.559E-03     244.115E-03    -108.088E-03     52.1008E-03
               7     809.494E-06     67.4902E-03    -119.887E+06    -246.647E+06    -117.287E+06     70.5492E+03    -105.894E-03     211.652E-03    -105.758E-03     6.50789E-03    -105.967E-03     210.764E-03    -105.812E-03     6.41453E-03
               8     1.61919E-03     67.5007E-03    -115.913E+06    -233.728E+06    -104.892E+06     34.6003E+03    -105.845E-03     211.712E-03    -105.867E-03     12.0037E-03    -105.938E-03     210.868E-03    -105.884E-03     11.8344E-03
               9     2.42870E-03     67.5172E-03    -109.698E+06    -216.194E+06    -88.2021E+06    -4.15905E+03    -105.800E-03     211.709E-03    -105.909E-03     17.4741E-03    -105.916E-03     210.924E-03    -105.877E-03     17.2231E-03
              10     3.23833E-03     67.5397E-03    -102.016E+06    -195.948E+06    -69.3617E+06     69.4322E+03    -105.743E-03     211.680E-03    -105.937E-03     22.5682E-03    -105.883E-03     210.964E-03    -105.852E-03     22.2365E-03
              11     4.04817E-03     67.5674E-03    -93.6121E+06    -175.655E+06    -50.9361E+06     3.48203E+03    -105.704E-03     211.658E-03    -105.954E-03     27.1883E-03    -105.866E-03     211.012E-03    -105.819E-03     26.7770E-03
              12     4.85800E-03     67.6002E-03    -85.3032E+06    -155.925E+06    -34.5733E+06     119.138E+03    -105.675E-03     211.634E-03    -105.959E-03     31.2608E-03    -105.856E-03     211.059E-03    -105.782E-03     30.7748E-03
              13     5.66781E-03     67.6370E-03    -76.9491E+06    -137.025E+06    -20.1381E+06     89.8670E+03    -105.675E-03     211.631E-03    -105.956E-03     34.7674E-03    -105.871E-03     211.126E-03    -105.746E-03     34.2066E-03
              14     6.47770E-03     67.6775E-03    -68.9048E+06    -118.966E+06    -7.70927E+06    -10.4726E+03    -105.678E-03     211.625E-03    -105.947E-03     37.6740E-03    -105.888E-03     211.191E-03    -105.713E-03     37.0390E-03
              15     7.28769E-03     67.7208E-03    -61.6284E+06    -101.826E+06     2.93351E+06     120.693E+03    -105.672E-03     211.606E-03    -105.934E-03     39.9722E-03    -105.895E-03     211.241E-03    -105.683E-03     39.2677E-03
              16     8.09756E-03     67.7662E-03    -54.5730E+06    -84.5846E+06     12.5438E+06     112.585E+03    -105.667E-03     211.585E-03    -105.918E-03     41.7025E-03    -105.904E-03     211.292E-03    -105.654E-03     40.9274E-03
              17     8.90764E-03     67.8133E-03    -48.1267E+06    -66.7548E+06     21.0784E+06     133.875E+03    -105.644E-03     211.544E-03    -105.899E-03     42.7987E-03    -105.897E-03     211.327E-03    -105.628E-03     41.9526E-03
              18     9.71762E-03     67.8609E-03    -42.0305E+06    -49.3110E+06     28.7009E+06     120.296E+03    -105.580E-03     211.458E-03    -105.878E-03     43.2410E-03    -105.848E-03     211.318E-03    -105.602E-03     42.3231E-03
              19     10.5277E-03     67.9089E-03    -36.2653E+06    -27.9250E+06     36.2258E+06     149.485E+03    -105.506E-03     211.356E-03    -105.850E-03     43.0452E-03    -105.796E-03     211.313E-03    -105.576E-03     42.0556E-03
              20     11.3379E-03     67.9561E-03    -30.5906E+06    -5.50476E+06     43.9988E+06     292.624E+03    -105.385E-03     211.207E-03    -105.822E-03     42.1579E-03    -105.699E-03     211.265E-03    -105.550E-03     41.0950E-03
              21     12.1479E-03     68.0021E-03    -25.3453E+06     21.8273E+06     50.7608E+06     308.099E+03    -105.170E-03     210.949E-03    -105.779E-03     40.2145E-03    -105.514E-03     211.133E-03    -105.520E-03     39.0767E-03
              22     12.9588E-03     68.0443E-03    -20.3204E+06     70.0757E+06     63.2345E+06     167.844E+03    -104.859E-03     210.587E-03    -105.729E-03     36.3998E-03    -105.266E-03     210.989E-03    -105.485E-03     35.1985E-03
              23     13.7683E-03     68.0815E-03    -14.9382E+06     105.820E+06     70.9481E+06     349.609E+03    -104.793E-03     210.468E-03    -105.674E-03     30.6593E-03    -105.232E-03     211.023E-03    -105.451E-03     29.4102E-03
              24     14.5798E-03     68.1121E-03    -10.4314E+06     113.273E+06     79.8566E+06     36.9940E+03    -105.016E-03     210.699E-03    -105.683E-03     23.4686E-03    -105.450E-03     211.267E-03    -105.433E-03     22.1356E-03
              25     15.3879E-03     68.1316E-03    -5.70051E+06     115.320E+06     96.3137E+06    -169.201E+03    -104.558E-03     210.296E-03    -105.738E-03     12.0011E-03    -104.958E-03     210.806E-03    -105.416E-03     10.8604E-03
              26     16.1997E-03     69.3045E-03    -3.15370E+06     114.968E+06     101.787E+06    -239.293E+03    -104.456E-03     210.190E-03    -105.734E-03     3.68339E-03    -104.814E-03     210.650E-03    -105.387E-03     2.79758E-03
              27     16.2000E-03     70.4774E-03    -2.15397E+06     115.610E+06     102.723E+06     1.34259E+03    -104.858E-03     210.576E-03    -105.718E-03     3.13259E-03    -105.213E-03     211.035E-03    -105.369E-03     2.25199E-03
              28     16.2001E-03     71.6478E-03    -2.97367E+06     115.589E+06     102.139E+06    -510.482E+03    -104.774E-03     210.500E-03    -105.726E-03     3.66921E-03    -105.133E-03     210.963E-03    -105.378E-03     2.77509E-03
              29     16.1991E-03     72.8205E-03    -2.60328E+06     115.616E+06     102.219E+06     519.210E+03    -104.126E-03     209.871E-03    -105.745E-03     3.84323E-03    -104.484E-03     210.333E-03    -105.397E-03     2.96403E-03
              30     16.2008E-03     73.9873E-03    -1.90731E+06     116.206E+06     103.120E+06    -370.697E+03    -104.091E-03     209.831E-03    -105.740E-03     4.29201E-03    -104.448E-03     210.295E-03    -105.390E-03     3.40320E-03
              31     16.1988E-03     75.1611E-03    -2.78261E+06     116.001E+06     102.408E+06     290.238E+03    -104.767E-03     210.496E-03    -105.729E-03     4.09051E-03    -105.126E-03     210.960E-03    -105.381E-03     3.21019E-03
              32     16.2006E-03     76.3302E-03    -2.40414E+06     116.268E+06     102.751E+06     385.450E+03    -104.674E-03     210.403E-03    -105.729E-03     4.34375E-03    -105.033E-03     210.868E-03    -105.380E-03     3.46752E-03
              33     16.1993E-03     77.5015E-03    -2.90133E+06     116.030E+06     102.503E+06    -445.357E+03    -104.958E-03     210.678E-03    -105.720E-03     4.22223E-03    -105.318E-03     211.143E-03    -105.372E-03     3.32904E-03
              34     16.2002E-03     78.6740E-03    -2.45279E+06     116.472E+06     103.012E+06     366.079E+03    -104.452E-03     210.186E-03    -105.734E-03     3.81676E-03    -104.810E-03     210.650E-03    -105.384E-03     2.94003E-03
              35     16.1997E-03     79.8419E-03    -2.15978E+06     116.710E+06     103.356E+06    -219.896E+03    -104.169E-03     209.907E-03    -105.738E-03     4.20758E-03    -104.528E-03     210.373E-03    -105.387E-03     3.31946E-03
              36     16.2001E-03     81.0141E-03    -3.08048E+06     116.357E+06     102.514E+06     13.0382E+03    -104.859E-03     210.579E-03    -105.720E-03     4.07177E-03    -105.221E-03     211.046E-03    -105.372E-03     3.18146E-03
              37     16.1997E-03     82.1851E-03    -2.48530E+06     116.878E+06     102.963E+06     192.175E+03    -104.488E-03     210.215E-03    -105.727E-03     3.73170E-03    -104.847E-03     210.682E-03    -105.378E-03     2.85290E-03
              38     16.2003E-03     83.3547E-03    -2.38775E+06     117.092E+06     103.266E+06    -68.4689E+03    -104.336E-03     210.066E-03    -105.730E-03     4.17186E-03    -104.697E-03     210.535E-03    -105.380E-03     3.28205E-03
              39     16.1996E-03     84.5262E-03    -2.76845E+06     117.430E+06     103.135E+06     142.710E+03    -104.550E-03     210.278E-03    -105.728E-03     3.92389E-03    -104.912E-03     210.748E-03    -105.379E-03     3.03512E-03
              40     16.2001E-03     85.6967E-03    -2.19091E+06     118.133E+06     103.727E+06     364.765E+03    -104.372E-03     210.103E-03    -105.731E-03     4.44965E-03    -104.734E-03     210.576E-03    -105.381E-03     3.56904E-03
              41     16.1999E-03     86.8671E-03    -3.13627E+06     117.641E+06     102.886E+06    -167.475E+03    -105.015E-03     210.730E-03    -105.715E-03     4.74811E-03    -105.380E-03     211.203E-03    -105.367E-03     3.85599E-03
              42     16.1996E-03     88.0397E-03    -3.79445E+06     117.382E+06     102.311E+06     439.613E+03    -105.071E-03     210.788E-03    -105.717E-03     3.66771E-03    -105.436E-03     211.260E-03    -105.370E-03     2.78695E-03
              43     16.2001E-03     89.2087E-03    -2.80445E+06     118.706E+06     103.569E+06    -86.5026E+03    -104.520E-03     210.252E-03    -105.732E-03     3.41516E-03    -104.884E-03     210.727E-03    -105.382E-03     2.53196E-03
              44     16.1995E-03     90.3806E-03    -2.42032E+06     119.830E+06     104.258E+06     287.576E+03    -104.398E-03     210.132E-03    -105.734E-03     3.69254E-03    -104.763E-03     210.612E-03    -105.383E-03     2.81469E-03
              45     16.2003E-03     91.5511E-03    -1.59534E+06     120.937E+06     105.576E+06     434.773E+03    -103.949E-03     209.690E-03    -105.741E-03     4.20383E-03    -104.314E-03     210.172E-03    -105.386E-03     3.33237E-03
              46     16.1999E-03     92.7206E-03    -2.73133E+06     120.466E+06     104.570E+06    -456.942E+03    -104.370E-03     210.105E-03    -105.735E-03     4.39466E-03    -104.740E-03     210.589E-03    -105.382E-03     3.50000E-03
              47     16.1995E-03     93.8923E-03    -3.45271E+06     119.910E+06     103.406E+06     563.815E+03    -105.069E-03     210.786E-03    -105.717E-03     4.22048E-03    -105.439E-03     211.270E-03    -105.369E-03     3.33636E-03
              48     16.2004E-03     95.0626E-03    -2.85569E+06     121.231E+06     104.735E+06     165.299E+03    -104.776E-03     210.501E-03    -105.725E-03     3.44974E-03    -105.146E-03     210.987E-03    -105.372E-03     2.57235E-03
              49     16.1993E-03     96.2348E-03    -2.63622E+06     122.590E+06     105.465E+06     408.587E+03    -103.994E-03     209.743E-03    -105.749E-03     3.74474E-03    -104.366E-03     210.235E-03    -105.396E-03     2.87437E-03
              50     16.2004E-03     97.4031E-03    -1.85124E+06     123.687E+06     106.404E+06     388.927E+03    -103.969E-03     209.713E-03    -105.744E-03     4.45906E-03    -104.341E-03     210.209E-03    -105.388E-03     3.58341E-03
              51     16.1998E-03     98.5739E-03    -2.87587E+06     123.990E+06     106.078E+06    -156.260E+03    -104.862E-03     210.584E-03    -105.722E-03     4.00342E-03    -105.239E-03     211.083E-03    -105.368E-03     3.11309E-03
              52     16.1998E-03     99.7468E-03    -2.54242E+06     125.031E+06     106.576E+06     677.240E+03    -104.281E-03     210.022E-03    -105.741E-03     3.50535E-03    -104.657E-03     210.524E-03    -105.385E-03     2.63273E-03
              53     16.2002E-03     100.914E-03    -2.82000E+06     125.540E+06     106.707E+06    -161.266E+03    -103.861E-03     209.615E-03    -105.754E-03     4.16824E-03    -104.241E-03     210.121E-03    -105.399E-03     3.28019E-03
              54     16.1992E-03     102.087E-03    -3.00757E+06     125.926E+06     106.735E+06     551.727E+03    -103.913E-03     209.667E-03    -105.754E-03     3.69470E-03    -104.294E-03     210.174E-03    -105.398E-03     2.82349E-03
              55     16.2007E-03     103.254E-03    -2.49495E+06     126.994E+06     107.533E+06    -280.816E+03    -103.862E-03     209.614E-03    -105.753E-03     3.99893E-03    -104.243E-03     210.125E-03    -105.396E-03     3.11737E-03
              56     16.1989E-03     104.426E-03    -3.30401E+06     126.762E+06     106.448E+06     311.165E+03    -104.213E-03     209.956E-03    -105.743E-03     3.84682E-03    -104.596E-03     210.469E-03    -105.389E-03     2.96953E-03
              57     16.2008E-03     105.596E-03    -2.62292E+06     127.929E+06     107.161E+06     391.000E+03    -103.655E-03     209.404E-03    -105.749E-03     3.99163E-03    -104.037E-03     209.920E-03    -105.395E-03     3.12483E-03
              58     16.1994E-03     106.765E-03    -3.21473E+06     127.965E+06     106.751E+06    -96.4569E+03    -103.539E-03     209.284E-03    -105.745E-03     4.22250E-03    -103.924E-03     209.802E-03    -105.392E-03     3.34750E-03
              59     16.2008E-03     107.936E-03    -2.58990E+06     128.421E+06     107.152E+06     466.129E+03    -103.233E-03     208.970E-03    -105.737E-03     4.00798E-03    -103.616E-03     209.489E-03    -105.384E-03     3.14521E-03
              60     16.2005E-03     109.104E-03    -2.73891E+06     128.831E+06     106.953E+06    -719.140E+03    -103.046E-03     208.777E-03    -105.731E-03     4.10921E-03    -103.430E-03     209.298E-03    -105.379E-03     3.22968E-03
              61     16.2003E-03     110.274E-03    -3.08727E+06     128.393E+06     106.483E+06     641.587E+03    -102.830E-03     208.558E-03    -105.728E-03     4.00414E-03    -103.215E-03     209.078E-03    -105.377E-03     3.14537E-03
              62     16.2014E-03     111.441E-03    -2.80706E+06     128.567E+06     107.125E+06    -273.622E+03    -102.574E-03     208.292E-03    -105.718E-03     4.27941E-03    -102.958E-03     208.812E-03    -105.365E-03     3.41340E-03
              63     16.2005E-03     112.611E-03    -2.90401E+06     128.093E+06     106.627E+06     12.6404E+03    -102.538E-03     208.241E-03    -105.703E-03     3.93223E-03    -102.921E-03     208.759E-03    -105.351E-03     3.06981E-03
              64     16.2021E-03     113.778E-03    -2.62613E+06     127.816E+06     106.979E+06    -246.494E+03    -102.126E-03     207.818E-03    -105.692E-03     4.35447E-03    -102.508E-03     208.334E-03    -105.338E-03     3.49179E-03
              65     16.2013E-03     114.946E-03    -3.18107E+06     126.738E+06     106.556E+06    -553.571E+03    -102.249E-03     207.913E-03    -105.664E-03     4.32993E-03    -102.632E-03     208.425E-03    -105.310E-03     3.46199E-03
              66     16.2028E-03     116.114E-03    -2.24879E+06     125.958E+06     107.111E+06    -117.775E+03    -102.292E-03     207.925E-03    -105.633E-03     4.77183E-03    -102.670E-03     208.432E-03    -105.277E-03     3.91318E-03
              67     16.2027E-03     117.283E-03    -2.72372E+06     123.891E+06     106.094E+06    -1.06678E+06    -102.443E-03     208.042E-03    -105.599E-03     4.82801E-03    -102.819E-03     208.541E-03    -105.245E-03     3.95534E-03
              68     16.2033E-03     118.451E-03    -2.38042E+06     121.542E+06     105.218E+06    -433.916E+03    -103.106E-03     208.663E-03    -105.557E-03     5.08626E-03    -103.476E-03     209.151E-03    -105.204E-03     4.21360E-03
              69     16.2038E-03     119.620E-03    -2.87778E+06     118.067E+06     102.751E+06    -1.74176E+06    -104.739E-03     210.227E-03    -105.488E-03     5.74133E-03    -105.103E-03     210.702E-03    -105.141E-03     4.84753E-03
              70     16.2034E-03     120.794E-03    -2.80423E+06     115.152E+06     101.721E+06    -575.037E+03    -105.703E-03     211.152E-03    -105.449E-03     6.07217E-03    -106.061E-03     211.614E-03    -105.103E-03     5.19298E-03
              71     16.2045E-03     121.964E-03    -1.63061E+06     110.888E+06     100.037E+06    -1.51938E+06    -106.718E-03     212.123E-03    -105.405E-03     7.53363E-03    -107.064E-03     212.567E-03    -105.064E-03     6.63775E-03
              72     16.2037E-03     123.139E-03    -3.97809E+06     104.062E+06     96.2732E+06    -2.90669E+06    -109.121E-03     214.453E-03    -105.333E-03     7.08392E-03    -109.462E-03     214.871E-03    -104.996E-03     6.15408E-03
              73     16.2046E-03     124.315E-03    -1.16567E+06     97.8586E+06     96.0011E+06    -2.27504E+06    -111.262E-03     216.531E-03    -105.269E-03     7.61670E-03    -111.581E-03     216.915E-03    -104.929E-03     6.68261E-03
              74     16.2043E-03     125.496E-03    -3.94030E+06     88.5062E+06     92.5804E+06    -4.14463E+06    -113.737E-03     218.930E-03    -105.193E-03     9.05979E-03    -114.052E-03     219.277E-03    -104.853E-03     8.08548E-03
              75     16.2048E-03     126.678E-03    -1.43410E+06     78.6268E+06     91.2897E+06    -2.80627E+06    -115.973E-03     221.090E-03    -105.117E-03     10.1571E-03    -116.261E-03     221.388E-03    -104.773E-03     9.18156E-03
              76     16.2057E-03     127.864E-03    -3.44404E+06     68.1083E+06     89.1866E+06    -4.34214E+06    -118.444E-03     223.468E-03    -105.024E-03     12.6677E-03    -118.727E-03     223.722E-03    -104.672E-03     11.6598E-03
              77     16.2059E-03     129.053E-03    -1.28287E+06     55.0999E+06     87.7056E+06    -4.31489E+06    -121.693E-03     226.598E-03    -104.905E-03     14.0685E-03    -121.946E-03     226.788E-03    -104.544E-03     13.0470E-03
              78     16.2075E-03     130.244E-03    -3.11039E+06     42.7133E+06     84.3573E+06    -4.03271E+06    -125.128E-03     229.896E-03    -104.768E-03     15.4967E-03    -125.367E-03     230.031E-03    -104.403E-03     14.4900E-03
              79     16.2076E-03     131.442E-03     -888.19E+03     30.8871E+06     81.0477E+06    -3.83875E+06    -128.544E-03     233.158E-03    -104.614E-03     17.9264E-03    -128.750E-03     233.236E-03    -104.252E-03     16.9426E-03
              80     16.2100E-03     132.642E-03     1.14092E+06     26.1932E+06     78.4042E+06    -954.444E+03    -130.907E-03     235.380E-03    -104.473E-03     21.0911E-03    -131.089E-03     235.432E-03    -104.121E-03     20.2626E-03
              81     16.2098E-03     133.848E-03    -1.76406E+06     23.0883E+06     68.8315E+06    -1.35972E+06    -130.428E-03     234.820E-03    -104.393E-03     21.8100E-03    -130.596E-03     234.865E-03    -104.080E-03     21.1775E-03
              82     16.2112E-03     135.042E-03     431.989E+03     15.3902E+06     43.9890E+06    -3.16733E+06    -117.138E-03     221.788E-03    -104.650E-03     14.4222E-03    -117.232E-03     221.813E-03    -104.453E-03     14.0656E-03
              83     15.3810E-03     136.176E-03    -4.83629E+06    -4.69700E+06     32.3438E+06    -3.63362E+06    -102.447E-03     207.467E-03    -105.020E-03     2.38324E-03    -102.508E-03     207.409E-03    -104.845E-03     2.18882E-03
              84     14.5507E-03     136.117E-03     2.94780E+06    -1.46759E+06     56.6610E+06    -1.39318E+06    -99.8887E-03     205.113E-03    -105.224E-03    -10.7872E-03    -99.9486E-03     205.021E-03    -104.943E-03    -10.9826E-03
              85     13.7370E-03     136.041E-03     3.26357E+06     5.11473E+06     72.0726E+06    -3.39833E+06    -98.4535E-03     203.893E-03    -105.440E-03    -20.2306E-03    -98.5435E-03     203.807E-03    -105.092E-03    -20.4248E-03
              86     12.9200E-03     135.966E-03     6.89873E+06    -3.61534E+06     77.9345E+06    -6.02324E+06    -96.5165E-03     202.220E-03    -105.704E-03    -24.4770E-03    -96.5840E-03     202.076E-03    -105.319E-03    -24.6896E-03
              87     12.1053E-03     135.890E-03     14.0812E+06    -1.20107E+06     85.4243E+06    -4.42114E+06    -96.2507E-03     202.287E-03    -106.036E-03    -27.8131E-03    -96.2969E-03     202.132E-03    -105.627E-03    -27.9988E-03
              88     11.2912E-03     135.818E-03     16.4523E+06    -1.82452E+06     88.8143E+06    -3.12467E+06    -96.7993E-03     203.183E-03    -106.384E-03    -29.6662E-03    -96.8380E-03     203.016E-03    -105.961E-03    -29.8318E-03
              89     10.4789E-03     135.746E-03     17.1727E+06    -289.908E+03     91.2205E+06    -2.80385E+06    -97.7232E-03     204.448E-03    -106.725E-03    -30.6608E-03    -97.7644E-03     204.283E-03    -106.294E-03    -30.8233E-03
              90     9.66781E-03     135.677E-03     17.1241E+06    -351.447E+03     91.8302E+06    -3.11487E+06    -98.8614E-03     205.907E-03    -107.046E-03    -30.7854E-03    -98.9041E-03     205.741E-03    -106.611E-03    -30.9511E-03
              91     8.85784E-03     135.612E-03     17.4354E+06    -140.334E+03     91.9593E+06    -3.89134E+06    -100.045E-03     207.388E-03    -107.343E-03    -30.3822E-03    -100.087E-03     207.221E-03    -106.908E-03    -30.5577E-03
              92     8.04909E-03     135.551E-03     18.0509E+06    -306.211E+03     90.3601E+06    -4.47234E+06    -101.243E-03     208.851E-03    -107.608E-03    -29.5204E-03    -101.280E-03     208.685E-03    -107.182E-03    -29.7037E-03
              93     7.24110E-03     135.494E-03     19.0600E+06    -512.016E+03     87.2421E+06    -5.21035E+06    -102.492E-03     210.330E-03    -107.837E-03    -28.1832E-03    -102.520E-03     210.166E-03    -107.428E-03    -28.3747E-03
              94     6.43428E-03     135.442E-03     20.6033E+06    -497.200E+03     83.3664E+06    -5.87840E+06    -103.625E-03     211.656E-03    -108.031E-03    -26.4991E-03    -103.641E-03     211.495E-03    -107.643E-03    -26.6981E-03
              95     5.62800E-03     135.396E-03     22.7611E+06    -618.978E+03     78.4383E+06    -6.56479E+06    -104.762E-03     212.945E-03    -108.183E-03    -24.4131E-03    -104.760E-03     212.788E-03    -107.823E-03    -24.6167E-03
              96     4.82272E-03     135.354E-03     25.7011E+06    -1.16472E+06     72.6354E+06    -6.92126E+06    -105.699E-03     213.993E-03    -108.294E-03    -21.9853E-03    -105.674E-03     213.838E-03    -107.966E-03    -22.1867E-03
              97     4.01766E-03     135.319E-03     29.0326E+06    -1.35148E+06     65.9852E+06    -6.88268E+06    -106.565E-03     214.929E-03    -108.364E-03    -19.0785E-03    -106.515E-03     214.777E-03    -108.074E-03    -19.2712E-03
              98     3.21400E-03     135.288E-03     32.5484E+06    -1.70692E+06     58.8689E+06    -6.62085E+06    -107.248E-03     215.644E-03    -108.396E-03    -15.6692E-03    -107.170E-03     215.497E-03    -108.147E-03    -15.8463E-03
              99     2.40975E-03     135.265E-03     36.2198E+06    -2.46170E+06     52.4271E+06    -5.87720E+06    -107.805E-03     216.201E-03    -108.395E-03    -11.9747E-03    -107.700E-03     216.054E-03    -108.182E-03    -12.1271E-03
             100     1.60708E-03     135.248E-03     39.5841E+06    -2.99807E+06     47.4456E+06    -4.42036E+06    -108.251E-03     216.578E-03    -108.327E-03    -7.89495E-03    -108.122E-03     216.431E-03    -108.142E-03    -8.00928E-03
             101     803.554E-06     135.237E-03     42.6575E+06    -3.21734E+06     43.7623E+06    -2.71813E+06    -108.362E-03     216.438E-03    -108.075E-03    -4.06395E-03    -108.212E-03     216.292E-03    -107.914E-03    -4.13745E-03
             102     351.092E-09     134.055E-03     27.6217E+06    -10.3137E+06     28.7475E+06    -3.05023E+06    -103.801E-03     207.011E-03    -103.209E-03    -1.56839E-03    -103.694E-03     206.874E-03    -103.091E-03    -1.63163E-03
             103     247.164E-09     132.900E-03    -7.50808E+06    -28.5451E+06    -6.44474E+06    -5.16148E+06    -95.9751E-03     191.509E-03    -95.5337E-03     470.455E-06    -95.9635E-03     191.385E-03    -95.5136E-03     387.593E-06
             104    -99.0900E-09     131.758E-03    -48.6675E+06    -51.8395E+06    -49.0181E+06    -6.04409E+06    -91.1458E-03     182.316E-03    -91.1701E-03     2.37406E-03    -91.2433E-03     182.198E-03    -91.2695E-03     2.28724E-03
             105    -91.8780E-09     130.626E-03    -95.6357E+06    -76.7832E+06    -94.9011E+06    -5.76346E+06    -89.6684E-03     179.352E-03    -89.6835E-03     3.60455E-03    -89.8977E-03     179.244E-03    -89.9080E-03     3.53442E-03
             106     259.907E-09     129.489E-03    -141.076E+06    -99.3544E+06    -141.790E+06    -5.22989E+06    -90.5400E-03     180.934E-03    -90.3937E-03     4.85417E-03    -90.8957E-03     180.847E-03    -90.7540E-03     4.79700E-03
             107    -205.427E-09     128.352E-03    -173.639E+06    -119.678E+06    -172.784E+06    -4.75875E+06    -92.4703E-03     185.101E-03    -92.6311E-03     5.26316E-03    -92.9145E-03     185.005E-03    -93.0697E-03     5.21401E-03
             108    -114.356E-09     127.209E-03    -173.048E+06    -137.515E+06    -173.578E+06    -3.49167E+06    -95.2402E-03     190.621E-03    -95.3806E-03     4.63775E-03    -95.6545E-03     190.435E-03    -95.7982E-03     4.60411E-03
             109     190.467E-09     126.058E-03    -150.528E+06    -148.649E+06    -150.918E+06    -1.48687E+06    -98.1733E-03     196.235E-03    -98.0618E-03     4.43496E-03    -98.4917E-03     195.929E-03    -98.3826E-03     4.42345E-03
             110    -96.3144E-09     124.901E-03    -130.691E+06    -155.180E+06    -130.204E+06    -1.55122E+06    -100.544E-03     201.030E-03    -100.485E-03     4.55148E-03    -100.784E-03     200.632E-03    -100.722E-03     4.52687E-03
             111     94.8132E-09     123.740E-03    -119.091E+06    -161.800E+06    -119.838E+06    -1.41529E+06    -102.511E-03     204.864E-03    -102.352E-03     4.45846E-03    -102.698E-03     204.401E-03    -102.544E-03     4.42906E-03
             112     147.570E-09     122.575E-03    -115.204E+06    -168.600E+06    -115.715E+06    -1.56412E+06    -104.094E-03     207.768E-03    -103.675E-03     4.09071E-03    -104.258E-03     207.260E-03    -103.842E-03     4.05246E-03
             113     277.044E-09     121.407E-03    -115.225E+06    -176.376E+06    -115.342E+06    -1.97182E+06    -105.265E-03     210.190E-03    -104.925E-03     4.02804E-03    -105.419E-03     209.642E-03    -105.079E-03     3.97693E-03
             114    -157.998E-09     120.236E-03    -116.280E+06    -183.872E+06    -116.322E+06    -1.72940E+06    -106.470E-03     212.584E-03    -106.114E-03     3.78390E-03    -106.616E-03     212.002E-03    -106.261E-03     3.73408E-03
             115     608.111E-09     119.062E-03    -117.018E+06    -191.347E+06    -117.745E+06    -1.55789E+06    -107.458E-03     214.391E-03    -106.934E-03     3.54404E-03    -107.594E-03     213.775E-03    -107.075E-03     3.49499E-03
             116    -224.905E-09     117.887E-03    -119.296E+06    -198.066E+06    -118.772E+06    -1.42158E+06    -107.908E-03     215.654E-03    -107.746E-03     3.97598E-03    -108.045E-03     215.009E-03    -107.879E-03     3.92209E-03
             117     102.352E-09     116.710E-03    -122.390E+06    -205.271E+06    -121.494E+06    -1.86854E+06    -108.297E-03     216.849E-03    -108.552E-03     3.96701E-03    -108.436E-03     216.177E-03    -108.684E-03     3.89908E-03
             118    -389.021E-09     115.534E-03    -121.883E+06    -210.817E+06    -123.108E+06    -682.724E+03    -108.741E-03     217.577E-03    -108.837E-03     3.39920E-03    -108.866E-03     216.879E-03    -108.970E-03     3.34375E-03
             119     502.654E-09     114.354E-03    -123.296E+06    -215.269E+06    -122.955E+06    -1.55416E+06    -108.886E-03     217.654E-03    -108.768E-03     3.55745E-03    -109.012E-03     216.935E-03    -108.892E-03     3.48484E-03
             120    -428.463E-09     113.177E-03    -124.561E+06    -221.544E+06    -125.166E+06    -1.24248E+06    -108.672E-03     217.392E-03    -108.720E-03     3.86645E-03    -108.792E-03     216.647E-03    -108.844E-03     3.79729E-03
             121     262.954E-09     111.998E-03    -124.310E+06    -224.156E+06    -124.376E+06     6.82406E+03    -108.406E-03     216.839E-03    -108.433E-03     3.78311E-03    -108.522E-03     216.079E-03    -108.549E-03     3.72477E-03
             122    -148.037E-09     110.823E-03    -124.996E+06    -227.716E+06    -124.263E+06    -1.27057E+06    -107.922E-03     215.905E-03    -107.983E-03     3.65803E-03    -108.037E-03     215.128E-03    -108.092E-03     3.58479E-03
             123    -62.7581E-09     109.647E-03    -124.609E+06    -232.186E+06    -125.124E+06    -879.374E+03    -107.658E-03     215.131E-03    -107.472E-03     3.64387E-03    -107.764E-03     214.332E-03    -107.580E-03     3.57204E-03
             124     563.672E-09     108.473E-03    -125.866E+06    -235.549E+06    -125.613E+06    -862.527E+03    -107.518E-03     214.599E-03    -107.081E-03     3.68209E-03    -107.624E-03     213.786E-03    -107.185E-03     3.60927E-03
             125    -360.767E-09     107.299E-03    -125.619E+06    -238.012E+06    -125.903E+06    -443.325E+03    -106.997E-03     213.982E-03    -106.985E-03     3.71149E-03    -107.097E-03     213.157E-03    -107.087E-03     3.65154E-03
             126     167.541E-09     106.124E-03    -126.453E+06    -240.593E+06    -126.150E+06    -387.175E+03    -106.622E-03     213.276E-03    -106.654E-03     4.00760E-03    -106.723E-03     212.440E-03    -106.752E-03     3.95082E-03
             127    -29.1002E-09     104.954E-03    -127.142E+06    -243.347E+06    -127.503E+06    -392.382E+03    -106.463E-03     212.725E-03    -106.262E-03     4.00611E-03    -106.561E-03     211.878E-03    -106.362E-03     3.94581E-03
             128     204.147E-09     103.781E-03    -127.411E+06    -245.019E+06    -127.042E+06    -501.551E+03    -106.401E-03     212.572E-03    -106.171E-03     3.93477E-03    -106.499E-03     211.716E-03    -106.266E-03     3.86629E-03
             129    -9.72895E-09     102.609E-03    -127.545E+06    -247.385E+06    -127.758E+06    -654.963E+03    -106.254E-03     212.366E-03    -106.112E-03     4.13999E-03    -106.348E-03     211.500E-03    -106.207E-03     4.07455E-03
             130     34.7634E-09     101.438E-03    -127.358E+06    -248.515E+06    -127.258E+06    -98.8167E+03    -106.023E-03     212.058E-03    -106.034E-03     4.24266E-03    -106.115E-03     211.185E-03    -106.126E-03     4.17884E-03
             131    -85.2915E-09     100.267E-03    -126.429E+06    -249.740E+06    -126.540E+06    -243.390E+03    -105.723E-03     211.806E-03    -106.083E-03     4.02348E-03    -105.810E-03     210.925E-03    -106.170E-03     3.96216E-03
             132    -454.254E-09     99.0963E-03    -125.916E+06    -250.602E+06    -125.551E+06     104.745E+03    -105.697E-03     211.694E-03    -105.997E-03     3.89317E-03    -105.781E-03     210.806E-03    -106.079E-03     3.84149E-03
             133     505.119E-09     97.9251E-03    -125.888E+06    -251.937E+06    -125.901E+06    -338.696E+03    -105.998E-03     211.699E-03    -105.702E-03     4.06909E-03    -106.079E-03     210.805E-03    -105.783E-03     4.00823E-03
             134    -84.8729E-09     96.7546E-03    -124.420E+06    -252.183E+06    -124.763E+06     98.0577E+03    -106.054E-03     211.783E-03    -105.729E-03     4.23922E-03    -106.130E-03     210.884E-03    -105.807E-03     4.18611E-03
             135     178.143E-09     95.5836E-03    -124.153E+06    -252.066E+06    -123.648E+06    -301.218E+03    -105.931E-03     211.872E-03    -105.941E-03     4.10470E-03    -106.007E-03     210.971E-03    -106.013E-03     4.04069E-03
             136    -289.585E-09     94.4124E-03    -124.734E+06    -253.934E+06    -124.127E+06     40.2539E+03    -105.833E-03     211.647E-03    -105.814E-03     3.86822E-03    -105.909E-03     210.739E-03    -105.886E-03     3.81651E-03
             137     431.563E-09     93.2424E-03    -122.496E+06    -252.908E+06    -122.930E+06         736.188    -105.924E-03     211.541E-03    -105.617E-03     3.96776E-03    -105.992E-03     210.632E-03    -105.687E-03     3.91250E-03
             138    -87.3818E-09     92.0712E-03    -122.117E+06    -253.049E+06    -123.065E+06    -240.862E+03    -105.873E-03     211.525E-03    -105.652E-03     3.94452E-03    -105.939E-03     210.616E-03    -105.723E-03     3.88282E-03
             139     85.1041E-09     90.9013E-03    -122.556E+06    -253.156E+06    -121.836E+06     187.191E+03    -105.815E-03     211.558E-03    -105.743E-03     4.06431E-03    -105.884E-03     210.647E-03    -105.807E-03     4.00971E-03
             140     34.3452E-09     89.7297E-03    -121.904E+06    -253.788E+06    -122.374E+06    -578.473E+03    -105.889E-03     211.640E-03    -105.751E-03     4.01810E-03    -105.954E-03     210.726E-03    -105.818E-03     3.95091E-03
             141     57.9810E-09     88.5601E-03    -121.869E+06    -254.228E+06    -122.195E+06     533.419E+03    -105.805E-03     211.548E-03    -105.744E-03     3.79161E-03    -105.868E-03     210.632E-03    -105.809E-03     3.74373E-03
             142    -61.7472E-09     87.3889E-03    -122.119E+06    -253.157E+06    -121.274E+06    -121.756E+03    -105.825E-03     211.635E-03    -105.810E-03     3.95940E-03    -105.893E-03     210.723E-03    -105.872E-03     3.90273E-03
             143     92.3840E-09     86.2180E-03    -121.775E+06    -253.803E+06    -122.441E+06    -72.8985E+03    -105.964E-03     211.726E-03    -105.762E-03     4.11768E-03    -106.028E-03     210.811E-03    -105.829E-03     4.06259E-03
             144     189.774E-09     85.0470E-03    -121.594E+06    -253.427E+06    -121.211E+06     215.765E+03    -106.025E-03     211.675E-03    -105.649E-03     4.21872E-03    -106.091E-03     210.760E-03    -105.712E-03     4.16106E-03
             145     132.797E-09     83.8766E-03    -121.077E+06    -253.388E+06    -121.286E+06    -422.853E+03    -105.784E-03     211.494E-03    -105.710E-03     3.97537E-03    -105.846E-03     210.579E-03    -105.774E-03     3.91084E-03
             146    -345.640E-09     82.7066E-03    -121.821E+06    -253.607E+06    -121.721E+06     354.396E+03    -105.649E-03     211.420E-03    -105.770E-03     3.81235E-03    -105.715E-03     210.505E-03    -105.835E-03     3.76413E-03
             147     356.816E-09     81.5356E-03    -121.756E+06    -253.177E+06    -121.721E+06    -120.035E+03    -105.951E-03     211.656E-03    -105.705E-03     3.94011E-03    -106.017E-03     210.744E-03    -105.770E-03     3.88116E-03
             148     23.8169E-09     80.3649E-03    -121.223E+06    -252.597E+06    -121.498E+06     257.896E+03    -105.936E-03     211.733E-03    -105.797E-03     4.03350E-03    -106.000E-03     210.822E-03    -105.862E-03     3.98245E-03
             149    -188.922E-09     79.1940E-03    -122.384E+06    -252.295E+06    -121.844E+06     8.31475E+03    -105.826E-03     211.766E-03    -105.940E-03     4.06732E-03    -105.896E-03     210.859E-03    -106.006E-03     4.01312E-03
             150     167.113E-09     78.0230E-03    -121.735E+06    -252.353E+06    -122.126E+06     67.2648E+03    -105.959E-03     211.885E-03    -105.927E-03     4.23594E-03    -106.025E-03     210.978E-03    -105.995E-03     4.18019E-03
             151    -105.410E-09     76.8516E-03    -121.699E+06    -251.957E+06    -121.419E+06     161.263E+03    -105.923E-03     211.687E-03    -105.764E-03     3.96562E-03    -105.990E-03     210.780E-03    -105.829E-03     3.91189E-03
             152     297.399E-09     75.6822E-03    -121.580E+06    -252.056E+06    -121.865E+06    -199.028E+03    -105.813E-03     211.525E-03    -105.712E-03     3.83927E-03    -105.879E-03     210.618E-03    -105.779E-03     3.78015E-03
             153    -334.505E-09     74.5108E-03    -121.725E+06    -252.058E+06    -121.407E+06     59.7511E+03    -105.776E-03     211.762E-03    -105.986E-03     4.08810E-03    -105.843E-03     210.854E-03    -106.051E-03     4.03305E-03
             154     28.1739E-09     73.3396E-03    -121.636E+06    -252.069E+06    -121.792E+06    -102.846E+03    -105.943E-03     211.900E-03    -105.957E-03     4.13798E-03    -106.010E-03     210.993E-03    -106.024E-03     4.07855E-03
             155     246.030E-09     72.1685E-03    -121.722E+06    -252.010E+06    -121.594E+06    -79.2542E+03    -105.941E-03     211.687E-03    -105.746E-03     4.30784E-03    -106.009E-03     210.781E-03    -105.812E-03     4.24796E-03
             156    -210.638E-09     70.9979E-03    -121.955E+06    -252.611E+06    -121.886E+06    -125.403E+03    -105.699E-03     211.562E-03    -105.863E-03     4.30530E-03    -105.766E-03     210.653E-03    -105.929E-03     4.24923E-03
             157    -98.2928E-09     69.8279E-03    -121.798E+06    -251.817E+06    -121.967E+06     585.023E+03    -105.797E-03     211.701E-03    -105.904E-03     3.91597E-03    -105.864E-03     210.795E-03    -105.972E-03     3.87018E-03
             158     224.339E-09     68.6566E-03    -121.579E+06    -251.155E+06    -121.324E+06    -317.784E+03    -106.046E-03     211.759E-03    -105.713E-03     3.82179E-03    -106.114E-03     210.856E-03    -105.779E-03     3.75711E-03
             159    -182.054E-09     66.3155E-03    -121.988E+06    -251.265E+06    -121.254E+06     405.700E+03    -105.767E-03     211.574E-03    -105.807E-03     3.87618E-03    -105.837E-03     210.671E-03    -105.872E-03     3.82347E-03
             160     117.013E-09     65.1445E-03    -122.066E+06    -251.037E+06    -121.966E+06    -684.181E+03    -105.946E-03     211.842E-03    -105.896E-03     4.02369E-03    -106.016E-03     210.941E-03    -105.965E-03     3.95633E-03
             161     23.2035E-09     63.9735E-03    -121.534E+06    -251.608E+06    -121.944E+06     333.975E+03    -105.964E-03     211.954E-03    -105.991E-03     4.12878E-03    -106.030E-03     211.050E-03    -106.059E-03     4.07593E-03
             162    -218.854E-09     62.8018E-03    -121.986E+06    -251.219E+06    -120.843E+06    -93.7321E+03    -105.775E-03     211.651E-03    -105.876E-03     4.15425E-03    -105.846E-03     210.748E-03    -105.939E-03     4.09844E-03
             163     254.790E-09     61.6319E-03    -121.707E+06    -252.333E+06    -122.577E+06    -196.846E+03    -105.947E-03     211.391E-03    -105.444E-03     3.89978E-03    -106.013E-03     210.484E-03    -105.514E-03     3.83907E-03
             164     509.332E-09     60.4620E-03    -122.266E+06    -251.885E+06    -122.208E+06     205.443E+03    -106.115E-03     211.631E-03    -105.516E-03     3.92418E-03    -106.184E-03     210.727E-03    -105.585E-03     3.86501E-03
             165    -310.952E-09     59.2907E-03    -121.663E+06    -250.690E+06    -121.905E+06     112.841E+03    -106.019E-03     211.836E-03    -105.817E-03     3.85377E-03    -106.088E-03     210.936E-03    -105.886E-03     3.79831E-03
             166     431.481E-09     58.1191E-03    -122.265E+06    -250.506E+06    -122.267E+06     301.975E+03    -105.895E-03     211.615E-03    -105.720E-03     4.12917E-03    -105.966E-03     210.718E-03    -105.791E-03     4.07853E-03
             167    -276.844E-09     56.9492E-03    -122.370E+06    -250.782E+06    -122.132E+06    -448.869E+03    -105.648E-03     211.572E-03    -105.924E-03     4.37129E-03    -105.720E-03     210.673E-03    -105.993E-03     4.30375E-03
             168    -329.863E-09     55.7781E-03    -121.747E+06    -250.848E+06    -121.745E+06     229.334E+03    -105.667E-03     211.576E-03    -105.909E-03     3.94002E-03    -105.736E-03     210.676E-03    -105.978E-03     3.88492E-03
             169     536.901E-09     54.6076E-03    -122.117E+06    -250.374E+06    -122.019E+06     30.2356E+03    -105.852E-03     211.386E-03    -105.534E-03     3.97752E-03    -105.923E-03     210.488E-03    -105.604E-03     3.92216E-03
             170    -234.435E-09     53.4378E-03    -121.378E+06    -250.544E+06    -121.776E+06    -171.130E+03    -105.689E-03     211.394E-03    -105.705E-03     3.89621E-03    -105.756E-03     210.494E-03    -105.775E-03     3.83501E-03
             171    -105.358E-09     52.2672E-03    -122.110E+06    -250.646E+06    -121.438E+06    -15.7751E+03    -105.761E-03     211.649E-03    -105.888E-03     3.88776E-03    -105.832E-03     210.750E-03    -105.955E-03     3.83505E-03
             172     238.347E-09     51.0954E-03    -121.586E+06    -250.642E+06    -122.295E+06     327.711E+03    -106.046E-03     211.866E-03    -105.819E-03     4.39055E-03    -106.114E-03     210.967E-03    -105.891E-03     4.33931E-03
             173    -20.6029E-09     49.9246E-03    -121.254E+06    -249.949E+06    -121.217E+06     248.584E+03    -105.958E-03     211.750E-03    -105.792E-03     4.21369E-03    -106.026E-03     210.853E-03    -105.860E-03     4.15971E-03
             174     62.8628E-09     48.7545E-03    -121.903E+06    -250.560E+06    -121.845E+06    -354.363E+03    -105.866E-03     211.687E-03    -105.820E-03     3.93561E-03    -105.936E-03     210.788E-03    -105.889E-03     3.87260E-03
             175    -37.0138E-09     47.5835E-03    -121.727E+06    -250.531E+06    -121.781E+06     46.1116E+03    -105.963E-03     211.900E-03    -105.937E-03     3.95384E-03    -106.032E-03     211.001E-03    -106.006E-03     3.89588E-03
             176     44.8695E-09     46.4119E-03    -121.761E+06    -250.226E+06    -121.549E+06    -143.145E+03    -106.039E-03     212.039E-03    -105.999E-03     4.19709E-03    -106.110E-03     211.141E-03    -106.067E-03     4.13825E-03
             177     6.72382E-09     45.2408E-03    -121.584E+06    -250.678E+06    -122.072E+06     10.6344E+03    -106.134E-03     212.161E-03    -106.027E-03     4.20430E-03    -106.202E-03     211.261E-03    -106.098E-03     4.14592E-03
             178     101.864E-09     44.0696E-03    -121.898E+06    -250.085E+06    -121.512E+06     403.961E+03    -106.172E-03     212.233E-03    -106.061E-03     4.07283E-03    -106.242E-03     211.336E-03    -106.130E-03     4.02370E-03
             179    -35.7747E-09     42.8978E-03    -121.987E+06    -250.048E+06    -121.658E+06    -435.127E+03    -106.218E-03     212.459E-03    -106.241E-03     4.42232E-03    -106.290E-03     211.563E-03    -106.310E-03     4.35592E-03
             180    -72.6630E-09     41.7260E-03    -121.962E+06    -250.870E+06    -121.838E+06     177.418E+03    -106.346E-03     212.673E-03    -106.328E-03     4.19294E-03    -106.415E-03     211.773E-03    -106.396E-03     4.13617E-03
             181     203.532E-09     40.5541E-03    -121.794E+06    -249.880E+06    -122.164E+06     571.435E+03    -106.463E-03     212.574E-03    -106.111E-03     4.15459E-03    -106.533E-03     211.679E-03    -106.183E-03     4.10844E-03
             182     224.072E-09     39.3820E-03    -121.497E+06    -249.325E+06    -121.999E+06    -233.765E+03    -106.457E-03     212.627E-03    -106.170E-03     4.17097E-03    -106.527E-03     211.734E-03    -106.242E-03     4.10744E-03
             183    -200.188E-09     38.2114E-03    -121.928E+06    -249.485E+06    -121.699E+06     63.3227E+03    -106.488E-03     212.892E-03    -106.404E-03     3.73045E-03    -106.560E-03     211.998E-03    -106.474E-03     3.67357E-03
             184     309.749E-09     37.0377E-03    -121.705E+06    -248.745E+06    -121.919E+06    -360.180E+03    -106.709E-03     213.142E-03    -106.433E-03     3.99993E-03    -106.781E-03     212.252E-03    -106.505E-03     3.93346E-03
             185     18.5843E-09     35.8654E-03    -121.751E+06    -249.229E+06    -121.997E+06    -1.91606E+03    -106.560E-03     213.083E-03    -106.523E-03     4.22751E-03    -106.631E-03     212.191E-03    -106.595E-03     4.16726E-03
             186    -297.469E-09     34.6930E-03    -121.391E+06    -248.982E+06    -121.032E+06     61.4971E+03    -106.400E-03     212.891E-03    -106.492E-03     3.98509E-03    -106.470E-03     211.999E-03    -106.560E-03     3.92659E-03
             187     423.638E-09     33.5212E-03    -121.618E+06    -249.049E+06    -121.747E+06    -363.932E+03    -106.522E-03     212.894E-03    -106.372E-03     4.03459E-03    -106.593E-03     212.002E-03    -106.443E-03     3.96681E-03
             188    -315.513E-09     32.3486E-03    -121.384E+06    -248.982E+06    -121.569E+06     210.526E+03    -106.363E-03     212.919E-03    -106.556E-03     4.11784E-03    -106.433E-03     212.027E-03    -106.627E-03     4.06180E-03
             189    -115.588E-09     31.1767E-03    -121.449E+06    -248.728E+06    -121.223E+06     63.3254E+03    -106.402E-03     212.930E-03    -106.527E-03     4.04192E-03    -106.473E-03     212.038E-03    -106.597E-03     3.98946E-03
             190     339.424E-09     30.0038E-03    -120.888E+06    -248.709E+06    -121.208E+06     168.313E+03    -106.621E-03     212.895E-03    -106.274E-03     4.25099E-03    -106.689E-03     212.003E-03    -106.344E-03     4.19480E-03
             191    -13.0584E-09     28.8322E-03    -121.301E+06    -248.459E+06    -120.931E+06     49.5603E+03    -106.451E-03     212.710E-03    -106.260E-03     4.23553E-03    -106.522E-03     211.820E-03    -106.328E-03     4.17632E-03
             192    -8.56063E-09     27.6601E-03    -120.853E+06    -248.164E+06    -121.075E+06    -116.497E+03    -106.377E-03     212.562E-03    -106.185E-03     4.06425E-03    -106.446E-03     211.672E-03    -106.255E-03     4.00456E-03
             193     331.594E-09     26.4885E-03    -120.821E+06    -247.945E+06    -120.930E+06     27.5138E+03    -106.181E-03     212.326E-03    -106.145E-03     4.12858E-03    -106.251E-03     211.437E-03    -106.215E-03     4.07068E-03
             194    -604.865E-09     25.3170E-03    -120.771E+06    -247.830E+06    -120.767E+06     360.276E+03    -105.684E-03     211.762E-03    -106.078E-03     3.89769E-03    -105.754E-03     210.874E-03    -106.147E-03     3.84703E-03
             195     233.459E-09     24.1470E-03    -120.237E+06    -247.024E+06    -120.127E+06     99.3677E+03    -105.666E-03     211.365E-03    -105.699E-03     3.73173E-03    -105.735E-03     210.479E-03    -105.767E-03     3.67624E-03
             196     80.0318E-09     22.9766E-03    -120.225E+06    -246.760E+06    -120.327E+06    -360.947E+03    -105.602E-03     210.971E-03    -105.369E-03     3.75270E-03    -105.672E-03     210.087E-03    -105.438E-03     3.68927E-03
             197    -22.4511E-09     21.8066E-03    -119.894E+06    -246.553E+06    -119.999E+06     231.564E+03    -104.938E-03     209.998E-03    -105.060E-03     3.81711E-03    -105.007E-03     209.114E-03    -105.128E-03     3.76425E-03
             198    -239.164E-09     20.6387E-03    -119.823E+06    -245.977E+06    -119.733E+06     336.552E+03    -104.294E-03     208.670E-03    -104.376E-03     3.64502E-03    -104.363E-03     207.788E-03    -104.444E-03     3.60084E-03
             199     362.511E-09     19.4723E-03    -118.915E+06    -245.671E+06    -119.088E+06     204.336E+03    -103.532E-03     206.905E-03    -103.372E-03     3.33704E-03    -103.598E-03     206.022E-03    -103.439E-03     3.29071E-03
             200    -232.250E-09     18.3085E-03    -118.164E+06    -244.722E+06    -118.256E+06     52.0350E+03    -102.105E-03     204.266E-03    -102.161E-03     2.88571E-03    -102.170E-03     203.386E-03    -102.226E-03     2.83690E-03
             201     6.49432E-09     17.1484E-03    -117.551E+06    -243.711E+06    -117.192E+06     255.858E+03    -100.284E-03     200.758E-03    -100.474E-03     2.22274E-03    -100.348E-03     199.880E-03    -100.536E-03     2.18213E-03
             202    -88.0873E-09     15.9928E-03    -116.548E+06    -242.435E+06    -116.718E+06     411.104E+03    -98.2194E-03     196.513E-03    -98.2931E-03     1.69620E-03    -98.2816E-03     195.639E-03    -98.3562E-03     1.66316E-03
             203     48.3473E-09     14.8425E-03    -115.555E+06    -240.611E+06    -115.845E+06     396.005E+03    -95.7359E-03     191.378E-03    -95.6423E-03     1.06261E-03    -95.7971E-03     190.511E-03    -95.7051E-03     1.03097E-03
             204     144.460E-09     13.6987E-03    -115.023E+06    -238.774E+06    -114.701E+06     672.345E+03    -92.7610E-03     185.465E-03    -92.7037E-03     725.846E-06    -92.8240E-03     184.604E-03    -92.7642E-03     695.888E-06
             205    -236.818E-09     12.5619E-03    -112.875E+06    -235.400E+06    -113.300E+06     738.246E+03    -89.8186E-03     179.666E-03    -89.8472E-03     462.739E-06    -89.8777E-03     178.817E-03    -89.9087E-03     429.197E-06
             206     280.696E-09     11.4316E-03    -111.656E+06    -233.014E+06    -111.242E+06     249.666E+03    -87.6391E-03     175.084E-03    -87.4450E-03     352.686E-06    -87.6984E-03     174.242E-03    -87.5014E-03     306.616E-06
             207     1.87748E-09     10.3054E-03    -110.017E+06    -232.163E+06    -110.044E+06    -14.4142E+03    -86.4267E-03     172.665E-03    -86.2380E-03     683.322E-06    -86.4808E-03     171.823E-03    -86.2920E-03     633.138E-06
             208     27.0894E-09     9.18010E-03    -109.075E+06    -232.228E+06    -109.152E+06    -78.2890E+03    -86.5182E-03     173.012E-03    -86.4941E-03     1.15352E-03    -86.5688E-03     172.168E-03    -86.5449E-03     1.10470E-03
             209    -16.7879E-09     8.05303E-03    -106.194E+06    -231.188E+06    -106.409E+06     991.249E+03    -87.9683E-03     176.148E-03    -88.1795E-03     1.84019E-03    -88.0102E-03     175.300E-03    -88.2223E-03     1.80719E-03
             210    -342.504E-09     6.92016E-03    -98.7323E+06    -224.714E+06    -98.5170E+06     2.32004E+06    -90.4142E-03     181.200E-03    -90.7859E-03     2.13792E-03    -90.4398E-03     180.363E-03    -90.8095E-03     2.12383E-03
             211     94.0281E-09     5.78146E-03    -89.9996E+06    -216.871E+06    -89.5882E+06     1.47682E+06    -93.3222E-03     186.857E-03    -93.5345E-03     2.00486E-03    -93.3284E-03     186.033E-03    -93.5374E-03     1.98067E-03
             212    -187.900E-09     4.63640E-03    -82.3663E+06    -210.870E+06    -82.7461E+06     1.49502E+06    -96.1983E-03     192.654E-03    -96.4561E-03     1.86834E-03    -96.1849E-03     191.840E-03    -96.4447E-03     1.84883E-03
             213    -141.152E-09     3.48408E-03    -75.9911E+06    -205.029E+06    -75.7425E+06     1.26816E+06    -98.9366E-03     198.107E-03    -99.1700E-03     1.54139E-03    -98.9098E-03     197.301E-03    -99.1412E-03     1.52595E-03
             214     93.3176E-09     2.32571E-03    -70.4242E+06    -200.743E+06    -70.2336E+06     600.140E+03    -101.143E-03     202.278E-03    -101.135E-03     1.23051E-03    -101.102E-03     201.478E-03    -101.093E-03     1.21541E-03
             215    -31.0020E-09     1.16420E-03    -67.7498E+06    -198.395E+06    -67.6447E+06     487.230E+03    -102.525E-03     204.927E-03    -102.401E-03     677.541E-06    -102.478E-03     204.131E-03    -102.354E-03     671.482E-06
             216     811.779E-06     83.2667E-18    -66.9243E+06    -206.155E+06    -65.7297E+06     110.214E+03    -103.035E-03     205.970E-03    -102.935E-03     476.774E-06    -102.976E-03     205.132E-03    -102.868E-03     466.015E-06
             217     1.62362E-03     83.2667E-18    -66.3703E+06    -210.765E+06    -64.8729E+06     418.244E+03    -103.028E-03     206.035E-03    -103.007E-03     913.107E-06    -102.961E-03     205.172E-03    -102.929E-03     898.772E-06
             218     2.43525E-03     83.2667E-18    -66.6046E+06    -204.766E+06    -63.6306E+06     1.01087E+06    -103.059E-03     206.081E-03    -103.022E-03     1.43104E-03    -103.003E-03     205.246E-03    -102.947E-03     1.41408E-03
             219     3.24703E-03     83.2667E-18    -66.7581E+06    -198.274E+06    -60.5276E+06     1.05339E+06    -103.210E-03     206.271E-03    -103.061E-03     1.94436E-03    -103.168E-03     205.464E-03    -102.980E-03     1.91718E-03
             220     4.05850E-03     83.2667E-18    -66.4059E+06    -191.823E+06    -57.2185E+06     754.005E+03    -103.417E-03     206.544E-03    -103.127E-03     2.35738E-03    -103.388E-03     205.764E-03    -103.038E-03     2.31673E-03
             221     4.86983E-03     83.2667E-18    -65.7535E+06    -181.898E+06    -54.7313E+06     781.280E+03    -103.586E-03     206.783E-03    -103.197E-03     2.78821E-03    -103.572E-03     206.049E-03    -103.112E-03     2.73809E-03
             222     5.68106E-03     83.2667E-18    -64.7111E+06    -164.848E+06    -53.5247E+06     113.841E+03    -103.806E-03     207.066E-03    -103.260E-03     3.38250E-03    -103.813E-03     206.413E-03    -103.195E-03     3.31359E-03
             223     6.49183E-03     83.2667E-18    -63.0320E+06    -145.970E+06    -52.3861E+06    -335.355E+03    -104.117E-03     207.451E-03    -103.333E-03     4.08205E-03    -104.146E-03     206.889E-03    -103.292E-03     3.99668E-03
             224     7.30240E-03     83.2667E-18    -60.2644E+06    -125.266E+06    -51.4836E+06    -1.80895E+06    -104.475E-03     207.895E-03    -103.419E-03     4.87498E-03    -104.521E-03     207.432E-03    -103.408E-03     4.75808E-03
             225     8.11255E-03     83.2667E-18    -56.2468E+06    -102.697E+06    -50.5925E+06    -2.85579E+06    -104.964E-03     208.485E-03    -103.521E-03     5.76697E-03    -105.024E-03     208.128E-03    -103.544E-03     5.62206E-03
             226     8.92227E-03     83.2667E-18    -50.6785E+06    -78.3390E+06    -50.4830E+06    -4.67849E+06    -105.586E-03     209.228E-03    -103.641E-03     6.41519E-03    -105.655E-03     208.985E-03    -103.707E-03     6.23009E-03
             227     9.73175E-03     83.2667E-18    -43.6293E+06    -50.0744E+06    -50.0348E+06    -5.97773E+06    -106.278E-03     210.062E-03    -103.784E-03     7.30362E-03    -106.354E-03     209.950E-03    -103.898E-03     7.08211E-03
             228     10.5396E-03     83.2667E-18    -34.4768E+06    -18.3506E+06    -48.8853E+06    -8.60245E+06    -107.124E-03     211.076E-03    -103.951E-03     8.31806E-03    -107.203E-03     211.108E-03    -104.119E-03     8.03619E-03
             229     11.3484E-03     83.2667E-18    -23.7856E+06     24.6911E+06    -45.8409E+06    -8.64487E+06    -108.224E-03     212.372E-03    -104.148E-03     9.41399E-03    -108.317E-03     212.601E-03    -104.379E-03     9.10720E-03
             230     12.1538E-03     83.2667E-18    -16.2634E+06     67.1084E+06    -27.8101E+06    -4.04570E+06    -109.868E-03     214.352E-03    -104.484E-03     11.6751E-03    -110.014E-03     214.759E-03    -104.696E-03     11.3796E-03
             231     12.9588E-03     83.2667E-18    -11.9680E+06     91.7892E+06     6.26903E+06    -2.08465E+06    -112.701E-03     217.734E-03    -105.032E-03     14.7349E-03    -112.915E-03     218.213E-03    -105.117E-03     14.3798E-03
             232     13.7599E-03     83.2667E-18    -7.92891E+06     106.607E+06     43.2257E+06    -85.7664E+03    -116.252E-03     222.002E-03    -105.751E-03     17.1623E-03    -116.524E-03     222.500E-03    -105.678E-03     16.7743E-03
             233     14.5584E-03     83.2667E-18    -6.98671E+06     111.256E+06     77.3659E+06     798.634E+03    -121.874E-03     228.540E-03    -106.666E-03     24.0273E-03    -122.218E-03     229.030E-03    -106.430E-03     23.4381E-03
             234     15.3479E-03     83.2667E-18    -4.21869E+06     116.163E+06     99.2779E+06     1.82538E+06    -130.426E-03     238.237E-03    -107.811E-03     41.5999E-03    -130.851E-03     238.768E-03    -107.477E-03     40.6544E-03
             235     16.1741E-03     1.21590E-03    -2.15212E+06     120.255E+06     105.263E+06     1.03416E+06    -128.536E-03     235.971E-03    -107.435E-03     45.9778E-03    -128.996E-03     236.541E-03    -107.080E-03     44.7985E-03
             236     16.1898E-03     2.41099E-03    -4.13969E+06     119.152E+06     105.295E+06     1.10437E+06    -124.380E-03     230.354E-03    -105.974E-03     28.0773E-03    -124.825E-03     230.903E-03    -105.614E-03     26.7610E-03
             237     16.1991E-03     3.60385E-03    -3.41963E+06     119.997E+06     105.626E+06     519.785E+03    -127.027E-03     232.397E-03    -105.370E-03     15.9692E-03    -127.448E-03     232.926E-03    -105.011E-03     14.5681E-03
             238     16.1988E-03     4.80464E-03    -2.79041E+06     119.907E+06     105.350E+06    -193.955E+03    -127.206E-03     232.416E-03    -105.210E-03     12.7529E-03    -127.613E-03     232.933E-03    -104.853E-03     11.3665E-03
             239     16.1999E-03     6.00237E-03    -1.90773E+06     120.345E+06     105.307E+06     402.235E+03    -125.028E-03     230.269E-03    -105.241E-03     11.8572E-03    -125.425E-03     230.781E-03    -104.886E-03     10.5453E-03
             240     16.1994E-03     7.19142E-03    -2.44123E+06     119.655E+06     104.114E+06    -648.495E+03    -122.290E-03     227.597E-03    -105.307E-03     11.0905E-03    -122.683E-03     228.104E-03    -104.956E-03     9.83082E-03
             241     16.1991E-03     8.38358E-03    -3.00375E+06     118.430E+06     102.405E+06     171.481E+03    -120.174E-03     225.535E-03    -105.361E-03     9.83928E-03    -120.560E-03     226.033E-03    -105.016E-03     8.64942E-03
             242     16.1997E-03     9.56778E-03    -1.63472E+06     118.271E+06     102.503E+06    -134.165E+03    -117.415E-03     222.834E-03    -105.419E-03     8.71173E-03    -117.788E-03     223.324E-03    -105.076E-03     7.58324E-03
             243     16.1995E-03     10.7527E-03    -2.81849E+06     117.109E+06     100.719E+06    -652.073E+03    -115.138E-03     220.615E-03    -105.476E-03     7.58869E-03    -115.510E-03     221.100E-03    -105.139E-03     6.49564E-03
             244     16.1990E-03     11.9338E-03    -2.47069E+06     116.826E+06     100.470E+06     322.687E+03    -112.748E-03     218.285E-03    -105.537E-03     7.22677E-03    -113.115E-03     218.766E-03    -105.200E-03     6.19397E-03
             245     16.2001E-03     13.1111E-03    -2.22318E+06     116.718E+06     100.897E+06    -671.064E+03    -110.539E-03     216.129E-03    -105.591E-03     5.82778E-03    -110.901E-03     216.605E-03    -105.252E-03     4.82205E-03
             246     16.1987E-03     14.2879E-03    -3.01290E+06     115.519E+06     99.6035E+06    -324.619E+03    -108.767E-03     214.403E-03    -105.637E-03     5.48665E-03    -109.128E-03     214.875E-03    -105.302E-03     4.51385E-03
             247     16.2002E-03     15.4623E-03    -1.31290E+06     116.133E+06     101.050E+06     454.837E+03    -107.122E-03     212.793E-03    -105.671E-03     5.67184E-03    -107.476E-03     213.262E-03    -105.332E-03     4.74210E-03
             248     16.1993E-03     16.6345E-03    -2.67060E+06     115.584E+06     100.002E+06    -411.009E+03    -106.403E-03     212.095E-03    -105.692E-03     4.91491E-03    -106.761E-03     212.563E-03    -105.356E-03     3.98539E-03
             249     16.1992E-03     17.8077E-03    -3.16914E+06     114.531E+06     99.2387E+06     315.860E+03    -105.648E-03     211.361E-03    -105.712E-03     4.81237E-03    -106.006E-03     211.825E-03    -105.378E-03     3.89714E-03
             250     16.2002E-03     18.9777E-03    -2.03782E+06     115.277E+06     100.641E+06    -230.179E+03    -104.913E-03     210.640E-03    -105.727E-03     4.61760E-03    -105.267E-03     211.104E-03    -105.388E-03     3.70960E-03
             251     16.1989E-03     20.1503E-03    -3.13714E+06     115.317E+06     99.6857E+06     262.793E+03    -104.530E-03     210.268E-03    -105.738E-03     4.66059E-03    -104.888E-03     210.735E-03    -105.402E-03     3.76777E-03
             252     16.2002E-03     21.3194E-03    -1.84683E+06     115.883E+06     100.809E+06     228.402E+03    -104.160E-03     209.902E-03    -105.743E-03     4.91928E-03    -104.514E-03     210.369E-03    -105.404E-03     4.03171E-03
             253     16.1994E-03     22.4899E-03    -2.67049E+06     115.176E+06     100.215E+06    -412.544E+03    -104.371E-03     210.112E-03    -105.741E-03     4.41761E-03    -104.727E-03     210.577E-03    -105.403E-03     3.51575E-03
             254     16.1994E-03     23.6615E-03    -3.04353E+06     114.842E+06     99.5880E+06     621.715E+03    -103.919E-03     209.670E-03    -105.752E-03     4.86299E-03    -104.275E-03     210.135E-03    -105.416E-03     3.98133E-03
             255     16.2000E-03     24.8299E-03    -1.81262E+06     115.847E+06     101.031E+06    -33.1230E+03    -103.867E-03     209.614E-03    -105.747E-03     5.39218E-03    -104.222E-03     210.080E-03    -105.407E-03     4.50021E-03
             256     16.1994E-03     26.0009E-03    -3.56052E+06     115.115E+06     99.5910E+06    -255.298E+03    -104.466E-03     210.203E-03    -105.737E-03     4.62873E-03    -104.826E-03     210.670E-03    -105.401E-03     3.73167E-03
             257     16.1995E-03     27.1720E-03    -2.76533E+06     115.157E+06     99.7088E+06     279.839E+03    -103.775E-03     209.530E-03    -105.755E-03     4.55015E-03    -104.130E-03     209.995E-03    -105.419E-03     3.66684E-03
             258     16.1999E-03     28.3397E-03    -1.47162E+06     115.479E+06     101.096E+06    -162.144E+03    -103.048E-03     208.812E-03    -105.765E-03     4.29314E-03    -103.399E-03     209.275E-03    -105.424E-03     3.40760E-03
             259     16.1998E-03     29.5091E-03    -2.74163E+06     115.066E+06     100.417E+06    -433.731E+03    -103.611E-03     209.366E-03    -105.755E-03     4.00905E-03    -103.966E-03     209.828E-03    -105.415E-03     3.12179E-03
             260     16.1992E-03     30.6793E-03    -2.52841E+06     115.316E+06     100.604E+06     605.737E+03    -104.146E-03     209.888E-03    -105.742E-03     4.22485E-03    -104.500E-03     210.351E-03    -105.403E-03     3.35082E-03
             261     16.2004E-03     31.8496E-03    -2.32107E+06     115.571E+06     100.969E+06    -308.623E+03    -103.889E-03     209.635E-03    -105.746E-03     3.87209E-03    -104.243E-03     210.098E-03    -105.405E-03     2.98966E-03
             262     16.1989E-03     33.0201E-03    -3.09815E+06     114.904E+06     99.9806E+06     58.0131E+03    -103.970E-03     209.717E-03    -105.747E-03     4.68681E-03    -104.327E-03     210.181E-03    -105.409E-03     3.80186E-03
             263     16.2004E-03     34.1893E-03    -2.91413E+06     114.791E+06     100.433E+06     482.009E+03    -104.150E-03     209.887E-03    -105.736E-03     4.60496E-03    -104.506E-03     210.348E-03    -105.397E-03     3.73430E-03
             264     16.1994E-03     35.3609E-03    -2.60906E+06     115.633E+06     101.194E+06    -363.540E+03    -103.665E-03     209.423E-03    -105.758E-03     3.68273E-03    -104.020E-03     209.886E-03    -105.416E-03     2.80599E-03
             265     16.1994E-03     36.5290E-03    -2.60456E+06     115.616E+06     101.142E+06     602.976E+03    -103.244E-03     209.012E-03    -105.768E-03     4.08352E-03    -103.600E-03     209.476E-03    -105.426E-03     3.21341E-03
             266     16.2004E-03     37.6968E-03    -2.52696E+06     115.600E+06     101.498E+06    -543.272E+03    -104.005E-03     209.742E-03    -105.737E-03     3.51267E-03    -104.361E-03     210.204E-03    -105.393E-03     2.62684E-03
             267     16.1993E-03     38.8704E-03    -2.49130E+06     115.788E+06     101.520E+06    -434.963E+03    -104.153E-03     209.895E-03    -105.742E-03     3.02399E-03    -104.507E-03     210.358E-03    -105.399E-03     2.13924E-03
             268     16.2000E-03     40.0383E-03    -2.57991E+06     115.131E+06     101.079E+06     20.7824E+03    -103.815E-03     209.570E-03    -105.754E-03     4.18762E-03    -104.170E-03     210.031E-03    -105.412E-03     3.31025E-03
             269     16.1994E-03     41.2092E-03    -1.89356E+06     114.928E+06     101.508E+06     523.313E+03    -104.067E-03     209.809E-03    -105.742E-03     3.82269E-03    -104.418E-03     210.267E-03    -105.398E-03     2.95389E-03
             270     16.2003E-03     42.3794E-03    -1.94603E+06     115.616E+06     101.677E+06    -398.536E+03    -104.291E-03     210.032E-03    -105.740E-03     4.05079E-03    -104.645E-03     210.494E-03    -105.397E-03     3.15460E-03
             271     16.1988E-03     43.5503E-03    -1.15499E+06     116.407E+06     102.484E+06     228.585E+03    -104.698E-03     210.420E-03    -105.722E-03     5.40619E-03    -105.051E-03     210.886E-03    -105.377E-03     4.51834E-03
             272     16.2015E-03     44.7220E-03    -2.19572E+06     115.231E+06     101.449E+06    -407.715E+03    -104.520E-03     210.241E-03    -105.721E-03     4.51207E-03    -104.872E-03     210.700E-03    -105.377E-03     3.65693E-03
             273     16.1978E-03     45.8925E-03    -6.48566E+06     112.078E+06     96.7825E+06     490.044E+03    -105.014E-03     210.741E-03    -105.726E-03     5.03336E-03    -105.380E-03     211.200E-03    -105.396E-03     4.15861E-03
             274     16.2005E-03     47.0626E-03    -3.35648E+06     115.041E+06     100.033E+06     1.42806E+06    -104.800E-03     210.533E-03    -105.734E-03     3.84364E-03    -105.157E-03     210.997E-03    -105.395E-03     2.97791E-03
             275     16.1992E-03     48.2345E-03    -1.21326E+06     116.905E+06     102.593E+06    -808.744E+03    -103.991E-03     209.739E-03    -105.748E-03     3.65800E-03    -104.343E-03     210.205E-03    -105.403E-03     2.77683E-03
             276     16.2000E-03     49.4024E-03    -2.95200E+06     114.821E+06     100.514E+06    -24.3313E+03    -104.596E-03     210.322E-03    -105.726E-03     3.75703E-03    -104.951E-03     210.783E-03    -105.386E-03     2.87284E-03
             277     16.1999E-03     50.5749E-03    -2.22172E+06     115.498E+06     101.751E+06    -523.342E+03    -104.458E-03     210.191E-03    -105.733E-03     2.05239E-03    -104.809E-03     210.649E-03    -105.388E-03     1.17214E-03
             278     16.1994E-03     51.7446E-03    -2.34772E+06     115.622E+06     101.957E+06     153.504E+03    -104.310E-03     210.048E-03    -105.738E-03     3.57710E-03    -104.666E-03     210.510E-03    -105.393E-03     2.68977E-03
             279     16.2004E-03     52.9149E-03    -2.20745E+06     115.779E+06     102.238E+06    -111.383E+03    -104.976E-03     210.689E-03    -105.713E-03     3.94862E-03    -105.331E-03     211.151E-03    -105.366E-03     3.05890E-03
             280     16.1994E-03     54.0896E-03    -2.89259E+06     115.251E+06     101.514E+06    -220.110E+03    -104.981E-03     210.704E-03    -105.723E-03     4.40018E-03    -105.339E-03     211.166E-03    -105.378E-03     3.50808E-03
             281     16.1996E-03     55.2580E-03    -2.93508E+06     114.937E+06     101.367E+06     633.269E+03    -104.536E-03     210.268E-03    -105.732E-03     4.44439E-03    -104.893E-03     210.729E-03    -105.388E-03     3.56729E-03
             282     16.2003E-03     56.4281E-03    -2.67233E+06     115.435E+06     102.000E+06    -466.501E+03    -104.729E-03     210.453E-03    -105.724E-03     3.58137E-03    -105.086E-03     210.914E-03    -105.377E-03     2.69172E-03
             283     16.1991E-03     57.6016E-03    -2.39536E+06     115.735E+06     101.975E+06     276.074E+03    -104.590E-03     210.320E-03    -105.730E-03     4.39932E-03    -104.947E-03     210.783E-03    -105.385E-03     3.51642E-03
             284     16.2007E-03     58.7704E-03    -2.57231E+06     115.128E+06     101.713E+06     -55.316E+03    -104.251E-03     209.982E-03    -105.732E-03     4.67840E-03    -104.607E-03     210.444E-03    -105.386E-03     3.79679E-03
             285     16.1992E-03     59.9411E-03    -1.85612E+06     115.682E+06     102.533E+06    -51.1368E+03    -104.119E-03     209.855E-03    -105.736E-03     3.27354E-03    -104.472E-03     210.315E-03    -105.389E-03     2.39325E-03
             286     16.2006E-03     61.1102E-03    -2.71666E+06     115.708E+06     101.944E+06    -85.2888E+03    -104.683E-03     210.411E-03    -105.728E-03     4.00438E-03    -105.041E-03     210.874E-03    -105.382E-03     3.11286E-03
             287     16.1987E-03     62.2833E-03    -4.25244E+06     114.152E+06     100.344E+06    -26.6468E+03    -105.375E-03     211.086E-03    -105.711E-03     3.86847E-03    -105.735E-03     211.546E-03    -105.369E-03     2.97472E-03
             288     16.2008E-03     63.4543E-03    -1.77360E+06     115.693E+06     102.474E+06     409.634E+03    -104.007E-03     209.753E-03    -105.745E-03     3.36656E-03    -104.360E-03     210.212E-03    -105.398E-03     2.50163E-03
             289     16.1990E-03     64.6237E-03    -2.02530E+06     116.250E+06     102.657E+06     32.5387E+03    -103.873E-03     209.622E-03    -105.749E-03     4.77716E-03    -104.230E-03     210.087E-03    -105.402E-03     3.89374E-03
             290     16.2005E-03     65.7930E-03    -3.29760E+06     115.169E+06     101.619E+06    -122.389E+03    -105.126E-03     210.834E-03    -105.709E-03     3.97188E-03    -105.485E-03     211.296E-03    -105.363E-03     3.07915E-03
             291     16.1996E-03     66.9666E-03    -2.30733E+06     115.554E+06     102.198E+06    -250.834E+03    -104.731E-03     210.452E-03    -105.721E-03     3.60692E-03    -105.086E-03     210.913E-03    -105.374E-03     2.72201E-03
             292     809.591E-06     68.6612E-03    -120.236E+06    -246.691E+06    -117.298E+06    -151.770E+03    -105.948E-03     211.750E-03    -105.801E-03     6.55851E-03    -106.023E-03     210.862E-03    -105.856E-03     6.46223E-03
             293     1.61901E-03     68.6715E-03    -116.092E+06    -233.985E+06    -105.227E+06     169.237E+03    -105.811E-03     211.709E-03    -105.898E-03     12.0534E-03    -105.904E-03     210.864E-03    -105.917E-03     11.8855E-03
             294     2.42874E-03     68.6881E-03    -109.815E+06    -216.083E+06    -88.0118E+06     121.441E+03    -105.760E-03     211.677E-03    -105.917E-03     17.4767E-03    -105.877E-03     210.892E-03    -105.885E-03     17.2263E-03
             295     3.23848E-03     68.7104E-03    -102.056E+06    -195.976E+06    -69.3518E+06    -66.5250E+03    -105.740E-03     211.677E-03    -105.937E-03     22.5640E-03    -105.881E-03     210.961E-03    -105.852E-03     22.2310E-03
             296     4.04809E-03     68.7383E-03    -93.7660E+06    -175.828E+06    -51.1340E+06     106.993E+03    -105.709E-03     211.663E-03    -105.954E-03     27.1584E-03    -105.871E-03     211.017E-03    -105.819E-03     26.7488E-03
             297     4.85788E-03     68.7708E-03    -85.2011E+06    -155.906E+06    -34.4574E+06     70.2592E+03    -105.687E-03     211.648E-03    -105.961E-03     31.2510E-03    -105.868E-03     211.073E-03    -105.784E-03     30.7642E-03
             298     5.66780E-03     68.8079E-03    -76.8337E+06    -136.965E+06    -20.0622E+06    -5.79408E+03    -105.671E-03     211.629E-03    -105.958E-03     34.7574E-03    -105.867E-03     211.125E-03    -105.748E-03     34.1956E-03
             299     6.47771E-03     68.8482E-03    -69.1073E+06    -119.040E+06    -7.74956E+06     75.9220E+03    -105.659E-03     211.606E-03    -105.948E-03     37.6621E-03    -105.870E-03     211.172E-03    -105.714E-03     37.0289E-03
             300     7.28766E-03     68.8915E-03    -61.5090E+06    -101.849E+06     3.09724E+06    -31.7575E+03    -105.675E-03     211.609E-03    -105.934E-03     39.9504E-03    -105.898E-03     211.244E-03    -105.682E-03     39.2439E-03
             301     8.09770E-03     68.9370E-03    -54.5825E+06    -84.7202E+06     12.5875E+06     75.7016E+03    -105.674E-03     211.593E-03    -105.919E-03     41.6554E-03    -105.911E-03     211.299E-03    -105.654E-03     40.8795E-03
             302     8.90762E-03     68.9839E-03    -48.1508E+06    -66.8359E+06     21.1400E+06     159.530E+03    -105.632E-03     211.532E-03    -105.900E-03     42.7643E-03    -105.885E-03     211.315E-03    -105.627E-03     41.9183E-03
             303     9.71767E-03     69.0318E-03    -42.1165E+06    -49.1558E+06     28.8251E+06     139.328E+03    -105.604E-03     211.483E-03    -105.879E-03     43.2398E-03    -105.873E-03     211.344E-03    -105.602E-03     42.3210E-03
             304     10.5277E-03     69.0795E-03    -36.4048E+06    -28.1406E+06     36.1620E+06     142.103E+03    -105.547E-03     211.400E-03    -105.853E-03     43.0862E-03    -105.837E-03     211.357E-03    -105.579E-03     42.0948E-03
             305     11.3377E-03     69.1271E-03    -31.0440E+06    -5.62290E+06     43.7808E+06     85.6864E+03    -105.371E-03     211.197E-03    -105.826E-03     42.0873E-03    -105.687E-03     211.255E-03    -105.553E-03     41.0207E-03
             306     12.1482E-03     69.1722E-03    -25.7421E+06     21.4915E+06     50.3688E+06     300.696E+03    -105.163E-03     210.945E-03    -105.781E-03     40.0830E-03    -105.508E-03     211.128E-03    -105.523E-03     38.9444E-03
             307     12.9580E-03     69.2154E-03    -20.6338E+06     70.0241E+06     62.9184E+06     290.783E+03    -104.976E-03     210.710E-03    -105.734E-03     36.4709E-03    -105.385E-03     211.112E-03    -105.491E-03     35.2696E-03
             308     13.7689E-03     69.2523E-03    -15.6110E+06     106.371E+06     70.8287E+06    -127.994E+03    -104.776E-03     210.459E-03    -105.683E-03     31.0552E-03    -105.220E-03     211.020E-03    -105.460E-03     29.7962E-03
             309     14.5782E-03     69.2826E-03    -10.3873E+06     113.374E+06     79.7801E+06     336.644E+03    -104.631E-03     210.311E-03    -105.680E-03     24.2351E-03    -105.067E-03     210.881E-03    -105.430E-03     22.9095E-03
             310     15.3898E-03     69.3041E-03    -5.51861E+06     115.429E+06     96.2466E+06     385.049E+03    -104.522E-03     210.246E-03    -105.723E-03     12.0815E-03    -104.921E-03     210.756E-03    -105.401E-03     10.9567E-03
             311     809.432E-06     69.8319E-03    -120.432E+06    -246.821E+06    -117.240E+06     321.938E+03    -105.821E-03     211.708E-03    -105.888E-03     6.66399E-03    -105.896E-03     210.820E-03    -105.942E-03     6.57544E-03
             312     1.61913E-03     69.8424E-03    -116.202E+06    -234.039E+06    -105.129E+06    -59.8390E+03    -105.827E-03     211.713E-03    -105.886E-03     12.1309E-03    -105.921E-03     210.868E-03    -105.904E-03     11.9580E-03
             313     2.42870E-03     69.8587E-03    -109.689E+06    -216.061E+06    -88.1970E+06    -12.7927E+03    -105.779E-03     211.693E-03    -105.914E-03     17.4964E-03    -105.895E-03     210.908E-03    -105.882E-03     17.2446E-03
             314     3.23832E-03     69.8814E-03    -102.135E+06    -196.040E+06    -69.2447E+06     140.819E+03    -105.721E-03     211.658E-03    -105.937E-03     22.5602E-03    -105.862E-03     210.941E-03    -105.851E-03     22.2304E-03
             315     4.04819E-03     69.9090E-03    -93.6356E+06    -175.867E+06    -50.8636E+06    -33.7107E+03    -105.710E-03     211.662E-03    -105.952E-03     27.1865E-03    -105.872E-03     211.014E-03    -105.816E-03     26.7753E-03
             316     4.85799E-03     69.9418E-03    -85.0617E+06    -155.927E+06    -34.3885E+06     4.71507E+03    -105.708E-03     211.668E-03    -105.960E-03     31.2647E-03    -105.888E-03     211.092E-03    -105.783E-03     30.7774E-03
             317     5.66775E-03     69.9786E-03    -76.9880E+06    -137.046E+06    -20.0871E+06     92.3091E+03    -105.686E-03     211.646E-03    -105.960E-03     34.7301E-03    -105.883E-03     211.141E-03    -105.750E-03     34.1692E-03
             318     6.47773E-03     70.0189E-03    -68.9789E+06    -118.881E+06    -7.54297E+06    -57.4058E+03    -105.678E-03     211.630E-03    -105.952E-03     37.6180E-03    -105.889E-03     211.196E-03    -105.717E-03     36.9829E-03
             319     7.28764E-03     70.0624E-03    -61.6069E+06    -101.940E+06     3.10914E+06     41.1559E+03    -105.678E-03     211.617E-03    -105.939E-03     39.9210E-03    -105.901E-03     211.251E-03    -105.687E-03     39.2157E-03
             320     8.09752E-03     70.1077E-03    -54.7713E+06    -84.9809E+06     12.4688E+06     139.227E+03    -105.654E-03     211.577E-03    -105.923E-03     41.6297E-03    -105.892E-03     211.282E-03    -105.658E-03     40.8543E-03
             321     8.90758E-03     70.1548E-03    -48.2766E+06    -66.7936E+06     21.1038E+06     190.396E+03    -105.626E-03     211.528E-03    -105.902E-03     42.7519E-03    -105.879E-03     211.312E-03    -105.630E-03     41.9060E-03
             322     9.71768E-03     70.2024E-03    -42.1952E+06    -49.2357E+06     28.7260E+06     215.314E+03    -105.608E-03     211.488E-03    -105.880E-03     43.2533E-03    -105.876E-03     211.349E-03    -105.604E-03     42.3355E-03
             323     10.5276E-03     70.2507E-03    -36.4847E+06    -28.0718E+06     36.1241E+06     178.627E+03    -105.507E-03     211.361E-03    -105.853E-03     43.0807E-03    -105.798E-03     211.318E-03    -105.579E-03     42.0900E-03
             324     11.3379E-03     70.2974E-03    -30.9717E+06    -5.54253E+06     43.7764E+06     255.944E+03    -105.391E-03     211.216E-03    -105.825E-03     42.1077E-03    -105.706E-03     211.275E-03    -105.553E-03     41.0430E-03
             325     12.1477E-03     70.3433E-03    -25.9181E+06      20.931E+06     50.0172E+06     206.774E+03    -105.215E-03     210.997E-03    -105.782E-03     40.1213E-03    -105.559E-03     211.179E-03    -105.525E-03     38.9817E-03
             326     12.9585E-03     70.3856E-03    -20.5974E+06     70.3423E+06     62.9449E+06     191.093E+03    -104.920E-03     210.655E-03    -105.735E-03     36.7146E-03    -105.330E-03     211.059E-03    -105.493E-03     35.5125E-03
             327     13.7684E-03     70.4235E-03    -15.5558E+06     106.494E+06     70.8508E+06     407.818E+03    -104.645E-03     210.323E-03    -105.679E-03     31.0561E-03    -105.088E-03     210.884E-03    -105.456E-03     29.8101E-03
             328     14.5797E-03     70.4528E-03    -10.7766E+06     112.858E+06     79.3468E+06     175.012E+03    -104.382E-03     210.046E-03    -105.665E-03     24.0693E-03    -104.817E-03     210.614E-03    -105.416E-03     22.7472E-03
             329     15.3900E-03     70.4739E-03    -5.07953E+06     115.625E+06     96.5184E+06    -94.4535E+03    -104.550E-03     210.254E-03    -105.704E-03     11.8648E-03    -104.948E-03     210.764E-03    -105.382E-03     10.7343E-03
             330     809.746E-06     71.0029E-03    -120.177E+06    -247.197E+06    -117.315E+06     69.3099E+03    -105.778E-03     211.623E-03    -105.844E-03     6.82385E-03    -105.852E-03     210.732E-03    -105.898E-03     6.73168E-03
             331     1.61918E-03     71.0131E-03    -115.887E+06    -233.818E+06    -105.025E+06     114.754E+03    -105.851E-03     211.705E-03    -105.855E-03     12.1226E-03    -105.943E-03     210.861E-03    -105.873E-03     11.9536E-03
             332     2.42873E-03     71.0298E-03    -109.778E+06    -216.214E+06    -88.0542E+06    -22.6242E+03    -105.792E-03     211.694E-03    -105.902E-03     17.4912E-03    -105.908E-03     210.908E-03    -105.869E-03     17.2399E-03
             333     3.23848E-03     71.0519E-03    -101.974E+06    -196.093E+06    -69.1452E+06    -18.4924E+03    -105.729E-03     211.659E-03    -105.930E-03     22.5696E-03    -105.870E-03     210.942E-03    -105.844E-03     22.2377E-03
             334     4.04817E-03     71.0799E-03    -93.7014E+06    -175.797E+06    -50.8498E+06     96.5819E+03    -105.720E-03     211.668E-03    -105.948E-03     27.1980E-03    -105.882E-03     211.021E-03    -105.812E-03     26.7889E-03
             335     4.85789E-03     71.1125E-03    -85.2562E+06    -156.056E+06    -34.3961E+06     61.9967E+03    -105.717E-03     211.677E-03    -105.959E-03     31.2264E-03    -105.899E-03     211.101E-03    -105.781E-03     30.7396E-03
             336     5.66783E-03     71.1493E-03    -76.6581E+06    -136.999E+06    -19.9088E+06         701.469    -105.718E-03     211.681E-03    -105.962E-03     34.7244E-03    -105.914E-03     211.176E-03    -105.752E-03     34.1620E-03
             337     6.47757E-03     71.1899E-03    -68.9658E+06    -118.894E+06    -7.54094E+06     124.820E+03    -105.708E-03     211.666E-03    -105.958E-03     37.6184E-03    -105.919E-03     211.232E-03    -105.723E-03     36.9850E-03
             338     7.28756E-03     71.2329E-03    -61.7121E+06    -102.034E+06     3.04998E+06     88.7055E+03    -105.667E-03     211.613E-03    -105.946E-03     39.9233E-03    -105.891E-03     211.246E-03    -105.693E-03     39.2182E-03
             339     8.09760E-03     71.2787E-03    -54.6323E+06    -85.1607E+06     12.4630E+06     163.175E+03    -105.639E-03     211.566E-03    -105.927E-03     41.6260E-03    -105.875E-03     211.269E-03    -105.662E-03     40.8508E-03
             340     8.90764E-03     71.3252E-03    -48.2258E+06    -66.9064E+06     21.0314E+06     268.311E+03    -105.628E-03     211.533E-03    -105.905E-03     42.7776E-03    -105.881E-03     211.316E-03    -105.633E-03     41.9331E-03
             341     9.71751E-03     71.3736E-03    -42.1691E+06    -49.1994E+06     28.7323E+06     217.235E+03    -105.564E-03     211.445E-03    -105.881E-03     43.2790E-03    -105.832E-03     211.306E-03    -105.605E-03     42.3627E-03
             342     10.5278E-03     71.4209E-03    -36.3381E+06    -27.9267E+06     36.2195E+06     165.392E+03    -105.467E-03     211.318E-03    -105.851E-03     43.0859E-03    -105.757E-03     211.275E-03    -105.577E-03     42.0966E-03
             343     11.3378E-03     71.4686E-03    -30.8581E+06    -5.72724E+06     43.7051E+06     124.337E+03    -105.371E-03     211.191E-03    -105.820E-03     42.1549E-03    -105.686E-03     211.249E-03    -105.549E-03     41.0898E-03
             344     12.1482E-03     71.5138E-03    -25.5253E+06     21.2110E+06     50.3684E+06     249.870E+03    -105.261E-03     211.041E-03    -105.780E-03     40.1215E-03    -105.604E-03     211.222E-03    -105.522E-03     38.9813E-03
             345     12.9581E-03     71.5563E-03    -20.6373E+06     69.9675E+06     62.8580E+06     430.916E+03    -104.957E-03     210.692E-03    -105.735E-03     36.5732E-03    -105.366E-03     211.093E-03    -105.492E-03     35.3756E-03
             346     13.7689E-03     71.5941E-03    -15.5871E+06     105.998E+06     70.6253E+06     467.700E+03    -104.626E-03     210.305E-03    -105.679E-03     30.6397E-03    -105.068E-03     210.862E-03    -105.457E-03     29.3953E-03
             347     14.5789E-03     71.6227E-03    -10.1284E+06     113.463E+06     79.8879E+06     328.098E+03    -104.501E-03     210.169E-03    -105.669E-03     23.5387E-03    -104.933E-03     210.737E-03    -105.419E-03     22.2178E-03
             348     15.3896E-03     71.6452E-03    -5.26918E+06     115.837E+06     96.4990E+06    -155.052E+03    -104.615E-03     210.327E-03    -105.712E-03     11.9108E-03    -105.013E-03     210.838E-03    -105.390E-03     10.7775E-03
             349     809.508E-06     72.1734E-03    -120.339E+06    -247.122E+06    -117.328E+06    -104.815E+03    -105.889E-03     211.692E-03    -105.803E-03     6.77869E-03    -105.963E-03     210.803E-03    -105.857E-03     6.68348E-03
             350     1.61915E-03     72.1840E-03    -116.030E+06    -234.153E+06    -105.109E+06     89.1754E+03    -105.791E-03     211.662E-03    -105.872E-03     12.0223E-03    -105.883E-03     210.816E-03    -105.889E-03     11.8540E-03
             351     2.42881E-03     72.2005E-03    -109.612E+06    -216.074E+06    -87.8862E+06     102.397E+03    -105.754E-03     211.648E-03    -105.895E-03     17.4361E-03    -105.870E-03     210.863E-03    -105.862E-03     17.1866E-03
             352     3.23843E-03     72.2228E-03    -102.049E+06    -196.130E+06    -69.1565E+06     43.9114E+03    -105.760E-03     211.682E-03    -105.923E-03     22.5571E-03    -105.900E-03     210.965E-03    -105.836E-03     22.2261E-03
             353     4.04814E-03     72.2507E-03    -93.5653E+06    -175.961E+06    -50.7786E+06     82.3815E+03    -105.734E-03     211.681E-03    -105.947E-03     27.1894E-03    -105.895E-03     211.033E-03    -105.810E-03     26.7798E-03
             354     4.85803E-03     72.2832E-03    -84.9517E+06    -155.916E+06    -34.2785E+06     50.5196E+03    -105.722E-03     211.681E-03    -105.960E-03     31.2485E-03    -105.902E-03     211.106E-03    -105.782E-03     30.7613E-03
             355     5.66769E-03     72.3203E-03    -76.9927E+06    -137.082E+06    -20.1077E+06     68.3696E+03    -105.726E-03     211.688E-03    -105.963E-03     34.7428E-03    -105.923E-03     211.184E-03    -105.753E-03     34.1810E-03
             356     6.47771E-03     72.3604E-03    -68.9523E+06    -118.919E+06    -7.54170E+06     4.28760E+03    -105.710E-03     211.670E-03    -105.959E-03     37.6456E-03    -105.921E-03     211.235E-03    -105.724E-03     37.0105E-03
             357     7.28752E-03     72.4040E-03    -61.2383E+06    -102.154E+06     3.18543E+06     139.024E+03    -105.687E-03     211.635E-03    -105.948E-03     39.9165E-03    -105.909E-03     211.268E-03    -105.695E-03     39.2115E-03
             358     8.09752E-03     72.4490E-03    -54.5362E+06    -85.3397E+06     12.4574E+06     252.344E+03    -105.659E-03     211.590E-03    -105.931E-03     41.6298E-03    -105.895E-03     211.293E-03    -105.666E-03     40.8557E-03
             359     8.90745E-03     72.4965E-03    -48.0997E+06    -67.0032E+06     21.0529E+06     282.533E+03    -105.594E-03     211.502E-03    -105.908E-03     42.7573E-03    -105.846E-03     211.284E-03    -105.636E-03     41.9137E-03
             360     9.71774E-03     72.5438E-03    -41.9681E+06    -49.1452E+06     28.8323E+06     256.004E+03    -105.513E-03     211.394E-03    -105.881E-03     43.2387E-03    -105.781E-03     211.255E-03    -105.604E-03     42.3237E-03
             361     10.5277E-03     72.5921E-03    -36.3796E+06    -28.0119E+06     36.1550E+06     192.883E+03    -105.442E-03     211.290E-03    -105.847E-03     43.0978E-03    -105.733E-03     211.247E-03    -105.573E-03     42.1098E-03
             362     11.3380E-03     72.6389E-03    -31.0960E+06    -5.59346E+06     43.7875E+06     180.741E+03    -105.360E-03     211.176E-03    -105.816E-03     42.1287E-03    -105.676E-03     211.235E-03    -105.544E-03     41.0639E-03
             363     12.1480E-03     72.6847E-03    -26.0457E+06     20.7584E+06     50.0807E+06     167.465E+03    -105.296E-03     211.072E-03    -105.776E-03     40.1804E-03    -105.641E-03     211.253E-03    -105.518E-03     39.0375E-03
             364     12.9582E-03     72.7273E-03    -20.6979E+06     69.8833E+06     62.9778E+06     387.480E+03    -105.098E-03     210.836E-03    -105.738E-03     36.4877E-03    -105.507E-03     211.237E-03    -105.495E-03     35.2849E-03
             365     13.7684E-03     72.7641E-03    -15.2744E+06     106.860E+06     71.1220E+06     125.805E+03    -104.876E-03     210.569E-03    -105.693E-03     30.4581E-03    -105.318E-03     211.130E-03    -105.470E-03     29.1995E-03
             366     14.5790E-03     72.7943E-03    -10.3239E+06     113.405E+06     79.7823E+06    -215.762E+03    -104.730E-03     210.425E-03    -105.695E-03     23.2372E-03    -105.163E-03     210.993E-03    -105.446E-03     21.9012E-03
             367     15.3894E-03     72.8147E-03    -5.22144E+06     115.684E+06     96.5678E+06     212.636E+03    -104.381E-03     210.119E-03    -105.738E-03     11.7139E-03    -104.778E-03     210.629E-03    -105.415E-03     10.5843E-03
             368     809.467E-06     73.3444E-03    -120.137E+06    -247.130E+06    -117.169E+06    -8.68104E+03    -105.853E-03     211.786E-03    -105.933E-03     6.69413E-03    -105.926E-03     210.896E-03    -105.986E-03     6.60001E-03
             369     1.61902E-03     73.3547E-03    -116.001E+06    -234.199E+06    -105.078E+06    -22.5763E+03    -105.736E-03     211.633E-03    -105.898E-03     12.0300E-03    -105.828E-03     210.787E-03    -105.915E-03     11.8591E-03
             370     2.42880E-03     73.3711E-03    -109.673E+06    -216.200E+06    -88.1397E+06     79.9007E+03    -105.740E-03     211.637E-03    -105.896E-03     17.4986E-03    -105.856E-03     210.852E-03    -105.865E-03     17.2484E-03
             371     3.23847E-03     73.3938E-03    -101.872E+06    -196.045E+06    -69.0161E+06     60.5988E+03    -105.762E-03     211.685E-03    -105.923E-03     22.5568E-03    -105.903E-03     210.968E-03    -105.836E-03     22.2258E-03
             372     4.04820E-03     73.4213E-03    -93.4263E+06    -176.064E+06    -50.7587E+06     17.4782E+03    -105.738E-03     211.686E-03    -105.948E-03     27.1480E-03    -105.899E-03     211.037E-03    -105.811E-03     26.7374E-03
             373     4.85787E-03     73.4543E-03    -85.0796E+06    -156.066E+06    -34.3960E+06     197.195E+03    -105.718E-03     211.678E-03    -105.960E-03     31.2526E-03    -105.898E-03     211.102E-03    -105.782E-03     30.7675E-03
             374     5.66785E-03     73.4909E-03    -76.7235E+06    -136.808E+06    -19.8417E+06     79.1099E+03    -105.719E-03     211.682E-03    -105.963E-03     34.7385E-03    -105.916E-03     211.178E-03    -105.753E-03     34.1768E-03
             375     6.47756E-03     73.5315E-03    -68.9686E+06    -118.941E+06    -7.54487E+06     15.0402E+03    -105.704E-03     211.662E-03    -105.958E-03     37.6137E-03    -105.914E-03     211.228E-03    -105.724E-03     36.9789E-03
             376     7.28763E-03     73.5744E-03    -61.8628E+06    -102.606E+06     2.81875E+06     171.032E+03    -105.693E-03     211.640E-03    -105.947E-03     39.9259E-03    -105.916E-03     211.271E-03    -105.694E-03     39.2217E-03
             377     8.09746E-03     73.6202E-03    -54.7762E+06    -85.3616E+06     12.4048E+06     312.024E+03    -105.656E-03     211.587E-03    -105.930E-03     41.6801E-03    -105.893E-03     211.290E-03    -105.665E-03     40.9071E-03
             378     8.90759E-03     73.6668E-03    -48.2006E+06    -66.9914E+06     21.0621E+06     196.314E+03    -105.583E-03     211.490E-03    -105.907E-03     42.7931E-03    -105.836E-03     211.273E-03    -105.635E-03     41.9479E-03
             379     9.71753E-03     73.7148E-03    -42.0278E+06    -49.3627E+06     28.6455E+06     192.858E+03    -105.525E-03     211.404E-03    -105.879E-03     43.2366E-03    -105.793E-03     211.264E-03    -105.603E-03     42.3199E-03
             380     10.5278E-03     73.7624E-03    -36.1925E+06    -27.8275E+06     36.2910E+06     348.468E+03    -105.443E-03     211.290E-03    -105.847E-03     43.0173E-03    -105.733E-03     211.248E-03    -105.573E-03     42.0302E-03
             381     11.3380E-03     73.8099E-03    -30.7889E+06    -5.55468E+06     43.8602E+06     355.283E+03    -105.394E-03     211.211E-03    -105.817E-03     42.0760E-03    -105.709E-03     211.269E-03    -105.545E-03     41.0122E-03
             382     12.1481E-03     73.8554E-03    -25.6046E+06     20.6784E+06     50.0977E+06     258.524E+03    -105.294E-03     211.072E-03    -105.778E-03     40.1009E-03    -105.637E-03     211.252E-03    -105.520E-03     38.9596E-03
             383     12.9584E-03     73.8981E-03    -20.5618E+06     69.8821E+06     62.7651E+06     58.5078E+03    -105.052E-03     210.789E-03    -105.737E-03     36.6296E-03    -105.461E-03     211.191E-03    -105.495E-03     35.4234E-03
             384     13.7683E-03     73.9358E-03    -15.4633E+06     106.950E+06     71.0307E+06     76.2686E+03    -104.939E-03     210.632E-03    -105.693E-03     31.1071E-03    -105.383E-03     211.195E-03    -105.471E-03     29.8504E-03
             385     14.5781E-03     73.9644E-03    -10.5272E+06     113.276E+06     79.3456E+06     485.681E+03    -104.700E-03     210.394E-03    -105.694E-03     24.1944E-03    -105.134E-03     210.963E-03    -105.446E-03     22.8741E-03
             386     15.3878E-03     73.9867E-03    -5.09110E+06     115.693E+06     96.2591E+06     199.428E+03    -104.261E-03     209.994E-03    -105.733E-03     12.4613E-03    -104.659E-03     210.505E-03    -105.412E-03     11.3362E-03
             387     809.440E-06     74.5154E-03    -120.167E+06    -247.108E+06    -117.117E+06    -33.5180E+03    -105.774E-03     211.699E-03    -105.925E-03     6.68077E-03    -105.848E-03     210.809E-03    -105.978E-03     6.58714E-03
             388     1.61922E-03     74.5252E-03    -115.890E+06    -234.112E+06    -105.107E+06    -14.9855E+03    -105.799E-03     211.674E-03    -105.875E-03     12.0942E-03    -105.891E-03     210.828E-03    -105.893E-03     11.9227E-03
             389     2.42874E-03     74.5421E-03    -109.586E+06    -216.197E+06    -88.0799E+06    -43.3901E+03    -105.790E-03     211.693E-03    -105.903E-03     17.5165E-03    -105.906E-03     210.907E-03    -105.871E-03     17.2641E-03
             390     3.23843E-03     74.5644E-03    -101.924E+06    -196.170E+06    -69.2210E+06     73.4528E+03    -105.736E-03     211.667E-03    -105.931E-03     22.5296E-03    -105.876E-03     210.950E-03    -105.845E-03     22.1993E-03
             391     4.04811E-03     74.5924E-03    -93.7441E+06    -176.125E+06    -50.8881E+06     165.366E+03    -105.719E-03     211.669E-03    -105.951E-03     27.1487E-03    -105.881E-03     211.021E-03    -105.814E-03     26.7403E-03
             392     4.85801E-03     74.6248E-03    -85.0357E+06    -156.118E+06    -34.3026E+06     36.2301E+03    -105.712E-03     211.673E-03    -105.961E-03     31.2736E-03    -105.892E-03     211.096E-03    -105.782E-03     30.7865E-03
             393     5.66769E-03     74.6620E-03    -76.7878E+06    -136.883E+06    -19.9520E+06     198.965E+03    -105.700E-03     211.661E-03    -105.961E-03     34.7680E-03    -105.897E-03     211.157E-03    -105.751E-03     34.2085E-03
             394     6.47772E-03     74.7021E-03    -69.0532E+06    -119.074E+06    -7.54233E+06     324.929E+03    -105.697E-03     211.652E-03    -105.955E-03     37.6389E-03    -105.908E-03     211.217E-03    -105.720E-03     37.0080E-03
             395     7.28751E-03     74.7455E-03    -61.5757E+06    -102.604E+06     3.04484E+06     268.951E+03    -105.676E-03     211.620E-03    -105.943E-03     39.9568E-03    -105.899E-03     211.250E-03    -105.690E-03     39.2540E-03
             396     8.09762E-03     74.7907E-03    -54.6826E+06    -85.4616E+06     12.3450E+06     153.096E+03    -105.642E-03     211.566E-03    -105.925E-03     41.6623E-03    -105.878E-03     211.269E-03    -105.660E-03     40.8871E-03
             397     8.90758E-03     74.8377E-03    -48.0460E+06    -66.9022E+06     21.0522E+06     137.243E+03    -105.608E-03     211.510E-03    -105.902E-03     42.7659E-03    -105.860E-03     211.293E-03    -105.630E-03     41.9192E-03
             398     9.71775E-03     74.8854E-03    -42.0264E+06    -49.2905E+06     28.6817E+06     180.515E+03    -105.570E-03     211.448E-03    -105.878E-03     43.2329E-03    -105.838E-03     211.309E-03    -105.602E-03     42.3150E-03
             399     10.5277E-03     74.9333E-03    -36.2677E+06    -28.2030E+06     36.0874E+06     195.155E+03    -105.505E-03     211.354E-03    -105.850E-03     43.0100E-03    -105.794E-03     211.310E-03    -105.576E-03     42.0198E-03
             400     11.3378E-03     74.9805E-03    -30.6485E+06    -5.54968E+06     43.9348E+06     254.535E+03    -105.379E-03     211.200E-03    -105.821E-03     42.1281E-03    -105.693E-03     211.258E-03    -105.549E-03     41.0645E-03
             401     12.1479E-03     75.0263E-03    -25.3861E+06     21.1534E+06     50.4439E+06     242.263E+03    -105.198E-03     210.977E-03    -105.779E-03     40.2348E-03    -105.541E-03     211.158E-03    -105.520E-03     39.0968E-03
             402     12.9580E-03     75.0687E-03    -20.2017E+06     70.0117E+06     63.0528E+06     287.006E+03    -104.889E-03     210.619E-03    -105.730E-03     36.8127E-03    -105.297E-03     211.020E-03    -105.487E-03     35.6134E-03
             403     13.7692E-03     75.1061E-03    -15.5426E+06     106.135E+06     70.5270E+06     465.946E+03    -104.696E-03     210.368E-03    -105.672E-03     31.3217E-03    -105.139E-03     210.928E-03    -105.451E-03     30.0754E-03
             404     14.5796E-03     75.1364E-03    -10.4499E+06     113.410E+06     79.5678E+06     103.329E+03    -104.604E-03     210.270E-03    -105.667E-03     23.7737E-03    -105.038E-03     210.839E-03    -105.418E-03     22.4446E-03
             405     15.3915E-03     75.1549E-03    -5.06316E+06     116.351E+06     96.7911E+06    -23.8781E+03    -104.634E-03     210.348E-03    -105.715E-03     11.8322E-03    -105.032E-03     210.861E-03    -105.392E-03     10.6973E-03
             406     809.761E-06     75.6857E-03    -120.156E+06    -246.917E+06    -117.237E+06    -56.0274E+03    -105.859E-03     211.631E-03    -105.772E-03     6.57855E-03    -105.933E-03     210.742E-03    -105.825E-03     6.48464E-03
             407     1.61915E-03     75.6963E-03    -115.961E+06    -234.084E+06    -104.971E+06    -38.7313E+03    -105.883E-03     211.748E-03    -105.866E-03     12.0550E-03    -105.975E-03     210.903E-03    -105.883E-03     11.8845E-03
             408     2.42869E-03     75.7128E-03    -109.662E+06    -216.318E+06    -88.0831E+06     58.4748E+03    -105.790E-03     211.704E-03    -105.915E-03     17.4493E-03    -105.905E-03     210.918E-03    -105.883E-03     17.1987E-03
             409     3.23836E-03     75.7353E-03    -102.100E+06    -196.323E+06    -69.2486E+06     127.099E+03    -105.713E-03     211.651E-03    -105.938E-03     22.5747E-03    -105.853E-03     210.933E-03    -105.851E-03     22.2443E-03
             410     4.04822E-03     75.7630E-03    -93.4959E+06    -176.121E+06    -50.7786E+06     87.9209E+03    -105.712E-03     211.664E-03    -105.952E-03     27.1756E-03    -105.873E-03     211.015E-03    -105.815E-03     26.7660E-03
             411     4.85788E-03     75.7958E-03    -85.2129E+06    -156.162E+06    -34.4099E+06     203.364E+03    -105.691E-03     211.651E-03    -105.959E-03     31.2333E-03    -105.872E-03     211.074E-03    -105.781E-03     30.7485E-03
             412     5.66789E-03     75.8325E-03    -76.9672E+06    -137.086E+06    -19.9849E+06     148.293E+03    -105.666E-03     211.623E-03    -105.957E-03     34.7726E-03    -105.863E-03     211.118E-03    -105.746E-03     34.2127E-03
             413     6.47766E-03     75.8731E-03    -68.8202E+06    -119.197E+06    -7.47966E+06     170.356E+03    -105.675E-03     211.623E-03    -105.948E-03     37.6745E-03    -105.885E-03     211.187E-03    -105.713E-03     37.0417E-03
             414     7.28772E-03     75.9161E-03    -61.3750E+06    -102.625E+06     3.04443E+06     308.092E+03    -105.684E-03     211.619E-03    -105.935E-03     39.9489E-03    -105.905E-03     211.250E-03    -105.682E-03     39.2460E-03
             415     8.09760E-03     75.9615E-03    -54.3665E+06    -85.1660E+06     12.5135E+06     211.419E+03    -105.666E-03     211.585E-03    -105.919E-03     41.6411E-03    -105.901E-03     211.288E-03    -105.654E-03     40.8662E-03
             416     8.90764E-03     76.0084E-03    -48.0719E+06    -66.9517E+06     21.0363E+06     127.642E+03    -105.626E-03     211.525E-03    -105.899E-03     42.7397E-03    -105.878E-03     211.308E-03    -105.627E-03     41.8933E-03
             417     9.71759E-03     76.0561E-03    -42.0046E+06    -49.3878E+06     28.6960E+06     201.914E+03    -105.580E-03     211.457E-03    -105.876E-03     43.2509E-03    -105.848E-03     211.317E-03    -105.600E-03     42.3341E-03
             418     10.5278E-03     76.1041E-03    -36.4181E+06    -28.1997E+06     36.0904E+06     193.610E+03    -105.497E-03     211.345E-03    -105.848E-03     43.1145E-03    -105.787E-03     211.302E-03    -105.574E-03     42.1255E-03
             419     11.3378E-03     76.1512E-03    -31.0420E+06    -5.72703E+06     43.7174E+06     177.029E+03    -105.329E-03     211.147E-03    -105.818E-03     42.2187E-03    -105.645E-03     211.205E-03    -105.546E-03     41.1552E-03
             420     12.1482E-03     76.1968E-03    -25.8722E+06     21.3452E+06     50.3588E+06     249.001E+03    -105.137E-03     210.908E-03    -105.772E-03     40.2415E-03    -105.482E-03     211.091E-03    -105.513E-03     39.1040E-03
             421     12.9589E-03     76.2392E-03    -20.8455E+06     69.7483E+06     62.8315E+06     391.060E+03    -104.931E-03     210.654E-03    -105.723E-03     36.6098E-03    -105.342E-03     211.056E-03    -105.480E-03     35.4095E-03
             422     13.7685E-03     76.2769E-03    -15.1962E+06     106.514E+06     70.9992E+06     244.558E+03    -104.654E-03     210.321E-03    -105.667E-03     30.7505E-03    -105.095E-03     210.881E-03    -105.445E-03     29.4974E-03
             423     14.5794E-03     76.3061E-03    -10.5104E+06     113.786E+06     79.9805E+06     45.0562E+03    -104.622E-03     210.284E-03    -105.662E-03     23.4194E-03    -105.057E-03     210.854E-03    -105.412E-03     22.0897E-03
             424     15.3874E-03     76.3277E-03    -5.64061E+06     115.955E+06     96.6277E+06     220.213E+03    -104.710E-03     210.422E-03    -105.712E-03     11.9977E-03    -105.110E-03     210.934E-03    -105.389E-03     10.8692E-03
             425     809.527E-06     76.8567E-03    -120.115E+06    -246.896E+06    -116.961E+06     25.4038E+03    -105.911E-03     211.734E-03    -105.823E-03     6.65556E-03    -105.985E-03     210.845E-03    -105.876E-03     6.56295E-03
             426     1.61903E-03     76.8672E-03    -115.861E+06    -234.261E+06    -104.744E+06     85.6102E+03    -105.832E-03     211.730E-03    -105.898E-03     12.0469E-03    -105.924E-03     210.883E-03    -105.914E-03     11.8775E-03
             427     2.42869E-03     76.8837E-03    -109.596E+06    -216.514E+06    -87.8271E+06     133.982E+03    -105.752E-03     211.672E-03    -105.920E-03     17.4477E-03    -105.868E-03     210.885E-03    -105.886E-03     17.1980E-03
             428     3.23848E-03     76.9059E-03    -101.780E+06    -196.187E+06    -69.0133E+06     114.102E+03    -105.725E-03     211.662E-03    -105.937E-03     22.5765E-03    -105.865E-03     210.944E-03    -105.850E-03     22.2462E-03
             429     4.04808E-03     76.9340E-03    -93.6796E+06    -176.256E+06    -50.8713E+06     219.340E+03    -105.689E-03     211.639E-03    -105.950E-03     27.1981E-03    -105.851E-03     210.990E-03    -105.813E-03     26.7904E-03
             430     4.85799E-03     76.9664E-03    -85.1902E+06    -156.161E+06    -34.4060E+06     95.9671E+03    -105.674E-03     211.628E-03    -105.954E-03     31.2789E-03    -105.855E-03     211.052E-03    -105.776E-03     30.7925E-03
             431     5.66776E-03     77.0033E-03    -76.8294E+06    -137.131E+06    -19.9842E+06     145.316E+03    -105.670E-03     211.621E-03    -105.951E-03     34.7593E-03    -105.866E-03     211.116E-03    -105.741E-03     34.1991E-03
             432     6.47783E-03     77.0437E-03    -69.0901E+06    -119.399E+06    -7.67793E+06     293.534E+03    -105.667E-03     211.610E-03    -105.942E-03     37.6295E-03    -105.878E-03     211.173E-03    -105.707E-03     36.9989E-03
             433     7.28768E-03     77.0869E-03    -61.7570E+06    -102.548E+06     2.92745E+06     169.037E+03    -105.678E-03     211.608E-03    -105.930E-03     39.9004E-03    -105.901E-03     211.240E-03    -105.677E-03     39.1963E-03
             434     8.09765E-03     77.1323E-03    -54.8219E+06    -85.1120E+06     12.3722E+06     139.463E+03    -105.657E-03     211.571E-03    -105.914E-03     41.6293E-03    -105.894E-03     211.276E-03    -105.649E-03     40.8543E-03
             435     8.90764E-03     77.1791E-03    -48.1104E+06    -66.9936E+06     21.0667E+06     217.883E+03    -105.628E-03     211.523E-03    -105.894E-03     42.8024E-03    -105.880E-03     211.305E-03    -105.622E-03     41.9578E-03
             436     9.71774E-03     77.2270E-03    -42.1724E+06    -49.5715E+06     28.5944E+06     335.569E+03    -105.577E-03     211.449E-03    -105.872E-03     43.2802E-03    -105.845E-03     211.309E-03    -105.596E-03     42.3656E-03
             437     10.5278E-03     77.2747E-03    -36.5819E+06    -28.0899E+06     36.0620E+06     381.432E+03    -105.444E-03     211.287E-03    -105.842E-03     43.0668E-03    -105.735E-03     211.243E-03    -105.568E-03     42.0810E-03
             438     11.3381E-03     77.3220E-03    -31.1922E+06    -5.66931E+06     43.6921E+06     276.394E+03    -105.337E-03     211.147E-03    -105.810E-03     42.0976E-03    -105.653E-03     211.206E-03    -105.539E-03     41.0339E-03
             439     12.1482E-03     77.3671E-03    -26.0383E+06     20.9552E+06     50.0476E+06     239.718E+03    -105.263E-03     211.031E-03    -105.769E-03     40.0959E-03    -105.608E-03     211.213E-03    -105.511E-03     38.9549E-03
             440     12.9580E-03     77.4102E-03    -20.8191E+06     69.8844E+06     62.7355E+06     142.037E+03    -104.962E-03     210.687E-03    -105.725E-03     36.5073E-03    -105.372E-03     211.089E-03    -105.483E-03     35.3046E-03
             441     13.7690E-03     77.4473E-03    -15.7666E+06     106.392E+06     70.7575E+06     214.450E+03    -104.622E-03     210.292E-03    -105.670E-03     30.8184E-03    -105.065E-03     210.852E-03    -105.448E-03     29.5721E-03
             442     14.5789E-03     77.4769E-03    -10.4674E+06     113.904E+06     79.8681E+06     597.620E+03    -104.461E-03     210.120E-03    -105.659E-03     24.0518E-03    -104.896E-03     210.691E-03    -105.410E-03     22.7375E-03
             443     15.3919E-03     77.4981E-03    -5.21965E+06     116.546E+06     96.7459E+06     191.687E+03    -104.675E-03     210.378E-03    -105.703E-03     12.4475E-03    -105.075E-03     210.893E-03    -105.381E-03     11.3188E-03
             444     809.414E-06     78.0276E-03    -120.348E+06    -247.104E+06    -117.275E+06     172.940E+03    -105.866E-03     211.784E-03    -105.918E-03     6.79102E-03    -105.941E-03     210.894E-03    -105.971E-03     6.69953E-03
             445     1.61911E-03     78.0380E-03    -116.070E+06    -234.433E+06    -104.777E+06     151.395E+03    -105.770E-03     211.676E-03    -105.906E-03     12.0599E-03    -105.863E-03     210.829E-03    -105.922E-03     11.8908E-03
             446     2.42881E-03     78.0543E-03    -109.547E+06    -216.483E+06    -87.7930E+06     126.677E+03    -105.760E-03     211.673E-03    -105.913E-03     17.4531E-03    -105.876E-03     210.886E-03    -105.879E-03     17.2034E-03
             447     3.23831E-03     78.0770E-03    -102.003E+06    -196.439E+06    -69.1649E+06     229.718E+03    -105.710E-03     211.641E-03    -105.931E-03     22.5665E-03    -105.850E-03     210.922E-03    -105.844E-03     22.2376E-03
             448     4.04824E-03     78.1045E-03    -93.6499E+06    -176.232E+06    -50.9672E+06     197.985E+03    -105.665E-03     211.606E-03    -105.941E-03     27.2071E-03    -105.826E-03     210.957E-03    -105.805E-03     26.7989E-03
             449     4.85805E-03     78.1373E-03    -85.2136E+06    -156.052E+06    -34.4063E+06     219.952E+03    -105.677E-03     211.622E-03    -105.945E-03     31.2844E-03    -105.858E-03     211.046E-03    -105.767E-03     30.8003E-03
             450     5.66793E-03     78.1741E-03    -76.9521E+06    -137.399E+06    -19.9917E+06     281.298E+03    -105.696E-03     211.642E-03    -105.946E-03     34.7433E-03    -105.893E-03     211.136E-03    -105.735E-03     34.1851E-03
             451     6.47768E-03     78.2144E-03    -69.0264E+06    -119.424E+06    -7.64140E+06     297.715E+03    -105.679E-03     211.619E-03    -105.940E-03     37.6361E-03    -105.889E-03     211.182E-03    -105.705E-03     37.0055E-03
             452     7.28769E-03     78.2578E-03    -61.6352E+06    -102.283E+06     3.01560E+06     197.692E+03    -105.646E-03     211.573E-03    -105.927E-03     39.9332E-03    -105.869E-03     211.205E-03    -105.674E-03     39.2303E-03
             453     8.09771E-03     78.3029E-03    -54.6978E+06    -85.2344E+06     12.4254E+06     121.700E+03    -105.641E-03     211.550E-03    -105.909E-03     41.6438E-03    -105.878E-03     211.254E-03    -105.644E-03     40.8691E-03
             454     8.90777E-03     78.3500E-03    -48.3921E+06    -67.1864E+06     20.9425E+06     312.607E+03    -105.622E-03     211.511E-03    -105.888E-03     42.7822E-03    -105.875E-03     211.293E-03    -105.616E-03     41.9391E-03
             455     9.71775E-03     78.3977E-03    -42.2512E+06    -49.6343E+06     28.6075E+06     373.468E+03    -105.556E-03     211.422E-03    -105.866E-03     43.2400E-03    -105.824E-03     211.281E-03    -105.589E-03     42.3262E-03
             456     10.5278E-03     78.4455E-03    -36.4724E+06    -28.2510E+06     36.0881E+06     435.094E+03    -105.476E-03     211.312E-03    -105.837E-03     43.0210E-03    -105.766E-03     211.268E-03    -105.562E-03     42.0349E-03
             457     11.3380E-03     78.4923E-03    -31.0302E+06    -5.67325E+06     43.7826E+06     405.583E+03    -105.397E-03     211.206E-03    -105.809E-03     42.0763E-03    -105.712E-03     211.264E-03    -105.537E-03     41.0143E-03
             458     12.1480E-03     78.5385E-03    -25.8694E+06     21.1954E+06     50.2859E+06     248.399E+03    -105.226E-03     210.994E-03    -105.768E-03     40.2254E-03    -105.571E-03     211.176E-03    -105.510E-03     39.0873E-03
             459     12.9586E-03     78.5806E-03    -20.8337E+06     69.9401E+06     62.8168E+06     224.831E+03    -104.912E-03     210.634E-03    -105.722E-03     36.7208E-03    -105.323E-03     211.037E-03    -105.479E-03     35.5204E-03
             460     13.7687E-03     78.6179E-03    -15.6993E+06     106.165E+06     70.5444E+06     265.117E+03    -104.731E-03     210.398E-03    -105.667E-03     30.7403E-03    -105.174E-03     210.957E-03    -105.446E-03     29.4902E-03
             461     14.5799E-03     78.6470E-03    -10.5322E+06     114.025E+06     79.8295E+06     27.2020E+03    -104.744E-03     210.412E-03    -105.668E-03     23.3183E-03    -105.179E-03     210.983E-03    -105.419E-03     21.9885E-03
             462     15.3881E-03     78.6687E-03    -5.18726E+06     116.712E+06     97.0662E+06     30.4264E+03    -104.604E-03     210.323E-03    -105.719E-03     11.6761E-03    -105.003E-03     210.837E-03    -105.396E-03     10.5441E-03
             463     809.550E-06     79.1985E-03    -120.564E+06    -247.490E+06    -117.454E+06     65.5253E+03    -105.820E-03     211.731E-03    -105.910E-03     6.64595E-03    -105.895E-03     210.840E-03    -105.964E-03     6.55395E-03
             464     1.61915E-03     79.2086E-03    -116.041E+06    -234.435E+06    -105.189E+06     150.099E+03    -105.796E-03     211.684E-03    -105.888E-03     12.0287E-03    -105.888E-03     210.837E-03    -105.906E-03     11.8594E-03
             465     2.42865E-03     79.2254E-03    -109.833E+06    -216.658E+06    -88.1059E+06     209.776E+03    -105.740E-03     211.644E-03    -105.904E-03     17.4613E-03    -105.856E-03     210.857E-03    -105.871E-03     17.2125E-03
             466     3.23855E-03     79.2474E-03    -102.085E+06    -196.590E+06    -69.2573E+06     213.836E+03    -105.692E-03     211.612E-03    -105.920E-03     22.5355E-03    -105.832E-03     210.893E-03    -105.833E-03     22.2066E-03
             467     4.04822E-03     79.2754E-03    -93.7074E+06    -176.197E+06    -50.9409E+06     246.677E+03    -105.684E-03     211.617E-03    -105.933E-03     27.1856E-03    -105.846E-03     210.968E-03    -105.796E-03     26.7783E-03
             468     4.85801E-03     79.3080E-03    -85.1656E+06    -156.181E+06    -34.2833E+06     299.028E+03    -105.683E-03     211.624E-03    -105.941E-03     31.2711E-03    -105.863E-03     211.047E-03    -105.762E-03     30.7879E-03
             469     5.66788E-03     79.3449E-03    -76.8632E+06    -137.418E+06    -19.8825E+06     283.873E+03    -105.678E-03     211.620E-03    -105.941E-03     34.7485E-03    -105.874E-03     211.113E-03    -105.730E-03     34.1907E-03
             470     6.47782E-03     79.3853E-03    -68.9223E+06    -119.385E+06    -7.57636E+06     217.219E+03    -105.669E-03     211.603E-03    -105.934E-03     37.6438E-03    -105.879E-03     211.166E-03    -105.699E-03     37.0124E-03
             471     7.28779E-03     79.4282E-03    -61.4025E+06    -102.297E+06     3.08617E+06     287.079E+03    -105.654E-03     211.575E-03    -105.921E-03     39.9220E-03    -105.876E-03     211.207E-03    -105.668E-03     39.2202E-03
             472     8.09777E-03     79.4739E-03    -54.7291E+06    -85.2815E+06     12.4696E+06     421.529E+03    -105.646E-03     211.551E-03    -105.904E-03     41.6376E-03    -105.883E-03     211.254E-03    -105.639E-03     40.8671E-03
             473     8.90770E-03     79.5206E-03    -48.3259E+06    -67.2147E+06     21.0408E+06     302.942E+03    -105.600E-03     211.484E-03    -105.884E-03     42.7575E-03    -105.853E-03     211.265E-03    -105.611E-03     41.9150E-03
             474     9.71783E-03     79.5685E-03    -42.2405E+06    -49.6422E+06     28.6783E+06     292.200E+03    -105.530E-03     211.389E-03    -105.860E-03     43.2240E-03    -105.798E-03     211.248E-03    -105.583E-03     42.3096E-03
             475     10.5280E-03     79.6160E-03    -36.3777E+06    -28.5247E+06     36.0833E+06     352.418E+03    -105.497E-03     211.328E-03    -105.831E-03     43.1077E-03    -105.787E-03     211.283E-03    -105.556E-03     42.1211E-03
             476     11.3379E-03     79.6636E-03    -30.8642E+06    -5.54883E+06     43.8638E+06     418.232E+03    -105.407E-03     211.211E-03    -105.804E-03     42.1852E-03    -105.722E-03     211.269E-03    -105.532E-03     41.1247E-03
             477     12.1483E-03     79.7085E-03    -25.7052E+06     21.6365E+06     50.5437E+06     390.760E+03    -105.209E-03     210.973E-03    -105.764E-03     40.0986E-03    -105.554E-03     211.157E-03    -105.505E-03     38.9628E-03
             478     12.9586E-03     79.7514E-03    -20.5226E+06     69.2615E+06     62.6090E+06     306.876E+03    -104.944E-03     210.661E-03    -105.717E-03     36.4240E-03    -105.351E-03     211.060E-03    -105.475E-03     35.2250E-03
             479     13.7691E-03     79.7886E-03    -15.3202E+06     106.455E+06      70.876E+06     298.126E+03    -104.888E-03     210.557E-03    -105.670E-03     30.8837E-03    -105.330E-03     211.117E-03    -105.447E-03     29.6316E-03
             480     14.5780E-03     79.8185E-03    -10.4827E+06     114.497E+06     80.0686E+06     272.846E+03    -104.859E-03     210.536E-03    -105.677E-03     24.2064E-03    -105.297E-03     211.111E-03    -105.428E-03     22.8764E-03
             481     15.3896E-03     79.8402E-03    -5.22547E+06     116.612E+06     96.8924E+06     48.8984E+03    -104.452E-03     210.178E-03    -105.726E-03     12.4827E-03    -104.854E-03     210.694E-03    -105.403E-03     11.3491E-03
             482     809.581E-06     80.3692E-03    -120.004E+06    -247.443E+06    -117.177E+06     69.6339E+03    -105.876E-03     211.708E-03    -105.833E-03     6.59911E-03    -105.948E-03     210.816E-03    -105.886E-03     6.50699E-03
             483     1.61905E-03     80.3796E-03    -116.047E+06    -234.737E+06    -105.263E+06     72.0457E+03    -105.766E-03     211.639E-03    -105.872E-03     12.0169E-03    -105.858E-03     210.790E-03    -105.890E-03     11.8468E-03
             484     2.42888E-03     80.3959E-03    -109.655E+06    -216.851E+06    -88.1400E+06     224.441E+03    -105.722E-03     211.607E-03    -105.885E-03     17.5023E-03    -105.837E-03     210.818E-03    -105.852E-03     17.2540E-03
             485     3.23843E-03     80.4183E-03    -101.985E+06    -196.546E+06    -69.1229E+06     228.116E+03    -105.723E-03     211.629E-03    -105.907E-03     22.5520E-03    -105.862E-03     210.910E-03    -105.820E-03     22.2233E-03
             486     4.04824E-03     80.4460E-03    -93.5340E+06    -176.243E+06    -50.6556E+06     193.626E+03    -105.703E-03     211.631E-03    -105.928E-03     27.1875E-03    -105.864E-03     210.981E-03    -105.790E-03     26.7796E-03
             487     4.85810E-03     80.4788E-03    -84.9877E+06    -156.338E+06    -34.2187E+06     249.529E+03    -105.675E-03     211.612E-03    -105.937E-03     31.2804E-03    -105.854E-03     211.034E-03    -105.758E-03     30.7968E-03
             488     5.66792E-03     80.5156E-03    -76.8596E+06    -137.451E+06    -20.0168E+06     341.884E+03    -105.655E-03     211.590E-03    -105.935E-03     34.7481E-03    -105.851E-03     211.083E-03    -105.724E-03     34.1914E-03
             489     6.47788E-03     80.5558E-03    -68.9706E+06    -119.349E+06    -7.55060E+06     333.656E+03    -105.657E-03     211.584E-03    -105.927E-03     37.6284E-03    -105.867E-03     211.147E-03    -105.691E-03     36.9990E-03
             490     7.28775E-03     80.5992E-03    -61.6671E+06    -102.560E+06     3.07896E+06     430.646E+03    -105.672E-03     211.587E-03    -105.915E-03     39.9244E-03    -105.895E-03     211.218E-03    -105.662E-03     39.2250E-03
             491     8.09774E-03     80.6443E-03    -54.7318E+06    -85.2485E+06     12.5663E+06     467.519E+03    -105.639E-03     211.539E-03    -105.900E-03     41.6614E-03    -105.876E-03     211.243E-03    -105.634E-03     40.8922E-03
             492     8.90784E-03     80.6916E-03    -48.2148E+06    -67.0350E+06     21.1714E+06     422.711E+03    -105.577E-03     211.455E-03    -105.878E-03     42.7406E-03    -105.830E-03     211.237E-03    -105.605E-03     41.8999E-03
             493     9.71793E-03     80.7388E-03    -42.1658E+06    -49.6671E+06     28.7362E+06     309.765E+03    -105.546E-03     211.400E-03    -105.854E-03     43.2175E-03    -105.814E-03     211.259E-03    -105.577E-03     42.3037E-03
             494     10.5279E-03     80.7871E-03    -36.4532E+06    -28.4922E+06     36.1031E+06     229.417E+03    -105.458E-03     211.283E-03    -105.825E-03     43.0837E-03    -105.748E-03     211.237E-03    -105.550E-03     42.0976E-03
             495     11.3383E-03     80.8338E-03    -30.9410E+06    -5.63830E+06     43.8671E+06     327.117E+03    -105.375E-03     211.171E-03    -105.796E-03     42.1672E-03    -105.690E-03     211.229E-03    -105.523E-03     41.1063E-03
             496     12.1482E-03     80.8798E-03    -25.7352E+06     21.3371E+06     50.4209E+06     525.365E+03    -105.325E-03     211.084E-03    -105.759E-03     40.1399E-03    -105.670E-03     211.267E-03    -105.500E-03     39.0039E-03
             497     12.9582E-03     80.9218E-03      -20.83E+06     69.5450E+06     62.7517E+06     365.792E+03    -105.049E-03     210.770E-03    -105.720E-03     36.4980E-03    -105.458E-03     211.170E-03    -105.477E-03     35.2982E-03
             498     13.7686E-03     80.9594E-03    -15.6408E+06     106.514E+06     70.8293E+06     253.037E+03    -104.697E-03     210.366E-03    -105.670E-03     31.0913E-03    -105.140E-03     210.927E-03    -105.447E-03     29.8432E-03
             499     14.5800E-03     80.9896E-03    -10.1405E+06     114.794E+06     80.4256E+06     244.642E+03    -104.483E-03     210.145E-03    -105.662E-03     24.1709E-03    -104.920E-03     210.721E-03    -105.412E-03     22.8462E-03
             500     15.3898E-03     81.0099E-03    -5.18766E+06     116.919E+06     97.0854E+06     42.8870E+03    -104.628E-03     210.334E-03    -105.706E-03     12.2285E-03    -105.029E-03     210.850E-03    -105.383E-03     11.0928E-03
             501     809.447E-06     81.5402E-03    -120.181E+06    -247.846E+06    -117.113E+06     163.171E+03    -105.848E-03     211.612E-03    -105.763E-03     6.57580E-03    -105.921E-03     210.718E-03    -105.815E-03     6.48495E-03
             502     1.61926E-03     81.5501E-03    -115.965E+06    -234.566E+06    -104.809E+06     191.581E+03    -105.754E-03     211.587E-03    -105.833E-03     12.0456E-03    -105.847E-03     210.739E-03    -105.849E-03     11.8780E-03
             503     2.42883E-03     81.5667E-03    -109.640E+06    -216.966E+06    -88.0396E+06     72.2523E+03    -105.754E-03     211.615E-03    -105.861E-03     17.5073E-03    -105.869E-03     210.825E-03    -105.827E-03     17.2568E-03
             504     3.23861E-03     81.5891E-03    -101.736E+06    -196.680E+06    -69.0923E+06     157.684E+03    -105.734E-03     211.628E-03    -105.894E-03     22.5598E-03    -105.872E-03     210.908E-03    -105.807E-03     22.2305E-03
             505     4.04829E-03     81.6168E-03    -93.3982E+06    -176.317E+06    -50.6692E+06     269.093E+03    -105.706E-03     211.626E-03    -105.919E-03     27.1898E-03    -105.867E-03     210.975E-03    -105.782E-03     26.7832E-03
             506     4.85802E-03     81.6495E-03    -85.1167E+06    -156.528E+06    -34.3663E+06     389.722E+03    -105.671E-03     211.600E-03    -105.930E-03     31.2681E-03    -105.851E-03     211.022E-03    -105.751E-03     30.7867E-03
             507     5.66801E-03     81.6862E-03    -76.6803E+06    -137.454E+06    -19.8600E+06     387.192E+03    -105.659E-03     211.588E-03    -105.929E-03     34.7355E-03    -105.854E-03     211.081E-03    -105.718E-03     34.1798E-03
             508     6.47785E-03     81.7268E-03    -68.9670E+06    -119.483E+06    -7.47711E+06     422.594E+03    -105.657E-03     211.579E-03    -105.922E-03     37.6184E-03    -105.867E-03     211.141E-03    -105.686E-03     36.9907E-03
             509     7.28792E-03     81.7697E-03    -61.6346E+06    -102.676E+06     3.12091E+06     422.136E+03    -105.651E-03     211.561E-03    -105.910E-03     39.9280E-03    -105.874E-03     211.191E-03    -105.656E-03     39.2291E-03
             510     8.09784E-03     81.8154E-03    -54.5667E+06    -85.3984E+06     12.6278E+06      550.58E+03    -105.623E-03     211.516E-03    -105.893E-03     41.6213E-03    -105.859E-03     211.218E-03    -105.627E-03     40.8536E-03
             511     8.90788E-03     81.8618E-03    -48.1709E+06    -66.9777E+06     21.2645E+06     563.347E+03    -105.592E-03     211.464E-03    -105.872E-03     42.7416E-03    -105.845E-03     211.246E-03    -105.599E-03     41.9031E-03
             512     9.71790E-03     81.9100E-03    -42.0758E+06    -49.4309E+06     28.9129E+06     339.329E+03    -105.555E-03     211.404E-03    -105.849E-03     43.2293E-03    -105.823E-03     211.263E-03    -105.572E-03     42.3162E-03
             513     10.5281E-03     81.9573E-03    -36.3669E+06    -28.3342E+06     36.2696E+06     312.715E+03    -105.467E-03     211.289E-03    -105.821E-03     43.0252E-03    -105.757E-03     211.244E-03    -105.546E-03     42.0400E-03
             514     11.3381E-03     82.0048E-03    -31.1311E+06    -5.88939E+06     43.7233E+06     358.482E+03    -105.350E-03     211.142E-03    -105.792E-03     42.1395E-03    -105.666E-03     211.199E-03    -105.519E-03     41.0802E-03
             515     12.1485E-03     82.0503E-03    -25.9564E+06     21.0025E+06     50.3480E+06     493.867E+03    -105.239E-03     210.991E-03    -105.752E-03     40.2631E-03    -105.584E-03     211.173E-03    -105.493E-03     39.1285E-03
             516     12.9587E-03     82.0930E-03    -20.6455E+06     70.0353E+06     63.1321E+06     590.211E+03    -105.099E-03     210.812E-03    -105.713E-03     36.7382E-03    -105.509E-03     211.214E-03    -105.469E-03     35.5392E-03
             517     13.7688E-03     82.1299E-03    -15.5912E+06     107.046E+06     71.1485E+06     145.286E+03    -104.853E-03     210.521E-03    -105.668E-03     30.8191E-03    -105.297E-03     211.084E-03    -105.445E-03     29.5649E-03
             518     14.5789E-03     82.1593E-03    -10.6792E+06     114.459E+06     80.0644E+06    -26.0438E+03    -104.642E-03     210.310E-03    -105.669E-03     23.3631E-03    -105.078E-03     210.883E-03    -105.419E-03     22.0355E-03
             519     15.3900E-03     82.1814E-03    -5.38370E+06     116.891E+06     96.8668E+06     181.150E+03    -104.535E-03     210.249E-03    -105.714E-03     11.6337E-03    -104.935E-03     210.764E-03    -105.392E-03     10.5070E-03
             520     809.806E-06     82.7106E-03    -120.259E+06    -248.125E+06    -117.154E+06     98.5452E+03    -105.721E-03     211.485E-03    -105.764E-03     6.54270E-03    -105.794E-03     210.590E-03    -105.816E-03     6.45161E-03
             521     1.61928E-03     82.7209E-03    -115.814E+06    -234.678E+06    -104.909E+06     126.279E+03    -105.803E-03     211.594E-03    -105.791E-03     12.0634E-03    -105.894E-03     210.745E-03    -105.807E-03     11.8936E-03
             522     2.42889E-03     82.7374E-03    -109.421E+06    -216.870E+06    -87.8235E+06     159.408E+03    -105.777E-03     211.626E-03    -105.848E-03     17.4798E-03    -105.892E-03     210.836E-03    -105.814E-03     17.2309E-03
             523     3.23852E-03     82.7597E-03    -101.863E+06    -196.912E+06    -69.1433E+06     177.345E+03    -105.717E-03     211.604E-03    -105.887E-03     22.5461E-03    -105.856E-03     210.882E-03    -105.799E-03     22.2177E-03
             524     4.04832E-03     82.7877E-03     -93.589E+06    -176.590E+06    -50.9050E+06     399.044E+03    -105.691E-03     211.600E-03    -105.909E-03     27.1733E-03    -105.852E-03     210.949E-03    -105.772E-03     26.7690E-03
             525     4.85822E-03     82.8201E-03    -84.8769E+06    -156.529E+06    -34.1380E+06     368.117E+03    -105.684E-03     211.606E-03    -105.922E-03     31.2492E-03    -105.863E-03     211.027E-03    -105.743E-03     30.7676E-03
             526     5.66794E-03     82.8571E-03    -76.7437E+06    -137.665E+06    -19.8498E+06     448.431E+03    -105.664E-03     211.589E-03    -105.924E-03     34.7250E-03    -105.860E-03     211.080E-03    -105.712E-03     34.1699E-03
             527     6.47796E-03     82.8972E-03    -68.9617E+06    -119.499E+06    -7.38932E+06     541.068E+03    -105.653E-03     211.571E-03    -105.918E-03     37.6260E-03    -105.863E-03     211.133E-03    -105.681E-03     37.0001E-03
             528     7.28777E-03     82.9407E-03    -61.4848E+06    -102.657E+06     3.29716E+06     530.838E+03    -105.633E-03     211.538E-03    -105.905E-03     39.9109E-03    -105.855E-03     211.168E-03    -105.651E-03     39.2138E-03
             529     8.09791E-03     82.9857E-03    -54.6147E+06    -85.6786E+06     12.5745E+06     474.569E+03    -105.612E-03     211.499E-03    -105.887E-03     41.6087E-03    -105.847E-03     211.200E-03    -105.621E-03     40.8403E-03
             530     8.90793E-03     83.0329E-03    -47.9643E+06    -67.0642E+06     21.2964E+06     531.476E+03    -105.595E-03     211.460E-03    -105.866E-03     42.7600E-03    -105.846E-03     211.242E-03    -105.593E-03     41.9217E-03
             531     9.71802E-03     83.0803E-03    -41.9614E+06    -49.2231E+06     29.0576E+06     590.122E+03    -105.556E-03     211.400E-03    -105.844E-03     43.2348E-03    -105.824E-03     211.260E-03    -105.567E-03     42.3254E-03
             532     10.5280E-03     83.1283E-03    -36.4532E+06    -28.2555E+06     36.3060E+06     465.648E+03    -105.492E-03     211.309E-03    -105.817E-03     43.0523E-03    -105.782E-03     211.264E-03    -105.542E-03     42.0687E-03
             533     11.3382E-03     83.1753E-03    -30.9978E+06    -5.81110E+06     43.8920E+06     463.766E+03    -105.359E-03     211.149E-03    -105.790E-03     42.1140E-03    -105.674E-03     211.206E-03    -105.517E-03     41.0550E-03
             534     12.1485E-03     83.2209E-03    -25.7266E+06     20.8848E+06     50.4446E+06     410.889E+03    -105.206E-03     210.955E-03    -105.749E-03     40.1683E-03    -105.550E-03     211.135E-03    -105.490E-03     39.0324E-03
             535     12.9588E-03     83.2636E-03    -20.4946E+06     69.9697E+06     63.1556E+06     250.962E+03    -105.063E-03     210.771E-03    -105.708E-03     36.6367E-03    -105.472E-03     211.172E-03    -105.464E-03     35.4361E-03
             536     13.7689E-03     83.3013E-03    -15.3866E+06     107.161E+06     71.2853E+06     521.100E+03    -104.988E-03     210.654E-03    -105.666E-03     30.8561E-03    -105.431E-03     211.217E-03    -105.443E-03     29.6091E-03
             537     14.5788E-03     83.3305E-03    -10.5219E+06     114.637E+06     80.0773E+06     425.298E+03    -104.759E-03     210.432E-03    -105.673E-03     24.1069E-03    -105.197E-03     211.007E-03    -105.424E-03     22.7808E-03
             538     15.3883E-03     83.3518E-03    -5.18363E+06     117.200E+06     97.0531E+06    -4.88623E+03    -104.433E-03     210.152E-03    -105.719E-03     12.5096E-03    -104.835E-03     210.671E-03    -105.396E-03     11.3724E-03
             539     809.606E-06     83.8811E-03    -119.728E+06    -248.061E+06    -117.071E+06    -126.196E+03    -105.800E-03     211.548E-03    -105.749E-03     6.61351E-03    -105.870E-03     210.653E-03    -105.801E-03     6.51748E-03
             540     1.61926E-03     83.8917E-03    -115.768E+06    -235.018E+06    -105.083E+06     82.7976E+03    -105.787E-03     211.599E-03    -105.812E-03     11.9969E-03    -105.877E-03     210.749E-03    -105.829E-03     11.8285E-03
             541     2.42889E-03     83.9081E-03    -109.505E+06    -217.027E+06    -87.9257E+06     255.308E+03    -105.732E-03     211.584E-03    -105.852E-03     17.4208E-03    -105.846E-03     210.794E-03    -105.818E-03     17.1739E-03
             542     3.23861E-03     83.9306E-03    -101.919E+06    -197.066E+06    -69.0292E+06     353.613E+03    -105.705E-03     211.587E-03    -105.882E-03     22.5457E-03    -105.844E-03     210.865E-03    -105.794E-03     22.2192E-03
             543     4.04839E-03     83.9581E-03    -93.4105E+06    -176.747E+06    -50.6948E+06     283.600E+03    -105.697E-03     211.603E-03    -105.905E-03     27.1504E-03    -105.857E-03     210.951E-03    -105.767E-03     26.7445E-03
             544     4.85808E-03     83.9911E-03    -85.0098E+06    -156.670E+06    -34.2531E+06     436.882E+03    -105.665E-03     211.582E-03    -105.917E-03     31.1965E-03    -105.844E-03     211.002E-03    -105.738E-03     30.7161E-03
             545     5.66809E-03     84.0275E-03    -76.7614E+06    -137.828E+06    -19.7723E+06     505.062E+03    -105.647E-03     211.565E-03    -105.918E-03     34.7289E-03    -105.843E-03     211.056E-03    -105.706E-03     34.1750E-03
             546     6.47790E-03     84.0682E-03    -68.7640E+06    -119.612E+06    -7.23656E+06     559.343E+03    -105.639E-03     211.549E-03    -105.910E-03     37.6581E-03    -105.848E-03     211.110E-03    -105.673E-03     37.0326E-03
             547     7.28802E-03     84.1111E-03    -61.4209E+06    -102.684E+06     3.34673E+06     604.817E+03    -105.627E-03     211.524E-03    -105.897E-03     39.9376E-03    -105.848E-03     211.153E-03    -105.642E-03     39.2417E-03
             548     8.09792E-03     84.1566E-03    -54.4188E+06    -85.5411E+06     12.7442E+06     503.304E+03    -105.620E-03     211.499E-03    -105.880E-03     41.6612E-03    -105.855E-03     211.200E-03    -105.613E-03     40.8933E-03
             549     8.90798E-03     84.2033E-03    -48.0937E+06    -67.3520E+06     21.2031E+06     582.859E+03    -105.593E-03     211.452E-03    -105.859E-03     42.7743E-03    -105.844E-03     211.232E-03    -105.586E-03     41.9368E-03
             550     9.71806E-03     84.2512E-03    -42.0223E+06    -49.3673E+06     28.9792E+06     685.730E+03    -105.557E-03     211.395E-03    -105.838E-03     43.2518E-03    -105.825E-03     211.254E-03    -105.560E-03     42.3439E-03
             551     10.5282E-03     84.2989E-03    -36.2426E+06    -27.9158E+06     36.5980E+06     648.574E+03    -105.485E-03     211.296E-03    -105.812E-03     43.0689E-03    -105.775E-03     211.253E-03    -105.536E-03     42.0877E-03
             552     11.3383E-03     84.3460E-03    -30.7149E+06    -5.63589E+06     44.1599E+06     398.048E+03    -105.418E-03     211.204E-03    -105.786E-03     42.1106E-03    -105.732E-03     211.261E-03    -105.513E-03     41.0494E-03
             553     12.1484E-03     84.3916E-03    -25.3513E+06     20.8155E+06     50.5803E+06     242.113E+03    -105.329E-03     211.080E-03    -105.751E-03     40.1830E-03    -105.671E-03     211.259E-03    -105.492E-03     39.0431E-03
             554     12.9585E-03     84.4344E-03    -20.4693E+06     69.7784E+06     63.1499E+06     496.272E+03    -105.055E-03     210.768E-03    -105.714E-03     36.6969E-03    -105.463E-03     211.169E-03    -105.469E-03     35.4988E-03
             555     13.7689E-03     84.4721E-03    -15.6344E+06     106.991E+06     71.0703E+06     404.685E+03    -104.825E-03     210.491E-03    -105.666E-03     30.7916E-03    -105.270E-03     211.054E-03    -105.444E-03     29.5408E-03
             556     14.5796E-03     84.5013E-03    -10.3665E+06     114.936E+06     80.2892E+06     358.240E+03    -104.672E-03     210.339E-03    -105.667E-03     23.3929E-03    -105.109E-03     210.914E-03    -105.417E-03     22.0652E-03
             557     15.3911E-03     84.5222E-03    -5.22754E+06     117.633E+06     97.3106E+06     333.335E+03    -104.549E-03     210.264E-03    -105.715E-03     11.7910E-03    -104.951E-03     210.783E-03    -105.392E-03     10.6590E-03
             558     809.533E-06     85.0520E-03    -120.086E+06    -248.281E+06    -116.933E+06     134.171E+03    -105.910E-03     211.657E-03    -105.746E-03     6.75849E-03    -105.983E-03     210.760E-03    -105.797E-03     6.66534E-03
             559     1.61910E-03     85.0622E-03    -115.838E+06    -235.055E+06    -104.894E+06     155.816E+03    -105.748E-03     211.596E-03    -105.848E-03     12.0458E-03    -105.838E-03     210.745E-03    -105.864E-03     11.8781E-03
             560     2.42882E-03     85.0789E-03    -109.557E+06    -217.292E+06    -87.9009E+06     222.255E+03    -105.708E-03     211.571E-03    -105.863E-03     17.4412E-03    -105.822E-03     210.780E-03    -105.829E-03     17.1936E-03
             561     3.23864E-03     85.1010E-03    -101.738E+06    -197.126E+06    -68.9500E+06     292.492E+03    -105.706E-03     211.593E-03    -105.887E-03     22.4992E-03    -105.844E-03     210.870E-03    -105.798E-03     22.1725E-03
             562     4.04828E-03     85.1292E-03    -93.5276E+06    -176.928E+06    -50.7360E+06     412.654E+03    -105.657E-03     211.563E-03    -105.906E-03     27.1096E-03    -105.817E-03     210.910E-03    -105.767E-03     26.7056E-03
             563     4.85823E-03     85.1614E-03    -85.0750E+06    -156.895E+06    -34.2050E+06     442.923E+03    -105.627E-03     211.538E-03    -105.911E-03     31.2355E-03    -105.806E-03     210.957E-03    -105.731E-03     30.7551E-03
             564     5.66805E-03     85.1985E-03    -76.7276E+06    -137.854E+06    -19.6890E+06     464.352E+03    -105.634E-03     211.543E-03    -105.909E-03     34.7549E-03    -105.829E-03     211.033E-03    -105.696E-03     34.2010E-03
             565     6.47809E-03     85.2386E-03    -68.7169E+06    -119.849E+06    -7.28860E+06     502.704E+03    -105.636E-03     211.537E-03    -105.901E-03     37.6279E-03    -105.844E-03     211.097E-03    -105.664E-03     37.0020E-03
             566     7.28797E-03     85.2819E-03    -61.2189E+06    -102.814E+06     3.36934E+06     617.000E+03    -105.637E-03     211.526E-03    -105.889E-03     39.8870E-03    -105.857E-03     211.154E-03    -105.634E-03     39.1910E-03
             567     8.09805E-03     85.3271E-03    -54.5634E+06    -85.5039E+06     12.7729E+06     754.383E+03    -105.621E-03     211.494E-03    -105.873E-03     41.5979E-03    -105.856E-03     211.196E-03    -105.606E-03     40.8334E-03
             568     8.90808E-03     85.3741E-03    -48.0122E+06    -67.3341E+06     21.3918E+06     611.197E+03    -105.596E-03     211.451E-03    -105.854E-03     42.7483E-03    -105.848E-03     211.231E-03    -105.580E-03     41.9109E-03
             569     9.71810E-03     85.4218E-03    -41.8959E+06    -49.5143E+06     29.0688E+06     675.583E+03    -105.550E-03     211.383E-03    -105.833E-03     43.2240E-03    -105.818E-03     211.242E-03    -105.555E-03     42.3158E-03
             570     10.5282E-03     85.4696E-03    -36.1936E+06    -28.0998E+06     36.5472E+06     726.950E+03    -105.482E-03     211.289E-03    -105.807E-03     43.0428E-03    -105.772E-03     211.244E-03    -105.531E-03     42.0628E-03
             571     11.3383E-03     85.5168E-03    -30.9782E+06    -5.30809E+06     44.1988E+06     628.897E+03    -105.429E-03     211.211E-03    -105.782E-03     42.1948E-03    -105.746E-03     211.271E-03    -105.508E-03     41.1369E-03
             572     12.1484E-03     85.5625E-03    -26.2006E+06     21.2122E+06     50.5048E+06     390.249E+03    -105.343E-03     211.092E-03    -105.748E-03     40.3749E-03    -105.691E-03     211.275E-03    -105.489E-03     39.2358E-03
             573     12.9585E-03     85.6052E-03    -20.8492E+06     69.3197E+06     62.8300E+06     384.901E+03    -105.051E-03     210.762E-03    -105.710E-03     36.9059E-03    -105.461E-03     211.162E-03    -105.467E-03     35.7037E-03
             574     13.7688E-03     85.6427E-03    -15.4682E+06     107.233E+06     71.2578E+06     697.960E+03    -104.839E-03     210.503E-03    -105.664E-03     31.1391E-03    -105.284E-03     211.067E-03    -105.441E-03     29.8903E-03
             575     14.5786E-03     85.6723E-03    -10.9683E+06     115.122E+06     80.1960E+06     334.800E+03    -104.768E-03     210.436E-03    -105.668E-03     23.6321E-03    -105.209E-03     211.014E-03    -105.418E-03     22.3027E-03
             576     15.3876E-03     85.6928E-03    -5.52409E+06     117.700E+06     97.1752E+06     185.977E+03    -104.529E-03     210.246E-03    -105.717E-03     12.0409E-03    -104.932E-03     210.766E-03    -105.394E-03     10.9089E-03
             577     809.586E-06     86.2226E-03    -120.232E+06    -248.467E+06    -117.396E+06     29.8415E+03    -105.851E-03     211.654E-03    -105.803E-03     6.67645E-03    -105.923E-03     210.758E-03    -105.855E-03     6.58366E-03
             578     1.61921E-03     86.2330E-03    -115.970E+06    -235.327E+06    -104.893E+06     144.106E+03    -105.744E-03     211.591E-03    -105.848E-03     12.0469E-03    -105.834E-03     210.739E-03    -105.863E-03     11.8777E-03
             579     2.42893E-03     86.2493E-03    -109.538E+06    -217.356E+06    -87.8570E+06     223.539E+03    -105.741E-03     211.607E-03    -105.867E-03     17.5065E-03    -105.855E-03     210.816E-03    -105.832E-03     17.2588E-03
             580     3.23842E-03     86.2721E-03    -101.895E+06    -197.310E+06    -69.0027E+06     289.340E+03    -105.671E-03     211.562E-03    -105.890E-03     22.5421E-03    -105.810E-03     210.838E-03    -105.801E-03     22.2149E-03
             581     4.04839E-03     86.2994E-03    -93.4924E+06    -177.172E+06    -50.7217E+06     340.512E+03    -105.615E-03     211.516E-03    -105.901E-03     27.1412E-03    -105.775E-03     210.862E-03    -105.762E-03     26.7365E-03
             582     4.85825E-03     86.3323E-03    -84.9031E+06    -157.009E+06    -34.1021E+06     481.531E+03    -105.636E-03     211.539E-03    -105.904E-03     31.2246E-03    -105.814E-03     210.958E-03    -105.723E-03     30.7456E-03
             583     5.66818E-03     86.3689E-03    -76.6038E+06    -137.886E+06    -19.6883E+06     513.229E+03    -105.646E-03     211.550E-03    -105.904E-03     34.6668E-03    -105.840E-03     211.040E-03    -105.691E-03     34.1136E-03
             584     6.47805E-03     86.4093E-03    -68.7977E+06    -120.141E+06    -7.35294E+06     617.485E+03    -105.639E-03     211.537E-03    -105.898E-03     37.5608E-03    -105.847E-03     211.096E-03    -105.661E-03     36.9362E-03
             585     7.28805E-03     86.4525E-03    -61.5010E+06    -102.989E+06     3.30977E+06     738.581E+03    -105.642E-03     211.529E-03    -105.887E-03     39.8582E-03    -105.863E-03     211.157E-03    -105.632E-03     39.1636E-03
             586     8.09799E-03     86.4978E-03    -54.3480E+06    -85.3931E+06     12.9555E+06     577.170E+03    -105.629E-03     211.501E-03    -105.872E-03     41.5622E-03    -105.864E-03     211.203E-03    -105.605E-03     40.7947E-03
             587     8.90803E-03     86.5448E-03    -47.7914E+06    -67.3665E+06     21.5105E+06     607.557E+03    -105.581E-03     211.434E-03    -105.853E-03     42.7001E-03    -105.831E-03     211.213E-03    -105.579E-03     41.8627E-03
             588     9.71816E-03     86.5924E-03    -41.7292E+06    -49.8734E+06     29.0496E+06     755.004E+03    -105.540E-03     211.370E-03    -105.831E-03     43.2020E-03    -105.805E-03     211.226E-03    -105.552E-03     42.2951E-03
             589     10.5282E-03     86.6403E-03    -36.1527E+06    -28.2368E+06     36.5463E+06     997.811E+03    -105.486E-03     211.290E-03    -105.804E-03     43.0452E-03    -105.775E-03     211.245E-03    -105.528E-03     42.0689E-03
             590     11.3384E-03     86.6874E-03    -30.9939E+06    -5.29807E+06     44.2650E+06     1.11335E+06    -105.402E-03     211.181E-03    -105.779E-03     42.1919E-03    -105.719E-03     211.241E-03    -105.505E-03     41.1406E-03
             591     12.1486E-03     86.7333E-03    -26.0524E+06     21.4462E+06     50.6471E+06     874.938E+03    -105.235E-03     210.976E-03    -105.741E-03     40.3064E-03    -105.582E-03     211.160E-03    -105.481E-03     39.1767E-03
             592     12.9589E-03     86.7759E-03    -21.4024E+06     69.6221E+06     62.8363E+06     541.149E+03    -104.929E-03     210.626E-03    -105.697E-03     36.9129E-03    -105.342E-03     211.028E-03    -105.453E-03     35.7171E-03
             593     13.7692E-03     86.8134E-03    -16.4371E+06     106.905E+06     70.9155E+06     633.965E+03    -104.698E-03     210.342E-03    -105.643E-03     31.5453E-03    -105.148E-03     210.907E-03    -105.420E-03     30.3015E-03
             594     14.5798E-03     86.8435E-03    -10.8863E+06     115.941E+06     80.4738E+06     474.179E+03    -104.640E-03     210.280E-03    -105.640E-03     24.3717E-03    -105.083E-03     210.863E-03    -105.390E-03     23.0469E-03
             595     15.3913E-03     86.8635E-03    -5.57928E+06     118.253E+06     97.1853E+06    -86.8506E+03    -104.824E-03     210.519E-03    -105.694E-03     12.6018E-03    -105.230E-03     211.043E-03    -105.372E-03     11.4622E-03
             596     809.465E-06     87.3934E-03    -120.483E+06    -248.530E+06    -117.122E+06    -27.0393E+03    -105.799E-03     211.615E-03    -105.817E-03     6.61329E-03    -105.872E-03     210.719E-03    -105.867E-03     6.52112E-03
             597     1.61924E-03     87.4034E-03    -115.993E+06    -235.535E+06    -105.051E+06     116.443E+03    -105.777E-03     211.615E-03    -105.838E-03     12.0738E-03    -105.867E-03     210.762E-03    -105.854E-03     11.9055E-03
             598     2.42872E-03     87.4204E-03    -109.615E+06    -217.506E+06    -87.9491E+06     188.778E+03    -105.706E-03     211.569E-03    -105.863E-03     17.4869E-03    -105.820E-03     210.777E-03    -105.828E-03     17.2382E-03
             599     3.23871E-03     87.4424E-03    -101.867E+06    -197.543E+06    -69.0463E+06     274.421E+03    -105.637E-03     211.515E-03    -105.879E-03     22.5261E-03    -105.774E-03     210.790E-03    -105.790E-03     22.1985E-03
             600     4.04845E-03     87.4703E-03    -93.4577E+06    -177.226E+06    -50.6313E+06     351.128E+03    -105.661E-03     211.554E-03    -105.892E-03     27.1343E-03    -105.821E-03     210.899E-03    -105.753E-03     26.7297E-03
             601     4.85822E-03     87.5028E-03    -84.9511E+06    -157.216E+06    -34.2474E+06     360.549E+03    -105.659E-03     211.561E-03    -105.902E-03     31.1933E-03    -105.837E-03     210.979E-03    -105.722E-03     30.7126E-03
             602     5.66807E-03     87.5397E-03    -76.6586E+06    -138.216E+06    -19.8403E+06     573.349E+03    -105.645E-03     211.548E-03    -105.904E-03     34.6748E-03    -105.838E-03     211.037E-03    -105.691E-03     34.1219E-03
             603     6.47803E-03     87.5799E-03    -68.8311E+06    -120.278E+06    -7.30320E+06     699.337E+03    -105.646E-03     211.545E-03    -105.899E-03     37.5638E-03    -105.855E-03     211.104E-03    -105.661E-03     36.9400E-03
             604     7.28802E-03     87.6231E-03    -61.1610E+06    -102.918E+06     3.45419E+06     538.744E+03    -105.641E-03     211.529E-03    -105.888E-03     39.8550E-03    -105.861E-03     211.156E-03    -105.633E-03     39.1582E-03
             605     8.09803E-03     87.6686E-03    -54.1449E+06    -85.4971E+06     12.9076E+06     608.076E+03    -105.626E-03     211.499E-03    -105.873E-03     41.5570E-03    -105.860E-03     211.199E-03    -105.606E-03     40.7903E-03
             606     8.90806E-03     87.7153E-03    -47.7981E+06    -67.6108E+06     21.4581E+06     742.832E+03    -105.592E-03     211.446E-03    -105.854E-03     42.6766E-03    -105.842E-03     211.224E-03    -105.579E-03     41.8409E-03
             607     9.71813E-03     87.7631E-03    -41.7769E+06    -49.9461E+06     29.1324E+06     820.863E+03    -105.545E-03     211.378E-03    -105.833E-03     43.1577E-03    -105.811E-03     211.234E-03    -105.554E-03     42.2511E-03
             608     10.5283E-03     87.8109E-03    -35.9321E+06    -28.5341E+06     36.6622E+06     988.490E+03    -105.487E-03     211.294E-03    -105.806E-03     42.9892E-03    -105.775E-03     211.246E-03    -105.530E-03     42.0120E-03
             609     11.3383E-03     87.8582E-03    -30.2105E+06    -5.77426E+06     44.4592E+06     1.11755E+06    -105.381E-03     211.161E-03    -105.780E-03     42.1205E-03    -105.693E-03     211.216E-03    -105.506E-03     41.0701E-03
             610     12.1485E-03     87.9039E-03    -24.7734E+06     22.0806E+06     51.3685E+06     978.651E+03    -105.178E-03     210.918E-03    -105.740E-03     40.1107E-03    -105.520E-03     211.102E-03    -105.479E-03     38.9845E-03
             611     12.9589E-03     87.9463E-03    -19.4296E+06     69.5153E+06     63.6065E+06     1.12846E+06    -104.872E-03     210.564E-03    -105.692E-03     36.5573E-03    -105.275E-03     210.961E-03    -105.447E-03     35.3711E-03
             612     13.7696E-03     87.9840E-03    -14.6021E+06     107.109E+06     71.6049E+06     933.866E+03    -104.597E-03     210.231E-03    -105.634E-03     30.8191E-03    -105.037E-03     210.792E-03    -105.410E-03     29.5798E-03
             613     14.5802E-03     88.0134E-03    -9.95961E+06     117.128E+06     81.4288E+06     109.829E+03    -104.724E-03     210.357E-03    -105.632E-03     23.4900E-03    -105.164E-03     210.941E-03    -105.381E-03     22.1599E-03
             614     15.3893E-03     88.0349E-03    -5.63971E+06     118.319E+06     97.3991E+06     125.656E+03    -105.010E-03     210.704E-03    -105.694E-03     11.6931E-03    -105.415E-03     211.226E-03    -105.370E-03     10.5577E-03
             615     809.801E-06     88.5637E-03    -120.372E+06    -248.573E+06    -117.315E+06     305.602E+03    -105.819E-03     211.599E-03    -105.780E-03     6.57854E-03    -105.891E-03     210.702E-03    -105.832E-03     6.49015E-03
             616     1.61911E-03     88.5746E-03    -116.166E+06    -235.495E+06    -105.065E+06     54.8896E+03    -105.759E-03     211.588E-03    -105.828E-03     12.0906E-03    -105.851E-03     210.735E-03    -105.844E-03     11.9212E-03
             617     2.42896E-03     88.5907E-03    -109.824E+06    -217.846E+06    -88.2386E+06     161.415E+03    -105.669E-03     211.516E-03    -105.847E-03     17.4580E-03    -105.783E-03     210.723E-03    -105.813E-03     17.2094E-03
             618     3.23861E-03     88.6131E-03    -102.112E+06    -197.649E+06    -69.2370E+06     286.166E+03    -105.679E-03     211.545E-03    -105.866E-03     22.5418E-03    -105.818E-03     210.821E-03    -105.778E-03     22.2148E-03
             619     4.04838E-03     88.6409E-03    -93.6648E+06    -177.299E+06    -50.8817E+06     268.255E+03    -105.683E-03     211.572E-03    -105.889E-03     27.1322E-03    -105.843E-03     210.917E-03    -105.750E-03     26.7264E-03
             620     4.85823E-03     88.6735E-03    -85.1992E+06    -157.363E+06    -34.3838E+06     367.924E+03    -105.647E-03     211.548E-03    -105.901E-03     31.1958E-03    -105.826E-03     210.966E-03    -105.721E-03     30.7146E-03
             621     5.66817E-03     88.7103E-03    -76.8311E+06    -138.532E+06    -19.9254E+06     405.670E+03    -105.646E-03     211.548E-03    -105.903E-03     34.7156E-03    -105.840E-03     211.036E-03    -105.690E-03     34.1607E-03
             622     6.47809E-03     88.7507E-03    -68.5847E+06    -120.158E+06    -7.36438E+06     314.095E+03    -105.662E-03     211.560E-03    -105.898E-03     37.5856E-03    -105.869E-03     211.118E-03    -105.661E-03     36.9569E-03
             623     7.28797E-03     88.7938E-03    -61.1260E+06    -103.208E+06     3.24626E+06     535.547E+03    -105.651E-03     211.539E-03    -105.888E-03     39.8602E-03    -105.870E-03     211.165E-03    -105.634E-03     39.1632E-03
             624     8.09801E-03     88.8391E-03    -54.3355E+06    -85.8842E+06     12.7362E+06     853.834E+03    -105.632E-03     211.506E-03    -105.874E-03     41.5509E-03    -105.866E-03     211.205E-03    -105.607E-03     40.7872E-03
             625     8.90804E-03     88.8861E-03    -47.9121E+06    -67.5128E+06     21.5188E+06     819.254E+03    -105.625E-03     211.482E-03    -105.858E-03     42.6405E-03    -105.875E-03     211.261E-03    -105.583E-03     41.8049E-03
             626     9.71805E-03     88.9337E-03    -41.7135E+06    -49.9984E+06     29.2248E+06     767.272E+03    -105.588E-03     211.427E-03    -105.839E-03     43.1076E-03    -105.853E-03     211.282E-03    -105.560E-03     42.1996E-03
             627     10.5281E-03     88.9816E-03    -35.8406E+06    -28.7743E+06     36.5864E+06     688.674E+03    -105.491E-03     211.305E-03    -105.814E-03     42.9357E-03    -105.778E-03     211.256E-03    -105.537E-03     41.9544E-03
             628     11.3383E-03     89.0289E-03    -30.1489E+06    -6.02435E+06     44.3277E+06     696.437E+03    -105.347E-03     211.133E-03    -105.786E-03     42.0001E-03    -105.658E-03     211.187E-03    -105.512E-03     40.9444E-03
             629     12.1486E-03     89.0744E-03    -24.8813E+06     22.0796E+06     51.2643E+06     996.457E+03    -105.237E-03     210.983E-03    -105.746E-03     39.9935E-03    -105.579E-03     211.166E-03    -105.486E-03     38.8657E-03
             630     12.9587E-03     89.1170E-03    -19.9019E+06     69.3088E+06     63.3704E+06     971.029E+03    -105.045E-03     210.751E-03    -105.706E-03     36.2849E-03    -105.450E-03     211.147E-03    -105.461E-03     35.0938E-03
             631     13.7689E-03     89.1544E-03    -14.5025E+06     107.372E+06     71.7677E+06     1.14016E+06    -104.826E-03     210.486E-03    -105.660E-03     30.3470E-03    -105.266E-03     211.047E-03    -105.435E-03     29.1077E-03
             632     14.5792E-03     89.1842E-03    -10.0449E+06     117.402E+06     81.3085E+06     1.38266E+06    -104.779E-03     210.442E-03    -105.664E-03     23.7522E-03    -105.219E-03     211.028E-03    -105.413E-03     22.4402E-03
             633     15.3895E-03     89.2073E-03    -5.58875E+06     118.670E+06     97.5821E+06     596.728E+03    -104.655E-03     210.371E-03    -105.717E-03     12.0516E-03    -105.061E-03     210.896E-03    -105.393E-03     10.9279E-03
             634     809.391E-06     89.7349E-03    -120.485E+06    -248.765E+06    -118.027E+06    -181.080E+03    -105.815E-03     211.596E-03    -105.781E-03     6.65618E-03    -105.887E-03     210.699E-03    -105.836E-03     6.55961E-03
             635     1.61928E-03     89.7449E-03    -116.415E+06    -235.658E+06    -105.551E+06     170.664E+03    -105.712E-03     211.529E-03    -105.817E-03     11.9898E-03    -105.803E-03     210.676E-03    -105.834E-03     11.8224E-03
             636     2.42894E-03     89.7614E-03    -110.097E+06    -217.936E+06    -88.3045E+06     122.345E+03    -105.700E-03     211.536E-03    -105.836E-03     17.4075E-03    -105.815E-03     210.743E-03    -105.802E-03     17.1585E-03
             637     3.23869E-03     89.7838E-03    -102.257E+06    -197.734E+06    -69.5022E+06     161.512E+03    -105.695E-03     211.559E-03    -105.863E-03     22.5497E-03    -105.834E-03     210.834E-03    -105.776E-03     22.2215E-03
             638     4.04843E-03     89.8116E-03    -93.9561E+06    -177.415E+06    -51.1250E+06     270.057E+03    -105.656E-03     211.542E-03    -105.886E-03     27.1305E-03    -105.817E-03     210.888E-03    -105.748E-03     26.7246E-03
             639     4.85828E-03     89.8441E-03    -85.3559E+06    -157.513E+06    -34.4842E+06     276.008E+03    -105.657E-03     211.555E-03    -105.898E-03     31.2025E-03    -105.837E-03     210.972E-03    -105.718E-03     30.7195E-03
             640     5.66812E-03     89.8809E-03    -76.7259E+06    -138.353E+06    -20.0005E+06     212.160E+03    -105.677E-03     211.579E-03    -105.902E-03     34.6843E-03    -105.871E-03     211.068E-03    -105.690E-03     34.1267E-03
             641     6.47801E-03     89.9214E-03    -68.9867E+06    -120.508E+06    -7.75549E+06     403.344E+03    -105.665E-03     211.564E-03    -105.899E-03     37.5285E-03    -105.873E-03     211.122E-03    -105.663E-03     36.9006E-03
             642     7.28806E-03     89.9644E-03    -61.8186E+06    -103.431E+06     2.98147E+06     556.489E+03    -105.660E-03     211.551E-03    -105.891E-03     39.7982E-03    -105.882E-03     211.178E-03    -105.637E-03     39.1006E-03
             643     8.09798E-03     90.0099E-03    -54.7225E+06    -86.1269E+06     12.5730E+06     569.179E+03    -105.653E-03     211.531E-03    -105.879E-03     41.5215E-03    -105.888E-03     211.230E-03    -105.612E-03     40.7535E-03
             644     8.90797E-03     90.0567E-03    -48.0099E+06    -67.6219E+06     21.3694E+06     766.963E+03    -105.630E-03     211.492E-03    -105.863E-03     42.6680E-03    -105.880E-03     211.271E-03    -105.588E-03     41.8321E-03
             645     9.71798E-03     90.1046E-03    -41.9239E+06    -50.0428E+06     29.0108E+06     697.147E+03    -105.602E-03     211.447E-03    -105.844E-03     43.1635E-03    -105.869E-03     211.302E-03    -105.566E-03     42.2546E-03
             646     10.5280E-03     90.1523E-03    -36.2254E+06    -28.8619E+06     36.3414E+06     797.475E+03    -105.518E-03     211.338E-03    -105.820E-03     42.9736E-03    -105.806E-03     211.290E-03    -105.544E-03     41.9937E-03
             647     11.3382E-03     90.1995E-03    -31.2161E+06    -5.75981E+06     43.9669E+06     909.125E+03    -105.415E-03     211.210E-03    -105.795E-03     41.9512E-03    -105.731E-03     211.267E-03    -105.522E-03     40.8973E-03
             648     12.1483E-03     90.2450E-03    -26.3849E+06     20.8701E+06     50.2529E+06     1.11781E+06    -105.329E-03     211.089E-03    -105.760E-03     39.9740E-03    -105.675E-03     211.270E-03    -105.501E-03     38.8459E-03
             649     12.9584E-03     90.2881E-03    -21.6465E+06     69.6653E+06     62.8189E+06     1.41673E+06    -105.163E-03     210.889E-03    -105.726E-03     36.3926E-03    -105.576E-03     211.291E-03    -105.482E-03     35.2048E-03
             650     13.7685E-03     90.3252E-03    -17.0924E+06     107.657E+06     70.6680E+06     876.312E+03    -104.982E-03     210.667E-03    -105.686E-03     30.6821E-03    -105.434E-03     211.236E-03    -105.464E-03     29.4337E-03
             651     14.5786E-03     90.3553E-03    -11.1946E+06     116.771E+06     80.3338E+06     956.478E+03    -104.576E-03     210.263E-03    -105.687E-03     23.9105E-03    -105.020E-03     210.849E-03    -105.438E-03     22.5911E-03
             652     15.3895E-03     90.3769E-03    -5.08374E+06     119.972E+06     98.1960E+06     876.204E+03    -104.316E-03     210.043E-03    -105.727E-03     12.0906E-03    -104.722E-03     210.573E-03    -105.403E-03     10.9729E-03
             653     809.724E-06     90.9052E-03    -121.067E+06    -248.562E+06    -117.643E+06    -58.1811E+03    -105.774E-03     211.538E-03    -105.764E-03     6.66409E-03    -105.850E-03     210.643E-03    -105.816E-03     6.56974E-03
             654     1.61923E-03     90.9156E-03    -116.666E+06    -235.885E+06    -105.821E+06    -85.6589E+03    -105.742E-03     211.542E-03    -105.800E-03     12.0237E-03    -105.834E-03     210.689E-03    -105.818E-03     11.8517E-03
             655     2.42889E-03     90.9320E-03    -110.171E+06    -217.847E+06    -88.6135E+06     81.9743E+03    -105.736E-03     211.571E-03    -105.835E-03     17.4625E-03    -105.851E-03     210.779E-03    -105.803E-03     17.2127E-03
             656     3.23857E-03     90.9545E-03    -102.561E+06    -197.900E+06    -69.7339E+06     111.619E+03    -105.684E-03     211.552E-03    -105.868E-03     22.5126E-03    -105.824E-03     210.827E-03    -105.781E-03     22.1836E-03
             657     4.04844E-03     90.9822E-03    -93.9704E+06    -177.511E+06    -51.2778E+06     131.843E+03    -105.661E-03     211.549E-03    -105.889E-03     27.0676E-03    -105.821E-03     210.895E-03    -105.751E-03     26.6598E-03
             658     4.85829E-03     91.0148E-03    -85.2110E+06    -157.425E+06    -34.6086E+06     126.515E+03    -105.685E-03     211.587E-03    -105.902E-03     31.1550E-03    -105.864E-03     211.005E-03    -105.723E-03     30.6706E-03
             659     5.66809E-03     91.0518E-03    -77.2621E+06    -138.679E+06    -20.4433E+06     370.649E+03    -105.678E-03     211.586E-03    -105.908E-03     34.6292E-03    -105.874E-03     211.074E-03    -105.697E-03     34.0729E-03
             660     6.47801E-03     91.0919E-03    -69.3603E+06    -120.621E+06    -7.83965E+06     447.790E+03    -105.668E-03     211.575E-03    -105.906E-03     37.5242E-03    -105.878E-03     211.133E-03    -105.670E-03     36.8963E-03
             661     7.28787E-03     91.1352E-03    -61.6581E+06    -103.446E+06     3.01363E+06     366.913E+03    -105.672E-03     211.570E-03    -105.898E-03     39.8132E-03    -105.893E-03     211.197E-03    -105.644E-03     39.1131E-03
             662     8.09788E-03     91.1805E-03    -54.7625E+06    -86.2950E+06     12.3671E+06     479.734E+03    -105.658E-03     211.543E-03    -105.885E-03     41.5259E-03    -105.893E-03     211.241E-03    -105.619E-03     40.7570E-03
             663     8.90793E-03     91.2275E-03    -48.2635E+06    -68.1583E+06     20.9447E+06     716.016E+03    -105.628E-03     211.496E-03    -105.868E-03     42.6673E-03    -105.879E-03     211.273E-03    -105.595E-03     41.8310E-03
             664     9.71800E-03     91.2752E-03    -42.2868E+06    -49.9763E+06     28.7801E+06     935.498E+03    -105.592E-03     211.441E-03    -105.849E-03     43.1343E-03    -105.860E-03     211.298E-03    -105.572E-03     42.2291E-03
             665     10.5280E-03     91.3231E-03    -36.8307E+06    -29.1889E+06     35.9424E+06     961.865E+03    -105.545E-03     211.371E-03    -105.826E-03     42.9268E-03    -105.835E-03     211.322E-03    -105.550E-03     41.9490E-03
             666     11.3381E-03     91.3703E-03    -31.3767E+06    -6.15242E+06     43.6190E+06     1.40027E+06    -105.500E-03     211.304E-03    -105.804E-03     42.0439E-03    -105.816E-03     211.360E-03    -105.531E-03     40.9955E-03
             667     12.1480E-03     91.4161E-03    -26.5081E+06     20.8220E+06     50.1445E+06     1.67591E+06    -105.364E-03     211.137E-03    -105.773E-03     40.1360E-03    -105.711E-03     211.318E-03    -105.514E-03     39.0152E-03
             668     12.9582E-03     91.4587E-03    -21.4122E+06     69.3145E+06     62.5128E+06     1.63152E+06    -105.062E-03     210.796E-03    -105.734E-03     36.7696E-03    -105.474E-03     211.197E-03    -105.491E-03     35.5842E-03
             669     13.7684E-03     91.4967E-03    -15.9567E+06     108.631E+06     71.2744E+06     1.35125E+06    -104.922E-03     210.611E-03    -105.689E-03     31.2296E-03    -105.372E-03     211.183E-03    -105.467E-03     29.9876E-03
             670     14.5787E-03     91.5258E-03    -11.2021E+06     117.188E+06     80.3569E+06     384.357E+03    -104.713E-03     210.404E-03    -105.692E-03     23.8110E-03    -105.158E-03     210.992E-03    -105.444E-03     22.4847E-03
             671     15.3891E-03     91.5471E-03    -5.22755E+06     120.080E+06     98.1606E+06     144.377E+03    -104.205E-03     209.938E-03    -105.733E-03     12.0380E-03    -104.612E-03     210.468E-03    -105.409E-03     10.9126E-03
             672     809.598E-06     92.0760E-03    -120.737E+06    -248.368E+06    -118.024E+06     5.49081E+03    -105.812E-03     211.529E-03    -105.717E-03     6.55887E-03    -105.886E-03     210.635E-03    -105.772E-03     6.46504E-03
             673     1.61931E-03     92.0862E-03    -116.882E+06    -235.819E+06    -105.778E+06     73.7768E+03    -105.757E-03     211.557E-03    -105.800E-03     12.0055E-03    -105.850E-03     210.705E-03    -105.818E-03     11.8369E-03
             674     2.42894E-03     92.1027E-03    -110.682E+06    -217.959E+06    -89.0803E+06     30.1407E+03    -105.746E-03     211.585E-03    -105.839E-03     17.4625E-03    -105.863E-03     210.794E-03    -105.808E-03     17.2124E-03
             675     3.23865E-03     92.1251E-03    -102.749E+06    -197.791E+06    -69.9254E+06    -33.5698E+03    -105.714E-03     211.590E-03    -105.876E-03     22.4657E-03    -105.855E-03     210.867E-03    -105.790E-03     22.1339E-03
             676     4.04837E-03     92.1528E-03    -94.1950E+06    -177.482E+06    -51.6336E+06    -66.1311E+03    -105.699E-03     211.600E-03    -105.902E-03     27.0648E-03    -105.860E-03     210.947E-03    -105.766E-03     26.6539E-03
             677     4.85810E-03     92.1856E-03    -85.8819E+06    -157.661E+06    -35.1787E+06     184.997E+03    -105.673E-03     211.588E-03    -105.915E-03     31.1404E-03    -105.853E-03     211.006E-03    -105.738E-03     30.6565E-03
             678     5.66802E-03     92.2223E-03    -77.3809E+06    -138.817E+06    -20.4843E+06     170.777E+03    -105.654E-03     211.573E-03    -105.918E-03     34.6227E-03    -105.850E-03     211.060E-03    -105.707E-03     34.0640E-03
             679     6.47794E-03     92.2628E-03    -69.2100E+06    -120.554E+06    -7.94004E+06     153.875E+03    -105.665E-03     211.578E-03    -105.913E-03     37.5452E-03    -105.874E-03     211.136E-03    -105.677E-03     36.9140E-03
             680     7.28794E-03     92.3059E-03    -61.8257E+06    -103.694E+06     2.60037E+06     351.086E+03    -105.678E-03     211.581E-03    -105.903E-03     39.8336E-03    -105.899E-03     211.207E-03    -105.650E-03     39.1338E-03
             681     8.09788E-03     92.3513E-03    -54.8389E+06    -86.6898E+06     11.9994E+06     638.646E+03    -105.680E-03     211.572E-03    -105.891E-03     41.5289E-03    -105.915E-03     211.268E-03    -105.626E-03     40.7619E-03
             682     8.90783E-03     92.3982E-03    -48.4747E+06    -68.3058E+06     20.6638E+06     748.086E+03    -105.650E-03     211.526E-03    -105.876E-03     42.6403E-03    -105.901E-03     211.302E-03    -105.603E-03     41.8041E-03
             683     9.71783E-03     92.4460E-03    -42.2875E+06    -50.5664E+06     28.4188E+06     957.200E+03    -105.599E-03     211.457E-03    -105.857E-03     43.1157E-03    -105.866E-03     211.311E-03    -105.581E-03     42.2112E-03
             684     10.5279E-03     92.4939E-03    -36.4886E+06    -29.1341E+06     36.0007E+06     1.18975E+06    -105.543E-03     211.377E-03    -105.834E-03     42.9574E-03    -105.831E-03     211.328E-03    -105.559E-03     41.9833E-03
             685     11.3379E-03     92.5411E-03    -31.0133E+06    -6.94140E+06     43.4835E+06     1.28873E+06    -105.450E-03     211.259E-03    -105.810E-03     42.1434E-03    -105.763E-03     211.311E-03    -105.537E-03     41.0944E-03
             686     12.1481E-03     92.5870E-03    -25.4965E+06     20.0476E+06     50.2298E+06     1.89117E+06    -105.294E-03     211.067E-03    -105.773E-03     40.2655E-03    -105.635E-03     211.243E-03    -105.514E-03     39.1487E-03
             687     12.9583E-03     92.6294E-03    -20.4810E+06     69.8296E+06     63.2279E+06     1.91388E+06    -104.959E-03     210.690E-03    -105.731E-03     36.8300E-03    -105.368E-03     211.091E-03    -105.486E-03     35.6507E-03
             688     13.7690E-03     92.6672E-03    -15.6035E+06     108.995E+06     71.5863E+06     1.56998E+06    -104.725E-03     210.401E-03    -105.676E-03     31.5131E-03    -105.174E-03     210.974E-03    -105.453E-03     30.2777E-03
             689     14.5789E-03     92.6975E-03    -10.5546E+06     118.616E+06     81.2852E+06     911.693E+03    -104.682E-03     210.356E-03    -105.674E-03     24.1610E-03    -105.128E-03     210.950E-03    -105.424E-03     22.8392E-03
             690     15.3890E-03     92.7172E-03    -5.43899E+06     120.847E+06     98.4869E+06    -150.024E+03    -104.501E-03     210.223E-03    -105.722E-03     12.1867E-03    -104.911E-03     210.757E-03    -105.397E-03     11.0471E-03
             691     809.563E-06     93.2464E-03    -121.452E+06    -248.531E+06    -118.633E+06        -141.547    -105.864E-03     211.573E-03    -105.709E-03     6.62512E-03    -105.940E-03     210.680E-03    -105.766E-03     6.53293E-03
             692     1.61919E-03     93.2568E-03    -117.338E+06    -235.724E+06    -106.283E+06     89.3732E+03    -105.792E-03     211.617E-03    -105.825E-03     12.0345E-03    -105.887E-03     210.767E-03    -105.845E-03     11.8659E-03
             693     2.42883E-03     93.2735E-03    -110.734E+06    -217.680E+06    -89.0946E+06    -62.4459E+03    -105.744E-03     211.608E-03    -105.864E-03     17.3813E-03    -105.862E-03     210.818E-03    -105.833E-03     17.1294E-03
             694     3.23853E-03     93.2958E-03    -103.040E+06    -197.638E+06    -70.2974E+06    -117.958E+03    -105.712E-03     211.605E-03    -105.893E-03     22.4481E-03    -105.853E-03     210.883E-03    -105.808E-03     22.1155E-03
             695     4.04824E-03     93.3237E-03    -94.8109E+06    -177.494E+06    -51.9915E+06    -58.7213E+03    -105.691E-03     211.606E-03    -105.915E-03     27.1038E-03    -105.855E-03     210.954E-03    -105.780E-03     26.6931E-03
             696     4.85813E-03     93.3562E-03    -86.0316E+06    -157.703E+06    -35.3599E+06    -209.231E+03    -105.659E-03     211.584E-03    -105.925E-03     31.1806E-03    -105.841E-03     211.002E-03    -105.748E-03     30.6910E-03
             697     5.66800E-03     93.3931E-03    -77.5671E+06    -138.774E+06    -20.9653E+06    -140.820E+03    -105.665E-03     211.589E-03    -105.924E-03     34.6701E-03    -105.861E-03     211.078E-03    -105.716E-03     34.1076E-03
             698     6.47790E-03     93.4334E-03    -69.6992E+06    -120.902E+06    -8.61883E+06     114.355E+03    -105.682E-03     211.601E-03    -105.919E-03     37.5302E-03    -105.892E-03     211.159E-03    -105.686E-03     36.8986E-03
             699     7.28782E-03     93.4766E-03    -62.1382E+06    -103.977E+06     2.16660E+06     362.145E+03    -105.693E-03     211.605E-03    -105.912E-03     39.7898E-03    -105.915E-03     211.231E-03    -105.660E-03     39.0901E-03
             700     8.09775E-03     93.5221E-03    -55.1822E+06    -86.9325E+06     11.6346E+06     399.709E+03    -105.690E-03     211.591E-03    -105.900E-03     41.4878E-03    -105.925E-03     211.288E-03    -105.636E-03     40.7180E-03
             701     8.90775E-03     93.5689E-03    -48.3702E+06    -68.5197E+06     20.4505E+06     544.818E+03    -105.654E-03     211.539E-03    -105.885E-03     42.6290E-03    -105.904E-03     211.315E-03    -105.613E-03     41.7904E-03
             702     9.71777E-03     93.6168E-03    -42.1636E+06    -50.9910E+06     28.2331E+06     771.769E+03    -105.599E-03     211.465E-03    -105.866E-03     43.1351E-03    -105.864E-03     211.318E-03    -105.590E-03     42.2283E-03
             703     10.5279E-03     93.6646E-03    -36.2678E+06    -29.6246E+06     35.8185E+06     1.11902E+06    -105.505E-03     211.346E-03    -105.840E-03     43.0151E-03    -105.792E-03     211.294E-03    -105.566E-03     42.0407E-03
             704     11.3380E-03     93.7120E-03    -30.8669E+06    -7.15253E+06     43.5053E+06     1.37086E+06    -105.358E-03     211.170E-03    -105.812E-03     42.1333E-03    -105.670E-03     211.221E-03    -105.539E-03     41.0864E-03
             705     12.1482E-03     93.7574E-03    -25.7412E+06     19.1937E+06     49.8495E+06     1.45299E+06    -105.202E-03     210.971E-03    -105.769E-03     40.2622E-03    -105.543E-03     211.144E-03    -105.510E-03     39.1394E-03
             706     12.9585E-03     93.8004E-03    -20.2250E+06     69.4838E+06      63.153E+06     1.93762E+06    -105.013E-03     210.738E-03    -105.725E-03     36.6982E-03    -105.420E-03     211.137E-03    -105.481E-03     35.5175E-03
             707     13.7686E-03     93.8374E-03    -14.8903E+06     110.133E+06     72.1008E+06     1.60874E+06    -104.578E-03     210.246E-03    -105.668E-03     30.9939E-03    -105.026E-03     210.823E-03    -105.446E-03     29.7570E-03
             708     14.5799E-03     93.8681E-03    -9.98731E+06     120.164E+06     82.2948E+06     633.641E+03    -104.357E-03     210.013E-03    -105.656E-03     23.9019E-03    -104.804E-03     210.612E-03    -105.404E-03     22.5783E-03
             709     15.3906E-03     93.8881E-03    -5.53594E+06     121.381E+06     98.7987E+06     446.822E+03    -104.761E-03     210.463E-03    -105.702E-03     12.1736E-03    -105.173E-03     211.000E-03    -105.376E-03     11.0433E-03
             710     809.732E-06     94.4172E-03    -122.579E+06    -248.466E+06    -119.240E+06    -47.0840E+03    -105.839E-03     211.673E-03    -105.834E-03     6.55693E-03    -105.920E-03     210.783E-03    -105.892E-03     6.46512E-03
             711     1.61915E-03     94.4277E-03    -117.700E+06    -235.430E+06    -106.713E+06    -281.094E+03    -105.799E-03     211.666E-03    -105.867E-03     12.0068E-03    -105.895E-03     210.818E-03    -105.889E-03     11.8322E-03
             712     2.42873E-03     94.4442E-03    -111.329E+06    -217.664E+06    -89.7416E+06    -210.596E+03    -105.726E-03     211.615E-03    -105.889E-03     17.4218E-03    -105.846E-03     210.827E-03    -105.861E-03     17.1671E-03
             713     3.23848E-03     94.4665E-03    -103.573E+06    -197.455E+06    -70.7768E+06    -174.675E+03    -105.691E-03     211.598E-03    -105.907E-03     22.5279E-03    -105.835E-03     210.879E-03    -105.824E-03     22.1945E-03
             714     4.04830E-03     94.4944E-03    -94.9557E+06    -177.317E+06    -52.3208E+06    -345.603E+03    -105.683E-03     211.606E-03    -105.923E-03     27.0923E-03    -105.848E-03     210.956E-03    -105.790E-03     26.6785E-03
             715     4.85809E-03     94.5269E-03    -86.4894E+06    -157.517E+06    -35.9435E+06    -280.622E+03    -105.686E-03     211.618E-03    -105.932E-03     31.1116E-03    -105.869E-03     211.039E-03    -105.758E-03     30.6217E-03
             716     5.66794E-03     94.5638E-03    -78.2082E+06    -138.876E+06    -21.5528E+06    -195.353E+03    -105.694E-03     211.629E-03    -105.935E-03     34.6010E-03    -105.892E-03     211.119E-03    -105.728E-03     34.0380E-03
             717     6.47782E-03     94.6041E-03    -70.1473E+06    -121.211E+06    -9.06785E+06    -91.8516E+03    -105.700E-03     211.633E-03    -105.933E-03     37.4844E-03    -105.911E-03     211.191E-03    -105.701E-03     36.8498E-03
             718     7.28770E-03     94.6474E-03    -62.6021E+06    -104.151E+06     1.69874E+06     19.5310E+03    -105.696E-03     211.620E-03    -105.925E-03     39.7974E-03    -105.919E-03     211.247E-03    -105.674E-03     39.0932E-03
             719     8.09767E-03     94.6928E-03    -55.3228E+06    -86.7615E+06     11.4313E+06     4.69696E+03    -105.679E-03     211.591E-03    -105.912E-03     41.5148E-03    -105.915E-03     211.289E-03    -105.649E-03     40.7400E-03
             720     8.90763E-03     94.7398E-03    -48.7308E+06    -69.1545E+06     19.9324E+06     183.885E+03    -105.646E-03     211.541E-03    -105.894E-03     42.6232E-03    -105.896E-03     211.315E-03    -105.624E-03     41.7801E-03
             721     9.71768E-03     94.7874E-03    -42.4581E+06    -51.3706E+06     27.7966E+06     629.084E+03    -105.584E-03     211.458E-03    -105.874E-03     43.1099E-03    -105.849E-03     211.309E-03    -105.599E-03     42.2011E-03
             722     10.5277E-03     94.8354E-03    -36.7170E+06    -30.2310E+06     35.2510E+06     878.409E+03    -105.471E-03     211.316E-03    -105.845E-03     42.9508E-03    -105.758E-03     211.263E-03    -105.572E-03     41.9729E-03
             723     11.3380E-03     94.8825E-03    -31.0109E+06    -7.50506E+06     43.0700E+06     1.20985E+06    -105.357E-03     211.172E-03    -105.815E-03     41.9941E-03    -105.668E-03     211.222E-03    -105.544E-03     40.9441E-03
             724     12.1482E-03     94.9282E-03    -25.6769E+06     19.2594E+06     49.5799E+06     1.39511E+06    -105.248E-03     211.021E-03    -105.773E-03     39.9993E-03    -105.588E-03     211.194E-03    -105.516E-03     38.8737E-03
             725     12.9584E-03     94.9708E-03    -20.6002E+06     68.6961E+06     62.2973E+06     1.35549E+06    -104.975E-03     210.704E-03    -105.729E-03     36.5368E-03    -105.382E-03     211.101E-03    -105.487E-03     35.3475E-03
             726     13.7687E-03     95.0090E-03    -15.2248E+06     110.505E+06     71.8256E+06     1.56602E+06    -104.629E-03     210.302E-03    -105.674E-03     30.4966E-03    -105.076E-03     210.880E-03    -105.453E-03     29.2645E-03
             727     14.5791E-03     95.0365E-03    -10.3515E+06     120.878E+06     81.8511E+06     1.63056E+06    -104.445E-03     210.108E-03    -105.664E-03     23.5245E-03    -104.891E-03     210.710E-03    -105.415E-03     22.2254E-03
             728     15.3895E-03     95.0606E-03    -5.42495E+06     122.068E+06     98.8166E+06     859.903E+03    -104.590E-03     210.299E-03    -105.709E-03     11.9304E-03    -105.001E-03     210.838E-03    -105.384E-03     10.8178E-03
             729     809.241E-06     95.5880E-03    -122.605E+06    -247.722E+06    -119.515E+06    -342.522E+03    -105.867E-03     211.793E-03    -105.926E-03     6.67794E-03    -105.949E-03     210.907E-03    -105.987E-03     6.57833E-03
             730     1.61903E-03     95.5984E-03    -118.376E+06    -235.267E+06    -107.492E+06    -280.866E+03    -105.763E-03     211.670E-03    -105.907E-03     11.9840E-03    -105.862E-03     210.825E-03    -105.931E-03     11.8096E-03
             731     2.42880E-03     95.6148E-03    -111.979E+06    -217.448E+06    -90.3118E+06    -350.656E+03    -105.725E-03     211.632E-03    -105.907E-03     17.3860E-03    -105.848E-03     210.847E-03    -105.881E-03     17.1303E-03
             732     3.23848E-03     95.6373E-03    -104.015E+06    -197.196E+06    -71.3486E+06    -460.359E+03    -105.708E-03     211.630E-03    -105.922E-03     22.4485E-03    -105.853E-03     210.913E-03    -105.842E-03     22.1117E-03
             733     4.04818E-03     95.6650E-03    -95.7490E+06    -177.126E+06    -53.1154E+06    -421.327E+03    -105.694E-03     211.631E-03    -105.937E-03     27.0356E-03    -105.861E-03     210.984E-03    -105.807E-03     26.6209E-03
             734     4.85797E-03     95.6977E-03    -87.1292E+06    -157.492E+06    -36.4978E+06    -476.321E+03    -105.712E-03     211.660E-03    -105.948E-03     31.1109E-03    -105.897E-03     211.082E-03    -105.776E-03     30.6185E-03
             735     5.66777E-03     95.7345E-03    -78.5933E+06    -138.815E+06    -21.8906E+06    -446.279E+03    -105.717E-03     211.670E-03    -105.954E-03     34.6001E-03    -105.916E-03     211.162E-03    -105.748E-03     34.0334E-03
             736     6.47764E-03     95.7750E-03    -70.5652E+06    -121.159E+06    -9.49296E+06    -427.775E+03    -105.704E-03     211.654E-03    -105.950E-03     37.4857E-03    -105.916E-03     211.213E-03    -105.720E-03     36.8470E-03
             737     7.28761E-03     95.8181E-03    -62.7730E+06    -104.070E+06     1.28895E+06    -456.534E+03    -105.688E-03     211.628E-03    -105.940E-03     39.7603E-03    -105.911E-03     211.255E-03    -105.691E-03     39.0501E-03
             738     8.09756E-03     95.8636E-03    -55.7761E+06    -87.0572E+06     10.7565E+06    -202.866E+03    -105.669E-03     211.593E-03    -105.924E-03     41.4791E-03    -105.905E-03     211.291E-03    -105.663E-03     40.7016E-03
             739     8.90757E-03     95.9104E-03    -49.2414E+06    -69.4198E+06     19.4132E+06     27.4400E+03    -105.641E-03     211.546E-03    -105.905E-03     42.5828E-03    -105.892E-03     211.320E-03    -105.636E-03     41.7369E-03
             740     9.71757E-03     95.9583E-03    -43.0497E+06    -52.0235E+06     27.0093E+06     234.572E+03    -105.586E-03     211.469E-03    -105.883E-03     43.0439E-03    -105.852E-03     211.319E-03    -105.610E-03     42.1291E-03
             741     10.5277E-03     96.0060E-03    -37.0062E+06    -30.7444E+06     34.6349E+06     614.709E+03    -105.498E-03     211.354E-03    -105.855E-03     42.8118E-03    -105.785E-03     211.299E-03    -105.584E-03     41.8296E-03
             742     11.3378E-03     96.0533E-03    -31.5540E+06    -8.09392E+06     42.4191E+06     940.071E+03    -105.414E-03     211.242E-03    -105.828E-03     41.8913E-03    -105.726E-03     211.290E-03    -105.558E-03     40.8372E-03
             743     12.1478E-03     96.0989E-03    -26.2859E+06     18.9003E+06     48.9755E+06     1.11179E+06    -105.255E-03     211.043E-03    -105.787E-03     39.9833E-03    -105.597E-03     211.216E-03    -105.532E-03     38.8558E-03
             744     12.9579E-03     96.1417E-03    -21.0446E+06     68.7665E+06     62.1186E+06     1.64753E+06    -104.857E-03     210.597E-03    -105.740E-03     36.4809E-03    -105.266E-03     210.995E-03    -105.499E-03     35.2995E-03
             745     13.7689E-03     96.1787E-03    -16.5371E+06     110.092E+06     70.8067E+06     1.82344E+06    -104.795E-03     210.478E-03    -105.683E-03     30.6453E-03    -105.247E-03     211.057E-03    -105.465E-03     29.4158E-03
             746     14.5788E-03     96.2087E-03    -11.2873E+06     121.245E+06     81.2424E+06     1.32304E+06    -104.842E-03     210.530E-03    -105.689E-03     23.4403E-03    -105.294E-03     211.137E-03    -105.442E-03     22.1238E-03
             747     15.3894E-03     96.2296E-03    -5.42264E+06     123.337E+06     99.3365E+06     790.660E+03    -104.337E-03     210.077E-03    -105.740E-03     11.8061E-03    -104.751E-03     210.622E-03    -105.414E-03     10.6843E-03
             748     809.689E-06     96.7591E-03    -123.174E+06    -247.191E+06    -120.138E+06    -68.7223E+03    -105.955E-03     211.770E-03    -105.816E-03     6.70333E-03    -106.039E-03     210.889E-03    -105.879E-03     6.60823E-03
             749     1.61907E-03     96.7691E-03    -119.013E+06    -234.706E+06    -107.964E+06    -386.686E+03    -105.826E-03     211.736E-03    -105.911E-03     11.9641E-03    -105.928E-03     210.896E-03    -105.938E-03     11.7867E-03
             750     2.42862E-03     96.7857E-03    -112.431E+06    -216.974E+06    -90.8767E+06    -517.143E+03    -105.775E-03     211.705E-03    -105.930E-03     17.3914E-03    -105.899E-03     210.924E-03    -105.907E-03     17.1339E-03
             751     3.23828E-03     96.8081E-03    -104.805E+06    -196.975E+06    -72.0670E+06    -570.447E+03    -105.729E-03     211.678E-03    -105.949E-03     22.4163E-03    -105.878E-03     210.965E-03    -105.872E-03     22.0776E-03
             752     4.04808E-03     96.8358E-03    -96.2226E+06    -176.818E+06    -53.5602E+06     -706.03E+03    -105.703E-03     211.666E-03    -105.963E-03     27.0302E-03    -105.873E-03     211.022E-03    -105.835E-03     26.6110E-03
             753     4.85791E-03     96.8685E-03    -87.5460E+06    -157.209E+06    -36.8759E+06    -785.900E+03    -105.706E-03     211.676E-03    -105.970E-03     31.1095E-03    -105.893E-03     211.102E-03    -105.800E-03     30.6132E-03
             754     5.66771E-03     96.9054E-03    -79.1725E+06    -138.678E+06    -22.5773E+06    -866.378E+03    -105.719E-03     211.691E-03    -105.971E-03     34.5920E-03    -105.921E-03     211.184E-03    -105.768E-03     34.0199E-03
             755     6.47758E-03     96.9457E-03    -70.8850E+06    -120.954E+06    -10.1135E+06    -897.033E+03    -105.725E-03     211.691E-03    -105.967E-03     37.4803E-03    -105.938E-03     211.253E-03    -105.739E-03     36.8353E-03
             756     7.28742E-03     96.9890E-03    -63.3719E+06    -104.260E+06     527.480E+03    -670.874E+03    -105.712E-03     211.668E-03    -105.957E-03     39.7219E-03    -105.937E-03     211.297E-03    -105.711E-03     39.0086E-03
             757     8.09739E-03     97.0342E-03    -56.2930E+06    -87.2104E+06     10.1397E+06    -509.522E+03    -105.673E-03     211.615E-03    -105.942E-03     41.4130E-03    -105.911E-03     211.314E-03    -105.683E-03     40.6309E-03
             758     8.90738E-03     97.0814E-03    -49.4877E+06    -69.6949E+06     18.8255E+06    -346.676E+03    -105.639E-03     211.561E-03    -105.921E-03     42.5168E-03    -105.891E-03     211.334E-03    -105.654E-03     41.6660E-03
             759     9.71745E-03     97.1289E-03    -43.1865E+06    -52.2889E+06     26.5106E+06    -103.687E+03    -105.612E-03     211.511E-03    -105.899E-03     42.9441E-03    -105.878E-03     211.361E-03    -105.628E-03     42.0246E-03
             760     10.5274E-03     97.1769E-03    -37.4035E+06    -31.4617E+06     33.9301E+06     222.662E+03    -105.540E-03     211.412E-03    -105.873E-03     42.7392E-03    -105.826E-03     211.356E-03    -105.603E-03     41.7516E-03
             761     11.3375E-03     97.2239E-03    -31.7054E+06    -8.94516E+06     41.7305E+06     786.744E+03    -105.377E-03     211.220E-03    -105.844E-03     41.8831E-03    -105.687E-03     211.265E-03    -105.576E-03     40.8286E-03
             762     12.1477E-03     97.2698E-03    -26.7669E+06     18.7031E+06     48.5714E+06     1.42451E+06    -105.156E-03     210.954E-03    -105.799E-03     39.9962E-03    -105.498E-03     211.127E-03    -105.544E-03     38.8761E-03
             763     12.9584E-03     97.3119E-03    -22.0232E+06     67.8700E+06     61.2263E+06     1.67563E+06    -104.949E-03     210.698E-03    -105.750E-03     36.3843E-03    -105.359E-03     211.094E-03    -105.510E-03     35.2030E-03
             764     13.7683E-03     97.3497E-03    -16.2034E+06     110.357E+06     70.7620E+06     1.64599E+06    -104.783E-03     210.478E-03    -105.695E-03     30.9569E-03    -105.235E-03     211.059E-03    -105.478E-03     29.7197E-03
             765     14.5784E-03     97.3801E-03    -11.0364E+06     122.489E+06     81.5522E+06     1.13220E+06    -104.605E-03     210.298E-03    -105.693E-03     24.1334E-03    -105.059E-03     210.912E-03    -105.447E-03     22.8147E-03
             766     15.3880E-03     97.4006E-03    -5.39597E+06     123.840E+06     99.4958E+06     467.453E+03    -104.232E-03     209.968E-03    -105.736E-03     12.4293E-03    -104.648E-03     210.515E-03    -105.410E-03     11.3043E-03
             767     809.421E-06     97.9299E-03    -124.041E+06    -246.944E+06    -121.178E+06    -309.193E+03    -105.928E-03     211.717E-03    -105.788E-03     6.59868E-03    -106.016E-03     210.839E-03    -105.856E-03     6.50127E-03
             768     1.61905E-03     97.9401E-03    -119.548E+06    -233.829E+06    -108.558E+06    -430.707E+03    -105.870E-03     211.768E-03    -105.898E-03     11.9995E-03    -105.975E-03     210.934E-03    -105.929E-03     11.8232E-03
             769     2.42862E-03     97.9565E-03    -113.252E+06    -216.414E+06    -91.5604E+06    -757.483E+03    -105.839E-03     211.780E-03    -105.941E-03     17.4370E-03    -105.968E-03     211.004E-03    -105.921E-03     17.1752E-03
             770     3.23829E-03     97.9789E-03    -105.279E+06    -196.556E+06    -72.7104E+06    -957.823E+03    -105.778E-03     211.750E-03    -105.972E-03     22.4254E-03    -105.929E-03     211.041E-03    -105.898E-03     22.0808E-03
             771     4.04795E-03     98.0066E-03    -96.7337E+06    -176.376E+06    -54.1975E+06    -945.191E+03    -105.743E-03     211.734E-03    -105.990E-03     27.0106E-03    -105.915E-03     211.093E-03    -105.865E-03     26.5881E-03
             772     4.85768E-03     98.0394E-03    -88.0775E+06    -156.810E+06    -37.5871E+06    -1.04686E+06    -105.724E-03     211.721E-03    -105.998E-03     31.0601E-03    -105.913E-03     211.150E-03    -105.830E-03     30.5599E-03
             773     5.66756E-03     98.0761E-03    -79.5119E+06    -138.195E+06    -23.1692E+06    -1.23194E+06    -105.727E-03     211.724E-03    -105.997E-03     34.5133E-03    -105.930E-03     211.221E-03    -105.797E-03     33.9364E-03
             774     6.47738E-03     98.1167E-03    -71.6994E+06    -121.047E+06    -10.9408E+06    -1.11115E+06    -105.734E-03     211.724E-03    -105.990E-03     37.3759E-03    -105.950E-03     211.288E-03    -105.766E-03     36.7276E-03
             775     7.28731E-03     98.1597E-03    -64.1317E+06    -104.095E+06    -129.169E+03    -1.15821E+06    -105.721E-03     211.701E-03    -105.980E-03     39.6492E-03    -105.949E-03     211.332E-03    -105.736E-03     38.9289E-03
             776     8.09717E-03     98.2052E-03    -56.6579E+06    -87.2366E+06     9.48755E+06    -1.20697E+06    -105.695E-03     211.659E-03    -105.964E-03     41.3532E-03    -105.934E-03     211.359E-03    -105.707E-03     40.5620E-03
             777     8.90720E-03     98.2519E-03    -49.8485E+06    -70.1036E+06     18.0469E+06    -834.086E+03    -105.664E-03     211.607E-03    -105.943E-03     42.4810E-03    -105.915E-03     211.381E-03    -105.679E-03     41.6240E-03
             778     9.71713E-03     98.3000E-03    -43.6469E+06    -52.5726E+06     25.8313E+06     -401.43E+03    -105.615E-03     211.536E-03    -105.921E-03     42.9072E-03    -105.881E-03     211.385E-03    -105.652E-03     41.9843E-03
             779     10.5273E-03     98.3475E-03    -37.6764E+06    -31.9127E+06     33.3565E+06    -162.841E+03    -105.502E-03     211.394E-03    -105.892E-03     42.7389E-03    -105.788E-03     211.336E-03    -105.624E-03     41.7475E-03
             780     11.3373E-03     98.3950E-03    -32.0694E+06    -9.90142E+06     40.9489E+06     270.329E+03    -105.337E-03     211.195E-03    -105.858E-03     41.7921E-03    -105.646E-03     211.237E-03    -105.593E-03     40.7316E-03
             781     12.1477E-03     98.4398E-03    -26.2095E+06     17.4222E+06     48.0374E+06     1.14492E+06    -105.197E-03     211.010E-03    -105.813E-03     39.8211E-03    -105.534E-03     211.176E-03    -105.560E-03     38.6961E-03
             782     12.9576E-03     98.4832E-03    -20.6837E+06     67.1111E+06     61.1368E+06     1.68626E+06    -104.945E-03     210.709E-03    -105.764E-03     36.3887E-03    -105.347E-03     211.098E-03    -105.525E-03     35.2070E-03
             783     13.7681E-03     98.5203E-03    -16.0425E+06     110.657E+06     70.5345E+06     1.62130E+06    -104.465E-03     210.163E-03    -105.698E-03     30.9864E-03    -104.916E-03     210.746E-03    -105.483E-03     29.7579E-03
             784     14.5793E-03     98.5502E-03    -10.4817E+06     123.827E+06     81.9090E+06     1.24705E+06    -104.084E-03     209.758E-03    -105.674E-03     24.0816E-03    -104.538E-03     210.376E-03    -105.429E-03     22.7784E-03
             785     15.3913E-03     98.5710E-03    -5.07890E+06     124.974E+06     99.8639E+06     433.947E+03    -104.424E-03     210.133E-03    -105.709E-03     12.1835E-03    -104.840E-03     210.685E-03    -105.383E-03     11.0600E-03
             786     809.629E-06     99.1006E-03    -124.515E+06    -245.843E+06    -121.308E+06    -357.334E+03    -105.775E-03     211.709E-03    -105.933E-03     6.59880E-03    -105.867E-03     210.838E-03    -106.003E-03     6.50158E-03
             787     1.61916E-03     99.1110E-03    -120.190E+06    -233.262E+06    -109.448E+06    -739.284E+03    -105.876E-03     211.771E-03    -105.895E-03     12.0740E-03    -105.984E-03     210.942E-03    -105.929E-03     11.8924E-03
             788     2.42861E-03     99.1276E-03    -113.706E+06    -215.443E+06    -92.2212E+06    -908.337E+03    -105.886E-03     211.833E-03    -105.947E-03     17.4059E-03    -106.018E-03     211.063E-03    -105.930E-03     17.1421E-03
             789     3.23814E-03     99.1498E-03    -106.102E+06    -195.893E+06    -73.3675E+06    -1.18570E+06    -105.846E-03     211.837E-03    -105.991E-03     22.3991E-03    -106.001E-03     211.133E-03    -105.920E-03     22.0518E-03
             790     4.04781E-03     99.1777E-03    -97.4866E+06    -175.875E+06    -55.0763E+06    -1.40661E+06    -105.804E-03     211.822E-03    -106.018E-03     26.9932E-03    -105.979E-03     211.187E-03    -105.897E-03     26.5641E-03
             791     4.85758E-03     99.2101E-03    -88.6088E+06    -156.232E+06    -38.3860E+06    -1.55371E+06    -105.786E-03     211.817E-03    -106.031E-03     31.0274E-03    -105.978E-03     211.251E-03    -105.868E-03     30.5198E-03
             792     5.66728E-03     99.2472E-03    -80.3410E+06    -137.975E+06    -24.0155E+06    -1.43542E+06    -105.767E-03     211.800E-03    -106.033E-03     34.4485E-03    -105.973E-03     211.301E-03    -105.837E-03     33.8682E-03
             793     6.47715E-03     99.2873E-03    -72.1872E+06    -120.542E+06    -11.4872E+06    -1.63924E+06    -105.740E-03     211.767E-03    -106.026E-03     37.2860E-03    -105.959E-03     211.334E-03    -105.804E-03     36.6306E-03
             794     7.28698E-03     99.3308E-03    -64.3671E+06    -103.808E+06    -721.089E+03    -1.74845E+06    -105.724E-03     211.736E-03    -106.012E-03     39.5403E-03    -105.953E-03     211.370E-03    -105.772E-03     38.8125E-03
             795     8.09701E-03     99.3758E-03    -57.3918E+06    -87.2098E+06     8.67643E+06    -1.56240E+06    -105.710E-03     211.704E-03    -105.994E-03     41.2264E-03    -105.951E-03     211.406E-03    -105.741E-03     40.4308E-03
             796     8.90686E-03     99.4231E-03    -50.7285E+06    -70.3183E+06     17.2166E+06    -1.41327E+06    -105.656E-03     211.628E-03    -105.972E-03     42.3807E-03    -105.910E-03     211.402E-03    -105.710E-03     41.5166E-03
             797     9.71694E-03     99.4705E-03    -44.1561E+06    -53.1991E+06     25.0179E+06    -1.09138E+06    -105.570E-03     211.515E-03    -105.945E-03     42.8722E-03    -105.837E-03     211.364E-03    -105.679E-03     41.9414E-03
             798     10.5269E-03     99.5186E-03    -38.0502E+06    -32.0507E+06     32.7681E+06    -718.972E+03    -105.458E-03     211.369E-03    -105.911E-03     42.6412E-03    -105.745E-03     211.312E-03    -105.645E-03     41.6428E-03
             799     11.3373E-03     99.5652E-03    -32.2255E+06    -10.6516E+06     40.3870E+06    -371.920E+03    -105.368E-03     211.244E-03    -105.876E-03     41.7025E-03    -105.677E-03     211.284E-03    -105.612E-03     40.6320E-03
             800     12.1472E-03     99.6112E-03    -26.9332E+06     15.8151E+06     46.8740E+06     271.115E+03    -105.201E-03     211.031E-03    -105.830E-03     39.8609E-03    -105.538E-03     211.192E-03    -105.579E-03     38.7236E-03
             801     12.9577E-03     99.6534E-03    -21.5119E+06     66.4236E+06     60.4109E+06     1.33777E+06    -104.786E-03     210.562E-03    -105.776E-03     36.3959E-03    -105.191E-03     210.951E-03    -105.539E-03     35.2114E-03
             802     13.7685E-03     99.6909E-03    -15.6878E+06     111.207E+06     70.5344E+06     1.55561E+06    -104.430E-03     210.134E-03    -105.704E-03     30.4233E-03    -104.880E-03     210.718E-03    -105.490E-03     29.1918E-03
             803     14.5790E-03     99.7196E-03    -10.7723E+06     124.556E+06     81.8985E+06     797.196E+03    -104.377E-03     210.064E-03    -105.687E-03     23.0009E-03    -104.831E-03     210.685E-03    -105.443E-03     21.6845E-03
             804     15.3888E-03     99.7414E-03    -5.55980E+06     125.495E+06     100.163E+06     543.979E+03    -104.347E-03     210.077E-03    -105.731E-03     11.3910E-03    -104.765E-03     210.631E-03    -105.404E-03     10.2684E-03
             805     809.485E-06     100.271E-03    -124.868E+06    -244.765E+06    -121.901E+06    -280.791E+03    -105.826E-03     211.834E-03    -106.008E-03     6.61013E-03    -105.920E-03     210.970E-03    -106.082E-03     6.51227E-03
             806     1.61897E-03     100.282E-03    -120.745E+06    -232.108E+06    -109.741E+06    -752.656E+03    -105.905E-03     211.857E-03    -105.952E-03     11.9491E-03    -106.018E-03     211.035E-03    -105.989E-03     11.7687E-03
             807     2.42858E-03     100.298E-03    -114.441E+06    -214.753E+06    -92.9159E+06    -1.03890E+06    -105.884E-03     211.874E-03    -105.989E-03     17.3016E-03    -106.019E-03     211.109E-03    -105.976E-03     17.0367E-03
             808     3.23812E-03     100.321E-03    -106.518E+06    -194.784E+06    -73.8792E+06    -1.33896E+06    -105.881E-03     211.908E-03    -106.027E-03     22.2953E-03    -106.039E-03     211.211E-03    -105.959E-03     21.9453E-03
             809     4.04771E-03     100.348E-03    -97.9689E+06    -174.903E+06    -55.5447E+06    -1.76744E+06    -105.868E-03     211.925E-03    -106.057E-03     26.9036E-03    -106.046E-03     211.295E-03    -105.939E-03     26.4689E-03
             810     4.85728E-03     100.381E-03    -89.4761E+06    -155.738E+06    -39.1180E+06    -1.87033E+06    -105.848E-03     211.922E-03    -106.074E-03     30.9471E-03    -106.043E-03     211.360E-03    -105.914E-03     30.4346E-03
             811     5.66705E-03     100.418E-03    -80.7007E+06    -137.387E+06    -24.5812E+06    -2.17451E+06    -105.816E-03     211.895E-03    -106.079E-03     34.3658E-03    -106.025E-03     211.400E-03    -105.885E-03     33.7751E-03
             812     6.47678E-03     100.459E-03    -72.5592E+06    -120.076E+06    -12.2558E+06    -2.18519E+06    -105.781E-03     211.851E-03    -106.071E-03     37.1868E-03    -106.000E-03     211.423E-03    -105.853E-03     36.5241E-03
             813     7.28674E-03     100.501E-03    -65.2782E+06    -103.542E+06    -1.52134E+06    -2.11391E+06    -105.753E-03     211.809E-03    -106.056E-03     39.4289E-03    -105.985E-03     211.446E-03    -105.819E-03     38.6961E-03
             814     8.09649E-03     100.547E-03    -57.9021E+06    -87.1522E+06     8.14986E+06    -2.02800E+06    -105.708E-03     211.744E-03    -106.036E-03     41.1083E-03    -105.951E-03     211.448E-03    -105.785E-03     40.3062E-03
             815     8.90657E-03     100.594E-03    -51.0339E+06    -69.9520E+06     16.7473E+06    -2.06124E+06    -105.626E-03     211.635E-03    -106.009E-03     42.2240E-03    -105.881E-03     211.412E-03    -105.750E-03     41.3517E-03
             816     9.71659E-03     100.642E-03    -44.6052E+06    -53.4868E+06     24.2978E+06    -2.08718E+06    -105.524E-03     211.500E-03    -105.976E-03     42.6912E-03    -105.791E-03     211.348E-03    -105.712E-03     41.7474E-03
             817     10.5268E-03     100.689E-03    -38.4107E+06    -32.7910E+06     31.8420E+06    -1.43398E+06    -105.435E-03     211.371E-03    -105.936E-03     42.5033E-03    -105.721E-03     211.312E-03    -105.674E-03     41.4954E-03
             818     11.3368E-03     100.736E-03    -32.7891E+06    -10.9833E+06     39.5825E+06    -954.989E+03    -105.326E-03     211.224E-03    -105.898E-03     41.6522E-03    -105.635E-03     211.263E-03    -105.637E-03     40.5746E-03
             819     12.1472E-03     100.782E-03    -27.2575E+06     14.4621E+06     45.8850E+06    -131.222E+03    -105.117E-03     210.963E-03    -105.846E-03     39.6980E-03    -105.452E-03     211.119E-03    -105.598E-03     38.5543E-03
             820     12.9575E-03     100.824E-03    -21.9139E+06     65.1444E+06     59.2404E+06     708.438E+03    -104.786E-03     210.574E-03    -105.788E-03     36.1191E-03    -105.189E-03     210.958E-03    -105.554E-03     34.9255E-03
             821     13.7678E-03     100.861E-03    -16.5895E+06     111.480E+06     69.9856E+06     880.365E+03    -104.623E-03     210.345E-03    -105.722E-03     30.4226E-03    -105.076E-03     210.932E-03    -105.510E-03     29.1813E-03
             822     14.5781E-03     100.891E-03    -11.1604E+06     125.238E+06     81.3826E+06     1.16920E+06    -104.476E-03     210.187E-03    -105.711E-03     23.7155E-03    -104.934E-03     210.814E-03    -105.470E-03     22.4028E-03
             823     15.3883E-03     100.913E-03    -5.74445E+06     126.105E+06     99.7465E+06     579.649E+03    -104.078E-03     209.827E-03    -105.749E-03     12.3024E-03    -104.500E-03     210.387E-03    -105.425E-03     11.1785E-03
             824     809.370E-06     101.443E-03    -125.779E+06    -243.739E+06    -122.683E+06    -449.345E+03    -106.027E-03     212.070E-03    -106.043E-03     6.69960E-03    -106.126E-03     211.213E-03    -106.121E-03     6.59797E-03
             825     1.61879E-03     101.453E-03    -121.275E+06    -230.920E+06    -110.213E+06    -743.181E+03    -105.975E-03     212.036E-03    -106.061E-03     11.8817E-03    -106.091E-03     211.221E-03    -106.102E-03     11.7021E-03
             826     2.42824E-03     101.470E-03    -114.770E+06    -213.489E+06    -93.1104E+06    -1.24909E+06    -105.903E-03     211.981E-03    -106.078E-03     17.2248E-03    -106.041E-03     211.224E-03    -106.068E-03     16.9566E-03
             827     3.23784E-03     101.492E-03    -106.815E+06    -193.718E+06    -74.2956E+06    -1.70004E+06    -105.913E-03     212.012E-03    -106.099E-03     22.1983E-03    -106.074E-03     211.321E-03    -106.034E-03     21.8431E-03
             828     4.04738E-03     101.520E-03    -98.3635E+06    -173.908E+06    -55.9091E+06    -1.88921E+06    -105.926E-03     212.049E-03    -106.124E-03     26.7275E-03    -106.107E-03     211.426E-03    -106.008E-03     26.2909E-03
             829     4.85707E-03     101.552E-03    -89.5660E+06    -154.779E+06    -39.3902E+06    -2.37215E+06    -105.887E-03     212.025E-03    -106.139E-03     30.7557E-03    -106.084E-03     211.469E-03    -105.981E-03     30.2362E-03
             830     5.66667E-03     101.589E-03    -81.2852E+06    -136.622E+06    -25.2268E+06    -2.49283E+06    -105.840E-03     211.977E-03    -106.138E-03     34.1843E-03    -106.051E-03     211.488E-03    -105.948E-03     33.5888E-03
             831     6.47649E-03     101.629E-03    -73.3455E+06    -119.612E+06    -12.7877E+06    -2.60876E+06    -105.822E-03     211.950E-03    -106.128E-03     37.0668E-03    -106.045E-03     211.526E-03    -105.912E-03     36.3973E-03
             832     7.28616E-03     101.673E-03    -65.3562E+06    -102.963E+06    -1.76216E+06    -2.80721E+06    -105.791E-03     211.903E-03    -106.112E-03     39.3081E-03    -106.024E-03     211.544E-03    -105.877E-03     38.5652E-03
             833     8.09620E-03     101.718E-03    -58.0704E+06    -86.8902E+06     7.57082E+06    -2.97578E+06    -105.726E-03     211.815E-03    -106.089E-03     40.9458E-03    -105.969E-03     211.521E-03    -105.841E-03     40.1306E-03
             834     8.90608E-03     101.765E-03    -50.9798E+06    -69.7923E+06     16.1308E+06    -2.81345E+06    -105.634E-03     211.692E-03    -106.058E-03     41.9855E-03    -105.888E-03     211.470E-03    -105.802E-03     41.1022E-03
             835     9.71616E-03     101.812E-03    -44.6837E+06    -53.1722E+06     23.8293E+06    -2.57746E+06    -105.519E-03     211.541E-03    -106.022E-03     42.4139E-03    -105.786E-03     211.391E-03    -105.761E-03     41.4628E-03
             836     10.5262E-03     101.860E-03    -38.8508E+06    -33.6963E+06     30.8494E+06    -2.42843E+06    -105.383E-03     211.359E-03    -105.976E-03     42.2630E-03    -105.668E-03     211.297E-03    -105.717E-03     41.2425E-03
             837     11.3366E-03     101.907E-03    -32.8589E+06    -11.8359E+06     38.7684E+06    -1.52819E+06    -105.227E-03     211.157E-03    -105.930E-03     41.3686E-03    -105.534E-03     211.193E-03    -105.672E-03     40.2845E-03
             838     12.1468E-03     101.952E-03    -27.4471E+06     13.5058E+06     45.1304E+06    -941.612E+03    -105.043E-03     210.914E-03    -105.871E-03     39.4182E-03    -105.376E-03     211.066E-03    -105.625E-03     38.2652E-03
             839     12.9571E-03     101.994E-03    -21.7465E+06     63.9332E+06     58.6849E+06    -152.402E+03    -104.790E-03     210.600E-03    -105.810E-03     36.0665E-03    -105.189E-03     210.978E-03    -105.577E-03     34.8610E-03
             840     13.7679E-03     102.032E-03    -16.3630E+06     111.092E+06     69.2051E+06     854.251E+03    -104.562E-03     210.300E-03    -105.739E-03     30.6177E-03    -105.013E-03     210.887E-03    -105.530E-03     29.3759E-03
             841     14.5783E-03     102.062E-03    -11.2505E+06     125.594E+06     80.9292E+06     463.141E+03    -104.254E-03     209.974E-03    -105.720E-03     23.2775E-03    -104.711E-03     210.602E-03    -105.481E-03     21.9552E-03
             842     15.3902E-03     102.081E-03    -5.60011E+06     126.917E+06     100.210E+06     248.557E+03    -103.972E-03     209.724E-03    -105.752E-03     11.5149E-03    -104.393E-03     210.286E-03    -105.427E-03     10.3889E-03
             843     809.322E-06     102.614E-03    -125.942E+06    -242.172E+06    -122.957E+06    -659.161E+03    -106.164E-03     212.305E-03    -106.141E-03     6.62745E-03    -106.266E-03     211.457E-03    -106.222E-03     6.52382E-03
             844     1.61857E-03     102.625E-03    -121.559E+06    -229.688E+06    -110.598E+06    -1.07258E+06    -106.060E-03     212.232E-03    -106.172E-03     11.8435E-03    -106.179E-03     211.425E-03    -106.216E-03     11.6566E-03
             845     2.42805E-03     102.641E-03    -115.008E+06    -212.094E+06    -93.5051E+06    -1.49005E+06    -106.013E-03     212.196E-03    -106.183E-03     17.1833E-03    -106.154E-03     211.447E-03    -106.177E-03     16.9108E-03
             846     3.23749E-03     102.663E-03    -107.272E+06    -192.468E+06    -74.5160E+06    -1.93668E+06    -105.992E-03     212.195E-03    -106.203E-03     22.1751E-03    -106.156E-03     211.511E-03    -106.141E-03     21.8168E-03
             847     4.04701E-03     102.691E-03    -98.5147E+06    -172.885E+06    -56.1698E+06    -2.44074E+06    -105.990E-03     212.211E-03    -106.221E-03     26.6094E-03    -106.172E-03     211.593E-03    -106.109E-03     26.1649E-03
             848     4.85645E-03     102.724E-03    -89.9409E+06    -153.620E+06    -39.8095E+06    -2.62810E+06    -105.924E-03     212.152E-03    -106.228E-03     30.5440E-03    -106.123E-03     211.602E-03    -106.074E-03     30.0197E-03
             849     5.66624E-03     102.760E-03    -81.5167E+06    -135.806E+06    -25.3873E+06    -2.98121E+06    -105.878E-03     212.100E-03    -106.222E-03     33.9917E-03    -106.091E-03     211.615E-03    -106.034E-03     33.3888E-03
             850     6.47592E-03     102.801E-03    -73.1121E+06    -118.609E+06    -12.8108E+06    -3.28792E+06    -105.862E-03     212.069E-03    -106.207E-03     36.8297E-03    -106.085E-03     211.649E-03    -105.993E-03     36.1504E-03
             851     7.28583E-03     102.844E-03    -65.3802E+06    -102.181E+06    -2.18428E+06    -3.55184E+06    -105.830E-03     212.016E-03    -106.186E-03     39.0308E-03    -106.063E-03     211.661E-03    -105.954E-03     38.2772E-03
             852     8.09550E-03     102.889E-03    -58.0183E+06    -86.1649E+06     7.12990E+06    -3.72106E+06    -105.767E-03     211.927E-03    -106.159E-03     40.6359E-03    -106.010E-03     211.637E-03    -105.915E-03     39.8097E-03
             853     8.90548E-03     102.936E-03    -51.3363E+06     -69.804E+06     15.3783E+06    -3.69098E+06    -105.654E-03     211.780E-03    -106.125E-03     41.6692E-03    -105.909E-03     211.559E-03    -105.873E-03     40.7732E-03
             854     9.71550E-03     102.983E-03    -44.7142E+06    -53.3521E+06     23.1107E+06    -3.38454E+06    -105.535E-03     211.620E-03    -106.085E-03     42.1114E-03    -105.800E-03     211.471E-03    -105.828E-03     41.1487E-03
             855     10.5257E-03     103.031E-03    -38.5307E+06    -33.4392E+06     30.6039E+06    -3.05826E+06    -105.362E-03     211.399E-03    -106.037E-03     41.8926E-03    -105.645E-03     211.338E-03    -105.779E-03     40.8631E-03
             856     11.3358E-03     103.077E-03    -32.7474E+06    -13.2142E+06     37.8368E+06    -2.69626E+06    -105.110E-03     211.091E-03    -105.981E-03     40.9844E-03    -105.412E-03     211.120E-03    -105.725E-03     39.8865E-03
             857     12.1463E-03     103.123E-03    -26.9287E+06     12.7198E+06     44.6083E+06    -1.68165E+06    -104.913E-03     210.823E-03    -105.911E-03     39.1782E-03    -105.240E-03     210.971E-03    -105.667E-03     38.0194E-03
             858     12.9569E-03     103.165E-03    -21.9265E+06     62.6459E+06     57.8754E+06    -856.769E+03    -104.688E-03     210.528E-03    -105.840E-03     35.9339E-03    -105.085E-03     210.901E-03    -105.609E-03     34.7216E-03
             859     13.7671E-03     103.203E-03    -16.4668E+06     109.645E+06     68.2196E+06     106.990E+03    -104.314E-03     210.070E-03    -105.756E-03     30.3987E-03    -104.761E-03     210.650E-03    -105.550E-03     29.1502E-03
             860     14.5781E-03     103.231E-03    -10.9733E+06     126.039E+06     80.4066E+06     788.027E+03    -104.044E-03     209.766E-03    -105.722E-03     23.4764E-03    -104.499E-03     210.397E-03    -105.487E-03     22.1648E-03
             861     15.3871E-03     103.253E-03    -5.65893E+06     127.389E+06      99.906E+06     183.160E+03    -103.922E-03     209.671E-03    -105.748E-03     12.0227E-03    -104.344E-03     210.235E-03    -105.425E-03     10.8995E-03
             862     809.023E-06     103.786E-03    -125.874E+06    -240.490E+06    -122.795E+06    -713.104E+03    -106.301E-03     212.525E-03    -106.224E-03     6.53681E-03    -106.405E-03     211.685E-03    -106.307E-03     6.43147E-03
             863     1.61852E-03     103.796E-03    -121.455E+06    -227.942E+06    -110.484E+06    -1.20096E+06    -106.200E-03     212.488E-03    -106.288E-03     11.8044E-03    -106.320E-03     211.689E-03    -106.334E-03     11.6171E-03
             864     2.42768E-03     103.813E-03    -114.950E+06    -210.659E+06    -93.3861E+06    -1.80842E+06    -106.172E-03     212.483E-03    -106.311E-03     17.0433E-03    -106.315E-03     211.741E-03    -106.306E-03     16.7656E-03
             865     3.23707E-03     103.835E-03    -106.970E+06    -190.889E+06    -74.4057E+06    -2.24998E+06    -106.101E-03     212.434E-03    -106.333E-03     22.0415E-03    -106.266E-03     211.757E-03    -106.273E-03     21.6778E-03
             866     4.04645E-03     103.863E-03    -98.6888E+06    -171.444E+06    -56.2049E+06    -2.75523E+06    -106.039E-03     212.381E-03    -106.342E-03     26.4900E-03    -106.225E-03     211.771E-03    -106.232E-03     26.0397E-03
             867     4.85606E-03     103.895E-03    -89.8365E+06    -152.518E+06    -39.8282E+06    -3.30175E+06    -106.016E-03     212.357E-03    -106.341E-03     30.3604E-03    -106.216E-03     211.812E-03    -106.189E-03     29.8252E-03
             868     5.66558E-03     103.932E-03    -81.0612E+06    -134.474E+06    -25.3829E+06    -3.65230E+06    -105.993E-03     212.326E-03    -106.333E-03     33.7617E-03    -106.205E-03     211.847E-03    -106.147E-03     33.1485E-03
             869     6.47523E-03     103.972E-03    -72.9655E+06    -117.611E+06    -13.1930E+06    -4.00440E+06    -105.952E-03     212.268E-03    -106.317E-03     36.5028E-03    -106.175E-03     211.854E-03    -106.106E-03     35.8127E-03
             870     7.28486E-03     104.015E-03    -65.1334E+06    -101.118E+06    -2.46858E+06    -4.20839E+06    -105.878E-03     212.170E-03    -106.292E-03     38.6522E-03    -106.111E-03     211.820E-03    -106.063E-03     37.8885E-03
             871     8.09477E-03     104.060E-03    -57.9815E+06    -85.4277E+06     6.78242E+06    -4.39886E+06    -105.780E-03     212.038E-03    -106.259E-03     40.2433E-03    -106.022E-03     211.752E-03    -106.017E-03     39.4071E-03
             872     8.90465E-03     104.107E-03    -51.0479E+06    -69.1731E+06     15.1322E+06    -4.59205E+06    -105.675E-03     211.893E-03    -106.218E-03     41.2842E-03    -105.928E-03     211.675E-03    -105.968E-03     40.3754E-03
             873     9.71464E-03     104.154E-03    -44.6022E+06    -53.4984E+06     22.5648E+06    -4.50465E+06    -105.521E-03     211.692E-03    -106.171E-03     41.7239E-03    -105.784E-03     211.542E-03    -105.916E-03     40.7462E-03
             874     10.5247E-03     104.201E-03    -38.4184E+06    -34.0124E+06     29.9298E+06    -3.92217E+06    -105.273E-03     211.385E-03    -106.112E-03     41.5631E-03    -105.553E-03     211.321E-03    -105.858E-03     40.5239E-03
             875     11.3351E-03     104.248E-03    -32.7327E+06    -13.1020E+06     37.5912E+06    -3.48916E+06    -105.015E-03     211.061E-03    -106.046E-03     40.7101E-03    -105.317E-03     211.091E-03    -105.792E-03     39.6039E-03
             876     12.1457E-03     104.293E-03    -27.2247E+06     10.9929E+06     43.5684E+06    -3.06406E+06    -104.810E-03     210.774E-03    -105.964E-03     38.9914E-03    -105.134E-03     210.914E-03    -105.723E-03     37.8164E-03
             877     12.9560E-03     104.336E-03    -21.1694E+06     60.7646E+06     57.2747E+06    -1.62181E+06    -104.428E-03     210.308E-03    -105.879E-03     35.7502E-03    -104.817E-03     210.670E-03    -105.650E-03     34.5337E-03
             878     13.7673E-03     104.372E-03    -15.9724E+06     108.518E+06     67.7692E+06    -357.437E+03    -103.966E-03     209.741E-03    -105.775E-03     30.2220E-03    -104.408E-03     210.315E-03    -105.571E-03     28.9735E-03
             879     14.5782E-03     104.402E-03    -10.5609E+06     125.957E+06     80.2977E+06     148.795E+03    -103.732E-03     209.454E-03    -105.722E-03     23.3140E-03    -104.185E-03     210.084E-03    -105.488E-03     21.9976E-03
             880     15.3916E-03     104.422E-03    -5.26131E+06     128.466E+06     100.141E+06     355.209E+03    -103.945E-03     209.685E-03    -105.741E-03     11.7969E-03    -104.366E-03     210.254E-03    -105.419E-03     10.6763E-03
             881     809.330E-06     104.957E-03    -125.483E+06    -238.402E+06    -122.495E+06    -769.049E+03    -106.459E-03     212.799E-03    -106.340E-03     6.49698E-03    -106.564E-03     211.968E-03    -106.425E-03     6.39338E-03
             882     1.61809E-03     104.968E-03    -121.045E+06    -226.020E+06    -110.068E+06    -1.49695E+06    -106.403E-03     212.841E-03    -106.439E-03     11.6888E-03    -106.525E-03     212.051E-03    -106.486E-03     11.4961E-03
             883     2.42735E-03     104.984E-03    -114.495E+06    -208.788E+06    -93.0119E+06    -2.11063E+06    -106.328E-03     212.802E-03    -106.474E-03     16.9478E-03    -106.472E-03     212.068E-03    -106.470E-03     16.6648E-03
             884     3.23647E-03     105.007E-03    -106.717E+06    -189.324E+06    -74.2972E+06    -2.63783E+06    -106.233E-03     212.724E-03    -106.491E-03     21.8389E-03    -106.399E-03     212.055E-03    -106.433E-03     21.4676E-03
             885     4.04595E-03     105.034E-03    -98.0867E+06    -169.694E+06    -56.0850E+06    -3.19382E+06    -106.148E-03     212.641E-03    -106.493E-03     26.2537E-03    -106.333E-03     212.038E-03    -106.385E-03     25.7961E-03
             886     4.85531E-03     105.067E-03    -89.4095E+06    -150.816E+06    -39.6794E+06    -3.83357E+06    -106.163E-03     212.651E-03    -106.488E-03     30.0956E-03    -106.364E-03     212.115E-03    -106.338E-03     29.5521E-03
             887     5.66472E-03     105.104E-03    -80.8847E+06    -133.095E+06    -25.6416E+06    -4.34262E+06    -106.154E-03     212.635E-03    -106.481E-03     33.3919E-03    -106.367E-03     212.163E-03    -106.299E-03     32.7670E-03
             888     6.47426E-03     105.144E-03    -72.5960E+06    -116.172E+06    -13.3494E+06    -4.76479E+06    -106.055E-03     212.519E-03    -106.463E-03     36.1151E-03    -106.279E-03     212.110E-03    -106.256E-03     35.4127E-03
             889     7.28389E-03     105.187E-03    -64.9540E+06    -100.239E+06    -2.77845E+06    -5.11131E+06    -105.923E-03     212.355E-03    -106.432E-03     38.2580E-03    -106.156E-03     212.009E-03    -106.206E-03     37.4807E-03
             890     8.09364E-03     105.232E-03    -57.4527E+06    -84.3663E+06     6.69117E+06    -5.31311E+06    -105.802E-03     212.190E-03    -106.389E-03     39.8600E-03    -106.043E-03     211.909E-03    -106.150E-03     39.0110E-03
             891     8.90352E-03     105.278E-03    -50.6500E+06    -68.4935E+06     14.9748E+06    -5.37086E+06    -105.650E-03     211.988E-03    -106.337E-03     40.8813E-03    -105.902E-03     211.772E-03    -106.090E-03     39.9630E-03
             892     9.71352E-03     105.325E-03    -44.4390E+06    -53.2258E+06     22.3089E+06    -5.23305E+06    -105.403E-03     211.678E-03    -106.275E-03     41.3502E-03    -105.664E-03     211.528E-03    -106.022E-03     40.3656E-03
             893     10.5238E-03     105.372E-03    -38.4252E+06    -34.2202E+06     29.4468E+06    -5.11277E+06    -105.130E-03     211.328E-03    -106.199E-03     41.2345E-03    -105.408E-03     211.263E-03    -105.946E-03     40.1827E-03
             894     11.3344E-03     105.418E-03    -32.3441E+06    -13.6695E+06     36.9980E+06    -4.56261E+06    -104.939E-03     211.057E-03    -106.118E-03     40.4595E-03    -105.236E-03     211.083E-03    -105.866E-03     39.3419E-03
             895     12.1446E-03     105.464E-03    -27.0211E+06     10.5234E+06     43.1600E+06    -3.76663E+06    -104.651E-03     210.676E-03    -106.024E-03     38.7725E-03    -104.973E-03     210.813E-03    -105.785E-03     37.5926E-03
             896     12.9558E-03     105.505E-03    -22.0105E+06     58.7402E+06     56.0038E+06    -2.97506E+06    -104.100E-03     210.020E-03    -105.920E-03     35.4852E-03    -104.486E-03     210.375E-03    -105.694E-03     34.2581E-03
             897     13.7667E-03     105.543E-03    -15.9053E+06     106.511E+06     66.9406E+06    -1.30038E+06    -103.737E-03     209.535E-03    -105.798E-03     29.9432E-03    -104.173E-03     210.099E-03    -105.595E-03     28.6870E-03
             898     14.5782E-03     105.571E-03    -10.9316E+06     125.246E+06     79.4655E+06     222.349E+03    -103.758E-03     209.495E-03    -105.737E-03     23.0620E-03    -104.209E-03     210.121E-03    -105.505E-03     21.7501E-03
             899     15.3867E-03     105.593E-03    -5.92306E+06     128.580E+06     99.3920E+06     482.744E+03    -103.733E-03     209.482E-03    -105.749E-03     11.7744E-03    -104.156E-03     210.052E-03    -105.430E-03     10.6632E-03
             900     808.759E-06     106.130E-03    -124.942E+06    -235.996E+06    -121.827E+06    -880.163E+03    -106.609E-03     213.258E-03    -106.650E-03     6.42952E-03    -106.716E-03     212.438E-03    -106.735E-03     6.32494E-03
             901     1.61791E-03     106.140E-03    -120.632E+06    -223.809E+06    -109.724E+06    -1.72982E+06    -106.580E-03     213.238E-03    -106.658E-03     11.5279E-03    -106.704E-03     212.457E-03    -106.707E-03     11.3300E-03
             902     2.42680E-03     106.157E-03    -114.265E+06    -206.747E+06    -92.9353E+06    -2.41361E+06    -106.510E-03     213.189E-03    -106.679E-03     16.7320E-03    -106.656E-03     212.465E-03    -106.678E-03     16.4435E-03
             903     3.23598E-03     106.179E-03    -106.336E+06    -187.353E+06    -74.3089E+06    -3.14400E+06    -106.429E-03     213.120E-03    -106.691E-03     21.5065E-03    -106.596E-03     212.460E-03    -106.637E-03     21.1268E-03
             904     4.04505E-03     106.207E-03    -97.7301E+06    -167.918E+06    -56.1598E+06    -3.70752E+06    -106.363E-03     213.057E-03    -106.694E-03     25.8809E-03    -106.548E-03     212.462E-03    -106.590E-03     25.4148E-03
             905     4.85435E-03     106.239E-03    -89.0104E+06    -148.821E+06    -39.7191E+06    -4.28774E+06    -106.327E-03     213.015E-03    -106.688E-03     29.7764E-03    -106.529E-03     212.488E-03    -106.542E-03     29.2255E-03
             906     5.66364E-03     106.276E-03    -80.3981E+06    -131.173E+06    -25.5102E+06    -5.07807E+06    -106.281E-03     212.956E-03    -106.675E-03     32.9897E-03    -106.495E-03     212.492E-03    -106.495E-03     32.3531E-03
             907     6.47294E-03     106.316E-03    -72.3520E+06    -114.729E+06    -13.5132E+06    -5.59776E+06    -106.133E-03     212.780E-03    -106.646E-03     35.6693E-03    -106.357E-03     212.378E-03    -106.443E-03     34.9546E-03
             908     7.28262E-03     106.358E-03    -64.5202E+06    -98.7112E+06    -2.81551E+06    -6.06859E+06    -105.973E-03     212.575E-03    -106.603E-03     37.8307E-03    -106.205E-03     212.236E-03    -106.380E-03     37.0408E-03
             909     8.09234E-03     106.403E-03    -57.2368E+06    -83.5129E+06     6.40688E+06    -6.34617E+06    -105.795E-03     212.341E-03    -106.546E-03     39.4431E-03    -106.035E-03     212.062E-03    -106.310E-03     38.5823E-03
             910     8.90222E-03     106.449E-03    -50.6890E+06    -67.9879E+06     14.6261E+06    -6.18160E+06    -105.527E-03     212.002E-03    -106.475E-03     40.4867E-03    -105.777E-03     211.789E-03    -106.230E-03     39.5612E-03
             911     9.71243E-03     106.496E-03    -44.2911E+06    -52.2892E+06     22.1636E+06    -6.24071E+06    -105.264E-03     211.655E-03    -106.391E-03     40.9422E-03    -105.525E-03     211.510E-03    -106.141E-03     39.9483E-03
             912     10.5229E-03     106.543E-03    -37.8746E+06    -33.9552E+06     29.2076E+06    -6.27165E+06    -105.032E-03     211.329E-03    -106.297E-03     40.8287E-03    -105.306E-03     211.264E-03    -106.047E-03     39.7664E-03
             913     11.3331E-03     106.589E-03    -32.0232E+06    -14.2589E+06     36.4303E+06    -5.80611E+06    -104.725E-03     210.923E-03    -106.198E-03     40.1606E-03    -105.018E-03     210.946E-03    -105.949E-03     39.0340E-03
             914     12.1442E-03     106.633E-03    -26.3530E+06     9.24671E+06     42.6428E+06    -4.64618E+06    -104.351E-03     210.434E-03    -106.083E-03     38.5083E-03    -104.665E-03     210.563E-03    -105.845E-03     37.3260E-03
             915     12.9549E-03     106.675E-03    -20.9973E+06     58.0381E+06     55.8954E+06    -3.27774E+06    -103.911E-03     209.871E-03    -105.960E-03     35.2315E-03    -104.290E-03     210.220E-03    -105.735E-03     34.0080E-03
             916     13.7666E-03     106.711E-03    -16.5125E+06     103.542E+06     65.7783E+06    -1.97544E+06    -103.625E-03     209.452E-03    -105.827E-03     29.9893E-03    -104.058E-03     210.003E-03    -105.624E-03     28.7339E-03
             917     14.5773E-03     106.742E-03    -11.0732E+06     123.113E+06     78.1348E+06    -46.7721E+03    -103.514E-03     209.265E-03    -105.751E-03     23.5412E-03    -103.962E-03     209.884E-03    -105.523E-03     22.2327E-03
             918     15.3908E-03     106.762E-03    -5.50049E+06     129.764E+06     99.0597E+06     504.214E+03    -103.489E-03     209.237E-03    -105.749E-03     12.2378E-03    -103.913E-03     209.815E-03    -105.433E-03     11.1266E-03
             919     808.701E-06     107.303E-03    -124.285E+06    -233.424E+06    -121.468E+06    -883.447E+03    -106.912E-03     213.884E-03    -106.972E-03     6.27018E-03    -107.020E-03     213.075E-03    -107.060E-03     6.16416E-03
             920     1.61734E-03     107.314E-03    -120.205E+06    -221.285E+06    -109.415E+06    -1.78807E+06    -106.801E-03     213.753E-03    -106.952E-03     11.3573E-03    -106.927E-03     212.984E-03    -107.004E-03     11.1582E-03
             921     2.42617E-03     107.330E-03    -113.772E+06    -204.128E+06    -92.6175E+06    -2.75194E+06    -106.739E-03     213.686E-03    -106.948E-03     16.4485E-03    -106.886E-03     212.974E-03    -106.950E-03     16.1547E-03
             922     3.23500E-03     107.352E-03    -106.012E+06    -185.075E+06    -74.1856E+06    -3.60787E+06    -106.679E-03     213.631E-03    -106.953E-03     21.2317E-03    -106.847E-03     212.982E-03    -106.902E-03     20.8447E-03
             923     4.04399E-03     107.379E-03    -97.4381E+06    -165.733E+06    -56.2217E+06    -4.46157E+06    -106.624E-03     213.578E-03    -106.954E-03     25.5422E-03    -106.811E-03     212.994E-03    -106.854E-03     25.0642E-03
             924     4.85303E-03     107.412E-03    -88.6347E+06    -146.761E+06    -39.9319E+06    -5.11573E+06    -106.503E-03     213.445E-03    -106.942E-03     29.3877E-03    -106.706E-03     212.928E-03    -106.800E-03     28.8254E-03
             925     5.66220E-03     107.449E-03    -80.3053E+06    -129.160E+06    -25.7247E+06    -5.62945E+06    -106.337E-03     213.247E-03    -106.910E-03     32.5683E-03    -106.553E-03     212.794E-03    -106.735E-03     31.9254E-03
             926     6.47167E-03     107.488E-03    -72.1062E+06    -112.632E+06    -13.4370E+06    -6.51238E+06    -106.199E-03     213.060E-03    -106.862E-03     35.2347E-03    -106.423E-03     212.668E-03    -106.661E-03     34.5087E-03
             927     7.28109E-03     107.531E-03    -64.2771E+06    -97.1974E+06    -2.93002E+06    -6.99210E+06    -106.005E-03     212.805E-03    -106.800E-03     37.3969E-03    -106.237E-03     212.472E-03    -106.581E-03     36.5974E-03
             928     8.09081E-03     107.575E-03    -57.3649E+06    -82.3538E+06     6.17775E+06    -7.09375E+06    -105.698E-03     212.419E-03    -106.722E-03     38.9726E-03    -105.939E-03     212.146E-03    -106.488E-03     38.1061E-03
             929     8.90088E-03     107.621E-03    -50.4845E+06    -67.0331E+06     14.4232E+06    -7.45151E+06    -105.382E-03     212.007E-03    -106.625E-03     40.0345E-03    -105.632E-03     211.798E-03    -106.382E-03     39.0982E-03
             930     9.71121E-03     107.667E-03    -43.5501E+06    -51.4111E+06     21.9840E+06    -7.51918E+06    -105.134E-03     211.651E-03    -106.517E-03     40.5914E-03    -105.391E-03     211.507E-03    -106.270E-03     39.5889E-03
             931     10.5214E-03     107.714E-03    -37.6579E+06    -33.5731E+06     28.9137E+06    -7.23742E+06    -104.828E-03     211.230E-03    -106.401E-03     40.5619E-03    -105.100E-03     211.165E-03    -106.153E-03     39.4967E-03
             932     11.3324E-03     107.759E-03    -32.0606E+06    -14.3110E+06     36.0047E+06    -6.76903E+06    -104.417E-03     210.694E-03    -106.277E-03     39.9005E-03    -104.707E-03     210.715E-03    -106.030E-03     38.7725E-03
             933     12.1433E-03     107.804E-03    -26.5760E+06     7.81816E+06     41.8460E+06    -6.04845E+06    -104.046E-03     210.183E-03    -106.137E-03     38.3060E-03    -104.357E-03     210.305E-03    -105.900E-03     37.1168E-03
             934     12.9549E-03     107.844E-03    -20.8374E+06     55.6330E+06     54.8794E+06    -4.38658E+06    -103.742E-03     209.737E-03    -105.995E-03     35.2024E-03    -104.114E-03     210.073E-03    -105.771E-03     33.9735E-03
             935     13.7657E-03     107.882E-03    -15.0528E+06     100.879E+06     65.2881E+06    -1.83473E+06    -103.474E-03     209.324E-03    -105.851E-03     30.0252E-03    -103.894E-03     209.860E-03    -105.649E-03     28.7764E-03
             936     14.5778E-03     107.910E-03    -10.5976E+06     121.462E+06     77.5365E+06    -367.776E+03    -103.289E-03     209.050E-03    -105.762E-03     23.3621E-03    -103.730E-03     209.661E-03    -105.535E-03     22.0535E-03
             937     15.3875E-03     107.932E-03    -5.62407E+06     130.022E+06     98.7277E+06     141.674E+03    -103.227E-03     208.972E-03    -105.745E-03     11.9464E-03    -103.650E-03     209.551E-03    -105.432E-03     10.8359E-03
             938     808.240E-06     108.477E-03    -124.058E+06    -230.729E+06    -121.099E+06    -1.14878E+06    -107.363E-03     214.549E-03    -107.186E-03     6.14687E-03    -107.475E-03     213.752E-03    -107.277E-03     6.03460E-03
             939     1.61675E-03     108.487E-03    -119.653E+06    -218.349E+06    -109.203E+06    -1.99499E+06    -107.136E-03     214.421E-03    -107.284E-03     11.1995E-03    -107.264E-03     213.665E-03    -107.340E-03     10.9983E-03
             940     2.42538E-03     108.503E-03    -113.410E+06    -201.341E+06    -92.5554E+06    -2.99794E+06    -107.032E-03     214.307E-03    -107.275E-03     16.2392E-03    -107.182E-03     213.607E-03    -107.281E-03     15.9413E-03
             941     3.23404E-03     108.525E-03    -105.680E+06    -182.277E+06    -74.0824E+06    -4.05844E+06    -106.958E-03     214.228E-03    -107.270E-03     20.9453E-03    -107.129E-03     213.591E-03    -107.223E-03     20.5520E-03
             942     4.04276E-03     108.553E-03    -97.2443E+06    -163.055E+06    -56.2854E+06    -5.00908E+06    -106.855E-03     214.114E-03    -107.259E-03     25.2524E-03    -107.044E-03     213.543E-03    -107.163E-03     24.7676E-03
             943     4.85149E-03     108.585E-03     -88.769E+06    -144.437E+06    -40.1450E+06    -5.87502E+06    -106.662E-03     213.891E-03    -107.230E-03     29.0089E-03    -106.867E-03     213.385E-03    -107.092E-03     28.4375E-03
             944     5.66072E-03     108.621E-03    -80.1491E+06    -126.958E+06    -25.9317E+06    -6.73730E+06    -106.430E-03     213.605E-03    -107.175E-03     32.1845E-03    -106.647E-03     213.162E-03    -107.005E-03     31.5300E-03
             945     6.46995E-03     108.661E-03    -72.0244E+06    -110.464E+06    -13.6030E+06    -7.21959E+06    -106.217E-03     213.319E-03    -107.102E-03     34.8239E-03    -106.443E-03     212.937E-03    -106.905E-03     34.0939E-03
             946     7.27948E-03     108.703E-03    -64.7772E+06    -95.4275E+06    -3.13879E+06    -7.75818E+06    -105.927E-03     212.940E-03    -107.013E-03     36.9583E-03    -106.163E-03     212.616E-03    -106.796E-03     36.1553E-03
             947     8.08930E-03     108.747E-03    -57.2642E+06    -80.7152E+06     6.03692E+06    -8.34952E+06    -105.580E-03     212.484E-03    -106.904E-03     38.5551E-03    -105.822E-03     212.218E-03    -106.673E-03     37.6803E-03
             948     8.89947E-03     108.792E-03    -49.8607E+06    -65.4703E+06     14.3419E+06    -8.72118E+06    -105.251E-03     212.030E-03    -106.779E-03     39.6784E-03    -105.498E-03     211.826E-03    -106.540E-03     38.7354E-03
             949     9.70973E-03     108.838E-03    -43.4672E+06    -50.8976E+06     21.5362E+06    -8.66999E+06    -104.887E-03     211.530E-03    -106.643E-03     40.3070E-03    -105.142E-03     211.388E-03    -106.399E-03     39.3018E-03
             950     10.5207E-03     108.884E-03    -37.4760E+06    -33.2745E+06     28.5384E+06    -8.27087E+06    -104.496E-03     210.992E-03    -106.496E-03     40.3366E-03    -104.765E-03     210.927E-03    -106.251E-03     39.2721E-03
             951     11.3314E-03     108.929E-03    -31.7014E+06    -14.0687E+06     35.7025E+06    -7.99535E+06    -104.140E-03     210.483E-03    -106.344E-03     39.6749E-03    -104.426E-03     210.504E-03    -106.099E-03     38.5442E-03
             952     12.1430E-03     108.973E-03    -26.1944E+06     6.45607E+06     41.3041E+06    -6.93119E+06    -103.844E-03     210.027E-03    -106.183E-03     38.1590E-03    -104.148E-03     210.142E-03    -105.948E-03     36.9690E-03
             953     12.9540E-03     109.014E-03    -21.5144E+06     52.4134E+06     53.2670E+06    -5.09393E+06    -103.527E-03     209.551E-03    -106.024E-03     35.1948E-03    -103.894E-03     209.874E-03    -105.803E-03     33.9660E-03
             954     13.7661E-03     109.050E-03    -16.7709E+06     97.1275E+06     63.3288E+06    -2.60051E+06    -103.318E-03     209.186E-03    -105.867E-03     30.0004E-03    -103.738E-03     209.707E-03    -105.667E-03     28.7498E-03
             955     14.5770E-03     109.080E-03    -11.0780E+06     120.070E+06     75.9914E+06    -106.680E+03    -103.163E-03     208.929E-03    -105.766E-03     23.5469E-03    -103.603E-03     209.535E-03    -105.544E-03     22.2484E-03
             956     15.3899E-03     109.101E-03    -5.51330E+06     130.587E+06     97.6687E+06     20.6756E+03    -103.034E-03     208.773E-03    -105.739E-03     12.1964E-03    -103.456E-03     209.357E-03    -105.432E-03     11.0865E-03
             957     808.210E-06     109.652E-03    -123.507E+06    -227.385E+06    -120.949E+06    -1.45842E+06    -107.623E-03     215.155E-03    -107.532E-03     6.10653E-03    -107.737E-03     214.374E-03    -107.628E-03     5.99058E-03
             958     1.61625E-03     109.661E-03    -119.437E+06    -215.225E+06    -109.204E+06    -2.49252E+06    -107.553E-03     215.162E-03    -107.609E-03     11.1279E-03    -107.684E-03     214.422E-03    -107.670E-03     10.9195E-03
             959     2.42440E-03     109.678E-03    -112.978E+06    -198.349E+06    -92.6185E+06    -3.44648E+06    -107.428E-03     215.057E-03    -107.629E-03     16.0719E-03    -107.580E-03     214.372E-03    -107.640E-03     15.7686E-03
             960     3.23276E-03     109.700E-03    -105.446E+06    -179.212E+06    -74.2191E+06    -4.36877E+06    -107.257E-03     214.881E-03    -107.624E-03     20.7046E-03    -107.431E-03     214.260E-03    -107.582E-03     20.3096E-03
             961     4.04124E-03     109.727E-03    -97.2892E+06    -160.092E+06    -56.3237E+06    -5.43571E+06    -107.036E-03     214.628E-03    -107.593E-03     24.9091E-03    -107.229E-03     214.072E-03    -107.501E-03     24.4226E-03
             962     4.85018E-03     109.759E-03    -88.5616E+06    -141.456E+06    -40.0843E+06    -6.56955E+06    -106.779E-03     214.312E-03    -107.533E-03     28.6054E-03    -106.987E-03     213.820E-03    -107.400E-03     28.0300E-03
             963     5.65898E-03     109.795E-03    -80.2831E+06    -124.365E+06    -26.0088E+06    -7.44310E+06    -106.512E-03     213.963E-03    -107.451E-03     31.8430E-03    -106.732E-03     213.532E-03    -107.284E-03     31.1855E-03
             964     6.46829E-03     109.834E-03    -72.4184E+06    -108.508E+06    -13.8425E+06    -8.10265E+06    -106.169E-03     213.516E-03    -107.347E-03     34.5153E-03    -106.399E-03     213.144E-03    -107.154E-03     33.7828E-03
             965     7.27790E-03     109.875E-03    -64.4199E+06    -92.9692E+06    -3.07139E+06    -8.80624E+06    -105.800E-03     213.020E-03    -107.221E-03     36.5994E-03    -106.036E-03     212.707E-03    -107.008E-03     35.7939E-03
             966     8.08789E-03     109.919E-03    -56.9966E+06    -78.5705E+06     5.96584E+06    -9.65870E+06    -105.434E-03     212.512E-03    -107.077E-03     38.2097E-03    -105.675E-03     212.254E-03    -106.851E-03     37.3306E-03
             967     8.89801E-03     109.964E-03    -50.1697E+06    -64.1153E+06     13.9915E+06    -9.92124E+06    -105.034E-03     211.955E-03    -106.921E-03     39.4331E-03    -105.282E-03     211.757E-03    -106.686E-03     38.4889E-03
             968     9.70876E-03     110.009E-03    -43.6651E+06    -49.7851E+06     21.2977E+06    -10.0150E+06    -104.623E-03     211.378E-03    -106.755E-03     40.0512E-03    -104.879E-03     211.240E-03    -106.513E-03     39.0432E-03
             969     10.5195E-03     110.054E-03    -37.3276E+06    -33.2039E+06     28.1073E+06    -9.78736E+06    -104.216E-03     210.794E-03    -106.578E-03     40.0111E-03    -104.482E-03     210.728E-03    -106.335E-03     38.9413E-03
             970     11.3311E-03     110.099E-03    -31.4826E+06    -13.8277E+06     35.5060E+06    -8.96030E+06    -103.905E-03     210.307E-03    -106.402E-03     39.3781E-03    -104.189E-03     210.327E-03    -106.159E-03     38.2479E-03
             971     12.1422E-03     110.142E-03    -26.5074E+06     4.63949E+06     40.3878E+06    -7.81229E+06    -103.696E-03     209.922E-03    -106.225E-03     37.8962E-03    -103.997E-03     210.027E-03    -105.992E-03     36.7043E-03
             972     12.9541E-03     110.183E-03    -21.0045E+06     49.7681E+06     52.4539E+06    -5.80082E+06    -103.385E-03     209.440E-03    -106.055E-03     34.9682E-03    -103.744E-03     209.749E-03    -105.835E-03     33.7369E-03
             973     13.7654E-03     110.220E-03    -15.3834E+06     93.8014E+06     62.4143E+06    -3.40407E+06    -103.157E-03     209.043E-03    -105.886E-03     29.8912E-03    -103.563E-03     209.547E-03    -105.688E-03     28.6334E-03
             974     14.5775E-03     110.249E-03    -10.5092E+06     117.599E+06     75.0986E+06    -1.41568E+06    -103.026E-03     208.802E-03    -105.775E-03     23.1754E-03    -103.458E-03     209.396E-03    -105.555E-03     21.8552E-03
             975     15.3884E-03     110.269E-03    -5.50345E+06     130.925E+06     97.7226E+06     11.9763E+03    -102.874E-03     208.616E-03    -105.742E-03     11.7984E-03    -103.297E-03     209.200E-03    -105.435E-03     10.6852E-03
             976     807.865E-06     110.827E-03    -123.228E+06    -223.543E+06    -120.173E+06    -1.58075E+06    -107.936E-03     215.914E-03    -107.978E-03     6.01379E-03    -108.055E-03     215.151E-03    -108.076E-03     5.89768E-03
             977     1.61573E-03     110.837E-03    -119.142E+06    -211.745E+06    -108.922E+06    -2.61274E+06    -107.904E-03     215.887E-03    -107.983E-03     10.9003E-03    -108.039E-03     215.163E-03    -108.048E-03     10.6925E-03
             978     2.42357E-03     110.853E-03    -113.142E+06    -195.036E+06    -92.6779E+06    -3.80381E+06    -107.764E-03     215.756E-03    -107.992E-03     15.8735E-03    -107.920E-03     215.087E-03    -108.009E-03     15.5701E-03
             979     3.23157E-03     110.875E-03    -105.429E+06    -176.064E+06    -74.2517E+06    -4.89243E+06    -107.519E-03     215.492E-03    -107.972E-03     20.5541E-03    -107.697E-03     214.886E-03    -107.935E-03     20.1576E-03
             980     4.03994E-03     110.902E-03    -96.9061E+06    -156.639E+06    -56.1885E+06    -6.10284E+06    -107.212E-03     215.128E-03    -107.916E-03     24.6982E-03    -107.408E-03     214.587E-03    -107.829E-03     24.2102E-03
             981     4.84840E-03     110.933E-03    -88.5946E+06    -138.387E+06    -40.0750E+06    -7.09691E+06    -106.877E-03     214.703E-03    -107.826E-03     28.3768E-03    -107.089E-03     214.226E-03    -107.698E-03     27.8035E-03
             982     5.65755E-03     110.968E-03    -80.3901E+06    -121.498E+06    -25.8231E+06    -7.97808E+06    -106.509E-03     214.220E-03    -107.711E-03     31.5674E-03    -106.733E-03     213.802E-03    -107.547E-03     30.9146E-03
             983     6.46680E-03     111.007E-03    -71.9972E+06    -105.521E+06    -13.4173E+06    -9.11098E+06    -106.099E-03     213.669E-03    -107.570E-03     34.1679E-03    -106.329E-03     213.309E-03    -107.380E-03     33.4358E-03
             984     7.27652E-03     111.048E-03    -64.0409E+06    -90.5526E+06    -3.04566E+06    -10.0499E+06    -105.653E-03     213.059E-03    -107.407E-03     36.2967E-03    -105.888E-03     212.755E-03    -107.198E-03     35.4906E-03
             985     8.08647E-03     111.091E-03    -56.9102E+06    -76.2575E+06     6.09969E+06    -10.5237E+06    -105.213E-03     212.441E-03    -107.228E-03     37.9775E-03    -105.455E-03     212.193E-03    -107.004E-03     37.1039E-03
             986     8.89710E-03     111.134E-03    -50.3397E+06    -62.2703E+06     14.0239E+06    -11.0922E+06    -104.810E-03     211.849E-03    -107.039E-03     39.1855E-03    -105.060E-03     211.658E-03    -106.805E-03     38.2433E-03
             987     9.70780E-03     111.180E-03    -43.8312E+06    -48.3962E+06     21.0980E+06    -11.3604E+06    -104.417E-03     211.261E-03    -106.844E-03     39.7529E-03    -104.672E-03     211.128E-03    -106.605E-03     38.7434E-03
             988     10.5190E-03     111.224E-03    -37.8018E+06    -32.6322E+06     27.6706E+06    -11.0957E+06    -104.066E-03     210.714E-03    -106.647E-03     39.7356E-03    -104.333E-03     210.650E-03    -106.407E-03     38.6623E-03
             989     11.3301E-03     111.269E-03    -32.2271E+06    -14.4826E+06     34.3659E+06    -10.3183E+06    -103.801E-03     210.257E-03    -106.456E-03     39.1263E-03    -104.084E-03     210.274E-03    -106.217E-03     37.9906E-03
             990     12.1419E-03     111.312E-03    -26.4012E+06     3.58093E+06     39.5428E+06    -8.94878E+06    -103.581E-03     209.850E-03    -106.269E-03     37.5588E-03    -103.876E-03     209.950E-03    -106.038E-03     36.3620E-03
             991     12.9532E-03     111.352E-03    -20.7360E+06     47.3682E+06     51.1184E+06    -7.47360E+06    -103.247E-03     209.335E-03    -106.087E-03     34.7299E-03    -103.598E-03     209.632E-03    -105.870E-03     33.4846E-03
             992     13.7653E-03     111.389E-03    -15.3809E+06     89.3489E+06     60.8231E+06    -4.50600E+06    -102.950E-03     208.858E-03    -105.908E-03     29.8402E-03    -103.347E-03     209.341E-03    -105.711E-03     28.5755E-03
             993     14.5768E-03     111.417E-03    -10.5792E+06     114.530E+06     73.0163E+06    -854.790E+03    -102.773E-03     208.551E-03    -105.778E-03     23.4738E-03    -103.197E-03     209.133E-03    -105.564E-03     22.1716E-03
             994     15.3888E-03     111.439E-03    -5.71642E+06     130.711E+06     96.3112E+06     142.051E+03    -102.616E-03     208.345E-03    -105.729E-03     12.2584E-03    -103.037E-03     208.931E-03    -105.429E-03     11.1564E-03
             995     807.317E-06     112.004E-03    -123.199E+06    -219.817E+06    -120.126E+06    -1.10382E+06    -108.347E-03     216.763E-03    -108.416E-03     6.03587E-03    -108.472E-03     216.018E-03    -108.519E-03     5.92744E-03
             996     1.61483E-03     112.013E-03    -119.169E+06    -207.919E+06    -108.696E+06    -2.74062E+06    -108.177E-03     216.555E-03    -108.378E-03     10.8435E-03    -108.317E-03     215.850E-03    -108.447E-03     10.6394E-03
             997     2.42263E-03     112.030E-03    -112.811E+06    -191.288E+06    -92.3377E+06    -4.04527E+06    -107.972E-03     216.306E-03    -108.335E-03     15.7919E-03    -108.132E-03     215.655E-03    -108.356E-03     15.4924E-03
             998     3.23057E-03     112.050E-03    -105.023E+06    -172.291E+06    -73.7905E+06    -5.44102E+06    -107.695E-03     215.972E-03    -108.277E-03     20.3552E-03    -107.876E-03     215.383E-03    -108.244E-03     19.9610E-03
             999     4.03874E-03     112.077E-03    -96.8929E+06    -153.163E+06    -55.9572E+06    -6.54070E+06    -107.321E-03     215.509E-03    -108.188E-03     24.5288E-03    -107.522E-03     214.984E-03    -108.105E-03     24.0467E-03
            1000     4.84743E-03     112.108E-03    -88.4320E+06    -135.041E+06    -39.4845E+06    -7.64465E+06    -106.935E-03     215.005E-03    -108.069E-03     28.2444E-03    -107.151E-03     214.542E-03    -107.943E-03     27.6780E-03
            1001     5.65616E-03     112.143E-03    -79.5868E+06    -118.009E+06    -25.0535E+06    -8.99434E+06    -106.490E-03     214.412E-03    -107.922E-03     31.3869E-03    -106.715E-03     214.008E-03    -107.761E-03     30.7377E-03
            1002     6.46556E-03     112.180E-03    -71.3363E+06    -102.258E+06    -13.0136E+06    -10.1332E+06    -105.994E-03     213.740E-03    -107.746E-03     33.9939E-03    -106.225E-03     213.393E-03    -107.560E-03     33.2669E-03
            1003     7.27528E-03     112.221E-03    -63.8878E+06    -87.9153E+06    -2.72245E+06    -10.8588E+06    -105.493E-03     213.043E-03    -107.550E-03     36.1029E-03    -105.730E-03     212.749E-03    -107.343E-03     35.3057E-03
            1004     8.08575E-03     112.262E-03    -56.6699E+06    -73.9190E+06     6.33810E+06    -11.5191E+06    -105.057E-03     212.397E-03    -107.341E-03     37.7592E-03    -105.300E-03     212.158E-03    -107.120E-03     36.8927E-03
            1005     8.89619E-03     112.306E-03    -49.7806E+06    -60.0144E+06     14.3236E+06    -11.9985E+06    -104.669E-03     211.797E-03    -107.128E-03     38.8679E-03    -104.918E-03     211.614E-03    -106.897E-03     37.9320E-03
            1006     9.70713E-03     112.350E-03    -43.7284E+06    -46.7315E+06     21.1192E+06    -12.2754E+06    -104.278E-03     211.192E-03    -106.914E-03     39.3839E-03    -104.533E-03     211.065E-03    -106.678E-03     38.3790E-03
            1007     10.5183E-03     112.394E-03    -37.8429E+06    -32.0663E+06     27.2868E+06    -12.2170E+06    -103.991E-03     210.694E-03    -106.704E-03     39.4669E-03    -104.255E-03     210.632E-03    -106.466E-03     38.3946E-03
            1008     11.3298E-03     112.438E-03    -32.0333E+06    -14.6174E+06     33.8657E+06    -11.6979E+06    -103.748E-03     210.253E-03    -106.504E-03     38.9297E-03    -104.027E-03     210.268E-03    -106.267E-03     37.7895E-03
            1009     12.1410E-03     112.481E-03    -26.5010E+06     2.21501E+06     38.6848E+06    -10.7769E+06    -103.449E-03     209.757E-03    -106.308E-03     37.4795E-03    -103.740E-03     209.850E-03    -106.079E-03     36.2714E-03
            1010     12.9531E-03     112.521E-03    -21.1724E+06     45.2555E+06     50.3722E+06    -8.59106E+06    -103.082E-03     209.198E-03    -106.116E-03     34.7616E-03    -103.429E-03     209.485E-03    -105.899E-03     33.5134E-03
            1011     13.7648E-03     112.557E-03    -16.4134E+06     83.8542E+06     59.0335E+06    -5.10190E+06    -102.790E-03     208.715E-03    -105.926E-03     29.8268E-03    -103.180E-03     209.174E-03    -105.728E-03     28.5649E-03
            1012     14.5772E-03     112.586E-03    -11.0989E+06     110.515E+06     70.9574E+06    -1.81348E+06    -102.504E-03     208.282E-03    -105.779E-03     23.1341E-03    -102.921E-03     208.846E-03    -105.568E-03     21.8245E-03
            1013     15.3898E-03     112.606E-03    -5.35484E+06     131.166E+06     95.6621E+06    -209.437E+03    -102.420E-03     208.136E-03    -105.717E-03     11.7756E-03    -102.838E-03     208.724E-03    -105.421E-03     10.6691E-03
            1014     807.237E-06     113.181E-03    -122.754E+06    -216.069E+06    -120.325E+06    -1.62645E+06    -108.612E-03     217.306E-03    -108.694E-03     6.13451E-03    -108.739E-03     216.579E-03    -108.805E-03     6.02369E-03
            1015     1.61451E-03     113.191E-03    -118.469E+06    -203.558E+06    -108.034E+06    -2.92322E+06    -108.451E-03     217.102E-03    -108.651E-03     10.8894E-03    -108.596E-03     216.416E-03    -108.724E-03     10.6883E-03
            1016     2.42201E-03     113.206E-03    -112.231E+06    -187.132E+06    -91.6691E+06    -4.45039E+06    -108.157E-03     216.753E-03    -108.596E-03     15.7357E-03    -108.322E-03     216.120E-03    -108.620E-03     15.4411E-03
            1017     3.22975E-03     113.227E-03    -104.810E+06    -168.323E+06    -73.3667E+06    -5.70159E+06    -107.759E-03     216.264E-03    -108.505E-03     20.2227E-03    -107.945E-03     215.693E-03    -108.476E-03     19.8383E-03
            1018     4.03795E-03     113.252E-03    -96.4335E+06    -149.263E+06    -54.9978E+06    -7.11913E+06    -107.351E-03     215.733E-03    -108.382E-03     24.4236E-03    -107.555E-03     215.225E-03    -108.301E-03     23.9508E-03
            1019     4.84639E-03     113.283E-03    -87.3393E+06    -131.034E+06    -38.4733E+06    -8.63770E+06    -106.913E-03     215.144E-03    -108.231E-03     28.1525E-03    -107.129E-03     214.696E-03    -108.107E-03     27.5934E-03
            1020     5.65547E-03     113.317E-03    -78.7475E+06    -114.382E+06    -24.4354E+06    -9.83329E+06    -106.404E-03     214.456E-03    -108.052E-03     31.2647E-03    -106.629E-03     214.065E-03    -107.894E-03     30.6258E-03
            1021     6.46487E-03     113.354E-03     -70.887E+06    -99.0531E+06    -12.4436E+06    -10.7798E+06    -105.875E-03     213.723E-03    -107.848E-03     33.9102E-03    -106.107E-03     213.388E-03    -107.663E-03     33.1974E-03
            1022     7.27490E-03     113.393E-03    -63.1081E+06    -84.9002E+06    -1.98780E+06    -11.7888E+06    -105.441E-03     213.072E-03    -107.630E-03     35.9844E-03    -105.678E-03     212.789E-03    -107.426E-03     35.1974E-03
            1023     8.08495E-03     113.434E-03    -55.7109E+06    -71.2491E+06     7.00737E+06    -12.4508E+06    -105.029E-03     212.438E-03    -107.409E-03     37.5784E-03    -105.269E-03     212.207E-03    -107.190E-03     36.7208E-03
            1024     8.89565E-03     113.477E-03    -49.1097E+06    -57.9883E+06     14.7278E+06    -12.8752E+06    -104.593E-03     211.778E-03    -107.185E-03     38.6436E-03    -104.839E-03     211.601E-03    -106.956E-03     37.7164E-03
            1025     9.70665E-03     113.521E-03    -42.7247E+06    -44.8214E+06     21.6374E+06    -13.2877E+06    -104.259E-03     211.222E-03    -106.963E-03     39.1851E-03    -104.511E-03     211.100E-03    -106.728E-03     38.1857E-03
            1026     10.5178E-03     113.564E-03    -36.7948E+06    -30.9233E+06     27.7532E+06    -13.2670E+06    -103.967E-03     210.714E-03    -106.748E-03     39.2809E-03    -104.226E-03     210.653E-03    -106.511E-03     38.2122E-03
            1027     11.3291E-03     113.608E-03    -31.0915E+06    -14.2094E+06     34.0680E+06    -12.8862E+06    -103.606E-03     210.145E-03    -106.539E-03     38.7409E-03    -103.879E-03     210.159E-03    -106.303E-03     37.6020E-03
            1028     12.1411E-03     113.650E-03    -25.8601E+06     1.63078E+06     38.7641E+06    -11.9491E+06    -103.318E-03     209.651E-03    -106.332E-03     37.3669E-03    -103.603E-03     209.737E-03    -106.103E-03     36.1586E-03
            1029     12.9528E-03     113.690E-03    -20.9335E+06     42.0102E+06     49.3736E+06    -9.99829E+06    -102.997E-03     209.128E-03    -106.131E-03     34.6729E-03    -103.336E-03     209.398E-03    -105.915E-03     33.4194E-03
            1030     13.7649E-03     113.726E-03    -15.1834E+06     78.0251E+06     57.9304E+06    -6.25113E+06    -102.663E-03     208.597E-03    -105.935E-03     29.7178E-03    -103.036E-03     209.026E-03    -105.736E-03     28.4488E-03
            1031     14.5767E-03     113.754E-03    -10.4144E+06     106.593E+06     69.3597E+06    -2.20677E+06    -102.425E-03     208.201E-03    -105.776E-03     23.3107E-03    -102.830E-03     208.746E-03    -105.569E-03     22.0021E-03
            1032     15.3881E-03     113.775E-03    -5.75167E+06     130.493E+06     94.2752E+06    -455.998E+03    -102.208E-03     207.912E-03    -105.704E-03     12.2213E-03    -102.626E-03     208.499E-03    -105.413E-03     11.1172E-03
            1033     807.033E-06     114.359E-03    -122.038E+06    -211.384E+06    -119.247E+06    -2.12011E+06    -108.779E-03     217.559E-03    -108.781E-03     5.97651E-03    -108.910E-03     216.854E-03    -108.894E-03     5.86489E-03
            1034     1.61429E-03     114.368E-03    -117.808E+06    -199.355E+06    -107.519E+06    -3.15942E+06    -108.559E-03     217.331E-03    -108.772E-03     10.9061E-03    -108.706E-03     216.665E-03    -108.850E-03     10.7137E-03
            1035     2.42148E-03     114.384E-03    -111.703E+06    -182.471E+06    -90.6729E+06    -4.63910E+06    -108.209E-03     216.915E-03    -108.706E-03     15.7490E-03    -108.378E-03     216.303E-03    -108.733E-03     15.4653E-03
            1036     3.22941E-03     114.403E-03    -103.985E+06    -163.954E+06    -72.2374E+06    -6.46349E+06    -107.769E-03     216.365E-03    -108.596E-03     20.3238E-03    -107.958E-03     215.813E-03    -108.569E-03     19.9466E-03
            1037     4.03757E-03     114.429E-03    -95.0031E+06    -144.850E+06    -53.9505E+06    -7.97571E+06    -107.339E-03     215.792E-03    -108.453E-03     24.4923E-03    -107.543E-03     215.301E-03    -108.375E-03     24.0299E-03
            1038     4.84622E-03     114.458E-03    -86.3582E+06    -126.826E+06    -37.6865E+06    -9.31020E+06    -106.822E-03     215.103E-03    -108.281E-03     28.1337E-03    -107.039E-03     214.672E-03    -108.160E-03     27.5900E-03
            1039     5.65521E-03     114.491E-03    -78.0391E+06    -110.668E+06    -23.5993E+06    -10.5971E+06    -106.299E-03     214.380E-03    -108.081E-03     31.2167E-03    -106.525E-03     214.005E-03    -107.926E-03     30.5932E-03
            1040     6.46483E-03     114.527E-03    -69.6412E+06    -95.5248E+06    -11.2947E+06    -11.7176E+06    -105.859E-03     213.725E-03    -107.866E-03     33.7888E-03    -106.089E-03     213.402E-03    -107.683E-03     33.0894E-03
            1041     7.27463E-03     114.566E-03    -61.8407E+06    -81.4378E+06    -853.185E+03    -12.6382E+06    -105.439E-03     213.085E-03    -107.646E-03     35.8886E-03    -105.673E-03     212.813E-03    -107.442E-03     35.1158E-03
            1042     8.08493E-03     114.606E-03    -54.7088E+06    -68.5482E+06     7.83551E+06    -13.5541E+06    -105.002E-03     212.423E-03    -107.421E-03     37.4855E-03    -105.240E-03     212.201E-03    -107.203E-03     36.6376E-03
            1043     8.89554E-03     114.648E-03    -47.7359E+06    -55.8613E+06     15.5466E+06    -13.9746E+06    -104.612E-03     211.808E-03    -107.195E-03     38.6288E-03    -104.853E-03     211.636E-03    -106.967E-03     37.7101E-03
            1044     9.70642E-03     114.691E-03    -41.5019E+06    -42.5571E+06     22.5156E+06    -14.1664E+06    -104.311E-03     211.287E-03    -106.975E-03     39.2503E-03    -104.559E-03     211.170E-03    -106.741E-03     38.2608E-03
            1045     10.5176E-03     114.735E-03    -35.7268E+06    -29.6757E+06     28.4334E+06    -14.3189E+06    -103.962E-03     210.724E-03    -106.761E-03     39.2569E-03    -104.217E-03     210.663E-03    -106.524E-03     38.1941E-03
            1046     11.3291E-03     114.777E-03    -30.3032E+06    -13.5038E+06     34.5917E+06    -13.8652E+06    -103.555E-03     210.105E-03    -106.550E-03     38.6452E-03    -103.823E-03     210.117E-03    -106.313E-03     37.5124E-03
            1047     12.1408E-03     114.819E-03    -25.1362E+06     1.00683E+06     38.8984E+06    -12.9556E+06    -103.251E-03     209.589E-03    -106.338E-03     37.3182E-03    -103.529E-03     209.669E-03    -106.109E-03     36.1155E-03
            1048     12.9526E-03     114.859E-03    -20.1079E+06     39.7349E+06     48.9750E+06    -11.0086E+06    -102.844E-03     208.973E-03    -106.129E-03     34.7033E-03    -103.173E-03     209.230E-03    -105.912E-03     33.4529E-03
            1049     13.7648E-03     114.894E-03    -15.6121E+06     71.3812E+06     56.0212E+06    -7.44723E+06    -102.487E-03     208.409E-03    -105.923E-03     29.9506E-03    -102.848E-03     208.807E-03    -105.723E-03     28.6810E-03
            1050     14.5773E-03     114.923E-03    -10.4226E+06     101.198E+06     66.6812E+06    -2.79664E+06    -102.257E-03     208.005E-03    -105.748E-03     23.6684E-03    -102.651E-03     208.527E-03    -105.546E-03     22.3628E-03
            1051     15.3907E-03     114.943E-03    -5.24004E+06     130.357E+06     93.0845E+06    -428.843E+03    -102.170E-03     207.840E-03    -105.670E-03     12.3712E-03    -102.583E-03     208.427E-03    -105.386E-03     11.2698E-03
            1052     807.088E-06     115.536E-03    -120.906E+06    -206.240E+06    -118.214E+06    -1.68131E+06    -108.667E-03     217.459E-03    -108.793E-03     5.97018E-03    -108.802E-03     216.776E-03    -108.910E-03     5.87108E-03
            1053     1.61422E-03     115.546E-03    -117.205E+06    -194.516E+06    -106.381E+06    -3.69577E+06    -108.390E-03     217.090E-03    -108.700E-03     11.0301E-03    -108.542E-03     216.445E-03    -108.780E-03     10.8421E-03
            1054     2.42202E-03     115.560E-03    -110.281E+06    -177.567E+06    -89.6528E+06    -5.46023E+06    -108.072E-03     216.673E-03    -108.602E-03     15.9496E-03    -108.242E-03     216.082E-03    -108.633E-03     15.6734E-03
            1055     3.22972E-03     115.580E-03    -102.138E+06    -158.798E+06    -70.7447E+06    -7.12385E+06    -107.752E-03     216.248E-03    -108.496E-03     20.5207E-03    -107.940E-03     215.716E-03    -108.472E-03     20.1575E-03
            1056     4.03790E-03     115.604E-03    -93.8483E+06    -140.401E+06    -52.9113E+06    -8.67923E+06    -107.265E-03     215.629E-03    -108.364E-03     24.6100E-03    -107.470E-03     215.156E-03    -108.289E-03     24.1632E-03
            1057     4.84649E-03     115.633E-03    -85.1326E+06    -122.420E+06    -36.5050E+06    -10.0758E+06    -106.733E-03     214.926E-03    -108.193E-03     28.1965E-03    -106.950E-03     214.512E-03    -108.075E-03     27.6699E-03
            1058     5.65579E-03     115.665E-03    -76.3914E+06    -106.353E+06    -22.0906E+06    -11.5276E+06    -106.284E-03     214.282E-03    -107.999E-03     31.2955E-03    -106.507E-03     213.921E-03    -107.844E-03     30.6888E-03
            1059     6.46517E-03     115.701E-03    -68.0907E+06    -91.7186E+06    -9.95129E+06    -12.7767E+06    -105.873E-03     213.666E-03    -107.793E-03     33.8990E-03    -106.101E-03     213.355E-03    -107.611E-03     33.2144E-03
            1060     7.27502E-03     115.738E-03    -60.3478E+06    -78.0492E+06     270.284E+03    -13.7584E+06    -105.422E-03     213.002E-03    -107.580E-03     35.9983E-03    -105.653E-03     212.741E-03    -107.378E-03     35.2388E-03
            1061     8.08534E-03     115.778E-03    -53.0857E+06    -65.3019E+06     9.13065E+06    -14.5179E+06    -105.015E-03     212.377E-03    -107.362E-03     37.5981E-03    -105.249E-03     212.164E-03    -107.144E-03     36.7649E-03
            1062     8.89595E-03     115.819E-03    -46.3614E+06    -53.3832E+06     16.6726E+06    -15.0736E+06    -104.697E-03     211.843E-03    -107.146E-03     38.7522E-03    -104.934E-03     211.677E-03    -106.918E-03     37.8451E-03
            1063     9.70685E-03     115.862E-03    -40.0047E+06    -40.7217E+06     23.4243E+06    -15.1976E+06    -104.348E-03     211.282E-03    -106.934E-03     39.4068E-03    -104.589E-03     211.168E-03    -106.700E-03     38.4298E-03
            1064     10.5179E-03     115.905E-03    -34.2929E+06    -28.1855E+06     29.4313E+06    -14.9878E+06    -103.958E-03     210.683E-03    -106.725E-03     39.3731E-03    -104.206E-03     210.624E-03    -106.487E-03     38.3267E-03
            1065     11.3294E-03     115.947E-03    -28.9906E+06    -12.9091E+06     35.2425E+06    -14.6462E+06    -103.601E-03     210.117E-03    -106.516E-03     38.8893E-03    -103.862E-03     210.127E-03    -106.279E-03     37.7700E-03
            1066     12.1410E-03     115.988E-03    -24.2259E+06     398.150E+03     39.1812E+06    -13.6095E+06    -103.190E-03     209.496E-03    -106.306E-03     37.5988E-03    -103.461E-03     209.569E-03    -106.076E-03     36.4110E-03
            1067     12.9532E-03     116.027E-03    -19.6555E+06     37.2445E+06     48.6182E+06    -11.7134E+06    -102.692E-03     208.784E-03    -106.092E-03     35.0002E-03    -103.013E-03     209.026E-03    -105.874E-03     33.7619E-03
            1068     13.7657E-03     116.062E-03    -14.9064E+06     65.1563E+06     54.8917E+06    -7.84036E+06    -102.468E-03     208.351E-03    -105.883E-03     30.2016E-03    -102.814E-03     208.716E-03    -105.681E-03     28.9433E-03
            1069     14.5779E-03     116.090E-03    -10.6373E+06     95.9039E+06     63.9974E+06    -3.62884E+06    -102.312E-03     208.015E-03    -105.703E-03     23.6853E-03    -102.694E-03     208.514E-03    -105.506E-03     22.3770E-03
            1070     15.3893E-03     116.111E-03    -5.44467E+06     128.958E+06     91.2544E+06    -1.15831E+06    -102.209E-03     207.836E-03    -105.627E-03     12.5623E-03    -102.619E-03     208.420E-03    -105.350E-03     11.4546E-03
            1071     807.291E-06     116.715E-03    -120.005E+06    -200.806E+06     -116.99E+06    -2.48363E+06    -108.285E-03     216.759E-03    -108.474E-03     6.24551E-03    -108.425E-03     216.099E-03    -108.594E-03     6.14320E-03
            1072     1.61492E-03     116.723E-03    -114.929E+06    -188.560E+06    -104.871E+06    -4.13114E+06    -108.133E-03     216.500E-03    -108.367E-03     11.0355E-03    -108.285E-03     215.879E-03    -108.451E-03     10.8559E-03
            1073     2.42264E-03     116.737E-03    -108.804E+06    -172.044E+06    -88.3713E+06    -6.15737E+06    -107.847E-03     216.147E-03    -108.300E-03     16.0341E-03    -108.019E-03     215.578E-03    -108.334E-03     15.7693E-03
            1074     3.23067E-03     116.757E-03    -101.072E+06    -153.822E+06    -69.8110E+06    -7.84353E+06    -107.511E-03     215.722E-03    -108.212E-03     20.6570E-03    -107.701E-03     215.211E-03    -108.191E-03     20.3096E-03
            1075     4.03892E-03     116.780E-03    -92.3780E+06    -135.233E+06    -51.4286E+06    -9.48195E+06    -107.094E-03     215.190E-03    -108.096E-03     24.7968E-03    -107.300E-03     214.737E-03    -108.023E-03     24.3672E-03
            1076     4.84785E-03     116.808E-03    -83.4782E+06    -117.632E+06    -34.9851E+06    -11.1731E+06    -106.671E-03     214.621E-03    -107.949E-03     28.4679E-03    -106.887E-03     214.224E-03    -107.833E-03     27.9568E-03
            1077     5.65678E-03     116.839E-03    -74.7897E+06    -101.801E+06    -20.6769E+06    -12.5672E+06    -106.265E-03     214.048E-03    -107.783E-03     31.6242E-03    -106.487E-03     213.703E-03    -107.630E-03     31.0351E-03
            1078     6.46637E-03     116.874E-03    -66.5235E+06    -87.5882E+06    -8.65128E+06    -13.8385E+06    -105.832E-03     213.432E-03    -107.600E-03     34.2549E-03    -106.057E-03     213.135E-03    -107.420E-03     33.5882E-03
            1079     7.27633E-03     116.911E-03    -58.7035E+06    -74.3988E+06     1.55577E+06    -14.8633E+06    -105.432E-03     212.838E-03    -107.406E-03     36.3553E-03    -105.659E-03     212.588E-03    -107.205E-03     35.6128E-03
            1080     8.08653E-03     116.950E-03    -51.5495E+06    -62.0196E+06     10.3543E+06    -15.6043E+06    -105.103E-03     212.312E-03    -107.209E-03     38.0412E-03    -105.333E-03     212.109E-03    -106.992E-03     37.2253E-03
            1081     8.89702E-03     116.991E-03    -44.8365E+06    -50.7356E+06     17.7778E+06    -16.0826E+06    -104.770E-03     211.783E-03    -107.013E-03     39.2219E-03    -105.001E-03     211.624E-03    -106.786E-03     38.3331E-03
            1082     9.70770E-03     117.033E-03    -38.6989E+06    -38.8548E+06     24.3105E+06    -16.1982E+06    -104.347E-03     211.162E-03    -106.815E-03     39.8404E-03    -104.583E-03     211.052E-03    -106.581E-03     38.8815E-03
            1083     10.5191E-03     117.075E-03    -32.9100E+06    -27.3283E+06     30.1107E+06    -15.7439E+06    -103.964E-03     210.578E-03    -106.614E-03     39.9288E-03    -104.205E-03     210.518E-03    -106.376E-03     38.9040E-03
            1084     11.3304E-03     117.116E-03    -27.6734E+06    -11.8590E+06     36.0285E+06    -15.1608E+06    -103.587E-03     209.999E-03    -106.412E-03     39.4593E-03    -103.841E-03     210.009E-03    -106.175E-03     38.3650E-03
            1085     12.1423E-03     117.157E-03    -22.7849E+06    -229.633E+03     39.8224E+06    -14.1135E+06    -103.204E-03     209.413E-03    -106.209E-03     38.0782E-03    -103.464E-03     209.476E-03    -105.977E-03     36.9119E-03
            1086     12.9542E-03     117.195E-03    -18.3578E+06     34.2389E+06     48.5407E+06    -11.8676E+06    -102.833E-03     208.837E-03    -106.004E-03     35.4487E-03    -103.140E-03     209.060E-03    -105.785E-03     34.2315E-03
            1087     13.7665E-03     117.230E-03    -14.3529E+06     59.0942E+06     54.0175E+06    -8.17466E+06    -102.691E-03     208.503E-03    -105.812E-03     30.7158E-03    -103.023E-03     208.837E-03    -105.606E-03     29.4697E-03
            1088     14.5785E-03     117.258E-03    -9.92282E+06     90.9174E+06     61.9684E+06    -3.79489E+06    -102.627E-03     208.269E-03    -105.642E-03     24.0305E-03    -102.994E-03     208.744E-03    -105.449E-03     22.7314E-03
            1089     15.3917E-03     117.278E-03    -5.19798E+06     127.613E+06     89.3665E+06    -1.41173E+06    -102.463E-03     208.043E-03    -105.580E-03     12.6322E-03    -102.866E-03     208.621E-03    -105.311E-03     11.5261E-03
            1090     807.988E-06     117.891E-03    -117.970E+06    -194.054E+06    -114.941E+06    -2.76893E+06    -107.833E-03     215.618E-03    -107.785E-03     6.26522E-03    -107.976E-03     214.986E-03    -107.907E-03     6.17009E-03
            1091     1.61579E-03     117.900E-03    -113.490E+06    -182.551E+06    -103.544E+06    -4.82590E+06    -107.732E-03     215.561E-03    -107.829E-03     11.1947E-03    -107.887E-03     214.965E-03    -107.917E-03     11.0221E-03
            1092     2.42367E-03     117.913E-03    -107.083E+06    -165.979E+06    -86.8303E+06    -6.47830E+06    -107.482E-03     215.297E-03    -107.815E-03     16.2055E-03    -107.655E-03     214.753E-03    -107.853E-03     15.9563E-03
            1093     3.23209E-03     117.932E-03    -99.6782E+06    -148.002E+06    -68.3270E+06    -8.59590E+06    -107.085E-03     214.836E-03    -107.751E-03     20.8827E-03    -107.278E-03     214.348E-03    -107.734E-03     20.5511E-03
            1094     4.04092E-03     117.955E-03    -90.8556E+06    -129.804E+06    -50.0933E+06    -10.5871E+06    -106.802E-03     214.455E-03    -107.653E-03     25.0955E-03    -107.008E-03     214.023E-03    -107.584E-03     24.6820E-03
            1095     4.84962E-03     117.982E-03    -81.9667E+06    -112.463E+06    -33.6560E+06    -12.1421E+06    -106.506E-03     214.047E-03    -107.541E-03     28.8347E-03    -106.722E-03     213.671E-03    -107.428E-03     28.3436E-03
            1096     5.65902E-03     118.013E-03    -73.4746E+06    -97.0134E+06    -19.5406E+06    -13.6035E+06    -106.124E-03     213.534E-03    -107.410E-03     32.1105E-03    -106.346E-03     213.208E-03    -107.261E-03     31.5423E-03
            1097     6.46854E-03     118.047E-03    -65.3383E+06    -83.2112E+06    -7.57711E+06    -14.8536E+06    -105.744E-03     213.002E-03    -107.259E-03     34.8239E-03    -105.969E-03     212.722E-03    -107.081E-03     34.1793E-03
            1098     7.27844E-03     118.083E-03    -57.7429E+06    -70.5090E+06     2.52206E+06    -15.9058E+06    -105.434E-03     212.530E-03    -107.096E-03     37.0867E-03    -105.661E-03     212.294E-03    -106.898E-03     36.3671E-03
            1099     8.08867E-03     118.122E-03    -50.4677E+06    -58.6702E+06     11.2388E+06    -16.7013E+06    -105.132E-03     212.062E-03    -106.930E-03     38.8426E-03    -105.360E-03     211.870E-03    -106.716E-03     38.0499E-03
            1100     8.89911E-03     118.162E-03    -44.0211E+06    -48.2913E+06     18.4755E+06    -16.9490E+06    -104.749E-03     211.509E-03    -106.760E-03     40.0849E-03    -104.978E-03     211.356E-03    -106.533E-03     39.2230E-03
            1101     9.71011E-03     118.203E-03    -38.0020E+06    -36.7798E+06     24.9752E+06    -16.9537E+06    -104.372E-03     210.954E-03    -106.581E-03     40.7267E-03    -104.606E-03     210.849E-03    -106.348E-03     39.7963E-03
            1102     10.5211E-03     118.245E-03    -32.3477E+06    -26.4256E+06     30.5084E+06    -16.6978E+06    -104.014E-03     210.414E-03    -106.400E-03     40.8182E-03    -104.250E-03     210.353E-03    -106.162E-03     39.8192E-03
            1103     11.3327E-03     118.286E-03    -27.2920E+06    -11.6994E+06     36.1828E+06    -15.5445E+06    -103.639E-03     209.855E-03    -106.216E-03     40.1996E-03    -103.888E-03     209.860E-03    -105.978E-03     39.1378E-03
            1104     12.1444E-03     118.326E-03    -23.0962E+06    -437.932E+03     39.8404E+06    -14.3321E+06    -103.387E-03     209.421E-03    -106.034E-03     38.7816E-03    -103.646E-03     209.481E-03    -105.800E-03     37.6468E-03
            1105     12.9563E-03     118.364E-03    -18.6493E+06     31.1928E+06     48.0139E+06    -12.3537E+06    -103.163E-03     209.019E-03    -105.856E-03     36.2034E-03    -103.463E-03     209.225E-03    -105.634E-03     35.0085E-03
            1106     13.7681E-03     118.398E-03    -13.9990E+06     53.3723E+06     52.8378E+06    -8.38577E+06    -103.047E-03     208.737E-03    -105.691E-03     31.5943E-03    -103.366E-03     209.043E-03    -105.483E-03     30.3652E-03
            1107     14.5800E-03     118.427E-03    -10.4029E+06     86.5117E+06     60.6279E+06    -4.51700E+06    -103.111E-03     208.659E-03    -105.548E-03     25.0483E-03    -103.473E-03     209.116E-03    -105.355E-03     23.7451E-03
            1108     15.3905E-03     118.447E-03    -5.53482E+06     125.208E+06     88.3781E+06    -1.70713E+06    -103.119E-03     208.638E-03    -105.519E-03     13.2453E-03    -103.520E-03     209.208E-03    -105.251E-03     12.1294E-03
            1109     808.322E-06     119.066E-03    -115.731E+06    -186.903E+06    -113.204E+06    -2.53197E+06    -107.262E-03     214.316E-03    -107.054E-03     6.09127E-03    -107.406E-03     213.714E-03    -107.181E-03     6.00703E-03
            1110     1.61693E-03     119.074E-03    -112.254E+06    -175.688E+06    -101.593E+06    -4.91118E+06    -106.980E-03     214.139E-03    -107.159E-03     11.3441E-03    -107.141E-03     213.573E-03    -107.250E-03     11.1834E-03
            1111     2.42550E-03     119.088E-03    -105.824E+06    -159.841E+06    -85.4553E+06    -7.32213E+06    -106.820E-03     213.948E-03    -107.128E-03     16.4819E-03    -106.997E-03     213.430E-03    -107.170E-03     16.2421E-03
            1112     3.23423E-03     119.106E-03    -97.6868E+06    -141.459E+06    -66.8973E+06    -9.23600E+06    -106.628E-03     213.719E-03    -107.091E-03     21.2953E-03    -106.822E-03     213.258E-03    -107.079E-03     20.9813E-03
            1113     4.04316E-03     119.129E-03    -89.6840E+06    -123.833E+06    -48.9555E+06    -11.2218E+06    -106.384E-03     213.421E-03    -107.037E-03     25.6368E-03    -106.593E-03     213.014E-03    -106.972E-03     25.2457E-03
            1114     4.85256E-03     119.156E-03    -81.1043E+06    -107.140E+06    -32.8628E+06    -13.0577E+06    -106.122E-03     213.082E-03    -106.960E-03     29.4330E-03    -106.341E-03     212.727E-03    -106.851E-03     28.9646E-03
            1115     5.66191E-03     119.186E-03    -72.7086E+06    -92.0743E+06    -18.8478E+06    -14.3727E+06    -105.822E-03     212.684E-03    -106.861E-03     32.8222E-03    -106.047E-03     212.377E-03    -106.717E-03     32.2818E-03
            1116     6.47180E-03     119.220E-03    -64.8303E+06    -78.4923E+06    -6.90063E+06    -15.7020E+06    -105.556E-03     212.303E-03    -106.746E-03     35.7312E-03    -105.784E-03     212.042E-03    -106.573E-03     35.1163E-03
            1117     7.28191E-03     119.255E-03    -57.2371E+06    -66.4105E+06     3.16124E+06    -16.8747E+06    -105.308E-03     211.930E-03    -106.622E-03     38.1564E-03    -105.537E-03     211.711E-03    -106.427E-03     37.4673E-03
            1118     8.09208E-03     119.294E-03    -50.4759E+06    -55.4734E+06     11.6557E+06    -17.3281E+06    -104.995E-03     211.484E-03    -106.490E-03     40.0262E-03    -105.225E-03     211.305E-03    -106.278E-03     39.2703E-03
            1119     8.90279E-03     119.333E-03    -44.0188E+06    -45.4958E+06     18.8552E+06    -17.8021E+06    -104.707E-03     211.056E-03    -106.349E-03     41.3285E-03    -104.938E-03     210.914E-03    -106.125E-03     40.5016E-03
            1120     9.71358E-03     119.374E-03    -37.7823E+06    -34.9814E+06     25.1251E+06    -17.8429E+06    -104.440E-03     210.644E-03    -106.204E-03     41.9598E-03    -104.671E-03     210.544E-03    -105.973E-03     41.0638E-03
            1121     10.5247E-03     119.414E-03    -32.4241E+06    -25.3107E+06     30.4585E+06    -17.1492E+06    -104.131E-03     210.188E-03    -106.057E-03     41.9644E-03    -104.366E-03     210.130E-03    -105.821E-03     41.0054E-03
            1122     11.3360E-03     119.455E-03    -27.5114E+06    -11.9921E+06     35.6668E+06    -16.2047E+06    -103.870E-03     209.777E-03    -105.908E-03     41.3884E-03    -104.115E-03     209.779E-03    -105.672E-03     40.3616E-03
            1123     12.1476E-03     119.494E-03    -22.4805E+06    -1.09664E+06     39.6654E+06    -14.4769E+06    -103.765E-03     209.530E-03    -105.765E-03     39.9613E-03    -104.016E-03     209.582E-03    -105.533E-03     38.8657E-03
            1124     12.9590E-03     119.532E-03    -18.4371E+06     28.8439E+06     47.5514E+06    -12.3021E+06    -103.666E-03     209.297E-03    -105.632E-03     37.2725E-03    -103.958E-03     209.489E-03    -105.409E-03     36.1127E-03
            1125     13.7707E-03     119.567E-03    -14.8587E+06     47.1176E+06     50.9382E+06    -8.80051E+06    -103.645E-03     209.156E-03    -105.510E-03     32.4188E-03    -103.954E-03     209.432E-03    -105.303E-03     31.2109E-03
            1126     14.5820E-03     119.595E-03    -9.96653E+06     82.3321E+06     59.2978E+06    -4.49052E+06    -103.662E-03     209.068E-03    -105.407E-03     26.0752E-03    -104.013E-03     209.504E-03    -105.215E-03     24.7935E-03
            1127     15.3942E-03     119.617E-03    -5.03020E+06     123.157E+06     86.9293E+06    -2.17321E+06    -104.172E-03     209.594E-03    -105.422E-03     14.3070E-03    -104.566E-03     210.155E-03    -105.159E-03     13.1914E-03
            1128     808.983E-06     120.239E-03    -114.750E+06    -179.711E+06    -111.985E+06    -2.87254E+06    -106.344E-03     212.545E-03    -106.201E-03     6.43616E-03    -106.496E-03     211.976E-03    -106.334E-03     6.35294E-03
            1129     1.61804E-03     120.248E-03    -110.390E+06    -168.255E+06    -100.263E+06    -5.20484E+06    -106.119E-03     212.397E-03    -106.277E-03     11.6800E-03    -106.284E-03     211.863E-03    -106.375E-03     11.5281E-03
            1130     2.42767E-03     120.261E-03    -104.516E+06    -152.811E+06    -84.2833E+06    -7.61706E+06    -106.002E-03     212.260E-03    -106.259E-03     16.8239E-03    -106.184E-03     211.774E-03    -106.307E-03     16.6003E-03
            1131     3.23706E-03     120.279E-03    -97.1542E+06    -135.372E+06    -66.3909E+06    -9.68703E+06    -105.919E-03     212.164E-03    -106.245E-03     21.7462E-03    -106.119E-03     211.731E-03    -106.240E-03     21.4526E-03
            1132     4.04651E-03     120.302E-03    -88.9246E+06    -117.398E+06    -48.4990E+06    -11.5414E+06    -105.730E-03     211.952E-03    -106.222E-03     26.3314E-03    -105.944E-03     211.574E-03    -106.165E-03     25.9675E-03
            1133     4.85615E-03     120.328E-03    -81.0262E+06    -101.386E+06    -32.5097E+06    -13.3967E+06    -105.503E-03     211.676E-03    -106.174E-03     30.3903E-03    -105.728E-03     211.349E-03    -106.072E-03     29.9543E-03
            1134     5.66623E-03     120.358E-03    -72.8493E+06    -87.0439E+06    -18.6493E+06    -15.0157E+06    -105.341E-03     211.448E-03    -106.107E-03     33.9639E-03    -105.571E-03     211.165E-03    -105.968E-03     33.4570E-03
            1135     6.47637E-03     120.391E-03    -64.9655E+06    -73.6651E+06    -6.75563E+06    -16.2416E+06    -105.188E-03     211.219E-03    -106.031E-03     37.0960E-03    -105.422E-03     210.980E-03    -105.864E-03     36.5209E-03
            1136     7.28650E-03     120.427E-03    -58.0954E+06    -62.2819E+06     3.15995E+06    -17.0790E+06    -104.969E-03     210.915E-03    -105.946E-03     39.6366E-03    -105.205E-03     210.715E-03    -105.756E-03     38.9956E-03
            1137     8.09730E-03     120.464E-03    -51.3532E+06    -51.9907E+06     11.4872E+06    -17.9727E+06    -104.780E-03     210.631E-03    -105.851E-03     41.6334E-03    -105.016E-03     210.467E-03    -105.644E-03     40.9223E-03
            1138     8.90799E-03     120.504E-03    -44.8335E+06    -42.4652E+06     18.5452E+06    -18.4332E+06    -104.643E-03     210.395E-03    -105.753E-03     43.0083E-03    -104.877E-03     210.266E-03    -105.533E-03     42.2282E-03
            1139     9.71883E-03     120.543E-03    -39.2707E+06    -33.0458E+06     24.3778E+06    -18.4490E+06    -104.487E-03     210.141E-03    -105.654E-03     43.7098E-03    -104.724E-03     210.051E-03    -105.427E-03     42.8617E-03
            1140     10.5298E-03     120.584E-03    -33.8131E+06    -24.5499E+06     29.4896E+06    -17.9185E+06    -104.375E-03     209.934E-03    -105.559E-03     43.6686E-03    -104.613E-03     209.879E-03    -105.327E-03     42.7536E-03
            1141     11.3411E-03     120.624E-03    -28.3105E+06    -11.4850E+06     35.0187E+06    -16.9973E+06    -104.332E-03     209.800E-03    -105.469E-03     43.0040E-03    -104.577E-03     209.803E-03    -105.236E-03     42.0184E-03
            1142     12.1522E-03     120.664E-03    -23.3289E+06    -2.74343E+06     38.5147E+06    -15.6095E+06    -104.387E-03     209.777E-03    -105.390E-03     41.4295E-03    -104.634E-03     209.820E-03    -105.160E-03     40.3645E-03
            1143     12.9632E-03     120.701E-03    -18.2729E+06     26.1713E+06     46.9658E+06    -12.6417E+06    -104.499E-03     209.825E-03    -105.326E-03     38.6052E-03    -104.783E-03     210.001E-03    -105.102E-03     37.4757E-03
            1144     13.7739E-03     120.736E-03    -13.6890E+06     42.4292E+06     50.1447E+06    -9.30860E+06    -104.819E-03     210.099E-03    -105.280E-03     33.3281E-03    -105.112E-03     210.349E-03    -105.071E-03     32.1339E-03
            1145     14.5845E-03     120.764E-03    -9.51759E+06     77.1362E+06     58.7430E+06    -5.96213E+06    -105.073E-03     210.336E-03    -105.263E-03     25.9438E-03    -105.411E-03     210.743E-03    -105.067E-03     24.6534E-03
            1146     15.3946E-03     120.787E-03    -5.00272E+06     120.324E+06     86.9348E+06    -2.30950E+06    -105.377E-03     210.732E-03    -105.355E-03     14.1102E-03    -105.765E-03     211.277E-03    -105.087E-03     12.9975E-03
            1147     810.228E-06     121.410E-03    -113.742E+06    -172.090E+06    -110.957E+06    -3.02986E+06    -105.212E-03     210.243E-03    -105.031E-03     6.64453E-03    -105.371E-03     209.709E-03    -105.171E-03     6.56681E-03
            1148     1.62031E-03     121.419E-03    -109.775E+06    -160.876E+06    -99.7822E+06    -5.27940E+06    -105.162E-03     210.324E-03    -105.163E-03     11.9512E-03    -105.334E-03     209.825E-03    -105.269E-03     11.8139E-03
            1149     2.42996E-03     121.432E-03    -104.146E+06    -145.665E+06    -84.1697E+06    -7.49646E+06    -105.055E-03     210.255E-03    -105.199E-03     17.3346E-03    -105.246E-03     209.803E-03    -105.258E-03     17.1328E-03
            1150     3.24018E-03     121.450E-03    -97.3075E+06    -128.684E+06    -66.4650E+06    -9.72026E+06    -104.876E-03     210.079E-03    -105.203E-03     22.4888E-03    -105.085E-03     209.679E-03    -105.208E-03     22.2215E-03
            1151     4.05061E-03     121.472E-03    -89.4922E+06    -111.397E+06    -48.9941E+06    -11.6520E+06    -104.745E-03     209.928E-03    -105.183E-03     27.2545E-03    -104.969E-03     209.580E-03    -105.136E-03     26.9240E-03
            1152     4.86119E-03     121.499E-03    -81.5840E+06    -95.6270E+06    -32.9596E+06    -13.2605E+06    -104.653E-03     209.805E-03    -105.152E-03     31.5768E-03    -104.887E-03     209.506E-03    -105.060E-03     31.1842E-03
            1153     5.67178E-03     121.528E-03    -74.0470E+06    -81.6467E+06    -19.1695E+06    -14.7531E+06    -104.594E-03     209.710E-03    -105.116E-03     35.4523E-03    -104.835E-03     209.454E-03    -104.986E-03     34.9966E-03
            1154     6.48232E-03     121.561E-03    -67.0734E+06    -68.9896E+06    -7.60772E+06    -16.0032E+06    -104.508E-03     209.581E-03    -105.073E-03     38.8416E-03    -104.755E-03     209.366E-03    -104.913E-03     38.3230E-03
            1155     7.29343E-03     121.596E-03    -60.1459E+06    -58.1123E+06     2.16336E+06    -17.1148E+06    -104.476E-03     209.502E-03    -105.025E-03     41.6344E-03    -104.724E-03     209.323E-03    -104.843E-03     41.0510E-03
            1156     8.10411E-03     121.634E-03    -53.6243E+06    -48.0112E+06     10.4327E+06    -17.9508E+06    -104.495E-03     209.475E-03    -104.980E-03     43.7866E-03    -104.743E-03     209.332E-03    -104.781E-03     43.1372E-03
            1157     8.91503E-03     121.673E-03    -47.9255E+06    -39.3185E+06     17.1182E+06    -18.7249E+06    -104.495E-03     209.434E-03    -104.939E-03     45.2640E-03    -104.743E-03     209.323E-03    -104.727E-03     44.5441E-03
            1158     9.72612E-03     121.713E-03    -42.1139E+06    -30.6144E+06     23.0237E+06    -19.0273E+06    -104.601E-03     209.505E-03    -104.904E-03     45.9961E-03    -104.849E-03     209.428E-03    -104.684E-03     45.2051E-03
            1159     10.5370E-03     121.753E-03    -36.3008E+06    -22.8608E+06     28.1929E+06    -19.0461E+06    -104.848E-03     209.735E-03    -104.887E-03     45.8561E-03    -105.094E-03     209.690E-03    -104.660E-03     44.9872E-03
            1160     11.3476E-03     121.793E-03    -30.7781E+06    -11.4832E+06     33.1442E+06    -18.3186E+06    -105.087E-03     209.972E-03    -104.885E-03     44.9578E-03    -105.337E-03     209.977E-03    -104.658E-03     44.0100E-03
            1161     12.1580E-03     121.833E-03    -25.4001E+06    -3.31587E+06     36.8193E+06    -16.8635E+06    -105.394E-03     210.296E-03    -104.903E-03     43.1906E-03    -105.644E-03     210.338E-03    -104.677E-03     42.1568E-03
            1162     12.9682E-03     121.871E-03    -20.1425E+06     22.4374E+06     44.5357E+06    -14.5740E+06    -105.760E-03     210.698E-03    -104.938E-03     40.1237E-03    -106.041E-03     210.858E-03    -104.719E-03     39.0077E-03
            1163     13.7779E-03     121.907E-03    -15.1162E+06     37.4072E+06     47.4803E+06    -10.1832E+06    -106.342E-03     211.336E-03    -104.995E-03     34.8690E-03    -106.630E-03     211.566E-03    -104.790E-03     33.6844E-03
            1164     14.5862E-03     121.936E-03    -11.1460E+06     73.6032E+06     57.0506E+06    -6.22981E+06    -106.884E-03     211.971E-03    -105.087E-03     27.9436E-03    -107.224E-03     212.367E-03    -104.892E-03     26.6493E-03
            1165     15.3940E-03     121.959E-03    -5.65638E+06     116.011E+06     85.2358E+06    -3.24561E+06    -106.855E-03     212.128E-03    -105.273E-03     15.9469E-03    -107.239E-03     212.657E-03    -105.007E-03     14.8155E-03
            1166     810.931E-06     122.578E-03    -114.213E+06    -164.577E+06    -111.625E+06    -2.69273E+06    -103.981E-03     207.767E-03    -103.786E-03     6.73678E-03    -104.152E-03     207.272E-03    -103.940E-03     6.67257E-03
            1167     1.62191E-03     122.587E-03    -110.906E+06    -153.766E+06    -100.791E+06    -4.89376E+06    -103.814E-03     207.715E-03    -103.902E-03     12.2666E-03    -104.000E-03     207.255E-03    -104.022E-03     12.1494E-03
            1168     2.43323E-03     122.600E-03    -105.401E+06    -138.832E+06    -85.4984E+06    -7.09900E+06    -103.722E-03     207.629E-03    -103.907E-03     17.9632E-03    -103.926E-03     207.214E-03    -103.981E-03     17.7899E-03
            1169     3.24448E-03     122.618E-03    -98.7269E+06    -122.146E+06    -68.0728E+06    -9.07601E+06    -103.611E-03     207.517E-03    -103.905E-03     23.3907E-03    -103.834E-03     207.152E-03    -103.926E-03     23.1629E-03
            1170     4.05582E-03     122.640E-03    -91.6511E+06    -105.517E+06    -50.8239E+06    -10.8466E+06    -103.506E-03     207.399E-03    -103.893E-03     28.3836E-03    -103.745E-03     207.085E-03    -103.861E-03     28.1025E-03
            1171     4.86727E-03     122.666E-03    -84.3471E+06    -90.1514E+06    -34.9052E+06    -12.4153E+06    -103.479E-03     207.353E-03    -103.875E-03     33.0425E-03    -103.730E-03     207.086E-03    -103.796E-03     32.7082E-03
            1172     5.67868E-03     122.696E-03    -77.3135E+06    -76.3668E+06    -21.1150E+06    -13.8752E+06    -103.487E-03     207.343E-03    -103.856E-03     37.2904E-03    -103.747E-03     207.118E-03    -103.739E-03     36.9005E-03
            1173     6.49050E-03     122.729E-03    -70.3397E+06    -64.0896E+06    -9.45424E+06    -15.2911E+06    -103.594E-03     207.436E-03    -103.841E-03     40.9535E-03    -103.858E-03     207.250E-03    -103.694E-03     40.5046E-03
            1174     7.30179E-03     122.764E-03    -63.7016E+06    -53.5571E+06     296.307E+03    -16.4953E+06    -103.799E-03     207.639E-03    -103.840E-03     44.0113E-03    -104.064E-03     207.487E-03    -103.668E-03     43.5015E-03
            1175     8.11326E-03     122.802E-03    -57.5436E+06    -43.9176E+06     8.46595E+06    -17.7685E+06    -104.042E-03     207.895E-03    -103.853E-03     46.3811E-03    -104.308E-03     207.777E-03    -103.664E-03     45.8033E-03
            1176     8.92458E-03     122.841E-03    -51.3500E+06    -35.3077E+06     15.4422E+06    -18.9053E+06    -104.421E-03     208.309E-03    -103.887E-03     47.9656E-03    -104.686E-03     208.221E-03    -103.684E-03     47.3130E-03
            1177     9.73542E-03     122.881E-03    -45.0751E+06    -27.1679E+06     21.4613E+06    -19.9952E+06    -104.939E-03     208.886E-03    -103.948E-03     48.6640E-03    -105.200E-03     208.829E-03    -103.736E-03     47.9274E-03
            1178     10.5459E-03     122.922E-03    -38.8767E+06    -20.9566E+06     26.2756E+06    -20.3544E+06    -105.530E-03     209.569E-03    -104.039E-03     48.4350E-03    -105.784E-03     209.534E-03    -103.820E-03     47.6125E-03
            1179     11.3558E-03     122.963E-03    -32.9907E+06    -10.2954E+06     31.2402E+06    -20.2116E+06    -106.179E-03     210.336E-03    -104.157E-03     47.3370E-03    -106.435E-03     210.348E-03    -103.938E-03     46.4214E-03
            1180     12.1654E-03     123.003E-03    -26.7087E+06    -3.99889E+06     34.7056E+06    -19.4944E+06    -106.874E-03     211.179E-03    -104.305E-03     45.2920E-03    -107.123E-03     211.219E-03    -104.087E-03     44.2720E-03
            1181     12.9741E-03     123.043E-03    -20.5160E+06     19.4793E+06     42.4067E+06    -16.5108E+06    -107.443E-03     211.918E-03    -104.475E-03     41.9275E-03    -107.716E-03     212.065E-03    -104.262E-03     40.8202E-03
            1182     13.7823E-03     123.079E-03    -15.0924E+06     30.7307E+06     44.5184E+06    -12.1284E+06    -107.981E-03     212.635E-03    -104.654E-03     36.5346E-03    -108.253E-03     212.834E-03    -104.454E-03     35.3461E-03
            1183     14.5907E-03     123.110E-03    -9.53739E+06     68.8305E+06     56.4759E+06    -7.38118E+06    -108.483E-03     213.342E-03    -104.859E-03     29.3788E-03    -108.806E-03     213.712E-03    -104.663E-03     28.0815E-03
            1184     15.3988E-03     123.133E-03    -5.26567E+06     112.889E+06     84.9307E+06    -3.88750E+06    -108.889E-03     214.041E-03    -105.152E-03     16.3164E-03    -109.266E-03     214.554E-03    -104.884E-03     15.1715E-03
            1185     812.167E-06     123.744E-03    -118.167E+06    -157.675E+06    -115.849E+06    -2.41582E+06    -102.394E-03     204.769E-03    -102.375E-03     7.15114E-03    -102.589E-03     204.320E-03    -102.554E-03     7.09995E-03
            1186     1.62447E-03     123.752E-03    -114.937E+06    -147.222E+06    -105.318E+06    -4.45031E+06    -102.195E-03     204.571E-03    -102.376E-03     12.8098E-03    -102.405E-03     204.155E-03    -102.522E-03     12.7156E-03
            1187     2.43695E-03     123.765E-03    -109.663E+06    -132.781E+06    -90.1362E+06    -6.22536E+06    -102.083E-03     204.427E-03    -102.344E-03     18.6898E-03    -102.310E-03     204.054E-03    -102.443E-03     18.5558E-03
            1188     3.24938E-03     123.783E-03    -103.400E+06    -116.252E+06    -72.4926E+06    -7.97706E+06    -102.018E-03     204.345E-03    -102.327E-03     24.3519E-03    -102.265E-03     204.022E-03    -102.371E-03     24.1760E-03
            1189     4.06202E-03     123.805E-03    -96.2860E+06    -99.9809E+06    -54.7258E+06    -9.66182E+06    -101.962E-03     204.279E-03    -102.316E-03     29.7795E-03    -102.225E-03     204.003E-03    -102.305E-03     29.5595E-03
            1190     4.87471E-03     123.831E-03    -89.0099E+06    -84.8710E+06    -38.4046E+06    -11.1713E+06    -101.974E-03     204.280E-03    -102.307E-03     34.8346E-03    -102.248E-03     204.048E-03    -102.246E-03     34.5699E-03
            1191     5.68768E-03     123.861E-03    -81.6634E+06    -71.1123E+06    -24.2006E+06    -12.7654E+06    -102.150E-03     204.456E-03    -102.307E-03     39.3579E-03    -102.431E-03     204.265E-03    -102.206E-03     39.0432E-03
            1192     6.50006E-03     123.894E-03    -74.3471E+06    -59.0989E+06    -12.0391E+06    -14.3011E+06    -102.491E-03     204.822E-03    -102.331E-03     43.3730E-03    -102.774E-03     204.666E-03    -102.198E-03     43.0030E-03
            1193     7.31252E-03     123.930E-03    -67.3460E+06    -48.5986E+06    -1.89502E+06    -15.9990E+06    -102.961E-03     205.347E-03    -102.386E-03     46.6939E-03    -103.244E-03     205.224E-03    -102.227E-03     46.2603E-03
            1194     8.12457E-03     123.968E-03    -60.4106E+06    -38.7547E+06     6.73212E+06    -17.8408E+06    -103.625E-03     206.103E-03    -102.478E-03     49.1794E-03    -103.906E-03     206.012E-03    -102.300E-03     48.6719E-03
            1195     8.93594E-03     124.008E-03    -53.5099E+06    -30.4149E+06     13.9937E+06    -19.6883E+06    -104.493E-03     207.109E-03    -102.616E-03     50.8349E-03    -104.769E-03     207.046E-03    -102.424E-03     50.2420E-03
            1196     9.74665E-03     124.049E-03    -46.9201E+06    -23.2104E+06     20.0125E+06    -21.0882E+06    -105.458E-03     208.260E-03    -102.802E-03     51.5446E-03    -105.728E-03     208.222E-03    -102.600E-03     50.8603E-03
            1197     10.5566E-03     124.091E-03    -40.6251E+06    -17.5465E+06     24.8771E+06    -22.5000E+06    -106.520E-03     209.554E-03    -103.034E-03     51.2089E-03    -106.782E-03     209.537E-03    -102.825E-03     50.4191E-03
            1198     11.3658E-03     124.133E-03    -33.6147E+06    -8.31279E+06     29.8994E+06    -23.1321E+06    -107.661E-03     210.968E-03    -103.308E-03     49.8283E-03    -107.917E-03     210.990E-03    -103.098E-03     48.9283E-03
            1199     12.1736E-03     124.175E-03    -27.5087E+06    -3.76957E+06     33.0663E+06    -22.3408E+06    -108.678E-03     212.297E-03    -103.619E-03     47.3627E-03    -108.926E-03     212.338E-03    -103.408E-03     46.3498E-03
            1200     12.9810E-03     124.215E-03    -21.6197E+06     15.7969E+06     39.8040E+06    -19.9145E+06    -109.360E-03     213.305E-03    -103.945E-03     43.7556E-03    -109.628E-03     213.437E-03    -103.738E-03     42.6364E-03
            1201     13.7877E-03     124.253E-03    -15.4344E+06     23.5708E+06     41.1797E+06    -14.7948E+06    -110.032E-03     214.301E-03    -104.269E-03     38.0521E-03    -110.289E-03     214.468E-03    -104.075E-03     36.8454E-03
            1202     14.5935E-03     124.284E-03    -10.7516E+06     63.1491E+06     53.8241E+06    -9.50653E+06    -110.584E-03     215.194E-03    -104.610E-03     30.6056E-03    -110.901E-03     215.541E-03    -104.417E-03     29.2839E-03
            1203     15.3979E-03     124.311E-03    -4.93533E+06     107.562E+06     83.7885E+06    -4.83575E+06    -110.979E-03     216.009E-03    -105.029E-03     17.1897E-03    -111.346E-03     216.496E-03    -104.759E-03     16.0262E-03
            1204     813.631E-06     124.905E-03    -128.956E+06    -151.524E+06    -126.494E+06    -2.38304E+06    -100.445E-03     200.923E-03    -100.479E-03     7.36009E-03    -100.686E-03     200.536E-03    -100.705E-03     7.32284E-03
            1205     1.62749E-03     124.913E-03    -125.010E+06    -141.295E+06    -115.596E+06    -4.08036E+06    -100.305E-03     200.764E-03    -100.460E-03     13.3940E-03    -100.558E-03     200.407E-03    -100.652E-03     13.3289E-03
            1206     2.44125E-03     124.926E-03    -119.349E+06    -127.051E+06    -99.3764E+06    -6.04955E+06    -100.184E-03     200.622E-03    -100.438E-03     19.6828E-03    -100.453E-03     200.305E-03    -100.578E-03     19.5838E-03
            1207     3.25553E-03     124.944E-03    -111.803E+06    -110.737E+06    -80.4426E+06    -7.87561E+06    -100.076E-03     200.497E-03    -100.421E-03     25.6863E-03    -100.360E-03     200.224E-03    -100.501E-03     25.5537E-03
            1208     4.06967E-03     124.966E-03    -103.502E+06    -94.7197E+06    -61.3040E+06    -9.45319E+06    -100.107E-03     200.521E-03    -100.414E-03     31.4328E-03    -100.402E-03     200.289E-03    -100.433E-03     31.2668E-03
            1209     4.88398E-03     124.992E-03    -94.5394E+06    -79.8079E+06    -43.6033E+06    -10.9917E+06    -100.323E-03     200.751E-03    -100.429E-03     36.7790E-03    -100.621E-03     200.557E-03    -100.394E-03     36.5754E-03
            1210     5.69781E-03     125.022E-03    -85.6915E+06    -65.7918E+06    -27.9341E+06    -12.6188E+06    -100.711E-03     201.187E-03    -100.476E-03     41.6072E-03    -101.011E-03     201.030E-03    -100.396E-03     41.3580E-03
            1211     6.51174E-03     125.056E-03    -77.1303E+06    -53.8431E+06    -14.7913E+06    -14.5228E+06    -101.307E-03     201.869E-03    -100.562E-03     45.8546E-03    -101.603E-03     201.743E-03    -100.446E-03     45.5493E-03
            1212     7.32504E-03     125.093E-03    -68.7115E+06    -43.0237E+06    -3.76268E+06    -16.4847E+06    -102.197E-03     202.897E-03    -100.700E-03     49.3338E-03    -102.488E-03     202.802E-03    -100.557E-03     48.9630E-03
            1213     8.13743E-03     125.132E-03    -60.8086E+06    -32.7167E+06     5.69513E+06    -18.7490E+06    -103.357E-03     204.260E-03    -100.903E-03     51.9977E-03    -103.642E-03     204.197E-03    -100.739E-03     51.5466E-03
            1214     8.94897E-03     125.173E-03    -53.4379E+06    -24.9138E+06     13.3539E+06    -20.9395E+06    -104.691E-03     205.866E-03    -101.175E-03     53.7684E-03    -104.968E-03     205.826E-03    -100.995E-03     53.2252E-03
            1215     9.75937E-03     125.216E-03    -46.4718E+06    -18.1946E+06     19.7171E+06    -22.9935E+06    -106.203E-03     207.717E-03    -101.514E-03     54.4537E-03    -106.473E-03     207.700E-03    -101.322E-03     53.8066E-03
            1216     10.5686E-03     125.260E-03    -39.4335E+06    -12.5918E+06      25.016E+06    -24.8980E+06    -107.854E-03     209.773E-03    -101.919E-03     54.0120E-03    -108.113E-03     209.775E-03    -101.719E-03     53.2476E-03
            1217     11.3761E-03     125.305E-03    -33.1243E+06    -5.52025E+06     29.4893E+06    -25.9192E+06    -109.353E-03     211.728E-03    -102.375E-03     52.4404E-03    -109.607E-03     211.759E-03    -102.172E-03     51.5541E-03
            1218     12.1829E-03     125.348E-03    -26.8483E+06    -3.80202E+06     32.2518E+06    -25.1169E+06    -110.595E-03     213.459E-03    -102.864E-03     49.7170E-03    -110.835E-03     213.496E-03    -102.658E-03     48.7126E-03
            1219     12.9884E-03     125.390E-03    -21.2469E+06     13.0881E+06     38.3629E+06    -22.5658E+06    -111.576E-03     214.939E-03    -103.362E-03     45.7333E-03    -111.832E-03     215.055E-03    -103.159E-03     44.6153E-03
            1220     13.7936E-03     125.428E-03    -16.2222E+06     15.4916E+06     37.9825E+06    -17.9860E+06    -112.368E-03     216.218E-03    -103.850E-03     39.7388E-03    -112.611E-03     216.349E-03    -103.659E-03     38.5147E-03
            1221     14.5975E-03     125.463E-03    -10.3803E+06     56.2136E+06     51.3670E+06    -11.3865E+06    -112.787E-03     217.125E-03    -104.338E-03     32.4448E-03    -113.089E-03     217.441E-03    -104.148E-03     31.1071E-03
            1222     15.4026E-03     125.488E-03    -5.67856E+06     101.777E+06     81.6526E+06    -6.00272E+06    -113.277E-03     218.165E-03    -104.889E-03     18.9367E-03    -113.637E-03     218.630E-03    -104.620E-03     17.7486E-03
            1223     815.544E-06     126.061E-03    -148.651E+06    -144.452E+06    -145.893E+06    -3.03611E+06    -98.1087E-03     196.197E-03    -98.0887E-03     7.65828E-03    -98.4312E-03     195.902E-03    -98.3931E-03     7.62679E-03
            1224     1.63112E-03     126.069E-03    -143.042E+06    -134.172E+06    -132.925E+06    -6.03400E+06    -98.0122E-03     196.130E-03    -98.1178E-03     14.2032E-03    -98.3403E-03     195.859E-03    -98.3805E-03     14.1359E-03
            1225     2.44704E-03     126.082E-03    -134.535E+06    -120.300E+06    -114.509E+06    -8.57606E+06    -97.9532E-03     196.082E-03    -98.1284E-03     20.7491E-03    -98.2855E-03     195.841E-03    -98.3315E-03     20.6521E-03
            1226     3.26267E-03     126.100E-03    -124.118E+06    -104.675E+06    -92.8658E+06    -10.7527E+06    -97.9774E-03     196.131E-03    -98.1533E-03     27.0508E-03    -98.3117E-03     195.922E-03    -98.2858E-03     26.9248E-03
            1227     4.07875E-03     126.122E-03    -112.370E+06    -89.0924E+06    -70.8883E+06    -12.5988E+06    -98.1856E-03     196.387E-03    -98.2015E-03     33.0069E-03    -98.5160E-03     196.208E-03    -98.2639E-03     32.8519E-03
            1228     4.89433E-03     126.149E-03    -100.285E+06    -74.3280E+06    -50.5648E+06    -14.2615E+06    -98.6067E-03     196.891E-03    -98.2844E-03     38.6118E-03    -98.9286E-03     196.739E-03    -98.2840E-03     38.4233E-03
            1229     5.70987E-03     126.179E-03    -88.3177E+06    -60.5518E+06    -32.7621E+06    -15.8042E+06    -99.3045E-03     197.718E-03    -98.4134E-03     43.6956E-03    -99.6141E-03     197.594E-03    -98.3613E-03     43.4671E-03
            1230     6.52461E-03     126.214E-03    -77.3047E+06    -48.3264E+06    -17.7558E+06    -17.2606E+06    -100.318E-03     198.922E-03    -98.6042E-03     48.0745E-03    -100.615E-03     198.825E-03    -98.5108E-03     47.7976E-03
            1231     7.33850E-03     126.252E-03    -67.2809E+06    -37.1081E+06    -5.13936E+06    -19.1361E+06    -101.623E-03     200.491E-03    -98.8683E-03     51.7424E-03    -101.908E-03     200.421E-03    -98.7426E-03     51.4009E-03
            1232     8.15146E-03     126.294E-03    -58.1346E+06    -26.6963E+06     5.65239E+06    -21.0347E+06    -103.213E-03     202.426E-03    -99.2133E-03     54.5755E-03    -103.488E-03     202.384E-03    -99.0620E-03     54.1567E-03
            1233     8.96292E-03     126.337E-03    -50.1078E+06    -19.0833E+06     14.2839E+06    -22.9144E+06    -105.093E-03     204.737E-03    -99.6446E-03     56.4194E-03    -105.359E-03     204.717E-03    -99.4728E-03     55.9099E-03
            1234     9.77294E-03     126.383E-03    -42.8065E+06    -12.1632E+06     21.3025E+06    -25.0079E+06    -107.155E-03     207.316E-03    -100.160E-03     57.1925E-03    -107.413E-03     207.317E-03    -99.9740E-03     56.5758E-03
            1235     10.5809E-03     126.430E-03    -36.3041E+06    -7.27378E+06     26.7607E+06    -26.8787E+06    -109.166E-03     209.915E-03    -100.749E-03     56.8368E-03    -109.415E-03     209.933E-03    -100.552E-03     56.1014E-03
            1236     11.3877E-03     126.477E-03    -30.5725E+06    -2.20759E+06     31.0265E+06    -27.7200E+06    -110.983E-03     212.371E-03    -101.388E-03     55.2468E-03    -111.228E-03     212.410E-03    -101.185E-03     54.3897E-03
            1237     12.1927E-03     126.523E-03    -25.4980E+06    -3.20196E+06     32.9917E+06    -27.4950E+06    -112.644E-03     214.703E-03    -102.060E-03     52.3032E-03    -112.875E-03     214.738E-03    -101.853E-03     51.3159E-03
            1238     12.9969E-03     126.566E-03    -19.9213E+06     10.2467E+06     38.2932E+06    -25.1870E+06    -113.926E-03     216.666E-03    -102.740E-03     48.0100E-03    -114.168E-03     216.763E-03    -102.535E-03     46.9004E-03
            1239     13.7992E-03     126.608E-03    -14.7551E+06     9.13352E+06     37.3733E+06    -20.7716E+06    -114.839E-03     218.242E-03    -103.403E-03     41.6108E-03    -115.062E-03     218.337E-03    -103.208E-03     40.3810E-03
            1240     14.6021E-03     126.640E-03    -10.1207E+06     47.9756E+06     50.7356E+06    -14.9229E+06    -115.364E-03     219.420E-03    -104.056E-03     33.7234E-03    -115.649E-03     219.693E-03    -103.857E-03     32.3532E-03
            1241     15.4029E-03     126.670E-03    -4.46650E+06     92.5729E+06     80.8659E+06    -7.11701E+06    -115.713E-03     220.463E-03    -104.750E-03     19.9622E-03    -116.053E-03     220.881E-03    -104.473E-03     18.7529E-03
            1242     817.801E-06     127.212E-03    -170.649E+06    -133.235E+06    -168.320E+06    -5.57880E+06    -95.3392E-03     190.716E-03    -95.3768E-03     8.04454E-03    -95.7552E-03     190.541E-03    -95.7778E-03     7.99088E-03
            1243     1.63562E-03     127.220E-03    -164.143E+06    -122.992E+06    -153.976E+06    -10.0639E+06    -95.4515E-03     190.867E-03    -95.4155E-03     14.8157E-03    -95.8703E-03     190.712E-03    -95.7690E-03     14.7173E-03
            1244     2.45319E-03     127.233E-03    -153.968E+06    -110.120E+06    -133.340E+06    -14.5824E+06    -95.5513E-03     191.058E-03    -95.5071E-03     21.5769E-03    -95.9672E-03     190.923E-03    -95.7909E-03     21.4313E-03
            1245     3.27120E-03     127.250E-03    -140.671E+06    -95.6424E+06    -109.090E+06    -18.3018E+06    -95.8388E-03     191.465E-03    -95.6259E-03     28.1505E-03    -96.2438E-03     191.347E-03    -95.8287E-03     27.9643E-03
            1246     4.08840E-03     127.273E-03    -125.265E+06    -81.1161E+06    -84.1812E+06    -21.3873E+06    -96.3185E-03     192.103E-03    -95.7849E-03     34.3162E-03    -96.7034E-03     191.999E-03    -95.9066E-03     34.0907E-03
            1247     4.90573E-03     127.301E-03    -108.589E+06    -67.6322E+06    -60.8735E+06    -23.5587E+06    -97.0510E-03     193.040E-03    -95.9887E-03     40.0284E-03    -97.4062E-03     192.946E-03    -96.0375E-03     39.7676E-03
            1248     5.72228E-03     127.333E-03    -92.1856E+06    -55.1848E+06    -40.0989E+06    -24.5300E+06    -98.1308E-03     194.383E-03    -96.2520E-03     45.1769E-03    -98.4533E-03     194.298E-03    -96.2388E-03     44.8873E-03
            1249     6.53790E-03     127.369E-03    -76.9292E+06    -43.3922E+06    -21.9428E+06    -24.9326E+06    -99.5426E-03     196.134E-03    -96.5910E-03     49.7098E-03    -99.8346E-03     196.062E-03    -96.5263E-03     49.3878E-03
            1250     7.35247E-03     127.409E-03    -63.9177E+06    -32.3585E+06    -6.51783E+06    -24.8447E+06    -101.264E-03     198.279E-03    -97.0146E-03     53.5397E-03    -101.534E-03     198.225E-03    -96.9076E-03     53.1787E-03
            1251     8.16542E-03     127.453E-03    -53.6589E+06    -21.9169E+06     6.28229E+06    -24.7095E+06    -103.294E-03     200.822E-03    -97.5282E-03     56.4866E-03    -103.551E-03     200.793E-03    -97.3872E-03     56.0744E-03
            1252     8.97688E-03     127.500E-03    -45.1274E+06    -13.4422E+06     16.5096E+06    -25.5860E+06    -105.585E-03     203.719E-03    -98.1338E-03     58.5524E-03    -105.834E-03     203.712E-03    -97.9663E-03     58.0620E-03
            1253     9.78597E-03     127.549E-03    -37.6202E+06    -6.53667E+06     24.5867E+06    -26.9564E+06    -107.938E-03     206.761E-03    -98.8230E-03     59.6241E-03    -108.178E-03     206.774E-03    -98.6361E-03     59.0360E-03
            1254     10.5937E-03     127.599E-03    -31.4079E+06    -2.23125E+06     30.6028E+06    -28.0983E+06    -110.229E-03     209.809E-03    -99.5801E-03     59.4839E-03    -110.463E-03     209.835E-03    -99.3783E-03     58.7879E-03
            1255     11.3992E-03     127.650E-03    -26.5300E+06     518.936E+03     34.6621E+06    -28.3567E+06    -112.500E-03     212.888E-03    -100.388E-03     57.9818E-03    -112.729E-03     212.925E-03    -100.177E-03     57.1730E-03
            1256     12.2033E-03     127.698E-03    -22.5840E+06    -1.17551E+06     36.4033E+06    -27.7774E+06    -114.577E-03     215.811E-03    -101.234E-03     55.0172E-03    -114.797E-03     215.842E-03    -101.018E-03     54.0844E-03
            1257     13.0048E-03     127.745E-03    -19.2139E+06     8.84067E+06     40.0804E+06    -26.8161E+06    -116.090E-03     218.178E-03    -102.088E-03     50.5304E-03    -116.325E-03     218.259E-03    -101.872E-03     49.4570E-03
            1258     13.8070E-03     127.787E-03    -14.7489E+06     3.27693E+06     37.9402E+06    -23.3705E+06    -117.416E-03     220.340E-03    -102.924E-03     44.0796E-03    -117.628E-03     220.401E-03    -102.718E-03     42.8640E-03
            1259     14.6059E-03     127.825E-03    -10.2458E+06     38.6842E+06     49.7127E+06    -16.4475E+06    -118.106E-03     221.849E-03    -103.743E-03     36.0910E-03    -118.376E-03     222.076E-03    -103.536E-03     34.7304E-03
            1260     15.4062E-03     127.853E-03    -5.99354E+06     80.8136E+06     78.2484E+06    -8.30466E+06    -118.242E-03     222.828E-03    -104.586E-03     22.2839E-03    -118.570E-03     223.195E-03    -104.303E-03     21.0623E-03
            1261     820.231E-06     128.356E-03    -171.614E+06    -116.490E+06    -168.529E+06    -7.68503E+06    -92.6283E-03     185.268E-03    -92.6395E-03     8.36187E-03    -93.0730E-03     185.178E-03    -93.0644E-03     8.28593E-03
            1262     1.64006E-03     128.364E-03    -165.692E+06    -106.886E+06    -155.035E+06    -13.7633E+06    -92.9125E-03     185.641E-03    -92.7281E-03     14.9235E-03    -93.3605E-03     185.570E-03    -93.1080E-03     14.7882E-03
            1263     2.46011E-03     128.377E-03    -156.733E+06    -94.1323E+06    -134.845E+06    -20.2616E+06    -93.2863E-03     186.199E-03    -92.9122E-03     21.8070E-03    -93.7365E-03     186.149E-03    -93.2227E-03     21.6030E-03
            1264     3.27927E-03     128.396E-03    -145.383E+06    -81.5826E+06    -112.691E+06    -26.3807E+06    -93.8439E-03     186.986E-03    -93.1424E-03     28.4462E-03    -94.2868E-03     186.950E-03    -93.3767E-03     28.1740E-03
            1265     4.09862E-03     128.420E-03    -132.003E+06    -68.7157E+06    -90.2720E+06    -31.2288E+06    -94.6744E-03     188.100E-03    -93.4255E-03     34.7061E-03    -95.1008E-03     188.075E-03    -93.5858E-03     34.3762E-03
            1266     4.91680E-03     128.448E-03    -117.513E+06    -57.7428E+06    -68.8399E+06    -34.8998E+06    -95.8433E-03     189.622E-03    -93.7789E-03     40.4883E-03    -96.2441E-03     189.600E-03    -93.8690E-03     40.1078E-03
            1267     5.73411E-03     128.482E-03    -101.982E+06    -47.8146E+06    -48.6697E+06    -37.2091E+06    -97.2620E-03     191.470E-03    -94.2082E-03     45.7033E-03    -97.6296E-03     191.447E-03    -94.2344E-03     45.2803E-03
            1268     6.55048E-03     128.521E-03    -85.5613E+06    -38.5485E+06    -29.4904E+06    -37.5306E+06    -99.0095E-03     193.727E-03    -94.7177E-03     50.3012E-03    -99.3380E-03     193.701E-03    -94.6852E-03     49.8512E-03
            1269     7.36519E-03     128.564E-03    -69.0780E+06    -29.7921E+06    -11.4802E+06    -35.9742E+06    -101.110E-03     196.426E-03    -95.3164E-03     54.1781E-03    -101.398E-03     196.397E-03    -95.2304E-03     53.7128E-03
            1270     8.17835E-03     128.611E-03    -53.2812E+06    -19.6948E+06     5.05992E+06    -33.5814E+06    -103.438E-03     199.442E-03    -96.0031E-03     57.3453E-03    -103.691E-03     199.421E-03    -95.8720E-03     56.8625E-03
            1271     8.98920E-03     128.662E-03    -40.0894E+06    -10.6808E+06     18.8429E+06    -31.0300E+06    -105.861E-03     202.629E-03    -96.7681E-03     59.7533E-03    -106.087E-03     202.620E-03    -96.6003E-03     59.2419E-03
            1272     9.79871E-03     128.714E-03    -31.2764E+06    -3.25582E+06     29.0968E+06    -29.1135E+06    -108.353E-03     205.952E-03    -97.5990E-03     61.1749E-03    -108.569E-03     205.961E-03    -97.4034E-03     60.6142E-03
            1273     10.6056E-03     128.769E-03    -25.9721E+06     836.263E+03     35.9465E+06    -27.7887E+06    -110.980E-03     209.472E-03    -98.4915E-03     61.4117E-03    -111.194E-03     209.492E-03    -98.2753E-03     60.7805E-03
            1274     11.4108E-03     128.822E-03    -22.2149E+06     3.34404E+06     40.3400E+06    -27.2492E+06    -113.575E-03     213.012E-03    -99.4376E-03     60.3857E-03    -113.789E-03     213.043E-03    -99.2085E-03     59.6591E-03
            1275     12.2131E-03     128.876E-03    -18.4688E+06     1.34597E+06     42.3179E+06    -27.5374E+06    -115.923E-03     216.344E-03    -100.421E-03     57.7743E-03    -116.129E-03     216.367E-03    -100.185E-03     56.9203E-03
            1276     13.0150E-03     128.925E-03    -14.5710E+06     8.65685E+06     45.7022E+06    -26.1897E+06    -118.008E-03     219.428E-03    -101.421E-03     53.3939E-03    -118.221E-03     219.488E-03    -101.183E-03     52.4072E-03
            1277     13.8132E-03     128.971E-03    -12.4207E+06    -940.077E+03     42.0330E+06    -23.3547E+06    -119.670E-03     222.083E-03    -102.413E-03     47.0078E-03    -119.865E-03     222.109E-03    -102.183E-03     45.8662E-03
            1278     14.6122E-03     129.009E-03    -9.10353E+06     29.3982E+06     52.5316E+06    -18.2692E+06    -120.702E-03     224.094E-03    -103.392E-03     38.6203E-03    -120.953E-03     224.265E-03    -103.159E-03     37.2874E-03
            1279     15.4096E-03     129.040E-03    -3.69576E+06     67.7824E+06     78.7918E+06    -9.44466E+06    -121.372E-03     225.764E-03    -104.392E-03     24.0417E-03    -121.670E-03     226.061E-03    -104.091E-03     22.8148E-03
            1280     822.073E-06     129.494E-03    -139.368E+06    -95.9695E+06    -136.232E+06    -8.66321E+06    -90.5863E-03     181.058E-03    -90.4721E-03     7.79808E-03    -90.9464E-03     180.978E-03    -90.8120E-03     7.70474E-03
            1281     1.64423E-03     129.503E-03    -134.134E+06    -86.8349E+06    -122.701E+06    -15.8025E+06    -90.9297E-03     181.581E-03    -90.6511E-03     14.0372E-03    -91.2960E-03     181.518E-03    -90.9442E-03     13.8678E-03
            1282     2.46553E-03     129.517E-03    -126.465E+06    -74.9855E+06    -104.974E+06    -22.7363E+06    -91.5534E-03     182.452E-03    -90.8986E-03     20.5102E-03    -91.9236E-03     182.411E-03    -91.1314E-03     20.2648E-03
            1283     3.28680E-03     129.537E-03    -117.662E+06    -63.1034E+06    -85.6787E+06    -29.3667E+06    -92.4126E-03     183.640E-03    -91.2272E-03     26.8467E-03    -92.7833E-03     183.617E-03    -91.3935E-03     26.5243E-03
            1284     4.10680E-03     129.562E-03    -108.479E+06    -52.8032E+06    -67.9633E+06    -35.3055E+06    -93.6090E-03     185.240E-03    -91.6305E-03     32.9145E-03    -93.9741E-03     185.229E-03    -91.7365E-03     32.5185E-03
            1285     4.92603E-03     129.593E-03    -99.3809E+06    -43.8889E+06    -51.8195E+06    -39.9540E+06    -95.0633E-03     187.179E-03    -92.1154E-03     38.5347E-03    -95.4191E-03     187.176E-03    -92.1668E-03     38.0766E-03
            1286     5.74405E-03     129.629E-03    -90.2195E+06    -36.4099E+06    -37.0940E+06    -43.6617E+06    -96.7970E-03     189.478E-03    -92.6809E-03     43.7288E-03    -97.1398E-03     189.479E-03    -92.6827E-03     43.2146E-03
            1287     6.56038E-03     129.670E-03    -80.8253E+06    -30.9978E+06    -23.8272E+06    -45.9165E+06    -98.7892E-03     192.116E-03    -93.3271E-03     48.4479E-03    -99.1134E-03     192.113E-03    -93.2841E-03     47.8889E-03
            1288     7.37528E-03     129.717E-03    -70.2382E+06    -25.4406E+06    -10.8004E+06    -46.4947E+06    -100.974E-03     195.025E-03    -94.0514E-03     52.6338E-03    -101.274E-03     195.017E-03    -93.9666E-03     52.0437E-03
            1289     8.18806E-03     129.768E-03    -58.0224E+06    -18.2184E+06     2.90669E+06    -45.1090E+06    -103.291E-03     198.138E-03    -94.8471E-03     56.2385E-03    -103.564E-03     198.132E-03    -94.7220E-03     55.6324E-03
            1290     8.99958E-03     129.821E-03    -44.8810E+06    -11.9555E+06     16.9665E+06    -41.3394E+06    -105.724E-03     201.434E-03    -95.7096E-03     59.0735E-03    -105.966E-03     201.425E-03    -95.5423E-03     58.4706E-03
            1291     9.80856E-03     129.878E-03    -32.1158E+06    -5.64666E+06     30.3359E+06    -35.3074E+06    -108.321E-03     204.952E-03    -96.6309E-03     61.0084E-03    -108.534E-03     204.943E-03    -96.4245E-03     60.4249E-03
            1292     10.6160E-03     129.936E-03    -21.8277E+06     172.201E+03     41.0707E+06    -29.8080E+06    -111.040E-03     208.645E-03    -97.6044E-03     61.9878E-03    -111.232E-03     208.641E-03    -97.3677E-03     61.4026E-03
            1293     11.4203E-03     129.996E-03    -15.3338E+06     3.90353E+06     47.8558E+06    -26.0611E+06    -113.733E-03     212.355E-03    -98.6218E-03     61.7258E-03    -113.917E-03     212.359E-03    -98.3659E-03     61.1005E-03
            1294     12.2238E-03     130.052E-03    -13.0288E+06     4.15349E+06     50.8932E+06    -24.1972E+06    -116.519E-03     216.201E-03    -99.6818E-03     59.9180E-03    -116.706E-03     216.209E-03    -99.4144E-03     59.2051E-03
            1295     13.0232E-03     130.107E-03    -13.3625E+06     6.88037E+06     52.0252E+06    -22.7272E+06    -119.210E-03     219.988E-03    -100.778E-03     56.1240E-03    -119.415E-03     220.019E-03    -100.508E-03     55.2877E-03
            1296     13.8222E-03     130.155E-03    -11.9574E+06    -971.931E+03     48.6920E+06    -21.2493E+06    -121.558E-03     223.450E-03    -101.893E-03     49.6311E-03    -121.751E-03     223.457E-03    -101.630E-03     48.6208E-03
            1297     14.6184E-03     130.197E-03    -8.93893E+06     23.1715E+06     57.6352E+06    -19.2105E+06    -123.422E-03     226.447E-03    -103.024E-03     41.2204E-03    -123.665E-03     226.573E-03    -102.757E-03     39.9562E-03
            1298     15.4127E-03     130.232E-03    -5.40303E+06     51.1552E+06     77.4559E+06    -10.6308E+06    -124.645E-03     228.827E-03    -104.182E-03     26.1633E-03    -124.924E-03     229.044E-03    -103.861E-03     24.9572E-03
            1299     823.074E-06     130.628E-03    -93.2989E+06    -73.3902E+06    -89.8570E+06    -9.49071E+06    -89.8178E-03     179.560E-03    -89.7426E-03     6.26333E-03    -90.0476E-03     179.459E-03    -89.9502E-03     6.14669E-03
            1300     1.64590E-03     130.638E-03    -88.0797E+06    -65.2873E+06    -77.2841E+06    -16.7845E+06    -90.2296E-03     180.144E-03    -89.9146E-03     11.5476E-03    -90.4633E-03     180.057E-03    -90.0787E-03     11.3405E-03
            1301     2.46843E-03     130.653E-03    -81.1292E+06    -55.1176E+06    -60.7502E+06    -23.5949E+06    -90.9716E-03     181.168E-03    -90.1962E-03     16.8503E-03    -91.2092E-03     181.098E-03    -90.3024E-03     16.5572E-03
            1302     3.28998E-03     130.674E-03    -73.0127E+06    -44.5705E+06    -43.0984E+06    -29.3154E+06    -92.0563E-03     182.641E-03    -90.5851E-03     22.1992E-03    -92.2944E-03     182.587E-03    -90.6301E-03     21.8301E-03
            1303     4.11067E-03     130.702E-03    -65.4182E+06    -35.8577E+06    -27.4278E+06    -34.3401E+06    -93.3768E-03     184.441E-03    -91.0640E-03     27.4353E-03    -93.6127E-03     184.397E-03    -91.0543E-03     26.9966E-03
            1304     4.93012E-03     130.735E-03    -58.6942E+06    -29.4267E+06    -14.9353E+06    -38.3661E+06    -94.9348E-03     186.551E-03    -91.6159E-03     32.4639E-03    -95.1652E-03     186.512E-03    -91.5628E-03     31.9667E-03
            1305     5.74812E-03     130.774E-03    -53.5100E+06    -23.9480E+06    -4.91505E+06    -40.9157E+06    -96.7001E-03     188.937E-03    -92.2368E-03     37.3285E-03    -96.9279E-03     188.904E-03    -92.1490E-03     36.7920E-03
            1306     6.56475E-03     130.818E-03    -50.1119E+06    -19.9692E+06     2.76830E+06    -43.3625E+06    -98.5898E-03     191.509E-03    -92.9189E-03     42.1008E-03    -98.8184E-03     191.481E-03    -92.8034E-03     41.5258E-03
            1307     7.37953E-03     130.868E-03    -47.6379E+06    -17.0857E+06     8.97109E+06    -45.4587E+06    -100.558E-03     194.210E-03    -93.6520E-03     46.6772E-03    -100.789E-03     194.185E-03    -93.5133E-03     46.0659E-03
            1308     8.19321E-03     130.922E-03    -45.6092E+06    -13.4704E+06     15.2859E+06    -46.2491E+06    -102.650E-03     197.084E-03    -94.4335E-03     50.8671E-03    -102.887E-03     197.067E-03    -94.2714E-03     50.2344E-03
            1309     9.00452E-03     130.980E-03    -42.6995E+06    -11.6037E+06     22.2134E+06    -45.1818E+06    -104.941E-03     200.210E-03    -95.2687E-03     54.5226E-03    -105.178E-03     200.190E-03    -95.0789E-03     53.8860E-03
            1310     9.81452E-03     131.040E-03    -37.1881E+06    -9.60572E+06     30.5680E+06    -41.8685E+06    -107.398E-03     203.558E-03    -96.1593E-03     57.5568E-03    -107.625E-03     203.530E-03    -95.9386E-03     56.9354E-03
            1311     10.6219E-03     131.104E-03    -28.7801E+06    -4.17413E+06     41.0704E+06    -36.3009E+06    -109.946E-03     207.048E-03    -97.1023E-03     59.6625E-03    -110.158E-03     207.025E-03    -96.8492E-03     59.0711E-03
            1312     11.4282E-03     131.166E-03    -19.4388E+06    -1.09555E+06     50.7852E+06    -29.3205E+06    -112.800E-03     210.899E-03    -98.0992E-03     60.5295E-03    -112.990E-03     210.869E-03    -97.8155E-03     59.9639E-03
            1313     12.2308E-03     131.228E-03    -11.9169E+06     1.10476E+06     57.3957E+06    -22.1918E+06    -115.955E-03     215.107E-03    -99.1521E-03     59.9544E-03    -116.129E-03     215.077E-03    -98.8495E-03     59.3884E-03
            1314     13.0321E-03     131.288E-03    -7.48067E+06     5.87439E+06     61.1620E+06    -17.5921E+06    -119.318E-03     219.585E-03    -100.267E-03     57.2597E-03    -119.492E-03     219.576E-03    -99.9588E-03     56.6228E-03
            1315     13.8292E-03     131.341E-03    -6.06902E+06     3.27438E+06     59.1898E+06    -18.3526E+06    -122.770E-03     224.214E-03    -101.444E-03     51.6004E-03    -122.943E-03     224.206E-03    -101.144E-03     50.7709E-03
            1316     14.6237E-03     131.388E-03    -4.50267E+06     18.0011E+06     64.9737E+06    -17.4205E+06    -125.551E-03     228.238E-03    -102.687E-03     43.6258E-03    -125.763E-03     228.310E-03    -102.381E-03     42.5226E-03
            1317     15.4175E-03     131.425E-03    -1.92014E+06     34.3000E+06     77.4084E+06    -9.25283E+06    -127.597E-03     231.567E-03    -103.970E-03     28.6212E-03    -127.828E-03     231.690E-03    -103.630E-03     27.5058E-03
            1318     822.257E-06     131.763E-03    -47.5989E+06    -49.6807E+06    -44.9724E+06    -9.69766E+06    -91.2852E-03     182.510E-03    -91.2249E-03     3.91100E-03    -91.3864E-03     182.396E-03    -91.3087E-03     3.77183E-03
            1319     1.64402E-03     131.773E-03    -44.0225E+06    -43.6828E+06    -34.0331E+06    -16.8431E+06    -91.6790E-03     183.072E-03    -91.3932E-03     7.11563E-03    -91.7873E-03     182.967E-03    -91.4361E-03     6.87135E-03
            1320     2.46560E-03     131.790E-03    -38.5987E+06    -35.7322E+06    -19.5009E+06    -23.0862E+06    -92.3758E-03     184.049E-03    -91.6732E-03     10.5411E-03    -92.4901E-03     183.955E-03    -91.6629E-03     10.2012E-03
            1321     3.28619E-03     131.813E-03    -32.9095E+06    -28.1250E+06    -5.04477E+06    -27.8801E+06    -93.3421E-03     185.391E-03    -92.0491E-03     14.0524E-03    -93.4607E-03     185.307E-03    -91.9859E-03     13.6346E-03
            1322     4.10599E-03     131.841E-03    -27.7225E+06    -21.4023E+06     7.74193E+06    -31.0506E+06    -94.4561E-03     186.955E-03    -92.4987E-03     17.6375E-03    -94.5781E-03     186.879E-03    -92.3888E-03     17.1623E-03
            1323     4.92465E-03     131.877E-03    -23.8878E+06    -17.2772E+06     17.7412E+06    -33.1338E+06    -95.7047E-03     188.706E-03    -93.0014E-03     21.4069E-03    -95.8292E-03     188.633E-03    -92.8530E-03     20.8911E-03
            1324     5.74225E-03     131.918E-03    -21.0709E+06    -14.0066E+06     25.3881E+06    -34.4806E+06    -97.0313E-03     190.575E-03    -93.5432E-03     25.3881E-03    -97.1587E-03     190.504E-03    -93.3654E-03     24.8453E-03
            1325     6.55858E-03     131.966E-03    -19.1291E+06    -10.0560E+06     32.0255E+06    -35.2579E+06    -98.3874E-03     192.502E-03    -94.1147E-03     29.5506E-03    -98.5215E-03     192.440E-03    -93.9123E-03     28.9937E-03
            1326     7.37410E-03     132.018E-03    -18.7440E+06    -8.40244E+06     36.9320E+06    -36.0092E+06    -99.8256E-03     194.536E-03    -94.7099E-03     33.8772E-03    -99.9682E-03     194.475E-03    -94.4859E-03     33.3113E-03
            1327     8.18784E-03     132.075E-03    -19.7758E+06    -7.24917E+06     40.1695E+06    -36.0019E+06    -101.388E-03     196.714E-03    -95.3261E-03     38.2930E-03    -101.542E-03     196.656E-03    -95.0860E-03     37.7324E-03
            1328     9.00087E-03     132.136E-03    -22.2954E+06    -6.96078E+06     41.9864E+06    -35.8133E+06    -103.141E-03     199.111E-03    -95.9699E-03     42.7324E-03    -103.311E-03     199.056E-03    -95.7176E-03     42.1831E-03
            1329     9.81167E-03     132.201E-03    -25.4548E+06    -7.58337E+06     43.4811E+06    -35.8286E+06    -105.107E-03     201.761E-03    -96.6533E-03     46.9378E-03    -105.295E-03     201.706E-03    -96.3880E-03     46.3955E-03
            1330     10.6216E-03     132.267E-03    -27.2484E+06    -6.24875E+06     46.8175E+06    -34.6870E+06    -107.437E-03     204.829E-03    -97.3924E-03     50.5805E-03    -107.641E-03     204.779E-03    -97.1097E-03     50.0514E-03
            1331     11.4285E-03     132.335E-03    -25.9093E+06    -7.03916E+06     51.3120E+06    -31.1272E+06    -110.249E-03     208.455E-03    -98.2061E-03     53.4084E-03    -110.455E-03     208.395E-03    -97.9017E-03     52.9055E-03
            1332     12.2338E-03     132.402E-03    -20.8156E+06    -6.35033E+06     56.9379E+06    -25.2360E+06    -113.567E-03     212.674E-03    -99.1076E-03     54.9261E-03    -113.760E-03     212.607E-03    -98.7835E-03     54.4484E-03
            1333     13.0355E-03     132.467E-03    -13.9897E+06     1.01720E+06     64.4871E+06    -18.7172E+06    -117.456E-03     217.572E-03    -100.116E-03     54.7042E-03    -117.645E-03     217.528E-03    -99.7745E-03     54.2175E-03
            1334     13.8340E-03     132.528E-03    -7.75547E+06     9.80411E+06     69.3659E+06    -16.8999E+06    -121.840E-03     223.075E-03    -101.235E-03     51.5895E-03    -122.028E-03     223.070E-03    -100.891E-03     50.9696E-03
            1335     14.6293E-03     132.579E-03    -3.76814E+06     10.9762E+06     69.9122E+06    -14.9841E+06    -126.101E-03     228.569E-03    -102.468E-03     44.9370E-03    -126.288E-03     228.580E-03    -102.129E-03     44.0749E-03
            1336     15.4196E-03     132.623E-03    -760.064E+03     17.1374E+06     74.0472E+06    -6.31270E+06    -129.483E-03     233.278E-03    -103.794E-03     30.9550E-03    -129.668E-03     233.306E-03    -103.448E-03     30.0469E-03
            1337     818.436E-06     132.904E-03    -6.65415E+06    -27.0387E+06    -3.59378E+06    -8.45603E+06    -95.8928E-03     191.569E-03    -95.6761E-03     552.713E-06    -95.8834E-03     191.447E-03    -95.6452E-03     413.723E-06
            1338     1.63720E-03     132.915E-03    -4.72340E+06    -23.4881E+06     4.24835E+06    -14.6003E+06    -95.9926E-03     191.889E-03    -95.8968E-03     1.12161E-03    -95.9902E-03     191.771E-03    -95.8347E-03     875.148E-06
            1339     2.45493E-03     132.932E-03    -2.47880E+06    -18.9379E+06     14.6792E+06    -19.4713E+06    -96.4048E-03     192.498E-03    -96.0934E-03     2.03504E-03    -96.4132E-03     192.385E-03    -95.9889E-03     1.69650E-03
            1340     3.27271E-03     132.956E-03    -376.096E+03    -14.3309E+06     25.2972E+06    -22.7671E+06    -96.9026E-03     193.257E-03    -96.3544E-03     3.03443E-03    -96.9228E-03     193.149E-03    -96.2066E-03     2.62626E-03
            1341     4.08946E-03     132.987E-03     1.23018E+06    -10.9132E+06     34.9020E+06    -24.5671E+06    -97.4631E-03     194.119E-03    -96.6555E-03     4.35224E-03    -97.4947E-03     194.012E-03    -96.4670E-03     3.89694E-03
            1342     4.90591E-03     133.023E-03     2.40669E+06    -8.54584E+06     43.2673E+06    -25.1978E+06    -98.0076E-03     194.986E-03    -96.9788E-03     5.99411E-03    -98.0495E-03     194.879E-03    -96.7536E-03     5.51153E-03
            1343     5.72171E-03     133.067E-03     2.84066E+06    -6.52894E+06     50.1483E+06    -25.5143E+06    -98.5009E-03     195.807E-03    -97.3057E-03     8.01349E-03    -98.5544E-03     195.700E-03    -97.0496E-03     7.51445E-03
            1344     6.53717E-03     133.115E-03     2.62739E+06    -4.22236E+06     55.8014E+06    -25.2342E+06    -98.9905E-03     196.618E-03    -97.6271E-03     10.4720E-03    -99.0574E-03     196.516E-03    -97.3458E-03     9.97114E-03
            1345     7.35178E-03     133.169E-03     1.30396E+06    -3.11573E+06     59.9764E+06    -24.1819E+06    -99.4946E-03     197.437E-03    -97.9423E-03     13.3709E-03    -99.5765E-03     197.338E-03    -97.6398E-03     12.8849E-03
            1346     8.16646E-03     133.228E-03    -711.140E+03    -3.12815E+06     62.4859E+06    -23.1686E+06    -100.092E-03     198.344E-03    -98.2517E-03     16.7359E-03    -100.188E-03     198.245E-03    -97.9337E-03     16.2699E-03
            1347     8.97998E-03     133.291E-03    -2.72957E+06    -2.61250E+06     64.3173E+06    -22.1331E+06    -100.822E-03     199.385E-03    -98.5630E-03     20.4453E-03    -100.932E-03     199.290E-03    -98.2337E-03     20.0050E-03
            1348     9.79355E-03     133.358E-03    -4.97986E+06    -2.84418E+06     65.3078E+06    -21.6662E+06    -101.862E-03     200.753E-03    -98.8901E-03     24.4402E-03    -101.985E-03     200.658E-03    -98.5523E-03     24.0223E-03
            1349     10.6053E-03     133.428E-03    -8.22807E+06    -3.76031E+06     64.5844E+06    -21.5286E+06    -103.378E-03     202.630E-03    -99.2513E-03     28.7535E-03    -103.515E-03     202.537E-03    -98.9110E-03     28.3562E-03
            1350     11.4161E-03     133.499E-03    -12.3302E+06    -6.25604E+06     62.8102E+06    -21.5763E+06    -105.417E-03     205.091E-03    -99.6739E-03     33.2137E-03    -105.567E-03     204.994E-03    -99.3329E-03     32.8316E-03
            1351     12.2244E-03     133.571E-03    -14.9166E+06    -9.49748E+06     61.7297E+06    -21.4708E+06    -108.190E-03     208.377E-03    -100.188E-03     37.7547E-03    -108.348E-03     208.271E-03    -99.8435E-03     37.3805E-03
            1352     13.0299E-03     133.643E-03    -13.2221E+06    -3.83389E+06     65.9123E+06    -19.5398E+06    -111.739E-03     212.564E-03    -100.825E-03     41.7645E-03    -111.905E-03     212.479E-03    -100.471E-03     41.3962E-03
            1353     13.8324E-03     133.709E-03    -8.91283E+06     10.9487E+06     72.6676E+06    -16.9595E+06    -116.361E-03     217.971E-03    -101.610E-03     44.2684E-03    -116.542E-03     217.949E-03    -101.249E-03     43.8651E-03
            1354     14.6288E-03     133.772E-03    -6.55616E+06     2.30246E+06     67.6649E+06    -11.9753E+06    -122.757E-03     225.336E-03    -102.579E-03     43.2595E-03    -122.919E-03     225.288E-03    -102.235E-03     42.7262E-03
            1355     15.4225E-03     133.818E-03    -3.95574E+06     4.38058E+06     64.5773E+06    -4.70355E+06    -128.454E-03     232.210E-03    -103.756E-03     31.6298E-03    -128.605E-03     232.176E-03    -103.434E-03     30.9995E-03
            1356     812.201E-06     134.060E-03     27.4037E+06    -9.75381E+06     30.2292E+06    -4.97126E+06    -103.717E-03     207.125E-03    -103.408E-03    -2.70036E-03    -103.613E-03     206.989E-03    -103.282E-03    -2.80101E-03
            1357     1.62389E-03     134.070E-03     26.5338E+06    -8.58197E+06     34.6219E+06    -8.53524E+06    -103.589E-03     207.247E-03    -103.659E-03    -5.03434E-03    -103.497E-03     207.112E-03    -103.512E-03    -5.20754E-03
            1358     2.43640E-03     134.088E-03     24.9912E+06    -6.92147E+06     41.1309E+06    -11.2712E+06    -103.467E-03     207.223E-03    -103.755E-03    -7.31398E-03    -103.395E-03     207.088E-03    -103.576E-03    -7.54950E-03
            1359     3.24797E-03     134.113E-03     23.1506E+06    -5.05479E+06     48.6464E+06    -12.8993E+06    -103.290E-03     207.134E-03    -103.844E-03    -9.34479E-03    -103.240E-03     207.000E-03    -103.627E-03    -9.62499E-03
            1360     4.06021E-03     134.143E-03     21.2424E+06    -3.90925E+06     56.3654E+06    -13.5944E+06    -103.035E-03     206.961E-03    -103.926E-03    -11.0234E-03    -103.006E-03     206.825E-03    -103.670E-03    -11.3310E-03
            1361     4.87190E-03     134.181E-03     19.4178E+06    -3.16963E+06     63.5180E+06    -13.7669E+06    -102.681E-03     206.674E-03    -103.993E-03    -12.2982E-03    -102.672E-03     206.534E-03    -103.699E-03    -12.6225E-03
            1362     5.68392E-03     134.223E-03     17.6426E+06    -1.97696E+06     69.8477E+06    -13.4671E+06    -102.207E-03     206.241E-03    -104.034E-03    -13.1595E-03    -102.218E-03     206.100E-03    -103.707E-03    -13.4896E-03
            1363     6.49596E-03     134.272E-03     15.6683E+06    -1.34713E+06     74.7921E+06    -12.6498E+06    -101.629E-03     205.670E-03    -104.042E-03    -13.5428E-03    -101.657E-03     205.529E-03    -103.688E-03    -13.8672E-03
            1364     7.30862E-03     134.325E-03     14.1666E+06    -1.09394E+06     78.6461E+06    -11.5402E+06    -101.036E-03     205.054E-03    -104.018E-03    -13.4734E-03    -101.078E-03     204.911E-03    -103.644E-03    -13.7851E-03
            1365     8.12113E-03     134.384E-03     12.8887E+06    -961.698E+03     81.6235E+06    -10.5760E+06    -100.422E-03     204.389E-03    -103.967E-03    -12.9571E-03    -100.475E-03     204.245E-03    -103.576E-03    -13.2546E-03
            1366     8.93448E-03     134.447E-03     11.6872E+06    -678.618E+03     83.4657E+06    -9.74762E+06    -99.8767E-03     203.769E-03    -103.892E-03    -12.0120E-03    -99.9388E-03     203.626E-03    -103.491E-03    -12.2958E-03
            1367     9.74758E-03     134.514E-03     10.3173E+06    -699.086E+03     83.7925E+06    -8.92919E+06    -99.5027E-03     203.305E-03    -103.803E-03    -10.5405E-03    -99.5720E-03     203.165E-03    -103.398E-03    -10.8082E-03
            1368     10.5613E-03     134.585E-03     8.73237E+06    -1.10120E+06     82.7975E+06    -8.31899E+06    -99.3361E-03     203.046E-03    -103.710E-03    -8.44325E-03    -99.4113E-03     202.908E-03    -103.307E-03    -8.69413E-03
            1369     11.3749E-03     134.658E-03     7.53671E+06    -2.82676E+06     80.5656E+06    -8.45982E+06    -99.5891E-03     203.218E-03    -103.628E-03    -5.50140E-03    -99.6645E-03     203.077E-03    -103.232E-03    -5.74221E-03
            1370     12.1882E-03     134.733E-03     5.94087E+06    -5.10325E+06     77.0943E+06    -10.1964E+06    -100.393E-03     203.973E-03    -103.579E-03    -1.50607E-03    -100.468E-03     203.828E-03    -103.195E-03    -1.75462E-03
            1371     13.0013E-03     134.808E-03     4.52844E+06    -3.92681E+06     74.0929E+06    -11.7806E+06    -102.093E-03     205.687E-03    -103.593E-03     3.40692E-03    -102.172E-03     205.555E-03    -103.224E-03     3.14909E-03
            1372     13.8116E-03     134.883E-03     533.568E+03     7.06954E+06     72.2734E+06    -9.65289E+06    -105.279E-03     208.999E-03    -103.720E-03     8.82307E-03    -105.391E-03     208.931E-03    -103.370E-03     8.58569E-03
            1373     14.6207E-03     134.951E-03    -2.50053E+06    -1.57614E+06     60.7228E+06    -6.06956E+06    -109.780E-03     213.771E-03    -103.991E-03     15.3431E-03    -109.883E-03     213.688E-03    -103.681E-03     15.0668E-03
            1374     15.4165E-03     135.019E-03    -772.583E+03    -2.13679E+06     46.8941E+06    -4.01510E+06    -114.698E-03     219.104E-03    -104.406E-03     16.7667E-03    -114.776E-03     219.041E-03    -104.168E-03     16.4206E-03
            1375     15.3902E-03     66.9616E-03    -5.05061E+06     115.349E+06     95.8870E+06    -135.372E+03    -104.596E-03     210.302E-03    -105.705E-03     11.5496E-03    -104.991E-03     210.810E-03    -105.386E-03     10.4209E-03
            1376     14.5783E-03     66.9396E-03    -10.4366E+06     112.818E+06     79.4618E+06     5.34713E+03    -104.611E-03     210.272E-03    -105.661E-03     23.0660E-03    -105.042E-03     210.836E-03    -105.412E-03     21.7440E-03
            1377     13.7698E-03     66.9115E-03    -15.3378E+06     105.950E+06     70.8717E+06     102.404E+03    -104.629E-03     210.298E-03    -105.669E-03     30.6914E-03    -105.070E-03     210.855E-03    -105.446E-03     29.4422E-03
            1378     12.9579E-03     66.8740E-03    -20.1893E+06     69.9689E+06     62.9219E+06     326.808E+03    -104.824E-03     210.552E-03    -105.728E-03     36.8168E-03    -105.231E-03     210.953E-03    -105.485E-03     35.6179E-03
            1379     12.1482E-03     66.8312E-03    -25.6690E+06     21.5702E+06     50.3829E+06     401.542E+03    -105.261E-03     211.038E-03    -105.777E-03     40.2489E-03    -105.605E-03     211.221E-03    -105.519E-03     39.1126E-03
            1380     11.3379E-03     66.7854E-03    -30.9759E+06    -5.11534E+06     43.8222E+06     326.473E+03    -105.398E-03     211.214E-03    -105.816E-03     42.1923E-03    -105.714E-03     211.275E-03    -105.545E-03     41.1300E-03
            1381     10.5278E-03     66.7382E-03    -36.3107E+06    -27.6947E+06     36.1869E+06     316.571E+03    -105.472E-03     211.318E-03    -105.845E-03     43.0144E-03    -105.763E-03     211.276E-03    -105.571E-03     42.0279E-03
            1382     9.71767E-03     66.6903E-03    -42.1576E+06    -49.1447E+06     28.6055E+06     210.072E+03    -105.555E-03     211.430E-03    -105.875E-03     43.2181E-03    -105.823E-03     211.291E-03    -105.599E-03     42.3024E-03
            1383     8.90758E-03     66.6424E-03    -48.1727E+06    -66.7347E+06     21.0116E+06     93.3527E+03    -105.624E-03     211.523E-03    -105.898E-03     42.7692E-03    -105.877E-03     211.307E-03    -105.627E-03     41.9229E-03
            1384     8.09767E-03     66.5955E-03    -54.6977E+06    -84.6896E+06     12.3926E+06     94.0712E+03    -105.659E-03     211.578E-03    -105.918E-03     41.6360E-03    -105.897E-03     211.284E-03    -105.654E-03     40.8602E-03
            1385     7.28757E-03     66.5500E-03    -61.4397E+06    -101.639E+06     3.07599E+06     92.4124E+03    -105.672E-03     211.607E-03    -105.935E-03     39.9399E-03    -105.895E-03     211.242E-03    -105.683E-03     39.2349E-03
            1386     6.47773E-03     66.5067E-03    -68.9940E+06    -118.932E+06    -7.69859E+06     123.580E+03    -105.682E-03     211.629E-03    -105.948E-03     37.6720E-03    -105.892E-03     211.195E-03    -105.714E-03     37.0384E-03
            1387     5.66783E-03     66.4663E-03    -76.9885E+06    -137.044E+06    -20.1544E+06     79.9045E+03    -105.675E-03     211.631E-03    -105.956E-03     34.7877E-03    -105.872E-03     211.127E-03    -105.747E-03     34.2264E-03
            1388     4.85789E-03     66.4294E-03    -85.1564E+06    -155.781E+06    -34.4307E+06    -21.6013E+03    -105.687E-03     211.645E-03    -105.959E-03     31.2970E-03    -105.868E-03     211.071E-03    -105.782E-03     30.8092E-03
            1389     4.04810E-03     66.3967E-03    -93.7199E+06    -175.686E+06    -51.0088E+06     16.5756E+03    -105.707E-03     211.659E-03    -105.952E-03     27.1868E-03    -105.869E-03     211.013E-03    -105.816E-03     26.7761E-03
            1390     3.23845E-03     66.3688E-03    -101.976E+06    -195.897E+06    -69.3472E+06     5.16130E+03    -105.745E-03     211.679E-03    -105.934E-03     22.5643E-03    -105.885E-03     210.963E-03    -105.849E-03     22.2325E-03
            1391     2.42876E-03     66.3464E-03    -109.603E+06    -215.981E+06    -88.0404E+06     25.6994E+03    -105.820E-03     211.720E-03    -105.900E-03     17.5066E-03    -105.936E-03     210.935E-03    -105.868E-03     17.2551E-03
            1392     1.61918E-03     66.3298E-03    -116.019E+06    -233.835E+06    -104.988E+06    -80.2609E+03    -105.842E-03     211.692E-03    -105.849E-03     12.0110E-03    -105.935E-03     210.847E-03    -105.867E-03     11.8389E-03
            1393     809.774E-06     66.3197E-03    -120.458E+06    -246.553E+06    -117.001E+06     73.9939E+03    -105.795E-03     211.609E-03    -105.814E-03     6.52050E-03    -105.871E-03     210.722E-03    -105.867E-03     6.42741E-03
            1394     15.3905E-03     65.7921E-03    -5.25378E+06     115.383E+06     96.2492E+06    -48.6481E+03    -104.592E-03     210.288E-03    -105.696E-03     12.3215E-03    -104.990E-03     210.798E-03    -105.375E-03     11.1910E-03
            1395     14.5805E-03     65.7694E-03    -10.0367E+06     112.722E+06     79.5056E+06      -80.26E+03    -104.124E-03     209.787E-03    -105.664E-03     24.2536E-03    -104.556E-03     210.354E-03    -105.415E-03     22.9283E-03
            1396     13.7676E-03     65.7412E-03    -15.6875E+06     106.007E+06     70.2741E+06     292.733E+03    -104.636E-03     210.320E-03    -105.683E-03     31.2649E-03    -105.080E-03     210.880E-03    -105.463E-03     30.0138E-03
            1397     12.9586E-03     65.7032E-03    -21.3688E+06     69.6907E+06     62.3210E+06     358.358E+03    -105.141E-03     210.876E-03    -105.735E-03     36.8387E-03    -105.553E-03     211.279E-03    -105.493E-03     35.6389E-03
            1398     12.1480E-03     65.6604E-03    -26.1945E+06     21.6551E+06     50.1087E+06     195.094E+03    -105.280E-03     211.053E-03    -105.773E-03     40.2529E-03    -105.627E-03     211.238E-03    -105.516E-03     39.1128E-03
            1399     11.3380E-03     65.6147E-03    -30.9717E+06    -4.94022E+06     43.8620E+06     180.080E+03    -105.393E-03     211.206E-03    -105.813E-03     42.1737E-03    -105.710E-03     211.268E-03    -105.541E-03     41.1091E-03
            1400     10.5278E-03     65.5674E-03    -36.3862E+06    -27.5922E+06     36.2505E+06     227.714E+03    -105.480E-03     211.322E-03    -105.842E-03     43.0499E-03    -105.771E-03     211.280E-03    -105.568E-03     42.0616E-03
            1401     9.71774E-03     65.5196E-03    -42.0070E+06    -48.7393E+06     28.7713E+06     293.718E+03    -105.567E-03     211.437E-03    -105.870E-03     43.2273E-03    -105.836E-03     211.300E-03    -105.594E-03     42.3127E-03
            1402     8.90768E-03     65.4716E-03    -48.1719E+06    -66.7443E+06     20.9166E+06     63.2143E+03    -105.611E-03     211.504E-03    -105.893E-03     42.7373E-03    -105.864E-03     211.288E-03    -105.621E-03     41.8908E-03
            1403     8.09759E-03     65.4247E-03    -54.6612E+06    -84.5630E+06     12.4550E+06    -3.75952E+03    -105.650E-03     211.564E-03    -105.913E-03     41.5902E-03    -105.888E-03     211.271E-03    -105.649E-03     40.8133E-03
            1404     7.28774E-03     65.3793E-03    -61.7633E+06    -101.870E+06     2.95358E+06     88.6919E+03    -105.662E-03     211.593E-03    -105.931E-03     39.8867E-03    -105.886E-03     211.228E-03    -105.678E-03     39.1819E-03
            1405     6.47767E-03     65.3359E-03    -69.1192E+06    -118.784E+06    -7.65321E+06     171.560E+03    -105.657E-03     211.601E-03    -105.945E-03     37.6207E-03    -105.868E-03     211.168E-03    -105.710E-03     36.9880E-03
            1406     5.66778E-03     65.2956E-03    -76.9196E+06    -136.808E+06    -20.0325E+06     49.3606E+03    -105.688E-03     211.641E-03    -105.953E-03     34.7377E-03    -105.885E-03     211.137E-03    -105.743E-03     34.1758E-03
            1407     4.85799E-03     65.2586E-03    -85.1708E+06    -155.715E+06    -34.4663E+06     11.7165E+03    -105.700E-03     211.652E-03    -105.952E-03     31.2258E-03    -105.881E-03     211.078E-03    -105.775E-03     30.7386E-03
            1408     4.04821E-03     65.2259E-03    -93.6074E+06    -175.646E+06    -50.9680E+06    -68.5377E+03    -105.708E-03     211.650E-03    -105.943E-03     27.1519E-03    -105.870E-03     211.004E-03    -105.807E-03     26.7404E-03
            1409     3.23838E-03     65.1981E-03    -102.057E+06    -195.940E+06    -69.2102E+06    -9.66959E+03    -105.740E-03     211.664E-03    -105.924E-03     22.5639E-03    -105.881E-03     210.948E-03    -105.838E-03     22.2320E-03
            1410     2.42876E-03     65.1755E-03    -109.751E+06    -215.951E+06    -88.1102E+06     33.2126E+03    -105.744E-03     211.645E-03    -105.901E-03     17.5235E-03    -105.861E-03     210.861E-03    -105.869E-03     17.2724E-03
            1411     1.61917E-03     65.1590E-03    -116.032E+06    -233.803E+06    -105.152E+06     56.4970E+03    -105.760E-03     211.654E-03    -105.895E-03     12.0897E-03    -105.853E-03     210.810E-03    -105.913E-03     11.9191E-03
            1412     809.365E-06     65.1490E-03    -120.370E+06    -246.440E+06    -117.382E+06    -257.879E+03    -105.867E-03     211.765E-03    -105.897E-03     6.65537E-03    -105.943E-03     210.879E-03    -105.952E-03     6.55702E-03
            1413     15.3889E-03     64.6190E-03    -5.32228E+06     115.373E+06     95.7314E+06     12.6183E+03    -104.295E-03     210.036E-03    -105.741E-03     12.7553E-03    -104.694E-03     210.548E-03    -105.422E-03     11.6186E-03
            1414     14.5776E-03     64.6018E-03    -11.1291E+06     111.874E+06     78.3118E+06     134.153E+03    -104.846E-03     210.544E-03    -105.698E-03     24.4389E-03    -105.282E-03     211.111E-03    -105.453E-03     23.1031E-03
            1415     13.7686E-03     64.5688E-03    -15.9095E+06     105.630E+06     70.3058E+06     438.578E+03    -104.969E-03     210.662E-03    -105.694E-03     31.0218E-03    -105.412E-03     211.220E-03    -105.472E-03     29.7713E-03
            1416     12.9581E-03     64.5325E-03    -20.4891E+06     70.4899E+06     62.9494E+06     342.357E+03    -105.133E-03     210.868E-03    -105.735E-03     36.4310E-03    -105.542E-03     211.272E-03    -105.493E-03     35.2308E-03
            1417     12.1482E-03     64.4897E-03    -25.6350E+06     21.6518E+06     50.2985E+06    -124.337E+03    -105.318E-03     211.090E-03    -105.772E-03     40.2317E-03    -105.663E-03     211.274E-03    -105.514E-03     39.0850E-03
            1418     11.3380E-03     64.4439E-03    -30.9003E+06    -5.11028E+06     43.8116E+06     89.7448E+03    -105.378E-03     211.188E-03    -105.810E-03     42.1508E-03    -105.694E-03     211.249E-03    -105.539E-03     41.0837E-03
            1419     10.5278E-03     64.3968E-03    -36.2931E+06    -27.6091E+06     36.2034E+06     174.904E+03    -105.501E-03     211.339E-03    -105.838E-03     43.0817E-03    -105.792E-03     211.298E-03    -105.564E-03     42.0920E-03
            1420     9.71775E-03     64.3487E-03    -41.9928E+06    -48.7655E+06     28.7979E+06     95.2078E+03    -105.600E-03     211.464E-03    -105.864E-03     43.2195E-03    -105.868E-03     211.327E-03    -105.589E-03     42.3018E-03
            1421     8.90777E-03     64.3010E-03    -47.9590E+06    -66.2961E+06     21.1543E+06     134.311E+03    -105.623E-03     211.507E-03    -105.885E-03     42.7041E-03    -105.875E-03     211.293E-03    -105.613E-03     41.8589E-03
            1422     8.09776E-03     64.2540E-03    -54.5887E+06    -84.7315E+06     12.4766E+06     86.2950E+03    -105.638E-03     211.543E-03    -105.905E-03     41.5909E-03    -105.874E-03     211.249E-03    -105.641E-03     40.8156E-03
            1423     7.28770E-03     64.2085E-03    -61.5508E+06    -101.864E+06     3.08366E+06     165.211E+03    -105.661E-03     211.583E-03    -105.922E-03     39.8507E-03    -105.884E-03     211.217E-03    -105.670E-03     39.1471E-03
            1424     6.47782E-03     64.1654E-03    -68.9993E+06    -118.661E+06    -7.60989E+06     117.029E+03    -105.666E-03     211.600E-03    -105.934E-03     37.5798E-03    -105.877E-03     211.167E-03    -105.700E-03     36.9472E-03
            1425     5.66789E-03     64.1247E-03    -76.7315E+06    -136.600E+06    -20.0106E+06     69.0320E+03    -105.659E-03     211.602E-03    -105.942E-03     34.7325E-03    -105.856E-03     211.099E-03    -105.733E-03     34.1718E-03
            1426     4.85806E-03     64.0879E-03    -84.9966E+06    -155.653E+06    -34.3218E+06    -49.9072E+03    -105.673E-03     211.618E-03    -105.945E-03     31.2891E-03    -105.854E-03     211.044E-03    -105.768E-03     30.8008E-03
            1427     4.04819E-03     64.0551E-03    -93.7076E+06    -175.672E+06    -50.9376E+06     66.7056E+03    -105.714E-03     211.650E-03    -105.936E-03     27.2440E-03    -105.876E-03     211.004E-03    -105.800E-03     26.8340E-03
            1428     3.23856E-03     64.0272E-03    -101.987E+06    -195.822E+06    -69.2738E+06     19.6986E+03    -105.727E-03     211.643E-03    -105.916E-03     22.5880E-03    -105.868E-03     210.927E-03    -105.830E-03     22.2565E-03
            1429     2.42881E-03     64.0048E-03    -109.748E+06    -216.035E+06    -88.3371E+06    -91.1724E+03    -105.697E-03     211.598E-03    -105.901E-03     17.4482E-03    -105.813E-03     210.814E-03    -105.871E-03     17.1960E-03
            1430     1.61888E-03     63.9884E-03    -116.167E+06    -233.727E+06    -105.209E+06    -51.4332E+03    -105.730E-03     211.647E-03    -105.917E-03     12.0256E-03    -105.824E-03     210.803E-03    -105.935E-03     11.8549E-03
            1431     809.463E-06     63.9778E-03    -120.173E+06    -246.366E+06    -117.202E+06     120.551E+03    -105.873E-03     211.836E-03    -105.962E-03     6.69661E-03    -105.948E-03     210.949E-03    -106.017E-03     6.60442E-03
            1432     15.3872E-03     63.4509E-03    -5.08906E+06     115.186E+06     95.8009E+06     319.041E+03    -104.395E-03     210.130E-03    -105.735E-03     11.0690E-03    -104.788E-03     210.637E-03    -105.416E-03     9.94881E-03
            1433     14.5789E-03     63.4268E-03    -10.6873E+06     112.406E+06     78.8652E+06     315.798E+03    -104.941E-03     210.627E-03    -105.687E-03     22.6698E-03    -105.371E-03     211.190E-03    -105.440E-03     21.3461E-03
            1434     13.7691E-03     63.3997E-03    -15.5174E+06     105.681E+06     70.5727E+06    -46.8058E+03    -104.889E-03     210.569E-03    -105.680E-03     30.5397E-03    -105.330E-03     211.125E-03    -105.457E-03     29.2833E-03
            1435     12.9583E-03     63.3611E-03    -20.5003E+06     70.3109E+06     62.8970E+06    -186.842E+03    -104.950E-03     210.678E-03    -105.728E-03     36.6080E-03    -105.360E-03     211.082E-03    -105.485E-03     35.3973E-03
            1436     12.1482E-03     63.3190E-03    -25.4355E+06     21.9501E+06     50.4727E+06     257.370E+03    -105.292E-03     211.062E-03    -105.771E-03     40.1030E-03    -105.636E-03     211.248E-03    -105.513E-03     38.9604E-03
            1437     11.3380E-03     63.2733E-03    -30.9126E+06    -5.26921E+06     43.7316E+06     103.433E+03    -105.417E-03     211.225E-03    -105.808E-03     42.1790E-03    -105.733E-03     211.286E-03    -105.537E-03     41.1113E-03
            1438     10.5279E-03     63.2260E-03    -36.3515E+06    -27.6989E+06     36.1386E+06     20.1837E+03    -105.529E-03     211.363E-03    -105.834E-03     43.0852E-03    -105.820E-03     211.321E-03    -105.560E-03     42.0935E-03
            1439     9.71789E-03     63.1780E-03    -41.9332E+06    -48.6826E+06     28.9273E+06     97.9254E+03    -105.598E-03     211.457E-03    -105.859E-03     43.2038E-03    -105.867E-03     211.320E-03    -105.583E-03     42.2860E-03
            1440     8.90780E-03     63.1303E-03    -48.2417E+06    -66.2387E+06     21.1655E+06     173.349E+03    -105.630E-03     211.508E-03    -105.878E-03     42.7123E-03    -105.884E-03     211.294E-03    -105.607E-03     41.8677E-03
            1441     8.09780E-03     63.0832E-03    -54.7671E+06    -84.6269E+06     12.4528E+06     190.263E+03    -105.640E-03     211.537E-03    -105.897E-03     41.6018E-03    -105.877E-03     211.243E-03    -105.633E-03     40.8285E-03
            1442     7.28783E-03     63.0379E-03    -61.6244E+06    -101.704E+06     2.97831E+06     17.6236E+03    -105.646E-03     211.560E-03    -105.913E-03     39.9123E-03    -105.870E-03     211.195E-03    -105.662E-03     39.2077E-03
            1443     6.47788E-03     62.9944E-03    -68.8062E+06    -118.612E+06    -7.59320E+06    -29.1041E+03    -105.667E-03     211.593E-03    -105.926E-03     37.6596E-03    -105.878E-03     211.160E-03    -105.692E-03     37.0255E-03
            1444     5.66799E-03     62.9542E-03    -76.8299E+06    -136.632E+06    -19.9603E+06     32.4689E+03    -105.646E-03     211.580E-03    -105.934E-03     34.7678E-03    -105.843E-03     211.078E-03    -105.725E-03     34.2065E-03
            1445     4.85793E-03     62.9171E-03    -85.3074E+06    -155.631E+06    -34.4415E+06     257.448E+03    -105.658E-03     211.596E-03    -105.938E-03     31.2883E-03    -105.840E-03     211.023E-03    -105.761E-03     30.8043E-03
            1446     4.04823E-03     62.8844E-03    -93.5082E+06    -175.429E+06    -50.9694E+06     139.574E+03    -105.692E-03     211.623E-03    -105.930E-03     27.1946E-03    -105.854E-03     210.978E-03    -105.795E-03     26.7856E-03
            1447     3.23841E-03     62.8564E-03    -101.945E+06    -195.746E+06    -69.4118E+06         136.953    -105.695E-03     211.611E-03    -105.916E-03     22.5730E-03    -105.836E-03     210.896E-03    -105.831E-03     22.2411E-03
            1448     2.42872E-03     62.8342E-03    -109.766E+06    -215.914E+06    -88.2558E+06    -8.95821E+03    -105.765E-03     211.659E-03    -105.893E-03     17.4548E-03    -105.882E-03     210.875E-03    -105.862E-03     17.2028E-03
            1449     1.61931E-03     62.8175E-03    -115.995E+06    -233.729E+06    -105.380E+06    -183.564E+03    -105.819E-03     211.677E-03    -105.858E-03     11.9915E-03    -105.911E-03     210.834E-03    -105.878E-03     11.8175E-03
            1450     809.500E-06     62.8071E-03    -120.371E+06    -246.543E+06    -117.080E+06    -180.401E+03    -105.792E-03     211.649E-03    -105.857E-03     6.69648E-03    -105.868E-03     210.762E-03    -105.910E-03     6.60133E-03
            1451     15.3926E-03     62.2790E-03    -5.46901E+06     115.225E+06     96.0269E+06     276.135E+03    -104.800E-03     210.496E-03    -105.696E-03     12.0967E-03    -105.198E-03     211.005E-03    -105.375E-03     10.9680E-03
            1452     14.5798E-03     62.2580E-03    -9.58166E+06     113.260E+06     80.0323E+06     201.937E+03    -104.277E-03     209.932E-03    -105.655E-03     23.8556E-03    -104.707E-03     210.498E-03    -105.405E-03     22.5361E-03
            1453     13.7683E-03     62.2281E-03    -14.7936E+06     105.649E+06     70.7369E+06    -177.653E+03    -104.623E-03     210.293E-03    -105.670E-03     30.8747E-03    -105.061E-03     210.849E-03    -105.448E-03     29.6179E-03
            1454     12.9586E-03     62.1910E-03    -20.0688E+06     70.0739E+06     63.1824E+06     165.685E+03    -104.980E-03     210.706E-03    -105.726E-03     36.6892E-03    -105.387E-03     211.108E-03    -105.483E-03     35.4834E-03
            1455     12.1480E-03     62.1480E-03    -25.5937E+06     22.0199E+06     50.5168E+06     357.569E+03    -105.229E-03     210.999E-03    -105.770E-03     40.2186E-03    -105.574E-03     211.185E-03    -105.512E-03     39.0795E-03
            1456     11.3380E-03     62.1026E-03    -30.6165E+06    -4.96626E+06     43.9599E+06     199.286E+03    -105.478E-03     211.285E-03    -105.807E-03     42.1644E-03    -105.793E-03     211.346E-03    -105.536E-03     41.0985E-03
            1457     10.5280E-03     62.0551E-03    -36.1796E+06    -27.6282E+06     36.2798E+06     63.8234E+03    -105.548E-03     211.378E-03    -105.830E-03     43.0774E-03    -105.839E-03     211.336E-03    -105.556E-03     42.0863E-03
            1458     9.71784E-03     62.0074E-03    -42.1161E+06    -48.7516E+06     28.8553E+06     172.479E+03    -105.578E-03     211.432E-03    -105.854E-03     43.2112E-03    -105.847E-03     211.295E-03    -105.578E-03     42.2952E-03
            1459     8.90786E-03     61.9594E-03    -48.0960E+06    -66.2525E+06     21.1692E+06     243.653E+03    -105.617E-03     211.491E-03    -105.875E-03     42.7442E-03    -105.870E-03     211.277E-03    -105.603E-03     41.9011E-03
            1460     8.09785E-03     61.9126E-03    -54.5341E+06    -84.2923E+06     12.5220E+06     104.877E+03    -105.651E-03     211.544E-03    -105.893E-03     41.6282E-03    -105.888E-03     211.252E-03    -105.629E-03     40.8544E-03
            1461     7.28783E-03     61.8671E-03    -61.4490E+06    -101.569E+06     3.02673E+06     5.61226E+03    -105.654E-03     211.562E-03    -105.908E-03     39.9303E-03    -105.877E-03     211.198E-03    -105.657E-03     39.2256E-03
            1462     6.47782E-03     61.8239E-03    -69.1056E+06    -118.694E+06    -7.70472E+06     54.0394E+03    -105.646E-03     211.567E-03    -105.921E-03     37.6351E-03    -105.857E-03     211.134E-03    -105.687E-03     37.0018E-03
            1463     5.66790E-03     61.7833E-03    -77.0892E+06    -136.659E+06    -20.2353E+06     180.021E+03    -105.683E-03     211.610E-03    -105.927E-03     34.7388E-03    -105.881E-03     211.108E-03    -105.718E-03     34.1793E-03
            1464     4.85823E-03     61.7466E-03    -85.1398E+06    -155.491E+06    -34.5106E+06     22.6762E+03    -105.676E-03     211.600E-03    -105.924E-03     31.2751E-03    -105.857E-03     211.027E-03    -105.748E-03     30.7878E-03
            1465     4.04831E-03     61.7134E-03    -93.7214E+06    -175.409E+06    -50.9533E+06     66.7802E+03    -105.637E-03     211.557E-03    -105.920E-03     27.1888E-03    -105.800E-03     210.912E-03    -105.784E-03     26.7789E-03
            1466     3.23850E-03     61.6860E-03    -102.076E+06    -195.583E+06    -69.3280E+06     153.111E+03    -105.688E-03     211.598E-03    -105.909E-03     22.5533E-03    -105.830E-03     210.883E-03    -105.824E-03     22.2231E-03
            1467     2.42877E-03     61.6631E-03    -109.595E+06    -215.677E+06    -88.0962E+06     25.8071E+03    -105.777E-03     211.660E-03    -105.883E-03     17.4992E-03    -105.894E-03     210.877E-03    -105.852E-03     17.2471E-03
            1468     1.61916E-03     61.6469E-03    -116.168E+06    -233.663E+06    -105.338E+06    -15.6554E+03    -105.862E-03     211.688E-03    -105.825E-03     12.0824E-03    -105.956E-03     210.845E-03    -105.845E-03     11.9110E-03
            1469     809.821E-06     61.6364E-03    -120.400E+06    -246.896E+06    -117.917E+06    -95.0604E+03    -105.927E-03     211.542E-03    -105.614E-03     6.61002E-03    -106.002E-03     210.654E-03    -105.671E-03     6.51468E-03
            1470     15.3877E-03     61.1083E-03    -5.60375E+06     115.144E+06     95.8293E+06    -257.831E+03    -104.672E-03     210.384E-03    -105.712E-03     12.2515E-03    -105.072E-03     210.895E-03    -105.392E-03     11.1096E-03
            1471     14.5789E-03     61.0883E-03    -10.3537E+06     112.577E+06     79.4388E+06    -56.1975E+03    -104.636E-03     210.301E-03    -105.665E-03     24.2294E-03    -105.070E-03     210.868E-03    -105.416E-03     22.8935E-03
            1472     13.7691E-03     61.0572E-03    -15.4436E+06     105.543E+06     70.5717E+06     319.482E+03    -104.648E-03     210.320E-03    -105.671E-03     31.1302E-03    -105.090E-03     210.876E-03    -105.449E-03     29.8786E-03
            1473     12.9583E-03     61.0203E-03    -20.7907E+06     69.8824E+06     62.7478E+06     263.698E+03    -104.974E-03     210.700E-03    -105.726E-03     36.6818E-03    -105.384E-03     211.102E-03    -105.483E-03     35.4812E-03
            1474     12.1482E-03     60.9775E-03    -25.4262E+06     22.0429E+06     50.6046E+06     222.894E+03    -105.322E-03     211.090E-03    -105.768E-03     40.2393E-03    -105.667E-03     211.276E-03    -105.510E-03     39.0987E-03
            1475     11.3380E-03     60.9315E-03    -30.8408E+06    -4.78650E+06     43.9019E+06     244.158E+03    -105.433E-03     211.235E-03    -105.802E-03     42.1018E-03    -105.749E-03     211.298E-03    -105.531E-03     41.0373E-03
            1476     10.5280E-03     60.8845E-03    -36.2979E+06    -27.3613E+06     36.2888E+06     320.683E+03    -105.522E-03     211.350E-03    -105.827E-03     43.0426E-03    -105.813E-03     211.309E-03    -105.554E-03     42.0556E-03
            1477     9.71797E-03     60.8366E-03    -41.9894E+06    -48.8589E+06     28.7582E+06     166.723E+03    -105.580E-03     211.432E-03    -105.852E-03     43.2409E-03    -105.848E-03     211.295E-03    -105.577E-03     42.3255E-03
            1478     8.90783E-03     60.7888E-03    -48.0565E+06    -66.2189E+06     21.0920E+06     73.7875E+03    -105.624E-03     211.496E-03    -105.872E-03     42.7523E-03    -105.876E-03     211.282E-03    -105.601E-03     41.9075E-03
            1479     8.09778E-03     60.7418E-03    -54.4819E+06    -84.1138E+06     12.5390E+06     117.342E+03    -105.669E-03     211.559E-03    -105.889E-03     41.5934E-03    -105.906E-03     211.267E-03    -105.626E-03     40.8195E-03
            1480     7.28789E-03     60.6964E-03    -61.6121E+06    -101.544E+06     2.96901E+06     177.432E+03    -105.678E-03     211.580E-03    -105.902E-03     39.8541E-03    -105.902E-03     211.216E-03    -105.650E-03     39.1510E-03
            1481     6.47800E-03     60.6532E-03    -69.0571E+06    -118.716E+06    -7.76602E+06     255.433E+03    -105.664E-03     211.575E-03    -105.911E-03     37.5870E-03    -105.875E-03     211.142E-03    -105.677E-03     36.9565E-03
            1482     5.66804E-03     60.6127E-03    -76.6938E+06    -136.337E+06    -19.9998E+06     63.9336E+03    -105.658E-03     211.574E-03    -105.916E-03     34.7563E-03    -105.854E-03     211.072E-03    -105.707E-03     34.1958E-03
            1483     4.85813E-03     60.5755E-03    -85.2627E+06    -155.505E+06    -34.5683E+06     2.01782E+03    -105.648E-03     211.565E-03    -105.916E-03     31.2780E-03    -105.830E-03     210.992E-03    -105.740E-03     30.7898E-03
            1484     4.04828E-03     60.5433E-03    -93.8541E+06    -175.413E+06    -51.0261E+06     40.8877E+03    -105.661E-03     211.571E-03    -105.910E-03     27.2376E-03    -105.824E-03     210.927E-03    -105.775E-03     26.8270E-03
            1485     3.23849E-03     60.5148E-03    -102.157E+06    -195.486E+06    -69.2385E+06     25.4767E+03    -105.696E-03     211.590E-03    -105.894E-03     22.5887E-03    -105.838E-03     210.876E-03    -105.809E-03     22.2563E-03
            1486     2.42889E-03     60.4928E-03    -110.106E+06    -215.740E+06    -88.2105E+06     229.785E+03    -105.721E-03     211.593E-03    -105.872E-03     17.5109E-03    -105.840E-03     210.811E-03    -105.841E-03     17.2620E-03
            1487     1.61913E-03     60.4757E-03    -116.246E+06    -233.430E+06    -105.177E+06     339.403E+03    -105.774E-03     211.623E-03    -105.850E-03     12.1126E-03    -105.868E-03     210.782E-03    -105.868E-03     11.9467E-03
            1488     809.560E-06     60.4657E-03    -120.577E+06    -246.641E+06    -117.616E+06     227.078E+03    -105.967E-03     211.644E-03    -105.677E-03     6.60291E-03    -106.043E-03     210.758E-03    -105.732E-03     6.50948E-03
            1489     15.3902E-03     59.9376E-03    -4.93010E+06     115.496E+06     96.1028E+06    -130.045E+03    -104.434E-03     210.160E-03    -105.726E-03     11.6055E-03    -104.829E-03     210.669E-03    -105.405E-03     10.4737E-03
            1490     14.5793E-03     59.9161E-03    -10.9083E+06     112.030E+06     78.8691E+06    -18.9839E+03    -104.826E-03     210.505E-03    -105.679E-03     23.7296E-03    -105.260E-03     211.069E-03    -105.431E-03     22.3992E-03
            1491     13.7687E-03     59.8877E-03    -15.4521E+06     105.894E+06     70.5165E+06     195.304E+03    -104.862E-03     210.536E-03    -105.675E-03     31.1268E-03    -105.304E-03     211.095E-03    -105.453E-03     29.8726E-03
            1492     12.9583E-03     59.8491E-03    -20.0881E+06     69.8446E+06     62.7505E+06     10.4725E+03    -105.045E-03     210.766E-03    -105.721E-03     36.7160E-03    -105.452E-03     211.167E-03    -105.479E-03     35.5085E-03
            1493     12.1483E-03     59.8066E-03    -25.6772E+06     21.5381E+06     50.3361E+06     208.927E+03    -105.302E-03     211.063E-03    -105.761E-03     40.1151E-03    -105.646E-03     211.246E-03    -105.503E-03     38.9738E-03
            1494     11.3382E-03     59.7610E-03    -30.7835E+06    -4.28429E+06     44.0613E+06     402.385E+03    -105.376E-03     211.175E-03    -105.799E-03     42.1693E-03    -105.693E-03     211.239E-03    -105.527E-03     41.1084E-03
            1495     10.5280E-03     59.7137E-03    -36.1950E+06    -27.4874E+06     36.1983E+06     208.120E+03    -105.497E-03     211.323E-03    -105.826E-03     43.0672E-03    -105.787E-03     211.282E-03    -105.553E-03     42.0800E-03
            1496     9.71781E-03     59.6658E-03    -41.8785E+06    -48.5276E+06     28.8302E+06     185.991E+03    -105.616E-03     211.466E-03    -105.850E-03     43.1926E-03    -105.884E-03     211.330E-03    -105.575E-03     42.2767E-03
            1497     8.90789E-03     59.6181E-03    -48.1057E+06    -66.2053E+06     21.0262E+06     113.221E+03    -105.663E-03     211.530E-03    -105.867E-03     42.6699E-03    -105.916E-03     211.316E-03    -105.596E-03     41.8247E-03
            1498     8.09796E-03     59.5710E-03    -54.7633E+06    -84.2078E+06     12.3855E+06     186.651E+03    -105.659E-03     211.541E-03    -105.882E-03     41.5389E-03    -105.897E-03     211.250E-03    -105.618E-03     40.7657E-03
            1499     7.28795E-03     59.5257E-03    -61.5787E+06    -101.497E+06     2.93640E+06     197.436E+03    -105.671E-03     211.565E-03    -105.894E-03     39.8709E-03    -105.895E-03     211.202E-03    -105.643E-03     39.1681E-03
            1500     6.47797E-03     59.4824E-03    -68.8456E+06    -118.464E+06    -7.62778E+06     42.8672E+03    -105.686E-03     211.588E-03    -105.901E-03     37.6225E-03    -105.897E-03     211.156E-03    -105.668E-03     36.9889E-03
            1501     5.66815E-03     59.4419E-03    -77.0403E+06    -136.421E+06    -20.0841E+06     187.498E+03    -105.639E-03     211.544E-03    -105.905E-03     34.7254E-03    -105.837E-03     211.043E-03    -105.696E-03     34.1663E-03
            1502     4.85812E-03     59.4052E-03    -85.3131E+06    -155.267E+06    -34.5222E+06     261.851E+03    -105.639E-03     211.545E-03    -105.906E-03     31.2194E-03    -105.822E-03     210.973E-03    -105.729E-03     30.7351E-03
            1503     4.04838E-03     59.3721E-03    -93.7910E+06    -175.265E+06    -51.0274E+06     106.321E+03    -105.678E-03     211.574E-03    -105.896E-03     27.1631E-03    -105.841E-03     210.930E-03    -105.761E-03     26.7531E-03
            1504     3.23867E-03     59.3445E-03    -102.424E+06    -195.673E+06    -69.5217E+06     204.036E+03    -105.674E-03     211.550E-03    -105.876E-03     22.5716E-03    -105.817E-03     210.837E-03    -105.792E-03     22.2422E-03
            1505     2.42878E-03     59.3218E-03    -109.998E+06    -215.540E+06    -88.3953E+06     68.1147E+03    -105.698E-03     211.553E-03    -105.855E-03     17.4995E-03    -105.816E-03     210.772E-03    -105.825E-03     17.2487E-03
            1506     1.61923E-03     59.3054E-03    -116.272E+06    -233.400E+06    -105.127E+06     12.4361E+03    -105.703E-03     211.558E-03    -105.854E-03     12.0609E-03    -105.798E-03     210.716E-03    -105.873E-03     11.8892E-03
            1507     809.370E-06     59.2948E-03    -120.268E+06    -245.965E+06    -117.198E+06     163.663E+03    -105.851E-03     211.691E-03    -105.840E-03     6.54112E-03    -105.927E-03     210.807E-03    -105.895E-03     6.44869E-03
            1508     15.3887E-03     58.7671E-03    -5.20958E+06     115.043E+06     95.6368E+06     202.472E+03    -104.398E-03     210.120E-03    -105.723E-03     12.4396E-03    -104.794E-03     210.629E-03    -105.404E-03     11.3140E-03
            1509     14.5783E-03     58.7457E-03    -10.0920E+06     112.659E+06     79.1738E+06    -32.8576E+03    -104.722E-03     210.403E-03    -105.681E-03     23.7622E-03    -105.153E-03     210.968E-03    -105.434E-03     22.4318E-03
            1510     13.7687E-03     58.7161E-03    -15.2461E+06     105.743E+06     70.3987E+06    -423.678E+03    -104.993E-03     210.668E-03    -105.676E-03     30.8966E-03    -105.433E-03     211.226E-03    -105.455E-03     29.6311E-03
            1511     12.9589E-03     58.6786E-03    -20.7246E+06     69.8118E+06     62.5100E+06     264.089E+03    -105.089E-03     210.806E-03    -105.717E-03     36.7285E-03    -105.499E-03     211.208E-03    -105.475E-03     35.5246E-03
            1512     12.1482E-03     58.6360E-03    -25.7184E+06     21.9990E+06     50.4007E+06     331.689E+03    -105.217E-03     210.975E-03    -105.758E-03     40.2606E-03    -105.563E-03     211.161E-03    -105.501E-03     39.1231E-03
            1513     11.3380E-03     58.5902E-03    -30.7370E+06    -4.55191E+06     43.8824E+06     90.0424E+03    -105.415E-03     211.212E-03    -105.797E-03     42.1752E-03    -105.731E-03     211.275E-03    -105.526E-03     41.1106E-03
            1514     10.5280E-03     58.5430E-03    -36.1091E+06    -27.2609E+06     36.2409E+06     290.380E+03    -105.540E-03     211.361E-03    -105.821E-03     43.0077E-03    -105.830E-03     211.321E-03    -105.548E-03     42.0205E-03
            1515     9.71802E-03     58.4950E-03    -42.0474E+06    -48.4602E+06     28.7440E+06     228.793E+03    -105.618E-03     211.461E-03    -105.843E-03     43.1363E-03    -105.887E-03     211.325E-03    -105.568E-03     42.2206E-03
            1516     8.90802E-03     58.4473E-03    -48.1860E+06    -66.0468E+06     21.0369E+06     289.304E+03    -105.646E-03     211.506E-03    -105.860E-03     42.6683E-03    -105.899E-03     211.293E-03    -105.589E-03     41.8252E-03
            1517     8.09797E-03     58.4004E-03    -54.6711E+06    -84.1026E+06     12.4168E+06     228.429E+03    -105.657E-03     211.532E-03    -105.875E-03     41.5656E-03    -105.895E-03     211.241E-03    -105.612E-03     40.7927E-03
            1518     7.28793E-03     58.3551E-03    -61.5938E+06    -101.297E+06     2.97839E+06     135.286E+03    -105.673E-03     211.560E-03    -105.887E-03     39.8768E-03    -105.897E-03     211.197E-03    -105.636E-03     39.1733E-03
            1519     6.47810E-03     58.3116E-03    -69.1765E+06    -118.456E+06    -7.74808E+06     245.847E+03    -105.665E-03     211.560E-03    -105.894E-03     37.5757E-03    -105.878E-03     211.128E-03    -105.661E-03     36.9442E-03
            1520     5.66810E-03     58.2715E-03    -77.1208E+06    -136.391E+06    -20.3017E+06     204.465E+03    -105.671E-03     211.566E-03    -105.895E-03     34.7120E-03    -105.870E-03     211.066E-03    -105.687E-03     34.1523E-03
            1521     4.85838E-03     58.2343E-03    -85.3624E+06    -155.164E+06    -34.5720E+06     166.235E+03    -105.665E-03     211.554E-03    -105.890E-03     31.2676E-03    -105.847E-03     210.983E-03    -105.714E-03     30.7827E-03
            1522     4.04846E-03     58.2017E-03    -93.9824E+06    -175.190E+06    -51.1726E+06     265.665E+03    -105.639E-03     211.518E-03    -105.878E-03     27.1849E-03    -105.804E-03     210.875E-03    -105.744E-03     26.7777E-03
            1523     3.23858E-03     58.1737E-03    -102.105E+06    -195.396E+06    -69.3099E+06     59.2454E+03    -105.652E-03     211.515E-03    -105.863E-03     22.6034E-03    -105.794E-03     210.802E-03    -105.778E-03     22.2719E-03
            1524     2.42900E-03     58.1513E-03    -109.783E+06    -215.332E+06    -88.2415E+06    -59.7453E+03    -105.684E-03     211.527E-03    -105.844E-03     17.5462E-03    -105.801E-03     210.747E-03    -105.813E-03     17.2929E-03
            1525     1.61916E-03     58.1346E-03    -116.376E+06    -233.393E+06    -105.359E+06    -124.776E+03    -105.738E-03     211.564E-03    -105.827E-03     12.0741E-03    -105.833E-03     210.723E-03    -105.846E-03     11.9008E-03
            1526     809.678E-06     58.1243E-03    -120.761E+06    -246.008E+06    -117.516E+06     12.5386E+03    -105.834E-03     211.605E-03    -105.770E-03     6.69966E-03    -105.912E-03     210.722E-03    -105.826E-03     6.60737E-03
            1527     15.3896E-03     57.5955E-03    -5.09606E+06     115.388E+06     96.0782E+06    -207.844E+03    -104.554E-03     210.272E-03    -105.718E-03     11.9845E-03    -104.950E-03     210.782E-03    -105.398E-03     10.8449E-03
            1528     14.5796E-03     57.5754E-03    -10.4553E+06     112.298E+06     78.8775E+06    -86.2988E+03    -104.651E-03     210.323E-03    -105.672E-03     23.6212E-03    -105.083E-03     210.887E-03    -105.425E-03     22.2879E-03
            1529     13.7688E-03     57.5447E-03    -15.9657E+06     105.392E+06     69.8666E+06     566.893E+03    -104.814E-03     210.486E-03    -105.672E-03     30.9645E-03    -105.256E-03     211.043E-03    -105.453E-03     29.7180E-03
            1530     12.9582E-03     57.5081E-03    -21.1979E+06     70.1975E+06     62.5189E+06     33.4291E+03    -105.051E-03     210.772E-03    -105.721E-03     36.6851E-03    -105.463E-03     211.177E-03    -105.480E-03     35.4808E-03
            1531     12.1483E-03     57.4651E-03    -25.8984E+06     21.8467E+06     50.1123E+06    -202.959E+03    -105.346E-03     211.105E-03    -105.759E-03     40.2766E-03    -105.692E-03     211.291E-03    -105.502E-03     39.1307E-03
            1532     11.3382E-03     57.4195E-03    -31.0139E+06    -4.88543E+06     43.6358E+06     143.837E+03    -105.477E-03     211.268E-03    -105.791E-03     42.0853E-03    -105.794E-03     211.331E-03    -105.521E-03     41.0186E-03
            1533     10.5282E-03     57.3720E-03    -36.5803E+06    -27.2851E+06     35.9280E+06     191.025E+03    -105.548E-03     211.360E-03    -105.812E-03     42.9653E-03    -105.840E-03     211.321E-03    -105.539E-03     41.9756E-03
            1534     9.71805E-03     57.3244E-03    -42.1590E+06    -48.4263E+06     28.6173E+06     344.636E+03    -105.569E-03     211.404E-03    -105.835E-03     43.1507E-03    -105.838E-03     211.269E-03    -105.561E-03     42.2370E-03
            1535     8.90795E-03     57.2764E-03    -48.2945E+06    -65.8018E+06     21.0143E+06     301.001E+03    -105.604E-03     211.459E-03    -105.855E-03     42.6844E-03    -105.858E-03     211.247E-03    -105.585E-03     41.8417E-03
            1536     8.09795E-03     57.2298E-03    -54.7194E+06    -83.8891E+06     12.4358E+06     196.410E+03    -105.678E-03     211.549E-03    -105.871E-03     41.5761E-03    -105.916E-03     211.259E-03    -105.608E-03     40.8022E-03
            1537     7.28814E-03     57.1841E-03    -61.8360E+06    -101.286E+06     2.89410E+06     303.784E+03    -105.678E-03     211.559E-03    -105.881E-03     39.8666E-03    -105.903E-03     211.196E-03    -105.630E-03     39.1652E-03
            1538     6.47806E-03     57.1412E-03    -69.3797E+06    -118.389E+06    -7.92075E+06     238.255E+03    -105.650E-03     211.538E-03    -105.888E-03     37.5999E-03    -105.863E-03     211.107E-03    -105.655E-03     36.9685E-03
            1539     5.66821E-03     57.1005E-03    -77.0984E+06    -136.156E+06    -20.2327E+06     162.513E+03    -105.657E-03     211.548E-03    -105.890E-03     34.7698E-03    -105.856E-03     211.048E-03    -105.682E-03     34.2098E-03
            1540     4.85828E-03     57.0638E-03    -85.4122E+06    -155.150E+06    -34.6963E+06     114.899E+03    -105.655E-03     211.541E-03    -105.886E-03     31.3259E-03    -105.838E-03     210.970E-03    -105.710E-03     30.8399E-03
            1541     4.04848E-03     57.0310E-03    -93.8353E+06    -175.022E+06    -51.0207E+06    -20.7615E+03    -105.650E-03     211.525E-03    -105.874E-03     27.2541E-03    -105.814E-03     210.882E-03    -105.740E-03     26.8424E-03
            1542     3.23873E-03     57.0032E-03    -102.214E+06    -195.249E+06    -69.2969E+06     109.896E+03    -105.657E-03     211.512E-03    -105.856E-03     22.6194E-03    -105.800E-03     210.800E-03    -105.771E-03     22.2880E-03
            1543     2.42880E-03     56.9806E-03    -109.882E+06    -215.230E+06    -88.1861E+06     167.076E+03    -105.684E-03     211.518E-03    -105.833E-03     17.5276E-03    -105.803E-03     210.738E-03    -105.803E-03     17.2777E-03
            1544     1.61926E-03     56.9640E-03    -116.202E+06    -233.198E+06    -105.410E+06     177.101E+03    -105.735E-03     211.545E-03    -105.810E-03     12.1333E-03    -105.829E-03     210.705E-03    -105.831E-03     11.9648E-03
            1545     809.604E-06     56.9534E-03    -120.649E+06    -246.062E+06    -117.771E+06    -74.9608E+03    -105.707E-03     211.568E-03    -105.861E-03     6.88856E-03    -105.784E-03     210.685E-03    -105.918E-03     6.79167E-03
            1546     15.3900E-03     56.4264E-03    -5.22535E+06     115.173E+06     95.5717E+06     175.393E+03    -104.581E-03     210.289E-03    -105.708E-03     12.2225E-03    -104.977E-03     210.798E-03    -105.390E-03     11.0966E-03
            1547     14.5787E-03     56.4039E-03    -10.6174E+06     112.153E+06     78.7318E+06     616.776E+03    -104.606E-03     210.270E-03    -105.664E-03     24.1133E-03    -105.038E-03     210.834E-03    -105.417E-03     22.7972E-03
            1548     13.7687E-03     56.3749E-03    -15.3649E+06     106.203E+06     70.6189E+06     140.383E+03    -104.788E-03     210.457E-03    -105.668E-03     30.7563E-03    -105.230E-03     211.016E-03    -105.447E-03     29.5046E-03
            1549     12.9584E-03     56.3368E-03    -20.0570E+06     70.4629E+06     62.7783E+06    -34.7669E+03    -105.051E-03     210.766E-03    -105.715E-03     36.3987E-03    -105.458E-03     211.170E-03    -105.474E-03     35.1919E-03
            1550     12.1483E-03     56.2944E-03    -25.7853E+06     21.4613E+06     49.8932E+06    -3.14965E+03    -105.363E-03     211.115E-03    -105.751E-03     40.0362E-03    -105.708E-03     211.299E-03    -105.495E-03     38.8905E-03
            1551     11.3383E-03     56.2485E-03    -31.2155E+06    -4.93849E+06     43.4577E+06     88.9998E+03    -105.449E-03     211.232E-03    -105.784E-03     42.1115E-03    -105.766E-03     211.295E-03    -105.514E-03     41.0430E-03
            1552     10.5281E-03     56.2016E-03    -36.5401E+06    -27.3106E+06     35.9086E+06     195.080E+03    -105.503E-03     211.310E-03    -105.807E-03     43.0297E-03    -105.795E-03     211.271E-03    -105.535E-03     42.0404E-03
            1553     9.71814E-03     56.1535E-03    -42.3029E+06    -48.3738E+06     28.5452E+06     203.786E+03    -105.563E-03     211.395E-03    -105.832E-03     43.1965E-03    -105.833E-03     211.261E-03    -105.558E-03     42.2811E-03
            1554     8.90804E-03     56.1061E-03    -48.2305E+06    -65.6670E+06     20.9985E+06     260.276E+03    -105.630E-03     211.481E-03    -105.851E-03     42.7156E-03    -105.884E-03     211.270E-03    -105.581E-03     41.8725E-03
            1555     8.09807E-03     56.0587E-03    -54.8964E+06    -83.9728E+06     12.2787E+06     330.548E+03    -105.650E-03     211.516E-03    -105.866E-03     41.5619E-03    -105.889E-03     211.226E-03    -105.604E-03     40.7901E-03
            1556     7.28797E-03     56.0137E-03    -61.7857E+06    -101.201E+06     2.84372E+06     336.188E+03    -105.649E-03     211.527E-03    -105.879E-03     39.8747E-03    -105.874E-03     211.166E-03    -105.628E-03     39.1736E-03
            1557     6.47814E-03     55.9703E-03    -69.1935E+06    -118.005E+06    -7.80564E+06     182.316E+03    -105.654E-03     211.541E-03    -105.887E-03     37.6482E-03    -105.867E-03     211.112E-03    -105.655E-03     37.0161E-03
            1558     5.66817E-03     55.9301E-03    -77.1696E+06    -136.121E+06    -20.2349E+06     88.6701E+03    -105.637E-03     211.528E-03    -105.892E-03     34.7975E-03    -105.836E-03     211.029E-03    -105.684E-03     34.2366E-03
            1559     4.85825E-03     55.8930E-03    -85.3843E+06    -154.913E+06    -34.5273E+06     59.8728E+03    -105.646E-03     211.536E-03    -105.890E-03     31.3248E-03    -105.829E-03     210.966E-03    -105.714E-03     30.8375E-03
            1560     4.04843E-03     55.8604E-03    -93.9526E+06    -175.031E+06    -51.2375E+06     102.586E+03    -105.674E-03     211.551E-03    -105.877E-03     27.2289E-03    -105.839E-03     210.909E-03    -105.743E-03     26.8182E-03
            1561     3.23862E-03     55.8325E-03    -102.211E+06    -195.204E+06    -69.5951E+06     35.9047E+03    -105.688E-03     211.538E-03    -105.851E-03     22.6179E-03    -105.830E-03     210.827E-03    -105.768E-03     22.2860E-03
            1562     2.42908E-03     55.8100E-03    -109.869E+06    -215.212E+06    -88.1724E+06     74.2689E+03    -105.697E-03     211.519E-03    -105.822E-03     17.5349E-03    -105.816E-03     210.739E-03    -105.791E-03     17.2839E-03
            1563     1.61924E-03     55.7934E-03    -116.205E+06    -232.936E+06    -105.070E+06     163.716E+03    -105.713E-03     211.511E-03    -105.798E-03     12.1228E-03    -105.809E-03     210.672E-03    -105.817E-03     11.9531E-03
            1564     809.517E-06     55.7829E-03    -120.369E+06    -245.728E+06    -117.269E+06     158.874E+03    -105.696E-03     211.544E-03    -105.849E-03     6.66019E-03    -105.773E-03     210.662E-03    -105.904E-03     6.56759E-03
            1565     15.3889E-03     55.2554E-03    -5.77369E+06     114.846E+06     95.7905E+06     290.752E+03    -104.797E-03     210.512E-03    -105.715E-03     12.2667E-03    -105.196E-03     211.021E-03    -105.395E-03     11.1320E-03
            1566     14.5796E-03     55.2333E-03    -10.3062E+06     112.586E+06     79.4461E+06    -285.701E+03    -104.871E-03     210.529E-03    -105.657E-03     23.5764E-03    -105.304E-03     211.094E-03    -105.409E-03     22.2344E-03
            1567     13.7691E-03     55.2037E-03    -15.0541E+06     106.447E+06     70.7074E+06    -37.3896E+03    -104.775E-03     210.426E-03    -105.651E-03     30.5975E-03    -105.215E-03     210.985E-03    -105.430E-03     29.3399E-03
            1568     12.9589E-03     55.1664E-03    -20.7482E+06     70.2325E+06     62.6145E+06     204.362E+03    -104.984E-03     210.684E-03    -105.700E-03     36.5186E-03    -105.394E-03     211.088E-03    -105.459E-03     35.3158E-03
            1569     12.1486E-03     55.1234E-03    -25.6324E+06     21.7624E+06     50.1803E+06     237.864E+03    -105.215E-03     210.958E-03    -105.743E-03     40.1838E-03    -105.560E-03     211.144E-03    -105.487E-03     39.0435E-03
            1570     11.3382E-03     55.0781E-03    -30.8676E+06    -4.95882E+06     43.6524E+06     248.213E+03    -105.369E-03     211.152E-03    -105.783E-03     42.1649E-03    -105.685E-03     211.214E-03    -105.513E-03     41.1015E-03
            1571     10.5282E-03     55.0306E-03    -36.5059E+06    -27.2793E+06     35.9418E+06     251.464E+03    -105.482E-03     211.292E-03    -105.810E-03     43.0955E-03    -105.774E-03     211.253E-03    -105.538E-03     42.1075E-03
            1572     9.71797E-03     54.9832E-03    -42.1516E+06    -48.2489E+06     28.5127E+06     214.161E+03    -105.608E-03     211.441E-03    -105.834E-03     43.2647E-03    -105.877E-03     211.307E-03    -105.560E-03     42.3487E-03
            1573     8.90808E-03     54.9349E-03    -48.4149E+06    -65.8430E+06     20.7721E+06     191.426E+03    -105.644E-03     211.494E-03    -105.850E-03     42.7670E-03    -105.898E-03     211.283E-03    -105.581E-03     41.9225E-03
            1574     8.09806E-03     54.8884E-03    -54.9044E+06    -83.8383E+06     12.2541E+06     380.489E+03    -105.626E-03     211.493E-03    -105.866E-03     41.6065E-03    -105.865E-03     211.204E-03    -105.604E-03     40.8351E-03
            1575     7.28807E-03     54.8428E-03    -61.8166E+06    -100.958E+06     2.83621E+06     233.065E+03    -105.627E-03     211.509E-03    -105.882E-03     39.9216E-03    -105.853E-03     211.148E-03    -105.631E-03     39.2186E-03
            1576     6.47803E-03     54.7998E-03    -69.1957E+06    -117.801E+06    -7.70147E+06     194.018E+03    -105.646E-03     211.539E-03    -105.893E-03     37.6730E-03    -105.859E-03     211.111E-03    -105.660E-03     37.0403E-03
            1577     5.66812E-03     54.7593E-03    -77.0648E+06    -135.933E+06    -20.1613E+06     159.873E+03    -105.669E-03     211.565E-03    -105.896E-03     34.7879E-03    -105.868E-03     211.066E-03    -105.688E-03     34.2269E-03
            1578     4.85828E-03     54.7224E-03    -85.3694E+06    -154.789E+06    -34.6456E+06     120.045E+03    -105.653E-03     211.544E-03    -105.891E-03     31.2983E-03    -105.837E-03     210.975E-03    -105.716E-03     30.8117E-03
            1579     4.04843E-03     54.6897E-03    -93.6796E+06    -174.877E+06    -51.1593E+06    -14.2288E+03    -105.652E-03     211.532E-03    -105.880E-03     27.2504E-03    -105.815E-03     210.890E-03    -105.746E-03     26.8389E-03
            1580     3.23874E-03     54.6618E-03    -102.097E+06    -195.162E+06    -69.3588E+06        -556.125    -105.690E-03     211.549E-03    -105.859E-03     22.6674E-03    -105.832E-03     210.837E-03    -105.775E-03     22.3348E-03
            1581     2.42884E-03     54.6394E-03    -109.966E+06    -215.170E+06    -88.2928E+06      7.7805E+03    -105.730E-03     211.554E-03    -105.824E-03     17.5752E-03    -105.849E-03     210.775E-03    -105.794E-03     17.3229E-03
            1582     1.61930E-03     54.6228E-03    -116.215E+06    -232.864E+06    -105.104E+06    -79.1172E+03    -105.769E-03     211.544E-03    -105.775E-03     12.1245E-03    -105.864E-03     210.705E-03    -105.795E-03     11.9519E-03
            1583     809.762E-06     54.6123E-03    -120.473E+06    -245.558E+06    -117.271E+06     7.06081E+03    -105.820E-03     211.461E-03    -105.641E-03     6.65947E-03    -105.898E-03     210.579E-03    -105.696E-03     6.56621E-03
            1584     15.3897E-03     54.0820E-03    -5.07823E+06     115.403E+06     95.8821E+06    -210.924E+03    -104.881E-03     210.583E-03    -105.702E-03     11.7989E-03    -105.277E-03     211.092E-03    -105.382E-03     10.6600E-03
            1585     14.5797E-03     54.0632E-03    -10.2962E+06     112.348E+06     79.0215E+06     120.703E+03    -104.729E-03     210.373E-03    -105.645E-03     23.4413E-03    -105.159E-03     210.937E-03    -105.398E-03     22.1132E-03
            1586     13.7693E-03     54.0330E-03    -15.4474E+06     105.677E+06     70.4183E+06     265.911E+03    -104.680E-03     210.327E-03    -105.647E-03     31.1681E-03    -105.121E-03     210.884E-03    -105.426E-03     29.9186E-03
            1587     12.9588E-03     53.9957E-03    -20.0182E+06     70.4523E+06     62.9955E+06     321.031E+03    -104.921E-03     210.623E-03    -105.702E-03     36.9002E-03    -105.329E-03     211.027E-03    -105.460E-03     35.7000E-03
            1588     12.1483E-03     53.9530E-03    -25.4120E+06     21.4908E+06     50.0703E+06     409.065E+03    -105.212E-03     210.958E-03    -105.746E-03     40.3972E-03    -105.555E-03     211.142E-03    -105.490E-03     39.2602E-03
            1589     11.3383E-03     53.9072E-03    -30.9217E+06    -4.67884E+06     43.5417E+06     636.827E+03    -105.360E-03     211.147E-03    -105.787E-03     42.2664E-03    -105.676E-03     211.210E-03    -105.517E-03     41.2080E-03
            1590     10.5279E-03     53.8603E-03    -36.6080E+06    -27.1696E+06     35.6980E+06     427.244E+03    -105.534E-03     211.346E-03    -105.812E-03     43.0956E-03    -105.826E-03     211.308E-03    -105.541E-03     42.1095E-03
            1591     9.71810E-03     53.8119E-03    -42.5779E+06    -48.2290E+06     28.3382E+06     225.543E+03    -105.599E-03     211.434E-03    -105.835E-03     43.2043E-03    -105.871E-03     211.301E-03    -105.562E-03     42.2874E-03
            1592     8.90801E-03     53.7646E-03    -48.5924E+06    -65.6635E+06     20.8106E+06     284.865E+03    -105.588E-03     211.443E-03    -105.855E-03     42.7320E-03    -105.845E-03     211.234E-03    -105.585E-03     41.8879E-03
            1593     8.09793E-03     53.7174E-03    -55.0411E+06    -83.8035E+06     12.2632E+06     104.218E+03    -105.614E-03     211.489E-03    -105.875E-03     41.6755E-03    -105.854E-03     211.200E-03    -105.612E-03     40.9000E-03
            1594     7.28797E-03     53.6724E-03    -61.9229E+06    -100.614E+06     2.96846E+06     158.328E+03    -105.646E-03     211.537E-03    -105.891E-03     39.9904E-03    -105.873E-03     211.179E-03    -105.640E-03     39.2858E-03
            1595     6.47799E-03     53.6290E-03    -69.1718E+06    -117.802E+06    -7.76850E+06     74.5345E+03    -105.664E-03     211.565E-03    -105.900E-03     37.7164E-03    -105.878E-03     211.137E-03    -105.668E-03     37.0816E-03
            1596     5.66813E-03     53.5886E-03    -76.8112E+06    -135.737E+06    -20.0742E+06     48.0547E+03    -105.669E-03     211.572E-03    -105.904E-03     34.8296E-03    -105.867E-03     211.074E-03    -105.696E-03     34.2667E-03
            1597     4.85829E-03     53.5518E-03    -84.9864E+06    -154.604E+06    -34.3796E+06    -43.8819E+03    -105.658E-03     211.559E-03    -105.900E-03     31.3671E-03    -105.841E-03     210.990E-03    -105.725E-03     30.8775E-03
            1598     4.04840E-03     53.5191E-03    -93.6756E+06    -174.866E+06    -50.8679E+06     60.1968E+03    -105.659E-03     211.551E-03    -105.891E-03     27.3101E-03    -105.823E-03     210.909E-03    -105.756E-03     26.8992E-03
            1599     3.23849E-03     53.4912E-03    -102.125E+06    -195.096E+06    -69.2764E+06     129.648E+03    -105.691E-03     211.562E-03    -105.871E-03     22.6595E-03    -105.834E-03     210.850E-03    -105.786E-03     22.3280E-03
            1600     2.42898E-03     53.4686E-03    -109.703E+06    -214.969E+06    -88.2084E+06     23.5038E+03    -105.752E-03     211.586E-03    -105.834E-03     17.5563E-03    -105.870E-03     210.808E-03    -105.805E-03     17.3036E-03
            1601     1.61929E-03     53.4521E-03    -116.131E+06    -232.915E+06    -105.342E+06    -31.9209E+03    -105.789E-03     211.570E-03    -105.780E-03     12.1316E-03    -105.884E-03     210.731E-03    -105.801E-03     11.9600E-03
            1602     809.662E-06     53.4417E-03    -120.153E+06    -245.527E+06    -117.434E+06    -125.163E+03    -105.740E-03     211.466E-03    -105.726E-03     6.63236E-03    -105.816E-03     210.585E-03    -105.783E-03     6.53584E-03
            1603     15.3906E-03     52.9136E-03    -5.20900E+06     114.883E+06     95.4519E+06    -165.273E+03    -104.572E-03     210.269E-03    -105.697E-03     12.1130E-03    -104.968E-03     210.777E-03    -105.379E-03     10.9835E-03
            1604     14.5790E-03     52.8914E-03    -10.2234E+06     112.237E+06     78.7293E+06    -7.30849E+03    -104.432E-03     210.089E-03    -105.657E-03     24.0288E-03    -104.863E-03     210.653E-03    -105.411E-03     22.7041E-03
            1605     13.7689E-03     52.8632E-03    -15.1608E+06     105.943E+06     70.4148E+06     257.997E+03    -104.786E-03     210.452E-03    -105.666E-03     31.3835E-03    -105.227E-03     211.011E-03    -105.446E-03     30.1284E-03
            1606     12.9583E-03     52.8247E-03    -21.0709E+06     69.8186E+06     62.1989E+06     497.105E+03    -105.025E-03     210.739E-03    -105.715E-03     36.9741E-03    -105.436E-03     211.143E-03    -105.474E-03     35.7731E-03
            1607     12.1484E-03     52.7823E-03    -26.5957E+06     21.7310E+06     49.6065E+06     956.321E+03    -105.277E-03     211.031E-03    -105.755E-03     40.3280E-03    -105.625E-03     211.219E-03    -105.500E-03     39.1963E-03
            1608     11.3379E-03     52.7367E-03    -31.9397E+06    -4.45518E+06     43.1221E+06     642.828E+03    -105.451E-03     211.241E-03    -105.790E-03     42.2633E-03    -105.772E-03     211.308E-03    -105.522E-03     41.2030E-03
            1609     10.5282E-03     52.6890E-03    -37.1574E+06    -26.6328E+06     35.7864E+06     277.358E+03    -105.534E-03     211.347E-03    -105.813E-03     43.0603E-03    -105.830E-03     211.313E-03    -105.542E-03     42.0706E-03
            1610     9.71805E-03     52.6416E-03    -42.6708E+06    -48.0665E+06     28.4951E+06     161.112E+03    -105.541E-03     211.380E-03    -105.839E-03     43.2195E-03    -105.814E-03     211.248E-03    -105.565E-03     42.3019E-03
            1611     8.90792E-03     52.5937E-03    -48.6664E+06    -65.6508E+06     20.9085E+06     62.2628E+03    -105.552E-03     211.416E-03    -105.863E-03     42.7544E-03    -105.809E-03     211.206E-03    -105.593E-03     41.9075E-03
            1612     8.09789E-03     52.5471E-03    -54.9939E+06    -83.4862E+06     12.3938E+06     37.2469E+03    -105.595E-03     211.482E-03    -105.886E-03     41.6967E-03    -105.836E-03     211.195E-03    -105.624E-03     40.9200E-03
            1613     7.28780E-03     52.5015E-03    -61.7599E+06    -100.622E+06     2.96299E+06    -179.999E+03    -105.660E-03     211.563E-03    -105.903E-03     40.0276E-03    -105.886E-03     211.204E-03    -105.653E-03     39.3178E-03
            1614     6.47800E-03     52.4584E-03    -68.8724E+06    -117.671E+06    -7.57965E+06    -152.184E+03    -105.675E-03     211.588E-03    -105.913E-03     37.7545E-03    -105.887E-03     211.161E-03    -105.681E-03     37.1159E-03
            1615     5.66800E-03     52.4179E-03    -76.8966E+06    -135.731E+06    -20.0186E+06    -164.420E+03    -105.651E-03     211.571E-03    -105.919E-03     34.8815E-03    -105.850E-03     211.073E-03    -105.711E-03     34.3156E-03
            1616     4.85806E-03     52.3811E-03    -85.4262E+06    -154.802E+06    -34.5726E+06     68.8747E+03    -105.678E-03     211.596E-03    -105.918E-03     31.3767E-03    -105.862E-03     211.027E-03    -105.743E-03     30.8878E-03
            1617     4.04832E-03     52.3483E-03    -93.7057E+06    -174.718E+06    -50.9803E+06     186.279E+03    -105.710E-03     211.614E-03    -105.904E-03     27.2883E-03    -105.874E-03     210.973E-03    -105.770E-03     26.8781E-03
            1618     3.23871E-03     52.3205E-03    -101.975E+06    -194.931E+06    -69.2604E+06    -5.24641E+03    -105.709E-03     211.588E-03    -105.879E-03     22.6597E-03    -105.851E-03     210.877E-03    -105.795E-03     22.3258E-03
            1619     2.42881E-03     52.2979E-03    -109.757E+06    -214.974E+06    -88.0841E+06     41.8236E+03    -105.726E-03     211.576E-03    -105.850E-03     17.5960E-03    -105.844E-03     210.797E-03    -105.819E-03     17.3430E-03
            1620     1.61923E-03     52.2814E-03    -115.897E+06    -232.624E+06    -105.074E+06     27.8896E+03    -105.742E-03     211.568E-03    -105.825E-03     12.1121E-03    -105.837E-03     210.729E-03    -105.845E-03     11.9397E-03
            1621     809.611E-06     52.2712E-03    -120.320E+06    -245.643E+06    -117.195E+06    -65.6122E+03    -105.749E-03     211.601E-03    -105.852E-03     6.57101E-03    -105.826E-03     210.719E-03    -105.907E-03     6.47722E-03
            1622     15.3887E-03     51.7422E-03    -5.10652E+06     115.388E+06     95.9160E+06     232.148E+03    -104.475E-03     210.203E-03    -105.728E-03     12.1410E-03    -104.872E-03     210.714E-03    -105.408E-03     11.0057E-03
            1623     14.5791E-03     51.7221E-03    -10.9139E+06     111.904E+06     78.2503E+06    -86.8893E+03    -104.789E-03     210.468E-03    -105.679E-03     24.1397E-03    -105.223E-03     211.034E-03    -105.434E-03     22.8035E-03
            1624     13.7682E-03     51.6913E-03    -16.0391E+06     105.060E+06     69.6063E+06    -23.4111E+03    -104.934E-03     210.608E-03    -105.674E-03     30.8436E-03    -105.376E-03     211.165E-03    -105.455E-03     29.5828E-03
            1625     12.9587E-03     51.6543E-03    -20.7510E+06     69.3822E+06     62.6587E+06     1.09566E+06    -105.044E-03     210.766E-03    -105.722E-03     36.5444E-03    -105.454E-03     211.166E-03    -105.479E-03     35.3483E-03
            1626     12.1479E-03     51.6116E-03    -26.1213E+06     22.1510E+06     50.3189E+06     1.19965E+06    -105.317E-03     211.077E-03    -105.760E-03     40.2714E-03    -105.665E-03     211.265E-03    -105.503E-03     39.1410E-03
            1627     11.3384E-03     51.5656E-03    -31.2576E+06    -3.25822E+06     44.0682E+06     407.645E+03    -105.452E-03     211.246E-03    -105.793E-03     42.2021E-03    -105.773E-03     211.316E-03    -105.523E-03     41.1382E-03
            1628     10.5280E-03     51.5187E-03    -36.5604E+06    -26.4115E+06     36.2376E+06    -9.57455E+03    -105.447E-03     211.267E-03    -105.819E-03     43.1136E-03    -105.741E-03     211.232E-03    -105.547E-03     42.1212E-03
            1629     9.71790E-03     51.4707E-03    -42.2031E+06    -47.9371E+06     28.7235E+06    -46.6229E+03    -105.500E-03     211.350E-03    -105.850E-03     43.3048E-03    -105.771E-03     211.218E-03    -105.576E-03     42.3846E-03
            1630     8.90787E-03     51.4232E-03    -48.1487E+06    -65.5779E+06     21.1149E+06    -86.3040E+03    -105.574E-03     211.450E-03    -105.877E-03     42.8494E-03    -105.828E-03     211.240E-03    -105.606E-03     41.9995E-03
            1631     8.09773E-03     51.3762E-03    -54.5039E+06    -83.2967E+06     12.5600E+06    -215.448E+03    -105.629E-03     211.527E-03    -105.898E-03     41.7531E-03    -105.868E-03     211.241E-03    -105.636E-03     40.9716E-03
            1632     7.28784E-03     51.3309E-03    -61.3196E+06    -100.584E+06     3.13712E+06    -278.880E+03    -105.633E-03     211.550E-03    -105.917E-03     40.0659E-03    -105.858E-03     211.191E-03    -105.666E-03     39.3542E-03
            1633     6.47774E-03     51.2875E-03    -69.0519E+06    -117.922E+06    -7.57828E+06    -183.244E+03    -105.656E-03     211.588E-03    -105.932E-03     37.7866E-03    -105.869E-03     211.159E-03    -105.699E-03     37.1467E-03
            1634     5.66790E-03     51.2473E-03    -77.1570E+06    -135.811E+06    -20.1921E+06     133.763E+03    -105.702E-03     211.639E-03    -105.937E-03     34.8692E-03    -105.902E-03     211.142E-03    -105.729E-03     34.3057E-03
            1635     4.85811E-03     51.2103E-03    -85.2175E+06    -154.730E+06    -34.6165E+06     47.7714E+03    -105.703E-03     211.636E-03    -105.932E-03     31.3553E-03    -105.886E-03     211.067E-03    -105.758E-03     30.8658E-03
            1636     4.04830E-03     51.1776E-03    -93.6388E+06    -174.641E+06    -50.9422E+06    -75.4964E+03    -105.696E-03     211.617E-03    -105.921E-03     27.3164E-03    -105.860E-03     210.977E-03    -105.787E-03     26.9020E-03
            1637     3.23845E-03     51.1497E-03    -102.051E+06    -194.791E+06    -69.2336E+06     17.5296E+03    -105.718E-03     211.619E-03    -105.901E-03     22.7313E-03    -105.861E-03     210.909E-03    -105.817E-03     22.3970E-03
            1638     2.42890E-03     51.1274E-03    -109.647E+06    -214.882E+06    -88.0360E+06    -72.5075E+03    -105.726E-03     211.604E-03    -105.878E-03     17.6238E-03    -105.844E-03     210.826E-03    -105.848E-03     17.3695E-03
            1639     1.61913E-03     51.1106E-03    -116.033E+06    -232.676E+06    -104.889E+06    -44.2242E+03    -105.721E-03     211.599E-03    -105.878E-03     12.0886E-03    -105.816E-03     210.760E-03    -105.897E-03     11.9164E-03
            1640     809.397E-06     51.1007E-03    -120.211E+06    -245.525E+06    -117.387E+06     213.399E+03    -105.887E-03     211.740E-03    -105.853E-03     6.79531E-03    -105.963E-03     210.859E-03    -105.910E-03     6.70481E-03
            1641     15.3888E-03     50.5718E-03    -5.11272E+06     115.114E+06     95.5496E+06     82.2544E+03    -104.562E-03     210.281E-03    -105.719E-03     10.7739E-03    -104.954E-03     210.787E-03    -105.401E-03     9.65342E-03
            1642     14.5784E-03     50.5499E-03    -9.72918E+06     112.992E+06     79.3341E+06     294.585E+03    -104.768E-03     210.440E-03    -105.672E-03     23.2586E-03    -105.196E-03     211.004E-03    -105.425E-03     21.9363E-03
            1643     13.7696E-03     50.5208E-03    -14.5623E+06     103.668E+06     69.9196E+06     108.378E+03    -104.816E-03     210.486E-03    -105.670E-03     30.6989E-03    -105.249E-03     211.033E-03    -105.450E-03     29.4423E-03
            1644     12.9582E-03     50.4838E-03    -20.0795E+06     67.8542E+06     62.2992E+06     1.05858E+06    -105.038E-03     210.757E-03    -105.719E-03     36.7311E-03    -105.441E-03     211.149E-03    -105.477E-03     35.5369E-03
            1645     12.1486E-03     50.4405E-03    -24.7787E+06     23.9963E+06     51.4727E+06     1.14790E+06    -105.308E-03     211.068E-03    -105.760E-03     40.3070E-03    -105.654E-03     211.262E-03    -105.502E-03     39.1768E-03
            1646     11.3379E-03     50.3950E-03    -29.9102E+06    -2.57335E+06     44.7332E+06     358.035E+03    -105.327E-03     211.125E-03    -105.798E-03     42.1762E-03    -105.643E-03     211.196E-03    -105.527E-03     41.1122E-03
            1647     10.5280E-03     50.3479E-03    -35.6044E+06    -26.1525E+06     36.6782E+06     227.910E+03    -105.395E-03     211.226E-03    -105.831E-03     43.1191E-03    -105.685E-03     211.191E-03    -105.558E-03     42.1291E-03
            1648     9.71777E-03     50.3002E-03    -41.5825E+06    -47.7002E+06     29.0420E+06     37.7726E+03    -105.491E-03     211.356E-03    -105.866E-03     43.3466E-03    -105.760E-03     211.224E-03    -105.591E-03     42.4261E-03
            1649     8.90756E-03     50.2525E-03    -47.7512E+06    -65.4537E+06     21.2470E+06    -159.526E+03    -105.590E-03     211.483E-03    -105.893E-03     42.8952E-03    -105.844E-03     211.273E-03    -105.623E-03     42.0429E-03
            1650     8.09771E-03     50.2055E-03    -54.2949E+06    -83.3139E+06     12.6764E+06    -228.546E+03    -105.637E-03     211.553E-03    -105.916E-03     41.8101E-03    -105.875E-03     211.266E-03    -105.653E-03     41.0271E-03
            1651     7.28763E-03     50.1602E-03    -61.5003E+06    -100.624E+06     3.16597E+06    -58.5649E+03    -105.649E-03     211.584E-03    -105.935E-03     40.1193E-03    -105.875E-03     211.225E-03    -105.684E-03     39.4090E-03
            1652     6.47768E-03     50.1169E-03    -69.0745E+06    -118.055E+06    -7.73832E+06     76.1485E+03    -105.678E-03     211.627E-03    -105.949E-03     37.8134E-03    -105.891E-03     211.198E-03    -105.717E-03     37.1762E-03
            1653     5.66779E-03     50.0763E-03    -76.6525E+06    -135.754E+06    -20.0010E+06    -107.993E+03    -105.697E-03     211.654E-03    -105.957E-03     34.9144E-03    -105.895E-03     211.156E-03    -105.749E-03     34.3470E-03
            1654     4.85800E-03     50.0395E-03    -84.9064E+06    -154.518E+06    -34.1901E+06    -118.427E+03    -105.697E-03     211.655E-03    -105.958E-03     31.4660E-03    -105.879E-03     211.086E-03    -105.782E-03     30.9730E-03
            1655     4.04815E-03     50.0069E-03    -93.6352E+06    -174.727E+06    -50.8213E+06    -24.5094E+03    -105.712E-03     211.663E-03    -105.951E-03     27.3936E-03    -105.876E-03     211.022E-03    -105.816E-03     26.9795E-03
            1656     3.23843E-03     49.9790E-03    -101.802E+06    -194.762E+06    -69.0387E+06    -49.1677E+03    -105.738E-03     211.671E-03    -105.933E-03     22.7096E-03    -105.880E-03     210.961E-03    -105.848E-03     22.3745E-03
            1657     2.42867E-03     49.9564E-03    -109.496E+06    -214.764E+06    -87.9041E+06     42.4196E+03    -105.743E-03     211.657E-03    -105.914E-03     17.5620E-03    -105.861E-03     210.879E-03    -105.884E-03     17.3089E-03
            1658     1.61906E-03     49.9402E-03    -115.967E+06    -232.760E+06    -104.995E+06    -10.0083E+03    -105.806E-03     211.707E-03    -105.900E-03     12.1151E-03    -105.901E-03     210.868E-03    -105.920E-03     11.9434E-03
            1659     809.525E-06     49.9295E-03    -119.991E+06    -245.366E+06    -116.917E+06     23.3256E+03    -105.914E-03     211.758E-03    -105.843E-03     6.77620E-03    -105.990E-03     210.876E-03    -105.898E-03     6.68267E-03
            1660     15.3910E-03     49.4019E-03    -4.85171E+06     115.438E+06     95.6742E+06    -536.413E+03    -104.571E-03     210.287E-03    -105.717E-03     12.5810E-03    -104.967E-03     210.798E-03    -105.399E-03     11.4427E-03
            1661     14.5803E-03     49.3792E-03    -10.0271E+06     112.398E+06     78.9540E+06    -176.173E+03    -104.542E-03     210.217E-03    -105.675E-03     24.6285E-03    -104.973E-03     210.783E-03    -105.429E-03     23.2999E-03
            1662     13.7679E-03     49.3507E-03    -15.8995E+06     102.932E+06     68.8153E+06     1.38381E+06    -104.826E-03     210.504E-03    -105.678E-03     31.3138E-03    -105.263E-03     211.051E-03    -105.461E-03     30.0796E-03
            1663     12.9586E-03     49.3124E-03    -21.3096E+06     68.5991E+06     61.6218E+06     664.221E+03    -105.189E-03     210.913E-03    -105.723E-03     36.8728E-03    -105.599E-03     211.312E-03    -105.484E-03     35.6733E-03
            1664     12.1481E-03     49.2700E-03    -25.9118E+06     24.2510E+06     50.8620E+06    -64.6901E+03    -105.245E-03     211.008E-03    -105.762E-03     40.2329E-03    -105.597E-03     211.205E-03    -105.505E-03     39.0848E-03
            1665     11.3382E-03     49.2244E-03    -30.3442E+06    -2.19373E+06     44.7936E+06     518.908E+03    -105.257E-03     211.064E-03    -105.807E-03     42.1830E-03    -105.576E-03     211.138E-03    -105.536E-03     41.1197E-03
            1666     10.5277E-03     49.1773E-03    -35.7001E+06    -25.7467E+06     36.7414E+06     269.263E+03    -105.372E-03     211.216E-03    -105.844E-03     43.1461E-03    -105.664E-03     211.183E-03    -105.571E-03     42.1542E-03
            1667     9.71756E-03     49.1296E-03    -41.2966E+06    -47.4455E+06     29.2205E+06     131.036E+03    -105.502E-03     211.382E-03    -105.880E-03     43.3795E-03    -105.770E-03     211.251E-03    -105.605E-03     42.4586E-03
            1668     8.90763E-03     49.0816E-03    -47.4964E+06    -65.2541E+06     21.4126E+06     11.6318E+03    -105.559E-03     211.469E-03    -105.910E-03     42.9245E-03    -105.812E-03     211.259E-03    -105.639E-03     42.0739E-03
            1669     8.09738E-03     49.0349E-03    -54.2380E+06    -83.3993E+06     12.7824E+06     50.8135E+03    -105.615E-03     211.552E-03    -105.937E-03     41.8431E-03    -105.853E-03     211.265E-03    -105.674E-03     41.0629E-03
            1670     7.28744E-03     48.9893E-03    -61.3014E+06    -100.695E+06     3.22528E+06     96.6562E+03    -105.689E-03     211.647E-03    -105.958E-03     40.1660E-03    -105.914E-03     211.287E-03    -105.707E-03     39.4561E-03
            1671     6.47763E-03     48.9461E-03    -68.5414E+06    -117.702E+06    -7.38944E+06    -122.864E+03    -105.688E-03     211.660E-03    -105.972E-03     37.8903E-03    -105.899E-03     211.232E-03    -105.739E-03     37.2494E-03
            1672     5.66768E-03     48.9056E-03    -76.6549E+06    -135.870E+06    -19.7860E+06    -83.8683E+03    -105.658E-03     211.645E-03    -105.987E-03     35.0121E-03    -105.857E-03     211.146E-03    -105.777E-03     34.4449E-03
            1673     4.85769E-03     48.8688E-03    -85.0450E+06    -154.624E+06    -34.2923E+06     96.4390E+03    -105.707E-03     211.700E-03    -105.993E-03     31.5031E-03    -105.890E-03     211.132E-03    -105.817E-03     31.0126E-03
            1674     4.04799E-03     48.8360E-03    -93.2860E+06    -174.391E+06    -50.8044E+06    -48.1704E+03    -105.765E-03     211.751E-03    -105.986E-03     27.4108E-03    -105.928E-03     211.111E-03    -105.852E-03     26.9952E-03
            1675     3.23835E-03     48.8081E-03    -101.891E+06    -194.939E+06    -69.1477E+06    -99.6967E+03    -105.762E-03     211.731E-03    -105.969E-03     22.7386E-03    -105.904E-03     211.019E-03    -105.884E-03     22.4021E-03
            1676     2.42868E-03     48.7858E-03    -109.580E+06    -214.801E+06    -87.8947E+06    -8.29589E+03    -105.792E-03     211.742E-03    -105.950E-03     17.5987E-03    -105.910E-03     210.964E-03    -105.919E-03     17.3447E-03
            1677     1.61903E-03     48.7691E-03    -115.726E+06    -232.488E+06    -104.803E+06     26.3212E+03    -105.887E-03     211.806E-03    -105.918E-03     12.2237E-03    -105.981E-03     210.967E-03    -105.938E-03     12.0522E-03
            1678     809.675E-06     48.7586E-03    -120.165E+06    -245.525E+06    -117.171E+06    -120.262E+03    -105.903E-03     211.761E-03    -105.858E-03     6.72310E-03    -105.979E-03     210.879E-03    -105.914E-03     6.62725E-03
            1679     15.3869E-03     48.2290E-03    -5.44162E+06     115.057E+06     94.3846E+06     396.814E+03    -104.259E-03     209.996E-03    -105.737E-03     12.0248E-03    -104.653E-03     210.506E-03    -105.424E-03     10.9138E-03
            1680     14.5772E-03     48.2100E-03    -12.6108E+06     110.170E+06     76.3451E+06     1.54565E+06    -104.846E-03     210.542E-03    -105.696E-03     24.1315E-03    -105.282E-03     211.103E-03    -105.456E-03     22.8291E-03
            1681     13.7687E-03     48.1786E-03    -17.5387E+06     103.365E+06     68.9066E+06     357.406E+03    -105.147E-03     210.836E-03    -105.690E-03     30.9150E-03    -105.593E-03     211.388E-03    -105.470E-03     29.6544E-03
            1682     12.9582E-03     48.1417E-03    -21.0778E+06     70.5423E+06     62.5179E+06    -364.997E+03    -105.096E-03     210.822E-03    -105.726E-03     36.3279E-03    -105.508E-03     211.229E-03    -105.485E-03     35.1066E-03
            1683     12.1484E-03     48.0992E-03    -25.5722E+06     23.7342E+06     50.7432E+06    -465.331E+03    -105.114E-03     210.885E-03    -105.771E-03     40.1532E-03    -105.463E-03     211.080E-03    -105.514E-03     38.9981E-03
            1684     11.3378E-03     48.0539E-03    -30.6715E+06    -2.62774E+06     44.4494E+06    -257.420E+03    -105.236E-03     211.057E-03    -105.821E-03     42.3297E-03    -105.556E-03     211.130E-03    -105.551E-03     41.2545E-03
            1685     10.5276E-03     48.0068E-03    -35.7441E+06    -25.3991E+06     36.7385E+06     154.978E+03    -105.390E-03     211.250E-03    -105.860E-03     43.3190E-03    -105.683E-03     211.219E-03    -105.587E-03     42.3254E-03
            1686     9.71757E-03     47.9587E-03    -41.5552E+06    -47.5247E+06     29.1551E+06     19.3721E+03    -105.489E-03     211.387E-03    -105.898E-03     43.5074E-03    -105.759E-03     211.256E-03    -105.623E-03     42.5843E-03
            1687     8.90726E-03     47.9111E-03    -47.6390E+06    -64.9912E+06     21.6454E+06     250.433E+03    -105.548E-03     211.479E-03    -105.931E-03     43.0295E-03    -105.802E-03     211.271E-03    -105.660E-03     42.1808E-03
            1688     8.09731E-03     47.8640E-03    -54.2155E+06    -83.3606E+06     12.8032E+06     207.952E+03    -105.625E-03     211.586E-03    -105.960E-03     41.9367E-03    -105.864E-03     211.298E-03    -105.697E-03     41.1578E-03
            1689     7.28735E-03     47.8185E-03    -61.0889E+06    -100.420E+06     3.38091E+06     10.6208E+03    -105.657E-03     211.642E-03    -105.985E-03     40.2566E-03    -105.882E-03     211.283E-03    -105.734E-03     39.5453E-03
            1690     6.47729E-03     47.7752E-03    -68.7402E+06    -117.818E+06    -7.45463E+06     91.4203E+03    -105.670E-03     211.677E-03    -106.006E-03     37.9563E-03    -105.883E-03     211.248E-03    -105.773E-03     37.3168E-03
            1691     5.66738E-03     47.7349E-03    -76.7256E+06    -135.877E+06    -20.0100E+06     224.022E+03    -105.710E-03     211.732E-03    -106.022E-03     35.0650E-03    -105.909E-03     211.233E-03    -105.813E-03     34.5003E-03
            1692     4.85765E-03     47.6978E-03    -84.8516E+06    -154.436E+06    -34.2915E+06     11.5933E+03    -105.742E-03     211.770E-03    -106.028E-03     31.5633E-03    -105.924E-03     211.202E-03    -105.852E-03     31.0709E-03
            1693     4.04789E-03     47.6650E-03    -93.5515E+06    -174.381E+06    -50.8978E+06     40.8574E+03    -105.745E-03     211.772E-03    -106.027E-03     27.4391E-03    -105.910E-03     211.133E-03    -105.893E-03     27.0238E-03
            1694     3.23809E-03     47.6372E-03    -101.898E+06    -194.707E+06    -69.2668E+06     50.4088E+03    -105.787E-03     211.806E-03    -106.018E-03     22.8009E-03    -105.930E-03     211.096E-03    -105.935E-03     22.4653E-03
            1695     2.42847E-03     47.6148E-03    -109.626E+06    -214.838E+06    -88.1549E+06    -150.959E+03    -105.883E-03     211.878E-03    -105.995E-03     17.7026E-03    -106.001E-03     211.100E-03    -105.966E-03     17.4457E-03
            1696     1.61904E-03     47.5981E-03    -116.127E+06    -232.556E+06    -105.140E+06    -42.5172E+03    -105.906E-03     211.869E-03    -105.963E-03     12.2383E-03    -106.002E-03     211.032E-03    -105.983E-03     12.0657E-03
            1697     809.345E-06     47.5877E-03    -120.290E+06    -245.380E+06    -117.212E+06     61.3011E+03    -105.922E-03     211.864E-03    -105.943E-03     6.69317E-03    -105.999E-03     210.983E-03    -105.998E-03     6.59973E-03
            1698     15.3909E-03     47.0612E-03    -6.37548E+06     114.179E+06     94.3397E+06     1.34435E+06    -104.820E-03     210.537E-03    -105.717E-03     11.3090E-03    -105.217E-03     211.043E-03    -105.401E-03     10.1955E-03
            1699     14.5795E-03     47.0371E-03    -10.2298E+06     112.381E+06     78.9715E+06     202.098E+03    -104.812E-03     210.476E-03    -105.663E-03     22.7076E-03    -105.242E-03     211.039E-03    -105.416E-03     21.3740E-03
            1700     13.7687E-03     47.0078E-03    -13.2429E+06     104.562E+06     70.9934E+06    -740.510E+03    -104.676E-03     210.342E-03    -105.666E-03     30.1430E-03    -105.105E-03     210.889E-03    -105.443E-03     28.8659E-03
            1701     12.9587E-03     46.9710E-03    -18.7767E+06     69.7253E+06     63.4135E+06    -449.809E+03    -104.706E-03     210.433E-03    -105.728E-03     36.3171E-03    -105.106E-03     210.831E-03    -105.485E-03     35.1010E-03
            1702     12.1478E-03     46.9289E-03    -24.5733E+06     23.9143E+06     51.1668E+06    -157.486E+03    -104.998E-03     210.786E-03    -105.788E-03     40.3646E-03    -105.343E-03     210.980E-03    -105.531E-03     39.2183E-03
            1703     11.3376E-03     46.8833E-03    -30.1725E+06    -3.54812E+06     44.2946E+06    -298.939E+03    -105.246E-03     211.089E-03    -105.843E-03     42.4736E-03    -105.562E-03     211.157E-03    -105.573E-03     41.3997E-03
            1704     10.5274E-03     46.8359E-03    -35.9659E+06    -25.4684E+06     36.7032E+06    -26.8607E+03    -105.384E-03     211.268E-03    -105.884E-03     43.4330E-03    -105.678E-03     211.237E-03    -105.611E-03     42.4368E-03
            1705     9.71711E-03     46.7882E-03    -41.7239E+06    -47.3162E+06     29.1425E+06     280.292E+03    -105.474E-03     211.399E-03    -105.925E-03     43.6269E-03    -105.746E-03     211.270E-03    -105.650E-03     42.7063E-03
            1706     8.90714E-03     46.7402E-03    -47.9992E+06    -65.2801E+06     21.3175E+06     226.079E+03    -105.569E-03     211.529E-03    -105.960E-03     43.1899E-03    -105.824E-03     211.321E-03    -105.689E-03     42.3391E-03
            1707     8.09706E-03     46.6932E-03    -54.4583E+06    -82.8472E+06     12.7714E+06     241.322E+03    -105.625E-03     211.616E-03    -105.991E-03     42.0871E-03    -105.866E-03     211.332E-03    -105.728E-03     41.3069E-03
            1708     7.28699E-03     46.6477E-03     -61.586E+06    -100.450E+06     3.06948E+06     186.778E+03    -105.644E-03     211.664E-03    -106.020E-03     40.3548E-03    -105.871E-03     211.306E-03    -105.770E-03     39.6444E-03
            1709     6.47707E-03     46.6044E-03    -68.8874E+06    -117.814E+06    -7.70871E+06     200.728E+03    -105.695E-03     211.740E-03    -106.045E-03     38.0289E-03    -105.908E-03     211.313E-03    -105.813E-03     37.3895E-03
            1710     5.66724E-03     46.5638E-03    -76.6108E+06    -135.561E+06    -19.9737E+06         363.102    -105.750E-03     211.812E-03    -106.062E-03     35.1500E-03    -105.948E-03     211.315E-03    -105.854E-03     34.5806E-03
            1711     4.85742E-03     46.5269E-03    -85.1980E+06    -154.506E+06    -34.4134E+06     96.9175E+03    -105.746E-03     211.818E-03    -106.072E-03     31.6539E-03    -105.930E-03     211.251E-03    -105.897E-03     31.1607E-03
            1712     4.04760E-03     46.4941E-03    -93.6073E+06    -174.290E+06    -50.9267E+06     122.240E+03    -105.764E-03     211.842E-03    -106.078E-03     27.5312E-03    -105.929E-03     211.203E-03    -105.944E-03     27.1159E-03
            1713     3.23795E-03     46.4662E-03    -101.876E+06    -194.522E+06    -69.1677E+06     61.6938E+03    -105.848E-03     211.920E-03    -106.072E-03     22.8601E-03    -105.990E-03     211.211E-03    -105.988E-03     22.5239E-03
            1714     2.42840E-03     46.4435E-03    -109.607E+06    -214.747E+06    -88.0088E+06     166.804E+03    -105.918E-03     211.970E-03    -106.052E-03     17.7193E-03    -106.036E-03     211.192E-03    -106.022E-03     17.4659E-03
            1715     1.61888E-03     46.4271E-03    -115.953E+06    -232.463E+06    -105.186E+06     7.66255E+03    -105.949E-03     211.978E-03    -106.028E-03     12.2136E-03    -106.044E-03     211.140E-03    -106.049E-03     12.0398E-03
            1716     809.511E-06     46.4168E-03    -120.267E+06    -245.361E+06    -117.321E+06    -137.331E+03    -105.999E-03     212.008E-03    -106.009E-03     6.79429E-03    -106.076E-03     211.127E-03    -106.065E-03     6.69743E-03
            1717     15.3888E-03     45.8869E-03    -6.62856E+06     114.229E+06     93.7390E+06    -577.548E+03    -105.175E-03     210.880E-03    -105.705E-03     12.9096E-03    -105.576E-03     211.391E-03    -105.392E-03     11.7617E-03
            1718     14.5808E-03     45.8681E-03    -8.04725E+06     114.447E+06     80.7495E+06    -816.149E+03    -104.806E-03     210.454E-03    -105.648E-03     24.2696E-03    -105.232E-03     211.023E-03    -105.398E-03     22.9357E-03
            1719     13.7695E-03     45.8375E-03    -12.5481E+06     105.130E+06     71.2254E+06     160.321E+03    -104.218E-03     209.879E-03    -105.661E-03     31.1590E-03    -104.642E-03     210.426E-03    -105.440E-03     29.9332E-03
            1720     12.9579E-03     45.8012E-03    -18.1801E+06     68.7887E+06     63.0236E+06     390.297E+03    -104.547E-03     210.290E-03    -105.743E-03     36.8665E-03    -104.942E-03     210.682E-03    -105.501E-03     35.6782E-03
            1721     12.1476E-03     45.7582E-03    -23.8490E+06     23.3446E+06     51.3262E+06     704.227E+03    -105.051E-03     210.861E-03    -105.810E-03     40.4493E-03    -105.391E-03     211.050E-03    -105.553E-03     39.3156E-03
            1722     11.3373E-03     45.7127E-03    -30.0001E+06    -2.83412E+06     44.4636E+06     681.985E+03    -105.215E-03     211.081E-03    -105.866E-03     42.4799E-03    -105.532E-03     211.152E-03    -105.596E-03     41.4182E-03
            1723     10.5270E-03     45.6653E-03    -35.9817E+06    -25.5880E+06     36.5991E+06     332.914E+03    -105.339E-03     211.251E-03    -105.911E-03     43.4819E-03    -105.634E-03     211.220E-03    -105.639E-03     42.4887E-03
            1724     9.71693E-03     45.6174E-03    -41.9564E+06    -47.3236E+06     28.8516E+06     338.861E+03    -105.475E-03     211.430E-03    -105.956E-03     43.6992E-03    -105.747E-03     211.302E-03    -105.682E-03     42.7773E-03
            1725     8.90670E-03     45.5694E-03    -47.9434E+06    -65.0909E+06     21.1859E+06     230.957E+03    -105.561E-03     211.555E-03    -105.994E-03     43.2694E-03    -105.817E-03     211.348E-03    -105.724E-03     42.4168E-03
            1726     8.09667E-03     45.5224E-03    -54.4728E+06    -82.9129E+06     12.6718E+06     236.627E+03    -105.618E-03     211.648E-03    -106.030E-03     42.1432E-03    -105.859E-03     211.365E-03    -105.768E-03     41.3607E-03
            1727     7.28673E-03     45.4769E-03    -61.3367E+06    -100.235E+06     3.14566E+06     283.942E+03    -105.676E-03     211.738E-03    -106.062E-03     40.4295E-03    -105.902E-03     211.382E-03    -105.812E-03     39.7178E-03
            1728     6.47679E-03     45.4334E-03    -68.8263E+06    -117.576E+06    -7.59347E+06     79.5639E+03    -105.722E-03     211.811E-03    -106.090E-03     38.1667E-03    -105.935E-03     211.385E-03    -105.857E-03     37.5238E-03
            1729     5.66692E-03     45.3928E-03    -76.8193E+06    -135.514E+06    -20.0489E+06     154.882E+03    -105.741E-03     211.853E-03    -106.112E-03     35.2598E-03    -105.941E-03     211.358E-03    -105.904E-03     34.6907E-03
            1730     4.85711E-03     45.3558E-03    -85.0035E+06    -154.466E+06    -34.4718E+06     76.5041E+03    -105.779E-03     211.907E-03    -106.128E-03     31.7262E-03    -105.962E-03     211.340E-03    -105.953E-03     31.2312E-03
            1731     4.04739E-03     45.3231E-03    -93.4677E+06    -174.221E+06    -50.7823E+06     67.5299E+03    -105.851E-03     211.985E-03    -106.134E-03     27.5970E-03    -106.015E-03     211.346E-03    -106.000E-03     27.1797E-03
            1732     3.23779E-03     45.2949E-03    -101.888E+06    -194.408E+06    -69.1617E+06     132.893E+03    -105.902E-03     212.027E-03    -106.125E-03     22.9158E-03    -106.045E-03     211.319E-03    -106.041E-03     22.5795E-03
            1733     2.42825E-03     45.2725E-03    -109.636E+06    -214.617E+06    -87.8584E+06     43.5288E+03    -105.937E-03     212.050E-03    -106.112E-03     17.7512E-03    -106.056E-03     211.272E-03    -106.082E-03     17.4953E-03
            1734     1.61871E-03     45.2558E-03    -115.942E+06    -232.284E+06    -104.684E+06     168.936E+03    -106.005E-03     212.105E-03    -106.100E-03     12.2277E-03    -106.100E-03     211.268E-03    -106.119E-03     12.0553E-03
            1735     809.284E-06     45.2455E-03    -120.142E+06    -245.305E+06    -117.327E+06     139.105E+03    -106.094E-03     212.154E-03    -106.060E-03     6.80693E-03    -106.170E-03     211.273E-03    -106.116E-03     6.71265E-03
            1736     15.3893E-03     44.7167E-03    -5.16187E+06     115.006E+06     94.2398E+06    -1.16649E+06    -104.370E-03     210.078E-03    -105.707E-03     11.8244E-03    -104.762E-03     210.586E-03    -105.395E-03     10.6975E-03
            1737     14.5776E-03     44.6952E-03    -11.0776E+06     111.760E+06     77.6675E+06    -880.217E+03    -104.368E-03     210.046E-03    -105.678E-03     23.2628E-03    -104.797E-03     210.607E-03    -105.436E-03     21.9391E-03
            1738     13.7681E-03     44.6691E-03    -16.2072E+06     104.907E+06     69.6656E+06     207.533E+03    -104.587E-03     210.286E-03    -105.699E-03     31.1669E-03    -105.028E-03     210.840E-03    -105.479E-03     29.9353E-03
            1739     12.9578E-03     44.6300E-03    -21.2368E+06     68.2112E+06     61.4907E+06     315.189E+03    -104.798E-03     210.560E-03    -105.763E-03     36.9237E-03    -105.205E-03     210.956E-03    -105.523E-03     35.7302E-03
            1740     12.1475E-03     44.5879E-03    -26.2045E+06     22.8681E+06     50.3485E+06     943.400E+03    -104.988E-03     210.814E-03    -105.826E-03     40.3624E-03    -105.338E-03     211.006E-03    -105.569E-03     39.2309E-03
            1741     11.3371E-03     44.5420E-03    -30.9662E+06    -1.37167E+06     44.4527E+06     1.02374E+06    -105.132E-03     211.019E-03    -105.887E-03     42.5721E-03    -105.456E-03     211.100E-03    -105.618E-03     41.5131E-03
            1742     10.5268E-03     44.4948E-03    -36.2354E+06    -25.6823E+06     36.3942E+06     503.627E+03    -105.322E-03     211.261E-03    -105.939E-03     43.5806E-03    -105.618E-03     211.231E-03    -105.667E-03     42.5878E-03
            1743     9.71650E-03     44.4465E-03    -41.8105E+06    -47.0134E+06     29.0108E+06     275.666E+03    -105.462E-03     211.449E-03    -105.987E-03     43.7639E-03    -105.735E-03     211.323E-03    -105.714E-03     42.8389E-03
            1744     8.90650E-03     44.3987E-03    -47.9496E+06    -64.9596E+06     21.2432E+06     214.696E+03    -105.535E-03     211.566E-03    -106.031E-03     43.3156E-03    -105.791E-03     211.360E-03    -105.761E-03     42.4607E-03
            1745     8.09638E-03     44.3514E-03    -54.4150E+06    -82.9690E+06     12.6118E+06     204.239E+03    -105.602E-03     211.675E-03    -106.073E-03     42.2422E-03    -105.843E-03     211.391E-03    -105.810E-03     41.4573E-03
            1746     7.28634E-03     44.3059E-03    -61.3768E+06    -100.049E+06     3.16739E+06     188.202E+03    -105.677E-03     211.788E-03    -106.111E-03     40.5698E-03    -105.905E-03     211.433E-03    -105.861E-03     39.8550E-03
            1747     6.47644E-03     44.2624E-03    -68.7660E+06    -117.469E+06    -7.59324E+06     295.827E+03    -105.726E-03     211.870E-03    -106.144E-03     38.2846E-03    -105.940E-03     211.445E-03    -105.912E-03     37.6425E-03
            1748     5.66660E-03     44.2218E-03    -76.6247E+06    -135.415E+06    -20.0175E+06     167.722E+03    -105.772E-03     211.943E-03    -106.172E-03     35.3630E-03    -105.971E-03     211.448E-03    -105.964E-03     34.7921E-03
            1749     4.85677E-03     44.1847E-03    -84.8567E+06    -154.164E+06    -34.3337E+06     101.038E+03    -105.857E-03     212.046E-03    -106.189E-03     31.8284E-03    -106.040E-03     211.480E-03    -106.014E-03     31.3320E-03
            1750     4.04719E-03     44.1517E-03    -93.5932E+06    -174.312E+06    -50.9377E+06     57.8901E+03    -105.920E-03     212.112E-03    -106.192E-03     27.6680E-03    -106.084E-03     211.473E-03    -106.059E-03     27.2492E-03
            1751     3.23762E-03     44.1238E-03    -102.008E+06    -194.327E+06    -69.1021E+06     127.141E+03    -105.943E-03     212.129E-03    -106.185E-03     22.9655E-03    -106.087E-03     211.421E-03    -106.101E-03     22.6280E-03
            1752     2.42806E-03     44.1011E-03    -109.562E+06    -214.369E+06    -88.0775E+06     139.309E+03    -106.008E-03     212.179E-03    -106.172E-03     17.7956E-03    -106.126E-03     211.403E-03    -106.142E-03     17.5400E-03
            1753     1.61871E-03     44.0846E-03    -116.098E+06    -232.304E+06    -105.008E+06    -109.941E+03    -106.087E-03     212.237E-03    -106.151E-03     12.2359E-03    -106.183E-03     211.401E-03    -106.170E-03     12.0589E-03
            1754     809.373E-06     44.0739E-03    -120.367E+06    -245.067E+06    -116.861E+06     94.9225E+03    -106.142E-03     212.242E-03    -106.100E-03     6.72525E-03    -106.220E-03     211.362E-03    -106.154E-03     6.63179E-03
            1755     15.3907E-03     43.5464E-03    -3.90412E+06     116.201E+06     96.2110E+06     509.765E+03    -104.323E-03     210.037E-03    -105.714E-03     12.2696E-03    -104.715E-03     210.549E-03    -105.396E-03     11.1379E-03
            1756     14.5794E-03     43.5273E-03    -11.1482E+06     111.176E+06     77.2527E+06    -333.827E+03    -104.166E-03     209.850E-03    -105.684E-03     23.0134E-03    -104.596E-03     210.412E-03    -105.443E-03     21.6741E-03
            1757     13.7678E-03     43.4962E-03    -17.8481E+06     102.769E+06     68.0544E+06    -577.603E+03    -104.582E-03     210.292E-03    -105.710E-03     30.4455E-03    -105.027E-03     210.841E-03    -105.493E-03     29.1817E-03
            1758     12.9581E-03     43.4603E-03    -22.6515E+06     68.5786E+06     61.5631E+06     362.232E+03    -104.772E-03     210.551E-03    -105.779E-03     36.6303E-03    -105.188E-03     210.951E-03    -105.537E-03     35.4313E-03
            1759     12.1472E-03     43.4172E-03    -27.3528E+06     23.1771E+06     49.9090E+06    -227.363E+03    -104.877E-03     210.722E-03    -105.844E-03     40.6275E-03    -105.233E-03     210.918E-03    -105.589E-03     39.4807E-03
            1760     11.3367E-03     43.3718E-03    -31.4194E+06    -1.77255E+06     44.3031E+06    -186.191E+03    -105.109E-03     211.022E-03    -105.913E-03     42.7538E-03    -105.435E-03     211.102E-03    -105.644E-03     41.6786E-03
            1761     10.5264E-03     43.3239E-03    -36.1600E+06    -25.1427E+06     36.5319E+06     253.578E+03    -105.302E-03     211.269E-03    -105.968E-03     43.7108E-03    -105.598E-03     211.242E-03    -105.696E-03     42.7126E-03
            1762     9.71634E-03     43.2760E-03    -41.8772E+06    -46.9572E+06     28.9885E+06     220.804E+03    -105.416E-03     211.438E-03    -106.022E-03     43.8934E-03    -105.689E-03     211.312E-03    -105.748E-03     42.9658E-03
            1763     8.90603E-03     43.2277E-03    -47.9891E+06    -64.9004E+06     21.1286E+06     305.639E+03    -105.507E-03     211.579E-03    -106.072E-03     43.4821E-03    -105.765E-03     211.374E-03    -105.802E-03     42.6265E-03
            1764     8.09597E-03     43.1807E-03    -54.5886E+06    -82.7943E+06     12.4690E+06     218.289E+03    -105.601E-03     211.720E-03    -106.119E-03     42.3865E-03    -105.843E-03     211.438E-03    -105.858E-03     41.6000E-03
            1765     7.28595E-03     43.1348E-03    -61.4623E+06    -100.100E+06     2.98881E+06     192.429E+03    -105.670E-03     211.833E-03    -106.163E-03     40.6805E-03    -105.897E-03     211.478E-03    -105.914E-03     39.9638E-03
            1766     6.47604E-03     43.0913E-03    -68.8628E+06    -117.394E+06    -7.66400E+06     167.396E+03    -105.743E-03     211.946E-03    -106.203E-03     38.3717E-03    -105.957E-03     211.521E-03    -105.971E-03     37.7258E-03
            1767     5.66614E-03     43.0506E-03    -76.7732E+06    -135.168E+06    -19.9823E+06     204.830E+03    -105.838E-03     212.072E-03    -106.234E-03     35.4614E-03    -106.039E-03     211.579E-03    -106.027E-03     34.8893E-03
            1768     4.85656E-03     43.0133E-03    -85.1375E+06    -154.165E+06    -34.4280E+06     245.653E+03    -105.909E-03     212.161E-03    -106.252E-03     31.9190E-03    -106.094E-03     211.596E-03    -106.077E-03     31.4231E-03
            1769     4.04688E-03     42.9804E-03    -93.6082E+06    -173.980E+06    -51.0713E+06     180.371E+03    -105.956E-03     212.214E-03    -106.258E-03     27.7534E-03    -106.121E-03     211.578E-03    -106.126E-03     27.3346E-03
            1770     3.23736E-03     42.9522E-03    -101.963E+06    -194.415E+06    -69.3098E+06     4.33738E+03    -106.021E-03     212.275E-03    -106.254E-03     23.0423E-03    -106.165E-03     211.568E-03    -106.171E-03     22.7018E-03
            1771     2.42794E-03     42.9297E-03    -109.650E+06    -214.210E+06    -88.0617E+06     85.8740E+03    -106.084E-03     212.323E-03    -106.239E-03     17.8820E-03    -106.204E-03     211.548E-03    -106.210E-03     17.6250E-03
            1772     1.61858E-03     42.9127E-03    -115.804E+06    -232.002E+06    -105.291E+06     41.7283E+03    -106.126E-03     212.349E-03    -106.223E-03     12.3492E-03    -106.220E-03     211.514E-03    -106.246E-03     12.1745E-03
            1773     809.304E-06     42.9027E-03    -120.275E+06    -245.214E+06    -117.411E+06    -290.369E+03    -106.181E-03     212.411E-03    -106.230E-03     6.96100E-03    -106.258E-03     211.531E-03    -106.287E-03     6.85983E-03
            1774     15.3877E-03     42.3757E-03    -4.77688E+06     115.417E+06     95.5399E+06     316.945E+03    -104.417E-03     210.148E-03    -105.731E-03     11.6048E-03    -104.810E-03     210.657E-03    -105.414E-03     10.4753E-03
            1775     14.5785E-03     42.3561E-03    -9.58217E+06     112.813E+06     78.9258E+06     1.05183E+06    -104.485E-03     210.181E-03    -105.696E-03     23.5037E-03    -104.912E-03     210.745E-03    -105.451E-03     22.1926E-03
            1776     13.7689E-03     42.3268E-03    -14.9962E+06     102.544E+06     69.3329E+06     484.216E+03    -104.335E-03     210.055E-03    -105.720E-03     31.2187E-03    -104.768E-03     210.598E-03    -105.500E-03     29.9749E-03
            1777     12.9571E-03     42.2894E-03    -20.3551E+06     68.7950E+06     62.2637E+06    -272.076E+03    -104.557E-03     210.359E-03    -105.802E-03     37.0197E-03    -104.964E-03     210.757E-03    -105.561E-03     35.8114E-03
            1778     12.1469E-03     42.2472E-03    -24.9721E+06     24.1390E+06     50.8486E+06    -625.175E+03    -104.979E-03     210.853E-03    -105.874E-03     40.8141E-03    -105.327E-03     211.050E-03    -105.618E-03     39.6582E-03
            1779     11.3365E-03     42.2009E-03    -30.7021E+06    -3.15205E+06     43.9284E+06    -659.317E+03    -105.129E-03     211.070E-03    -105.941E-03     42.8875E-03    -105.450E-03     211.143E-03    -105.672E-03     41.8032E-03
            1780     10.5262E-03     42.1534E-03    -36.4040E+06    -25.0675E+06     36.3808E+06    -18.2596E+03    -105.235E-03     211.235E-03    -106.000E-03     43.8432E-03    -105.533E-03     211.209E-03    -105.729E-03     42.8403E-03
            1781     9.71574E-03     42.1051E-03    -42.0816E+06    -47.0873E+06     28.6950E+06     301.855E+03    -105.368E-03     211.430E-03    -106.061E-03     44.0412E-03    -105.643E-03     211.304E-03    -105.789E-03     43.1135E-03
            1782     8.90565E-03     42.0571E-03    -48.2252E+06    -64.7655E+06     20.9929E+06     242.816E+03    -105.503E-03     211.621E-03    -106.118E-03     43.6033E-03    -105.762E-03     211.418E-03    -105.849E-03     42.7451E-03
            1783     8.09554E-03     42.0095E-03    -54.5770E+06    -82.6376E+06     12.4585E+06     254.423E+03    -105.610E-03     211.780E-03    -106.170E-03     42.4871E-03    -105.853E-03     211.500E-03    -105.909E-03     41.6991E-03
            1784     7.28560E-03     41.9639E-03    -61.6091E+06    -99.9559E+06     2.93992E+06     164.795E+03    -105.691E-03     211.909E-03    -106.218E-03     40.7758E-03    -105.920E-03     211.556E-03    -105.969E-03     40.0572E-03
            1785     6.47559E-03     41.9201E-03    -69.0915E+06    -117.359E+06    -7.78576E+06     133.312E+03    -105.792E-03     212.053E-03    -106.261E-03     38.4734E-03    -106.007E-03     211.629E-03    -106.029E-03     37.8258E-03
            1786     5.66594E-03     41.8792E-03    -76.9825E+06    -135.245E+06    -20.1952E+06     219.131E+03    -105.877E-03     212.170E-03    -106.293E-03     35.5328E-03    -106.078E-03     211.677E-03    -106.087E-03     34.9595E-03
            1787     4.85615E-03     41.8419E-03    -85.2369E+06    -153.997E+06    -34.6073E+06     232.348E+03    -105.931E-03     212.248E-03    -106.317E-03     31.9967E-03    -106.116E-03     211.684E-03    -106.143E-03     31.4992E-03
            1788     4.04660E-03     41.8088E-03    -93.5034E+06    -173.758E+06    -50.9566E+06     138.181E+03    -106.004E-03     212.334E-03    -106.330E-03     27.8188E-03    -106.170E-03     211.698E-03    -106.197E-03     27.3984E-03
            1789     3.23710E-03     41.7807E-03    -101.873E+06    -194.179E+06    -69.3134E+06     101.139E+03    -106.085E-03     212.414E-03    -106.329E-03     23.1081E-03    -106.228E-03     211.707E-03    -106.246E-03     22.7678E-03
            1790     2.42777E-03     41.7579E-03    -109.774E+06    -214.316E+06    -88.1917E+06    -47.8152E+03    -106.138E-03     212.458E-03    -106.320E-03     17.9300E-03    -106.257E-03     211.683E-03    -106.291E-03     17.6699E-03
            1791     1.61838E-03     41.7414E-03    -116.100E+06    -231.775E+06    -105.205E+06     82.8950E+03    -106.190E-03     212.507E-03    -106.317E-03     12.3673E-03    -106.286E-03     211.674E-03    -106.339E-03     12.1916E-03
            1792     808.987E-06     41.7307E-03    -120.311E+06    -245.197E+06    -117.412E+06     241.017E+03    -106.288E-03     212.611E-03    -106.323E-03     6.86499E-03    -106.365E-03     211.731E-03    -106.380E-03     6.77087E-03
            1793     15.3904E-03     41.2058E-03    -4.86895E+06     114.971E+06     95.2306E+06     152.057E+03    -104.072E-03     209.814E-03    -105.742E-03     11.8647E-03    -104.465E-03     210.321E-03    -105.425E-03     10.7467E-03
            1794     14.5786E-03     41.1851E-03    -10.5204E+06     112.336E+06     78.8852E+06     87.3094E+03    -104.242E-03     209.967E-03    -105.726E-03     23.6361E-03    -104.673E-03     210.531E-03    -105.479E-03     22.3181E-03
            1795     13.7670E-03     41.1569E-03    -14.4942E+06     104.447E+06     70.3569E+06     304.297E+03    -104.424E-03     210.179E-03    -105.755E-03     31.1674E-03    -104.860E-03     210.730E-03    -105.534E-03     29.9163E-03
            1796     12.9570E-03     41.1192E-03    -19.1730E+06     69.2120E+06     62.4142E+06    -305.711E+03    -104.663E-03     210.493E-03    -105.831E-03     37.1161E-03    -105.065E-03     210.892E-03    -105.591E-03     35.9011E-03
            1797     12.1464E-03     41.0762E-03    -25.1369E+06     23.5763E+06     50.5212E+06    -223.998E+03    -104.972E-03     210.875E-03    -105.902E-03     40.7363E-03    -105.320E-03     211.070E-03    -105.647E-03     39.5817E-03
            1798     11.3362E-03     41.0305E-03    -30.6693E+06    -2.92383E+06     44.0229E+06     164.476E+03    -105.103E-03     211.076E-03    -105.973E-03     42.9640E-03    -105.424E-03     211.150E-03    -105.704E-03     41.8878E-03
            1799     10.5257E-03     40.9827E-03    -36.5323E+06    -25.8475E+06     36.1145E+06     13.6495E+03    -105.218E-03     211.254E-03    -106.037E-03     43.9606E-03    -105.515E-03     211.226E-03    -105.766E-03     42.9574E-03
            1800     9.71548E-03     40.9344E-03    -42.3152E+06    -46.9079E+06     28.6486E+06     175.338E+03    -105.374E-03     211.475E-03    -106.102E-03     44.1275E-03    -105.650E-03     211.351E-03    -105.829E-03     43.1974E-03
            1801     8.90520E-03     40.8860E-03    -48.3211E+06    -64.7586E+06     20.9265E+06     188.586E+03    -105.499E-03     211.660E-03    -106.162E-03     43.6527E-03    -105.758E-03     211.457E-03    -105.893E-03     42.7928E-03
            1802     8.09516E-03     40.8386E-03    -54.9362E+06    -82.5412E+06     12.3283E+06     167.108E+03    -105.600E-03     211.819E-03    -106.219E-03     42.5626E-03    -105.844E-03     211.539E-03    -105.958E-03     41.7727E-03
            1803     7.28507E-03     40.7926E-03    -61.7123E+06    -99.7969E+06     2.89845E+06     201.757E+03    -105.734E-03     212.005E-03    -106.271E-03     40.8705E-03    -105.964E-03     211.653E-03    -106.022E-03     40.1513E-03
            1804     6.47537E-03     40.7487E-03    -69.1279E+06    -117.295E+06    -7.94506E+06     177.010E+03    -105.832E-03     212.146E-03    -106.314E-03     38.5667E-03    -106.048E-03     211.724E-03    -106.084E-03     37.9184E-03
            1805     5.66548E-03     40.7078E-03    -77.0754E+06    -135.258E+06    -20.4242E+06     119.660E+03    -105.899E-03     212.249E-03    -106.351E-03     35.6327E-03    -106.100E-03     211.756E-03    -106.145E-03     35.0568E-03
            1806     4.85590E-03     40.6704E-03    -85.1503E+06    -153.827E+06    -34.6094E+06     90.9694E+03    -105.983E-03     212.361E-03    -106.378E-03     32.0472E-03    -106.169E-03     211.799E-03    -106.205E-03     31.5466E-03
            1807     4.04630E-03     40.6371E-03    -93.7016E+06    -173.727E+06    -51.0081E+06     136.422E+03    -106.059E-03     212.452E-03    -106.394E-03     27.8432E-03    -106.225E-03     211.818E-03    -106.261E-03     27.4219E-03
            1808     3.23691E-03     40.6089E-03    -102.118E+06    -193.959E+06    -69.3064E+06     161.719E+03    -106.125E-03     212.521E-03    -106.397E-03     23.1052E-03    -106.269E-03     211.816E-03    -106.314E-03     22.7652E-03
            1809     2.42747E-03     40.5862E-03    -109.812E+06    -214.109E+06    -88.2089E+06     137.865E+03    -106.225E-03     212.612E-03    -106.388E-03     17.8855E-03    -106.345E-03     211.838E-03    -106.359E-03     17.6275E-03
            1810     1.61828E-03     40.5694E-03    -116.341E+06    -231.967E+06    -105.180E+06     54.3380E+03    -106.329E-03     212.686E-03    -106.357E-03     12.2681E-03    -106.426E-03     211.852E-03    -106.378E-03     12.0920E-03
            1811     809.346E-06     40.5587E-03    -120.541E+06    -244.846E+06    -117.476E+06     289.635E+03    -106.412E-03     212.635E-03    -106.223E-03     6.76858E-03    -106.491E-03     211.757E-03    -106.280E-03     6.67798E-03
            1812     15.3876E-03     40.0361E-03    -5.39434E+06     114.966E+06     95.2534E+06     280.844E+03    -103.975E-03     209.735E-03    -105.759E-03     12.1115E-03    -104.371E-03     210.243E-03    -105.442E-03     10.9903E-03
            1813     14.5773E-03     40.0150E-03    -10.2742E+06     112.321E+06     78.7395E+06    -41.1180E+03    -104.251E-03     209.995E-03    -105.744E-03     23.3899E-03    -104.681E-03     210.560E-03    -105.499E-03     22.0609E-03
            1814     13.7676E-03     39.9861E-03    -15.5834E+06     104.588E+06     69.6084E+06    -411.367E+03    -104.458E-03     210.230E-03    -105.772E-03     30.6188E-03    -104.897E-03     210.783E-03    -105.553E-03     29.3555E-03
            1815     12.9568E-03     39.9485E-03    -20.8301E+06     69.5026E+06     62.0802E+06     96.6549E+03    -104.653E-03     210.502E-03    -105.850E-03     36.9537E-03    -105.063E-03     210.905E-03    -105.610E-03     35.7467E-03
            1816     12.1463E-03     39.9059E-03    -25.5281E+06     23.2642E+06     50.3852E+06     100.831E+03    -104.856E-03     210.783E-03    -105.927E-03     40.7834E-03    -105.205E-03     210.978E-03    -105.671E-03     39.6338E-03
            1817     11.3356E-03     39.8598E-03    -30.7030E+06    -3.13937E+06     43.9628E+06     229.496E+03    -105.046E-03     211.051E-03    -106.005E-03     42.9494E-03    -105.367E-03     211.124E-03    -105.736E-03     41.8743E-03
            1818     10.5254E-03     39.8121E-03    -36.1234E+06    -25.7606E+06     36.2820E+06     386.183E+03    -105.246E-03     211.318E-03    -106.072E-03     44.0192E-03    -105.542E-03     211.289E-03    -105.801E-03     43.0196E-03
            1819     9.71502E-03     39.7635E-03    -42.1242E+06    -46.9276E+06     28.6936E+06     182.199E+03    -105.398E-03     211.536E-03    -106.138E-03     44.2100E-03    -105.673E-03     211.412E-03    -105.866E-03     43.2792E-03
            1820     8.90495E-03     39.7151E-03    -48.3063E+06    -64.5608E+06     20.8619E+06     212.964E+03    -105.496E-03     211.696E-03    -106.200E-03     43.7159E-03    -105.756E-03     211.495E-03    -105.932E-03     42.8564E-03
            1821     8.09473E-03     39.6676E-03    -54.6717E+06    -82.5008E+06     12.3297E+06     172.443E+03    -105.634E-03     211.894E-03    -106.260E-03     42.6231E-03    -105.877E-03     211.615E-03    -106.000E-03     41.8328E-03
            1822     7.28487E-03     39.6212E-03    -61.7204E+06    -99.8108E+06     2.81148E+06     205.016E+03    -105.754E-03     212.068E-03    -106.314E-03     40.9022E-03    -105.983E-03     211.716E-03    -106.066E-03     40.1822E-03
            1823     6.47491E-03     39.5774E-03    -69.1815E+06    -117.108E+06    -8.02344E+06     199.277E+03    -105.846E-03     212.207E-03    -106.361E-03     38.5772E-03    -106.062E-03     211.785E-03    -106.131E-03     37.9284E-03
            1824     5.66524E-03     39.5363E-03    -76.8987E+06    -135.036E+06    -20.3548E+06     73.8706E+03    -105.949E-03     212.349E-03    -106.400E-03     35.6468E-03    -106.150E-03     211.857E-03    -106.194E-03     35.0700E-03
            1825     4.85559E-03     39.4986E-03    -85.2931E+06    -153.913E+06    -34.6296E+06     57.5178E+03    -106.031E-03     212.458E-03    -106.428E-03     32.0438E-03    -106.216E-03     211.895E-03    -106.254E-03     31.5425E-03
            1826     4.04617E-03     39.4654E-03    -93.8747E+06    -173.653E+06    -51.0740E+06     125.315E+03    -106.092E-03     212.537E-03    -106.444E-03     27.8686E-03    -106.260E-03     211.903E-03    -106.312E-03     27.4468E-03
            1827     3.23669E-03     39.4370E-03    -102.211E+06    -193.904E+06    -69.3962E+06     103.522E+03    -106.201E-03     212.647E-03    -106.446E-03     23.1417E-03    -106.346E-03     211.942E-03    -106.364E-03     22.8004E-03
            1828     2.42748E-03     39.4143E-03    -109.872E+06    -213.940E+06    -88.1278E+06     103.986E+03    -106.317E-03     212.742E-03    -106.425E-03     17.8948E-03    -106.438E-03     211.969E-03    -106.396E-03     17.6367E-03
            1829     1.61840E-03     39.3971E-03    -116.156E+06    -231.813E+06    -105.145E+06     187.317E+03    -106.366E-03     212.747E-03    -106.381E-03     12.2929E-03    -106.462E-03     211.913E-03    -106.403E-03     12.1206E-03
            1830     809.101E-06     39.3871E-03    -120.182E+06    -244.636E+06    -117.494E+06     3.17447E+03    -106.417E-03     212.680E-03    -106.263E-03     6.79982E-03    -106.495E-03     211.803E-03    -106.321E-03     6.70322E-03
            1831     15.3893E-03     38.8649E-03    -5.00814E+06     115.073E+06     95.5088E+06    -503.778E+03    -103.971E-03     209.718E-03    -105.746E-03     10.9613E-03    -104.364E-03     210.224E-03    -105.428E-03     9.83318E-03
            1832     14.5787E-03     38.8448E-03    -10.0597E+06     111.972E+06     78.5531E+06     255.060E+03    -103.952E-03     209.690E-03    -105.738E-03     23.1163E-03    -104.379E-03     210.250E-03    -105.493E-03     21.8032E-03
            1833     13.7672E-03     38.8155E-03    -15.0473E+06     104.622E+06     69.6767E+06     663.667E+03    -104.260E-03     210.040E-03    -105.780E-03     31.0235E-03    -104.697E-03     210.593E-03    -105.562E-03     29.7823E-03
            1834     12.9566E-03     38.7785E-03    -20.4356E+06     69.6813E+06     62.1740E+06    -82.5585E+03    -104.580E-03     210.448E-03    -105.868E-03     37.0873E-03    -104.989E-03     210.851E-03    -105.628E-03     35.8794E-03
            1835     12.1458E-03     38.7353E-03    -25.6241E+06     22.9522E+06     50.1163E+06     28.4647E+03    -104.846E-03     210.795E-03    -105.948E-03     40.8201E-03    -105.195E-03     210.989E-03    -105.694E-03     39.6716E-03
            1836     11.3355E-03     38.6894E-03    -30.8652E+06    -3.43378E+06     43.6533E+06     351.004E+03    -105.045E-03     211.074E-03    -106.029E-03     42.9664E-03    -105.366E-03     211.146E-03    -105.761E-03     41.8931E-03
            1837     10.5249E-03     38.6413E-03    -36.4361E+06    -25.6840E+06     36.0247E+06     303.804E+03    -105.235E-03     211.333E-03    -106.098E-03     44.0090E-03    -105.533E-03     211.306E-03    -105.828E-03     43.0077E-03
            1838     9.71483E-03     38.5926E-03    -41.9435E+06    -46.7187E+06     28.7350E+06     343.761E+03    -105.378E-03     211.547E-03    -106.168E-03     44.1855E-03    -105.653E-03     211.423E-03    -105.896E-03     43.2563E-03
            1839     8.90448E-03     38.5442E-03    -48.0535E+06    -64.3944E+06     20.9434E+06     230.183E+03    -105.533E-03     211.766E-03    -106.232E-03     43.7665E-03    -105.792E-03     211.565E-03    -105.964E-03     42.9062E-03
            1840     8.09458E-03     38.4962E-03    -54.7784E+06    -82.4781E+06     12.3034E+06     251.423E+03    -105.677E-03     211.969E-03    -106.292E-03     42.6731E-03    -105.921E-03     211.690E-03    -106.031E-03     41.8825E-03
            1841     7.28458E-03     38.4500E-03    -61.7637E+06    -99.5947E+06     2.82177E+06     266.321E+03    -105.766E-03     212.112E-03    -106.346E-03     40.9292E-03    -105.996E-03     211.761E-03    -106.098E-03     40.2095E-03
            1842     6.47477E-03     38.4059E-03    -68.9302E+06    -116.881E+06    -7.84908E+06     79.6558E+03    -105.875E-03     212.270E-03    -106.395E-03     38.6276E-03    -106.091E-03     211.849E-03    -106.164E-03     37.9770E-03
            1843     5.66506E-03     38.3645E-03    -76.8468E+06    -135.008E+06    -20.1623E+06     115.328E+03    -105.973E-03     212.408E-03    -106.435E-03     35.6828E-03    -106.175E-03     211.916E-03    -106.229E-03     35.1059E-03
            1844     4.85551E-03     38.3269E-03    -85.2339E+06    -153.811E+06    -34.5510E+06     112.573E+03    -106.039E-03     212.505E-03    -106.466E-03     32.1082E-03    -106.225E-03     211.942E-03    -106.292E-03     31.6071E-03
            1845     4.04592E-03     38.2934E-03    -93.8745E+06    -173.678E+06    -51.1783E+06     22.2733E+03    -106.144E-03     212.628E-03    -106.483E-03     27.9324E-03    -106.312E-03     211.994E-03    -106.351E-03     27.5084E-03
            1846     3.23659E-03     38.2651E-03    -102.176E+06    -193.809E+06    -69.3664E+06     142.704E+03    -106.260E-03     212.741E-03    -106.481E-03     23.2158E-03    -106.405E-03     212.037E-03    -106.399E-03     22.8748E-03
            1847     2.42743E-03     38.2418E-03    -109.705E+06    -213.883E+06    -88.2133E+06     130.668E+03    -106.310E-03     212.775E-03    -106.465E-03     17.9575E-03    -106.430E-03     212.002E-03    -106.437E-03     17.6990E-03
            1848     1.61813E-03     38.2255E-03    -116.077E+06    -231.624E+06    -105.213E+06     27.0874E+03    -106.351E-03     212.803E-03    -106.451E-03     12.4095E-03    -106.448E-03     211.970E-03    -106.473E-03     12.2325E-03
            1849     809.145E-06     38.2144E-03    -120.350E+06    -244.356E+06    -117.188E+06     37.9588E+03    -106.438E-03     212.863E-03    -106.425E-03     6.68470E-03    -106.517E-03     211.988E-03    -106.483E-03     6.58838E-03
            1850     15.3901E-03     37.6965E-03    -5.17102E+06     114.759E+06     95.0876E+06    -139.944E+03    -103.775E-03     209.520E-03    -105.745E-03     12.1220E-03    -104.169E-03     210.027E-03    -105.428E-03     11.0042E-03
            1851     14.5775E-03     37.6752E-03    -10.4488E+06     111.815E+06     78.7555E+06     149.119E+03    -103.786E-03     209.536E-03    -105.750E-03     24.4066E-03    -104.217E-03     210.099E-03    -105.503E-03     23.0958E-03
            1852     13.7669E-03     37.6455E-03    -15.4042E+06     105.073E+06     69.9962E+06     116.915E+03    -104.231E-03     210.030E-03    -105.799E-03     31.3391E-03    -104.672E-03     210.586E-03    -105.579E-03     30.0892E-03
            1853     12.9561E-03     37.6076E-03    -20.3236E+06     69.8212E+06     61.8777E+06     410.181E+03    -104.602E-03     210.486E-03    -105.884E-03     36.9534E-03    -105.010E-03     210.890E-03    -105.646E-03     35.7511E-03
            1854     12.1458E-03     37.5651E-03    -26.0423E+06     22.8567E+06     49.7820E+06     413.803E+03    -104.882E-03     210.846E-03    -105.965E-03     40.7723E-03    -105.232E-03     211.041E-03    -105.711E-03     39.6282E-03
            1855     11.3351E-03     37.5186E-03    -31.4271E+06    -3.32939E+06     43.3495E+06     143.283E+03    -105.080E-03     211.124E-03    -106.043E-03     42.9856E-03    -105.404E-03     211.199E-03    -105.776E-03     41.9083E-03
            1856     10.5250E-03     37.4706E-03    -36.5042E+06    -25.5973E+06     36.0068E+06     165.619E+03    -105.214E-03     211.329E-03    -106.114E-03     43.9894E-03    -105.513E-03     211.302E-03    -105.844E-03     42.9847E-03
            1857     9.71447E-03     37.4219E-03    -42.2179E+06    -46.7125E+06     28.6251E+06     138.461E+03    -105.370E-03     211.557E-03    -106.187E-03     44.2160E-03    -105.646E-03     211.434E-03    -105.915E-03     43.2832E-03
            1858     8.90446E-03     37.3731E-03    -48.2659E+06    -64.3989E+06     20.9608E+06     239.966E+03    -105.551E-03     211.804E-03    -106.252E-03     43.7942E-03    -105.811E-03     211.603E-03    -105.984E-03     42.9325E-03
            1859     8.09435E-03     37.3250E-03    -54.6585E+06    -82.2507E+06     12.4009E+06     241.473E+03    -105.672E-03     211.985E-03    -106.313E-03     42.6961E-03    -105.916E-03     211.707E-03    -106.053E-03     41.9041E-03
            1860     7.28443E-03     37.2787E-03    -61.4590E+06    -99.3845E+06     2.97521E+06     24.0761E+03    -105.793E-03     212.162E-03    -106.369E-03     41.0109E-03    -106.023E-03     211.812E-03    -106.121E-03     40.2865E-03
            1861     6.47462E-03     37.2343E-03    -68.9836E+06    -116.908E+06    -7.71843E+06     184.428E+03    -105.898E-03     212.316E-03    -106.418E-03     38.7077E-03    -106.115E-03     211.895E-03    -106.187E-03     38.0569E-03
            1862     5.66491E-03     37.1929E-03    -76.9639E+06    -134.980E+06    -20.1799E+06     260.133E+03    -105.971E-03     212.431E-03    -106.460E-03     35.7397E-03    -106.173E-03     211.939E-03    -106.253E-03     35.1631E-03
            1863     4.85524E-03     37.1550E-03    -85.2723E+06    -153.618E+06    -34.6296E+06     230.088E+03    -106.076E-03     212.567E-03    -106.491E-03     32.1357E-03    -106.263E-03     212.006E-03    -106.317E-03     31.6350E-03
            1864     4.04583E-03     37.1216E-03    -93.6520E+06    -173.442E+06    -51.2176E+06     155.494E+03    -106.188E-03     212.693E-03    -106.505E-03     27.9542E-03    -106.354E-03     212.060E-03    -106.374E-03     27.5316E-03
            1865     3.23660E-03     37.0927E-03    -102.039E+06    -193.908E+06    -69.4996E+06     7.31917E+03    -106.230E-03     212.739E-03    -106.509E-03     23.2251E-03    -106.375E-03     212.034E-03    -106.427E-03     22.8814E-03
            1866     2.42719E-03     37.0701E-03    -109.780E+06    -213.789E+06    -88.1390E+06     84.3280E+03    -106.275E-03     212.790E-03    -106.515E-03     17.9865E-03    -106.396E-03     212.018E-03    -106.486E-03     17.7268E-03
            1867     1.61808E-03     37.0529E-03    -116.070E+06    -231.436E+06    -105.062E+06     118.380E+03    -106.370E-03     212.900E-03    -106.530E-03     12.4268E-03    -106.467E-03     212.068E-03    -106.551E-03     12.2516E-03
            1868     808.871E-06     37.0427E-03    -120.315E+06    -244.197E+06    -117.384E+06    -149.381E+03    -106.562E-03     213.049E-03    -106.487E-03     6.80102E-03    -106.641E-03     212.174E-03    -106.545E-03     6.70080E-03
            1869     15.3869E-03     36.5259E-03    -5.44061E+06     115.149E+06     95.4917E+06     197.236E+03    -103.766E-03     209.546E-03    -105.780E-03     12.0612E-03    -104.163E-03     210.056E-03    -105.462E-03     10.9355E-03
            1870     14.5778E-03     36.5055E-03    -10.8031E+06     111.729E+06     78.5747E+06    -292.113E+03    -104.294E-03     210.065E-03    -105.771E-03     23.9588E-03    -104.727E-03     210.628E-03    -105.524E-03     22.6249E-03
            1871     13.7668E-03     36.4747E-03    -16.1873E+06     104.356E+06     69.3806E+06     171.821E+03    -104.298E-03     210.102E-03    -105.803E-03     31.1249E-03    -104.741E-03     210.656E-03    -105.584E-03     29.8724E-03
            1872     12.9563E-03     36.4376E-03    -21.6569E+06     70.0846E+06     61.8172E+06     552.612E+03    -104.531E-03     210.422E-03    -105.891E-03     36.8396E-03    -104.945E-03     210.829E-03    -105.652E-03     35.6408E-03
            1873     12.1454E-03     36.3943E-03    -26.2048E+06     23.2656E+06     49.8990E+06     100.547E+03    -104.901E-03     210.873E-03    -105.972E-03     40.7277E-03    -105.253E-03     211.069E-03    -105.718E-03     39.5787E-03
            1874     11.3354E-03     36.3481E-03    -30.8949E+06    -3.26258E+06     43.7414E+06    -84.5608E+03    -105.060E-03     211.112E-03    -106.052E-03     42.9365E-03    -105.382E-03     211.186E-03    -105.784E-03     41.8553E-03
            1875     10.5246E-03     36.2999E-03    -36.3382E+06    -25.6612E+06     36.0311E+06    -29.2323E+03    -105.206E-03     211.329E-03    -106.124E-03     44.0506E-03    -105.503E-03     211.302E-03    -105.854E-03     43.0424E-03
            1876     9.71458E-03     36.2511E-03    -42.0816E+06    -46.8283E+06     28.6187E+06     126.980E+03    -105.400E-03     211.596E-03    -106.196E-03     44.3231E-03    -105.676E-03     211.473E-03    -105.924E-03     43.3881E-03
            1877     8.90430E-03     36.2019E-03    -48.1615E+06    -64.3171E+06     20.9479E+06     173.045E+03    -105.523E-03     211.786E-03    -106.263E-03     43.8847E-03    -105.783E-03     211.586E-03    -105.995E-03     43.0203E-03
            1878     8.09428E-03     36.1540E-03    -54.5292E+06    -82.0713E+06     12.4155E+06     44.0463E+03    -105.664E-03     211.991E-03    -106.326E-03     42.8156E-03    -105.908E-03     211.714E-03    -106.066E-03     42.0194E-03
            1879     7.28431E-03     36.1071E-03    -61.6945E+06    -99.5236E+06     2.85135E+06     187.932E+03    -105.810E-03     212.194E-03    -106.383E-03     41.1128E-03    -106.041E-03     211.844E-03    -106.135E-03     40.3886E-03
            1880     6.47454E-03     36.0628E-03    -69.2145E+06    -116.999E+06    -7.94865E+06     302.534E+03    -105.909E-03     212.341E-03    -106.432E-03     38.7619E-03    -106.126E-03     211.920E-03    -106.202E-03     38.1108E-03
            1881     5.66482E-03     36.0211E-03    -77.0132E+06    -134.769E+06    -20.3772E+06     238.302E+03    -106.006E-03     212.479E-03    -106.472E-03     35.7977E-03    -106.209E-03     211.989E-03    -106.267E-03     35.2197E-03
            1882     4.85531E-03     35.9833E-03    -85.0841E+06    -153.478E+06    -34.5681E+06     131.353E+03    -106.107E-03     212.608E-03    -106.501E-03     32.2168E-03    -106.292E-03     212.047E-03    -106.328E-03     31.7139E-03
            1883     4.04593E-03     35.9493E-03    -93.5416E+06    -173.325E+06    -51.0169E+06     172.859E+03    -106.165E-03     212.684E-03    -106.519E-03     28.0389E-03    -106.332E-03     212.051E-03    -106.387E-03     27.6155E-03
            1884     3.23640E-03     35.9210E-03    -101.978E+06    -193.706E+06    -69.4432E+06     155.684E+03    -106.218E-03     212.748E-03    -106.530E-03     23.2485E-03    -106.362E-03     212.044E-03    -106.448E-03     22.9061E-03
            1885     2.42720E-03     35.8977E-03    -109.669E+06    -213.767E+06    -88.1262E+06     20.4931E+03    -106.307E-03     212.845E-03    -106.539E-03     17.9924E-03    -106.427E-03     212.073E-03    -106.510E-03     17.7321E-03
            1886     1.61795E-03     35.8809E-03    -115.983E+06    -231.276E+06    -104.934E+06     68.4838E+03    -106.422E-03     212.966E-03    -106.544E-03     12.3811E-03    -106.519E-03     212.134E-03    -106.565E-03     12.2053E-03
            1887     808.969E-06     35.8699E-03    -120.151E+06    -244.022E+06    -117.235E+06     72.5479E+03    -106.524E-03     213.057E-03    -106.534E-03     6.84660E-03    -106.602E-03     212.183E-03    -106.592E-03     6.74960E-03
            1888     15.3891E-03     35.3554E-03    -5.28048E+06     115.122E+06     94.8893E+06     155.164E+03    -103.853E-03     209.617E-03    -105.764E-03     11.5217E-03    -104.246E-03     210.126E-03    -105.449E-03     10.4060E-03
            1889     14.5776E-03     35.3344E-03    -10.3764E+06     112.031E+06     78.3798E+06     602.090E+03    -104.140E-03     209.897E-03    -105.757E-03     23.3880E-03    -104.568E-03     210.459E-03    -105.513E-03     22.0797E-03
            1890     13.7673E-03     35.3050E-03    -14.9908E+06     103.638E+06     69.5863E+06     199.139E+03    -104.252E-03     210.050E-03    -105.797E-03     31.0816E-03    -104.688E-03     210.598E-03    -105.578E-03     29.8326E-03
            1891     12.9560E-03     35.2671E-03    -19.3761E+06     70.1495E+06     62.4874E+06     174.641E+03    -104.526E-03     210.413E-03    -105.886E-03     36.9896E-03    -104.931E-03     210.816E-03    -105.648E-03     35.7842E-03
            1892     12.1459E-03     35.2238E-03    -24.6690E+06     24.0142E+06     50.6109E+06     215.921E+03    -104.832E-03     210.803E-03    -105.971E-03     40.6996E-03    -105.178E-03     211.000E-03    -105.717E-03     39.5532E-03
            1893     11.3350E-03     35.1774E-03    -30.4275E+06    -3.45681E+06     43.7550E+06     110.223E+03    -104.994E-03     211.050E-03    -106.055E-03     43.0251E-03    -105.314E-03     211.122E-03    -105.788E-03     41.9460E-03
            1894     10.5248E-03     35.1293E-03    -36.1705E+06    -25.4948E+06     36.0592E+06     165.117E+03    -105.219E-03     211.349E-03    -106.129E-03     44.2137E-03    -105.516E-03     211.322E-03    -105.860E-03     43.2069E-03
            1895     9.71441E-03     35.0798E-03    -42.0141E+06    -46.8705E+06     28.5158E+06     105.000E+03    -105.385E-03     211.588E-03    -106.203E-03     44.4748E-03    -105.661E-03     211.465E-03    -105.931E-03     43.5373E-03
            1896     8.90430E-03     35.0312E-03    -48.0277E+06    -64.2010E+06     20.9644E+06     163.338E+03    -105.526E-03     211.798E-03    -106.271E-03     44.0471E-03    -105.787E-03     211.599E-03    -106.004E-03     43.1801E-03
            1897     8.09414E-03     34.9825E-03    -54.8090E+06    -82.1724E+06     12.2397E+06     268.208E+03    -105.679E-03     212.014E-03    -106.335E-03     42.9661E-03    -105.925E-03     211.738E-03    -106.075E-03     42.1700E-03
            1898     7.28429E-03     34.9359E-03    -61.7778E+06    -99.5314E+06     2.70527E+06     313.466E+03    -105.800E-03     212.193E-03    -106.393E-03     41.2408E-03    -106.031E-03     211.844E-03    -106.146E-03     40.5159E-03
            1899     6.47445E-03     34.8910E-03    -69.0743E+06    -116.847E+06    -8.03142E+06     158.744E+03    -105.923E-03     212.366E-03    -106.443E-03     38.9275E-03    -106.140E-03     211.946E-03    -106.214E-03     38.2724E-03
            1900     5.66481E-03     34.8495E-03    -76.7224E+06    -134.555E+06    -20.1572E+06     60.4949E+03    -106.040E-03     212.523E-03    -106.483E-03     35.9752E-03    -106.242E-03     212.033E-03    -106.278E-03     35.3928E-03
            1901     4.85526E-03     34.8111E-03    -85.1917E+06    -153.488E+06    -34.5961E+06     117.102E+03    -106.103E-03     212.615E-03    -106.512E-03     32.3614E-03    -106.289E-03     212.054E-03    -106.339E-03     31.8561E-03
            1902     4.04567E-03     34.7777E-03    -93.7608E+06    -173.338E+06    -51.1069E+06     201.397E+03    -106.172E-03     212.703E-03    -106.531E-03     28.1149E-03    -106.339E-03     212.071E-03    -106.400E-03     27.6901E-03
            1903     3.23646E-03     34.7486E-03    -101.856E+06    -193.380E+06    -69.3169E+06     175.685E+03    -106.273E-03     212.810E-03    -106.537E-03     23.2683E-03    -106.417E-03     212.107E-03    -106.455E-03     22.9254E-03
            1904     2.42718E-03     34.7258E-03    -109.544E+06    -213.608E+06    -88.1505E+06     120.517E+03    -106.376E-03     212.902E-03    -106.526E-03     17.9947E-03    -106.496E-03     212.130E-03    -106.498E-03     17.7346E-03
            1905     1.61813E-03     34.7083E-03    -115.823E+06    -231.187E+06    -105.039E+06     10.5935E+03    -106.457E-03     212.954E-03    -106.497E-03     12.3938E-03    -106.553E-03     212.123E-03    -106.519E-03     12.2168E-03
            1906     809.145E-06     34.6978E-03    -120.005E+06    -243.942E+06    -116.925E+06    -23.2880E+03    -106.442E-03     212.926E-03    -106.484E-03     6.73916E-03    -106.520E-03     212.052E-03    -106.541E-03     6.64192E-03
            1907     15.3892E-03     34.1867E-03    -5.33341E+06     114.769E+06     94.7916E+06     58.2962E+03    -103.938E-03     209.680E-03    -105.742E-03     12.4192E-03    -104.333E-03     210.189E-03    -105.427E-03     11.2976E-03
            1908     14.5782E-03     34.1641E-03    -9.83192E+06     112.505E+06     78.8731E+06    -205.256E+03    -103.871E-03     209.611E-03    -105.740E-03     23.8395E-03    -104.300E-03     210.176E-03    -105.495E-03     22.5168E-03
            1909     13.7668E-03     34.1351E-03    -14.5092E+06     103.750E+06     69.4980E+06    -152.715E+03    -104.200E-03     209.986E-03    -105.786E-03     31.0895E-03    -104.633E-03     210.535E-03    -105.568E-03     29.8351E-03
            1910     12.9566E-03     34.0964E-03    -20.1890E+06     69.5236E+06     61.9053E+06     154.271E+03    -104.463E-03     210.342E-03    -105.879E-03     37.0604E-03    -104.870E-03     210.745E-03    -105.641E-03     35.8553E-03
            1911     12.1456E-03     34.0536E-03    -25.5336E+06     24.6266E+06     50.5030E+06     773.740E+03    -104.698E-03     210.668E-03    -105.970E-03     40.8616E-03    -105.049E-03     210.870E-03    -105.716E-03     39.7229E-03
            1912     11.3351E-03     34.0071E-03    -30.7886E+06    -3.13554E+06     43.6074E+06     450.290E+03    -104.975E-03     211.035E-03    -106.060E-03     43.2447E-03    -105.297E-03     211.110E-03    -105.793E-03     42.1693E-03
            1913     10.5246E-03     33.9582E-03    -36.3062E+06    -25.3674E+06     36.0553E+06     299.299E+03    -105.196E-03     211.333E-03    -106.137E-03     44.4062E-03    -105.495E-03     211.308E-03    -105.867E-03     43.3983E-03
            1914     9.71439E-03     33.9094E-03    -42.1006E+06    -46.5383E+06     28.4855E+06     312.424E+03    -105.377E-03     211.589E-03    -106.212E-03     44.6442E-03    -105.654E-03     211.469E-03    -105.941E-03     43.7064E-03
            1915     8.90409E-03     33.8597E-03    -48.4520E+06    -64.5330E+06     20.6543E+06     193.849E+03    -105.549E-03     211.830E-03    -106.281E-03     44.2409E-03    -105.811E-03     211.631E-03    -106.013E-03     43.3711E-03
            1916     8.09422E-03     33.8115E-03    -54.7569E+06    -82.0445E+06     12.2313E+06     335.570E+03    -105.691E-03     212.036E-03    -106.344E-03     43.1552E-03    -105.937E-03     211.761E-03    -106.085E-03     42.3568E-03
            1917     7.28416E-03     33.7642E-03    -61.5864E+06    -99.3337E+06     2.75004E+06     130.669E+03    -105.814E-03     212.216E-03    -106.402E-03     41.4134E-03    -106.045E-03     211.868E-03    -106.155E-03     40.6831E-03
            1918     6.47436E-03     33.7197E-03    -68.8996E+06    -116.584E+06    -7.76309E+06     44.0409E+03    -105.941E-03     212.394E-03    -106.453E-03     39.0563E-03    -106.159E-03     211.976E-03    -106.223E-03     38.3969E-03
            1919     5.66470E-03     33.6774E-03    -77.0205E+06    -134.689E+06    -20.2088E+06     170.293E+03    -106.036E-03     212.529E-03    -106.493E-03     36.0510E-03    -106.240E-03     212.040E-03    -106.287E-03     35.4674E-03
            1920     4.85513E-03     33.6396E-03    -85.2781E+06    -153.351E+06    -34.7412E+06     260.061E+03    -106.129E-03     212.649E-03    -106.520E-03     32.4031E-03    -106.316E-03     212.090E-03    -106.348E-03     31.8979E-03
            1921     4.04583E-03     33.6053E-03    -93.4735E+06    -173.150E+06    -51.1365E+06     89.8500E+03    -106.220E-03     212.754E-03    -106.534E-03     28.1556E-03    -106.387E-03     212.123E-03    -106.403E-03     27.7281E-03
            1922     3.23642E-03     33.5767E-03    -101.883E+06    -193.405E+06    -69.3193E+06     65.7790E+03    -106.313E-03     212.843E-03    -106.530E-03     23.3461E-03    -106.458E-03     212.141E-03    -106.449E-03     23.0003E-03
            1923     2.42730E-03     33.5532E-03    -109.499E+06    -213.367E+06    -88.0606E+06     61.8496E+03    -106.404E-03     212.909E-03    -106.506E-03     18.0819E-03    -106.524E-03     212.139E-03    -106.478E-03     17.8200E-03
            1924     1.61823E-03     33.5362E-03    -115.734E+06    -231.110E+06    -104.904E+06    -7.31760E+03    -106.423E-03     212.894E-03    -106.472E-03     12.4694E-03    -106.519E-03     212.063E-03    -106.493E-03     12.2920E-03
            1925     809.011E-06     33.5254E-03    -120.014E+06    -243.974E+06    -117.128E+06    -156.229E+03    -106.466E-03     212.879E-03    -106.413E-03     6.81946E-03    -106.544E-03     212.005E-03    -106.471E-03     6.71868E-03
            1926     15.3889E-03     33.0151E-03    -5.19901E+06     115.372E+06     94.7516E+06     47.9291E+03    -104.057E-03     209.808E-03    -105.751E-03     12.5167E-03    -104.454E-03     210.321E-03    -105.437E-03     11.3832E-03
            1927     14.5781E-03     32.9956E-03    -10.6192E+06     111.975E+06     78.2393E+06    -24.3531E+03    -104.132E-03     209.870E-03    -105.739E-03     24.1758E-03    -104.564E-03     210.436E-03    -105.494E-03     22.8474E-03
            1928     13.7676E-03     32.9638E-03    -16.5227E+06     103.595E+06     68.9268E+06     278.322E+03    -104.108E-03     209.890E-03    -105.782E-03     31.4623E-03    -104.551E-03     210.442E-03    -105.563E-03     30.2145E-03
            1929     12.9564E-03     32.9269E-03    -21.3307E+06     69.4157E+06     61.6516E+06     346.779E+03    -104.325E-03     210.206E-03    -105.881E-03     37.3517E-03    -104.738E-03     210.611E-03    -105.643E-03     36.1485E-03
            1930     12.1455E-03     32.8831E-03    -26.0544E+06     23.9756E+06     50.0398E+06     238.960E+03    -104.710E-03     210.686E-03    -105.976E-03     41.1603E-03    -105.064E-03     210.887E-03    -105.722E-03     40.0108E-03
            1931     11.3350E-03     32.8365E-03    -30.9965E+06    -2.29328E+06     43.6909E+06     602.363E+03    -104.969E-03     211.035E-03    -106.066E-03     43.4156E-03    -105.295E-03     211.116E-03    -105.799E-03     42.3390E-03
            1932     10.5246E-03     32.7878E-03    -36.5870E+06    -25.5084E+06     35.7391E+06     375.169E+03    -105.171E-03     211.315E-03    -106.144E-03     44.5602E-03    -105.471E-03     211.291E-03    -105.875E-03     43.5503E-03
            1933     9.71420E-03     32.7381E-03    -42.3711E+06    -46.4119E+06     28.4626E+06     342.714E+03    -105.374E-03     211.597E-03    -106.222E-03     44.8268E-03    -105.654E-03     211.478E-03    -105.951E-03     43.8860E-03
            1934     8.90416E-03     32.6889E-03    -48.2840E+06    -64.1914E+06     20.8033E+06     290.545E+03    -105.556E-03     211.848E-03    -106.292E-03     44.4462E-03    -105.819E-03     211.651E-03    -106.025E-03     43.5741E-03
            1935     8.09392E-03     32.6399E-03    -54.8337E+06    -82.0744E+06     12.2067E+06    -14.5360E+03    -105.720E-03     212.075E-03    -106.356E-03     43.3209E-03    -105.967E-03     211.801E-03    -106.096E-03     42.5144E-03
            1936     7.28413E-03     32.5930E-03    -61.5008E+06    -99.0251E+06     2.97681E+06     65.7816E+03    -105.871E-03     212.281E-03    -106.411E-03     41.5536E-03    -106.103E-03     211.935E-03    -106.163E-03     40.8190E-03
            1937     6.47442E-03     32.5476E-03    -69.1118E+06    -116.782E+06    -7.90849E+06     165.940E+03    -105.970E-03     212.427E-03    -106.457E-03     39.1541E-03    -106.189E-03     212.008E-03    -106.227E-03     38.4933E-03
            1938     5.66472E-03     32.5060E-03    -76.9697E+06    -134.623E+06    -20.3616E+06     233.845E+03    -106.049E-03     212.542E-03    -106.494E-03     36.1197E-03    -106.252E-03     212.054E-03    -106.289E-03     35.5349E-03
            1939     4.85520E-03     32.4672E-03    -84.8727E+06    -153.163E+06    -34.5636E+06     53.0593E+03    -106.144E-03     212.665E-03    -106.520E-03     32.5024E-03    -106.330E-03     212.106E-03    -106.348E-03     31.9927E-03
            1940     4.04573E-03     32.4335E-03    -93.4284E+06    -173.062E+06    -50.9979E+06     63.2728E+03    -106.248E-03     212.779E-03    -106.530E-03     28.2482E-03    -106.415E-03     212.148E-03    -106.399E-03     27.8185E-03
            1941     3.23650E-03     32.4043E-03    -101.716E+06    -193.296E+06    -69.1122E+06     42.2170E+03    -106.328E-03     212.848E-03    -106.521E-03     23.4191E-03    -106.472E-03     212.146E-03    -106.439E-03     23.0718E-03
            1942     2.42729E-03     32.3811E-03    -109.345E+06    -213.290E+06    -87.9016E+06     39.7414E+03    -106.362E-03     212.861E-03    -106.499E-03     18.1040E-03    -106.481E-03     212.090E-03    -106.471E-03     17.8414E-03
            1943     1.61809E-03     32.3639E-03    -115.779E+06    -231.041E+06    -104.901E+06     52.3040E+03    -106.398E-03     212.876E-03    -106.478E-03     12.4673E-03    -106.494E-03     212.045E-03    -106.499E-03     12.2890E-03
            1944     809.094E-06     32.3533E-03    -119.981E+06    -243.952E+06    -117.005E+06     67.1904E+03    -106.395E-03     212.908E-03    -106.513E-03     6.86463E-03    -106.473E-03     212.033E-03    -106.570E-03     6.76734E-03
            1945     15.3883E-03     31.8461E-03    -5.36562E+06     114.671E+06     94.4522E+06     133.648E+03    -103.900E-03     209.651E-03    -105.751E-03     12.0432E-03    -104.295E-03     210.159E-03    -105.437E-03     10.9233E-03
            1946     14.5780E-03     31.8235E-03    -10.2494E+06     112.268E+06     78.4812E+06     495.789E+03    -104.002E-03     209.749E-03    -105.747E-03     24.0799E-03    -104.433E-03     210.315E-03    -105.503E-03     22.7636E-03
            1947     13.7671E-03     31.7953E-03    -14.4358E+06     103.937E+06     69.9161E+06     251.969E+03    -104.109E-03     209.905E-03    -105.796E-03     31.7260E-03    -104.545E-03     210.456E-03    -105.576E-03     30.4695E-03
            1948     12.9559E-03     31.7561E-03    -19.6231E+06     68.6848E+06     61.7711E+06     330.714E+03    -104.387E-03     210.280E-03    -105.893E-03     37.6524E-03    -104.793E-03     210.681E-03    -105.655E-03     36.4413E-03
            1949     12.1456E-03     31.7130E-03    -25.4556E+06     23.8041E+06     50.0934E+06     710.183E+03    -104.756E-03     210.741E-03    -105.986E-03     41.3379E-03    -105.107E-03     210.942E-03    -105.733E-03     40.1894E-03
            1950     11.3349E-03     31.6659E-03    -31.3061E+06    -2.13896E+06     43.5977E+06     658.566E+03    -104.977E-03     211.052E-03    -106.075E-03     43.6563E-03    -105.305E-03     211.135E-03    -105.809E-03     42.5765E-03
            1951     10.5245E-03     31.6170E-03    -36.6814E+06    -24.8340E+06     35.9369E+06     384.148E+03    -105.191E-03     211.345E-03    -106.154E-03     44.7491E-03    -105.494E-03     211.325E-03    -105.885E-03     43.7361E-03
            1952     9.71416E-03     31.5674E-03    -42.2008E+06    -46.5097E+06     28.5658E+06     60.5811E+03    -105.384E-03     211.616E-03    -106.232E-03     45.0203E-03    -105.664E-03     211.498E-03    -105.961E-03     44.0725E-03
            1953     8.90385E-03     31.5175E-03    -48.1431E+06    -63.8723E+06     21.0432E+06     68.5236E+03    -105.578E-03     211.880E-03    -106.302E-03     44.5664E-03    -105.842E-03     211.685E-03    -106.034E-03     43.6876E-03
            1954     8.09402E-03     31.4688E-03    -54.5308E+06    -81.8021E+06     12.4813E+06     92.7939E+03    -105.755E-03     212.119E-03    -106.363E-03     43.4475E-03    -106.002E-03     211.846E-03    -106.103E-03     42.6388E-03
            1955     7.28410E-03     31.4211E-03    -61.6623E+06    -99.2097E+06     2.80154E+06     54.6191E+03    -105.894E-03     212.310E-03    -106.416E-03     41.6998E-03    -106.127E-03     211.964E-03    -106.168E-03     40.9620E-03
            1956     6.47432E-03     31.3763E-03    -68.8367E+06    -116.737E+06    -7.97283E+06     72.1300E+03    -106.008E-03     212.466E-03    -106.458E-03     39.2906E-03    -106.225E-03     212.048E-03    -106.229E-03     38.6258E-03
            1957     5.66474E-03     31.3338E-03    -76.6257E+06    -134.542E+06    -20.1999E+06    -55.4945E+03    -106.093E-03     212.585E-03    -106.491E-03     36.2403E-03    -106.296E-03     212.096E-03    -106.286E-03     35.6492E-03
            1958     4.85520E-03     31.2956E-03    -85.0215E+06    -153.149E+06    -34.4238E+06     141.110E+03    -106.172E-03     212.685E-03    -106.512E-03     32.5728E-03    -106.360E-03     212.126E-03    -106.339E-03     32.0622E-03
            1959     4.04580E-03     31.2611E-03    -93.2559E+06    -172.871E+06    -50.7881E+06     128.305E+03    -106.259E-03     212.776E-03    -106.517E-03     28.2593E-03    -106.426E-03     212.145E-03    -106.385E-03     27.8296E-03
            1960     3.23656E-03     31.2322E-03    -101.622E+06    -193.268E+06    -69.1058E+06     45.3091E+03    -106.295E-03     212.801E-03    -106.506E-03     23.3859E-03    -106.439E-03     212.098E-03    -106.424E-03     23.0382E-03
            1961     2.42731E-03     31.2089E-03    -109.399E+06    -213.383E+06    -87.9148E+06     78.4148E+03    -106.326E-03     212.818E-03    -106.491E-03     18.1115E-03    -106.446E-03     212.047E-03    -106.463E-03     17.8487E-03
            1962     1.61818E-03     31.1918E-03    -115.517E+06    -230.836E+06    -104.669E+06     61.6901E+03    -106.391E-03     212.868E-03    -106.477E-03     12.4586E-03    -106.487E-03     212.038E-03    -106.498E-03     12.2797E-03
            1963     809.024E-06     31.1810E-03    -119.768E+06    -243.767E+06    -116.742E+06     81.7185E+03    -106.411E-03     212.909E-03    -106.498E-03     6.78767E-03    -106.488E-03     212.035E-03    -106.555E-03     6.69301E-03
            1964     15.3899E-03     30.6760E-03    -5.12657E+06     114.902E+06     95.0190E+06    -20.4918E+03    -103.874E-03     209.625E-03    -105.751E-03     12.2789E-03    -104.270E-03     210.135E-03    -105.435E-03     11.1483E-03
            1965     14.5777E-03     30.6547E-03    -10.0694E+06     112.278E+06     78.4079E+06    -714.045E+03    -103.703E-03     209.457E-03    -105.754E-03     24.2235E-03    -104.135E-03     210.024E-03    -105.510E-03     22.8809E-03
            1966     13.7665E-03     30.6243E-03    -14.7893E+06     103.292E+06     69.0466E+06     81.2652E+03    -104.081E-03     209.891E-03    -105.810E-03     31.7851E-03    -104.518E-03     210.442E-03    -105.593E-03     30.5214E-03
            1967     12.9563E-03     30.5863E-03    -20.2815E+06     67.9641E+06     61.6952E+06     1.25697E+06    -104.483E-03     210.393E-03    -105.911E-03     37.7857E-03    -104.891E-03     210.792E-03    -105.671E-03     36.5838E-03
            1968     12.1451E-03     30.5424E-03    -25.7842E+06     24.1352E+06     50.4766E+06     1.31573E+06    -104.769E-03     210.771E-03    -106.001E-03     41.5496E-03    -105.125E-03     210.974E-03    -105.746E-03     40.4057E-03
            1969     11.3348E-03     30.4954E-03    -30.6971E+06    -1.29360E+06     44.2689E+06     611.682E+03    -105.018E-03     211.108E-03    -106.089E-03     43.8147E-03    -105.347E-03     211.194E-03    -105.822E-03     42.7307E-03
            1970     10.5243E-03     30.4463E-03    -35.9700E+06    -24.4536E+06     36.4397E+06     125.853E+03    -105.233E-03     211.399E-03    -106.166E-03     44.9329E-03    -105.535E-03     211.380E-03    -105.896E-03     43.9119E-03
            1971     9.71408E-03     30.3964E-03    -41.7061E+06    -46.2295E+06     28.8464E+06     104.707E+03    -105.450E-03     211.690E-03    -106.240E-03     45.1875E-03    -105.729E-03     211.573E-03    -105.968E-03     44.2355E-03
            1972     8.90403E-03     30.3465E-03    -47.9203E+06    -63.9819E+06     21.0264E+06     15.6900E+03    -105.620E-03     211.925E-03    -106.306E-03     44.7368E-03    -105.883E-03     211.730E-03    -106.038E-03     43.8537E-03
            1973     8.09389E-03     30.2972E-03    -54.4045E+06    -81.7872E+06     12.4487E+06     124.628E+03    -105.777E-03     212.142E-03    -106.365E-03     43.5871E-03    -106.024E-03     211.869E-03    -106.105E-03     42.7756E-03
            1974     7.28404E-03     30.2498E-03    -61.1537E+06    -99.1255E+06     2.99567E+06     128.517E+03    -105.915E-03     212.331E-03    -106.416E-03     41.7900E-03    -106.147E-03     211.985E-03    -106.169E-03     41.0500E-03
            1975     6.47436E-03     30.2043E-03    -68.7379E+06    -116.480E+06    -7.74908E+06    -11.4064E+03    -106.038E-03     212.494E-03    -106.456E-03     39.3478E-03    -106.256E-03     212.077E-03    -106.226E-03     38.6795E-03
            1976     5.66475E-03     30.1622E-03    -76.7182E+06    -134.597E+06    -20.1918E+06     41.7961E+03    -106.152E-03     212.634E-03    -106.482E-03     36.2668E-03    -106.355E-03     212.146E-03    -106.277E-03     35.6750E-03
            1977     4.85531E-03     30.1234E-03    -84.7324E+06    -153.207E+06    -34.2713E+06     10.4729E+03    -106.224E-03     212.716E-03    -106.493E-03     32.5817E-03    -106.410E-03     212.157E-03    -106.319E-03     32.0685E-03
            1978     4.04600E-03     30.0892E-03    -93.2363E+06    -172.843E+06    -50.7185E+06     85.4350E+03    -106.224E-03     212.716E-03    -106.492E-03     28.2754E-03    -106.391E-03     212.085E-03    -106.360E-03     27.8447E-03
            1979     3.23660E-03     30.0601E-03    -101.587E+06    -193.237E+06    -69.0876E+06     133.913E+03    -106.255E-03     212.740E-03    -106.484E-03     23.4071E-03    -106.399E-03     212.038E-03    -106.402E-03     23.0603E-03
            1980     2.42732E-03     30.0369E-03    -109.067E+06    -213.201E+06    -87.7190E+06     23.9563E+03    -106.331E-03     212.799E-03    -106.468E-03     18.0913E-03    -106.450E-03     212.028E-03    -106.439E-03     17.8276E-03
            1981     1.61816E-03     30.0194E-03    -115.414E+06    -230.765E+06    -104.542E+06    -5.59622E+03    -106.363E-03     212.811E-03    -106.448E-03     12.4010E-03    -106.458E-03     211.981E-03    -106.469E-03     12.2226E-03
            1982     809.063E-06     30.0090E-03    -119.573E+06    -243.580E+06    -116.660E+06     100.603E+03    -106.494E-03     212.851E-03    -106.357E-03     6.86722E-03    -106.571E-03     211.977E-03    -106.414E-03     6.77190E-03
            1983     15.3879E-03     29.5055E-03    -5.02731E+06     115.538E+06     94.8436E+06    -288.414E+03    -103.695E-03     209.462E-03    -105.767E-03     12.2945E-03    -104.092E-03     209.976E-03    -105.453E-03     11.1590E-03
            1984     14.5779E-03     29.4856E-03    -10.3331E+06     112.317E+06     78.1793E+06     152.910E+03    -103.923E-03     209.693E-03    -105.771E-03     24.6898E-03    -104.357E-03     210.263E-03    -105.528E-03     23.3583E-03
            1985     13.7667E-03     29.4541E-03    -16.3644E+06     101.581E+06     68.0240E+06     553.870E+03    -104.139E-03     209.959E-03    -105.821E-03     32.0296E-03    -104.579E-03     210.505E-03    -105.604E-03     30.7757E-03
            1986     12.9553E-03     29.4159E-03    -20.9524E+06     67.5460E+06     61.3581E+06     919.367E+03    -104.465E-03     210.385E-03    -105.920E-03     37.6775E-03    -104.875E-03     210.783E-03    -105.681E-03     36.4729E-03
            1987     12.1453E-03     29.3720E-03    -24.9369E+06     25.0720E+06     51.1293E+06     721.006E+03    -104.815E-03     210.827E-03    -106.011E-03     41.5264E-03    -105.169E-03     211.033E-03    -105.756E-03     40.3718E-03
            1988     11.3345E-03     29.3247E-03    -29.9164E+06    -633.341E+03     44.6722E+06     352.902E+03    -105.033E-03     211.130E-03    -106.097E-03     43.8317E-03    -105.359E-03     211.219E-03    -105.830E-03     42.7400E-03
            1989     10.5243E-03     29.2755E-03    -35.4942E+06    -24.2921E+06     36.6216E+06     359.760E+03    -105.273E-03     211.445E-03    -106.173E-03     45.0213E-03    -105.573E-03     211.428E-03    -105.903E-03     43.9991E-03
            1990     9.71399E-03     29.2253E-03    -41.4438E+06    -46.1419E+06     28.9382E+06     245.297E+03    -105.492E-03     211.736E-03    -106.245E-03     45.3018E-03    -105.770E-03     211.620E-03    -105.973E-03     44.3472E-03
            1991     8.90385E-03     29.1752E-03    -47.5629E+06    -63.7699E+06     21.2521E+06     257.120E+03    -105.674E-03     211.981E-03    -106.307E-03     44.8563E-03    -105.937E-03     211.786E-03    -106.039E-03     43.9726E-03
            1992     8.09398E-03     29.1260E-03    -54.1260E+06    -81.8137E+06     12.5739E+06     100.367E+03    -105.833E-03     212.194E-03    -106.361E-03     43.6751E-03    -106.079E-03     211.921E-03    -106.101E-03     42.8603E-03
            1993     7.28418E-03     29.0781E-03    -61.2459E+06    -99.0027E+06     3.15044E+06     87.9502E+03    -105.967E-03     212.373E-03    -106.406E-03     41.8267E-03    -106.200E-03     212.028E-03    -106.158E-03     41.0841E-03
            1994     6.47443E-03     29.0327E-03    -68.6166E+06    -116.457E+06    -7.60836E+06     217.720E+03    -106.082E-03     212.521E-03    -106.439E-03     39.3448E-03    -106.300E-03     212.103E-03    -106.208E-03     38.6784E-03
            1995     5.66489E-03     28.9901E-03    -76.1730E+06    -134.359E+06    -19.8693E+06     99.8064E+03    -106.179E-03     212.636E-03    -106.457E-03     36.2590E-03    -106.381E-03     212.148E-03    -106.251E-03     35.6674E-03
            1996     4.85552E-03     28.9514E-03    -84.6105E+06    -153.228E+06    -34.2685E+06     19.0215E+03    -106.207E-03     212.669E-03    -106.462E-03     32.5424E-03    -106.392E-03     212.109E-03    -106.288E-03     32.0290E-03
            1997     4.04603E-03     28.9172E-03    -93.2003E+06    -172.968E+06    -50.7923E+06     40.9212E+03    -106.211E-03     212.668E-03    -106.458E-03     28.2207E-03    -106.377E-03     212.037E-03    -106.326E-03     27.7892E-03
            1998     3.23665E-03     28.8882E-03    -101.311E+06    -193.010E+06    -68.8513E+06     61.2733E+03    -106.264E-03     212.707E-03    -106.442E-03     23.3487E-03    -106.408E-03     212.005E-03    -106.360E-03     23.0012E-03
            1999     2.42752E-03     28.8645E-03    -108.990E+06    -213.074E+06    -87.6106E+06     77.4919E+03    -106.299E-03     212.714E-03    -106.415E-03     17.9824E-03    -106.417E-03     211.943E-03    -106.386E-03     17.7199E-03
            2000     1.61833E-03     28.8476E-03    -115.310E+06    -230.680E+06    -104.546E+06     60.2809E+03    -106.323E-03     212.710E-03    -106.387E-03     12.3613E-03    -106.419E-03     211.880E-03    -106.408E-03     12.1837E-03
            2001     809.115E-06     28.8366E-03    -119.646E+06    -243.522E+06    -116.559E+06     27.5421E+03    -106.400E-03     212.717E-03    -106.316E-03     6.87868E-03    -106.478E-03     211.843E-03    -106.373E-03     6.78132E-03
            2002     15.3886E-03     28.3369E-03    -4.90339E+06     115.163E+06     94.6633E+06     64.0017E+03    -103.491E-03     209.272E-03    -105.781E-03     12.5599E-03    -103.886E-03     209.784E-03    -105.468E-03     11.4336E-03
            2003     14.5767E-03     28.3142E-03    -10.6880E+06     111.844E+06     78.1783E+06     348.057E+03    -104.161E-03     209.947E-03    -105.786E-03     24.4668E-03    -104.595E-03     210.513E-03    -105.542E-03     23.1430E-03
            2004     13.7666E-03     28.2846E-03    -14.8344E+06     101.478E+06     68.9272E+06     474.624E+03    -104.352E-03     210.177E-03    -105.825E-03     31.7411E-03    -104.786E-03     210.719E-03    -105.606E-03     30.4812E-03
            2005     12.9562E-03     28.2454E-03    -19.8582E+06     67.5985E+06     61.3104E+06     268.941E+03    -104.484E-03     210.398E-03    -105.913E-03     37.6287E-03    -104.890E-03     210.795E-03    -105.676E-03     36.4100E-03
            2006     12.1451E-03     28.2016E-03    -25.2524E+06     25.6795E+06     50.8283E+06     134.204E+03    -104.779E-03     210.784E-03    -106.005E-03     41.4274E-03    -105.135E-03     210.994E-03    -105.751E-03     40.2636E-03
            2007     11.3347E-03     28.1542E-03    -30.2683E+06    -831.862E+03     44.4631E+06     285.952E+03    -105.035E-03     211.128E-03    -106.093E-03     43.8320E-03    -105.364E-03     211.217E-03    -105.826E-03     42.7369E-03
            2008     10.5242E-03     28.1046E-03    -35.7393E+06    -24.2060E+06     36.6006E+06     463.025E+03    -105.279E-03     211.447E-03    -106.168E-03     45.0213E-03    -105.582E-03     211.431E-03    -105.898E-03     43.9974E-03
            2009     9.71406E-03     28.0544E-03    -41.4401E+06    -45.7315E+06     29.1564E+06     420.944E+03    -105.507E-03     211.746E-03    -106.239E-03     45.3286E-03    -105.787E-03     211.632E-03    -105.966E-03     44.3740E-03
            2010     8.90401E-03     28.0040E-03    -47.6209E+06    -63.7663E+06     21.3455E+06     220.744E+03    -105.723E-03     212.020E-03    -106.297E-03     44.8747E-03    -105.986E-03     211.826E-03    -106.029E-03     43.9879E-03
            2011     8.09407E-03     27.9544E-03    -54.1463E+06    -81.5045E+06     12.7984E+06     289.374E+03    -105.904E-03     212.249E-03    -106.344E-03     43.6797E-03    -106.152E-03     211.977E-03    -106.084E-03     42.8656E-03
            2012     7.28428E-03     27.9065E-03    -61.1259E+06    -99.0368E+06     3.10835E+06     186.800E+03    -106.040E-03     212.418E-03    -106.378E-03     41.8009E-03    -106.272E-03     212.073E-03    -106.130E-03     41.0587E-03
            2013     6.47473E-03     27.8608E-03    -68.3163E+06    -116.374E+06    -7.56227E+06     43.3587E+03    -106.134E-03     212.534E-03    -106.400E-03     39.2923E-03    -106.351E-03     212.117E-03    -106.170E-03     38.6230E-03
            2014     5.66520E-03     27.8182E-03    -76.3428E+06    -134.383E+06    -19.9109E+06     152.352E+03    -106.167E-03     212.577E-03    -106.410E-03     36.1615E-03    -106.369E-03     212.089E-03    -106.204E-03     35.5709E-03
            2015     4.85563E-03     27.7794E-03    -84.5978E+06    -152.998E+06    -34.2773E+06     192.475E+03    -106.185E-03     212.594E-03    -106.409E-03     32.3615E-03    -106.370E-03     212.035E-03    -106.236E-03     31.8508E-03
            2016     4.04627E-03     27.7453E-03    -92.8813E+06    -172.773E+06    -50.6762E+06     66.0619E+03    -106.235E-03     212.628E-03    -106.393E-03     28.0470E-03    -106.400E-03     211.997E-03    -106.261E-03     27.6167E-03
            2017     3.23707E-03     27.7159E-03    -101.373E+06    -193.092E+06    -68.8919E+06     110.007E+03    -106.231E-03     212.593E-03    -106.363E-03     23.1756E-03    -106.374E-03     211.891E-03    -106.280E-03     22.8303E-03
            2018     2.42766E-03     27.6928E-03    -108.992E+06    -212.943E+06    -87.6092E+06     139.236E+03    -106.197E-03     212.529E-03    -106.333E-03     17.8747E-03    -106.315E-03     211.759E-03    -106.304E-03     17.6148E-03
            2019     1.61836E-03     27.6755E-03    -115.305E+06    -230.638E+06    -104.453E+06     91.6748E+03    -106.236E-03     212.546E-03    -106.310E-03     12.3778E-03    -106.331E-03     211.716E-03    -106.331E-03     12.2014E-03
            2020     809.269E-06     27.6649E-03    -119.463E+06    -243.282E+06    -116.544E+06     10.4148E+03    -106.326E-03     212.568E-03    -106.242E-03     6.81323E-03    -106.403E-03     211.696E-03    -106.299E-03     6.71634E-03
            2021     15.3876E-03     27.1666E-03    -5.37963E+06     115.152E+06     94.4909E+06     265.373E+03    -103.866E-03     209.632E-03    -105.765E-03     12.3646E-03    -104.263E-03     210.144E-03    -105.452E-03     11.2338E-03
            2022     14.5780E-03     27.1442E-03    -10.2712E+06     112.050E+06     78.2950E+06    -118.390E+03    -104.011E-03     209.774E-03    -105.763E-03     23.8537E-03    -104.443E-03     210.340E-03    -105.519E-03     22.5179E-03
            2023     13.7667E-03     27.1137E-03    -15.2508E+06     100.934E+06     68.2312E+06     20.1723E+03    -104.198E-03     210.006E-03    -105.807E-03     31.4409E-03    -104.632E-03     210.546E-03    -105.591E-03     30.1745E-03
            2024     12.9559E-03     27.0753E-03    -20.1130E+06     68.0290E+06     61.4168E+06     451.065E+03    -104.497E-03     210.399E-03    -105.902E-03     37.7191E-03    -104.905E-03     210.799E-03    -105.664E-03     36.5015E-03
            2025     12.1455E-03     27.0312E-03    -25.0914E+06     25.8603E+06     50.9695E+06     188.491E+03    -104.801E-03     210.792E-03    -105.991E-03     41.5389E-03    -105.157E-03     211.003E-03    -105.737E-03     40.3734E-03
            2026     11.3348E-03     26.9835E-03    -30.4849E+06    -1.17757E+06     44.3989E+06     270.259E+03    -105.037E-03     211.115E-03    -106.078E-03     43.8797E-03    -105.366E-03     211.203E-03    -105.810E-03     42.7832E-03
            2027     10.5246E-03     26.9339E-03    -35.9347E+06    -23.9973E+06     36.6384E+06     385.006E+03    -105.287E-03     211.437E-03    -106.151E-03     45.1262E-03    -105.591E-03     211.423E-03    -105.881E-03     44.1002E-03
            2028     9.71423E-03     26.8833E-03    -41.6134E+06    -45.6238E+06     29.1297E+06     374.249E+03    -105.572E-03     211.789E-03    -106.217E-03     45.3946E-03    -105.853E-03     211.676E-03    -105.945E-03     44.4377E-03
            2029     8.90419E-03     26.8327E-03    -47.6345E+06    -63.5755E+06     21.3087E+06     332.718E+03    -105.801E-03     212.067E-03    -106.266E-03     44.8243E-03    -106.064E-03     211.874E-03    -105.998E-03     43.9378E-03
            2030     8.09436E-03     26.7829E-03    -54.0890E+06    -81.5064E+06     12.6943E+06     184.837E+03    -105.970E-03     212.273E-03    -106.303E-03     43.5502E-03    -106.217E-03     212.002E-03    -106.043E-03     42.7336E-03
            2031     7.28473E-03     26.7347E-03    -60.8130E+06    -98.7263E+06     3.25009E+06     205.361E+03    -106.092E-03     212.418E-03    -106.326E-03     41.6535E-03    -106.323E-03     212.073E-03    -106.078E-03     40.9108E-03
            2032     6.47508E-03     26.6891E-03    -68.4877E+06    -116.385E+06    -7.66594E+06     218.890E+03    -106.157E-03     212.493E-03    -106.335E-03     39.1308E-03    -106.374E-03     212.076E-03    -106.106E-03     38.4639E-03
            2033     5.66557E-03     26.6464E-03    -76.3680E+06    -134.291E+06    -20.0939E+06     135.750E+03    -106.182E-03     212.515E-03    -106.332E-03     35.9428E-03    -106.384E-03     212.027E-03    -106.127E-03     35.3528E-03
            2034     4.85616E-03     26.6077E-03    -84.4222E+06    -152.930E+06    -34.2343E+06     73.9311E+03    -106.198E-03     212.514E-03    -106.316E-03     32.1383E-03    -106.383E-03     211.956E-03    -106.143E-03     31.6281E-03
            2035     4.04677E-03     26.5733E-03    -92.9341E+06    -172.674E+06     -50.599E+06     225.229E+03    -106.162E-03     212.450E-03    -106.288E-03     27.8268E-03    -106.327E-03     211.819E-03    -106.156E-03     27.4011E-03
            2036     3.23732E-03     26.5443E-03    -101.243E+06    -192.984E+06    -68.8731E+06     140.103E+03    -106.112E-03     212.366E-03    -106.255E-03     23.0381E-03    -106.254E-03     211.664E-03    -106.172E-03     22.6947E-03
            2037     2.42799E-03     26.5211E-03    -108.920E+06    -212.881E+06    -87.4330E+06     105.568E+03    -106.127E-03     212.346E-03    -106.219E-03     17.7693E-03    -106.246E-03     211.576E-03    -106.189E-03     17.5106E-03
            2038     1.61860E-03     26.5039E-03    -115.148E+06    -230.408E+06    -104.216E+06     180.746E+03    -106.129E-03     212.312E-03    -106.183E-03     12.1988E-03    -106.224E-03     211.482E-03    -106.203E-03     12.0254E-03
            2039     809.149E-06     26.4930E-03    -119.340E+06    -243.131E+06    -116.428E+06     65.6975E+03    -106.146E-03     212.301E-03    -106.155E-03     6.75526E-03    -106.222E-03     211.429E-03    -106.212E-03     6.65968E-03
            2040     15.3904E-03     25.9964E-03    -5.42051E+06     115.240E+06     94.3693E+06    -222.973E+03    -104.129E-03     209.868E-03    -105.739E-03     12.4799E-03    -104.527E-03     210.382E-03    -105.426E-03     11.3394E-03
            2041     14.5782E-03     25.9745E-03    -10.0566E+06     111.996E+06     78.0858E+06     448.773E+03    -103.820E-03     209.553E-03    -105.733E-03     24.3922E-03    -104.251E-03     210.120E-03    -105.490E-03     23.0679E-03
            2042     13.7672E-03     25.9440E-03    -15.3228E+06     100.809E+06     68.1287E+06     500.011E+03    -104.061E-03     209.848E-03    -105.787E-03     31.8505E-03    -104.495E-03     210.388E-03    -105.570E-03     30.5969E-03
            2043     12.9563E-03     25.9049E-03    -20.4447E+06     68.0646E+06     61.2964E+06    -40.7940E+03    -104.477E-03     210.361E-03    -105.885E-03     37.6889E-03    -104.886E-03     210.762E-03    -105.647E-03     36.4674E-03
            2044     12.1455E-03     25.8606E-03    -25.4193E+06     25.7271E+06     50.7770E+06     269.483E+03    -104.825E-03     210.797E-03    -105.972E-03     41.6066E-03    -105.183E-03     211.009E-03    -105.719E-03     40.4420E-03
            2045     11.3352E-03     25.8130E-03    -30.4601E+06    -1.03973E+06     44.4156E+06      405.92E+03    -105.106E-03     211.161E-03    -106.055E-03     43.9782E-03    -105.436E-03     211.250E-03    -105.787E-03     42.8822E-03
            2046     10.5246E-03     25.7631E-03    -35.8365E+06    -23.8482E+06     36.5664E+06     258.851E+03    -105.412E-03     211.530E-03    -106.118E-03     45.1396E-03    -105.716E-03     211.516E-03    -105.848E-03     44.1102E-03
            2047     9.71462E-03     25.7121E-03    -41.4940E+06    -45.7833E+06     28.9637E+06     243.629E+03    -105.691E-03     211.862E-03    -106.171E-03     45.2601E-03    -105.971E-03     211.748E-03    -105.899E-03     44.2997E-03
            2048     8.90475E-03     25.6613E-03    -47.4989E+06    -63.3009E+06     21.3010E+06     308.860E+03    -105.880E-03     212.087E-03    -106.207E-03     44.6462E-03    -106.144E-03     211.895E-03    -105.940E-03     43.7582E-03
            2049     8.09501E-03     25.6114E-03    -54.0065E+06    -81.4002E+06     12.6417E+06     259.345E+03    -106.024E-03     212.254E-03    -106.231E-03     43.3900E-03    -106.270E-03     211.983E-03    -105.971E-03     42.5743E-03
            2050     7.28526E-03     25.5632E-03    -61.1384E+06    -98.7573E+06     3.11014E+06     301.465E+03    -106.125E-03     212.366E-03    -106.240E-03     41.4514E-03    -106.357E-03     212.021E-03    -105.993E-03     40.7106E-03
            2051     6.47575E-03     25.5173E-03    -68.2648E+06    -116.102E+06    -7.59837E+06     280.850E+03    -106.175E-03     212.411E-03    -106.235E-03     38.8423E-03    -106.392E-03     211.994E-03    -106.006E-03     38.1780E-03
            2052     5.66623E-03     25.4747E-03    -75.9503E+06    -134.064E+06    -19.9158E+06     111.531E+03    -106.176E-03     212.393E-03    -106.217E-03     35.6594E-03    -106.376E-03     211.905E-03    -106.012E-03     35.0720E-03
            2053     4.85680E-03     25.4359E-03    -84.3622E+06    -152.952E+06    -34.2172E+06     85.9927E+03    -106.129E-03     212.316E-03    -106.187E-03     31.9325E-03    -106.312E-03     211.756E-03    -106.014E-03     31.4254E-03
            2054     4.04735E-03     25.4018E-03    -92.9784E+06    -172.819E+06    -50.6674E+06     116.001E+03    -106.051E-03     212.202E-03    -106.151E-03     27.6056E-03    -106.216E-03     211.570E-03    -106.019E-03     27.1809E-03
            2055     3.23776E-03     25.3729E-03    -101.218E+06    -192.744E+06    -68.7692E+06     291.722E+03    -106.014E-03     212.122E-03    -106.108E-03     22.8007E-03    -106.157E-03     211.421E-03    -106.026E-03     22.4622E-03
            2056     2.42826E-03     25.3494E-03    -108.714E+06      -212.7E+06    -87.4307E+06     194.388E+03    -106.030E-03     212.084E-03    -106.054E-03     17.5593E-03    -106.148E-03     211.314E-03    -106.025E-03     17.3036E-03
            2057     1.61900E-03     25.3325E-03    -114.983E+06    -230.246E+06    -104.163E+06     52.9301E+03    -106.023E-03     212.006E-03    -105.983E-03     12.0096E-03    -106.118E-03     211.177E-03    -106.003E-03     11.8352E-03
            2058     809.617E-06     25.3218E-03    -119.178E+06    -242.852E+06    -116.171E+06     243.241E+03    -105.843E-03     211.854E-03    -106.011E-03     6.55929E-03    -105.920E-03     210.982E-03    -106.066E-03     6.46795E-03
            2059     15.3882E-03     24.8260E-03    -5.23439E+06     114.815E+06     94.2373E+06     127.404E+03    -104.038E-03     209.786E-03    -105.747E-03     13.1431E-03    -104.435E-03     210.298E-03    -105.435E-03     12.0094E-03
            2060     14.5782E-03     24.8054E-03    -10.6129E+06     111.483E+06     77.9259E+06     164.518E+03    -104.211E-03     209.946E-03    -105.735E-03     24.7310E-03    -104.645E-03     210.512E-03    -105.491E-03     23.3996E-03
            2061     13.7672E-03     24.7735E-03    -14.9932E+06     101.317E+06     68.7353E+06     154.843E+03    -104.257E-03     210.029E-03    -105.772E-03     32.0410E-03    -104.692E-03     210.572E-03    -105.554E-03     30.7757E-03
            2062     12.9566E-03     24.7349E-03    -20.1213E+06     68.0979E+06     61.2593E+06     302.442E+03    -104.516E-03     210.376E-03    -105.860E-03     37.7990E-03    -104.925E-03     210.777E-03    -105.623E-03     36.5787E-03
            2063     12.1459E-03     24.6902E-03    -25.4498E+06     25.9626E+06     50.7158E+06     196.084E+03    -104.907E-03     210.849E-03    -105.942E-03     41.5566E-03    -105.265E-03     211.062E-03    -105.689E-03     40.3898E-03
            2064     11.3353E-03     24.6423E-03    -30.4940E+06    -1.23790E+06     44.0961E+06     44.7271E+03    -105.286E-03     211.297E-03    -106.012E-03     43.8239E-03    -105.615E-03     211.386E-03    -105.745E-03     42.7204E-03
            2065     10.5255E-03     24.5920E-03    -35.7132E+06    -24.0148E+06     36.4760E+06     210.412E+03    -105.599E-03     211.657E-03    -106.058E-03     44.9187E-03    -105.902E-03     211.643E-03    -105.789E-03     43.8849E-03
            2066     9.71546E-03     24.5409E-03    -41.4753E+06    -45.5495E+06     28.9606E+06     239.928E+03    -105.793E-03     211.887E-03    -106.094E-03     45.0622E-03    -106.074E-03     211.774E-03    -105.823E-03     44.1009E-03
            2067     8.90555E-03     24.4899E-03    -47.6054E+06    -63.4078E+06     21.2141E+06     209.535E+03    -105.947E-03     212.062E-03    -106.115E-03     44.4227E-03    -106.211E-03     211.870E-03    -105.848E-03     43.5344E-03
            2068     8.09574E-03     24.4399E-03    -54.0106E+06    -81.1889E+06     12.6488E+06     380.378E+03    -106.084E-03     212.206E-03    -106.122E-03     43.0951E-03    -106.330E-03     211.936E-03    -105.863E-03     42.2822E-03
            2069     7.28622E-03     24.3915E-03    -60.7624E+06    -98.6833E+06     3.09573E+06     222.187E+03    -106.162E-03     212.276E-03    -106.113E-03     41.0739E-03    -106.392E-03     211.930E-03    -105.866E-03     40.3345E-03
            2070     6.47664E-03     24.3458E-03    -68.1634E+06    -115.979E+06    -7.54858E+06     151.409E+03    -106.160E-03     212.251E-03    -106.090E-03     38.4523E-03    -106.376E-03     211.834E-03    -105.861E-03     37.7899E-03
            2071     5.66717E-03     24.3032E-03    -76.0231E+06    -133.953E+06    -19.8118E+06     309.195E+03    -106.105E-03     212.162E-03    -106.057E-03     35.2696E-03    -106.305E-03     211.674E-03    -105.851E-03     34.6888E-03
            2072     4.85756E-03     24.2646E-03    -84.4291E+06    -152.864E+06    -34.2952E+06     307.941E+03    -106.011E-03     212.025E-03    -106.014E-03     31.4771E-03    -106.194E-03     211.466E-03    -105.842E-03     30.9771E-03
            2073     4.04789E-03     24.2306E-03    -92.8430E+06    -172.617E+06    -50.8172E+06     263.336E+03    -105.956E-03     211.918E-03    -105.962E-03     27.1741E-03    -106.120E-03     211.287E-03    -105.831E-03     26.7559E-03
            2074     3.23850E-03     24.2017E-03    -100.966E+06    -192.648E+06    -68.7620E+06     184.834E+03    -105.908E-03     211.804E-03    -105.896E-03     22.4229E-03    -106.049E-03     211.102E-03    -105.814E-03     22.0871E-03
            2075     2.42898E-03     24.1785E-03    -108.577E+06    -212.428E+06    -87.3527E+06     213.746E+03    -105.811E-03     211.637E-03    -105.826E-03     17.2822E-03    -105.928E-03     210.868E-03    -105.798E-03     17.0298E-03
            2076     1.61923E-03     24.1614E-03    -114.843E+06    -230.101E+06    -104.201E+06     141.310E+03    -105.765E-03     211.528E-03    -105.763E-03     11.8771E-03    -105.859E-03     210.699E-03    -105.784E-03     11.7063E-03
            2077     809.713E-06     24.1511E-03    -118.939E+06    -242.566E+06    -115.956E+06     43.8683E+03    -105.719E-03     211.435E-03    -105.716E-03     6.42077E-03    -105.795E-03     210.564E-03    -105.771E-03     6.32715E-03
            2078     15.3884E-03     23.6559E-03    -5.23480E+06     115.190E+06     94.7491E+06     259.859E+03    -104.097E-03     209.853E-03    -105.757E-03     12.5909E-03    -104.494E-03     210.366E-03    -105.442E-03     11.4526E-03
            2079     14.5780E-03     23.6336E-03    -10.1059E+06     111.949E+06     78.6458E+06    -330.336E+03    -104.423E-03     210.160E-03    -105.737E-03     24.2540E-03    -104.856E-03     210.727E-03    -105.491E-03     22.9035E-03
            2080     13.7679E-03     23.6042E-03    -15.3371E+06     100.630E+06     68.3019E+06    -46.2477E+03    -104.519E-03     210.277E-03    -105.757E-03     31.9564E-03    -104.956E-03     210.818E-03    -105.539E-03     30.6805E-03
            2081     12.9568E-03     23.5640E-03    -20.0411E+06     68.6020E+06     61.5750E+06     399.891E+03    -104.728E-03     210.558E-03    -105.830E-03     37.8895E-03    -105.138E-03     210.962E-03    -105.593E-03     36.6653E-03
            2082     12.1465E-03     23.5200E-03    -24.7827E+06     26.1217E+06     50.8853E+06     97.6446E+03    -105.207E-03     211.099E-03    -105.892E-03     41.4726E-03    -105.563E-03     211.313E-03    -105.640E-03     40.2988E-03
            2083     11.3365E-03     23.4712E-03    -30.2294E+06    -1.50543E+06     44.1045E+06     86.5257E+03    -105.515E-03     211.455E-03    -105.940E-03     43.6327E-03    -105.843E-03     211.543E-03    -105.673E-03     42.5266E-03
            2084     10.5263E-03     23.4210E-03    -35.8852E+06    -23.9998E+06     36.3547E+06     174.346E+03    -105.723E-03     211.689E-03    -105.966E-03     44.6711E-03    -106.027E-03     211.675E-03    -105.697E-03     43.6367E-03
            2085     9.71640E-03     23.3697E-03    -41.5619E+06    -45.5663E+06     28.8282E+06     217.222E+03    -105.918E-03     211.901E-03    -105.983E-03     44.7631E-03    -106.199E-03     211.789E-03    -105.712E-03     43.8019E-03
            2086     8.90667E-03     23.3187E-03    -47.5583E+06    -63.2864E+06     21.1636E+06     318.503E+03    -106.076E-03     212.058E-03    -105.982E-03     44.0260E-03    -106.339E-03     211.866E-03    -105.715E-03     43.1403E-03
            2087     8.09711E-03     23.2685E-03    -53.9037E+06    -81.1139E+06     12.5532E+06     196.254E+03    -106.166E-03     212.130E-03    -105.963E-03     42.5945E-03    -106.411E-03     211.859E-03    -105.705E-03     41.7820E-03
            2088     7.28749E-03     23.2202E-03    -60.7609E+06    -98.4387E+06     3.08558E+06     200.114E+03    -106.155E-03     212.087E-03    -105.932E-03     40.5255E-03    -106.384E-03     211.742E-03    -105.685E-03     39.7905E-03
            2089     6.47796E-03     23.1744E-03    -68.2344E+06    -116.092E+06    -7.63135E+06     277.845E+03    -106.104E-03     211.993E-03    -105.889E-03     37.8915E-03    -106.318E-03     211.575E-03    -105.660E-03     37.2360E-03
            2090     5.66832E-03     23.1320E-03    -76.2022E+06    -133.931E+06    -20.0143E+06     389.379E+03    -106.028E-03     211.861E-03    -105.833E-03     34.6501E-03    -106.228E-03     211.373E-03    -105.629E-03     34.0759E-03
            2091     4.85875E-03     23.0936E-03    -84.2209E+06    -152.566E+06    -34.3591E+06     390.600E+03    -105.926E-03     211.690E-03    -105.764E-03     30.8125E-03    -106.108E-03     211.131E-03    -105.593E-03     30.3196E-03
            2092     4.04921E-03     23.0597E-03    -92.3820E+06    -172.365E+06    -50.6289E+06     279.230E+03    -105.789E-03     211.476E-03    -105.687E-03     26.5761E-03    -105.950E-03     210.844E-03    -105.556E-03     26.1646E-03
            2093     3.23937E-03     23.0309E-03    -100.729E+06    -192.533E+06    -68.7139E+06     225.960E+03    -105.649E-03     211.254E-03    -105.605E-03     21.9166E-03    -105.789E-03     210.552E-03    -105.523E-03     21.5866E-03
            2094     2.42958E-03     23.0081E-03    -108.410E+06    -212.279E+06    -87.2581E+06     162.265E+03    -105.522E-03     211.050E-03    -105.528E-03     16.8712E-03    -105.638E-03     210.281E-03    -105.499E-03     16.6224E-03
            2095     1.61977E-03     22.9912E-03    -114.563E+06    -229.815E+06    -103.879E+06     189.478E+03    -105.411E-03     210.891E-03    -105.481E-03     11.5714E-03    -105.504E-03     210.063E-03    -105.501E-03     11.4050E-03
            2096     809.699E-06     22.9808E-03    -118.671E+06    -242.241E+06    -115.885E+06    -51.2701E+03    -105.485E-03     210.903E-03    -105.418E-03     6.29386E-03    -105.560E-03     210.034E-03    -105.474E-03     6.19959E-03
            2097     15.3897E-03     22.4859E-03    -4.92171E+06     115.157E+06     94.5998E+06    -101.500E+03    -104.161E-03     209.902E-03    -105.741E-03     12.6732E-03    -104.557E-03     210.415E-03    -105.428E-03     11.5332E-03
            2098     14.5782E-03     22.4638E-03    -10.0587E+06     111.699E+06     78.3380E+06     387.065E+03    -104.234E-03     209.958E-03    -105.724E-03     24.6342E-03    -104.667E-03     210.525E-03    -105.479E-03     23.3006E-03
            2099     13.7674E-03     22.4327E-03    -15.1650E+06     100.682E+06     68.5308E+06     69.5844E+03    -104.782E-03     210.525E-03    -105.743E-03     31.9810E-03    -105.219E-03     211.067E-03    -105.525E-03     30.7018E-03
            2100     12.9576E-03     22.3943E-03    -19.9679E+06     68.3411E+06     61.3637E+06    -70.6941E+03    -105.217E-03     211.007E-03    -105.790E-03     37.8814E-03    -105.627E-03     211.411E-03    -105.553E-03     36.6420E-03
            2101     12.1473E-03     22.3483E-03    -25.1733E+06     26.1695E+06     50.6404E+06     375.989E+03    -105.532E-03     211.354E-03    -105.822E-03     41.3852E-03    -105.890E-03     211.569E-03    -105.570E-03     40.2109E-03
            2102     11.3374E-03     22.3006E-03    -30.4064E+06    -1.12061E+06     44.0408E+06     283.172E+03    -105.779E-03     211.622E-03    -105.843E-03     43.4531E-03    -106.108E-03     211.712E-03    -105.577E-03     42.3470E-03
            2103     10.5276E-03     22.2497E-03    -35.7931E+06    -23.9532E+06     36.2278E+06     148.137E+03    -105.979E-03     211.821E-03    -105.841E-03     44.3487E-03    -106.283E-03     211.807E-03    -105.574E-03     43.3131E-03
            2104     9.71796E-03     22.1986E-03    -41.4610E+06    -45.5051E+06     28.7554E+06     177.097E+03    -106.144E-03     211.971E-03    -105.827E-03     44.2212E-03    -106.423E-03     211.858E-03    -105.557E-03     43.2600E-03
            2105     8.90833E-03     22.1473E-03    -47.4142E+06    -63.1788E+06     21.0870E+06     191.826E+03    -106.232E-03     212.025E-03    -105.793E-03     43.4084E-03    -106.494E-03     211.833E-03    -105.527E-03     42.5234E-03
            2106     8.09883E-03     22.0972E-03    -53.8993E+06    -81.0206E+06     12.4879E+06     221.669E+03    -106.237E-03     211.980E-03    -105.743E-03     41.8876E-03    -106.481E-03     211.709E-03    -105.485E-03     41.0805E-03
            2107     7.28930E-03     22.0491E-03    -60.8647E+06    -98.4865E+06     3.02276E+06     323.331E+03    -106.181E-03     211.860E-03    -105.680E-03     39.7179E-03    -106.409E-03     211.514E-03    -105.434E-03     38.9906E-03
            2108     6.47966E-03     22.0035E-03    -68.1203E+06    -115.937E+06    -7.71033E+06     432.148E+03    -106.074E-03     211.676E-03    -105.602E-03     36.9507E-03    -106.287E-03     211.258E-03    -105.374E-03     36.3047E-03
            2109     5.67011E-03     21.9612E-03    -75.7342E+06    -133.752E+06    -20.0588E+06     296.146E+03    -105.909E-03     211.422E-03    -105.514E-03     33.6867E-03    -106.105E-03     210.933E-03    -105.310E-03     33.1201E-03
            2110     4.86043E-03     21.9229E-03    -83.7975E+06    -152.442E+06    -34.2094E+06     245.097E+03    -105.726E-03     211.143E-03    -105.417E-03     29.9953E-03    -105.905E-03     210.583E-03    -105.245E-03     29.5093E-03
            2111     4.05059E-03     21.8895E-03    -92.3002E+06    -172.219E+06    -50.5070E+06     356.209E+03    -105.533E-03     210.846E-03    -105.313E-03     25.8331E-03    -105.693E-03     210.214E-03    -105.182E-03     25.4299E-03
            2112     3.24069E-03     21.8611E-03    -100.564E+06    -192.310E+06    -68.6425E+06     330.151E+03    -105.311E-03     210.520E-03    -105.209E-03     21.2212E-03    -105.450E-03     209.818E-03    -105.128E-03     20.8995E-03
            2113     2.43058E-03     21.8383E-03    -107.997E+06    -212.073E+06    -87.1016E+06     251.123E+03    -105.149E-03     210.267E-03    -105.118E-03     16.2671E-03    -105.264E-03     209.498E-03    -105.089E-03     16.0254E-03
            2114     1.62040E-03     21.8218E-03    -114.322E+06    -229.529E+06    -103.609E+06     181.237E+03    -105.042E-03     210.089E-03    -105.046E-03     11.1184E-03    -105.135E-03     209.261E-03    -105.066E-03     10.9561E-03
            2115     810.267E-06     21.8114E-03    -118.517E+06    -241.859E+06    -115.519E+06     185.606E+03    -104.961E-03     209.999E-03    -105.038E-03     6.17898E-03    -105.037E-03     209.131E-03    -105.093E-03     6.09129E-03
            2116     15.3885E-03     21.3159E-03    -5.33592E+06     114.657E+06     94.4188E+06     33.9900E+03    -104.308E-03     210.046E-03    -105.738E-03     12.8778E-03    -104.706E-03     210.558E-03    -105.425E-03     11.7360E-03
            2117     14.5784E-03     21.2935E-03    -10.5272E+06     111.379E+06     78.2282E+06    -134.393E+03    -104.564E-03     210.272E-03    -105.708E-03     24.6630E-03    -105.000E-03     210.839E-03    -105.463E-03     23.3104E-03
            2118     13.7680E-03     21.2621E-03    -15.2348E+06     100.803E+06     68.3944E+06     56.5702E+03    -105.012E-03     210.721E-03    -105.708E-03     31.8865E-03    -105.450E-03     211.264E-03    -105.490E-03     30.5987E-03
            2119     12.9580E-03     21.2222E-03    -20.9098E+06     68.2068E+06     60.9006E+06     177.217E+03    -105.598E-03     211.331E-03    -105.733E-03     37.6027E-03    -106.013E-03     211.737E-03    -105.497E-03     36.3606E-03
            2120     12.1486E-03     21.1779E-03    -25.7486E+06     26.7095E+06     50.5982E+06     96.5085E+03    -105.937E-03     211.672E-03    -105.735E-03     41.1543E-03    -106.300E-03     211.891E-03    -105.483E-03     39.9706E-03
            2121     11.3387E-03     21.1289E-03    -30.5546E+06    -1.02225E+06     43.8487E+06     60.8841E+03    -106.162E-03     211.883E-03    -105.720E-03     43.0644E-03    -106.492E-03     211.974E-03    -105.455E-03     41.9515E-03
            2122     10.5293E-03     21.0786E-03    -35.8361E+06    -23.8276E+06     36.1622E+06     98.0261E+03    -106.382E-03     212.060E-03    -105.678E-03     43.8135E-03    -106.685E-03     212.047E-03    -105.411E-03     42.7751E-03
            2123     9.71992E-03     21.0272E-03    -41.3558E+06    -45.4114E+06     28.6612E+06     55.5598E+03    -106.492E-03     212.109E-03    -105.617E-03     43.5570E-03    -106.770E-03     211.996E-03    -105.348E-03     42.5950E-03
            2124     8.91067E-03     20.9761E-03    -47.3433E+06    -63.2693E+06     21.0114E+06     90.6655E+03    -106.475E-03     212.011E-03    -105.535E-03     42.4904E-03    -106.735E-03     211.816E-03    -105.270E-03     41.6083E-03
            2125     8.10117E-03     20.9263E-03    -53.7873E+06    -80.9381E+06     12.4721E+06     274.040E+03    -106.394E-03     211.832E-03    -105.437E-03     40.7414E-03    -106.636E-03     211.559E-03    -105.180E-03     39.9417E-03
            2126     7.29176E-03     20.8781E-03    -60.6268E+06    -98.5035E+06     2.88680E+06     318.364E+03    -106.258E-03     211.581E-03    -105.323E-03     38.4170E-03    -106.483E-03     211.233E-03    -105.078E-03     37.6986E-03
            2127     6.48238E-03     20.8330E-03    -67.7158E+06    -115.787E+06    -7.64144E+06     289.019E+03    -106.027E-03     211.223E-03    -105.196E-03     35.6273E-03    -106.236E-03     210.803E-03    -104.969E-03     34.9902E-03
            2128     5.67266E-03     20.7910E-03    -75.3906E+06    -133.514E+06    -19.8985E+06     352.394E+03    -105.730E-03     210.792E-03    -105.063E-03     32.3584E-03    -105.923E-03     210.302E-03    -104.859E-03     31.8042E-03
            2129     4.86267E-03     20.7534E-03    -83.7382E+06    -152.436E+06    -34.2376E+06     506.631E+03    -105.429E-03     210.355E-03    -104.926E-03     28.6706E-03    -105.606E-03     209.793E-03    -104.755E-03     28.2010E-03
            2130     4.05259E-03     20.7199E-03    -92.0194E+06    -171.972E+06    -50.5147E+06     478.223E+03    -105.145E-03     209.933E-03    -104.788E-03     24.5396E-03    -105.303E-03     209.300E-03    -104.658E-03     24.1503E-03
            2131     3.24239E-03     20.6922E-03    -100.106E+06    -192.009E+06    -68.4981E+06     385.467E+03    -104.862E-03     209.516E-03    -104.654E-03     20.1175E-03    -104.998E-03     208.814E-03    -104.573E-03     19.8066E-03
            2132     2.43193E-03     20.6697E-03    -107.748E+06    -211.792E+06    -86.9220E+06     396.434E+03    -104.628E-03     209.165E-03    -104.537E-03     15.4799E-03    -104.741E-03     208.396E-03    -104.508E-03     15.2479E-03
            2133     1.62141E-03     20.6534E-03    -113.905E+06    -229.149E+06    -103.299E+06     274.764E+03    -104.491E-03     208.932E-03    -104.440E-03     10.5875E-03    -104.583E-03     208.104E-03    -104.459E-03     10.4305E-03
            2134     810.724E-06     20.6432E-03    -118.151E+06    -241.504E+06    -115.164E+06     250.490E+03    -104.370E-03     208.757E-03    -104.386E-03     5.89614E-03    -104.445E-03     207.889E-03    -104.441E-03     5.81384E-03
            2135     15.3892E-03     20.1443E-03    -5.17810E+06     115.154E+06     94.3617E+06     94.5167E+03    -104.637E-03     210.363E-03    -105.726E-03     12.5313E-03    -105.035E-03     210.878E-03    -105.414E-03     11.3796E-03
            2136     14.5789E-03     20.1230E-03    -10.4447E+06     111.402E+06     77.7203E+06    -13.7429E+03    -105.016E-03     210.688E-03    -105.672E-03     24.5386E-03    -105.452E-03     211.256E-03    -105.429E-03     23.1798E-03
            2137     13.7691E-03     20.0908E-03    -15.4991E+06     100.499E+06     67.7967E+06     93.2585E+03    -105.420E-03     211.066E-03    -105.645E-03     31.9269E-03    -105.859E-03     211.609E-03    -105.430E-03     30.6383E-03
            2138     12.9592E-03     20.0511E-03    -19.7566E+06     68.4980E+06     61.2265E+06     52.7005E+03    -105.859E-03     211.506E-03    -105.647E-03     37.2927E-03    -106.269E-03     211.911E-03    -105.412E-03     36.0448E-03
            2139     12.1495E-03     20.0057E-03    -24.9823E+06     26.5324E+06     50.6220E+06     73.6066E+03    -106.411E-03     212.029E-03    -105.618E-03     40.6450E-03    -106.769E-03     212.246E-03    -105.367E-03     39.4549E-03
            2140     11.3408E-03     19.9576E-03    -30.4026E+06    -636.099E+03     44.0129E+06     80.9638E+03    -106.751E-03     212.308E-03    -105.557E-03     42.4227E-03    -107.081E-03     212.400E-03    -105.292E-03     41.3059E-03
            2141     10.5314E-03     19.9068E-03    -35.7161E+06    -23.7958E+06     36.0498E+06    -149.282E+03    -106.914E-03     212.370E-03    -105.456E-03     42.8657E-03    -107.215E-03     212.356E-03    -105.190E-03     41.8237E-03
            2142     9.72261E-03     19.8557E-03    -41.2491E+06    -45.4206E+06     28.5962E+06    -27.8258E+03    -106.962E-03     212.295E-03    -105.333E-03     42.2930E-03    -107.238E-03     212.180E-03    -105.064E-03     41.3322E-03
            2143     8.91354E-03     19.8049E-03    -47.2148E+06    -63.2417E+06     20.8983E+06     101.044E+03    -106.892E-03     212.073E-03    -105.181E-03     40.9977E-03    -107.148E-03     211.877E-03    -104.917E-03     40.1217E-03
            2144     8.10467E-03     19.7553E-03    -53.5137E+06    -81.1315E+06     12.3647E+06     140.943E+03    -106.682E-03     211.691E-03    -105.009E-03     39.0270E-03    -106.919E-03     211.414E-03    -104.752E-03     38.2355E-03
            2145     7.29545E-03     19.7078E-03    -60.1096E+06    -98.2058E+06     3.03080E+06     266.921E+03    -106.344E-03     211.166E-03    -104.822E-03     36.5897E-03    -106.564E-03     210.815E-03    -104.577E-03     35.8845E-03
            2146     6.48584E-03     19.6630E-03    -67.5041E+06    -115.818E+06    -7.76560E+06     292.447E+03    -105.966E-03     210.591E-03    -104.625E-03     33.6758E-03    -106.170E-03     210.167E-03    -104.398E-03     33.0549E-03
            2147     5.67606E-03     19.6218E-03    -75.3308E+06    -133.541E+06    -20.0519E+06     537.276E+03    -105.541E-03     209.963E-03    -104.422E-03     30.3281E-03    -105.731E-03     209.470E-03    -104.219E-03     29.7941E-03
            2148     4.86612E-03     19.5845E-03    -83.1888E+06    -152.115E+06    -34.1737E+06     622.759E+03    -105.069E-03     209.287E-03    -104.218E-03     26.6984E-03    -105.241E-03     208.724E-03    -104.048E-03     26.2482E-03
            2149     4.05573E-03     19.5520E-03    -91.4478E+06    -171.771E+06    -50.3580E+06     545.532E+03    -104.592E-03     208.617E-03    -104.025E-03     22.7493E-03    -104.746E-03     207.983E-03    -103.896E-03     22.3777E-03
            2150     3.24490E-03     19.5246E-03    -99.7381E+06    -191.718E+06    -68.2768E+06     607.505E+03    -104.204E-03     208.051E-03    -103.847E-03     18.5308E-03    -104.338E-03     207.348E-03    -103.766E-03     18.2377E-03
            2151     2.43394E-03     19.5028E-03    -107.182E+06    -211.329E+06    -86.5431E+06     582.001E+03    -103.884E-03     207.574E-03    -103.690E-03     14.1683E-03    -103.995E-03     206.805E-03    -103.661E-03     13.9512E-03
            2152     1.62266E-03     19.4866E-03    -113.391E+06    -228.626E+06    -102.901E+06     407.555E+03    -103.644E-03     207.210E-03    -103.566E-03     9.67763E-03    -103.734E-03     206.384E-03    -103.585E-03     9.53128E-03
            2153     811.394E-06     19.4767E-03    -117.555E+06    -241.042E+06    -114.705E+06     251.995E+03    -103.549E-03     206.992E-03    -103.443E-03     5.35350E-03    -103.622E-03     206.124E-03    -103.497E-03     5.27391E-03
            2154     15.3898E-03     18.9747E-03    -5.07119E+06     114.723E+06     94.0739E+06     239.644E+03    -105.063E-03     210.762E-03    -105.699E-03     12.7670E-03    -105.459E-03     211.274E-03    -105.388E-03     11.6190E-03
            2155     14.5793E-03     18.9511E-03    -10.1202E+06     111.931E+06     77.8027E+06     488.286E+03    -105.478E-03     211.097E-03    -105.619E-03     24.5572E-03    -105.912E-03     211.667E-03    -105.377E-03     23.2036E-03
            2156     13.7699E-03     18.9193E-03    -15.0504E+06     101.223E+06     68.2234E+06    -54.7339E+03    -105.934E-03     211.496E-03    -105.562E-03     31.5780E-03    -106.372E-03     212.042E-03    -105.346E-03     30.2754E-03
            2157     12.9607E-03     18.8793E-03    -20.4751E+06     68.0170E+06     60.5751E+06    -280.389E+03    -106.439E-03     211.961E-03    -105.522E-03     36.9043E-03    -106.851E-03     212.366E-03    -105.288E-03     35.6446E-03
            2158     12.1518E-03     18.8339E-03    -25.1567E+06     26.4179E+06     50.4159E+06    -135.713E+03    -107.029E-03     212.473E-03    -105.444E-03     39.8315E-03    -107.387E-03     212.689E-03    -105.194E-03     38.6345E-03
            2159     11.3428E-03     18.7851E-03    -29.8510E+06    -430.745E+03     44.1374E+06    -77.1110E+03    -107.474E-03     212.795E-03    -105.320E-03     41.1325E-03    -107.800E-03     212.885E-03    -105.056E-03     40.0119E-03
            2160     10.5348E-03     18.7349E-03    -35.2415E+06    -23.4691E+06     36.2528E+06    -4.99360E+03    -107.656E-03     212.799E-03    -105.143E-03     41.2363E-03    -107.953E-03     212.782E-03    -104.876E-03     40.1981E-03
            2161     9.72631E-03     18.6839E-03    -41.0186E+06    -45.5219E+06     28.5212E+06    -94.8128E+03    -107.634E-03     212.564E-03    -104.930E-03     40.3450E-03    -107.904E-03     212.444E-03    -104.662E-03     39.3915E-03
            2162     8.91801E-03     18.6336E-03    -46.8841E+06    -63.3475E+06     20.7949E+06    -13.3079E+03    -107.444E-03     212.125E-03    -104.681E-03     38.6825E-03    -107.694E-03     211.923E-03    -104.417E-03     37.8182E-03
            2163     8.10932E-03     18.5845E-03    -53.1334E+06    -81.0542E+06     12.3262E+06     140.538E+03    -107.062E-03     211.468E-03    -104.406E-03     36.4179E-03    -107.293E-03     211.187E-03    -104.150E-03     35.6440E-03
            2164     7.30030E-03     18.5381E-03    -59.9775E+06    -98.3306E+06     2.75897E+06     303.419E+03    -106.540E-03     210.653E-03    -104.112E-03     33.7302E-03    -106.754E-03     210.297E-03    -103.869E-03     33.0466E-03
            2165     6.49103E-03     18.4939E-03    -67.1169E+06    -115.660E+06    -7.94596E+06     518.507E+03    -105.910E-03     209.720E-03    -103.810E-03     30.6932E-03    -106.108E-03     209.293E-03    -103.585E-03     30.0992E-03
            2166     5.68129E-03     18.4537E-03    -74.7095E+06    -133.542E+06    -20.1129E+06     471.907E+03    -105.233E-03     208.742E-03    -103.509E-03     27.4473E-03    -105.416E-03     208.244E-03    -103.308E-03     26.9370E-03
            2167     4.87086E-03     18.4173E-03    -82.8167E+06    -151.992E+06    -34.1341E+06     644.228E+03    -104.533E-03     207.749E-03    -103.216E-03     23.9841E-03    -104.700E-03     207.182E-03    -103.046E-03     23.5569E-03
            2168     4.05992E-03     18.3858E-03    -91.0422E+06    -171.388E+06    -50.2256E+06     856.781E+03    -103.862E-03     206.803E-03    -102.942E-03     20.2921E-03    -104.012E-03     206.167E-03    -102.812E-03     19.9458E-03
            2169     3.24864E-03     18.3590E-03    -99.1101E+06    -191.295E+06    -67.9762E+06     796.096E+03    -103.288E-03     205.980E-03    -102.692E-03     16.4588E-03    -103.418E-03     205.276E-03    -102.611E-03     16.1866E-03
            2170     2.43691E-03     18.3379E-03    -106.560E+06    -210.759E+06    -86.0887E+06     725.503E+03    -102.831E-03     205.303E-03    -102.472E-03     12.4901E-03    -102.939E-03     204.534E-03    -102.442E-03     12.2894E-03
            2171     1.62487E-03     18.3223E-03    -112.693E+06    -227.948E+06    -102.361E+06     632.964E+03    -102.466E-03     204.758E-03    -102.292E-03     8.47387E-03    -102.553E-03     203.933E-03    -102.310E-03     8.34220E-03
            2172     812.467E-06     18.3127E-03    -116.743E+06    -240.205E+06    -113.955E+06     290.729E+03    -102.202E-03     204.390E-03    -102.188E-03     4.66356E-03    -102.273E-03     203.524E-03    -102.240E-03     4.58969E-03
            2173     15.3894E-03     17.8023E-03    -5.30533E+06     115.074E+06     94.7882E+06     41.4352E+03    -105.820E-03     211.491E-03    -105.671E-03     12.7812E-03    -106.220E-03     212.006E-03    -105.357E-03     11.6091E-03
            2174     14.5811E-03     17.7794E-03    -9.92895E+06     111.896E+06     78.6345E+06    -193.579E+03    -106.156E-03     211.705E-03    -105.550E-03     24.3490E-03    -106.592E-03     212.275E-03    -105.304E-03     22.9643E-03
            2175     13.7716E-03     17.7474E-03    -14.6095E+06     101.228E+06     68.4098E+06     315.369E+03    -106.637E-03     212.080E-03    -105.444E-03     31.2035E-03    -107.073E-03     212.626E-03    -105.227E-03     29.8944E-03
            2176     12.9628E-03     17.7067E-03    -19.5521E+06     69.0760E+06     61.4568E+06         210.906    -107.378E-03     212.723E-03    -105.345E-03     36.1839E-03    -107.788E-03     213.130E-03    -105.109E-03     34.9204E-03
            2177     12.1546E-03     17.6612E-03    -24.5372E+06     26.3149E+06     50.5474E+06    -684.791E+03    -108.042E-03     213.229E-03    -105.187E-03     38.6401E-03    -108.395E-03     213.442E-03    -104.937E-03     37.4309E-03
            2178     11.3471E-03     17.6123E-03    -29.6222E+06    -602.297E+03     44.1204E+06    -285.729E+03    -108.399E-03     213.372E-03    -104.973E-03     39.3931E-03    -108.720E-03     213.458E-03    -104.709E-03     38.2713E-03
            2179     10.5392E-03     17.5622E-03    -35.0500E+06    -23.4267E+06     36.1437E+06    -68.0631E+03    -108.594E-03     213.287E-03    -104.693E-03     38.9569E-03    -108.886E-03     213.266E-03    -104.427E-03     37.9250E-03
            2180     9.73181E-03     17.5118E-03    -40.5396E+06    -45.4843E+06     28.4041E+06     7.72873E+03    -108.537E-03     212.897E-03    -104.360E-03     37.6106E-03    -108.799E-03     212.772E-03    -104.093E-03     36.6701E-03
            2181     8.92409E-03     17.4621E-03    -46.5174E+06    -63.2881E+06     20.6048E+06     72.3858E+03    -108.150E-03     212.129E-03    -103.980E-03     35.5156E-03    -108.392E-03     211.922E-03    -103.717E-03     34.6692E-03
            2182     8.11606E-03     17.4144E-03    -52.8469E+06    -81.1679E+06     11.9805E+06     205.417E+03    -107.564E-03     211.130E-03    -103.566E-03     32.9450E-03    -107.787E-03     210.842E-03    -103.312E-03     32.1927E-03
            2183     7.30768E-03     17.3686E-03    -59.5069E+06    -98.3337E+06     2.54799E+06     358.745E+03    -106.764E-03     209.894E-03    -103.130E-03     30.0689E-03    -106.970E-03     209.533E-03    -102.889E-03     29.4089E-03
            2184     6.49844E-03     17.3264E-03    -66.6720E+06    -115.589E+06    -7.98088E+06     505.419E+03    -105.785E-03     208.476E-03    -102.691E-03     27.0866E-03    -105.976E-03     208.044E-03    -102.467E-03     26.5164E-03
            2185     5.68828E-03     17.2871E-03    -74.3638E+06    -133.402E+06    -20.1767E+06     804.085E+03    -104.769E-03     207.031E-03    -102.262E-03     23.9449E-03    -104.946E-03     206.530E-03    -102.062E-03     23.4621E-03
            2186     4.87755E-03     17.2524E-03    -82.3416E+06    -151.858E+06    -34.2587E+06     879.337E+03    -103.785E-03     205.638E-03    -101.853E-03     20.6652E-03    -103.948E-03     205.068E-03    -101.684E-03     20.2625E-03
            2187     4.06608E-03     17.2218E-03    -90.4393E+06    -171.072E+06    -50.0871E+06     955.820E+03    -102.857E-03     204.330E-03    -101.472E-03     17.3464E-03    -103.003E-03     203.692E-03    -101.343E-03     17.0213E-03
            2188     3.25377E-03     17.1965E-03    -98.4572E+06    -190.715E+06    -67.6453E+06     1.06821E+06    -102.029E-03     203.160E-03    -101.131E-03     13.9935E-03    -102.156E-03     202.456E-03    -101.050E-03     13.7427E-03
            2189     2.44085E-03     17.1760E-03    -105.854E+06    -210.053E+06    -85.7196E+06     914.831E+03    -101.364E-03     202.203E-03    -100.840E-03     10.5911E-03    -101.469E-03     201.436E-03    -100.810E-03     10.4065E-03
            2190     1.62759E-03     17.1615E-03    -111.819E+06    -227.045E+06    -101.718E+06     661.657E+03    -100.873E-03     201.478E-03    -100.605E-03     7.17522E-03    -100.958E-03     200.655E-03    -100.622E-03     7.05249E-03
            2191     813.940E-06     17.1522E-03    -115.956E+06    -239.120E+06    -113.042E+06     424.715E+03    -100.475E-03     200.963E-03    -100.488E-03     3.87093E-03    -100.545E-03     200.100E-03    -100.538E-03     3.80509E-03
            2192     15.3913E-03     16.6298E-03    -5.23250E+06     115.146E+06     94.1842E+06    -311.381E+03    -106.566E-03     212.192E-03    -105.626E-03     12.8053E-03    -106.966E-03     212.708E-03    -105.314E-03     11.6204E-03
            2193     14.5816E-03     16.6069E-03    -10.1587E+06     111.416E+06     78.4193E+06    -12.0843E+03    -107.073E-03     212.532E-03    -105.458E-03     24.3398E-03    -107.510E-03     213.101E-03    -105.213E-03     22.9483E-03
            2194     13.7737E-03     16.5743E-03    -14.6560E+06     101.050E+06     68.8230E+06    -345.399E+03    -107.880E-03     213.166E-03    -105.285E-03     30.9434E-03    -108.318E-03     213.710E-03    -105.067E-03     29.6124E-03
            2195     12.9660E-03     16.5334E-03    -18.8885E+06     69.6022E+06     61.5373E+06    -278.020E+03    -108.733E-03     213.823E-03    -105.091E-03     35.1807E-03    -109.139E-03     214.231E-03    -104.856E-03     33.8988E-03
            2196     12.1591E-03     16.4872E-03    -24.1923E+06     27.0221E+06     50.5772E+06     121.095E+03    -109.342E-03     214.167E-03    -104.825E-03     36.9439E-03    -109.691E-03     214.380E-03    -104.577E-03     35.7398E-03
            2197     11.3521E-03     16.4390E-03    -29.7317E+06    -802.209E+03     43.5639E+06    -312.695E+03    -109.704E-03     214.193E-03    -104.489E-03     37.2205E-03    -110.020E-03     214.274E-03    -104.226E-03     36.0986E-03
            2198     10.5458E-03     16.3889E-03    -34.8981E+06    -23.6438E+06     35.7130E+06    -241.277E+03    -109.835E-03     213.904E-03    -104.068E-03     36.1454E-03    -110.120E-03     213.877E-03    -103.805E-03     35.1165E-03
            2199     9.73928E-03     16.3392E-03    -40.4300E+06    -45.3110E+06     28.0968E+06     73.7083E+03    -109.591E-03     213.173E-03    -103.582E-03     34.1277E-03    -109.847E-03     213.043E-03    -103.317E-03     33.1984E-03
            2200     8.93247E-03     16.2909E-03    -46.1912E+06    -63.2646E+06     20.3528E+06     185.116E+03    -108.970E-03     212.008E-03    -103.038E-03     31.6572E-03    -109.204E-03     211.795E-03    -102.778E-03     30.8260E-03
            2201     8.12519E-03     16.2443E-03    -52.4936E+06    -81.2323E+06     11.7333E+06     271.731E+03    -108.030E-03     210.487E-03    -102.458E-03     28.9240E-03    -108.245E-03     210.194E-03    -102.205E-03     28.1887E-03
            2202     7.31687E-03     16.2007E-03    -59.2773E+06    -98.2612E+06     2.38662E+06     475.841E+03    -106.874E-03     208.732E-03    -101.858E-03     26.0200E-03    -107.074E-03     208.366E-03    -101.618E-03     25.3786E-03
            2203     6.50769E-03     16.1601E-03    -66.4364E+06    -115.594E+06    -8.27592E+06     797.865E+03    -105.596E-03     206.851E-03    -101.255E-03     23.0006E-03    -105.782E-03     206.415E-03    -101.032E-03     22.4508E-03
            2204     5.69757E-03     16.1231E-03    -73.8394E+06    -133.198E+06    -20.3358E+06     958.210E+03    -104.203E-03     204.868E-03    -100.665E-03     19.9500E-03    -104.375E-03     204.363E-03    -100.466E-03     19.4862E-03
            2205     4.88612E-03     16.0900E-03    -81.6728E+06    -151.521E+06    -34.2209E+06     1.09378E+06    -102.805E-03     202.914E-03    -100.109E-03     16.9478E-03    -102.962E-03     202.342E-03    -99.9419E-03     16.5654E-03
            2206     4.07359E-03     16.0615E-03    -89.8497E+06    -170.735E+06    -50.0607E+06     1.18694E+06    -101.531E-03     201.133E-03    -99.6019E-03     14.0492E-03    -101.672E-03     200.494E-03    -99.4744E-03     13.7432E-03
            2207     3.26022E-03     16.0374E-03    -97.7484E+06    -190.061E+06    -67.3181E+06     1.19849E+06    -100.421E-03     199.574E-03    -99.1533E-03     11.1906E-03    -100.544E-03     198.871E-03    -99.0725E-03     10.9553E-03
            2208     2.44601E-03     16.0186E-03    -104.995E+06    -209.126E+06    -85.0106E+06     1.15024E+06    -99.4815E-03     198.262E-03    -98.7805E-03     8.36891E-03    -99.5845E-03     197.496E-03    -98.7501E-03     8.19942E-03
            2209     1.63095E-03     16.0047E-03    -111.135E+06    -225.969E+06    -101.034E+06     887.511E+03    -98.8072E-03     197.308E-03    -98.5012E-03     5.63954E-03    -98.8909E-03     196.488E-03    -98.5176E-03     5.52839E-03
            2210     815.630E-06     15.9963E-03    -115.173E+06    -237.888E+06    -112.485E+06     540.957E+03    -98.3891E-03     196.729E-03    -98.3397E-03     2.99338E-03    -98.4577E-03     195.870E-03    -98.3901E-03     2.93459E-03
            2211     15.3905E-03     15.4564E-03    -4.77720E+06     114.961E+06     94.3754E+06    -38.9625E+03    -107.559E-03     213.134E-03    -105.575E-03     13.0948E-03    -107.958E-03     213.650E-03    -105.263E-03     11.8955E-03
            2212     14.5838E-03     15.4331E-03    -10.3169E+06     111.719E+06      77.839E+06    -812.982E+03    -108.547E-03     213.879E-03    -105.332E-03     24.0109E-03    -108.986E-03     214.452E-03    -105.090E-03     22.5791E-03
            2213     13.7764E-03     15.3998E-03    -15.0091E+06     101.325E+06     68.0659E+06    -877.270E+03    -109.552E-03     214.610E-03    -105.058E-03     30.1296E-03    -109.991E-03     215.158E-03    -104.843E-03     28.7623E-03
            2214     12.9705E-03     15.3579E-03    -20.4740E+06     69.2759E+06     60.5721E+06    -377.858E+03    -110.381E-03     215.126E-03    -104.746E-03     33.8107E-03    -110.791E-03     215.534E-03    -104.514E-03     32.5090E-03
            2215     12.1647E-03     15.3128E-03    -25.1130E+06     27.6731E+06     50.0547E+06    -274.604E+03    -111.037E-03     215.380E-03    -104.343E-03     35.0139E-03    -111.388E-03     215.595E-03    -104.097E-03     33.7917E-03
            2216     11.3596E-03     15.2640E-03    -29.5831E+06    -843.654E+03     43.1527E+06    -352.562E+03    -111.385E-03     215.233E-03    -103.848E-03     34.5507E-03    -111.696E-03     215.310E-03    -103.588E-03     33.4203E-03
            2217     10.5544E-03     15.2149E-03    -34.7887E+06    -23.5360E+06     35.5107E+06    -88.8905E+03    -111.277E-03     214.531E-03    -103.254E-03     32.8448E-03    -111.556E-03     214.500E-03    -102.992E-03     31.8169E-03
            2218     9.74908E-03     15.1665E-03    -40.2940E+06    -45.2422E+06     27.7871E+06     7.83784E+03    -110.731E-03     213.316E-03    -102.586E-03     30.3791E-03    -110.981E-03     213.182E-03    -102.323E-03     29.4527E-03
            2219     8.94328E-03     15.1197E-03    -46.2115E+06    -63.4628E+06     19.9129E+06     166.960E+03    -109.761E-03     211.617E-03    -101.856E-03     27.5488E-03    -109.990E-03     211.399E-03    -101.598E-03     26.7235E-03
            2220     8.13635E-03     15.0755E-03    -52.4313E+06    -81.0227E+06     11.4541E+06     531.181E+03    -108.447E-03     209.536E-03    -101.089E-03     24.5503E-03    -108.657E-03     209.239E-03    -100.838E-03     23.8256E-03
            2221     7.32838E-03     15.0342E-03    -58.9768E+06    -98.2900E+06     1.99328E+06     728.638E+03    -106.933E-03     207.234E-03    -100.302E-03     21.5017E-03    -107.127E-03     206.864E-03    -100.064E-03     20.8716E-03
            2222     6.51923E-03     14.9960E-03    -65.8761E+06    -115.408E+06    -8.50623E+06     831.624E+03    -105.259E-03     204.771E-03    -99.5115E-03     18.4949E-03    -105.439E-03     204.331E-03    -99.2912E-03     17.9538E-03
            2223     5.70858E-03     14.9618E-03    -73.3727E+06    -133.023E+06    -20.4858E+06     1.02464E+06    -103.466E-03     202.207E-03    -98.7409E-03     15.6382E-03    -103.632E-03     201.700E-03    -98.5440E-03     15.1835E-03
            2224     4.89654E-03     14.9313E-03    -81.2327E+06    -151.250E+06    -34.2393E+06     1.27852E+06    -101.656E-03     199.670E-03    -98.0137E-03     12.9251E-03    -101.809E-03     199.096E-03    -97.8478E-03     12.5531E-03
            2225     4.08300E-03     14.9051E-03    -89.1384E+06    -170.118E+06    -49.8567E+06     1.45006E+06    -99.9514E-03     197.305E-03    -97.3532E-03     10.4157E-03    -100.089E-03     196.666E-03    -97.2265E-03     10.1207E-03
            2226     3.26810E-03     14.8831E-03    -96.9814E+06    -189.362E+06    -66.8966E+06     1.45878E+06    -98.4559E-03     195.236E-03    -96.7802E-03     8.11833E-03    -98.5761E-03     194.533E-03    -96.6995E-03     7.89332E-03
            2227     2.45208E-03     14.8660E-03    -104.299E+06    -208.171E+06    -84.3571E+06     1.38976E+06    -97.2499E-03     193.561E-03    -96.3115E-03     5.97501E-03    -97.3511E-03     192.798E-03    -96.2802E-03     5.81399E-03
            2228     1.63527E-03     14.8534E-03    -110.323E+06    -224.576E+06    -100.167E+06     1.18912E+06    -96.3635E-03     192.328E-03    -95.9645E-03     3.98953E-03    -96.4462E-03     191.512E-03    -95.9797E-03     3.88720E-03
            2229     817.697E-06     14.8456E-03    -114.260E+06    -236.307E+06    -111.616E+06     698.746E+03    -95.8674E-03     191.601E-03    -95.7332E-03     2.03453E-03    -95.9350E-03     190.747E-03    -95.7829E-03     1.98116E-03
            2230     15.3929E-03     14.2817E-03    -4.77914E+06     115.679E+06     94.6525E+06    -182.772E+03    -109.227E-03     214.726E-03    -105.499E-03     12.9913E-03    -109.629E-03     215.247E-03    -105.187E-03     11.7537E-03
            2231     14.5856E-03     14.2573E-03    -9.77435E+06     112.421E+06     77.9268E+06    -300.056E+03    -110.358E-03     215.511E-03    -105.154E-03     23.7626E-03    -110.796E-03     216.088E-03    -104.913E-03     22.3036E-03
            2232     13.7811E-03     14.2230E-03    -15.3288E+06     101.255E+06     67.2538E+06    -587.957E+03    -111.459E-03     216.216E-03    -104.757E-03     29.3530E-03    -111.899E-03     216.766E-03    -104.546E-03     27.9614E-03
            2233     12.9760E-03     14.1819E-03    -19.4557E+06     69.5386E+06     60.7065E+06    -763.360E+03    -112.382E-03     216.687E-03    -104.305E-03     32.4012E-03    -112.787E-03     217.094E-03    -104.074E-03     31.0678E-03
            2234     12.1721E-03     14.1357E-03    -24.2119E+06     27.3955E+06     49.8838E+06    -697.386E+03    -113.113E-03     216.848E-03    -103.735E-03     32.8785E-03    -113.457E-03     217.059E-03    -103.490E-03     31.6283E-03
            2235     11.3687E-03     14.0881E-03    -29.5967E+06    -547.253E+03     42.9351E+06    -280.507E+03    -113.230E-03     216.283E-03    -103.054E-03     31.7519E-03    -113.537E-03     216.360E-03    -102.795E-03     30.6060E-03
            2236     10.5650E-03     14.0401E-03    -34.7695E+06    -23.6183E+06     35.0535E+06    -128.728E+03    -112.777E-03     215.043E-03    -102.266E-03     29.5291E-03    -113.052E-03     215.009E-03    -102.006E-03     28.4894E-03
            2237     9.76086E-03     13.9936E-03    -40.3091E+06    -45.3042E+06     27.3520E+06     98.0084E+03    -111.856E-03     213.256E-03    -101.401E-03     26.6133E-03    -112.101E-03     213.119E-03    -101.140E-03     25.6793E-03
            2238     8.95567E-03     13.9493E-03    -46.1197E+06    -63.2799E+06     19.4942E+06     316.684E+03    -110.514E-03     210.986E-03    -100.472E-03     23.4226E-03    -110.738E-03     210.766E-03    -100.216E-03     22.5918E-03
            2239     8.14948E-03     13.9079E-03    -52.1337E+06    -81.1683E+06     11.0128E+06     460.111E+03    -108.867E-03     208.369E-03    -99.5014E-03     20.2164E-03    -109.072E-03     208.069E-03    -99.2530E-03     19.4830E-03
            2240     7.34188E-03     13.8694E-03    -58.5527E+06    -98.0200E+06     1.82723E+06     757.363E+03    -106.913E-03     205.422E-03    -98.5095E-03     17.0888E-03    -107.102E-03     205.051E-03    -98.2734E-03     16.4514E-03
            2241     6.53244E-03     13.8348E-03    -65.5744E+06    -115.285E+06    -8.66723E+06     1.01675E+06    -104.744E-03     202.267E-03    -97.5233E-03     14.1323E-03    -104.919E-03     201.826E-03    -97.3044E-03     13.5862E-03
            2242     5.72131E-03     13.8036E-03    -72.8850E+06    -132.763E+06    -20.5361E+06     1.26807E+06    -102.513E-03     199.080E-03    -96.5674E-03     11.4494E-03    -102.676E-03     198.573E-03    -96.3719E-03     10.9892E-03
            2243     4.90833E-03     13.7766E-03    -80.5156E+06    -150.891E+06    -34.0296E+06     1.41974E+06    -100.297E-03     195.963E-03    -95.6660E-03     9.12689E-03    -100.446E-03     195.389E-03    -95.5006E-03     8.74713E-03
            2244     4.09359E-03     13.7534E-03    -88.4862E+06    -169.610E+06    -49.3930E+06     1.59439E+06    -98.1721E-03     193.019E-03    -94.8467E-03     7.12658E-03    -98.3071E-03     192.381E-03    -94.7194E-03     6.82398E-03
            2245     3.27707E-03     13.7344E-03    -96.2878E+06    -188.551E+06    -66.3265E+06     1.72645E+06    -96.2804E-03     190.419E-03    -94.1387E-03     5.37797E-03    -96.3988E-03     189.718E-03    -94.0573E-03     5.14852E-03
            2246     2.45909E-03     13.7191E-03    -103.335E+06    -207.092E+06    -83.6212E+06     1.59275E+06    -94.7831E-03     188.344E-03    -93.5612E-03     3.84234E-03    -94.8820E-03     187.583E-03    -93.5291E-03     3.67783E-03
            2247     1.64001E-03     13.7084E-03    -109.110E+06    -222.965E+06    -99.1268E+06     1.30156E+06    -93.6959E-03     186.817E-03    -93.1208E-03     2.47107E-03    -93.7763E-03     186.005E-03    -93.1350E-03     2.36513E-03
            2248     820.261E-06     13.7015E-03    -113.307E+06    -234.326E+06    -110.380E+06     920.140E+03    -93.0018E-03     185.821E-03    -92.8197E-03     1.27821E-03    -93.0693E-03     184.974E-03    -92.8676E-03     1.22477E-03
            2249     15.3934E-03     13.1052E-03    -5.40673E+06     115.435E+06     94.2585E+06    -430.505E+03    -111.173E-03     216.568E-03    -105.395E-03     13.5070E-03    -111.579E-03     217.091E-03    -105.083E-03     12.2352E-03
            2250     14.5898E-03     13.0792E-03    -10.2858E+06     112.471E+06     78.1282E+06    -57.6832E+03    -112.414E-03     217.350E-03    -104.935E-03     23.9452E-03    -112.859E-03     217.931E-03    -104.693E-03     22.4516E-03
            2251     13.7853E-03     13.0450E-03    -14.5143E+06     102.752E+06     68.4492E+06    -613.138E+03    -113.680E-03     218.081E-03    -104.401E-03     28.8235E-03    -114.122E-03     218.638E-03    -104.187E-03     27.3877E-03
            2252     12.9830E-03     13.0029E-03    -19.9007E+06     69.1183E+06     59.8359E+06    -1.20485E+06    -114.825E-03     218.600E-03    -103.775E-03     31.1475E-03    -115.232E-03     219.008E-03    -103.547E-03     29.7654E-03
            2253     12.1811E-03     12.9575E-03    -24.7227E+06     26.9946E+06     49.2240E+06    -600.078E+03    -115.303E-03     218.318E-03    -103.015E-03     30.7062E-03    -115.648E-03     218.528E-03    -102.772E-03     29.4228E-03
            2254     11.3792E-03     12.9107E-03    -29.4238E+06    -266.724E+03     42.6407E+06    -239.337E+03    -115.050E-03     217.187E-03    -102.137E-03     28.9548E-03    -115.355E-03     217.263E-03    -101.880E-03     27.7818E-03
            2255     10.5770E-03     12.8649E-03    -34.7278E+06    -23.7729E+06     34.5062E+06    -96.3271E+03    -114.246E-03     215.394E-03    -101.149E-03     26.2510E-03    -114.518E-03     215.359E-03    -100.891E-03     25.1856E-03
            2256     9.77385E-03     12.8207E-03    -40.0984E+06    -45.2686E+06     27.0487E+06     195.989E+03    -112.905E-03     212.988E-03    -100.083E-03     22.9805E-03    -113.148E-03     212.850E-03    -99.8241E-03     22.0223E-03
            2257     8.96964E-03     12.7797E-03    -45.8226E+06    -63.1804E+06     19.2599E+06     407.616E+03    -111.185E-03     210.138E-03    -98.9533E-03     19.5984E-03    -111.407E-03     209.918E-03    -98.6989E-03     18.7423E-03
            2258     8.16383E-03     12.7414E-03    -51.8926E+06    -80.9562E+06     10.8390E+06     587.520E+03    -109.087E-03     206.870E-03    -97.7833E-03     16.2793E-03    -109.291E-03     206.571E-03    -97.5365E-03     15.5205E-03
            2259     7.35617E-03     12.7071E-03    -58.3909E+06    -97.9997E+06     1.62103E+06     744.809E+03    -106.653E-03     203.253E-03    -96.6003E-03     13.2222E-03    -106.841E-03     202.882E-03    -96.3654E-03     12.5569E-03
            2260     6.54658E-03     12.6763E-03    -65.1140E+06    -115.136E+06    -8.59691E+06     1.04682E+06    -104.026E-03     199.462E-03    -95.4352E-03     10.5046E-03    -104.200E-03     199.021E-03    -95.2169E-03     9.93033E-03
            2261     5.73469E-03     12.6495E-03    -72.2547E+06    -132.454E+06    -20.1923E+06     1.24793E+06    -101.324E-03     195.642E-03    -94.3173E-03     8.18050E-03    -101.485E-03     195.135E-03    -94.1214E-03     7.69264E-03
            2262     4.92056E-03     12.6262E-03    -79.8582E+06    -150.598E+06    -33.4058E+06     1.49904E+06    -98.6894E-03     191.965E-03    -93.2754E-03     6.26050E-03    -98.8372E-03     191.391E-03    -93.1082E-03     5.85615E-03
            2263     4.10424E-03     12.6070E-03    -87.5420E+06    -169.086E+06    -48.4233E+06     1.68834E+06    -96.2469E-03     188.579E-03    -92.3326E-03     4.71684E-03    -96.3798E-03     187.942E-03    -92.2026E-03     4.39159E-03
            2264     3.28604E-03     12.5910E-03    -95.0558E+06    -187.649E+06    -65.0529E+06     1.64871E+06    -94.1005E-03     185.611E-03    -91.5105E-03     3.47689E-03    -94.2163E-03     184.912E-03    -91.4258E-03     3.22456E-03
            2265     2.46613E-03     12.5787E-03    -101.963E+06    -205.928E+06    -82.0832E+06     1.60546E+06    -92.3405E-03     183.170E-03    -90.8299E-03     2.44859E-03    -92.4368E-03     182.411E-03    -90.7939E-03     2.26657E-03
            2266     1.64493E-03     12.5696E-03    -107.861E+06    -221.520E+06    -97.6434E+06     1.47150E+06    -91.0242E-03     181.329E-03    -90.3050E-03     1.48206E-03    -91.1028E-03     180.521E-03    -90.3156E-03     1.36636E-03
            2267     822.753E-06     12.5643E-03    -111.695E+06    -231.907E+06    -109.028E+06     1.02719E+06    -90.1494E-03     180.115E-03    -89.9652E-03     722.464E-06    -90.2143E-03     179.275E-03    -90.0121E-03     663.376E-06
            2268     15.3960E-03     11.9254E-03    -5.18823E+06     116.063E+06     94.6597E+06    -345.321E+03    -113.450E-03     218.732E-03    -105.281E-03     14.1669E-03    -113.862E-03     219.262E-03    -104.969E-03     12.8403E-03
            2269     14.5925E-03     11.8994E-03    -10.1238E+06     112.723E+06     77.9745E+06    -1.16389E+06    -114.880E-03     219.562E-03    -104.682E-03     23.9361E-03    -115.330E-03     220.150E-03    -104.441E-03     22.3587E-03
            2270     13.7916E-03     11.8642E-03    -14.5338E+06     102.708E+06     67.7838E+06    -858.730E+03    -116.279E-03     220.262E-03    -103.983E-03     28.3326E-03    -116.725E-03     220.824E-03    -103.771E-03     26.8334E-03
            2271     12.9907E-03     11.8215E-03    -19.3375E+06     69.9716E+06     60.1475E+06    -532.069E+03    -117.227E-03     220.404E-03    -103.177E-03     29.7921E-03    -117.635E-03     220.818E-03    -102.950E-03     28.3678E-03
            2272     12.1909E-03     11.7772E-03    -24.6645E+06     26.9057E+06     48.9100E+06    -722.335E+03    -117.438E-03     219.663E-03    -102.225E-03     28.7967E-03    -117.783E-03     219.875E-03    -101.984E-03     27.4643E-03
            2273     11.3907E-03     11.7327E-03    -29.7209E+06    -567.521E+03     42.0956E+06    -411.605E+03    -116.850E-03     217.999E-03    -101.149E-03     26.4377E-03    -117.157E-03     218.077E-03    -100.895E-03     25.2168E-03
            2274     10.5898E-03     11.6890E-03    -34.7179E+06    -23.6640E+06     34.2285E+06     37.5923E+03    -115.551E-03     215.516E-03    -99.9653E-03     23.2258E-03    -115.824E-03     215.483E-03    -99.7095E-03     22.1171E-03
            2275     9.78763E-03     11.6486E-03    -40.1203E+06    -45.4479E+06     26.6512E+06     286.061E+03    -113.779E-03     212.488E-03    -98.7094E-03     19.7534E-03    -114.023E-03     212.352E-03    -98.4521E-03     18.7496E-03
            2276     8.98384E-03     11.6107E-03    -45.7426E+06    -63.0355E+06     19.1515E+06     456.411E+03    -111.535E-03     208.934E-03    -97.3993E-03     16.3071E-03    -111.759E-03     208.717E-03    -97.1458E-03     15.4041E-03
            2277     8.17828E-03     11.5772E-03    -51.6944E+06    -80.7114E+06     11.0017E+06     616.000E+03    -108.882E-03     204.950E-03    -96.0680E-03     13.1173E-03    -109.088E-03     204.654E-03    -95.8210E-03     12.3120E-03
            2278     7.37038E-03     11.5472E-03    -57.9645E+06    -97.7256E+06     2.04616E+06     716.952E+03    -105.957E-03     200.703E-03    -94.7466E-03     10.3966E-03    -106.146E-03     200.334E-03    -94.5106E-03     9.68556E-03
            2279     6.55996E-03     11.5214E-03    -64.7568E+06    -114.997E+06    -8.07392E+06     753.248E+03    -102.890E-03     196.357E-03    -93.4676E-03     8.16441E-03    -103.065E-03     195.919E-03    -93.2474E-03     7.54411E-03
            2280     5.74701E-03     11.4992E-03    -71.8452E+06    -132.305E+06    -19.3251E+06     995.322E+03    -99.8444E-03     192.105E-03    -92.2607E-03     6.38471E-03    -100.007E-03     191.599E-03    -92.0613E-03     5.85475E-03
            2281     4.93154E-03     11.4807E-03    -79.0181E+06    -150.238E+06    -32.0407E+06     1.13154E+06    -96.9622E-03     188.111E-03    -91.1492E-03     4.93765E-03    -97.1103E-03     187.539E-03    -90.9769E-03     4.49351E-03
            2282     4.11373E-03     11.4654E-03    -86.3068E+06    -168.565E+06    -46.4746E+06     1.17997E+06    -94.3452E-03     184.496E-03    -90.1507E-03     3.76558E-03    -94.4770E-03     183.858E-03    -90.0135E-03     3.40331E-03
            2283     3.29378E-03     11.4532E-03    -93.5937E+06    -186.941E+06    -62.5977E+06     1.26120E+06    -92.0678E-03     181.349E-03    -89.2808E-03     2.84098E-03    -92.1818E-03     180.648E-03    -89.1870E-03     2.55835E-03
            2284     2.47212E-03     11.4437E-03    -100.533E+06    -205.053E+06    -79.4660E+06     1.27210E+06    -90.1781E-03     178.738E-03    -88.5602E-03     2.09952E-03    -90.2729E-03     177.979E-03    -88.5145E-03     1.89377E-03
            2285     1.64895E-03     11.4371E-03    -106.181E+06    -220.118E+06    -95.0096E+06     1.15434E+06    -88.7474E-03     176.761E-03    -88.0134E-03     1.35551E-03    -88.8236E-03     175.954E-03    -88.0153E-03     1.22247E-03
            2286     824.736E-06     11.4332E-03    -110.113E+06    -229.748E+06    -106.751E+06     649.036E+03    -87.9008E-03     175.516E-03    -87.6155E-03     649.283E-06    -87.9642E-03     174.683E-03    -87.6565E-03     577.069E-06
            2287     15.3973E-03     10.7430E-03    -4.97825E+06     116.871E+06     94.7774E+06    -577.209E+03    -115.905E-03     221.056E-03    -105.152E-03     14.7003E-03    -116.321E-03     221.595E-03    -104.840E-03     13.3125E-03
            2288     14.5974E-03     10.7170E-03    -10.0448E+06     113.347E+06     77.6966E+06    -493.446E+03    -117.598E-03     221.999E-03    -104.401E-03     24.3689E-03    -118.055E-03     222.597E-03    -104.162E-03     22.7333E-03
            2289     13.7976E-03     10.6799E-03    -15.4216E+06     102.302E+06     67.0235E+06    -929.110E+03    -118.903E-03     222.433E-03    -103.530E-03     28.1153E-03    -119.357E-03     223.002E-03    -103.321E-03     26.5493E-03
            2290     12.9995E-03     10.6388E-03    -19.9087E+06     70.2217E+06     59.7510E+06    -828.069E+03    -119.492E-03     222.038E-03    -102.546E-03     28.8469E-03    -119.909E-03     222.460E-03    -102.320E-03     27.3544E-03
            2291     12.2007E-03     10.5955E-03    -24.4437E+06     27.1303E+06     48.7295E+06    -333.306E+03    -119.412E-03     220.824E-03    -101.412E-03     27.0090E-03    -119.761E-03     221.041E-03    -101.172E-03     25.6184E-03
            2292     11.4023E-03     10.5530E-03    -29.5367E+06    -862.042E+03     41.8412E+06    -192.860E+03    -118.374E-03     218.528E-03    -100.154E-03     24.0493E-03    -118.684E-03     218.609E-03    -99.9006E-03     22.7655E-03
            2293     10.6024E-03     10.5136E-03    -34.9065E+06    -23.7776E+06     34.0059E+06     133.471E+03    -116.597E-03     215.393E-03    -98.7959E-03     20.6679E-03    -116.876E-03     215.365E-03    -98.5408E-03     19.4923E-03
            2294     9.80097E-03     10.4764E-03    -40.1686E+06    -45.3559E+06     26.7585E+06     242.822E+03    -114.197E-03     211.581E-03    -97.3841E-03     17.1345E-03    -114.447E-03     211.450E-03    -97.1263E-03     16.0627E-03
            2295     8.99759E-03     10.4439E-03    -45.6775E+06    -62.7254E+06     19.6703E+06     314.094E+03    -111.257E-03     207.208E-03    -95.9509E-03     13.9319E-03    -111.487E-03     206.996E-03    -95.6953E-03     12.9644E-03
            2296     8.19138E-03     10.4150E-03    -51.6344E+06    -80.5042E+06     11.7188E+06     301.942E+03    -108.005E-03     202.541E-03    -94.5367E-03     11.2739E-03    -108.216E-03     202.250E-03    -94.2865E-03     10.4073E-03
            2297     7.38259E-03     10.3906E-03    -57.7252E+06    -97.4112E+06     3.16836E+06     287.379E+03    -104.614E-03     197.788E-03    -93.1741E-03     9.18959E-03    -104.810E-03     197.424E-03    -92.9333E-03     8.42188E-03
            2298     6.57092E-03     10.3700E-03    -64.1170E+06    -114.680E+06    -6.44445E+06     304.295E+03    -101.257E-03     193.148E-03    -91.8915E-03     7.63033E-03    -101.436E-03     192.712E-03    -91.6645E-03     6.95972E-03
            2299     5.75646E-03     10.3530E-03    -70.8162E+06    -132.061E+06    -17.0613E+06     165.802E+03    -98.0794E-03     188.790E-03    -90.7103E-03     6.44398E-03    -98.2444E-03     188.284E-03    -90.5015E-03     5.86578E-03
            2300     4.93945E-03     10.3391E-03    -77.7620E+06    -149.867E+06    -29.1386E+06     89.5112E+03    -95.1763E-03     184.821E-03    -89.6442E-03     5.50810E-03    -95.3259E-03     184.247E-03    -89.4599E-03     5.02028E-03
            2301     4.12015E-03     10.3281E-03    -84.9380E+06    -168.289E+06    -43.0018E+06     15.2440E+03    -92.6231E-03     181.326E-03    -88.7028E-03     4.72003E-03    -92.7558E-03     180.684E-03    -88.5506E-03     4.31925E-03
            2302     3.29883E-03     10.3196E-03    -92.1177E+06    -186.718E+06    -58.5812E+06     36.0577E+03    -90.4423E-03     178.337E-03    -87.8948E-03     3.92808E-03    -90.5566E-03     177.631E-03    -87.7834E-03     3.61307E-03
            2303     2.47570E-03     10.3132E-03    -98.9036E+06    -204.596E+06    -75.5841E+06      72.689E+03    -88.6547E-03     175.891E-03    -87.2364E-03     3.09035E-03    -88.7484E-03     175.127E-03    -87.1743E-03     2.85830E-03
            2304     1.65119E-03     10.3089E-03    -104.764E+06    -219.458E+06    -92.1702E+06    -18.3804E+03    -87.3598E-03     174.107E-03    -86.7469E-03     2.17034E-03    -87.4344E-03     173.297E-03    -86.7376E-03     2.01549E-03
            2305     825.833E-06     10.3063E-03    -108.661E+06    -228.845E+06    -104.959E+06    -40.4269E+03    -86.6389E-03     173.031E-03    -86.3923E-03     1.17789E-03    -86.6989E-03     172.198E-03    -86.4277E-03     1.09422E-03
            2306     15.3999E-03     9.55983E-03    -5.13740E+06     117.049E+06     95.4118E+06    -318.132E+03    -118.441E-03     223.464E-03    -105.022E-03     15.9206E-03    -118.867E-03     224.010E-03    -104.708E-03     14.4776E-03
            2307     14.6007E-03     9.52950E-03    -10.5333E+06     113.533E+06     78.1826E+06    -690.207E+03    -120.206E-03     224.330E-03    -104.123E-03     25.1600E-03    -120.677E-03     224.939E-03    -103.882E-03     23.4397E-03
            2308     13.8044E-03     9.49467E-03    -14.7873E+06     103.571E+06     67.9715E+06    -928.158E+03    -121.413E-03     224.500E-03    -103.087E-03     28.0946E-03    -121.878E-03     225.083E-03    -102.876E-03     26.4398E-03
            2309     13.0069E-03     9.45329E-03    -19.9083E+06     69.3822E+06     59.3418E+06    -1.15675E+06    -121.813E-03     223.736E-03    -101.923E-03     27.7974E-03    -122.236E-03     224.163E-03    -101.698E-03     26.2139E-03
            2310     12.2112E-03     9.41221E-03    -24.7689E+06     26.5532E+06     48.6388E+06    -427.482E+03    -121.043E-03     221.662E-03    -100.619E-03     25.0924E-03    -121.400E-03     221.885E-03    -100.378E-03     23.6162E-03
            2311     11.4132E-03     9.37372E-03    -29.7236E+06    -683.764E+03     42.1401E+06     260.421E+03    -119.344E-03     218.558E-03    -99.2139E-03     21.9055E-03    -119.664E-03     218.648E-03    -98.9591E-03     20.5431E-03
            2312     10.6141E-03     9.33747E-03    -34.8362E+06    -23.6981E+06     34.6638E+06     73.4703E+03    -116.893E-03     214.631E-03    -97.7380E-03     18.5516E-03    -117.180E-03     214.610E-03    -97.4798E-03     17.2927E-03
            2313     9.81294E-03     9.30623E-03    -40.2020E+06    -44.7972E+06     27.9152E+06     47.2119E+03    -113.675E-03     209.927E-03    -96.2519E-03     15.5508E-03    -113.936E-03     209.805E-03    -95.9890E-03     14.4029E-03
            2314     9.00849E-03     9.27877E-03    -45.8212E+06    -62.4479E+06     20.9787E+06    -153.107E+03    -110.039E-03     204.838E-03    -94.7994E-03     13.1570E-03    -110.280E-03     204.634E-03    -94.5375E-03     12.1205E-03
            2315     8.20136E-03     9.25617E-03    -51.2343E+06    -79.8940E+06     13.6834E+06    -447.003E+03    -106.272E-03     199.696E-03    -93.4236E-03     11.3664E-03    -106.493E-03     199.412E-03    -93.1650E-03     10.4385E-03
            2316     7.39079E-03     9.23734E-03    -57.0388E+06    -97.1211E+06     5.58592E+06    -830.184E+03    -102.606E-03     194.758E-03    -92.1517E-03     10.1449E-03    -102.809E-03     194.398E-03    -91.9003E-03     9.32230E-03
            2317     6.57735E-03     9.22235E-03    -62.9697E+06    -114.314E+06    -2.99996E+06    -1.18588E+06    -99.2218E-03     190.224E-03    -91.0023E-03     9.31672E-03    -99.4072E-03     189.789E-03    -90.7602E-03     8.59717E-03
            2318     5.76119E-03     9.21027E-03    -69.1282E+06    -131.675E+06    -12.6723E+06    -1.55432E+06    -96.1785E-03     186.161E-03    -89.9821E-03     8.67912E-03    -96.3466E-03     185.653E-03    -89.7543E-03     8.05933E-03
            2319     4.94261E-03     9.20097E-03    -75.7364E+06    -149.874E+06    -24.0867E+06    -1.89808E+06    -93.5286E-03     182.624E-03    -89.0955E-03     8.05663E-03    -93.6788E-03     182.043E-03    -88.8887E-03     7.53232E-03
            2320     4.12185E-03     9.19377E-03    -82.6205E+06    -168.527E+06    -37.5213E+06    -1.94796E+06    -91.3070E-03     179.650E-03    -88.3425E-03     7.35144E-03    -91.4382E-03     178.998E-03    -88.1659E-03     6.92204E-03
            2321     3.29946E-03     9.18839E-03    -89.8177E+06    -187.181E+06    -53.8664E+06    -1.85441E+06    -89.5375E-03     177.253E-03    -87.7157E-03     6.40778E-03    -89.6480E-03     176.537E-03    -87.5834E-03     6.06931E-03
            2322     2.47576E-03     9.18480E-03    -97.0357E+06    -205.198E+06    -72.7958E+06    -1.58401E+06    -88.2056E-03     175.414E-03    -87.2082E-03     5.14910E-03    -88.2940E-03     174.640E-03    -87.1339E-03     4.89780E-03
            2323     1.65104E-03     9.18221E-03    -103.331E+06    -220.251E+06    -91.0844E+06    -1.05680E+06    -87.2606E-03     174.087E-03    -86.8266E-03     3.64141E-03    -87.3288E-03     173.271E-03    -86.8129E-03     3.47573E-03
            2324     825.661E-06     9.18077E-03    -107.637E+06    -229.565E+06    -104.360E+06    -417.849E+03    -86.6997E-03     173.282E-03    -86.5818E-03     1.99462E-03    -86.7546E-03     172.442E-03    -86.6146E-03     1.90845E-03
            2325     15.4010E-03     8.36998E-03    -5.06367E+06     118.167E+06     96.8122E+06    -344.641E+03    -121.001E-03     225.899E-03    -104.898E-03     16.7959E-03    -121.438E-03     226.457E-03    -104.578E-03     15.2709E-03
            2326     14.6057E-03     8.34232E-03    -9.83686E+06     113.847E+06     79.3454E+06    -1.06757E+06    -122.733E-03     226.585E-03    -103.852E-03     25.5811E-03    -123.213E-03     227.204E-03    -103.606E-03     23.7571E-03
            2327     13.8091E-03     8.30526E-03    -14.8190E+06     103.066E+06     68.2800E+06    -1.07852E+06    -123.835E-03     226.489E-03    -102.654E-03     27.3991E-03    -124.310E-03     227.079E-03    -102.440E-03     25.6431E-03
            2328     13.0160E-03     8.26573E-03    -19.7972E+06     69.7922E+06     60.3139E+06    -350.259E+03    -123.517E-03     224.854E-03    -101.338E-03     26.2380E-03    -123.950E-03     225.291E-03    -101.109E-03     24.5687E-03
            2329     12.2197E-03     8.22879E-03    -25.2770E+06     25.8049E+06     49.0527E+06     6.62748E+03    -122.015E-03     221.922E-03    -99.9068E-03     23.4305E-03    -122.384E-03     222.151E-03    -99.6623E-03     21.8622E-03
            2330     11.4231E-03     8.19361E-03    -30.2078E+06    -451.000E+03     43.2715E+06    -83.2643E+03    -119.366E-03     217.785E-03    -98.4190E-03     20.2858E-03    -119.701E-03     217.886E-03    -98.1582E-03     18.8266E-03
            2331     10.6237E-03     8.16348E-03    -35.2433E+06    -22.9883E+06     36.3696E+06    -181.020E+03    -115.784E-03     212.711E-03    -96.9275E-03     17.6096E-03    -116.087E-03     212.703E-03    -96.6612E-03     16.2749E-03
            2332     9.82087E-03     8.13786E-03    -40.3414E+06    -44.2468E+06     30.1149E+06    -682.826E+03    -111.776E-03     207.279E-03    -95.5030E-03     15.6780E-03    -112.052E-03     207.168E-03    -95.2297E-03     14.4648E-03
            2333     9.01514E-03     8.11719E-03    -45.1352E+06    -61.4634E+06     24.1282E+06    -1.50315E+06    -107.642E-03     201.824E-03    -94.1823E-03     14.5678E-03    -107.895E-03     201.629E-03    -93.9071E-03     13.4741E-03
            2334     8.20545E-03     8.10052E-03    -50.2577E+06    -79.3283E+06     17.5519E+06    -2.31491E+06    -103.729E-03     196.726E-03    -92.9967E-03     13.9278E-03    -103.960E-03     196.447E-03    -92.7210E-03     12.9530E-03
            2335     7.39290E-03     8.08769E-03    -55.4020E+06    -96.3615E+06     10.7166E+06    -3.09014E+06    -100.193E-03     192.151E-03    -91.9579E-03     13.5169E-03    -100.403E-03     191.792E-03    -91.6843E-03     12.6575E-03
            2336     6.57736E-03     8.07759E-03    -60.5999E+06    -113.903E+06     3.08289E+06    -4.02574E+06    -97.1073E-03     188.177E-03    -91.0700E-03     13.1992E-03    -97.2955E-03     187.737E-03    -90.8016E-03     12.4476E-03
            2337     5.75946E-03     8.07007E-03    -66.0871E+06    -131.705E+06    -6.19696E+06    -4.76004E+06    -94.5445E-03     184.870E-03    -90.3257E-03     12.7556E-03    -94.7105E-03     184.352E-03    -90.0698E-03     12.1068E-03
            2338     4.93955E-03     8.06438E-03    -71.9923E+06    -150.664E+06    -17.9543E+06    -5.00551E+06    -92.5023E-03     182.214E-03    -89.7115E-03     12.0085E-03    -92.6440E-03     181.617E-03    -89.4784E-03     11.4609E-03
            2339     4.11823E-03     8.06026E-03    -78.7916E+06    -170.287E+06    -33.4310E+06    -4.50571E+06    -90.9159E-03     180.125E-03    -89.2091E-03     10.8229E-03    -91.0328E-03     179.455E-03    -89.0151E-03     10.3776E-03
            2340     3.29555E-03     8.05732E-03    -86.1842E+06    -189.227E+06    -52.5145E+06    -3.30127E+06    -89.7528E-03     178.557E-03    -88.8040E-03     9.23133E-03    -89.8451E-03     177.824E-03    -88.6672E-03     8.88903E-03
            2341     2.47220E-03     8.05511E-03    -93.3328E+06    -207.139E+06    -72.7628E+06    -2.10221E+06    -88.9779E-03     177.465E-03    -88.4870E-03     7.26641E-03    -89.0456E-03     176.677E-03    -88.4152E-03     7.01971E-03
            2342     1.64847E-03     8.05400E-03    -99.5914E+06    -222.447E+06    -90.0762E+06    -804.792E+03    -88.4633E-03     176.723E-03    -88.2593E-03     5.10961E-03    -88.5114E-03     175.888E-03    -88.2427E-03     4.95397E-03
            2343     824.345E-06     8.05313E-03    -104.256E+06    -230.099E+06    -101.835E+06     504.041E+03    -88.1104E-03     176.285E-03    -88.1745E-03     2.93429E-03    -88.1516E-03     175.434E-03    -88.1988E-03     2.86329E-03
            2344     15.4044E-03     7.18123E-03    -5.32395E+06     118.535E+06     97.5852E+06    -673.315E+03    -123.480E-03     228.255E-03    -104.775E-03     17.9432E-03    -123.929E-03     228.823E-03    -104.451E-03     16.3353E-03
            2345     14.6081E-03     7.15008E-03    -10.6993E+06     114.004E+06     79.8137E+06    -490.646E+03    -125.258E-03     228.842E-03    -103.584E-03     25.8912E-03    -125.755E-03     229.475E-03    -103.335E-03     23.9753E-03
            2346     13.8172E-03     7.11368E-03    -16.2462E+06     102.431E+06     68.4585E+06    -298.184E+03    -125.473E-03     227.724E-03    -102.251E-03     26.6886E-03    -125.966E-03     228.324E-03    -102.034E-03     24.8450E-03
            2347     13.0217E-03     7.07859E-03    -21.4384E+06      69.609E+06     60.9084E+06      70.173E+03    -124.216E-03     225.055E-03    -100.840E-03     25.0637E-03    -124.671E-03     225.505E-03    -100.605E-03     23.2980E-03
            2348     12.2275E-03     7.04387E-03    -25.8784E+06     26.4426E+06     50.9300E+06    -20.6313E+03    -121.570E-03     220.941E-03    -99.3711E-03     22.2987E-03    -121.959E-03     221.185E-03    -99.1173E-03     20.6362E-03
            2349     11.4299E-03     7.01584E-03    -30.8571E+06    -15.4235E+03     45.6761E+06    -634.739E+03    -117.575E-03     215.503E-03    -97.9280E-03     20.1061E-03    -117.930E-03     215.616E-03    -97.6549E-03     18.5767E-03
            2350     10.6284E-03     6.99203E-03    -35.5599E+06    -21.6814E+06     39.9453E+06    -1.46829E+06    -112.990E-03     209.568E-03    -96.5785E-03     18.9443E-03    -113.314E-03     209.574E-03    -96.2958E-03     17.5589E-03
            2351     9.82347E-03     6.97344E-03    -39.6862E+06    -42.8165E+06     34.8466E+06    -2.92040E+06    -108.455E-03     203.837E-03    -95.3821E-03     18.5490E-03    -108.746E-03     203.735E-03    -95.0883E-03     17.3008E-03
            2352     9.01408E-03     6.95929E-03    -43.8809E+06    -60.2057E+06     29.8777E+06    -4.40002E+06    -104.363E-03     198.714E-03    -94.3515E-03     18.6354E-03    -104.627E-03     198.523E-03    -94.0512E-03     17.5214E-03
            2353     8.20198E-03     6.94836E-03    -47.7606E+06    -78.3887E+06     24.5211E+06    -5.88722E+06    -100.831E-03     194.322E-03    -93.4914E-03     18.7802E-03    -101.066E-03     194.039E-03    -93.1859E-03     17.7930E-03
            2354     7.38690E-03     6.94039E-03    -51.4610E+06    -95.5942E+06     18.5369E+06    -7.42921E+06    -97.9430E-03     190.732E-03    -92.7893E-03     18.7489E-03    -98.1491E-03     190.363E-03    -92.4834E-03     17.8768E-03
            2355     6.56972E-03     6.93456E-03    -55.5633E+06    -113.944E+06     10.0912E+06    -8.62511E+06    -95.6700E-03     187.893E-03    -92.2233E-03     18.2545E-03    -95.8450E-03     187.437E-03    -91.9271E-03     17.4885E-03
            2356     5.75070E-03     6.93027E-03    -60.3531E+06    -133.061E+06    -1.46078E+06    -8.93548E+06    -93.9231E-03     185.696E-03    -91.7729E-03     17.2290E-03    -94.0662E-03     185.157E-03    -91.4998E-03     16.5685E-03
            2357     4.93056E-03     6.92703E-03    -66.2893E+06    -153.867E+06    -16.6553E+06    -7.84145E+06    -92.6655E-03     184.084E-03    -91.4187E-03     15.6920E-03    -92.7764E-03     183.462E-03    -91.1828E-03     15.1432E-03
            2358     4.10949E-03     6.92476E-03    -73.4306E+06    -174.483E+06    -35.5740E+06    -5.48859E+06    -91.8120E-03     182.948E-03    -91.1357E-03     13.6980E-03    -91.8931E-03     182.252E-03    -90.9541E-03     13.2671E-03
            2359     3.28816E-03     6.92310E-03    -80.9773E+06    -192.963E+06    -55.9117E+06    -3.04170E+06    -91.2380E-03     182.151E-03    -90.9130E-03     11.3709E-03    -91.2940E-03     181.396E-03    -90.7953E-03     11.0513E-03
            2360     2.46630E-03     6.92193E-03    -87.6528E+06    -210.019E+06    -73.5030E+06    -916.254E+03    -90.8629E-03     181.624E-03    -90.7612E-03     8.74756E-03    -90.8970E-03     180.814E-03    -90.6971E-03     8.52900E-03
            2361     1.64416E-03     6.92117E-03    -93.1057E+06    -224.743E+06    -85.8818E+06     894.493E+03    -90.6822E-03     181.362E-03    -90.6798E-03     5.99714E-03    -90.7008E-03     180.501E-03    -90.6484E-03     5.87076E-03
            2362     822.006E-06     6.92082E-03    -97.1770E+06    -228.018E+06    -94.5891E+06     1.98916E+06    -90.5260E-03     181.247E-03    -90.7205E-03     3.38513E-03    -90.5454E-03     180.385E-03    -90.7219E-03     3.33648E-03
            2363     15.4036E-03     5.98640E-03    -5.08084E+06     119.215E+06     98.6503E+06    -352.673E+03    -125.743E-03     230.390E-03    -104.647E-03     18.3151E-03    -126.202E-03     230.967E-03    -104.319E-03     16.6323E-03
            2364     14.6145E-03     5.95526E-03    -10.6319E+06     112.970E+06     81.0126E+06    -774.385E+03    -126.581E-03     229.935E-03    -103.355E-03     26.1087E-03    -127.092E-03     230.575E-03    -103.098E-03     24.0927E-03
            2365     13.8195E-03     5.92295E-03    -15.2489E+06     101.924E+06     71.1202E+06     383.717E+03    -125.966E-03     227.927E-03    -101.961E-03     26.5556E-03    -126.473E-03     228.536E-03    -101.731E-03     24.6160E-03
            2366     13.0279E-03     5.88909E-03    -20.6545E+06     70.0160E+06     64.3199E+06     465.530E+03    -123.215E-03     223.765E-03    -100.550E-03     24.5961E-03    -123.687E-03     224.227E-03    -100.300E-03     22.7500E-03
            2367     12.2312E-03     5.86280E-03    -26.7504E+06     27.8407E+06     55.1763E+06    -380.755E+03    -118.651E-03     217.848E-03    -99.1966E-03     23.1135E-03    -119.067E-03     218.108E-03    -98.9223E-03     21.4165E-03
            2368     11.4303E-03     5.84103E-03    -31.4839E+06     2.61333E+06     51.2767E+06    -2.28112E+06    -113.554E-03     211.544E-03    -97.9891E-03     22.8976E-03    -113.934E-03     211.673E-03    -97.6908E-03     21.3663E-03
            2369     10.6258E-03     5.82518E-03    -34.9866E+06    -19.8252E+06     46.3636E+06    -5.06165E+06    -108.742E-03     205.701E-03    -96.9593E-03     23.4860E-03    -109.081E-03     205.712E-03    -96.6480E-03     22.1084E-03
            2370     9.81627E-03     5.81354E-03    -37.8921E+06    -40.6808E+06     42.3729E+06    -7.23000E+06    -104.593E-03     200.721E-03    -96.1276E-03     24.1854E-03    -104.892E-03     200.619E-03    -95.8018E-03     22.9648E-03
            2371     9.00438E-03     5.80445E-03    -40.2006E+06    -58.4438E+06     37.7946E+06    -9.75925E+06    -101.250E-03     196.722E-03    -95.4719E-03     24.5352E-03    -101.509E-03     196.522E-03    -95.1398E-03     23.4486E-03
            2372     8.18947E-03     5.79854E-03    -42.4774E+06    -77.6050E+06     31.3341E+06    -11.9984E+06    -98.7134E-03     193.682E-03    -94.9687E-03     24.3820E-03    -98.9308E-03     193.383E-03    -94.6379E-03     23.4110E-03
            2373     7.37280E-03     5.79372E-03    -45.2541E+06    -96.0582E+06     21.8992E+06    -13.1823E+06    -96.8818E-03     191.463E-03    -94.5816E-03     23.5712E-03    -97.0579E-03     191.074E-03    -94.2672E-03     22.7104E-03
            2374     6.55501E-03     5.79044E-03    -48.9533E+06    -116.222E+06     8.73679E+06    -13.1068E+06    -95.6352E-03     189.917E-03    -94.2814E-03     22.1076E-03    -95.7685E-03     189.438E-03    -93.9982E-03     21.3550E-03
            2375     5.73664E-03     5.78797E-03    -54.3010E+06    -137.661E+06    -7.29425E+06    -11.2971E+06    -94.7909E-03     188.838E-03    -94.0473E-03     20.1404E-03    -94.8858E-03     188.272E-03    -93.8054E-03     19.5048E-03
            2376     4.91758E-03     5.78617E-03    -61.3399E+06    -160.495E+06    -24.9152E+06    -7.68444E+06    -94.2171E-03     188.086E-03    -93.8691E-03     17.7259E-03    -94.2794E-03     187.433E-03    -93.6720E-03     17.2202E-03
            2377     4.09830E-03     5.78471E-03    -68.6779E+06    -180.466E+06    -43.0414E+06    -3.61750E+06    -93.8592E-03     187.590E-03    -93.7307E-03     15.0131E-03    -93.8954E-03     186.866E-03    -93.5847E-03     14.6356E-03
            2378     3.27860E-03     5.78363E-03    -75.4395E+06    -196.782E+06    -59.6760E+06    -610.659E+03    -93.6447E-03     187.273E-03    -93.6288E-03     12.1389E-03    -93.6610E-03     186.496E-03    -93.5324E-03     11.8706E-03
            2379     2.45898E-03     5.78289E-03    -81.1081E+06    -212.654E+06    -71.6988E+06     1.32705E+06    -93.5458E-03     187.119E-03    -93.5728E-03     9.19346E-03    -93.5455E-03     186.283E-03    -93.5054E-03     9.01684E-03
            2380     1.63932E-03     5.78232E-03    -85.7600E+06    -225.031E+06    -79.6751E+06     2.58481E+06    -93.5403E-03     187.076E-03    -93.5361E-03     6.18544E-03    -93.5305E-03     186.194E-03    -93.4839E-03     6.08878E-03
            2381     819.744E-06     5.78178E-03    -88.9776E+06    -223.349E+06    -86.3240E+06     2.24449E+06    -93.4390E-03     186.964E-03    -93.5254E-03     3.33499E-03    -93.4361E-03     186.103E-03    -93.5042E-03     3.29291E-03
            2382     15.4105E-03     4.79050E-03      -5.238E+06     119.557E+06     99.5071E+06     203.272E+03    -127.035E-03     231.618E-03    -104.583E-03     20.2785E-03    -127.508E-03     232.209E-03    -104.251E-03     18.5474E-03
            2383     14.6138E-03     4.76255E-03    -10.9145E+06     113.204E+06     82.7142E+06     45.5397E+03    -126.594E-03     229.852E-03    -103.258E-03     28.0716E-03    -127.131E-03     230.513E-03    -102.993E-03     25.9941E-03
            2384     13.8240E-03     4.72875E-03    -16.9420E+06     99.3980E+06     73.7967E+06     489.784E+03    -124.067E-03     225.992E-03    -101.925E-03     27.6540E-03    -124.602E-03     226.606E-03    -101.675E-03     25.6629E-03
            2385     13.0275E-03     4.70493E-03    -23.0050E+06     71.6180E+06     69.3567E+06     1.45620E+06    -118.973E-03     219.679E-03    -100.706E-03     27.1467E-03    -119.478E-03     220.157E-03    -100.430E-03     25.3545E-03
            2386     12.2269E-03     4.68558E-03    -28.0647E+06     32.8566E+06     61.7937E+06    -2.06825E+06    -113.421E-03     213.093E-03    -99.6722E-03     27.9498E-03    -113.864E-03     213.375E-03    -99.3702E-03     26.3429E-03
            2387     11.4218E-03     4.67258E-03    -30.9295E+06     6.48827E+06     58.0739E+06    -6.95140E+06    -108.514E-03     207.369E-03    -98.8547E-03     29.1280E-03    -108.903E-03     207.504E-03    -98.5289E-03     27.6934E-03
            2388     10.6114E-03     4.66303E-03    -32.7866E+06    -16.4422E+06     52.3209E+06    -10.7382E+06    -104.720E-03     202.942E-03    -98.2224E-03     29.8144E-03    -105.052E-03     202.949E-03    -97.8894E-03     28.5420E-03
            2389     9.79988E-03     4.65596E-03    -33.8881E+06    -38.5346E+06     45.8744E+06    -14.5192E+06    -101.873E-03     199.625E-03    -97.7527E-03     29.7635E-03    -102.148E-03     199.511E-03    -97.4183E-03     28.6196E-03
            2390     8.98521E-03     4.65141E-03    -34.7949E+06    -57.3666E+06     36.8212E+06    -16.9189E+06    -99.8200E-03     197.222E-03    -97.4021E-03     28.9963E-03    -100.040E-03     197.009E-03    -97.0844E-03     27.9694E-03
            2391     8.16980E-03     4.64738E-03    -36.8922E+06    -79.0922E+06     23.9471E+06    -17.8290E+06    -98.4950E-03     195.637E-03    -97.1425E-03     27.4892E-03    -98.6599E-03     195.321E-03    -96.8546E-03     26.5706E-03
            2392     7.35381E-03     4.64481E-03    -40.5904E+06    -100.021E+06     9.07612E+06    -16.6924E+06    -97.6365E-03     194.585E-03    -96.9481E-03     25.4403E-03    -97.7549E-03     194.177E-03    -96.6988E-03     24.6361E-03
            2393     6.53711E-03     4.64248E-03    -46.2175E+06    -122.589E+06    -7.16734E+06    -13.5715E+06    -97.1068E-03     193.911E-03    -96.8046E-03     23.0107E-03    -97.1862E-03     193.412E-03    -96.5956E-03     22.3320E-03
            2394     5.72011E-03     4.64085E-03    -53.2017E+06    -145.590E+06    -23.2858E+06    -9.09630E+06    -96.8281E-03     193.526E-03    -96.6978E-03     20.3018E-03    -96.8767E-03     192.936E-03    -96.5260E-03     19.7556E-03
            2395     4.90316E-03     4.63956E-03    -60.3198E+06    -168.722E+06    -37.3473E+06    -4.26715E+06    -96.6756E-03     193.296E-03    -96.6204E-03     17.4762E-03    -96.6984E-03     192.613E-03    -96.4750E-03     17.0605E-03
            2396     4.08602E-03     4.63853E-03    -66.8863E+06    -186.091E+06    -50.6655E+06    -115.244E+03    -96.5657E-03     193.116E-03    -96.5500E-03     14.5393E-03    -96.5707E-03     192.369E-03    -96.4365E-03     14.2411E-03
            2397     3.26898E-03     4.63775E-03    -72.0124E+06    -199.116E+06    -61.8739E+06     2.29688E+06    -96.4803E-03     192.974E-03    -96.4937E-03     11.5388E-03    -96.4709E-03     192.181E-03    -96.4099E-03     11.3331E-03
            2398     2.45172E-03     4.63709E-03    -75.8668E+06    -213.350E+06    -69.0706E+06     3.38808E+06    -96.4510E-03     192.917E-03    -96.4664E-03     8.70017E-03    -96.4260E-03     192.065E-03    -96.3924E-03     8.56759E-03
            2399     1.63458E-03     4.63647E-03    -79.0208E+06    -222.603E+06    -74.3715E+06     3.41874E+06    -96.4597E-03     192.895E-03    -96.4348E-03     5.93615E-03    -96.4269E-03     192.006E-03    -96.3693E-03     5.86189E-03
            2400     817.386E-06     4.63619E-03    -81.4069E+06    -217.778E+06    -79.7855E+06     2.27786E+06    -96.3298E-03     192.764E-03    -96.4341E-03     3.19709E-03    -96.3064E-03     191.909E-03    -96.3992E-03     3.16236E-03
            2401     15.4030E-03     3.59717E-03    -6.74583E+06     118.311E+06     100.192E+06     487.481E+03    -126.787E-03     231.547E-03    -104.759E-03     24.4191E-03    -127.287E-03     232.152E-03    -104.420E-03     22.6637E-03
            2402     14.6155E-03     3.56441E-03    -12.3532E+06     113.210E+06     83.2375E+06     1.17953E+06    -124.110E-03     227.627E-03    -103.517E-03     32.5908E-03    -124.676E-03     228.311E-03    -103.247E-03     30.5569E-03
            2403     13.8183E-03     3.54315E-03    -18.5958E+06     97.6721E+06     73.1010E+06     2.56687E+06    -118.536E-03     220.964E-03    -102.428E-03     33.2205E-03    -119.082E-03     221.581E-03    -102.178E-03     31.4109E-03
            2404     13.0169E-03     3.52572E-03    -24.4662E+06     75.9835E+06     68.1352E+06     145.349E+03    -112.959E-03     214.541E-03    -101.582E-03     34.2498E-03    -113.465E-03     215.034E-03    -101.316E-03     32.6951E-03
            2405     12.2105E-03     3.51574E-03    -27.1689E+06     42.0765E+06     60.2662E+06    -6.79941E+06    -108.621E-03     209.565E-03    -100.944E-03     34.4868E-03    -109.046E-03     209.869E-03    -100.665E-03     33.1120E-03
            2406     11.3999E-03     3.50795E-03    -28.7936E+06     10.7615E+06     52.3469E+06    -13.2007E+06    -105.390E-03     205.867E-03    -100.477E-03     34.1164E-03    -105.737E-03     205.999E-03    -100.189E-03     32.8839E-03
            2407     10.5893E-03     3.50215E-03    -29.5031E+06    -12.1794E+06     40.7757E+06    -18.0097E+06    -103.128E-03     203.243E-03    -100.116E-03     32.7766E-03    -103.405E-03     203.254E-03    -99.8513E-03     31.6594E-03
            2408     9.77573E-03     3.49847E-03    -30.3786E+06    -37.9742E+06     27.8772E+06    -21.1212E+06    -101.628E-03     201.483E-03    -99.8550E-03     30.8947E-03    -101.835E-03     201.366E-03    -99.6165E-03     29.8739E-03
            2409     8.96253E-03     3.49513E-03    -33.0452E+06    -60.5516E+06     13.1135E+06    -20.9312E+06    -100.698E-03     200.352E-03    -99.6546E-03     28.6248E-03    -100.849E-03     200.133E-03    -99.4534E-03     27.7153E-03
            2410     8.14845E-03     3.49285E-03    -37.4289E+06    -84.5541E+06    -1.60821E+06    -18.4184E+06    -100.090E-03     199.598E-03    -99.5082E-03     26.0459E-03    -100.195E-03     199.274E-03    -99.3394E-03     25.2567E-03
            2411     7.33378E-03     3.49065E-03    -43.7073E+06    -108.130E+06    -15.8969E+06    -14.4056E+06    -99.7195E-03     199.119E-03    -99.4000E-03     23.3043E-03    -99.7912E-03     198.698E-03    -99.2593E-03     22.6409E-03
            2412     6.51924E-03     3.48918E-03    -50.6902E+06    -131.646E+06    -28.2214E+06    -9.36880E+06    -99.4996E-03     198.824E-03    -99.3241E-03     20.4838E-03    -99.5465E-03     198.305E-03    -99.2008E-03     19.9498E-03
            2413     5.70455E-03     3.48769E-03    -57.0438E+06    -154.082E+06    -38.5446E+06    -4.52200E+06    -99.3497E-03     198.620E-03    -99.2705E-03     17.6767E-03    -99.3745E-03     198.007E-03    -99.1571E-03     17.2633E-03
            2414     4.88971E-03     3.48669E-03    -62.4052E+06    -175.604E+06    -46.9548E+06    -336.518E+03    -99.2756E-03     198.509E-03    -99.2330E-03     14.9967E-03    -99.2787E-03     197.802E-03    -99.1227E-03     14.6918E-03
            2415     4.07497E-03     3.48579E-03    -66.5934E+06    -189.680E+06    -55.2793E+06     2.64632E+06    -99.2230E-03     198.411E-03    -99.1881E-03     12.4411E-03    -99.2103E-03     197.648E-03    -99.0929E-03     12.2271E-03
            2416     3.26004E-03     3.48519E-03    -69.6932E+06    -199.510E+06    -62.5441E+06     4.13531E+06    -99.1838E-03     198.327E-03    -99.1428E-03     9.92946E-03    -99.1585E-03     197.527E-03    -99.0652E-03     9.78529E-03
            2417     2.44516E-03     3.48480E-03    -71.9337E+06    -211.692E+06    -66.8651E+06     4.21299E+06    -99.1530E-03     198.268E-03    -99.1147E-03     7.51184E-03    -99.1124E-03     197.414E-03    -99.0377E-03     7.41837E-03
            2418     1.63002E-03     3.48420E-03    -73.4274E+06    -218.747E+06    -69.6796E+06     3.40947E+06    -99.0841E-03     198.178E-03    -99.0942E-03     5.04981E-03    -99.0349E-03     197.293E-03    -99.0189E-03     4.99432E-03
            2419     814.927E-06     3.48401E-03    -75.0047E+06    -212.343E+06    -73.3317E+06     2.07222E+06    -98.9875E-03     198.115E-03    -99.1276E-03     2.65094E-03    -98.9490E-03     197.269E-03    -99.0776E-03     2.62385E-03
            2420     15.4008E-03     2.39615E-03    -5.93801E+06     117.365E+06     101.057E+06     1.63412E+06    -123.481E-03     228.951E-03    -105.470E-03     35.4733E-03    -123.997E-03     229.570E-03    -105.126E-03     33.8571E-03
            2421     14.6014E-03     2.37697E-03    -11.5780E+06     110.829E+06     80.7779E+06     3.14638E+06    -119.616E-03     224.080E-03    -104.463E-03     40.7425E-03    -120.162E-03     224.744E-03    -104.203E-03     39.0294E-03
            2422     13.7992E-03     2.36324E-03    -17.0117E+06     99.7865E+06     62.9852E+06     2.69077E+06    -113.982E-03     217.624E-03    -103.643E-03     38.2738E-03    -114.462E-03     218.217E-03    -103.448E-03     36.9047E-03
            2423     12.9921E-03     2.35344E-03    -20.1773E+06     84.7378E+06     48.2746E+06    -2.28477E+06    -109.793E-03     212.841E-03    -103.048E-03     36.2711E-03    -110.206E-03     213.343E-03    -102.900E-03     35.1339E-03
            2424     12.1835E-03     2.34687E-03    -23.4720E+06     51.7242E+06     30.2547E+06    -10.0824E+06    -107.330E-03     209.940E-03    -102.610E-03     33.3648E-03    -107.652E-03     210.275E-03    -102.499E-03     32.3453E-03
            2425     11.3754E-03     2.34226E-03    -25.9679E+06     16.8835E+06     17.9674E+06    -17.5418E+06    -105.572E-03     207.869E-03    -102.298E-03     30.7611E-03    -105.817E-03     208.030E-03    -102.195E-03     29.7956E-03
            2426     10.5639E-03     2.33912E-03    -28.5116E+06    -11.1997E+06     3.44026E+06    -21.2986E+06    -104.265E-03     206.304E-03    -102.039E-03     28.0023E-03    -104.446E-03     206.334E-03    -101.964E-03     27.1080E-03
            2427     9.75347E-03     2.33640E-03    -32.8795E+06    -41.7249E+06    -9.52095E+06    -20.6536E+06    -103.429E-03     205.279E-03    -101.850E-03     25.2577E-03    -103.558E-03     205.170E-03    -101.789E-03     24.4627E-03
            2428     8.94142E-03     2.33438E-03    -38.9781E+06    -67.8203E+06    -20.3600E+06    -17.5688E+06    -102.840E-03     204.544E-03    -101.704E-03     22.6118E-03    -102.936E-03     204.320E-03    -101.651E-03     21.9295E-03
            2429     8.12936E-03     2.33256E-03    -45.8672E+06    -93.1629E+06    -29.4090E+06    -13.1678E+06    -102.425E-03     204.019E-03    -101.594E-03     20.0350E-03    -102.500E-03     203.685E-03    -101.539E-03     19.4697E-03
            2430     7.31729E-03     2.33120E-03    -52.2042E+06    -117.022E+06    -36.8779E+06    -8.51403E+06    -102.108E-03     203.616E-03    -101.508E-03     17.5585E-03    -102.164E-03     203.177E-03    -101.447E-03     17.1042E-03
            2431     6.50472E-03     2.32977E-03    -57.3648E+06    -139.515E+06    -43.0069E+06    -4.47909E+06    -101.850E-03     203.290E-03    -101.441E-03     15.2426E-03    -101.885E-03     202.751E-03    -101.370E-03     14.8857E-03
            2432     5.69202E-03     2.32897E-03    -61.4522E+06    -160.486E+06    -47.9938E+06    -1.02918E+06    -101.660E-03     203.050E-03    -101.390E-03     13.0816E-03    -101.675E-03     202.416E-03    -101.308E-03     12.8108E-03
            2433     4.87911E-03     2.32807E-03    -64.4395E+06    -179.642E+06    -52.1800E+06     1.50039E+06    -101.507E-03     202.858E-03    -101.351E-03     11.0030E-03    -101.500E-03     202.136E-03    -101.258E-03     10.8043E-03
            2434     4.06596E-03     2.32749E-03    -66.3245E+06    -191.450E+06    -57.1725E+06     3.15220E+06    -101.385E-03     202.694E-03    -101.309E-03     9.03603E-03    -101.361E-03     201.921E-03    -101.221E-03     8.89616E-03
            2435     3.25280E-03     2.32697E-03    -67.2764E+06    -198.738E+06    -61.8284E+06     3.98508E+06    -101.346E-03     202.613E-03    -101.267E-03     7.18213E-03    -101.307E-03     201.809E-03    -101.190E-03     7.08905E-03
            2436     2.43966E-03     2.32656E-03    -67.8507E+06    -208.685E+06    -63.5912E+06     3.61949E+06    -101.327E-03     202.564E-03    -101.237E-03     5.36146E-03    -101.274E-03     201.713E-03    -101.154E-03     5.29943E-03
            2437     1.62667E-03     2.32633E-03    -68.7407E+06    -214.873E+06    -64.7622E+06     2.32993E+06    -101.237E-03     202.443E-03    -101.206E-03     3.57872E-03    -101.176E-03     201.563E-03    -101.118E-03     3.53562E-03
            2438     813.352E-06     2.32621E-03    -69.8304E+06    -208.213E+06    -67.8985E+06     1.08336E+06    -101.159E-03     202.321E-03    -101.162E-03     1.96418E-03    -101.108E-03     201.480E-03    -101.098E-03     1.93889E-03
            2439     15.3704E-03     1.20622E-03    -4.29740E+06     116.568E+06     100.115E+06     2.36726E+06    -125.577E-03     232.487E-03    -106.910E-03     43.3914E-03    -126.049E-03     233.065E-03    -106.572E-03     42.1914E-03
            2440     14.5732E-03     1.18914E-03    -9.00211E+06     110.414E+06     77.8713E+06     3.04654E+06    -119.693E-03     225.603E-03    -105.909E-03     35.1379E-03    -120.125E-03     226.169E-03    -105.667E-03     34.1203E-03
            2441     13.7725E-03     1.18521E-03    -12.5106E+06     104.212E+06     48.6263E+06     391.543E+03    -114.651E-03     219.737E-03    -105.086E-03     28.0491E-03    -115.002E-03     220.272E-03    -104.976E-03     27.3014E-03
            2442     12.9688E-03     1.17894E-03    -14.7365E+06     90.7913E+06     18.9751E+06    -2.44916E+06    -111.135E-03     215.584E-03    -104.449E-03     24.2741E-03    -111.412E-03     216.076E-03    -104.464E-03     23.6579E-03
            2443     12.1631E-03     1.17507E-03    -18.5243E+06     61.8316E+06    -10.9376E+06    -7.32201E+06    -108.827E-03     212.792E-03    -103.964E-03     20.4562E-03    -109.024E-03     213.174E-03    -104.082E-03     19.8973E-03
            2444     11.3543E-03     1.17277E-03    -24.3445E+06     22.4961E+06    -26.9467E+06    -13.6706E+06    -107.309E-03     210.961E-03    -103.652E-03     17.9010E-03    -107.447E-03     211.171E-03    -103.784E-03     17.3378E-03
            2445     10.5468E-03     1.17108E-03    -31.6525E+06    -15.2180E+06    -34.5385E+06    -14.5780E+06    -106.257E-03     209.695E-03    -103.438E-03     15.8715E-03    -106.359E-03     209.731E-03    -103.543E-03     15.3565E-03
            2446     9.73692E-03     1.16976E-03    -39.9626E+06    -47.5253E+06    -39.9072E+06    -12.0729E+06    -105.451E-03     208.719E-03    -103.268E-03     14.0244E-03    -105.537E-03     208.610E-03    -103.341E-03     13.5890E-03
            2447     8.92741E-03     1.16866E-03    -47.6284E+06    -75.1956E+06    -43.0374E+06    -9.22968E+06    -104.804E-03     207.936E-03    -103.132E-03     12.3296E-03    -104.880E-03     207.701E-03    -103.170E-03     11.9695E-03
            2448     8.11709E-03     1.16764E-03    -53.7176E+06    -100.283E+06    -45.9254E+06    -6.17831E+06    -104.290E-03     207.307E-03    -103.017E-03     10.8145E-03    -104.354E-03     206.957E-03    -103.023E-03     10.5261E-03
            2449     7.30621E-03     1.16677E-03    -58.3063E+06    -123.139E+06    -48.0524E+06    -3.64114E+06    -103.858E-03     206.780E-03    -102.922E-03     9.41253E-03    -103.907E-03     206.324E-03    -102.899E-03     9.18366E-03
            2450     6.49510E-03     1.16629E-03    -61.6746E+06    -144.355E+06    -50.3104E+06    -1.43010E+06    -103.502E-03     206.345E-03    -102.843E-03     8.12968E-03    -103.533E-03     205.790E-03    -102.796E-03     7.95338E-03
            2451     5.68363E-03     1.16559E-03    -63.9708E+06    -163.875E+06    -52.4119E+06     184.937E+03    -103.241E-03     206.019E-03    -102.778E-03     6.91377E-03    -103.250E-03     205.371E-03    -102.710E-03     6.78022E-03
            2452     4.87209E-03     1.16524E-03    -65.4400E+06    -181.397E+06    -54.2027E+06     1.23509E+06    -103.039E-03     205.764E-03    -102.725E-03     5.74574E-03    -103.027E-03     205.033E-03    -102.638E-03     5.64586E-03
            2453     4.06039E-03     1.16493E-03    -66.3723E+06    -191.931E+06    -57.4577E+06     1.77689E+06    -102.872E-03     205.537E-03    -102.665E-03     4.67439E-03    -102.844E-03     204.758E-03    -102.578E-03     4.60099E-03
            2454     3.24849E-03     1.16456E-03    -66.5326E+06    -198.263E+06    -60.9694E+06     2.13544E+06    -102.739E-03     205.348E-03    -102.609E-03     3.70099E-03    -102.697E-03     204.542E-03    -102.530E-03     3.65101E-03
            2455     2.43653E-03     1.16420E-03    -66.3083E+06    -205.888E+06    -62.7647E+06     2.01373E+06    -102.641E-03     205.215E-03    -102.574E-03     2.72440E-03    -102.584E-03     204.374E-03    -102.493E-03     2.69178E-03
            2456     1.62426E-03     1.16429E-03    -66.4530E+06    -211.880E+06    -63.6174E+06      959.16E+03    -102.590E-03     205.138E-03    -102.548E-03     1.85706E-03    -102.523E-03     204.268E-03    -102.462E-03     1.83020E-03
            2457     812.212E-06     1.16413E-03    -67.2435E+06    -206.437E+06    -65.7651E+06     372.297E+03    -102.552E-03     205.020E-03    -102.468E-03     1.09005E-03    -102.493E-03     204.181E-03    -102.400E-03     1.07380E-03


