********************************************************************************
Field Output Report, written Mon Aug 12 20:58:38 2024

Source 1
---------

   ODB: G:/Abaqus_calc_2019/1740/Vel_40/odb/zeides_2a_16_red_500_cal_75_vel_40_fric_025.odb
   Step: Step-1
   Frame: Increment   1952416: Step Time =   0.2457

Loc 1 : Nodal values from source 1

Output sorted by column "Nodal Label".

Field Output reported at nodes for region: DIE_2A_16_D0_36-1.Region_1
   Computation algorithm: EXTRAPOLATE_COMPUTE_AVERAGE
   Averaged at nodes
   Averaging regions: ODB_REGIONS

      Node Label     COORD.COOR1     COORD.COOR2
                          @Loc 1          @Loc 1
-------------------------------------------------
               1     19.4799E-03     118.916E-03


Field Output reported at nodes for region: DIE_2A_16_D0_36-1.Region_2
   Computation algorithm: EXTRAPOLATE_COMPUTE_AVERAGE
   Averaged at nodes
   Averaging regions: ODB_REGIONS

      Node Label     COORD.COOR1     COORD.COOR2
                          @Loc 1          @Loc 1
-------------------------------------------------
               1     19.4799E-03     118.916E-03


Field Output reported at nodes for part: WIRE-1
   Computation algorithm: EXTRAPOLATE_COMPUTE_AVERAGE
   Averaged at nodes
   Averaging regions: ODB_REGIONS

      Node Label     COORD.COOR1     COORD.COOR2           S.S11           S.S22           S.S33           S.S12         PE.PE11         PE.PE22         PE.PE33         PE.PE12         LE.LE11         LE.LE22         LE.LE33         LE.LE12
                          @Loc 1          @Loc 1          @Loc 1          @Loc 1          @Loc 1          @Loc 1          @Loc 1          @Loc 1          @Loc 1          @Loc 1          @Loc 1          @Loc 1          @Loc 1          @Loc 1
-------------------------------------------------------------------------------------------------------------------------------------------------------------------------------------------------------------------------------------------------
               1     148.566E-09     60.4294E-03    -64.8779E+06    -173.222E+06    -65.0187E+06    -72.1345E+03    -52.9181E-03     105.680E-03    -52.7614E-03     5.79497E-03    -52.8975E-03     105.002E-03    -52.7413E-03     5.77415E-03
               2     17.0807E-03     61.6016E-03    -2.51657E+06     123.557E+06     86.5829E+06    -279.660E+03    -51.5999E-03     104.359E-03    -52.7592E-03     4.96003E-03    -52.0528E-03     104.991E-03    -52.5018E-03     4.56046E-03
               3     16.9726E-03     123.331E-03    -20.7097E+06     41.7328E+06     56.1942E+06    -12.9509E+06     26.6941E-03     29.9593E-03    -56.6534E-03     6.85213E-03     26.4893E-03     30.1572E-03    -56.4029E-03     6.68517E-03
               4    -2.17438E-06     120.989E-03     44.4380E+06    -3.45759E+06     42.8808E+06    -1.13276E+06    -50.9946E-03     103.305E-03    -52.3109E-03    -2.55874E-03    -50.8352E-03     103.156E-03    -52.1559E-03    -2.57878E-03
               5    -149.399E-09    -69.3889E-18    -30.0928E+06    -140.477E+06    -30.1334E+06     97.0372E+03    -53.6656E-03     107.250E-03    -53.5840E-03     566.613E-06    -53.5686E-03     106.635E-03    -53.4873E-03     567.299E-06
               6     16.8631E-03    -69.3889E-18     6.87626E+06     97.2571E+06     88.9706E+06     3.95661E+06    -63.4312E-03     126.259E-03    -62.8276E-03     70.6608E-03    -63.8167E-03     126.744E-03    -62.5338E-03     70.2377E-03
               7     853.764E-06     60.4359E-03    -64.0329E+06    -173.237E+06    -62.6809E+06        -972.832    -52.8997E-03     105.708E-03    -52.8081E-03     9.59655E-03    -52.8793E-03     105.027E-03    -52.7775E-03     9.56296E-03
               8     1.70737E-03     60.4491E-03    -61.8022E+06    -172.201E+06    -56.1224E+06     18.5896E+03    -52.9144E-03     105.785E-03    -52.8710E-03     17.5568E-03    -52.8972E-03     105.100E-03    -52.8123E-03     17.4936E-03
               9     2.56117E-03     60.4709E-03    -58.6504E+06    -167.419E+06    -47.4418E+06     92.6090E+03    -52.9908E-03     105.890E-03    -52.8992E-03     25.8158E-03    -52.9831E-03     105.217E-03    -52.8086E-03     25.7195E-03
              10     3.41478E-03     60.5008E-03    -54.6242E+06    -159.117E+06    -37.7648E+06     398.653E+03    -53.0763E-03     105.999E-03    -52.9224E-03     33.9027E-03    -53.0835E-03     105.357E-03    -52.8013E-03     33.7721E-03
              11     4.26863E-03     60.5388E-03    -50.2954E+06    -150.783E+06    -28.3114E+06     312.992E+03    -53.1941E-03     106.135E-03    -52.9405E-03     41.7406E-03    -53.2181E-03     105.527E-03    -52.7905E-03     41.5650E-03
              12     5.12237E-03     60.5843E-03    -45.8927E+06    -142.600E+06    -19.2960E+06     379.231E+03    -53.3416E-03     106.298E-03    -52.9560E-03     49.2577E-03    -53.3858E-03     105.729E-03    -52.7791E-03     49.0331E-03
              13     5.97619E-03     60.6374E-03    -41.4575E+06    -135.293E+06    -10.4532E+06     515.262E+03    -53.4957E-03     106.467E-03    -52.9716E-03     56.3804E-03    -53.5642E-03     105.939E-03    -52.7676E-03     56.1010E-03
              14     6.82996E-03     60.6971E-03    -37.2355E+06    -126.274E+06    -4.31101E+06     391.203E+03    -53.6609E-03     106.632E-03    -52.9712E-03     63.0727E-03    -53.7605E-03     106.164E-03    -52.7557E-03     62.7274E-03
              15     7.68384E-03     60.7635E-03    -33.3389E+06    -115.327E+06    -382.701E+03     369.365E+03    -53.8229E-03     106.781E-03    -52.9576E-03     69.2655E-03    -53.9637E-03     106.395E-03    -52.7440E-03     68.8471E-03
              16     8.53770E-03     60.8353E-03    -29.9152E+06    -104.057E+06     1.69571E+06     310.403E+03    -53.9647E-03     106.900E-03    -52.9349E-03     74.9494E-03    -54.1577E-03     106.612E-03    -52.7321E-03     74.4490E-03
              17     9.39158E-03     60.9133E-03     -26.964E+06    -89.9845E+06     3.17306E+06     402.793E+03    -54.0646E-03     106.969E-03    -52.9045E-03     80.0555E-03    -54.3287E-03     106.809E-03    -52.7191E-03     79.4666E-03
              18     10.2455E-03     60.9951E-03    -24.5180E+06     -75.275E+06     4.04929E+06     303.929E+03    -54.1110E-03     106.980E-03    -52.8693E-03     84.2572E-03    -54.4649E-03     106.968E-03    -52.7043E-03     83.5693E-03
              19     11.0993E-03     61.0811E-03    -22.3934E+06    -54.7818E+06     4.51633E+06     258.631E+03    -54.0600E-03     106.881E-03    -52.8213E-03     87.5629E-03    -54.5340E-03     107.068E-03    -52.6868E-03     86.7699E-03
              20     11.9540E-03     61.1694E-03    -20.3702E+06    -27.1158E+06     6.76320E+06     329.595E+03    -54.0221E-03     106.792E-03    -52.7697E-03     91.3398E-03    -54.6675E-03     107.249E-03    -52.6670E-03     90.4331E-03
              21     12.8071E-03     61.2626E-03    -18.4767E+06     10.1736E+06     6.50397E+06     482.335E+03    -53.8892E-03     106.578E-03    -52.6891E-03     95.8415E-03    -54.7796E-03     107.420E-03    -52.6445E-03     94.8104E-03
              22     13.6624E-03     61.3606E-03    -16.8539E+06     73.9692E+06     20.5573E+06     450.523E+03    -53.4510E-03     106.085E-03    -52.6338E-03     97.6345E-03    -54.6312E-03     107.408E-03    -52.6139E-03     96.5459E-03
              23     14.5159E-03     61.4559E-03    -13.7501E+06     119.098E+06     48.8778E+06     501.716E+03    -52.7127E-03     105.381E-03    -52.6686E-03     85.7193E-03    -53.9771E-03     106.878E-03    -52.5769E-03     84.7109E-03
              24     15.3714E-03     61.5309E-03    -9.06672E+06     128.374E+06     75.8590E+06     229.392E+03    -52.0820E-03     104.831E-03    -52.7491E-03     69.6849E-03    -53.3117E-03     106.264E-03    -52.5428E-03     68.7887E-03
              25     16.2229E-03     61.5939E-03    -4.61643E+06     128.424E+06     88.4113E+06    -299.108E+03    -51.7533E-03     104.530E-03    -52.7771E-03     35.0552E-03    -52.6073E-03     105.568E-03    -52.5146E-03     34.4261E-03
              26     17.0782E-03     62.6517E-03    -3.68674E+06     122.550E+06     85.3129E+06     325.603E+03    -51.8046E-03     104.561E-03    -52.7567E-03     5.50629E-03    -52.2612E-03     105.193E-03    -52.5025E-03     5.11205E-03
              27     17.0806E-03     63.7084E-03    -2.10981E+06     123.877E+06     86.6551E+06      406.49E+03    -51.5266E-03     104.280E-03    -52.7529E-03     5.52519E-03    -51.9790E-03     104.913E-03    -52.4962E-03     5.13218E-03
              28     17.0792E-03     64.7592E-03    -1.52472E+06     124.584E+06     87.4555E+06    -381.971E+03    -51.1691E-03     103.932E-03    -52.7626E-03     5.67027E-03    -51.6210E-03     104.567E-03    -52.5037E-03     5.27263E-03
              29     17.0798E-03     65.8130E-03    -1.11737E+06     124.768E+06     87.7157E+06    -427.539E+03    -51.0824E-03     103.836E-03    -52.7534E-03     5.38683E-03    -51.5316E-03     104.470E-03    -52.4941E-03     4.98859E-03
              30     17.0808E-03     66.8638E-03    -2.84226E+06     123.905E+06     86.3867E+06    -559.778E+03    -51.9518E-03     104.694E-03    -52.7425E-03     5.06417E-03    -52.4065E-03     105.328E-03    -52.4861E-03     4.65770E-03
              31     17.0772E-03     67.9217E-03    -3.82996E+06     123.266E+06     85.4307E+06     1.28743E+06    -52.0802E-03     104.843E-03    -52.7633E-03     5.15630E-03    -52.5371E-03     105.477E-03    -52.5094E-03     4.77397E-03
              32     17.0817E-03     68.9710E-03    -1.14350E+06     124.989E+06     87.5436E+06     343.690E+03    -50.8297E-03     103.599E-03    -52.7694E-03     5.73960E-03    -51.2792E-03     104.234E-03    -52.5112E-03     5.35370E-03
              33     17.0783E-03     70.0255E-03    -867.396E+03     125.793E+06     88.1855E+06    -628.716E+03    -51.2772E-03     104.030E-03    -52.7533E-03     5.57684E-03    -51.7284E-03     104.670E-03    -52.4935E-03     5.17386E-03
              34     17.0809E-03     71.0787E-03    -2.50718E+06     124.564E+06     86.6312E+06     214.785E+03    -51.7936E-03     104.545E-03    -52.7517E-03     5.75447E-03    -52.2497E-03     105.184E-03    -52.4955E-03     5.35755E-03
              35     17.0781E-03     72.1311E-03    -1.11983E+06     125.561E+06     87.6323E+06    -39.7374E+03    -51.2043E-03     103.953E-03    -52.7486E-03     5.20902E-03    -51.6544E-03     104.591E-03    -52.4908E-03     4.81355E-03
              36     17.0825E-03     73.1837E-03    -1.91742E+06     125.572E+06     87.2346E+06    -762.417E+03    -51.3892E-03     104.136E-03    -52.7464E-03     5.40709E-03    -51.8441E-03     104.776E-03    -52.4895E-03     5.00132E-03
              37     17.0763E-03     74.2394E-03    -4.13754E+06     123.915E+06     85.1885E+06     405.038E+03    -51.6696E-03     104.444E-03    -52.7743E-03     4.47219E-03    -52.1295E-03     105.082E-03    -52.5220E-03     4.07899E-03
              38     17.0817E-03     75.2877E-03    -2.42481E+06     124.495E+06     86.1102E+06    -659.945E+03    -50.4636E-03     103.216E-03    -52.7525E-03     2.85956E-03    -50.9159E-03     103.852E-03    -52.4989E-03     2.45200E-03
              39     17.0807E-03     76.3373E-03     184.597E+03     128.007E+06     89.7204E+06    -1.77595E+06    -51.7384E-03     104.447E-03    -52.7083E-03     3.93575E-03    -52.1887E-03     105.092E-03    -52.4456E-03     3.50860E-03
              40     17.0786E-03     77.4060E-03    -3.03641E+06     126.494E+06     87.0716E+06     1.14329E+06    -53.5261E-03     106.245E-03    -52.7190E-03     9.00469E-03    -53.9964E-03     106.901E-03    -52.4627E-03     8.59905E-03
              41     17.0796E-03     78.4482E-03    -6.21260E+06     123.806E+06     83.4487E+06     1.69816E+06    -53.3880E-03     106.126E-03    -52.7379E-03     7.75807E-03    -53.8619E-03     106.775E-03    -52.4911E-03     7.36039E-03
              42     17.0780E-03     79.5123E-03    -2.67388E+06     127.229E+06     86.8180E+06     1.53049E+06    -51.1500E-03     103.950E-03    -52.8004E-03     7.19518E-03    -51.6190E-03     104.610E-03    -52.5469E-03     6.82092E-03
              43     17.0802E-03     80.5597E-03    -880.019E+03     128.253E+06     88.1415E+06     247.443E+03    -49.2015E-03     102.021E-03    -52.8192E-03     9.63906E-03    -49.6720E-03     102.688E-03    -52.5632E-03     9.26119E-03
              44     17.0796E-03     81.6070E-03    -702.387E+03     128.840E+06     88.7311E+06    -944.008E+03    -50.8411E-03     103.609E-03    -52.7681E-03     5.64134E-03    -51.2976E-03     104.263E-03    -52.5103E-03     5.23885E-03
              45     17.0794E-03     82.6645E-03    -2.22357E+06     127.991E+06     87.4584E+06    -111.083E+03    -51.9986E-03     104.737E-03    -52.7380E-03     5.20844E-03    -52.4584E-03     105.389E-03    -52.4831E-03     4.80353E-03
              46     17.0804E-03     83.7146E-03    -2.92222E+06     127.751E+06     86.8487E+06     74.0311E+03    -52.1623E-03     104.908E-03    -52.7454E-03     4.92311E-03    -52.6236E-03     105.560E-03    -52.4922E-03     4.52120E-03
              47     17.0778E-03     84.7730E-03    -1.97580E+06     128.663E+06     87.5359E+06     535.855E+03    -51.3788E-03     104.144E-03    -52.7655E-03     5.31139E-03    -51.8380E-03     104.799E-03    -52.5115E-03     4.92266E-03
              48     17.0820E-03     85.8197E-03    -1.90931E+06     129.099E+06     87.5962E+06    -75.6119E+03    -51.4597E-03     104.211E-03    -52.7511E-03     5.60857E-03    -51.9194E-03     104.868E-03    -52.4975E-03     5.20990E-03
              49     17.0769E-03     86.8793E-03    -2.68541E+06     129.360E+06     87.2725E+06     582.120E+03    -52.1455E-03     104.902E-03    -52.7564E-03     4.94312E-03    -52.6075E-03     105.561E-03    -52.5037E-03     4.54898E-03
              50     17.0813E-03     87.9290E-03    -3.15957E+06     129.570E+06     86.9206E+06     117.816E+03    -51.3303E-03     104.093E-03    -52.7628E-03     5.21646E-03    -51.7954E-03     104.755E-03    -52.5115E-03     4.82156E-03
              51     17.0785E-03     88.9813E-03    -2.23272E+06     130.923E+06     88.1248E+06    -440.307E+03    -51.9317E-03     104.681E-03    -52.7497E-03     4.60495E-03    -52.3951E-03     105.346E-03    -52.4957E-03     4.19890E-03
              52     17.0797E-03     90.0402E-03    -1.77777E+06     131.103E+06     88.2537E+06     703.898E+03    -51.4059E-03     104.164E-03    -52.7583E-03     5.79516E-03    -51.8698E-03     104.831E-03    -52.5045E-03     5.40589E-03
              53     17.0804E-03     91.0865E-03    -1.63847E+06     131.120E+06     88.4150E+06    -552.317E+03    -51.3215E-03     104.075E-03    -52.7531E-03     5.44695E-03    -51.7840E-03     104.740E-03    -52.4987E-03     5.04353E-03
              54     17.0783E-03     92.1448E-03    -1.60769E+06     131.281E+06     88.6799E+06    -153.152E+03    -51.8893E-03     104.626E-03    -52.7364E-03     4.91770E-03    -52.3513E-03     105.291E-03    -52.4811E-03     4.51237E-03
              55     17.0820E-03     93.1948E-03    -2.29417E+06     130.823E+06     88.2610E+06    -398.927E+03    -51.9135E-03     104.640E-03    -52.7262E-03     6.00672E-03    -52.3809E-03     105.307E-03    -52.4713E-03     5.59619E-03
              56     17.0774E-03     94.2527E-03    -2.35921E+06     131.328E+06     88.5792E+06     712.323E+03    -51.7546E-03     104.495E-03    -52.7404E-03     5.57766E-03    -52.2219E-03     105.163E-03    -52.4845E-03     5.18761E-03
              57     17.0823E-03     95.3019E-03    -2.39542E+06     131.249E+06     88.3898E+06     365.842E+03    -51.2200E-03     103.953E-03    -52.7335E-03     6.00591E-03    -51.6879E-03     104.623E-03    -52.4783E-03     5.61312E-03
              58     17.0783E-03     96.3556E-03    -3.20152E+06     131.085E+06     88.1809E+06     91.0129E+03    -52.0881E-03     104.778E-03    -52.6901E-03     5.23347E-03    -52.5583E-03     105.447E-03    -52.4347E-03     4.82754E-03
              59     17.0828E-03     97.4112E-03    -904.890E+03     132.259E+06     89.9265E+06     618.881E+03    -51.4558E-03     104.116E-03    -52.6603E-03     5.96547E-03    -51.9197E-03     104.786E-03    -52.4011E-03     5.57021E-03
              60     17.0812E-03     98.4614E-03    -1.31388E+06     132.243E+06     90.2112E+06    -877.441E+03    -51.7451E-03     104.351E-03    -52.6063E-03     6.74788E-03    -52.2141E-03     105.024E-03    -52.3451E-03     6.32568E-03
              61     17.0831E-03     99.5178E-03    -2.98756E+06     130.482E+06     89.1005E+06    -645.444E+03    -52.8648E-03     105.414E-03    -52.5491E-03     6.12654E-03    -53.3382E-03     106.082E-03    -52.2885E-03     5.69431E-03
              62     17.0827E-03     100.571E-03    -3.91695E+06     128.231E+06     88.8359E+06    -302.449E+03    -52.5114E-03     105.007E-03    -52.4953E-03     6.14670E-03    -52.9865E-03     105.665E-03    -52.2313E-03     5.72174E-03
              63     17.0860E-03     101.623E-03    -1.25384E+06     127.931E+06     91.1264E+06    -598.069E+03    -52.7280E-03     105.114E-03    -52.3865E-03     6.71112E-03    -53.1945E-03     105.766E-03    -52.1145E-03     6.27463E-03
              64     17.0872E-03     102.680E-03    -3.32010E+06     125.125E+06     90.3557E+06    -1.30459E+06    -54.5163E-03     106.754E-03    -52.2376E-03     8.10424E-03    -54.9942E-03     107.402E-03    -51.9625E-03     7.63269E-03
              65     17.0886E-03     103.737E-03    -2.57295E+06     121.971E+06     89.8199E+06    -201.438E+03    -55.6339E-03     107.711E-03    -52.0771E-03     8.37683E-03    -56.1043E-03     108.345E-03    -51.8012E-03     7.90128E-03
              66     17.0935E-03     104.791E-03    -436.362E+03     121.899E+06     92.1187E+06    -1.08295E+06    -56.9061E-03     108.794E-03    -51.8884E-03     8.60151E-03    -57.3702E-03     109.423E-03    -51.6039E-03     8.09727E-03
              67     17.0933E-03     105.853E-03    -2.37573E+06     117.325E+06     90.0291E+06    -1.09188E+06    -61.0244E-03     112.688E-03    -51.6635E-03     10.3821E-03    -61.5004E-03     113.311E-03    -51.3800E-03     9.81723E-03
              68     17.0967E-03     106.918E-03    -4.74822E+06     113.257E+06     87.8747E+06    -276.842E+03    -64.7049E-03     116.161E-03    -51.4566E-03     11.6670E-03    -65.1913E-03     116.778E-03    -51.1746E-03     11.0599E-03
              69     17.0976E-03     107.986E-03    -432.981E+03     111.889E+06     90.3449E+06    -709.531E+03    -67.8031E-03     119.081E-03    -51.2781E-03     12.9051E-03    -68.2766E-03     119.689E-03    -50.9880E-03     12.2477E-03
              70     17.0998E-03     109.057E-03    -3.35143E+06     108.401E+06     89.4261E+06    -1.82229E+06    -72.3284E-03     123.424E-03    -51.0952E-03     14.8697E-03    -72.8239E-03     124.033E-03    -50.8004E-03     14.1190E-03
              71     17.0994E-03     110.135E-03    -942.537E+03     102.795E+06     88.8422E+06    -2.87737E+06    -77.0395E-03     127.957E-03    -50.9175E-03     15.9285E-03    -77.5269E-03     128.548E-03    -50.6209E-03     15.0731E-03
              72     17.1020E-03     111.215E-03    -1.60481E+06     96.9029E+06     88.4222E+06    -3.55376E+06    -82.8951E-03     133.616E-03    -50.7204E-03     19.3405E-03    -83.3994E-03     134.202E-03    -50.4165E-03     18.3533E-03
              73     17.1011E-03     112.308E-03    -2.63336E+06     91.4842E+06     88.5551E+06    -1.42301E+06    -89.6800E-03     140.200E-03    -50.5198E-03     23.1182E-03    -90.2089E-03     140.788E-03    -50.2059E-03     22.0036E-03
              74     17.1032E-03     113.404E-03    -5.36031E+06     84.0793E+06     86.8140E+06    -2.93876E+06    -95.4940E-03     145.837E-03    -50.3431E-03     28.4605E-03    -96.0627E-03     146.434E-03    -50.0232E-03     27.1482E-03
              75     17.1027E-03     114.507E-03     1.06144E+06     76.7250E+06     88.0190E+06    -1.14383E+06    -101.355E-03     151.515E-03    -50.1596E-03     32.1685E-03    -101.916E-03     152.098E-03    -49.8323E-03     30.6951E-03
              76     17.1050E-03     115.614E-03    -7.16074E+06     70.6844E+06     87.5246E+06    -4.78914E+06    -110.021E-03     159.942E-03    -49.9209E-03     39.9973E-03    -110.663E-03     160.558E-03    -49.5754E-03     38.2407E-03
              77     17.1042E-03     116.743E-03     2.13967E+06     60.5324E+06     90.1048E+06    -4.86430E+06    -119.199E-03     168.857E-03    -49.6583E-03     51.2343E-03    -119.843E-03     169.467E-03    -49.2986E-03     49.2274E-03
              78     17.1077E-03     117.878E-03    -5.94546E+06     50.4260E+06     89.6712E+06    -2.01533E+06    -123.714E-03     173.232E-03    -49.5184E-03     60.1569E-03    -124.484E-03     173.902E-03    -49.1345E-03     57.8900E-03
              79     17.1056E-03     119.005E-03     2.96098E+06     53.8906E+06     99.1203E+06     4.30028E+06    -128.980E-03     178.341E-03    -49.3610E-03     70.8715E-03    -129.832E-03     179.110E-03    -48.9478E-03     68.3368E-03
              80     17.1109E-03     120.153E-03    -9.37695E+06     49.5035E+06     81.3317E+06    -4.05453E+06    -129.789E-03     178.994E-03    -49.2051E-03     88.6893E-03    -130.791E-03     179.916E-03    -48.8567E-03     85.8781E-03
              81     17.1082E-03     121.315E-03    -8.08974E+06     20.6811E+06     44.8272E+06    -13.0936E+06    -101.837E-03     151.574E-03    -49.7371E-03     122.144E-03    -102.709E-03     152.380E-03    -49.5312E-03     119.994E-03
              82     17.1116E-03     122.408E-03     22.1921E+06     22.3676E+06     51.2618E+06    -6.38526E+06    -25.3709E-03     78.8417E-03    -53.4708E-03     74.6486E-03    -25.6537E-03     79.1835E-03    -53.2791E-03     73.9729E-03
              83     16.0272E-03     123.195E-03    -13.7118E+06    -13.9624E+06     44.5136E+06    -5.06546E+06     1.02605E-03     56.6349E-03    -57.6610E-03     7.47293E-03     928.200E-06     56.5458E-03    -57.3983E-03     7.37909E-03
              84     15.1720E-03     122.967E-03    -1.60217E+06    -10.4014E+06     56.2332E+06    -4.55705E+06    -25.7275E-03     84.5637E-03    -58.8362E-03     14.1070E-03    -25.8134E-03     84.4503E-03    -58.5376E-03     13.9743E-03
              85     14.3162E-03     122.713E-03     11.1650E+06     713.546E+03     74.7535E+06    -4.49398E+06    -24.6117E-03     83.8212E-03    -59.2095E-03     10.4221E-03    -24.6792E-03     83.7166E-03    -58.8530E-03     10.2768E-03
              86     13.4630E-03     122.487E-03     22.5505E+06    -6.34928E+06     83.3193E+06     366.002E+03    -25.8168E-03     85.4090E-03    -59.5922E-03    -3.71380E-03    -25.8317E-03     85.2258E-03    -59.1991E-03    -3.80058E-03
              87     12.6175E-03     122.276E-03     26.3209E+06     3.15827E+06     88.6013E+06     1.87882E+06    -35.0606E-03     94.7762E-03    -59.7155E-03    -13.9297E-03    -35.0754E-03     94.6187E-03    -59.3152E-03    -14.0212E-03
              88     11.7794E-03     122.085E-03     27.8010E+06    -2.53490E+06     87.4207E+06     3.50262E+06    -43.8465E-03     103.224E-03    -59.3774E-03    -22.3488E-03    -43.8439E-03     103.027E-03    -58.9769E-03    -22.4381E-03
              89     10.9512E-03     121.907E-03     28.6302E+06     2.70923E+06     87.4701E+06     2.57344E+06    -48.2071E-03     106.964E-03    -58.7572E-03    -25.4561E-03    -48.2063E-03     106.790E-03    -58.3653E-03    -25.5540E-03
              90     10.1159E-03     121.755E-03     28.3391E+06    -504.107E+03     84.7827E+06     1.71008E+06    -51.6625E-03     109.700E-03    -58.0378E-03    -26.6237E-03    -51.6504E-03     109.516E-03    -57.6543E-03    -26.7237E-03
              91     9.28346E-03     121.618E-03     29.5500E+06     1.11842E+06     82.5973E+06    -158.043E+03    -54.4080E-03     111.617E-03    -57.2089E-03    -26.3245E-03    -54.3896E-03     111.441E-03    -56.8404E-03    -26.4386E-03
              92     8.44958E-03     121.498E-03     31.0949E+06    -2.15792E+06     77.9764E+06     492.791E+03    -55.2074E-03     111.543E-03    -56.3361E-03    -23.9416E-03    -55.1695E-03     111.358E-03    -55.9882E-03    -24.0326E-03
              93     7.61287E-03     121.394E-03     31.6810E+06     1.39190E+06     75.6518E+06     616.015E+03    -55.3840E-03     110.893E-03    -55.5090E-03    -21.3768E-03    -55.3439E-03     110.731E-03    -55.1787E-03    -21.4516E-03
              94     6.77317E-03     121.305E-03     31.8063E+06    -102.853E+03     71.5200E+06    -206.507E+03    -55.3230E-03     110.046E-03    -54.7233E-03    -19.0592E-03    -55.2737E-03     109.884E-03    -54.4117E-03    -19.1324E-03
              95     5.93222E-03     121.227E-03     32.7556E+06     599.312E+03     66.4894E+06    -1.09593E+06    -54.7695E-03     108.752E-03    -53.9821E-03    -16.6180E-03    -54.7092E-03     108.600E-03    -53.6980E-03    -16.6913E-03
              96     5.08849E-03     121.163E-03     34.0421E+06    -506.488E+03     60.0127E+06    -1.40672E+06    -53.9954E-03     107.317E-03    -53.3215E-03    -14.1781E-03    -53.9174E-03     107.169E-03    -53.0701E-03    -14.2451E-03
              97     4.24324E-03     121.109E-03     35.6455E+06     656.658E+03     55.4459E+06    -1.87234E+06    -53.2955E-03     106.058E-03    -52.7624E-03    -11.8070E-03    -53.2046E-03     105.921E-03    -52.5378E-03    -11.8707E-03
              98     3.39631E-03     121.067E-03     37.6204E+06    -824.931E+03     51.3346E+06    -2.11723E+06    -52.6370E-03     104.943E-03    -52.3055E-03    -9.50923E-03    -52.5279E-03     104.802E-03    -52.1022E-03    -9.56742E-03
              99     2.54795E-03     121.033E-03     39.7898E+06    -468.264E+03     47.4448E+06    -1.92309E+06    -52.0426E-03     104.004E-03    -51.9611E-03    -7.35782E-03    -51.9177E-03     103.868E-03    -51.7809E-03    -7.40554E-03
             100     1.69900E-03     121.010E-03     41.9998E+06    -867.292E+03     44.1779E+06    -1.63689E+06    -51.6655E-03     103.422E-03    -51.7562E-03    -5.15639E-03    -51.5245E-03     103.286E-03    -51.5950E-03    -5.19285E-03
             101     849.448E-06     120.995E-03     43.6897E+06    -1.02824E+06     43.3474E+06    -1.35416E+06    -51.2787E-03     103.280E-03    -52.0018E-03    -3.30207E-03    -51.1275E-03     103.143E-03    -51.8469E-03    -3.32818E-03
             102     1.07953E-06     119.937E-03     36.1540E+06    -3.91082E+06     36.4885E+06    -1.09619E+06    -46.0378E-03     92.3346E-03    -46.2967E-03    -796.892E-06    -45.9088E-03     92.2052E-03    -46.1611E-03    -817.248E-06
             103    -361.888E-09     118.910E-03     19.8969E+06    -10.1665E+06     20.2924E+06    -2.42822E+06    -36.8833E-03     73.5392E-03    -36.6560E-03     1.53014E-03    -36.8009E-03     73.4278E-03    -36.5686E-03     1.49256E-03
             104     62.0210E-09     117.897E-03    -1.85012E+06    -19.8047E+06    -2.00601E+06    -2.81469E+06    -30.2468E-03     60.6454E-03    -30.3986E-03     2.88354E-03    -30.2255E-03     60.5511E-03    -30.3772E-03     2.84277E-03
             105    -20.4764E-09     116.895E-03    -27.8740E+06    -30.3627E+06    -27.0892E+06    -3.05487E+06    -26.3822E-03     52.8016E-03    -26.4194E-03     4.19295E-03    -26.4386E-03     52.7293E-03    -26.4704E-03     4.15093E-03
             106    -82.2607E-09     115.898E-03    -56.5700E+06    -43.1355E+06    -55.9299E+06    -4.24410E+06    -24.5779E-03     49.2334E-03    -24.6555E-03     5.21158E-03    -24.7172E-03     49.1809E-03    -24.7906E-03     5.15558E-03
             107     44.2975E-09     114.903E-03    -90.6495E+06    -57.7127E+06    -90.3546E+06    -4.35402E+06    -24.6594E-03     49.3241E-03    -24.6646E-03     6.03686E-03    -24.8980E-03     49.2980E-03    -24.9013E-03     5.98052E-03
             108    -28.1718E-09     113.906E-03    -123.265E+06    -70.4141E+06    -123.576E+06    -3.03675E+06    -26.3270E-03     52.5604E-03    -26.2334E-03     6.59799E-03    -26.6622E-03     52.5660E-03    -26.5704E-03     6.55923E-03
             109     155.130E-09     112.905E-03    -128.887E+06    -75.8019E+06    -129.764E+06    -294.496E+03    -29.2058E-03     58.2920E-03    -29.0862E-03     6.89735E-03    -29.5525E-03     58.2876E-03    -29.4382E-03     6.89375E-03
             110    -100.317E-09     111.896E-03    -95.8249E+06    -71.4054E+06    -96.2253E+06     2.59198E+06    -32.7475E-03     65.4490E-03    -32.7015E-03     6.95919E-03    -32.9841E-03     65.3700E-03    -32.9401E-03     6.99190E-03
             111     104.032E-09     110.880E-03    -64.0080E+06    -64.6481E+06    -63.0551E+06     1.25023E+06    -36.3986E-03     72.8379E-03    -36.4393E-03     7.01625E-03    -36.5340E-03     72.6986E-03    -36.5681E-03     7.03008E-03
             112    -185.304E-09     109.856E-03    -49.9497E+06    -65.0146E+06    -49.9243E+06    -1.30550E+06    -39.8744E-03     79.7495E-03    -39.8751E-03     7.00172E-03    -39.9580E-03     79.5690E-03    -39.9580E-03     6.98050E-03
             113     247.112E-09     108.826E-03    -44.4126E+06    -71.4965E+06    -44.3777E+06    -2.23318E+06    -42.8641E-03     85.7711E-03    -42.9070E-03     6.73846E-03    -42.9186E-03     85.5423E-03    -42.9608E-03     6.70277E-03
             114    -399.988E-09     107.790E-03    -43.1157E+06    -80.7825E+06    -43.3677E+06    -2.63316E+06    -45.4106E-03     90.7849E-03    -45.3743E-03     6.48819E-03    -45.4466E-03     90.5065E-03    -45.4115E-03     6.44488E-03
             115     594.855E-09     106.749E-03    -44.7734E+06    -90.4773E+06    -44.5330E+06    -2.49559E+06    -47.5908E-03     94.9404E-03    -47.3496E-03     6.53069E-03    -47.6193E-03     94.6178E-03    -47.3761E-03     6.48690E-03
             116    -390.981E-09     105.705E-03     -46.844E+06    -99.8806E+06    -46.9234E+06    -2.44588E+06    -49.0942E-03     98.0607E-03    -48.9665E-03     6.40823E-03    -49.1159E-03     97.6977E-03    -48.9884E-03     6.36321E-03
             117     387.403E-09     104.658E-03    -49.4626E+06    -109.437E+06    -50.0193E+06    -2.42424E+06    -50.1570E-03     100.263E-03    -50.1058E-03     6.15019E-03    -50.1734E-03     99.8603E-03    -50.1255E-03     6.10384E-03
             118    -319.260E-09     103.610E-03    -53.5193E+06    -119.203E+06    -53.0402E+06    -2.85616E+06    -51.0600E-03     102.063E-03    -51.0031E-03     5.93454E-03    -51.0782E-03     101.622E-03    -51.0178E-03     5.88029E-03
             119     338.225E-09     102.558E-03    -56.6240E+06    -127.967E+06    -56.9513E+06    -2.52074E+06    -51.7332E-03     103.441E-03    -51.7078E-03     5.81918E-03    -51.7485E-03     102.966E-03    -51.7249E-03     5.76811E-03
             120    -332.441E-09     101.507E-03    -60.1719E+06    -135.534E+06    -60.4528E+06    -1.73495E+06    -52.1396E-03     104.289E-03    -52.1494E-03     5.99092E-03    -52.1566E-03     103.787E-03    -52.1679E-03     5.95046E-03
             121     290.652E-09     100.454E-03    -63.6946E+06    -142.706E+06    -63.7652E+06    -1.59908E+06    -52.4232E-03     104.792E-03    -52.3686E-03     6.10347E-03    -52.4427E-03     104.264E-03    -52.3882E-03     6.06486E-03
             122    -173.248E-09     99.4024E-03    -66.2428E+06    -148.896E+06    -66.4394E+06    -1.19532E+06    -52.6579E-03     105.137E-03    -52.4795E-03     5.83789E-03    -52.6773E-03     104.586E-03    -52.4998E-03     5.80369E-03
             123     342.949E-09     98.3487E-03    -68.5709E+06    -153.673E+06    -68.3323E+06    -1.16636E+06    -52.7472E-03     105.415E-03    -52.6674E-03     5.72155E-03    -52.7685E-03     104.845E-03    -52.6868E-03     5.68716E-03
             124    -388.542E-09     97.2959E-03    -69.9866E+06    -158.587E+06    -70.4389E+06    -1.36556E+06    -52.7788E-03     105.572E-03    -52.7929E-03     5.67449E-03    -52.7971E-03     104.983E-03    -52.8137E-03     5.63708E-03
             125     390.645E-09     96.2425E-03    -71.0318E+06    -162.591E+06    -71.1186E+06    -1.09582E+06    -52.9363E-03     105.692E-03    -52.7553E-03     5.64061E-03    -52.9530E-03     105.085E-03    -52.7721E-03     5.60625E-03
             126    -98.8522E-09     95.1891E-03    -71.8907E+06    -165.702E+06    -71.4685E+06    -1.31897E+06    -52.9045E-03     105.768E-03    -52.8637E-03     5.74004E-03    -52.9205E-03     105.148E-03    -52.8766E-03     5.70269E-03
             127    -133.362E-09     94.1358E-03    -72.4444E+06    -169.592E+06    -72.4990E+06    -890.650E+03    -52.8871E-03     105.787E-03    -52.9001E-03     5.78464E-03    -52.8987E-03     105.150E-03    -52.9116E-03     5.75313E-03
             128     327.784E-09     93.0815E-03    -72.8383E+06    -172.379E+06    -73.4451E+06    -308.682E+03    -52.9909E-03     105.733E-03    -52.7421E-03     5.92177E-03    -52.9990E-03     105.084E-03    -52.7537E-03     5.89836E-03
             129    -119.890E-09     92.0296E-03    -72.8046E+06    -174.018E+06    -72.2773E+06    -582.487E+03    -52.8728E-03     105.693E-03    -52.8200E-03     5.66458E-03    -52.8801E-03     105.034E-03    -52.8235E-03     5.63692E-03
             130    -6.61904E-09     90.9756E-03    -73.4515E+06    -177.010E+06    -73.7034E+06    -1.01707E+06    -52.8745E-03     105.783E-03    -52.9084E-03     5.65109E-03    -52.8786E-03     105.112E-03    -52.9138E-03     5.61780E-03
             131     57.9945E-09     89.9221E-03     -73.538E+06    -178.179E+06    -74.0270E+06     392.908E+03    -52.9559E-03     105.806E-03    -52.8497E-03     5.88061E-03    -52.9584E-03     105.129E-03    -52.8548E-03     5.86614E-03
             132     51.0021E-09     88.8688E-03    -71.8124E+06    -176.705E+06    -71.3756E+06     617.590E+03    -52.9405E-03     105.727E-03    -52.7866E-03     5.83425E-03    -52.9403E-03     105.052E-03    -52.7832E-03     5.82259E-03
             133     92.1381E-09     87.8156E-03    -69.3941E+06    -174.866E+06    -69.7242E+06     452.754E+03    -52.8693E-03     105.676E-03    -52.8064E-03     5.80796E-03    -52.8620E-03     105.004E-03    -52.8009E-03     5.79415E-03
             134    -146.819E-09     86.7624E-03    -69.3852E+06    -174.292E+06    -69.3192E+06     166.387E+03    -52.7916E-03     105.697E-03    -52.9058E-03     5.80202E-03    -52.7857E-03     105.028E-03    -52.8990E-03     5.78468E-03
             135    -7.98147E-09     85.7089E-03    -68.5633E+06    -174.256E+06    -68.7549E+06    -126.625E+03    -52.9357E-03     105.794E-03    -52.8587E-03     5.77646E-03    -52.9265E-03     105.123E-03    -52.8504E-03     5.75521E-03
             136     277.043E-09     84.6556E-03    -68.8826E+06    -175.068E+06    -68.5491E+06    -127.305E+03    -52.9903E-03     105.788E-03    -52.7975E-03     5.82492E-03    -52.9818E-03     105.112E-03    -52.7865E-03     5.80332E-03
             137    -228.666E-09     83.6022E-03    -68.2134E+06    -175.093E+06    -68.6275E+06     94.4353E+03    -52.8663E-03     105.723E-03    -52.8567E-03     5.76107E-03    -52.8544E-03     105.047E-03    -52.8470E-03     5.74232E-03
             138     177.180E-09     82.5492E-03    -67.7921E+06    -174.511E+06    -67.5909E+06    -4.06862E+03    -52.8811E-03     105.764E-03    -52.8829E-03     5.70269E-03    -52.8695E-03     105.088E-03    -52.8695E-03     5.68230E-03
             139    -141.078E-09     81.4955E-03    -67.3595E+06    -174.284E+06    -67.4703E+06    -251.869E+03    -52.9311E-03     105.757E-03    -52.8262E-03     5.71589E-03    -52.9177E-03     105.082E-03    -52.8132E-03     5.69211E-03
             140     268.136E-09     80.4424E-03    -67.4191E+06    -174.186E+06    -67.2317E+06     282.617E+03    -52.9048E-03     105.677E-03    -52.7719E-03     5.80971E-03    -52.8922E-03     105.002E-03    -52.7577E-03     5.79339E-03
             141    -181.467E-09     79.3889E-03    -66.8323E+06    -173.738E+06    -66.7931E+06     252.513E+03    -52.8456E-03     105.629E-03    -52.7834E-03     5.83084E-03    -52.8314E-03     104.955E-03    -52.7685E-03     5.81494E-03
             142     186.098E-09     78.3360E-03    -66.4908E+06    -173.513E+06    -66.5015E+06     218.905E+03    -52.8547E-03     105.664E-03    -52.8094E-03     5.83454E-03    -52.8396E-03     104.990E-03    -52.7939E-03     5.81793E-03
             143    -128.897E-09     77.2824E-03    -66.3991E+06    -173.360E+06    -66.3154E+06     23.7183E+03    -52.9070E-03     105.696E-03    -52.7887E-03     5.83100E-03    -52.8919E-03     105.022E-03    -52.7726E-03     5.81164E-03
             144     259.391E-09     76.2294E-03    -65.6537E+06    -172.847E+06    -65.8341E+06     304.005E+03    -52.9016E-03     105.664E-03    -52.7628E-03     5.73700E-03    -52.8842E-03     104.991E-03    -52.7461E-03     5.72085E-03
             145    -169.620E-09     75.1763E-03    -65.5878E+06    -172.682E+06    -65.0726E+06    -102.266E+03    -52.9138E-03     105.726E-03    -52.8124E-03     5.82017E-03    -52.8974E-03     105.053E-03    -52.7923E-03     5.79876E-03
             146     243.339E-09     74.1224E-03    -64.6865E+06    -172.699E+06    -65.4467E+06    -62.0991E+03    -52.9484E-03     105.783E-03    -52.8347E-03     5.91623E-03    -52.9269E-03     105.109E-03    -52.8177E-03     5.89581E-03
             147    -147.078E-09     73.0696E-03    -64.9705E+06    -172.527E+06    -64.7078E+06     249.558E+03    -52.8316E-03     105.676E-03    -52.8445E-03     5.73925E-03    -52.8129E-03     105.002E-03    -52.8236E-03     5.72234E-03
             148     16.8911E-09     72.0164E-03    -64.7463E+06    -172.429E+06    -64.6717E+06    -320.518E+03    -52.8286E-03     105.657E-03    -52.8286E-03     5.62331E-03    -52.8090E-03     104.983E-03    -52.8080E-03     5.59907E-03
             149     100.057E-09     70.9630E-03    -65.4145E+06    -173.192E+06    -65.4783E+06    -160.413E+03    -52.9079E-03     105.758E-03    -52.8498E-03     5.81563E-03    -52.8893E-03     105.082E-03    -52.8312E-03     5.79372E-03
             150    -133.726E-09     69.9094E-03    -65.3917E+06    -173.331E+06    -65.6183E+06     154.171E+03    -52.8869E-03     105.768E-03    -52.8814E-03     5.78039E-03    -52.8678E-03     105.092E-03    -52.8634E-03     5.76212E-03
             151     159.272E-09     68.8564E-03    -65.2867E+06    -172.985E+06    -64.9831E+06     104.358E+03    -52.9247E-03     105.688E-03    -52.7633E-03     5.66609E-03    -52.9065E-03     105.012E-03    -52.7427E-03     5.64739E-03
             152     79.7242E-09     67.8030E-03    -65.3362E+06    -173.210E+06    -65.1348E+06    -99.8542E+03    -52.8944E-03     105.700E-03    -52.8055E-03     5.95484E-03    -52.8759E-03     105.024E-03    -52.7853E-03     5.93450E-03
             153    -180.629E-09     66.7495E-03    -64.5463E+06    -173.072E+06    -65.0152E+06     412.595E+03    -52.9504E-03     105.804E-03    -52.8537E-03     5.91400E-03    -52.9284E-03     105.127E-03    -52.8343E-03     5.89994E-03
             154     425.669E-09     65.6962E-03    -64.9565E+06    -173.140E+06    -64.7601E+06     197.725E+03    -52.9171E-03     105.685E-03    -52.7680E-03     5.84503E-03    -52.8973E-03     105.008E-03    -52.7466E-03     5.82813E-03
             155    -429.449E-09     64.6432E-03    -64.6874E+06    -172.987E+06    -65.0236E+06     25.0348E+03    -52.7834E-03     105.665E-03    -52.8817E-03     5.90482E-03    -52.7621E-03     104.989E-03    -52.8622E-03     5.88541E-03
             156     245.857E-09     63.5899E-03    -64.5537E+06    -172.681E+06     -64.466E+06    -133.322E+03    -52.8803E-03     105.761E-03    -52.8803E-03     5.71120E-03    -52.8596E-03     105.085E-03    -52.8586E-03     5.68910E-03
             157    -75.8622E-09     62.5363E-03    -64.5371E+06    -173.155E+06    -64.6336E+06    -110.444E+03    -52.8762E-03     105.697E-03    -52.8203E-03     5.82307E-03    -52.8546E-03     105.019E-03    -52.7989E-03     5.80168E-03
             158    -15.0319E-09     61.4835E-03    -64.6045E+06    -173.076E+06    -64.3334E+06     34.4993E+03    -52.8780E-03     105.724E-03    -52.8458E-03     5.82296E-03    -52.8572E-03     105.046E-03    -52.8228E-03     5.80350E-03
             159    -31.2750E-09     59.3773E-03    -65.1667E+06    -173.282E+06    -65.1018E+06     48.4149E+03    -52.8981E-03     105.664E-03    -52.7662E-03     5.72229E-03    -52.8787E-03     104.987E-03    -52.7460E-03     5.70294E-03
             160     125.076E-09     58.3232E-03    -64.9014E+06    -173.017E+06    -64.6714E+06     35.1272E+03    -52.9777E-03     105.772E-03    -52.7941E-03     5.82235E-03    -52.9580E-03     105.095E-03    -52.7725E-03     5.80301E-03
             161     81.7942E-09     57.2699E-03    -64.4447E+06    -172.711E+06    -64.4969E+06     109.812E+03    -52.9158E-03     105.717E-03    -52.8011E-03     5.86108E-03    -52.8945E-03     105.041E-03    -52.7797E-03     5.84288E-03
             162    -108.911E-09     56.2172E-03    -64.4374E+06    -172.443E+06    -64.5225E+06     36.8441E+03    -52.7973E-03     105.627E-03    -52.8295E-03     5.66847E-03    -52.7763E-03     104.952E-03    -52.8087E-03     5.64909E-03
             163     65.5906E-09     55.1635E-03    -64.3157E+06    -172.420E+06    -64.4415E+06     1.96494E+03    -52.7858E-03     105.642E-03    -52.8560E-03     5.84995E-03    -52.7644E-03     104.967E-03    -52.8349E-03     5.83043E-03
             164    -158.929E-09     54.1103E-03    -64.7559E+06    -172.543E+06    -64.7324E+06    -58.9170E+03    -52.8805E-03     105.676E-03    -52.7959E-03     5.85356E-03    -52.8607E-03     105.002E-03    -52.7755E-03     5.83305E-03
             165     381.577E-09     53.0571E-03    -65.3271E+06    -172.712E+06    -65.1825E+06    -25.2851E+03    -52.9441E-03     105.663E-03    -52.7189E-03     5.81793E-03    -52.9262E-03     104.989E-03    -52.6996E-03     5.79734E-03
             166    -233.382E-09     52.0039E-03    -64.5703E+06    -172.507E+06    -64.6388E+06     107.632E+03    -52.8333E-03     105.596E-03    -52.7622E-03     5.75193E-03    -52.8127E-03     104.921E-03    -52.7416E-03     5.73324E-03
             167     190.964E-09     50.9510E-03    -64.5016E+06    -172.339E+06    -64.4475E+06    -44.3567E+03    -52.7555E-03     105.539E-03    -52.7836E-03     5.67763E-03    -52.7351E-03     104.865E-03    -52.7624E-03     5.65743E-03
             168    -210.461E-09     49.8977E-03    -64.5071E+06    -172.350E+06    -64.5915E+06    -137.619E+03    -52.8343E-03     105.607E-03    -52.7730E-03     5.67208E-03    -52.8137E-03     104.933E-03    -52.7525E-03     5.65046E-03
             169     319.328E-09     48.8447E-03    -64.9176E+06    -172.713E+06    -65.0234E+06     88.0696E+03    -52.8535E-03     105.600E-03    -52.7466E-03     5.64643E-03    -52.8337E-03     104.925E-03    -52.7271E-03     5.62764E-03
             170    -261.263E-09     47.7911E-03    -64.7562E+06    -172.733E+06    -64.8174E+06    -8.63555E+03    -52.7207E-03     105.489E-03    -52.7682E-03     5.86446E-03    -52.7005E-03     104.814E-03    -52.7480E-03     5.84496E-03
             171     105.865E-09     46.7385E-03    -64.7569E+06    -172.929E+06    -64.8342E+06    -37.8704E+03    -52.7652E-03     105.497E-03    -52.7321E-03     5.81182E-03    -52.7446E-03     104.821E-03    -52.7116E-03     5.79159E-03
             172     89.9679E-09     45.6851E-03    -65.2269E+06    -172.850E+06    -65.2494E+06     226.906E+03    -52.7784E-03     105.408E-03    -52.6292E-03     5.77812E-03    -52.7598E-03     104.733E-03    -52.6102E-03     5.76165E-03
             173    -46.2081E-09     44.6325E-03    -64.5646E+06    -172.151E+06    -64.7022E+06     345.454E+03    -52.6009E-03     105.277E-03    -52.6758E-03     5.87479E-03    -52.5807E-03     104.604E-03    -52.6560E-03     5.86006E-03
             174    -142.578E-09     43.5794E-03    -64.8979E+06    -172.347E+06    -64.8216E+06    -123.227E+03    -52.6370E-03     105.220E-03    -52.5828E-03     5.71891E-03    -52.6180E-03     104.547E-03    -52.5629E-03     5.69784E-03
             175     410.082E-09     42.5269E-03    -65.0308E+06    -172.528E+06    -64.9036E+06    -46.8318E+03    -52.6210E-03     105.046E-03    -52.4252E-03     5.78524E-03    -52.6023E-03     104.373E-03    -52.4053E-03     5.76508E-03
             176    -356.876E-09     41.4743E-03    -64.8783E+06    -172.363E+06    -64.8026E+06    -18.9926E+03    -52.3959E-03     104.800E-03    -52.4038E-03     5.74822E-03    -52.3768E-03     104.126E-03    -52.3838E-03     5.72845E-03
             177     276.078E-09     40.4224E-03    -64.8468E+06    -172.410E+06    -65.0332E+06    -22.8000E+03    -52.3205E-03     104.579E-03    -52.2588E-03     5.60804E-03    -52.3008E-03     103.906E-03    -52.2399E-03     5.58873E-03
             178    -106.007E-09     39.3702E-03    -65.0796E+06    -172.600E+06    -64.9172E+06     49.1409E+03    -52.2020E-03     104.364E-03    -52.1617E-03     5.76805E-03    -52.1834E-03     103.690E-03    -52.1416E-03     5.75006E-03
             179    -8.38750E-09     38.3183E-03    -64.7572E+06    -172.569E+06    -65.1548E+06     54.8033E+03    -52.0295E-03     104.063E-03    -52.0336E-03     5.58728E-03    -52.0090E-03     103.389E-03    -52.0153E-03     5.56894E-03
             180     97.3503E-09     37.2676E-03    -65.1539E+06    -172.256E+06    -64.9154E+06     54.6708E+03    -51.8855E-03     103.711E-03    -51.8254E-03     5.54693E-03    -51.8677E-03     103.039E-03    -51.8058E-03     5.52872E-03
             181    -94.9193E-09     36.2157E-03    -64.6908E+06    -171.774E+06    -64.9759E+06     53.6314E+03    -51.6548E-03     103.332E-03    -51.6769E-03     5.62463E-03    -51.6354E-03     102.661E-03    -51.6589E-03     5.60679E-03
             182     37.3560E-09     35.1658E-03    -64.8529E+06    -172.008E+06    -64.8779E+06    -78.4479E+03    -51.3690E-03     102.781E-03    -51.4121E-03     5.32908E-03    -51.3502E-03     102.110E-03    -51.3931E-03     5.30925E-03
             183    -66.4987E-09     34.1160E-03    -64.7160E+06    -171.837E+06    -64.8182E+06    -160.310E+03    -51.1517E-03     102.294E-03    -51.1422E-03     5.27008E-03    -51.1325E-03     101.623E-03    -51.1233E-03     5.24966E-03
             184     98.2993E-09     33.0662E-03    -64.8890E+06    -171.540E+06    -65.0517E+06     63.8676E+03    -50.9344E-03     101.823E-03    -50.8887E-03     5.40788E-03    -50.9162E-03     101.154E-03    -50.8712E-03     5.39036E-03
             185    -66.8703E-09     32.0172E-03    -65.2190E+06    -171.576E+06    -65.1568E+06    -133.206E+03    -50.5859E-03     101.087E-03    -50.5010E-03     5.12528E-03    -50.5691E-03     100.419E-03    -50.4834E-03     5.10547E-03
             186     169.811E-09     30.9703E-03    -64.7402E+06    -171.365E+06    -64.7830E+06    -106.874E+03    -50.2455E-03     100.393E-03    -50.1474E-03     4.95789E-03    -50.2272E-03     99.7244E-03    -50.1290E-03     4.93901E-03
             187    -116.202E-09     29.9216E-03    -64.9563E+06    -171.293E+06    -64.9772E+06     180.743E+03    -49.8115E-03     99.6856E-03    -49.8741E-03     5.30991E-03    -49.7940E-03     99.0180E-03    -49.8564E-03     5.29569E-03
             188    -57.6290E-09     28.8755E-03    -65.0686E+06    -171.066E+06    -65.2713E+06     321.337E+03    -49.3619E-03     98.6516E-03    -49.2898E-03     5.10387E-03    -49.3448E-03     97.9857E-03    -49.2737E-03     5.09189E-03
             189     341.274E-09     27.8306E-03    -65.4455E+06    -170.727E+06    -64.9913E+06     183.308E+03    -48.9174E-03     97.6333E-03    -48.7159E-03     4.94883E-03    -48.9031E-03     96.9693E-03    -48.6984E-03     4.93521E-03
             190    -285.474E-09     26.7861E-03    -64.5571E+06    -169.885E+06    -64.7165E+06     161.968E+03    -48.3887E-03     96.7832E-03    -48.3944E-03     4.92278E-03    -48.3717E-03     96.1216E-03    -48.3781E-03     4.90919E-03
             191     207.391E-09     25.7425E-03    -65.0197E+06    -169.892E+06    -64.9516E+06     244.016E+03    -47.8501E-03     95.6566E-03    -47.8065E-03     4.64007E-03    -47.8350E-03     94.9960E-03    -47.7906E-03     4.62821E-03
             192    -62.9471E-09     24.7010E-03    -64.9048E+06    -169.478E+06    -64.9075E+06    -88.5045E+03    -47.3637E-03     94.6425E-03    -47.2788E-03     4.54439E-03    -47.3486E-03     93.9837E-03    -47.2635E-03     4.52810E-03
             193     54.9840E-09     23.6596E-03    -64.2208E+06    -168.600E+06    -64.1973E+06    -374.508E+03    -46.9586E-03     93.8122E-03    -46.8536E-03     4.24390E-03    -46.9425E-03     93.1558E-03    -46.8370E-03     4.22357E-03
             194     125.981E-09     22.6191E-03    -64.6163E+06    -168.443E+06    -64.7517E+06     205.231E+03    -46.4583E-03     92.7495E-03    -46.2913E-03     4.21939E-03    -46.4435E-03     92.0953E-03    -46.2771E-03     4.20790E-03
             195    -29.2091E-09     21.5805E-03    -64.1911E+06    -167.233E+06    -64.0563E+06     417.072E+03    -46.0195E-03     91.8747E-03    -45.8552E-03     4.07061E-03    -46.0053E-03     91.2248E-03    -45.8399E-03     4.06260E-03
             196     209.005E-09     20.5417E-03    -63.7903E+06    -166.357E+06    -63.8284E+06     299.866E+03    -45.6387E-03     91.1836E-03    -45.5450E-03     3.98617E-03    -45.6241E-03     90.5372E-03    -45.5304E-03     3.97703E-03
             197    -235.136E-09     19.5041E-03    -62.7971E+06    -164.689E+06    -62.9649E+06     766.421E+03    -45.3500E-03     90.5650E-03    -45.2150E-03     4.05063E-03    -45.3341E-03     89.9243E-03    -45.2000E-03     4.04775E-03
             198     484.408E-09     18.4666E-03    -61.4622E+06    -162.304E+06    -61.5332E+06     869.465E+03    -44.8548E-03     89.6639E-03    -44.8091E-03     3.97428E-03    -44.8377E-03     89.0311E-03    -44.7923E-03     3.97299E-03
             199    -663.096E-09     17.4310E-03    -60.2333E+06    -159.890E+06    -60.4040E+06     831.855E+03    -44.0809E-03     88.2612E-03    -44.1803E-03     3.55395E-03    -44.0628E-03     87.6371E-03    -44.1631E-03     3.55335E-03
             200     663.209E-09     16.3971E-03    -58.1095E+06    -156.562E+06    -58.2612E+06     842.097E+03    -43.2613E-03     86.4668E-03    -43.2055E-03     2.97112E-03    -43.2405E-03     85.8530E-03    -43.1855E-03     2.97146E-03
             201    -572.269E-09     15.3648E-03    -55.7738E+06    -153.056E+06    -56.0661E+06     1.15857E+06    -41.8609E-03     83.7075E-03    -41.8466E-03     2.36714E-03    -41.8367E-03     83.1046E-03    -41.8242E-03     2.37284E-03
             202     501.188E-09     14.3364E-03    -53.2823E+06    -148.979E+06    -53.1652E+06     1.07747E+06    -40.0946E-03     79.9209E-03    -39.8263E-03     1.60258E-03    -40.0681E-03     79.3304E-03    -39.7989E-03     1.60890E-03
             203     36.6968E-09     13.3125E-03    -49.9018E+06    -145.045E+06    -49.7547E+06     777.252E+03    -37.7215E-03     75.1756E-03    -37.4541E-03     1.07332E-03    -37.6888E-03     74.5948E-03    -37.4202E-03     1.07704E-03
             204    -108.086E-09     12.2931E-03    -46.8229E+06    -141.910E+06    -46.9007E+06     761.725E+03    -34.9088E-03     69.7427E-03    -34.8339E-03     652.884E-06    -34.8694E-03     69.1689E-03    -34.7947E-03     657.560E-06
             205     312.320E-09     11.2806E-03    -45.6745E+06    -139.787E+06    -45.4293E+06     201.910E+03    -32.3178E-03     64.5347E-03    -32.2169E-03     549.527E-06    -32.2778E-03     63.9678E-03    -32.1752E-03     547.192E-06
             206    -336.027E-09     10.2719E-03    -45.7448E+06    -139.001E+06    -45.8774E+06    -70.4236E+03    -30.2065E-03     60.5170E-03    -30.3104E-03     776.000E-06    -30.1673E-03     59.9548E-03    -30.2719E-03     770.290E-06
             207     177.572E-09     9.26697E-03    -46.3677E+06    -138.894E+06    -46.1779E+06    -163.284E+03    -29.4118E-03     58.8463E-03    -29.4344E-03     1.30900E-03    -29.3754E-03     58.2861E-03    -29.3967E-03     1.30239E-03
             208    -56.9387E-09     8.26224E-03    -46.8428E+06    -140.102E+06    -46.6050E+06    -215.902E+03    -30.0059E-03     60.0951E-03    -30.0892E-03     2.06772E-03    -29.9695E-03     59.5301E-03    -30.0512E-03     2.06085E-03
             209    -207.312E-09     7.25411E-03    -46.6101E+06    -141.573E+06    -46.4735E+06    -146.585E+03    -32.0702E-03     64.2476E-03    -32.1774E-03     2.70237E-03    -32.0309E-03     63.6745E-03    -32.1369E-03     2.69685E-03
             210     285.547E-09     6.24134E-03    -45.8795E+06    -143.149E+06    -45.1981E+06    -238.982E+03    -35.4733E-03     70.8002E-03    -35.3269E-03     3.09537E-03    -35.4302E-03     70.2161E-03    -35.2788E-03     3.08893E-03
             211    -100.445E-09     5.21985E-03    -42.8859E+06    -143.698E+06    -42.8414E+06     36.9243E+03    -39.3866E-03     78.7055E-03    -39.3189E-03     3.29066E-03    -39.3313E-03     78.1108E-03    -39.2626E-03     3.28808E-03
             212     35.8538E-09     4.19072E-03    -39.0192E+06    -142.898E+06    -39.2660E+06     222.059E+03    -43.4757E-03     87.0143E-03    -43.5386E-03     3.19101E-03    -43.4074E-03     86.4127E-03    -43.4711E-03     3.19102E-03
             213    -80.0754E-09     3.15217E-03    -35.9707E+06    -142.386E+06    -36.2370E+06     236.551E+03    -47.3801E-03     94.8405E-03    -47.4604E-03     2.81056E-03    -47.3015E-03     94.2329E-03    -47.3829E-03     2.81106E-03
             214    -14.4822E-09     2.10689E-03    -33.4408E+06    -141.602E+06    -33.3764E+06     217.151E+03    -50.7470E-03     101.431E-03    -50.6838E-03     2.07946E-03    -50.6608E-03     100.819E-03    -50.5968E-03     2.08012E-03
             215     218.704E-09     1.05477E-03    -31.1815E+06    -140.811E+06    -31.0871E+06     153.276E+03    -52.9787E-03     105.798E-03    -52.8194E-03     1.10131E-03    -52.8854E-03     105.184E-03    -52.7254E-03     1.10203E-03
             216     852.908E-06    -69.3889E-18    -30.3025E+06    -141.535E+06    -30.1827E+06     125.036E+03    -53.7710E-03     107.419E-03    -53.6476E-03     886.850E-06    -53.6735E-03     106.799E-03    -53.5494E-03     887.480E-06
             217     1.70531E-03    -69.3889E-18    -30.4553E+06    -142.916E+06    -30.4708E+06     102.896E+03    -54.0440E-03     107.821E-03    -53.7772E-03     1.73898E-03    -53.9449E-03     107.195E-03    -53.6782E-03     1.73839E-03
             218     2.55746E-03    -69.3889E-18    -30.6027E+06    -143.736E+06    -31.2653E+06     50.7667E+03    -54.4755E-03     108.407E-03    -53.9315E-03     2.74469E-03    -54.3749E-03     107.778E-03    -53.8350E-03     2.74236E-03
             219     3.40934E-03    -69.3889E-18    -30.8315E+06    -144.640E+06    -32.4527E+06    -100.058E+03    -55.0897E-03     109.225E-03    -54.1353E-03     3.55896E-03    -54.9871E-03     108.594E-03    -54.0432E-03     3.55324E-03
             220     4.26060E-03    -69.3889E-18    -30.8331E+06    -145.780E+06    -34.4795E+06    -608.536E+03    -55.8361E-03     110.224E-03    -54.3876E-03     4.51826E-03    -55.7290E-03     109.590E-03    -54.3039E-03     4.50437E-03
             221     5.11074E-03    -69.3889E-18    -30.2698E+06    -146.536E+06    -37.7787E+06    -1.23367E+06    -56.6997E-03     111.378E-03    -54.6785E-03     5.65369E-03    -56.5839E-03     110.744E-03    -54.6110E-03     5.62943E-03
             222     5.96074E-03    -69.3889E-18    -28.8742E+06    -145.360E+06    -42.5398E+06    -2.23853E+06    -57.6996E-03     112.702E-03    -55.0020E-03     6.69909E-03    -57.5718E-03     112.079E-03    -54.9621E-03     6.65944E-03
             223     6.80918E-03    -69.3889E-18    -26.1942E+06    -143.181E+06    -48.8973E+06    -4.07933E+06    -58.8296E-03     114.187E-03    -55.3577E-03     7.72324E-03    -58.6824E-03     113.581E-03    -55.3566E-03     7.65558E-03
             224     7.65736E-03    -69.3889E-18    -21.8902E+06    -134.254E+06    -56.0621E+06    -5.50346E+06    -60.0751E-03     115.814E-03    -55.7394E-03     9.01419E-03    -59.9092E-03     115.257E-03    -55.7933E-03     8.92396E-03
             225     8.50319E-03    -69.3889E-18    -16.5457E+06    -116.949E+06    -62.2516E+06    -6.52446E+06    -61.4419E-03     117.596E-03    -56.1540E-03     10.4854E-03    -61.2656E-03     117.126E-03    -56.2717E-03     10.3757E-03
             226     9.34927E-03    -69.3889E-18    -10.7794E+06    -95.3924E+06    -65.7546E+06    -6.89028E+06    -62.7883E-03     119.400E-03    -56.6115E-03     12.0199E-03    -62.6098E-03     119.035E-03    -56.7863E-03     11.8985E-03
             227     10.1922E-03    -69.3889E-18    -4.82540E+06    -68.4209E+06    -64.7059E+06    -6.78702E+06    -64.2921E-03     121.409E-03    -57.1170E-03     14.3871E-03    -64.1254E-03     121.170E-03    -57.3343E-03     14.2539E-03
             228     11.0355E-03    -69.3889E-18     119.770E+03    -33.3219E+06    -57.4855E+06    -5.56213E+06    -65.9494E-03     123.632E-03    -57.6822E-03     16.3187E-03    -65.8200E-03     123.551E-03    -57.9215E-03     16.1903E-03
             229     11.8759E-03    -69.3889E-18     1.01591E+06     14.5959E+06    -45.4580E+06    -1.45309E+06    -67.7289E-03     126.031E-03    -58.3022E-03     19.7004E-03    -67.6844E-03     126.174E-03    -58.5522E-03     19.5996E-03
             230     12.7137E-03    -69.3889E-18    -831.974E+03     55.5735E+06    -21.9369E+06     1.58782E+06    -69.6502E-03     128.690E-03    -59.0402E-03     23.5458E-03    -69.7109E-03     129.009E-03    -59.2292E-03     23.4597E-03
             231     13.5516E-03    -69.3889E-18    -1.37719E+06     80.6736E+06     16.6630E+06     420.018E+03    -71.9692E-03     131.899E-03    -59.9301E-03     29.8056E-03    -72.1322E-03     132.294E-03    -59.9618E-03     29.6562E-03
             232     14.3813E-03    -69.3889E-18    -1.40471E+06     98.3200E+06     59.0167E+06     605.095E+03    -74.5294E-03     135.445E-03    -60.9156E-03     38.3257E-03    -74.7900E-03     135.877E-03    -60.7610E-03     38.1128E-03
             233     15.2130E-03    -69.3889E-18    -1.05827E+06     106.355E+06     85.8159E+06     2.30494E+06    -76.1911E-03     138.071E-03    -61.8802E-03     51.2221E-03    -76.5338E-03     138.534E-03    -61.6038E-03     50.9036E-03
             234     16.0327E-03    -69.3889E-18     3.24935E+06     102.857E+06     90.5722E+06     3.11127E+06    -70.0597E-03     132.640E-03    -62.5806E-03     65.8161E-03    -70.4435E-03     133.128E-03    -62.2816E-03     65.3893E-03
             235     16.9516E-03     1.06177E-03    -1.24507E+06     96.1999E+06     82.2732E+06     5.10389E+06    -62.5584E-03     123.037E-03    -60.4790E-03     65.9372E-03    -62.9962E-03     123.573E-03    -60.2053E-03     65.4925E-03
             236     17.0180E-03     2.13735E-03    -6.14772E+06     97.5124E+06     77.5026E+06     5.72253E+06    -71.9710E-03     128.396E-03    -56.4252E-03     45.2231E-03    -72.4219E-03     128.954E-03    -56.1702E-03     44.6265E-03
             237     17.0495E-03     3.23341E-03    -1.63522E+06     103.678E+06     81.8461E+06     3.44711E+06    -86.1648E-03     140.118E-03    -53.9536E-03     21.4152E-03    -86.5783E-03     140.659E-03    -53.6923E-03     20.5799E-03
             238     17.0633E-03     4.32786E-03    -2.76613E+06     107.724E+06     83.5609E+06     2.48388E+06    -90.0903E-03     142.954E-03    -52.8641E-03     8.80748E-03    -90.5049E-03     143.500E-03    -52.5985E-03     7.88235E-03
             239     17.0710E-03     5.42388E-03    -3.62157E+06     109.345E+06     83.9071E+06     1.92980E+06    -88.6442E-03     141.064E-03    -52.4196E-03     2.73968E-03    -89.0525E-03     141.604E-03    -52.1534E-03     1.82264E-03
             240     17.0739E-03     6.51491E-03    -2.35749E+06     111.813E+06     85.3674E+06     456.459E+03    -86.3704E-03     138.675E-03    -52.3051E-03    -1.72858E-03    -86.7656E-03     139.212E-03    -52.0370E-03    -2.62180E-03
             241     17.0720E-03     7.60268E-03    -905.443E+03     112.288E+06     85.4579E+06     1.34186E+06    -82.5103E-03     134.878E-03    -52.3681E-03    -5.52985E-03    -82.8826E-03     135.398E-03    -52.1023E-03    -6.32465E-03
             242     17.0750E-03     8.68400E-03     439.906E+03     112.443E+06     85.0894E+06     226.821E+03    -77.6012E-03     130.063E-03    -52.4616E-03    -6.76293E-03    -77.9595E-03     130.575E-03    -52.1998E-03    -7.49641E-03
             243     17.0725E-03     9.76222E-03    -1.90846E+06     112.265E+06     83.5645E+06    -410.318E+03    -74.9966E-03     127.565E-03    -52.5687E-03    -8.71742E-03    -75.3598E-03     128.078E-03    -52.3109E-03    -9.40533E-03
             244     17.0714E-03     10.8400E-03    -2.24223E+06     111.805E+06     82.5147E+06     2.16080E+06    -70.9110E-03     123.580E-03    -52.6689E-03    -8.05913E-03    -71.2739E-03     124.092E-03    -52.4152E-03    -8.65639E-03
             245     17.0760E-03     11.9074E-03    -1.28998E+06     113.042E+06     83.0628E+06     404.243E+03    -67.9948E-03     120.683E-03    -52.6880E-03    -6.96716E-03    -68.3594E-03     121.203E-03    -52.4347E-03    -7.56061E-03
             246     17.0715E-03     12.9819E-03    -2.76647E+06     113.019E+06     82.3362E+06    -145.015E+03    -67.6591E-03     120.336E-03    -52.6770E-03    -6.91490E-03    -68.0342E-03     120.864E-03    -52.4252E-03    -7.51291E-03
             247     17.0771E-03     14.0478E-03    -1.65860E+06     114.323E+06     83.3123E+06     119.907E+03    -65.9412E-03     118.580E-03    -52.6385E-03    -4.45960E-03    -66.3224E-03     119.119E-03    -52.3853E-03    -5.04756E-03
             248     17.0759E-03     15.1197E-03    -2.20232E+06     115.319E+06     83.5536E+06    -645.533E+03    -65.8233E-03     118.429E-03    -52.6060E-03    -2.52972E-03    -66.2180E-03     118.984E-03    -52.3523E-03    -3.13040E-03
             249     17.0751E-03     16.1903E-03    -3.19290E+06     114.674E+06     82.4185E+06     1.53462E+06    -64.6034E-03     117.214E-03    -52.6109E-03    -676.229E-06    -65.0075E-03     117.775E-03    -52.3605E-03    -1.23839E-03
             250     17.0795E-03     17.2500E-03    -1.81972E+06     115.705E+06     83.3796E+06    -380.350E+03    -63.7827E-03     116.353E-03    -52.5707E-03    -77.8295E-06    -64.1868E-03     116.920E-03    -52.3190E-03    -662.609E-06
             251     17.0757E-03     18.3237E-03    -2.17490E+06     116.225E+06     83.6785E+06    -281.105E+03    -64.0592E-03     116.602E-03    -52.5431E-03     487.217E-06    -64.4720E-03     117.178E-03    -52.2901E-03    -101.223E-06
             252     17.0803E-03     19.3858E-03    -1.41554E+06     117.372E+06     84.5941E+06     769.430E+03    -62.3007E-03     114.866E-03    -52.5654E-03     2.18979E-03    -62.7183E-03     115.450E-03    -52.3106E-03     1.63675E-03
             253     17.0765E-03     20.4521E-03    -2.33089E+06     117.082E+06     83.7728E+06     482.517E+03    -61.6497E-03     114.218E-03    -52.5682E-03     3.07011E-03    -62.0743E-03     114.807E-03    -52.3157E-03     2.52242E-03
             254     17.0803E-03     21.5141E-03    -2.20306E+06     117.472E+06     83.8648E+06     347.898E+03    -60.8097E-03     113.366E-03    -52.5564E-03     3.23699E-03    -61.2365E-03     113.959E-03    -52.3042E-03     2.69573E-03
             255     17.0787E-03     22.5766E-03    -911.939E+03     119.306E+06     85.5859E+06    -686.186E+03    -59.7874E-03     112.352E-03    -52.5644E-03     3.16740E-03    -60.2151E-03     112.952E-03    -52.3081E-03     2.62796E-03
             256     17.0795E-03     23.6399E-03    -2.27912E+06     118.871E+06     84.7390E+06     270.606E+03    -58.9423E-03     111.546E-03    -52.6032E-03     3.76798E-03    -59.3778E-03     112.149E-03    -52.3486E-03     3.25795E-03
             257     17.0781E-03     24.6983E-03    -3.09351E+06     117.950E+06     83.6200E+06     1.16466E+06    -57.9347E-03     110.560E-03    -52.6248E-03     4.72720E-03    -58.3737E-03     111.164E-03    -52.3732E-03     4.24328E-03
             258     17.0801E-03     25.7588E-03    -2.57256E+06     118.653E+06     84.0638E+06     355.267E+03    -57.5107E-03     110.120E-03    -52.6096E-03     5.00553E-03    -57.9510E-03     110.729E-03    -52.3576E-03     4.51247E-03
             259     17.0793E-03     26.8174E-03    -2.40528E+06     119.666E+06     84.8506E+06    -566.720E+03    -57.0333E-03     109.656E-03    -52.6230E-03     4.17757E-03    -57.4746E-03     110.268E-03    -52.3688E-03     3.68501E-03
             260     17.0791E-03     27.8769E-03    -1.55048E+06     120.195E+06     85.5088E+06     401.278E+03    -55.6175E-03     108.269E-03    -52.6520E-03     5.17760E-03    -56.0585E-03     108.884E-03    -52.3965E-03     4.71705E-03
             261     17.0810E-03     28.9324E-03    -2.10500E+06     120.169E+06     85.1700E+06    -351.149E+03    -55.2408E-03     107.900E-03    -52.6589E-03     5.56694E-03    -55.6857E-03     108.517E-03    -52.4042E-03     5.10335E-03
             262     17.0775E-03     29.9911E-03    -3.10306E+06     119.663E+06     84.3970E+06     304.365E+03    -54.9978E-03     107.675E-03    -52.6772E-03     4.56815E-03    -55.4435E-03     108.290E-03    -52.4242E-03     4.12233E-03
             263     17.0816E-03     31.0446E-03    -1.15971E+06     121.224E+06     86.1657E+06     35.2113E+03    -53.8112E-03     106.497E-03    -52.6860E-03     5.37927E-03    -54.2539E-03     107.116E-03    -52.4293E-03     4.94145E-03
             264     17.0786E-03     32.1028E-03    -1.80039E+06     121.266E+06     85.9521E+06    -434.688E+03    -54.0068E-03     106.694E-03    -52.6870E-03     5.58944E-03    -54.4537E-03     107.316E-03    -52.4305E-03     5.14697E-03
             265     17.0801E-03     33.1575E-03    -2.68677E+06     120.494E+06     85.0763E+06     407.944E+03    -53.2860E-03     105.990E-03    -52.7043E-03     5.51440E-03    -53.7342E-03     106.610E-03    -52.4497E-03     5.09439E-03
             266     17.0800E-03     34.2106E-03    -1.75392E+06     121.320E+06      85.979E+06    -449.483E+03    -52.7972E-03     105.499E-03    -52.7018E-03     5.73963E-03    -53.2445E-03     106.122E-03    -52.4453E-03     5.31297E-03
             267     17.0798E-03     35.2678E-03    -3.37846E+06     120.630E+06     84.8201E+06    -52.6435E+03    -53.3771E-03     106.092E-03    -52.7149E-03     5.10439E-03    -53.8288E-03     106.714E-03    -52.4608E-03     4.68219E-03
             268     17.0783E-03     36.3207E-03    -3.31637E+06     120.140E+06     84.4742E+06     1.29270E+06    -52.6711E-03     105.408E-03    -52.7369E-03     5.64994E-03    -53.1213E-03     106.028E-03    -52.4839E-03     5.25442E-03
             269     17.0812E-03     37.3754E-03    -351.448E+03     122.177E+06     86.9044E+06    -7.04812E+03    -51.5924E-03     104.317E-03    -52.7247E-03     6.11771E-03    -52.0352E-03     104.940E-03    -52.4669E-03     5.71146E-03
             270     17.0799E-03     38.4282E-03    -2.13008E+06     121.745E+06     86.0504E+06    -1.31115E+06    -52.4081E-03     105.135E-03    -52.7267E-03     5.36215E-03    -52.8582E-03     105.760E-03    -52.4699E-03     4.93573E-03
             271     17.0780E-03     39.4832E-03    -4.19242E+06     119.865E+06     84.0201E+06     1.08654E+06    -52.6601E-03     105.401E-03    -52.7406E-03     5.42352E-03    -53.1142E-03     106.022E-03    -52.4882E-03     5.02788E-03
             272     17.0814E-03     40.5361E-03    -2.30392E+06     121.132E+06     85.5076E+06     204.240E+03    -51.9829E-03     104.724E-03    -52.7415E-03     6.00801E-03    -52.4329E-03     105.348E-03    -52.4863E-03     5.60469E-03
             273     17.0778E-03     41.5920E-03    -1.18664E+06     122.073E+06     86.6109E+06    -71.2717E+03    -51.7494E-03     104.498E-03    -52.7489E-03     6.05245E-03    -52.1971E-03     105.124E-03    -52.4912E-03     5.64893E-03
             274     17.0817E-03     42.6422E-03    -1.63948E+06     121.911E+06     86.3631E+06    -199.358E+03    -51.4737E-03     104.224E-03    -52.7504E-03     5.81865E-03    -51.9215E-03     104.848E-03    -52.4929E-03     5.41812E-03
             275     17.0778E-03     43.6973E-03    -3.25623E+06     121.047E+06     85.2004E+06     289.137E+03    -52.0346E-03     104.784E-03    -52.7493E-03     5.51341E-03    -52.4869E-03     105.407E-03    -52.4941E-03     5.11697E-03
             276     17.0807E-03     44.7508E-03    -1.12387E+06     122.221E+06     86.7078E+06     803.315E+03    -51.0182E-03     103.778E-03    -52.7603E-03     5.36654E-03    -51.4623E-03     104.401E-03    -52.5023E-03     4.98443E-03
             277     17.0800E-03     45.8006E-03    -1.75748E+06     122.024E+06     86.3960E+06    -1.01524E+06    -51.4654E-03     104.216E-03    -52.7504E-03     5.34502E-03    -51.9136E-03     104.840E-03    -52.4928E-03     4.93496E-03
             278     17.0783E-03     46.8581E-03    -3.57749E+06     120.688E+06     84.8305E+06     416.214E+03    -52.4683E-03     105.211E-03    -52.7425E-03     5.58894E-03    -52.9223E-03     105.835E-03    -52.4882E-03     5.18798E-03
             279     17.0810E-03     47.9094E-03    -1.43201E+06     121.733E+06     86.2570E+06     114.085E+03    -51.2940E-03     104.039E-03    -52.7449E-03     6.04617E-03    -51.7409E-03     104.663E-03    -52.4881E-03     5.64970E-03
             280     17.0793E-03     48.9634E-03    -2.41107E+06     121.701E+06     85.8916E+06    -423.986E+03    -51.6557E-03     104.408E-03    -52.7519E-03     5.19518E-03    -52.1056E-03     105.032E-03    -52.4954E-03     4.79266E-03
             281     17.0789E-03     50.0162E-03    -3.19197E+06     121.329E+06     85.2464E+06     529.763E+03    -51.6366E-03     104.400E-03    -52.7631E-03     4.86962E-03    -52.0874E-03     105.023E-03    -52.5082E-03     4.48134E-03
             282     17.0806E-03     51.0681E-03    -1.69228E+06     122.368E+06     86.4882E+06    -146.379E+03    -51.1701E-03     103.923E-03    -52.7533E-03     5.55556E-03    -51.6187E-03     104.550E-03    -52.4959E-03     5.15932E-03
             283     17.0792E-03     52.1241E-03    -1.86417E+06     122.868E+06     86.7503E+06    -418.402E+03    -51.6221E-03     104.368E-03    -52.7460E-03     5.95140E-03    -52.0749E-03     104.999E-03    -52.4877E-03     5.54572E-03
             284     17.0801E-03     53.1742E-03    -2.07800E+06     122.701E+06     86.5511E+06     154.853E+03    -51.7467E-03     104.495E-03    -52.7486E-03     5.71786E-03    -52.1979E-03     105.124E-03    -52.4907E-03     5.32090E-03
             285     17.0793E-03     54.2306E-03    -1.34596E+06     122.922E+06     86.9090E+06     188.208E+03    -50.9879E-03     103.745E-03    -52.7573E-03     5.48211E-03    -51.4349E-03     104.372E-03    -52.4990E-03     5.09364E-03
             286     17.0807E-03     55.2799E-03    -2.48957E+06     122.626E+06     86.2231E+06    -238.221E+03    -51.2721E-03     104.034E-03    -52.7615E-03     5.45561E-03    -51.7245E-03     104.663E-03    -52.5046E-03     5.06050E-03
             287     17.0778E-03     56.3349E-03    -3.29505E+06     122.010E+06     85.4197E+06     267.346E+03    -52.0771E-03     104.826E-03    -52.7491E-03     5.17981E-03    -52.5305E-03     105.453E-03    -52.4942E-03     4.78153E-03
             288     17.0815E-03     57.3880E-03    -2.46953E+06     122.659E+06     86.1146E+06     116.454E+03    -51.7121E-03     104.465E-03    -52.7528E-03     5.46122E-03    -52.1639E-03     105.094E-03    -52.4965E-03     5.06350E-03
             289     17.0775E-03     58.4427E-03    -2.12464E+06     123.441E+06     86.7383E+06     512.150E+03    -51.2141E-03     103.988E-03    -52.7743E-03     6.01157E-03    -51.6676E-03     104.621E-03    -52.5165E-03     5.62624E-03
             290     17.0814E-03     59.4938E-03    -2.02656E+06     123.269E+06     86.6022E+06     67.2272E+03    -51.0272E-03     103.791E-03    -52.7642E-03     6.03937E-03    -51.4793E-03     104.423E-03    -52.5070E-03     5.64798E-03
             291     17.0786E-03     60.5457E-03    -1.35742E+06     124.099E+06     87.5268E+06    -587.736E+03    -51.5115E-03     104.260E-03    -52.7483E-03     4.81281E-03    -51.9600E-03     104.890E-03    -52.4886E-03     4.40918E-03
             292     853.555E-06     61.4889E-03    -63.8714E+06    -173.102E+06    -62.2747E+06    -69.7642E+03    -52.8756E-03     105.732E-03    -52.8560E-03     9.61498E-03    -52.8551E-03     105.051E-03    -52.8238E-03     9.58043E-03
             293     1.70746E-03     61.5025E-03    -61.6222E+06    -172.351E+06    -55.8644E+06     45.2880E+03    -52.9190E-03     105.801E-03    -52.8819E-03     17.5683E-03    -52.9010E-03     105.114E-03    -52.8219E-03     17.5055E-03
             294     2.56103E-03     61.5242E-03    -58.3162E+06    -167.676E+06    -46.8658E+06     313.980E+03    -52.9922E-03     105.901E-03    -52.9090E-03     25.8103E-03    -52.9832E-03     105.226E-03    -52.8156E-03     25.7170E-03
             295     3.41487E-03     61.5542E-03    -54.4702E+06    -159.347E+06    -37.5737E+06     285.352E+03    -53.0667E-03     105.994E-03    -52.9274E-03     33.9083E-03    -53.0730E-03     105.350E-03    -52.8053E-03     33.7762E-03
             296     4.26859E-03     61.5920E-03    -50.2092E+06    -150.713E+06    -28.2736E+06     429.288E+03    -53.1986E-03     106.141E-03    -52.9428E-03     41.7689E-03    -53.2222E-03     105.534E-03    -52.7928E-03     41.5951E-03
             297     5.12237E-03     61.6378E-03    -45.9082E+06    -142.498E+06    -19.2032E+06     375.788E+03    -53.3578E-03     106.318E-03    -52.9598E-03     49.2672E-03    -53.4024E-03     105.749E-03    -52.7826E-03     49.0425E-03
             298     5.97612E-03     61.6905E-03    -41.4528E+06    -135.410E+06    -10.6065E+06     444.328E+03    -53.4962E-03     106.471E-03    -52.9752E-03     56.3936E-03    -53.5643E-03     105.942E-03    -52.7718E-03     56.1133E-03
             299     6.83000E-03     61.7506E-03    -37.1857E+06    -126.230E+06    -4.26629E+06     458.879E+03    -53.6377E-03     106.611E-03    -52.9735E-03     63.1000E-03    -53.7372E-03     106.143E-03    -52.7579E-03     62.7557E-03
             300     7.68388E-03     61.8166E-03    -33.3381E+06    -115.397E+06    -396.209E+03     294.499E+03    -53.8123E-03     106.770E-03    -52.9576E-03     69.2957E-03    -53.9528E-03     106.384E-03    -52.7439E-03     68.8766E-03
             301     8.53767E-03     61.8890E-03    -29.9950E+06    -104.057E+06     1.64781E+06     379.524E+03    -53.9582E-03     106.892E-03    -52.9337E-03     74.9828E-03    -54.1516E-03     106.605E-03    -52.7311E-03     74.4834E-03
             302     9.39157E-03     61.9662E-03    -27.1365E+06    -90.0333E+06     3.10466E+06     415.745E+03    -54.0404E-03     106.942E-03    -52.9021E-03     80.0905E-03    -54.3052E-03     106.782E-03    -52.7167E-03     79.5021E-03
             303     10.2456E-03     62.0487E-03    -24.5611E+06    -75.0697E+06     4.18157E+06     412.424E+03    -54.0928E-03     106.959E-03    -52.8658E-03     84.2066E-03    -54.4473E-03     106.947E-03    -52.7004E-03     83.5204E-03
             304     11.0998E-03     62.1341E-03    -22.4637E+06    -54.8765E+06     4.46279E+06     353.019E+03    -54.0732E-03     106.891E-03    -52.8178E-03     87.3758E-03    -54.5469E-03     107.077E-03    -52.6834E-03     86.5835E-03
             305     11.9532E-03     62.2227E-03    -20.5667E+06    -27.4295E+06     6.49522E+06     272.889E+03    -54.0584E-03     106.826E-03    -52.7679E-03     91.3673E-03    -54.7040E-03     107.283E-03    -52.6658E-03     90.4592E-03
             306     12.8079E-03     62.3162E-03    -18.7339E+06     10.0311E+06     6.38701E+06     314.684E+03    -53.8686E-03     106.558E-03    -52.6889E-03     95.6279E-03    -54.7592E-03     107.399E-03    -52.6443E-03     94.5950E-03
             307     13.6618E-03     62.4125E-03    -16.3449E+06     74.2113E+06     20.5081E+06     604.759E+03    -53.4523E-03     106.085E-03    -52.6324E-03     97.4185E-03    -54.6298E-03     107.408E-03    -52.6138E-03     96.3314E-03
             308     14.5169E-03     62.5106E-03    -13.1651E+06     119.666E+06     49.1483E+06     39.7878E+03    -52.7463E-03     105.416E-03    -52.6695E-03     85.5599E-03    -54.0086E-03     106.914E-03    -52.5782E-03     84.5438E-03
             309     15.3702E-03     62.5825E-03    -8.69970E+06     129.072E+06     76.6134E+06    -176.100E+03    -52.0279E-03     104.780E-03    -52.7519E-03     70.0013E-03    -53.2592E-03     106.216E-03    -52.5433E-03     69.1022E-03
             310     16.2269E-03     62.6498E-03    -4.81247E+06     128.549E+06     88.3423E+06     303.288E+03    -51.8088E-03     104.585E-03    -52.7767E-03     35.9472E-03    -52.6669E-03     105.627E-03    -52.5144E-03     35.3274E-03
             311     853.856E-06     62.5424E-03    -63.7815E+06    -172.993E+06    -62.1963E+06    -31.0279E+03    -52.8978E-03     105.745E-03    -52.8474E-03     9.63069E-03    -52.8772E-03     105.064E-03    -52.8151E-03     9.59664E-03
             312     1.70727E-03     62.5557E-03    -61.6724E+06    -172.520E+06    -55.7245E+06     150.768E+03    -52.9285E-03     105.819E-03    -52.8901E-03     17.5878E-03    -52.9107E-03     105.131E-03    -52.8291E-03     17.5265E-03
             313     2.56112E-03     62.5776E-03    -58.3619E+06    -168.076E+06    -47.2076E+06     336.050E+03    -52.9791E-03     105.892E-03    -52.9125E-03     25.8334E-03    -52.9693E-03     105.215E-03    -52.8202E-03     25.7404E-03
             314     3.41480E-03     62.6074E-03    -54.4269E+06    -159.307E+06    -37.6751E+06     481.266E+03    -53.0820E-03     106.012E-03    -52.9298E-03     33.9092E-03    -53.0880E-03     105.368E-03    -52.8082E-03     33.7797E-03
             315     4.26859E-03     62.6454E-03    -50.3108E+06    -150.896E+06    -28.1939E+06     447.483E+03    -53.2039E-03     106.152E-03    -52.9481E-03     41.7696E-03    -53.2279E-03     105.544E-03    -52.7974E-03     41.5960E-03
             316     5.12234E-03     62.6910E-03    -45.8841E+06    -142.583E+06    -18.9751E+06     455.018E+03    -53.3358E-03     106.299E-03    -52.9636E-03     49.2883E-03    -53.3804E-03     105.730E-03    -52.7852E-03     49.0649E-03
             317     5.97615E-03     62.7440E-03    -41.5023E+06    -135.467E+06    -10.4696E+06     401.437E+03    -53.4892E-03     106.465E-03    -52.9761E-03     56.3973E-03    -53.5577E-03     105.936E-03    -52.7718E-03     56.1164E-03
             318     6.82998E-03     62.8036E-03    -37.2158E+06    -126.393E+06    -4.48348E+06     413.879E+03    -53.6466E-03     106.619E-03    -52.9728E-03     63.1053E-03    -53.7456E-03     106.151E-03    -52.7580E-03     62.7604E-03
             319     7.68381E-03     62.8702E-03    -33.4654E+06    -115.196E+06    -431.065E+03     498.205E+03    -53.7840E-03     106.740E-03    -52.9564E-03     69.3039E-03    -53.9254E-03     106.355E-03    -52.7430E-03     68.8878E-03
             320     8.53778E-03     62.9421E-03    -30.1698E+06    -103.904E+06     1.69204E+06     392.718E+03    -53.9221E-03     106.852E-03    -52.9300E-03     74.9669E-03    -54.1165E-03     106.566E-03    -52.7271E-03     74.4681E-03
             321     9.39173E-03     63.0197E-03    -27.1429E+06    -90.1802E+06     3.02098E+06     401.404E+03    -54.0607E-03     106.958E-03    -52.8976E-03     80.0583E-03    -54.3253E-03     106.798E-03    -52.7124E-03     79.4693E-03
             322     10.2456E-03     63.1017E-03    -24.6732E+06    -74.8956E+06     4.05999E+06     443.510E+03    -54.1310E-03     106.995E-03    -52.8637E-03     84.1675E-03    -54.4859E-03     106.984E-03    -52.6990E-03     83.4814E-03
             323     11.0993E-03     63.1875E-03    -22.4150E+06    -54.8973E+06     4.51268E+06     496.535E+03    -54.0963E-03     106.916E-03    -52.8193E-03     87.3489E-03    -54.5702E-03     107.102E-03    -52.6846E-03     86.5576E-03
             324     11.9538E-03     63.2758E-03    -20.6141E+06    -27.6625E+06     6.31724E+06     493.493E+03    -53.9841E-03     106.751E-03    -52.7669E-03     91.3529E-03    -54.6282E-03     107.205E-03    -52.6653E-03     90.4498E-03
             325     12.8075E-03     63.3693E-03    -19.1190E+06     10.7093E+06     6.48474E+06     311.479E+03    -53.9447E-03     106.633E-03    -52.6884E-03     95.6237E-03    -54.8384E-03     107.478E-03    -52.6438E-03     94.5895E-03
             326     13.6618E-03     63.4660E-03    -16.8665E+06     74.4498E+06     20.3144E+06    -287.562E+03    -53.6037E-03     106.242E-03    -52.6388E-03     97.3360E-03    -54.7855E-03     107.570E-03    -52.6207E-03     96.2324E-03
             327     14.5158E-03     63.5630E-03    -13.2710E+06     119.836E+06     49.3961E+06    -317.749E+03    -52.6695E-03     105.349E-03    -52.6800E-03     85.5291E-03    -53.9321E-03     106.847E-03    -52.5875E-03     84.5115E-03
             328     15.3712E-03     63.6365E-03    -9.56051E+06     128.508E+06     76.3251E+06     291.179E+03    -51.9305E-03     104.687E-03    -52.7568E-03     69.6113E-03    -53.1600E-03     106.118E-03    -52.5477E-03     68.7227E-03
             329     16.2244E-03     63.7009E-03    -5.03675E+06     128.213E+06     87.9453E+06     438.477E+03    -51.6405E-03     104.414E-03    -52.7732E-03     35.5043E-03    -52.4941E-03     105.450E-03    -52.5121E-03     34.8877E-03
             330     853.508E-06     63.5955E-03     -63.821E+06    -172.957E+06    -62.2737E+06     1.54823E+03    -52.8694E-03     105.747E-03    -52.8775E-03     9.57718E-03    -52.8490E-03     105.067E-03    -52.8456E-03     9.54346E-03
             331     1.70745E-03     63.6091E-03    -61.6528E+06    -172.860E+06    -55.8534E+06     267.553E+03    -52.9124E-03     105.800E-03    -52.8874E-03     17.6121E-03    -52.8938E-03     105.111E-03    -52.8266E-03     17.5523E-03
             332     2.56106E-03     63.6307E-03    -58.4902E+06    -168.360E+06     -47.278E+06     417.699E+03    -53.0029E-03     105.914E-03    -52.9109E-03     25.8442E-03    -52.9933E-03     105.236E-03    -52.8184E-03     25.7522E-03
             333     3.41484E-03     63.6609E-03    -54.6170E+06    -159.492E+06    -37.9144E+06     520.947E+03    -53.0911E-03     106.023E-03    -52.9323E-03     33.9373E-03    -53.0974E-03     105.380E-03    -52.8114E-03     33.8083E-03
             334     4.26850E-03     63.6986E-03    -50.3468E+06    -150.779E+06    -28.1831E+06     550.403E+03    -53.1978E-03     106.149E-03    -52.9510E-03     41.7921E-03    -53.2222E-03     105.541E-03    -52.8003E-03     41.6198E-03
             335     5.12235E-03     63.7444E-03    -45.9678E+06    -142.682E+06    -19.1551E+06     452.594E+03    -53.3149E-03     106.278E-03    -52.9632E-03     49.2922E-03    -53.3595E-03     105.709E-03    -52.7854E-03     49.0689E-03
             336     5.97619E-03     63.7972E-03    -41.4459E+06    -135.579E+06    -10.6240E+06     429.836E+03    -53.4854E-03     106.459E-03    -52.9736E-03     56.4213E-03    -53.5533E-03     105.929E-03    -52.7700E-03     56.1407E-03
             337     6.82998E-03     63.8572E-03    -37.3223E+06    -126.417E+06    -4.34308E+06     490.837E+03    -53.6524E-03     106.625E-03    -52.9722E-03     63.0963E-03    -53.7522E-03     106.156E-03    -52.7565E-03     62.7523E-03
             338     7.68389E-03     63.9232E-03    -33.4119E+06    -115.159E+06    -363.736E+03     572.930E+03    -53.7747E-03     106.730E-03    -52.9552E-03     69.2679E-03    -53.9160E-03     106.345E-03    -52.7416E-03     68.8527E-03
             339     8.53776E-03     63.9955E-03    -30.0107E+06    -103.682E+06     1.87124E+06     495.670E+03    -53.9313E-03     106.860E-03    -52.9292E-03     74.9421E-03    -54.1254E-03     106.574E-03    -52.7260E-03     74.4445E-03
             340     9.39163E-03     64.0728E-03    -27.1973E+06    -90.3223E+06     2.93416E+06     323.957E+03    -54.0649E-03     106.962E-03    -52.8972E-03     80.0066E-03    -54.3293E-03     106.801E-03    -52.7121E-03     79.4167E-03
             341     10.2456E-03     64.1553E-03    -24.5492E+06    -74.9538E+06     4.06293E+06     474.631E+03    -54.1147E-03     106.978E-03    -52.8629E-03     84.1637E-03    -54.4687E-03     106.967E-03    -52.6984E-03     83.4783E-03
             342     11.0997E-03     64.2407E-03    -22.3006E+06    -54.7435E+06     4.66666E+06     432.730E+03    -54.0838E-03     106.902E-03    -52.8178E-03     87.3762E-03    -54.5576E-03     107.088E-03    -52.6828E-03     86.5843E-03
             343     11.9533E-03     64.3291E-03    -20.0988E+06    -27.6009E+06     6.56952E+06     633.490E+03    -53.9927E-03     106.758E-03    -52.7655E-03     91.2383E-03    -54.6342E-03     107.211E-03    -52.6635E-03     90.3372E-03
             344     12.8080E-03     64.4222E-03    -18.1292E+06     11.2150E+06     6.99152E+06     450.769E+03    -53.9438E-03     106.631E-03    -52.6870E-03     95.8745E-03    -54.8348E-03     107.477E-03    -52.6420E-03     94.8424E-03
             345     13.6617E-03     64.5199E-03    -16.4300E+06     75.2691E+06     21.5364E+06    -243.526E+03    -53.6724E-03     106.315E-03    -52.6427E-03     97.4147E-03    -54.8552E-03     107.644E-03    -52.6204E-03     96.3105E-03
             346     14.5163E-03     64.6155E-03    -14.4066E+06     119.121E+06     49.2173E+06     104.645E+03    -52.8106E-03     105.498E-03    -52.6877E-03     85.4635E-03    -54.0769E-03     106.994E-03    -52.5935E-03     84.4490E-03
             347     15.3703E-03     64.6896E-03    -10.2598E+06     127.739E+06     75.0992E+06     592.843E+03    -52.0344E-03     104.800E-03    -52.7655E-03     69.7742E-03    -53.2665E-03     106.231E-03    -52.5603E-03     68.8840E-03
             348     16.2254E-03     64.7549E-03    -4.39807E+06     128.835E+06     88.2811E+06     142.877E+03    -51.5075E-03     104.292E-03    -52.7844E-03     35.5380E-03    -52.3610E-03     105.331E-03    -52.5234E-03     34.9160E-03
             349     853.792E-06     64.6490E-03    -64.0021E+06    -173.182E+06    -62.5805E+06     93.4773E+03    -52.8524E-03     105.726E-03    -52.8733E-03     9.66627E-03    -52.8321E-03     105.045E-03    -52.8423E-03     9.63396E-03
             350     1.70738E-03     64.6622E-03    -61.8724E+06    -173.255E+06    -55.8840E+06     275.330E+03    -52.9383E-03     105.824E-03    -52.8853E-03     17.5840E-03    -52.9202E-03     105.133E-03    -52.8238E-03     17.5243E-03
             351     2.56110E-03     64.6843E-03    -58.4201E+06    -168.673E+06    -46.9796E+06     506.794E+03    -52.9922E-03     105.907E-03    -52.9151E-03     25.8365E-03    -52.9822E-03     105.227E-03    -52.8207E-03     25.7457E-03
             352     3.41476E-03     64.7139E-03    -54.4615E+06    -159.566E+06    -37.7858E+06     551.517E+03    -53.0821E-03     106.014E-03    -52.9317E-03     33.9717E-03    -53.0878E-03     105.369E-03    -52.8103E-03     33.8431E-03
             353     4.26862E-03     64.7522E-03    -50.2229E+06    -150.774E+06    -28.3398E+06     612.284E+03    -53.1897E-03     106.137E-03    -52.9472E-03     41.7992E-03    -53.2132E-03     105.529E-03    -52.7974E-03     41.6277E-03
             354     5.12234E-03     64.7975E-03    -45.8111E+06    -142.491E+06    -19.0567E+06     487.464E+03    -53.3316E-03     106.293E-03    -52.9612E-03     49.2966E-03    -53.3759E-03     105.724E-03    -52.7835E-03     49.0735E-03
             355     5.97617E-03     64.8507E-03    -41.5606E+06    -135.671E+06    -10.8146E+06     483.268E+03    -53.4860E-03     106.459E-03    -52.9726E-03     56.4160E-03    -53.5540E-03     105.929E-03    -52.7697E-03     56.1361E-03
             356     6.83002E-03     64.9104E-03    -37.3075E+06    -126.275E+06    -4.36442E+06     619.276E+03    -53.6309E-03     106.601E-03    -52.9704E-03     63.0666E-03    -53.7308E-03     106.133E-03    -52.7550E-03     62.7244E-03
             357     7.68384E-03     64.9766E-03    -33.4636E+06    -115.449E+06    -468.419E+03     426.861E+03    -53.7963E-03     106.750E-03    -52.9539E-03     69.2563E-03    -53.9372E-03     106.364E-03    -52.7403E-03     68.8391E-03
             358     8.53776E-03     65.0486E-03    -30.0026E+06    -103.705E+06     1.68021E+06     525.782E+03    -53.9510E-03     106.880E-03    -52.9290E-03     74.9735E-03    -54.1448E-03     106.594E-03    -52.7267E-03     74.4763E-03
             359     9.39165E-03     65.1264E-03    -27.0457E+06    -89.8471E+06     3.21830E+06     461.817E+03    -54.0446E-03     106.943E-03    -52.8983E-03     80.0137E-03    -54.3091E-03     106.783E-03    -52.7128E-03     79.4261E-03
             360     10.2456E-03     65.2082E-03    -24.4977E+06    -75.3709E+06     3.88682E+06     323.670E+03    -54.0764E-03     106.937E-03    -52.8608E-03     84.1549E-03    -54.4291E-03     106.924E-03    -52.6965E-03     83.4684E-03
             361     11.0995E-03     65.2941E-03    -22.2453E+06    -54.6111E+06     4.60402E+06     484.236E+03    -54.0539E-03     106.867E-03    -52.8129E-03     87.3680E-03    -54.5267E-03     107.053E-03    -52.6784E-03     86.5782E-03
             362     11.9539E-03     65.3822E-03    -20.2634E+06    -27.3866E+06     6.59165E+06     244.420E+03    -54.0280E-03     106.790E-03    -52.7616E-03     91.2331E-03    -54.6707E-03     107.244E-03    -52.6596E-03     90.3264E-03
             363     12.8075E-03     65.4755E-03    -18.1376E+06     11.1345E+06     6.87620E+06     189.172E+03    -53.9154E-03     106.599E-03    -52.6831E-03     95.9371E-03    -54.8057E-03     107.444E-03    -52.6386E-03     94.9025E-03
             364     13.6622E-03     65.5731E-03    -16.5344E+06     75.1629E+06     21.2344E+06     890.670E+03    -53.5788E-03     106.213E-03    -52.6343E-03     97.4982E-03    -54.7599E-03     107.541E-03    -52.6131E-03     96.4123E-03
             365     14.5159E-03     65.6692E-03    -13.9640E+06     119.421E+06     48.9960E+06     949.191E+03    -52.8716E-03     105.549E-03    -52.6770E-03     85.7038E-03    -54.1371E-03     107.046E-03    -52.5850E-03     84.6976E-03
             366     15.3703E-03     65.7427E-03    -9.85264E+06     128.174E+06     75.2508E+06     113.580E+03    -52.0718E-03     104.831E-03    -52.7591E-03     70.2286E-03    -53.3074E-03     106.268E-03    -52.5544E-03     69.3298E-03
             367     16.2248E-03     65.8074E-03    -4.44400E+06     128.830E+06     88.3876E+06    -376.642E+03    -51.4196E-03     104.197E-03    -52.7776E-03     35.6562E-03    -52.2760E-03     105.239E-03    -52.5160E-03     35.0283E-03
             368     853.734E-06     65.7021E-03    -64.1700E+06    -173.315E+06    -62.4876E+06     163.830E+03    -52.9255E-03     105.747E-03    -52.8217E-03     9.65316E-03    -52.9060E-03     105.066E-03    -52.7898E-03     9.62191E-03
             369     1.70728E-03     65.7158E-03    -61.8083E+06    -173.500E+06    -55.7814E+06     152.277E+03    -52.9312E-03     105.824E-03    -52.8932E-03     17.5690E-03    -52.9125E-03     105.132E-03    -52.8309E-03     17.5076E-03
             370     2.56107E-03     65.7372E-03    -58.4079E+06    -169.225E+06    -46.9250E+06     461.384E+03    -52.9781E-03     105.895E-03    -52.9169E-03     25.8731E-03    -52.9673E-03     105.212E-03    -52.8214E-03     25.7817E-03
             371     3.41489E-03     65.7676E-03    -54.4691E+06    -159.759E+06    -37.7399E+06     749.734E+03    -53.0725E-03     106.002E-03    -52.9294E-03     33.9666E-03    -53.0779E-03     105.356E-03    -52.8075E-03     33.8406E-03
             372     4.26853E-03     65.8052E-03    -50.2732E+06    -150.825E+06    -28.4749E+06     634.538E+03    -53.1917E-03     106.135E-03    -52.9435E-03     41.7765E-03    -53.2152E-03     105.527E-03    -52.7943E-03     41.6053E-03
             373     5.12243E-03     65.8510E-03    -45.9690E+06    -142.551E+06    -19.1414E+06     579.365E+03    -53.3458E-03     106.306E-03    -52.9599E-03     49.3095E-03    -53.3907E-03     105.737E-03    -52.7822E-03     49.0876E-03
             374     5.97611E-03     65.9038E-03    -41.5253E+06    -135.480E+06    -10.6367E+06     571.736E+03    -53.4801E-03     106.453E-03    -52.9729E-03     56.3830E-03    -53.5484E-03     105.924E-03    -52.7694E-03     56.1044E-03
             375     6.83001E-03     65.9637E-03    -37.2576E+06    -126.421E+06    -4.72001E+06     530.716E+03    -53.6191E-03     106.587E-03    -52.9674E-03     63.0862E-03    -53.7179E-03     106.118E-03    -52.7537E-03     62.7430E-03
             376     7.68393E-03     66.0299E-03    -33.3464E+06    -115.203E+06    -404.490E+03     491.202E+03    -53.7995E-03     106.751E-03    -52.9518E-03     69.2900E-03    -53.9403E-03     106.366E-03    -52.7384E-03     68.8737E-03
             377     8.53772E-03     66.1021E-03    -29.9597E+06    -103.953E+06     1.64937E+06     405.528E+03    -53.9352E-03     106.862E-03    -52.9267E-03     74.9940E-03    -54.1283E-03     106.575E-03    -52.7243E-03     74.4955E-03
             378     9.39167E-03     66.1795E-03    -26.9917E+06    -89.6129E+06     3.20852E+06     550.123E+03    -54.0299E-03     106.924E-03    -52.8941E-03     80.0552E-03    -54.2943E-03     106.765E-03    -52.7090E-03     79.4693E-03
             379     10.2457E-03     66.2616E-03    -24.5374E+06    -75.1265E+06     4.07379E+06     379.831E+03    -54.0855E-03     106.943E-03    -52.8577E-03     84.1338E-03    -54.4390E-03     106.931E-03    -52.6928E-03     83.4478E-03
             380     11.0997E-03     66.3472E-03    -22.3030E+06    -54.9807E+06     4.30507E+06     331.409E+03    -54.0390E-03     106.847E-03    -52.8084E-03     87.3284E-03    -54.5104E-03     107.032E-03    -52.6749E-03     86.5376E-03
             381     11.9536E-03     66.4355E-03    -20.3025E+06    -27.0560E+06     6.60675E+06     300.304E+03    -53.9981E-03     106.755E-03    -52.7564E-03     91.2366E-03    -54.6412E-03     107.210E-03    -52.6547E-03     90.3312E-03
             382     12.8080E-03     66.5288E-03    -19.1995E+06     10.6197E+06     5.95396E+06     473.577E+03    -53.9055E-03     106.581E-03    -52.6750E-03     95.9178E-03    -54.7979E-03     107.425E-03    -52.6328E-03     94.8881E-03
             383     13.6618E-03     66.6260E-03    -17.1108E+06     74.8043E+06     20.1004E+06     846.846E+03    -53.4732E-03     106.094E-03    -52.6210E-03     97.5556E-03    -54.6534E-03     107.421E-03    -52.6041E-03     96.4728E-03
             384     14.5168E-03     66.7226E-03    -13.4185E+06     119.834E+06     48.9882E+06     630.249E+03    -52.6557E-03     105.313E-03    -52.6576E-03     85.7161E-03    -53.9178E-03     106.811E-03    -52.5669E-03     84.7116E-03
             385     15.3713E-03     66.7958E-03    -8.86556E+06     129.252E+06     76.1221E+06     317.043E+03    -51.9394E-03     104.673E-03    -52.7333E-03     70.3206E-03    -53.1704E-03     106.110E-03    -52.5272E-03     69.4303E-03
             386     16.2254E-03     66.8611E-03    -4.54392E+06     129.259E+06     88.4559E+06    -227.429E+03    -51.8293E-03     104.588E-03    -52.7584E-03     35.6332E-03    -52.6855E-03     105.630E-03    -52.4969E-03     35.0058E-03
             387     853.532E-06     66.7556E-03    -63.9841E+06    -173.159E+06    -62.6692E+06     152.344E+03    -52.8933E-03     105.761E-03    -52.8677E-03     9.67277E-03    -52.8727E-03     105.080E-03    -52.8371E-03     9.64141E-03
             388     1.70748E-03     66.7689E-03    -61.8235E+06    -173.654E+06    -55.9125E+06     1.04949E+03    -52.9027E-03     105.795E-03    -52.8926E-03     17.5790E-03    -52.8837E-03     105.103E-03    -52.8307E-03     17.5156E-03
             389     2.56111E-03     66.7907E-03    -58.2911E+06    -169.977E+06    -46.7973E+06     455.647E+03    -52.9954E-03     105.910E-03    -52.9144E-03     25.8722E-03    -52.9831E-03     105.223E-03    -52.8174E-03     25.7808E-03
             390     3.41474E-03     66.8207E-03    -54.4165E+06    -160.132E+06    -37.4346E+06     918.165E+03    -53.0689E-03     105.999E-03    -52.9303E-03     33.9634E-03    -53.0740E-03     105.351E-03    -52.8064E-03     33.8397E-03
             391     4.26868E-03     66.8586E-03    -50.3152E+06    -150.636E+06    -28.2644E+06     801.732E+03    -53.2020E-03     106.146E-03    -52.9440E-03     41.7982E-03    -53.2264E-03     105.539E-03    -52.7940E-03     41.6290E-03
             392     5.12228E-03     66.9043E-03    -45.8889E+06    -142.471E+06    -19.1542E+06     659.606E+03    -53.3234E-03     106.282E-03    -52.9585E-03     49.3042E-03    -53.3679E-03     105.713E-03    -52.7812E-03     49.0836E-03
             393     5.97624E-03     66.9572E-03    -41.4862E+06    -135.411E+06    -10.6282E+06     606.924E+03    -53.4656E-03     106.435E-03    -52.9691E-03     56.4026E-03    -53.5338E-03     105.906E-03    -52.7657E-03     56.1245E-03
             394     6.83003E-03     67.0169E-03    -37.2652E+06    -126.426E+06    -4.54761E+06     488.775E+03    -53.6446E-03     106.610E-03    -52.9656E-03     63.0933E-03    -53.7437E-03     106.141E-03    -52.7510E-03     62.7494E-03
             395     7.68387E-03     67.0832E-03    -33.4137E+06    -115.191E+06    -478.635E+03     517.537E+03    -53.7756E-03     106.725E-03    -52.9493E-03     69.2851E-03    -53.9166E-03     106.340E-03    -52.7362E-03     68.8694E-03
             396     8.53784E-03     67.1553E-03    -30.1094E+06    -103.894E+06     1.70635E+06     517.308E+03    -53.9111E-03     106.834E-03    -52.9229E-03     74.9513E-03    -54.1049E-03     106.547E-03    -52.7201E-03     74.4547E-03
             397     9.39180E-03     67.2327E-03    -27.2347E+06    -89.8367E+06     3.03547E+06     442.860E+03    -54.0379E-03     106.927E-03    -52.8895E-03     80.0256E-03    -54.3031E-03     106.768E-03    -52.7046E-03     79.4381E-03
             398     10.2456E-03     67.3150E-03    -24.5842E+06    -74.7465E+06     4.27998E+06     434.112E+03    -54.1007E-03     106.956E-03    -52.8554E-03     84.0561E-03    -54.4551E-03     106.945E-03    -52.6900E-03     83.3705E-03
             399     11.0996E-03     67.4002E-03    -22.4388E+06    -55.0213E+06     4.41798E+06     345.389E+03    -54.0590E-03     106.867E-03    -52.8084E-03     87.2199E-03    -54.5314E-03     107.052E-03    -52.6740E-03     86.4281E-03
             400     11.9539E-03     67.4888E-03    -20.7300E+06    -27.4795E+06     6.26727E+06     540.911E+03    -54.0031E-03     106.760E-03    -52.7566E-03     91.1247E-03    -54.6473E-03     107.215E-03    -52.6553E-03     90.2215E-03
             401     12.8078E-03     67.5817E-03    -18.7644E+06     10.8842E+06     6.58112E+06     892.230E+03    -53.8859E-03     106.564E-03    -52.6780E-03     95.5988E-03    -54.7772E-03     107.408E-03    -52.6336E-03     94.5733E-03
             402     13.6623E-03     67.6794E-03    -16.7480E+06     74.8923E+06     20.5972E+06     400.812E+03    -53.5204E-03     106.146E-03    -52.6256E-03     97.1222E-03    -54.7000E-03     107.472E-03    -52.6069E-03     96.0296E-03
             403     14.5164E-03     67.7750E-03    -13.5112E+06     120.002E+06     48.7209E+06    -75.3121E+03    -52.6762E-03     105.339E-03    -52.6625E-03     84.8784E-03    -53.9365E-03     106.836E-03    -52.5733E-03     83.8613E-03
             404     15.3711E-03     67.8491E-03    -8.50120E+06     129.919E+06     76.4098E+06    -498.376E+03    -52.0040E-03     104.748E-03    -52.7439E-03     68.9529E-03    -53.2310E-03     106.184E-03    -52.5379E-03     68.0470E-03
             405     16.2268E-03     67.9131E-03    -4.81583E+06     129.451E+06     88.5016E+06     173.026E+03    -52.0032E-03     104.780E-03    -52.7771E-03     34.9287E-03    -52.8595E-03     105.822E-03    -52.5153E-03     34.3028E-03
             406     853.792E-06     67.8089E-03    -64.2527E+06    -173.096E+06    -62.7638E+06    -83.6472E+03    -52.8955E-03     105.732E-03    -52.8360E-03     9.66297E-03    -52.8763E-03     105.052E-03    -52.8057E-03     9.62859E-03
             407     1.70732E-03     67.8221E-03    -61.7928E+06    -173.640E+06    -55.8979E+06     38.5943E+03    -52.9343E-03     105.822E-03    -52.8878E-03     17.5880E-03    -52.9152E-03     105.129E-03    -52.8259E-03     17.5251E-03
             408     2.56105E-03     67.8441E-03    -58.5015E+06    -170.795E+06    -46.6815E+06       420.1E+03    -52.9897E-03     105.909E-03    -52.9194E-03     25.8273E-03    -52.9775E-03     105.218E-03    -52.8203E-03     25.7354E-03
             409     3.41493E-03     67.8738E-03    -54.3875E+06    -160.779E+06    -37.4959E+06     951.241E+03    -53.0746E-03     106.007E-03    -52.9328E-03     33.9587E-03    -53.0785E-03     105.356E-03    -52.8083E-03     33.8353E-03
             410     4.26849E-03     67.9121E-03    -50.1035E+06    -150.358E+06    -28.1990E+06     1.06384E+06    -53.1823E-03     106.126E-03    -52.9438E-03     41.8091E-03    -53.2060E-03     105.520E-03    -52.7941E-03     41.6436E-03
             411     5.12244E-03     67.9575E-03    -45.9518E+06    -142.445E+06    -19.2221E+06     767.431E+03    -53.2972E-03     106.252E-03    -52.9545E-03     49.2764E-03    -53.3419E-03     105.683E-03    -52.7775E-03     49.0572E-03
             412     5.97623E-03     68.0104E-03    -41.6644E+06    -135.545E+06    -10.8297E+06     673.423E+03    -53.4730E-03     106.437E-03    -52.9639E-03     56.4269E-03    -53.5416E-03     105.908E-03    -52.7611E-03     56.1498E-03
             413     6.83005E-03     68.0703E-03    -37.5077E+06    -126.134E+06    -4.41140E+06     588.685E+03    -53.6438E-03     106.606E-03    -52.9626E-03     63.0867E-03    -53.7448E-03     106.139E-03    -52.7474E-03     62.7441E-03
             414     7.68391E-03     68.1364E-03    -33.7041E+06    -115.355E+06    -590.452E+03     554.368E+03    -53.7859E-03     106.733E-03    -52.9470E-03     69.2583E-03    -53.9280E-03     106.348E-03    -52.7338E-03     68.8429E-03
             415     8.53785E-03     68.2085E-03    -30.2804E+06    -103.658E+06     1.60675E+06     588.772E+03    -53.9324E-03     106.854E-03    -52.9220E-03     74.9017E-03    -54.1274E-03     106.569E-03    -52.7198E-03     74.4056E-03
             416     9.39167E-03     68.2861E-03    -27.4044E+06     -89.838E+06     2.90960E+06     496.113E+03    -54.0346E-03     106.925E-03    -52.8901E-03     79.9356E-03    -54.3004E-03     106.766E-03    -52.7055E-03     79.3484E-03
             417     10.2457E-03     68.3681E-03    -24.9652E+06    -74.7316E+06     3.90419E+06     455.189E+03    -54.0993E-03     106.954E-03    -52.8550E-03     84.0370E-03    -54.4550E-03     106.945E-03    -52.6909E-03     83.3518E-03
             418     11.0997E-03     68.4537E-03    -22.7983E+06    -54.8591E+06     4.29045E+06     520.559E+03    -54.1095E-03     106.921E-03    -52.8111E-03     87.1238E-03    -54.5846E-03     107.108E-03    -52.6770E-03     86.3323E-03
             419     11.9535E-03     68.5417E-03    -20.7745E+06    -27.5485E+06     6.06984E+06     620.631E+03    -54.0620E-03     106.825E-03    -52.7628E-03     91.0576E-03    -54.7059E-03     107.280E-03    -52.6624E-03     90.1545E-03
             420     12.8076E-03     68.6354E-03    -18.8703E+06     11.0214E+06     6.64378E+06     384.957E+03    -53.9328E-03     106.621E-03    -52.6887E-03     95.5063E-03    -54.8253E-03     107.467E-03    -52.6441E-03     94.4728E-03
             421     13.6617E-03     68.7318E-03    -16.2051E+06     75.1156E+06     20.7487E+06     134.342E+03    -53.6177E-03     106.257E-03    -52.6395E-03     97.2351E-03    -54.7963E-03     107.585E-03    -52.6212E-03     96.1369E-03
             422     14.5158E-03     68.8294E-03    -12.8634E+06     120.917E+06     49.7150E+06    -322.645E+03    -52.9543E-03     105.643E-03    -52.6890E-03     85.0310E-03    -54.2149E-03     107.143E-03    -52.5971E-03     84.0052E-03
             423     15.3701E-03     68.9008E-03    -9.85024E+06     128.990E+06     76.1357E+06     82.5260E+03    -52.1916E-03     104.972E-03    -52.7806E-03     69.6106E-03    -53.4250E-03     106.408E-03    -52.5727E-03     68.7109E-03
             424     16.2221E-03     68.9689E-03    -4.79256E+06     128.968E+06     88.1478E+06     642.263E+03    -51.3574E-03     104.154E-03    -52.7962E-03     36.0177E-03    -52.2132E-03     105.195E-03    -52.5355E-03     35.4066E-03
             425     853.648E-06     68.8619E-03    -64.5732E+06    -173.015E+06    -62.7679E+06     72.8421E+03    -52.9216E-03     105.739E-03    -52.8173E-03     9.56728E-03    -52.9041E-03     105.060E-03    -52.7866E-03     9.53458E-03
             426     1.70741E-03     68.8756E-03    -62.3425E+06    -173.759E+06    -56.0519E+06     111.796E+03    -52.9321E-03     105.824E-03    -52.8916E-03     17.5922E-03    -52.9154E-03     105.131E-03    -52.8295E-03     17.5304E-03
             427     2.56109E-03     68.8972E-03    -58.7831E+06    -171.592E+06    -46.6190E+06     472.167E+03    -52.9948E-03     105.919E-03    -52.9244E-03     25.8349E-03    -52.9829E-03     105.225E-03    -52.8234E-03     25.7436E-03
             428     3.41470E-03     68.9272E-03    -54.6385E+06    -161.543E+06    -37.8211E+06     921.940E+03    -53.0735E-03     106.009E-03    -52.9355E-03     33.9853E-03    -53.0771E-03     105.355E-03    -52.8112E-03     33.8616E-03
             429     4.26864E-03     68.9653E-03    -50.3380E+06    -150.435E+06    -28.8485E+06     1.08792E+06    -53.1527E-03     106.093E-03    -52.9405E-03     41.7744E-03    -53.1765E-03     105.488E-03    -52.7936E-03     41.6095E-03
             430     5.12240E-03     69.0107E-03    -45.9782E+06    -142.378E+06    -19.2800E+06     964.846E+03    -53.3029E-03     106.254E-03    -52.9516E-03     49.2664E-03    -53.3479E-03     105.687E-03    -52.7748E-03     49.0497E-03
             431     5.97622E-03     69.0638E-03    -41.6419E+06    -135.345E+06    -10.8717E+06     708.190E+03    -53.4739E-03     106.436E-03    -52.9617E-03     56.4162E-03    -53.5427E-03     105.908E-03    -52.7594E-03     56.1395E-03
             432     6.83008E-03     69.1235E-03    -37.4527E+06    -126.183E+06    -4.56052E+06     779.844E+03    -53.6334E-03     106.593E-03    -52.9599E-03     63.0623E-03    -53.7338E-03     106.126E-03    -52.7454E-03     62.7222E-03
             433     7.68399E-03     69.1898E-03    -33.7055E+06    -115.099E+06    -523.180E+03     682.176E+03    -53.8142E-03     106.760E-03    -52.9462E-03     69.2261E-03    -53.9568E-03     106.376E-03    -52.7330E-03     68.8120E-03
             434     8.53772E-03     69.2619E-03    -30.3592E+06    -103.835E+06     1.35757E+06     583.679E+03    -53.9528E-03     106.876E-03    -52.9230E-03     74.9004E-03    -54.1477E-03     106.590E-03    -52.7216E-03     74.4038E-03
             435     9.39173E-03     69.3393E-03    -27.4288E+06    -89.6927E+06     2.78845E+06     666.990E+03    -54.0402E-03     106.932E-03    -52.8922E-03     79.9321E-03    -54.3059E-03     106.774E-03    -52.7084E-03     79.3474E-03
             436     10.2456E-03     69.4213E-03    -24.9244E+06    -74.6471E+06     3.81760E+06     581.117E+03    -54.0899E-03     106.947E-03    -52.8568E-03     84.0435E-03    -54.4453E-03     106.938E-03    -52.6934E-03     83.3603E-03
             437     11.0996E-03     69.5071E-03    -22.7295E+06    -54.7587E+06     4.11147E+06     460.829E+03    -54.1118E-03     106.923E-03    -52.8117E-03     87.2551E-03    -54.5860E-03     107.111E-03    -52.6787E-03     86.4639E-03
             438     11.9535E-03     69.5952E-03    -20.5678E+06    -27.2409E+06     6.07509E+06     446.360E+03    -54.0690E-03     106.833E-03    -52.7635E-03     91.1803E-03    -54.7122E-03     107.288E-03    -52.6638E-03     90.2758E-03
             439     12.8077E-03     69.6883E-03    -18.4264E+06     11.1658E+06     6.33624E+06     73.3204E+03    -53.9726E-03     106.661E-03    -52.6883E-03     95.7994E-03    -54.8624E-03     107.507E-03    -52.6461E-03     94.7625E-03
             440     13.6617E-03     69.7856E-03    -16.4043E+06     75.6485E+06     21.0619E+06    -435.538E+03    -53.6239E-03     106.267E-03    -52.6429E-03     97.5629E-03    -54.8051E-03     107.597E-03    -52.6235E-03     96.4585E-03
             441     14.5164E-03     69.8820E-03    -13.9137E+06     120.160E+06     49.3421E+06     484.636E+03    -52.8421E-03     105.530E-03    -52.6877E-03     85.8045E-03    -54.1081E-03     107.030E-03    -52.5951E-03     84.7944E-03
             442     15.3697E-03     69.9559E-03    -10.1540E+06     128.553E+06     75.2234E+06     1.11643E+06    -51.9404E-03     104.704E-03    -52.7637E-03     70.2513E-03    -53.1743E-03     106.140E-03    -52.5592E-03     69.3712E-03
             443     16.2278E-03     70.0192E-03    -4.35849E+06     129.632E+06     88.4752E+06     99.2216E+03    -51.3949E-03     104.172E-03    -52.7770E-03     35.8558E-03    -52.2506E-03     105.216E-03    -52.5162E-03     35.2367E-03
             444     853.695E-06     69.9154E-03    -64.6472E+06    -173.155E+06    -63.1662E+06     190.679E+03    -52.8810E-03     105.763E-03    -52.8824E-03     9.60933E-03    -52.8630E-03     105.084E-03    -52.8534E-03     9.57810E-03
             445     1.70732E-03     69.9288E-03    -62.4663E+06    -174.042E+06    -55.8554E+06     335.870E+03    -52.9013E-03     105.799E-03    -52.8974E-03     17.5649E-03    -52.8851E-03     105.105E-03    -52.8337E-03     17.5059E-03
             446     2.56108E-03     69.9505E-03    -58.8513E+06    -172.263E+06    -46.0137E+06     579.702E+03    -52.9926E-03     105.917E-03    -52.9243E-03     25.8872E-03    -52.9810E-03     105.218E-03    -52.8193E-03     25.7974E-03
             447     3.41487E-03     69.9806E-03    -54.4424E+06    -161.995E+06    -37.2552E+06     815.442E+03    -53.0780E-03     106.014E-03    -52.9357E-03     33.9813E-03    -53.0808E-03     105.356E-03    -52.8082E-03     33.8563E-03
             448     4.26855E-03     70.0184E-03    -50.0865E+06    -150.649E+06    -28.6254E+06     1.05478E+06    -53.1657E-03     106.106E-03    -52.9407E-03     41.7523E-03    -53.1884E-03     105.499E-03    -52.7928E-03     41.5866E-03
             449     5.12241E-03     70.0641E-03    -45.6663E+06    -142.177E+06    -18.9926E+06     988.355E+03    -53.3126E-03     106.266E-03    -52.9533E-03     49.2903E-03    -53.3566E-03     105.698E-03    -52.7759E-03     49.0740E-03
             450     5.97622E-03     70.1170E-03    -41.2978E+06    -135.125E+06    -10.7580E+06     826.115E+03    -53.4757E-03     106.439E-03    -52.9631E-03     56.3769E-03    -53.5433E-03     105.911E-03    -52.7611E-03     56.1016E-03
             451     6.83009E-03     70.1769E-03    -37.0914E+06    -126.423E+06    -4.85426E+06     771.836E+03    -53.6420E-03     106.602E-03    -52.9602E-03     63.0469E-03    -53.7399E-03     106.134E-03    -52.7474E-03     62.7066E-03
             452     7.68384E-03     70.2431E-03    -33.2205E+06    -115.109E+06    -547.832E+03     877.167E+03    -53.7977E-03     106.744E-03    -52.9465E-03     69.2440E-03    -53.9377E-03     106.359E-03    -52.7341E-03     68.8329E-03
             453     8.53785E-03     70.3152E-03    -30.0042E+06    -103.668E+06     1.62555E+06     763.164E+03    -53.9382E-03     106.861E-03    -52.9227E-03     74.9062E-03    -54.1317E-03     106.575E-03    -52.7207E-03     74.4125E-03
             454     9.39165E-03     70.3926E-03    -27.0822E+06    -89.7801E+06     2.88195E+06     691.452E+03    -54.0485E-03     106.939E-03    -52.8909E-03     79.9814E-03    -54.3125E-03     106.780E-03    -52.7070E-03     79.3972E-03
             455     10.2456E-03     70.4747E-03    -24.5027E+06    -74.4988E+06     4.13421E+06     675.381E+03    -54.0901E-03     106.946E-03    -52.8564E-03     84.0884E-03    -54.4438E-03     106.937E-03    -52.6922E-03     83.4069E-03
             456     11.0997E-03     70.5601E-03    -22.3266E+06    -54.5383E+06     4.44616E+06     483.455E+03    -54.0436E-03     106.852E-03    -52.8084E-03     87.3357E-03    -54.5158E-03     107.038E-03    -52.6747E-03     86.5470E-03
             457     11.9538E-03     70.6487E-03    -20.2968E+06    -27.0662E+06     6.33997E+06     195.802E+03    -54.0354E-03     106.792E-03    -52.7565E-03     91.2351E-03    -54.6777E-03     107.248E-03    -52.6561E-03     90.3279E-03
             458     12.8077E-03     70.7413E-03    -18.5260E+06     11.6118E+06     6.67171E+06    -87.2048E+03    -53.9685E-03     106.649E-03    -52.6808E-03     95.8420E-03    -54.8599E-03     107.497E-03    -52.6374E-03     94.8028E-03
             459     13.6620E-03     70.8392E-03    -17.1469E+06     75.3949E+06     20.6963E+06     456.105E+03    -53.5515E-03     106.184E-03    -52.6321E-03     97.5595E-03    -54.7347E-03     107.514E-03    -52.6131E-03     96.4685E-03
             460     14.5158E-03     70.9350E-03    -14.8132E+06     119.339E+06     48.0871E+06     785.654E+03    -52.5975E-03     105.263E-03    -52.6653E-03     85.5778E-03    -53.8633E-03     106.760E-03    -52.5764E-03     84.5769E-03
             461     15.3722E-03     71.0085E-03    -9.30560E+06     129.665E+06     75.6697E+06     106.348E+03    -51.9278E-03     104.667E-03    -52.7390E-03     69.6201E-03    -53.1576E-03     106.104E-03    -52.5351E-03     68.7251E-03
             462     16.2231E-03     71.0728E-03    -4.02074E+06     130.475E+06     89.0389E+06    -109.014E+03    -51.8463E-03     104.614E-03    -52.7675E-03     35.4534E-03    -52.7018E-03     105.660E-03    -52.5056E-03     34.8230E-03
             463     853.605E-06     70.9687E-03    -64.7352E+06    -173.328E+06    -63.3160E+06     22.6072E+03    -52.8833E-03     105.745E-03    -52.8614E-03     9.60227E-03    -52.8654E-03     105.065E-03    -52.8328E-03     9.56893E-03
             464     1.70741E-03     70.9821E-03    -62.3233E+06    -174.695E+06    -55.8867E+06     505.687E+03    -52.9137E-03     105.807E-03    -52.8928E-03     17.5773E-03    -52.8958E-03     105.109E-03    -52.8285E-03     17.5204E-03
             465     2.56112E-03     71.0038E-03    -58.5367E+06    -172.439E+06    -45.5451E+06     712.731E+03    -52.9975E-03     105.923E-03    -52.9260E-03     25.8692E-03    -52.9847E-03     105.223E-03    -52.8188E-03     25.7812E-03
             466     3.41479E-03     71.0339E-03    -54.2313E+06    -162.385E+06    -36.5640E+06     670.015E+03    -53.0700E-03     106.009E-03    -52.9389E-03     33.9165E-03    -53.0722E-03     105.348E-03    -52.8076E-03     33.7895E-03
             467     4.26862E-03     71.0717E-03    -49.6723E+06    -151.222E+06    -28.1804E+06     921.670E+03    -53.1850E-03     106.128E-03    -52.9434E-03     41.7539E-03    -53.2054E-03     105.517E-03    -52.7930E-03     41.5863E-03
             468     5.12238E-03     71.1174E-03    -45.3367E+06    -142.093E+06    -18.9334E+06     1.08650E+06    -53.3173E-03     106.272E-03    -52.9550E-03     49.2910E-03    -53.3600E-03     105.705E-03    -52.7779E-03     49.0760E-03
             469     5.97621E-03     71.1704E-03    -41.0581E+06    -135.076E+06    -10.5472E+06     912.727E+03    -53.4792E-03     106.445E-03    -52.9658E-03     56.4062E-03    -53.5458E-03     105.917E-03    -52.7631E-03     56.1323E-03
             470     6.82998E-03     71.2301E-03    -36.9597E+06    -126.360E+06    -4.95944E+06     780.273E+03    -53.6365E-03     106.597E-03    -52.9609E-03     63.0727E-03    -53.7336E-03     106.129E-03    -52.7489E-03     62.7328E-03
             471     7.68399E-03     71.2964E-03    -33.1529E+06    -115.382E+06    -717.156E+03     831.157E+03    -53.7676E-03     106.713E-03    -52.9452E-03     69.2629E-03    -53.9065E-03     106.326E-03    -52.7334E-03     68.8515E-03
             472     8.53778E-03     71.3685E-03    -29.5956E+06    -103.367E+06     1.81318E+06     912.283E+03    -53.9163E-03     106.835E-03    -52.9191E-03     74.9300E-03    -54.1083E-03     106.550E-03    -52.7172E-03     74.4388E-03
             473     9.39179E-03     71.4459E-03    -26.7252E+06    -89.6880E+06     3.11334E+06     676.129E+03    -54.0285E-03     106.915E-03    -52.8861E-03     79.9860E-03    -54.2911E-03     106.755E-03    -52.7017E-03     79.4020E-03
             474     10.2457E-03     71.5279E-03    -24.2822E+06    -74.6484E+06     4.05785E+06     738.824E+03    -54.0731E-03     106.922E-03    -52.8493E-03     84.1017E-03    -54.4252E-03     106.912E-03    -52.6856E-03     83.4216E-03
             475     11.0996E-03     71.6135E-03    -22.1037E+06    -54.1651E+06     4.67946E+06     613.758E+03    -54.0342E-03     106.836E-03    -52.8016E-03     87.2988E-03    -54.5061E-03     107.023E-03    -52.6676E-03     86.5116E-03
             476     11.9538E-03     71.7015E-03    -20.3621E+06    -26.7314E+06     6.56136E+06     402.929E+03    -54.0307E-03     106.781E-03    -52.7501E-03     91.2682E-03    -54.6741E-03     107.238E-03    -52.6490E-03     90.3639E-03
             477     12.8079E-03     71.7952E-03    -19.3705E+06     11.5124E+06     6.63921E+06     659.198E+03    -53.9052E-03     106.579E-03    -52.6735E-03     95.6985E-03    -54.7999E-03     107.426E-03    -52.6289E-03     94.6704E-03
             478     13.6619E-03     71.8917E-03    -17.7188E+06     74.8113E+06     19.5879E+06     781.507E+03    -53.4755E-03     106.092E-03    -52.6164E-03     97.4772E-03    -54.6575E-03     107.420E-03    -52.6012E-03     96.3929E-03
             479     14.5171E-03     71.9886E-03    -13.6790E+06     120.705E+06     48.6268E+06     28.1315E+03    -52.7905E-03     105.447E-03    -52.6567E-03     85.2840E-03    -54.0525E-03     106.948E-03    -52.5687E-03     84.2681E-03
             480     15.3698E-03     72.0608E-03    -9.71352E+06     129.882E+06     76.3005E+06    -281.266E+03    -52.1440E-03     104.891E-03    -52.7470E-03     69.4182E-03    -53.3761E-03     106.328E-03    -52.5398E-03     68.5137E-03
             481     16.2276E-03     72.1273E-03    -4.75685E+06     129.680E+06     88.3011E+06     118.565E+03    -51.5623E-03     104.331E-03    -52.7691E-03     35.4035E-03    -52.4171E-03     105.374E-03    -52.5087E-03     34.7808E-03
             482     853.756E-06     72.0220E-03    -63.9461E+06    -173.693E+06    -62.0656E+06     139.538E+03    -52.8752E-03     105.723E-03    -52.8480E-03     9.52580E-03    -52.8546E-03     105.039E-03    -52.8138E-03     9.49390E-03
             483     1.70739E-03     72.0353E-03    -61.5764E+06    -175.453E+06    -55.0607E+06     630.434E+03    -52.9612E-03     105.855E-03    -52.8938E-03     17.5831E-03    -52.9396E-03     105.152E-03    -52.8255E-03     17.5278E-03
             484     2.56100E-03     72.0572E-03    -57.9710E+06    -172.498E+06    -45.7354E+06     727.945E+03    -53.0035E-03     105.936E-03    -52.9322E-03     25.8247E-03    -52.9875E-03     105.234E-03    -52.8267E-03     25.7367E-03
             485     3.41483E-03     72.0871E-03    -53.8586E+06    -162.671E+06    -36.3941E+06     817.273E+03    -53.0576E-03     106.002E-03    -52.9443E-03     33.9196E-03    -53.0577E-03     105.339E-03    -52.8123E-03     33.7946E-03
             486     4.26858E-03     72.1251E-03    -49.7495E+06    -151.680E+06    -28.2008E+06      840.79E+03    -53.1792E-03     106.125E-03    -52.9456E-03     41.7683E-03    -53.1993E-03     105.512E-03    -52.7945E-03     41.5999E-03
             487     5.12236E-03     72.1707E-03    -45.3534E+06    -142.408E+06    -19.5488E+06     1.05036E+06    -53.3197E-03     106.273E-03    -52.9532E-03     49.2931E-03    -53.3610E-03     105.704E-03    -52.7787E-03     49.0777E-03
             488     5.97622E-03     72.2236E-03    -41.0090E+06    -135.002E+06    -10.6045E+06     1.02570E+06    -53.4604E-03     106.425E-03    -52.9647E-03     56.4280E-03    -53.5268E-03     105.897E-03    -52.7625E-03     56.1559E-03
             489     6.83011E-03     72.2835E-03    -36.9094E+06    -126.323E+06    -4.50995E+06     853.398E+03    -53.6162E-03     106.576E-03    -52.9600E-03     63.0877E-03    -53.7137E-03     106.107E-03    -52.7459E-03     62.7489E-03
             490     7.68387E-03     72.3495E-03    -33.0819E+06    -115.245E+06    -684.933E+03     808.548E+03    -53.7710E-03     106.712E-03    -52.9413E-03     69.2695E-03    -53.9100E-03     106.327E-03    -52.7296E-03     68.8577E-03
             491     8.53793E-03     72.4218E-03    -29.7158E+06    -103.561E+06     1.54801E+06     769.591E+03    -53.8987E-03     106.813E-03    -52.9142E-03     74.9216E-03    -54.0905E-03     106.527E-03    -52.7132E-03     74.4289E-03
             492     9.39178E-03     72.4991E-03    -26.7981E+06    -89.4397E+06     3.07151E+06     860.236E+03    -53.9871E-03     106.867E-03    -52.8794E-03     79.9536E-03    -54.2502E-03     106.708E-03    -52.6955E-03     79.3726E-03
             493     10.2458E-03     72.5812E-03    -24.2751E+06    -74.6855E+06     4.02386E+06     702.669E+03    -54.0362E-03     106.876E-03    -52.8403E-03     84.1026E-03    -54.3880E-03     106.865E-03    -52.6767E-03     83.4224E-03
             494     11.0999E-03     72.6665E-03    -22.1568E+06    -54.0500E+06      4.4544E+06     806.569E+03    -54.0676E-03     106.860E-03    -52.7919E-03     87.3273E-03    -54.5399E-03     107.048E-03    -52.6591E-03     86.5420E-03
             495     11.9538E-03     72.7550E-03    -20.3712E+06    -26.4335E+06     6.72706E+06     754.130E+03    -54.0194E-03     106.763E-03    -52.7433E-03     91.3186E-03    -54.6636E-03     107.221E-03    -52.6418E-03     90.4190E-03
             496     12.8078E-03     72.8481E-03    -18.1400E+06     10.7360E+06     6.41689E+06     1.08482E+06    -53.8865E-03     106.550E-03    -52.6638E-03     95.6456E-03    -54.7721E-03     107.391E-03    -52.6210E-03     94.6250E-03
             497     13.6625E-03     72.9448E-03    -15.9611E+06     75.8917E+06     21.1037E+06     800.799E+03    -53.5331E-03     106.147E-03    -52.6134E-03     97.2908E-03    -54.7092E-03     107.474E-03    -52.5948E-03     96.2052E-03
             498     14.5160E-03     73.0416E-03    -13.8215E+06     121.229E+06     49.7180E+06     96.6186E+03    -52.9202E-03     105.581E-03    -52.6609E-03     85.5900E-03    -54.1862E-03     107.084E-03    -52.5681E-03     84.5727E-03
             499     15.3715E-03     73.1150E-03    -9.98102E+06     129.554E+06     75.5195E+06     378.211E+03    -52.1127E-03     104.858E-03    -52.7458E-03     69.5860E-03    -53.3454E-03     106.297E-03    -52.5416E-03     68.6908E-03
             500     16.2225E-03     73.1792E-03    -4.65989E+06     130.125E+06     88.3204E+06    -175.359E+03    -51.5127E-03     104.281E-03    -52.7681E-03     35.2854E-03    -52.3689E-03     105.326E-03    -52.5084E-03     34.6593E-03
             501     853.720E-06     73.0751E-03    -63.8861E+06    -174.463E+06    -61.8929E+06     430.853E+03    -52.8903E-03     105.755E-03    -52.8649E-03     9.59710E-03    -52.8685E-03     105.067E-03    -52.8287E-03     9.56902E-03
             502     1.70732E-03     73.0889E-03    -61.3783E+06    -176.175E+06    -55.0342E+06     773.908E+03    -52.9537E-03     105.858E-03    -52.9043E-03     17.5884E-03    -52.9301E-03     105.151E-03    -52.8350E-03     17.5352E-03
             503     2.56108E-03     73.1104E-03    -58.0051E+06    -172.656E+06    -46.1792E+06     811.565E+03    -52.9937E-03     105.927E-03    -52.9328E-03     25.8219E-03    -52.9770E-03     105.225E-03    -52.8293E-03     25.7352E-03
             504     3.41479E-03     73.1404E-03    -53.8990E+06    -163.093E+06    -36.9758E+06     863.451E+03    -53.0647E-03     106.008E-03    -52.9431E-03     33.9300E-03    -53.0635E-03     105.343E-03    -52.8133E-03     33.8057E-03
             505     4.26857E-03     73.1783E-03    -49.6331E+06    -151.785E+06    -28.3208E+06     1.01582E+06    -53.1718E-03     106.117E-03    -52.9456E-03     41.7899E-03    -53.1909E-03     105.504E-03    -52.7951E-03     41.6239E-03
             506     5.12242E-03     73.2239E-03    -45.4801E+06    -142.446E+06    -19.7407E+06     940.384E+03    -53.3095E-03     106.261E-03    -52.9514E-03     49.2973E-03    -53.3512E-03     105.693E-03    -52.7776E-03     49.0806E-03
             507     5.97618E-03     73.2770E-03    -41.1306E+06    -135.177E+06    -10.9916E+06     1.05382E+06    -53.4455E-03     106.406E-03    -52.9606E-03     56.4078E-03    -53.5116E-03     105.878E-03    -52.7599E-03     56.1361E-03
             508     6.83008E-03     73.3366E-03    -36.9319E+06    -126.117E+06    -4.48048E+06     910.424E+03    -53.6021E-03     106.558E-03    -52.9558E-03     63.0864E-03    -53.7000E-03     106.090E-03    -52.7418E-03     62.7486E-03
             509     7.68408E-03     73.4030E-03    -33.1440E+06    -115.379E+06    -810.244E+03     784.579E+03    -53.7662E-03     106.702E-03    -52.9362E-03     69.2514E-03    -53.9050E-03     106.316E-03    -52.7249E-03     68.8394E-03
             510     8.53781E-03     73.4748E-03    -29.8877E+06    -103.576E+06     1.43460E+06     873.128E+03    -53.8813E-03     106.790E-03    -52.9087E-03     74.9073E-03    -54.0738E-03     106.504E-03    -52.7080E-03     74.4160E-03
             511     9.39190E-03     73.5525E-03    -27.0307E+06    -89.5577E+06     2.95753E+06     822.645E+03    -53.9612E-03     106.834E-03    -52.8728E-03     79.9377E-03    -54.2249E-03     106.675E-03    -52.6889E-03     79.3568E-03
             512     10.2459E-03     73.6342E-03    -24.5320E+06    -74.4124E+06     4.13697E+06     859.578E+03    -54.0414E-03     106.876E-03    -52.8341E-03     84.0463E-03    -54.3952E-03     106.866E-03    -52.6700E-03     83.3678E-03
             513     11.0998E-03     73.7199E-03    -22.4029E+06    -54.3563E+06     4.42714E+06     823.119E+03    -54.0652E-03     106.852E-03    -52.7867E-03     87.2981E-03    -54.5381E-03     107.040E-03    -52.6533E-03     86.5130E-03
             514     11.9540E-03     73.8081E-03    -20.4048E+06    -26.6197E+06     6.60624E+06     948.446E+03    -53.9927E-03     106.730E-03    -52.7370E-03     91.1159E-03    -54.6363E-03     107.187E-03    -52.6358E-03     90.2186E-03
             515     12.8084E-03     73.9012E-03    -18.7147E+06     11.4315E+06     6.88655E+06     445.862E+03    -53.9680E-03     106.631E-03    -52.6626E-03     95.6087E-03    -54.8578E-03     107.475E-03    -52.6176E-03     94.5781E-03
             516     13.6618E-03     73.9984E-03    -16.3548E+06     75.7484E+06     20.5853E+06     731.193E+03    -53.6850E-03     106.301E-03    -52.6164E-03     97.0330E-03    -54.8644E-03     107.632E-03    -52.5996E-03     95.9405E-03
             517     14.5171E-03     74.0944E-03    -13.3711E+06     121.380E+06     49.0074E+06     1.20843E+06    -52.7149E-03     105.375E-03    -52.6605E-03     85.4287E-03    -53.9793E-03     106.881E-03    -52.5721E-03     84.4280E-03
             518     15.3700E-03     74.1690E-03    -8.92586E+06     130.967E+06     76.5439E+06    -245.144E+03    -52.2281E-03     104.977E-03    -52.7489E-03     69.3176E-03    -53.4594E-03     106.419E-03    -52.5431E-03     68.4114E-03
             519     16.2285E-03     74.2311E-03    -5.03012E+06     130.531E+06     88.2323E+06    -414.026E+03    -52.0323E-03     104.819E-03    -52.7863E-03     34.2866E-03    -52.8919E-03     105.868E-03    -52.5271E-03     33.6457E-03
             520     853.608E-06     74.1287E-03    -64.1416E+06    -175.377E+06    -62.8528E+06     317.977E+03    -52.9173E-03     105.784E-03    -52.8663E-03     9.66362E-03    -52.8941E-03     105.092E-03    -52.8332E-03     9.63420E-03
             521     1.70737E-03     74.1419E-03    -61.9306E+06    -177.000E+06    -55.7632E+06     779.789E+03    -52.9168E-03     105.824E-03    -52.9073E-03     17.5802E-03    -52.8937E-03     105.115E-03    -52.8397E-03     17.5271E-03
             522     2.56108E-03     74.1638E-03    -58.2033E+06    -172.666E+06    -46.4254E+06     755.281E+03    -52.9904E-03     105.917E-03    -52.9267E-03     25.8288E-03    -52.9743E-03     105.216E-03    -52.8241E-03     25.7414E-03
             523     3.41479E-03     74.1937E-03    -54.0139E+06    -163.533E+06    -37.1767E+06     746.102E+03    -53.0722E-03     106.012E-03    -52.9394E-03     33.9231E-03    -53.0707E-03     105.346E-03    -52.8099E-03     33.7971E-03
             524     4.26862E-03     74.2316E-03    -49.7839E+06    -152.259E+06    -28.6660E+06     1.00468E+06    -53.1746E-03     106.118E-03    -52.9430E-03     41.8078E-03    -53.1933E-03     105.502E-03    -52.7934E-03     41.6418E-03
             525     5.12234E-03     74.2773E-03    -45.5437E+06    -142.323E+06    -19.8093E+06     1.11716E+06    -53.2950E-03     106.244E-03    -52.9486E-03     49.2822E-03    -53.3370E-03     105.676E-03    -52.7753E-03     49.0678E-03
             526     5.97630E-03     74.3300E-03    -41.2734E+06    -135.311E+06    -11.1584E+06     923.766E+03    -53.4381E-03     106.395E-03    -52.9567E-03     56.3950E-03    -53.5046E-03     105.867E-03    -52.7564E-03     56.1215E-03
             527     6.83012E-03     74.3901E-03    -37.0708E+06    -126.221E+06    -4.82118E+06     941.159E+03    -53.6029E-03     106.554E-03    -52.9509E-03     63.1006E-03    -53.7008E-03     106.086E-03    -52.7383E-03     62.7634E-03
             528     7.68394E-03     74.4560E-03    -33.3427E+06    -115.202E+06    -776.569E+03     894.462E+03    -53.7386E-03     106.671E-03    -52.9320E-03     69.2282E-03    -53.8786E-03     106.286E-03    -52.7205E-03     68.8180E-03
             529     8.53804E-03     74.5283E-03    -29.9807E+06    -103.631E+06     1.33138E+06     889.287E+03    -53.8532E-03     106.755E-03    -52.9018E-03     74.8632E-03    -54.0459E-03     106.470E-03    -52.7014E-03     74.3722E-03
             530     9.39194E-03     74.6053E-03    -27.0870E+06    -89.5533E+06     2.92793E+06     914.842E+03    -53.9910E-03     106.858E-03    -52.8668E-03     79.9259E-03    -54.2550E-03     106.699E-03    -52.6831E-03     79.3457E-03
             531     10.2459E-03     74.6876E-03    -24.6628E+06      -74.58E+06     3.89690E+06     934.526E+03    -54.0809E-03     106.912E-03    -52.8310E-03     84.0195E-03    -54.4348E-03     106.902E-03    -52.6676E-03     83.3414E-03
             532     11.0999E-03     74.7729E-03    -22.5757E+06    -54.2497E+06     4.35115E+06     1.02917E+06    -54.0627E-03     106.849E-03    -52.7859E-03     87.2469E-03    -54.5365E-03     107.037E-03    -52.6527E-03     86.4642E-03
             533     11.9540E-03     74.8614E-03    -20.7393E+06    -26.8368E+06     6.29495E+06     963.199E+03    -54.0461E-03     106.784E-03    -52.7379E-03     90.9891E-03    -54.6903E-03     107.241E-03    -52.6374E-03     90.0912E-03
             534     12.8077E-03     74.9542E-03    -19.4521E+06     12.1054E+06     6.69627E+06     1.10536E+06    -53.9081E-03     106.572E-03    -52.6635E-03     95.6438E-03    -54.8025E-03     107.420E-03    -52.6193E-03     94.6230E-03
             535     13.6623E-03     75.0521E-03    -18.1832E+06     75.8686E+06     19.5936E+06     332.563E+03    -53.7242E-03     106.338E-03    -52.6142E-03     97.6058E-03    -54.9115E-03     107.674E-03    -52.5998E-03     96.5107E-03
             536     14.5151E-03     75.1475E-03    -13.7200E+06     121.583E+06     48.5058E+06    -484.482E+03    -52.9540E-03     105.620E-03    -52.6662E-03     85.0474E-03    -54.2206E-03     107.129E-03    -52.5800E-03     84.0185E-03
             537     15.3723E-03     75.2208E-03    -8.67371E+06     131.562E+06     77.2191E+06     533.641E+03    -52.2513E-03     105.017E-03    -52.7657E-03     69.9652E-03    -53.4817E-03     106.460E-03    -52.5578E-03     69.0746E-03
             538     16.2199E-03     75.2885E-03    -4.77456E+06     130.133E+06     88.4954E+06     415.352E+03    -51.3737E-03     104.157E-03    -52.7834E-03     34.9295E-03    -52.2284E-03     105.200E-03    -52.5227E-03     34.3110E-03
             539     853.684E-06     75.1818E-03    -64.3328E+06    -176.246E+06    -62.0678E+06     195.799E+03    -52.9092E-03     105.762E-03    -52.8524E-03     9.63606E-03    -52.8868E-03     105.065E-03    -52.8139E-03     9.60504E-03
             540     1.70737E-03     75.1953E-03    -61.5203E+06    -177.776E+06    -55.2661E+06     679.557E+03    -52.9301E-03     105.832E-03    -52.9019E-03     17.5897E-03    -52.9046E-03     105.117E-03    -52.8312E-03     17.5354E-03
             541     2.56107E-03     75.2171E-03    -58.0826E+06    -172.479E+06    -46.5613E+06     619.473E+03    -52.9801E-03     105.901E-03    -52.9210E-03     25.8166E-03    -52.9635E-03     105.201E-03    -52.8195E-03     25.7274E-03
             542     3.41487E-03     75.2469E-03    -53.9949E+06    -164.050E+06    -36.7804E+06     677.767E+03    -53.0734E-03     106.011E-03    -52.9372E-03     33.9352E-03    -53.0716E-03     105.341E-03    -52.8050E-03     33.8083E-03
             543     4.26855E-03     75.2849E-03    -49.6802E+06    -152.731E+06    -28.1530E+06     1.09129E+06    -53.1745E-03     106.117E-03    -52.9423E-03     41.7904E-03    -53.1927E-03     105.498E-03    -52.7896E-03     41.6254E-03
             544     5.12248E-03     75.3305E-03    -45.3943E+06    -142.333E+06    -19.8190E+06     1.08967E+06    -53.2832E-03     106.227E-03    -52.9442E-03     49.2846E-03    -53.3244E-03     105.660E-03    -52.7711E-03     49.0701E-03
             545     5.97621E-03     75.3834E-03    -41.1033E+06    -135.386E+06    -11.2797E+06     940.172E+03    -53.4446E-03     106.396E-03    -52.9517E-03     56.3996E-03    -53.5100E-03     105.868E-03    -52.7522E-03     56.1260E-03
             546     6.83015E-03     75.4431E-03    -36.9628E+06    -126.310E+06    -4.91436E+06     935.656E+03    -53.5885E-03     106.535E-03    -52.9463E-03     63.0907E-03    -53.6855E-03     106.066E-03    -52.7341E-03     62.7535E-03
             547     7.68412E-03     75.5095E-03    -33.0979E+06    -115.077E+06    -713.128E+03     1.00144E+06    -53.7118E-03     106.638E-03    -52.9258E-03     69.2162E-03    -53.8507E-03     106.252E-03    -52.7145E-03     68.8078E-03
             548     8.53795E-03     75.5812E-03     -29.803E+06    -103.719E+06     1.32989E+06     904.697E+03    -53.8707E-03     106.766E-03    -52.8956E-03     74.8591E-03    -54.0625E-03     106.480E-03    -52.6953E-03     74.3682E-03
             549     9.39202E-03     75.6588E-03    -26.8965E+06    -89.6278E+06     2.83974E+06     1.02065E+06    -54.0074E-03     106.870E-03    -52.8621E-03     79.9430E-03    -54.2703E-03     106.710E-03    -52.6789E-03     79.3641E-03
             550     10.2459E-03     75.7407E-03    -24.3481E+06    -74.5965E+06     3.97679E+06     1.00345E+06    -54.0915E-03     106.920E-03    -52.8280E-03     84.0748E-03    -54.4439E-03     106.909E-03    -52.6647E-03     83.3978E-03
             551     11.0999E-03     75.8262E-03    -21.9794E+06    -54.3280E+06     4.38097E+06     1.00451E+06    -54.1066E-03     106.891E-03    -52.7843E-03     87.2953E-03    -54.5777E-03     107.078E-03    -52.6518E-03     86.5119E-03
             552     11.9538E-03     75.9146E-03    -19.8192E+06    -26.9130E+06     6.43794E+06     1.10832E+06    -53.9755E-03     106.711E-03    -52.7350E-03     91.1407E-03    -54.6143E-03     107.165E-03    -52.6350E-03     90.2479E-03
             553     12.8081E-03     76.0077E-03    -17.6522E+06     11.5933E+06     6.44764E+06     1.37243E+06    -53.8804E-03     106.534E-03    -52.6537E-03     95.8637E-03    -54.7652E-03     107.379E-03    -52.6126E-03     94.8481E-03
             554     13.6623E-03     76.1043E-03    -15.1886E+06     77.8367E+06     22.2585E+06     987.421E+03    -53.4954E-03     106.100E-03    -52.6046E-03     97.8983E-03    -54.6699E-03     107.432E-03    -52.5842E-03     96.8206E-03
             555     14.5175E-03     76.2030E-03    -14.4306E+06     121.835E+06     50.3011E+06     460.403E+03    -53.1631E-03     105.821E-03    -52.6579E-03     86.2157E-03    -54.4350E-03     107.328E-03    -52.5621E-03     85.2016E-03
             556     15.3679E-03     76.2730E-03    -11.2109E+06     128.734E+06     74.2377E+06     926.166E+03    -51.7783E-03     104.511E-03    -52.7331E-03     70.2978E-03    -53.0117E-03     105.947E-03    -52.5323E-03     69.4223E-03
             557     16.2306E-03     76.3414E-03    -3.68811E+06     130.983E+06     88.5904E+06    -332.570E+03    -51.0349E-03     103.770E-03    -52.7352E-03     34.8723E-03    -51.8796E-03     104.810E-03    -52.4768E-03     34.2603E-03
             558     853.737E-06     76.2351E-03    -64.7262E+06    -176.867E+06    -62.4590E+06     399.986E+03    -52.9122E-03     105.735E-03    -52.8223E-03     9.60503E-03    -52.8903E-03     105.036E-03    -52.7843E-03     9.57669E-03
             559     1.70736E-03     76.2487E-03    -61.9783E+06    -178.422E+06    -55.5317E+06     495.914E+03    -52.9308E-03     105.823E-03    -52.8921E-03     17.5795E-03    -52.9063E-03     105.106E-03    -52.8212E-03     17.5227E-03
             560     2.56111E-03     76.2703E-03    -58.2081E+06    -172.421E+06    -46.7705E+06     563.691E+03    -52.9821E-03     105.896E-03    -52.9143E-03     25.8149E-03    -52.9659E-03     105.197E-03    -52.8137E-03     25.7249E-03
             561     3.41482E-03     76.3002E-03    -54.1109E+06    -164.568E+06    -36.3258E+06     689.348E+03    -53.0666E-03     106.002E-03    -52.9358E-03     33.9501E-03    -53.0653E-03     105.330E-03    -52.8003E-03     33.8236E-03
             562     4.26865E-03     76.3382E-03    -49.6146E+06    -153.245E+06    -27.6258E+06     1.01089E+06    -53.1560E-03     106.095E-03    -52.9395E-03     41.7659E-03    -53.1739E-03     105.473E-03    -52.7835E-03     41.6000E-03
             563     5.12240E-03     76.3837E-03    -45.1541E+06    -142.204E+06    -19.7661E+06     1.02637E+06    -53.2820E-03     106.219E-03    -52.9370E-03     49.3016E-03    -53.3223E-03     105.651E-03    -52.7642E-03     49.0862E-03
             564     5.97638E-03     76.4367E-03    -40.9071E+06    -135.327E+06    -11.3089E+06     935.467E+03    -53.4466E-03     106.392E-03    -52.9451E-03     56.4260E-03    -53.5110E-03     105.863E-03    -52.7461E-03     56.1527E-03
             565     6.83013E-03     76.4964E-03    -36.8345E+06    -126.228E+06    -4.89685E+06     1.05244E+06    -53.5672E-03     106.507E-03    -52.9395E-03     63.0502E-03    -53.6638E-03     106.039E-03    -52.7276E-03     62.7145E-03
             566     7.68410E-03     76.5625E-03    -33.0574E+06    -115.315E+06    -815.829E+03     931.495E+03    -53.7087E-03     106.627E-03    -52.9183E-03     69.2208E-03    -53.8468E-03     106.241E-03    -52.7072E-03     68.8117E-03
             567     8.53817E-03     76.6346E-03    -29.6399E+06    -103.784E+06     1.36703E+06     918.985E+03    -53.9016E-03     106.792E-03    -52.8903E-03     74.8875E-03    -54.0926E-03     106.505E-03    -52.6900E-03     74.3965E-03
             568     9.39192E-03     76.7119E-03    -26.6310E+06    -89.7718E+06     3.03746E+06     898.105E+03    -54.0028E-03     106.862E-03    -52.8593E-03     79.9093E-03    -54.2644E-03     106.702E-03    -52.6753E-03     79.3287E-03
             569     10.2461E-03     76.7939E-03    -23.9524E+06    -74.6235E+06     4.27476E+06     994.823E+03    -54.0862E-03     106.911E-03    -52.8251E-03     84.1180E-03    -54.4371E-03     106.900E-03    -52.6608E-03     83.4410E-03
             570     11.0999E-03     76.8797E-03    -21.7971E+06    -54.3252E+06     4.68639E+06     901.129E+03    -54.0550E-03     106.835E-03    -52.7797E-03     87.3080E-03    -54.5252E-03     107.021E-03    -52.6458E-03     86.5246E-03
             571     11.9540E-03     76.9677E-03     -19.709E+06    -27.0666E+06     6.73477E+06     807.442E+03    -53.9870E-03     106.717E-03    -52.7298E-03     90.9728E-03    -54.6259E-03     107.170E-03    -52.6283E-03     90.0745E-03
             572     12.8086E-03     77.0602E-03    -17.5202E+06     11.5687E+06     7.17975E+06     615.485E+03    -53.9259E-03     106.579E-03    -52.6535E-03     95.6139E-03    -54.8114E-03     107.423E-03    -52.6090E-03     94.5851E-03
             573     13.6620E-03     77.1590E-03    -15.9879E+06     76.8263E+06     21.5158E+06     1.67528E+06    -53.4597E-03     106.062E-03    -52.6024E-03     97.0849E-03    -54.6357E-03     107.392E-03    -52.5830E-03     96.0122E-03
             574     14.5172E-03     77.2526E-03    -13.1479E+06     122.161E+06     48.8352E+06     2.93832E+06    -52.1720E-03     104.791E-03    -52.6190E-03     86.0042E-03    -53.4249E-03     106.289E-03    -52.5329E-03     85.0460E-03
             575     15.3735E-03     77.3325E-03    -8.59445E+06     131.187E+06     75.4529E+06    -592.113E+03    -51.4764E-03     104.144E-03    -52.6680E-03     69.5224E-03    -52.6978E-03     105.582E-03    -52.4685E-03     68.6306E-03
             576     16.2236E-03     77.3834E-03    -4.69675E+06     131.484E+06     88.6847E+06    -1.40244E+06    -52.6101E-03     105.320E-03    -52.7099E-03     36.1699E-03    -53.4734E-03     106.376E-03    -52.4504E-03     35.5113E-03
             577     853.656E-06     77.2885E-03    -65.0707E+06    -177.370E+06    -63.1310E+06     222.362E+03    -52.8922E-03     105.723E-03    -52.8312E-03     9.62880E-03    -52.8703E-03     105.024E-03    -52.7953E-03     9.59826E-03
             578     1.70741E-03     77.3018E-03    -62.3135E+06    -178.702E+06    -55.8546E+06     406.886E+03    -52.9096E-03     105.793E-03    -52.8837E-03     17.5731E-03    -52.8858E-03     105.076E-03    -52.8135E-03     17.5152E-03
             579     2.56113E-03     77.3236E-03    -58.7953E+06    -172.644E+06    -46.9580E+06     448.158E+03    -52.9874E-03     105.894E-03    -52.9063E-03     25.8398E-03    -52.9736E-03     105.194E-03    -52.8055E-03     25.7484E-03
             580     3.41486E-03     77.3535E-03    -54.4464E+06    -165.009E+06    -36.4953E+06     688.482E+03    -53.0538E-03     105.983E-03    -52.9297E-03     33.9290E-03    -53.0532E-03     105.310E-03    -52.7940E-03     33.8026E-03
             581     4.26865E-03     77.3914E-03    -49.9454E+06    -153.683E+06    -27.8301E+06     796.299E+03    -53.1418E-03     106.074E-03    -52.9320E-03     41.7609E-03    -53.1604E-03     105.450E-03    -52.7759E-03     41.5923E-03
             582     5.12256E-03     77.4369E-03    -45.4646E+06    -142.369E+06    -20.1486E+06     839.833E+03    -53.2863E-03     106.215E-03    -52.9287E-03     49.2969E-03    -53.3273E-03     105.648E-03    -52.7571E-03     49.0791E-03
             583     5.97628E-03     77.4899E-03    -41.1152E+06    -135.374E+06    -11.4212E+06     949.839E+03    -53.4181E-03     106.356E-03    -52.9374E-03     56.4017E-03    -53.4832E-03     105.827E-03    -52.7386E-03     56.1290E-03
             584     6.83028E-03     77.5496E-03    -36.9274E+06    -126.222E+06    -4.91091E+06     951.779E+03    -53.5690E-03     106.500E-03    -52.9314E-03     63.0192E-03    -53.6660E-03     106.032E-03    -52.7194E-03     62.6822E-03
             585     7.68424E-03     77.6156E-03    -33.0364E+06    -115.206E+06    -719.910E+03     924.590E+03    -53.7584E-03     106.673E-03    -52.9142E-03     69.2063E-03    -53.8970E-03     106.287E-03    -52.7029E-03     68.7963E-03
             586     8.53799E-03     77.6879E-03    -29.6142E+06    -103.810E+06     1.45990E+06     817.238E+03    -53.8978E-03     106.787E-03    -52.8894E-03     74.8227E-03    -54.0886E-03     106.500E-03    -52.6887E-03     74.3303E-03
             587     9.39214E-03     77.7651E-03    -26.7142E+06    -89.9374E+06     3.00071E+06     867.993E+03    -54.0221E-03     106.881E-03    -52.8592E-03     79.8302E-03    -54.2841E-03     106.721E-03    -52.6751E-03     79.2481E-03
             588     10.2459E-03     77.8471E-03    -24.2671E+06    -74.7563E+06     4.06440E+06     923.144E+03    -54.0944E-03     106.920E-03    -52.8260E-03     84.0407E-03    -54.4467E-03     106.909E-03    -52.6621E-03     83.3618E-03
             589     11.1000E-03     77.9329E-03    -22.1731E+06    -54.2930E+06     4.58949E+06     1.05179E+06    -54.0566E-03     106.839E-03    -52.7822E-03     86.9660E-03    -54.5283E-03     107.026E-03    -52.6483E-03     86.1832E-03
             590     11.9543E-03     78.0205E-03    -20.5011E+06    -26.6365E+06     6.63416E+06     817.651E+03    -54.1159E-03     106.854E-03    -52.7378E-03     90.7976E-03    -54.7605E-03     107.312E-03    -52.6363E-03     89.8949E-03
             591     12.8072E-03     78.1145E-03    -19.7378E+06     11.0894E+06     6.33906E+06     1.10336E+06    -54.0341E-03     106.704E-03    -52.6701E-03     95.2223E-03    -54.9301E-03     107.551E-03    -52.6259E-03     94.1943E-03
             592     13.6628E-03     78.2100E-03    -17.7429E+06     75.5439E+06     19.3249E+06     1.41144E+06    -53.4328E-03     106.049E-03    -52.6159E-03     96.7583E-03    -54.6117E-03     107.377E-03    -52.6031E-03     95.6821E-03
             593     14.5154E-03     78.3089E-03    -11.9568E+06     123.406E+06     48.9777E+06    -393.830E+03    -51.8611E-03     104.489E-03    -52.6280E-03     83.9942E-03    -53.1019E-03     105.984E-03    -52.5447E-03     82.9972E-03
             594     15.3736E-03     78.3752E-03    -6.38189E+06     134.155E+06     79.0283E+06    -466.796E+03    -51.6143E-03     104.302E-03    -52.6874E-03     68.6833E-03    -52.8267E-03     105.739E-03    -52.4775E-03     67.7929E-03
             595     16.2289E-03     78.4515E-03    -5.41999E+06     131.431E+06     88.8221E+06     1.28003E+06    -52.9495E-03     105.682E-03    -52.7328E-03     36.8652E-03    -53.8146E-03     106.737E-03    -52.4714E-03     36.2401E-03
             596     853.708E-06     78.3416E-03    -65.5165E+06    -177.628E+06    -63.3000E+06     86.7240E+03    -52.8666E-03     105.704E-03    -52.8376E-03     9.62254E-03    -52.8463E-03     105.004E-03    -52.8015E-03     9.59033E-03
             597     1.70743E-03     78.3551E-03    -62.7037E+06    -179.060E+06    -56.2913E+06     262.739E+03    -52.9101E-03     105.786E-03    -52.8758E-03     17.5791E-03    -52.8871E-03     105.068E-03    -52.8067E-03     17.5194E-03
             598     2.56113E-03     78.3768E-03    -59.0830E+06    -172.881E+06    -47.2738E+06     515.582E+03    -52.9678E-03     105.866E-03    -52.8986E-03     25.8373E-03    -52.9546E-03     105.167E-03    -52.7986E-03     25.7469E-03
             599     3.41489E-03     78.4068E-03    -54.8852E+06    -165.396E+06    -36.7683E+06     556.318E+03    -53.0471E-03     105.968E-03    -52.9212E-03     33.9053E-03    -53.0479E-03     105.294E-03    -52.7856E-03     33.7770E-03
             600     4.26872E-03     78.4445E-03    -50.2152E+06    -153.885E+06    -28.1061E+06     655.040E+03    -53.1576E-03     106.083E-03    -52.9256E-03     41.7455E-03    -53.1769E-03     105.459E-03    -52.7702E-03     41.5748E-03
             601     5.12246E-03     78.4903E-03    -45.8444E+06    -142.380E+06    -20.2347E+06     670.767E+03    -53.2727E-03     106.198E-03    -52.9248E-03     49.2683E-03    -53.3155E-03     105.631E-03    -52.7530E-03     49.0484E-03
             602     5.97643E-03     78.5430E-03    -41.4649E+06    -135.563E+06    -11.6295E+06     804.089E+03    -53.4172E-03     106.350E-03    -52.9330E-03     56.3285E-03    -53.4835E-03     105.822E-03    -52.7345E-03     56.0536E-03
             603     6.83033E-03     78.6027E-03    -37.1652E+06    -126.333E+06    -5.16597E+06     813.887E+03    -53.6049E-03     106.534E-03    -52.9295E-03     62.9581E-03    -53.7027E-03     106.067E-03    -52.7183E-03     62.6186E-03
             604     7.68408E-03     78.6690E-03    -33.3068E+06    -115.288E+06    -1.05322E+06     752.911E+03    -53.7801E-03     106.696E-03    -52.9157E-03     69.1439E-03    -53.9196E-03     106.311E-03    -52.7055E-03     68.7310E-03
             605     8.53811E-03     78.7410E-03    -29.9175E+06    -103.865E+06     1.08455E+06     859.799E+03    -53.9260E-03     106.819E-03    -52.8933E-03     74.7457E-03    -54.1180E-03     106.533E-03    -52.6939E-03     74.2528E-03
             606     9.39190E-03     78.8183E-03    -27.0162E+06    -89.9838E+06     2.60969E+06     893.126E+03    -54.0733E-03     106.940E-03    -52.8665E-03     79.7674E-03    -54.3367E-03     106.780E-03    -52.6838E-03     79.1840E-03
             607     10.2459E-03     78.9005E-03    -24.5944E+06    -74.8435E+06     3.59211E+06     991.872E+03    -54.1448E-03     106.982E-03    -52.8371E-03     83.8208E-03    -54.4981E-03     106.972E-03    -52.6750E-03     83.1411E-03
             608     11.0998E-03     78.9858E-03    -22.3511E+06    -54.4863E+06     4.13230E+06     1.02959E+06    -54.1399E-03     106.938E-03    -52.7980E-03     86.8947E-03    -54.6124E-03     107.126E-03    -52.6659E-03     86.1092E-03
             609     11.9532E-03     79.0743E-03    -20.6030E+06    -26.6238E+06     6.23337E+06     1.53249E+06    -54.1667E-03     106.924E-03    -52.7571E-03     90.8575E-03    -54.8118E-03     107.383E-03    -52.6575E-03     89.9628E-03
             610     12.8085E-03     79.1671E-03    -18.4178E+06     10.9862E+06     6.31794E+06     1.39723E+06    -54.0735E-03     106.764E-03    -52.6907E-03     95.2215E-03    -54.9635E-03     107.610E-03    -52.6484E-03     94.1963E-03
             611     13.6602E-03     79.2649E-03    -14.8540E+06     77.2605E+06     21.7886E+06    -411.418E+03    -53.3250E-03     105.966E-03    -52.6408E-03     96.3336E-03    -54.4904E-03     107.290E-03    -52.6223E-03     95.2387E-03
             612     14.5183E-03     79.3582E-03    -12.1358E+06     124.880E+06     51.9223E+06    -1.22324E+06    -52.9793E-03     105.668E-03    -52.6889E-03     83.7889E-03    -54.2389E-03     107.177E-03    -52.5928E-03     82.7506E-03
             613     15.3682E-03     79.4330E-03    -10.2268E+06     131.441E+06     76.8680E+06     816.674E+03    -52.6237E-03     105.416E-03    -52.7927E-03     68.2559E-03    -53.8576E-03     106.858E-03    -52.5841E-03     67.3492E-03
             614     16.2232E-03     79.4976E-03    -5.86925E+06     130.906E+06     87.6450E+06     2.05678E+06    -51.5681E-03     104.391E-03    -52.8226E-03     35.8889E-03    -52.4261E-03     105.438E-03    -52.5657E-03     35.2907E-03
             615     853.738E-06     79.3950E-03    -65.7711E+06    -177.827E+06    -63.5270E+06     262.120E+03    -52.8757E-03     105.699E-03    -52.8234E-03     9.62188E-03    -52.8561E-03     104.999E-03    -52.7878E-03     9.59203E-03
             616     1.70738E-03     79.4083E-03    -63.1180E+06    -179.335E+06    -56.5238E+06     187.106E+03    -52.9156E-03     105.791E-03    -52.8754E-03     17.5662E-03    -52.8939E-03     105.073E-03    -52.8065E-03     17.5054E-03
             617     2.56115E-03     79.4301E-03    -59.3706E+06    -173.240E+06    -47.7292E+06     355.662E+03    -52.9531E-03     105.850E-03    -52.8967E-03     25.7916E-03    -52.9401E-03     105.149E-03    -52.7981E-03     25.6991E-03
             618     3.41495E-03     79.4599E-03    -55.0600E+06    -165.565E+06    -37.0500E+06     538.669E+03    -53.0469E-03     105.965E-03    -52.9178E-03     33.8790E-03    -53.0479E-03     105.290E-03    -52.7832E-03     33.7504E-03
             619     4.26866E-03     79.4979E-03    -50.6225E+06    -153.961E+06    -28.1758E+06     528.975E+03    -53.1664E-03     106.092E-03    -52.9251E-03     41.7214E-03    -53.1875E-03     105.468E-03    -52.7694E-03     41.5490E-03
             620     5.12255E-03     79.5433E-03    -46.1181E+06    -142.430E+06    -20.3218E+06     590.822E+03    -53.2848E-03     106.211E-03    -52.9263E-03     49.1956E-03    -53.3288E-03     105.645E-03    -52.7546E-03     48.9743E-03
             621     5.97639E-03     79.5963E-03    -41.7723E+06    -135.667E+06    -11.8495E+06     626.769E+03    -53.4537E-03     106.391E-03    -52.9376E-03     56.2727E-03    -53.5212E-03     105.863E-03    -52.7396E-03     55.9950E-03
             622     6.83012E-03     79.6560E-03    -37.5858E+06    -126.575E+06    -5.70795E+06     710.078E+03    -53.6332E-03     106.570E-03    -52.9367E-03     62.9352E-03    -53.7321E-03     106.103E-03    -52.7272E-03     62.5939E-03
             623     7.68415E-03     79.7222E-03     -33.748E+06    -115.293E+06    -1.61400E+06     718.235E+03    -53.7864E-03     106.710E-03    -52.9237E-03     69.0829E-03    -53.9273E-03     106.327E-03    -52.7157E-03     68.6691E-03
             624     8.53791E-03     79.7943E-03    -30.3836E+06    -104.027E+06     508.521E+03     706.687E+03    -53.9807E-03     106.884E-03    -52.9038E-03     74.7171E-03    -54.1743E-03     106.599E-03    -52.7064E-03     74.2211E-03
             625     9.39182E-03     79.8717E-03    -27.3528E+06    -90.0596E+06     2.06768E+06     779.397E+03    -54.1217E-03     107.002E-03    -52.8806E-03     79.7326E-03    -54.3860E-03     106.844E-03    -52.7001E-03     79.1470E-03
             626     10.2455E-03     79.9538E-03    -24.5164E+06    -74.9571E+06     3.27147E+06     835.310E+03    -54.1580E-03     107.011E-03    -52.8531E-03     83.8537E-03    -54.5103E-03     107.001E-03    -52.6925E-03     83.1720E-03
             627     11.0994E-03     80.0393E-03    -22.3108E+06    -54.7026E+06     3.74676E+06     1.03011E+06    -54.1651E-03     106.979E-03    -52.8136E-03     87.0556E-03    -54.6367E-03     107.166E-03    -52.6832E-03     86.2701E-03
             628     11.9540E-03     80.1274E-03    -19.8001E+06    -27.3016E+06     5.97261E+06     1.12765E+06    -54.1772E-03     106.949E-03    -52.7721E-03     91.1003E-03    -54.8179E-03     107.405E-03    -52.6739E-03     90.2005E-03
             629     12.8062E-03     80.2213E-03    -17.1451E+06     12.5629E+06     7.02499E+06     407.159E+03    -53.8575E-03     106.555E-03    -52.6979E-03     95.3153E-03    -54.7400E-03     107.401E-03    -52.6561E-03     94.2863E-03
             630     13.6632E-03     80.3167E-03    -16.0526E+06     78.8850E+06     22.4318E+06    -275.996E+03    -53.6714E-03     106.325E-03    -52.6539E-03     96.5097E-03    -54.8489E-03     107.661E-03    -52.6328E-03     95.4083E-03
             631     14.5138E-03     80.4127E-03    -14.7687E+06     123.069E+06     50.0479E+06     1.00178E+06    -53.5846E-03     106.307E-03    -52.7223E-03     85.4632E-03    -54.8674E-03     107.829E-03    -52.6291E-03     84.4360E-03
             632     15.3698E-03     80.4883E-03    -11.1892E+06     130.825E+06     75.0426E+06     1.89131E+06    -52.8828E-03     105.724E-03    -52.8413E-03     70.2060E-03    -54.1315E-03     107.180E-03    -52.6396E-03     69.3056E-03
             633     16.2218E-03     80.5513E-03    -4.81789E+06     131.894E+06     88.3058E+06     851.412E+03    -50.8100E-03     103.671E-03    -52.8607E-03     37.6406E-03    -51.6751E-03     104.731E-03    -52.6034E-03     37.0257E-03
             634     853.683E-06     80.4481E-03    -66.1759E+06    -178.112E+06    -63.9267E+06     235.358E+03    -52.8993E-03     105.723E-03    -52.8234E-03     9.62663E-03    -52.8807E-03     105.022E-03    -52.7888E-03     9.59620E-03
             635     1.70742E-03     80.4617E-03    -63.3069E+06    -179.389E+06    -56.7108E+06     264.273E+03    -52.9126E-03     105.797E-03    -52.8847E-03     17.5359E-03    -52.8916E-03     105.079E-03    -52.8163E-03     17.4761E-03
             636     2.56112E-03     80.4832E-03    -59.7400E+06    -173.396E+06    -47.9311E+06     224.045E+03    -52.9705E-03     105.876E-03    -52.9051E-03     25.7503E-03    -52.9589E-03     105.175E-03    -52.8067E-03     25.6557E-03
             637     3.41485E-03     80.5132E-03    -55.4476E+06    -165.903E+06    -37.5797E+06     370.292E+03    -53.0576E-03     105.984E-03    -52.9268E-03     33.8465E-03    -53.0592E-03     105.309E-03    -52.7938E-03     33.7156E-03
             638     4.26871E-03     80.5511E-03    -50.8928E+06    -154.027E+06    -28.7471E+06     525.562E+03    -53.1660E-03     106.099E-03    -52.9327E-03     41.6474E-03    -53.1875E-03     105.476E-03    -52.7793E-03     41.4748E-03
             639     5.12245E-03     80.5967E-03    -46.4880E+06    -142.463E+06    -20.7610E+06     392.948E+03    -53.3098E-03     106.245E-03    -52.9353E-03     49.1414E-03    -53.3550E-03     105.680E-03    -52.7651E-03     48.9172E-03
             640     5.97623E-03     80.6495E-03    -42.0218E+06    -135.919E+06    -12.2051E+06     521.220E+03    -53.4737E-03     106.423E-03    -52.9491E-03     56.2720E-03    -53.5416E-03     105.894E-03    -52.7521E-03     55.9926E-03
             641     6.83021E-03     80.7094E-03    -37.8129E+06    -126.539E+06    -6.10873E+06     568.724E+03    -53.6420E-03     106.590E-03    -52.9478E-03     62.9385E-03    -53.7415E-03     106.124E-03    -52.7401E-03     62.5952E-03
             642     7.68386E-03     80.7755E-03    -33.9247E+06    -115.338E+06    -2.05209E+06     565.321E+03    -53.8241E-03     106.760E-03    -52.9359E-03     69.0890E-03    -53.9653E-03     106.377E-03    -52.7297E-03     68.6728E-03
             643     8.53783E-03     80.8476E-03    -30.4043E+06    -103.970E+06     252.495E+03     531.545E+03    -53.9808E-03     106.898E-03    -52.9169E-03     74.8103E-03    -54.1741E-03     106.613E-03    -52.7208E-03     74.3126E-03
             644     9.39153E-03     80.9252E-03    -27.3549E+06    -90.2087E+06     1.67411E+06     471.551E+03    -54.0928E-03     106.983E-03    -52.8902E-03     79.8789E-03    -54.3562E-03     106.824E-03    -52.7114E-03     79.2905E-03
             645     10.2456E-03     81.0070E-03    -24.7469E+06    -75.0810E+06     2.83853E+06     618.665E+03    -54.1273E-03     106.986E-03    -52.8588E-03     83.9866E-03    -54.4798E-03     106.976E-03    -52.6999E-03     83.3033E-03
             646     11.0997E-03     81.0926E-03    -22.1278E+06    -54.9154E+06     3.51492E+06     657.807E+03    -54.1324E-03     106.948E-03    -52.8159E-03     87.3687E-03    -54.6028E-03     107.135E-03    -52.6867E-03     86.5798E-03
             647     11.9527E-03     81.1810E-03    -19.9266E+06    -26.9274E+06     5.72369E+06     365.492E+03    -54.0061E-03     106.772E-03    -52.7655E-03     91.4035E-03    -54.6461E-03     107.229E-03    -52.6689E-03     90.4998E-03
             648     12.8088E-03     81.2741E-03    -18.6692E+06     13.0679E+06     6.29587E+06     422.289E+03    -53.8526E-03     106.537E-03    -52.6845E-03     95.3911E-03    -54.7403E-03     107.387E-03    -52.6449E-03     94.3647E-03
             649     13.6606E-03     81.3698E-03    -17.5216E+06     77.9040E+06     20.3397E+06     1.66388E+06    -53.8464E-03     106.487E-03    -52.6403E-03     97.5172E-03    -55.0357E-03     107.831E-03    -52.6262E-03     96.4345E-03
             650     14.5168E-03     81.4685E-03    -15.3720E+06     122.317E+06     48.1189E+06     2.14000E+06    -53.1833E-03     105.882E-03    -52.6992E-03     86.6659E-03    -54.4670E-03     107.406E-03    -52.6136E-03     85.6651E-03
             651     15.3690E-03     81.5402E-03    -10.9094E+06     131.624E+06     74.9480E+06     1.33366E+06    -52.0143E-03     104.802E-03    -52.7873E-03     70.7640E-03    -53.2594E-03     106.258E-03    -52.5876E-03     69.8824E-03
             652     16.2259E-03     81.6062E-03    -4.34574E+06     133.111E+06     88.9502E+06     15.6340E+03    -51.1752E-03     103.973E-03    -52.7974E-03     35.9795E-03    -52.0369E-03     105.033E-03    -52.5393E-03     35.3608E-03
             653     853.677E-06     81.5014E-03    -66.3106E+06    -178.318E+06    -64.2604E+06     33.0770E+03    -52.9078E-03     105.770E-03    -52.8621E-03     9.56048E-03    -52.8891E-03     105.069E-03    -52.8287E-03     9.52713E-03
             654     1.70735E-03     81.5148E-03    -63.6313E+06    -179.612E+06    -57.1792E+06     274.317E+03    -52.9147E-03     105.818E-03    -52.9031E-03     17.5137E-03    -52.8943E-03     105.100E-03    -52.8363E-03     17.4539E-03
             655     2.56109E-03     81.5366E-03    -60.1041E+06    -173.399E+06    -48.2054E+06     309.559E+03    -52.9911E-03     105.912E-03    -52.9209E-03     25.7452E-03    -52.9809E-03     105.213E-03    -52.8234E-03     25.6518E-03
             656     3.41482E-03     81.5664E-03    -55.9078E+06    -166.025E+06    -37.9590E+06     234.894E+03    -53.0823E-03     106.027E-03    -52.9444E-03     33.8317E-03    -53.0855E-03     105.352E-03    -52.8123E-03     33.6989E-03
             657     4.26851E-03     81.6044E-03    -51.2788E+06    -154.164E+06    -29.6426E+06     228.378E+03    -53.1786E-03     106.127E-03    -52.9480E-03     41.6383E-03    -53.2005E-03     105.505E-03    -52.7983E-03     41.4618E-03
             658     5.12237E-03     81.6499E-03    -46.7455E+06    -142.362E+06    -21.2260E+06     309.689E+03    -53.3059E-03     106.256E-03    -52.9499E-03     49.1479E-03    -53.3518E-03     105.692E-03    -52.7819E-03     48.9228E-03
             659     5.97625E-03     81.7029E-03    -42.3159E+06    -135.997E+06    -12.3730E+06     200.176E+03    -53.4747E-03     106.438E-03    -52.9631E-03     56.2763E-03    -53.5437E-03     105.910E-03    -52.7664E-03     55.9928E-03
             660     6.82991E-03     81.7626E-03    -37.8864E+06    -126.587E+06    -6.47904E+06     309.450E+03    -53.6421E-03     106.601E-03    -52.9586E-03     62.9726E-03    -53.7412E-03     106.135E-03    -52.7525E-03     62.6262E-03
             661     7.68396E-03     81.8289E-03    -33.9297E+06    -115.278E+06    -2.38347E+06     269.602E+03    -53.8002E-03     106.744E-03    -52.9436E-03     69.2060E-03    -53.9409E-03     106.362E-03    -52.7392E-03     68.7867E-03
             662     8.53761E-03     81.9009E-03    -30.4321E+06    -104.013E+06    -134.251E+03     249.469E+03    -53.9259E-03     106.845E-03    -52.9192E-03     74.9358E-03    -54.1186E-03     106.561E-03    -52.7249E-03     74.4356E-03
             663     9.39181E-03     81.9783E-03    -27.4447E+06    -90.1376E+06     1.45116E+06     336.793E+03    -54.0176E-03     106.904E-03    -52.8864E-03     80.0377E-03    -54.2808E-03     106.746E-03    -52.7086E-03     79.4496E-03
             664     10.2456E-03     82.0605E-03    -24.8086E+06    -75.2892E+06     2.52977E+06     318.681E+03    -54.0863E-03     106.936E-03    -52.8497E-03     84.1407E-03    -54.4383E-03     106.925E-03    -52.6919E-03     83.4546E-03
             665     11.0994E-03     82.1457E-03    -22.5934E+06    -54.7652E+06     3.15624E+06     294.491E+03    -54.0169E-03     106.818E-03    -52.8007E-03     87.5486E-03    -54.4890E-03     107.006E-03    -52.6728E-03     86.7578E-03
             666     11.9546E-03     82.2345E-03    -20.8433E+06    -26.7413E+06     5.32391E+06     458.356E+03    -53.9037E-03     106.648E-03    -52.7439E-03     91.2928E-03    -54.5459E-03     107.105E-03    -52.6483E-03     90.3934E-03
             667     12.8071E-03     82.3265E-03    -19.5140E+06     11.5990E+06     5.21492E+06     1.20801E+06    -53.9319E-03     106.594E-03    -52.6622E-03     95.6371E-03    -54.8236E-03     107.443E-03    -52.6247E-03     94.6171E-03
             668     13.6629E-03     82.4245E-03    -17.7744E+06     76.7013E+06     19.1701E+06     2.11742E+06    -53.6905E-03     106.305E-03    -52.6145E-03     97.8765E-03    -54.8798E-03     107.648E-03    -52.6041E-03     96.8025E-03
             669     14.5156E-03     82.5201E-03    -14.1313E+06     123.233E+06     47.6318E+06     2.06001E+06    -52.6355E-03     105.288E-03    -52.6522E-03     86.1155E-03    -53.9063E-03     106.808E-03    -52.5722E-03     85.1287E-03
             670     15.3721E-03     82.5951E-03    -9.27909E+06     133.635E+06     76.0345E+06     421.064E+03    -51.7680E-03     104.495E-03    -52.7270E-03     69.8949E-03    -53.0023E-03     105.950E-03    -52.5271E-03     69.0093E-03
             671     16.2254E-03     82.6564E-03    -4.47748E+06     133.788E+06     89.4856E+06    -428.233E+03    -51.8300E-03     104.583E-03    -52.7531E-03     35.3035E-03    -52.6909E-03     105.644E-03    -52.4932E-03     34.6717E-03
             672     853.605E-06     82.5547E-03    -66.7397E+06    -178.551E+06    -64.5397E+06     91.0432E+03    -52.8985E-03     105.795E-03    -52.8966E-03     9.54991E-03    -52.8813E-03     105.094E-03    -52.8636E-03     9.51731E-03
             673     1.70734E-03     82.5681E-03    -64.0654E+06    -179.848E+06    -57.5958E+06     256.806E+03    -52.9443E-03     105.863E-03    -52.9190E-03     17.5373E-03    -52.9250E-03     105.145E-03    -52.8533E-03     17.4774E-03
             674     2.56102E-03     82.5898E-03    -60.4123E+06    -173.462E+06    -48.6035E+06     289.873E+03    -53.0066E-03     105.946E-03    -52.9392E-03     25.7562E-03    -52.9973E-03     105.247E-03    -52.8431E-03     25.6626E-03
             675     3.41472E-03     82.6198E-03    -56.1155E+06    -165.711E+06    -38.1365E+06     165.706E+03    -53.0869E-03     106.048E-03    -52.9610E-03     33.8407E-03    -53.0914E-03     105.375E-03    -52.8300E-03     33.7071E-03
             676     4.26852E-03     82.6576E-03    -51.5195E+06    -153.968E+06    -29.8320E+06    -120.698E+03    -53.1888E-03     106.152E-03    -52.9628E-03     41.6748E-03    -53.2120E-03     105.532E-03    -52.8140E-03     41.4938E-03
             677     5.12228E-03     82.7032E-03    -46.8280E+06    -142.501E+06    -21.6546E+06    -136.413E+03    -53.3072E-03     106.269E-03    -52.9621E-03     49.1843E-03    -53.3526E-03     105.705E-03    -52.7959E-03     48.9536E-03
             678     5.97605E-03     82.7561E-03    -42.2102E+06    -135.811E+06    -12.3968E+06    -44.4549E+03    -53.4546E-03     106.428E-03    -52.9730E-03     56.3404E-03    -53.5232E-03     105.900E-03    -52.7768E-03     56.0543E-03
             679     6.83005E-03     82.8159E-03    -37.8781E+06    -126.730E+06    -6.68498E+06    -133.350E+03    -53.6143E-03     106.578E-03    -52.9636E-03     63.0569E-03    -53.7128E-03     106.111E-03    -52.7584E-03     62.7054E-03
             680     7.68374E-03     82.8821E-03    -33.8779E+06    -115.208E+06    -2.75916E+06     59.6368E+03    -53.7425E-03     106.684E-03    -52.9417E-03     69.2624E-03    -53.8824E-03     106.303E-03    -52.7393E-03     68.8413E-03
             681     8.53797E-03     82.9542E-03    -30.5527E+06    -103.877E+06    -299.031E+03     37.6167E+03    -53.8600E-03     106.772E-03    -52.9121E-03     74.9517E-03    -54.0529E-03     106.489E-03    -52.7187E-03     74.4498E-03
             682     9.39164E-03     83.0315E-03    -27.5122E+06    -90.3127E+06     1.13344E+06     36.4112E+03    -53.9535E-03     106.827E-03    -52.8735E-03     80.0670E-03    -54.2160E-03     106.668E-03    -52.6970E-03     79.4761E-03
             683     10.2459E-03     83.1136E-03    -24.8522E+06    -75.2477E+06     2.34180E+06     106.343E+03    -54.0049E-03     106.837E-03    -52.8318E-03     84.1850E-03    -54.3568E-03     106.826E-03    -52.6750E-03     83.4974E-03
             684     11.1001E-03     83.1990E-03    -22.7552E+06    -54.9154E+06     2.86574E+06     352.625E+03    -54.0003E-03     106.781E-03    -52.7805E-03     87.4004E-03    -54.4722E-03     106.969E-03    -52.6535E-03     86.6106E-03
             685     11.9534E-03     83.2871E-03    -21.0378E+06    -27.3296E+06     4.84895E+06     843.398E+03    -53.9577E-03     106.684E-03    -52.7265E-03     91.1260E-03    -54.5999E-03     107.141E-03    -52.6321E-03     90.2295E-03
             686     12.8090E-03     83.3804E-03    -19.4597E+06     10.3757E+06     4.72364E+06     1.51947E+06    -53.9106E-03     106.559E-03    -52.6479E-03     95.5871E-03    -54.8003E-03     107.402E-03    -52.6111E-03     94.5705E-03
             687     13.6616E-03     83.4769E-03    -17.1584E+06     76.4312E+06     18.9824E+06     1.78017E+06    -53.5466E-03     106.142E-03    -52.5956E-03     97.5551E-03    -54.7285E-03     107.480E-03    -52.5867E-03     96.4811E-03
             688     14.5173E-03     83.5746E-03    -13.5257E+06     124.416E+06     48.3701E+06     828.311E+03    -52.6572E-03     105.292E-03    -52.6344E-03     85.2824E-03    -53.9231E-03     106.811E-03    -52.5534E-03     84.2799E-03
             689     15.3711E-03     83.6452E-03    -8.55737E+06     134.909E+06     77.0330E+06     282.949E+03    -52.0023E-03     104.722E-03    -52.7199E-03     69.0795E-03    -53.2319E-03     106.177E-03    -52.5179E-03     68.1866E-03
             690     16.2261E-03     83.7133E-03    -4.39033E+06     134.153E+06     89.5023E+06     225.985E+03    -52.0332E-03     104.789E-03    -52.7563E-03     34.9089E-03    -52.8909E-03     105.848E-03    -52.4969E-03     34.2833E-03
             691     853.741E-06     83.6081E-03    -67.1650E+06    -178.841E+06    -65.1515E+06     98.3593E+03    -52.9145E-03     105.800E-03    -52.8852E-03     9.57307E-03    -52.8980E-03     105.099E-03    -52.8542E-03     9.54071E-03
             692     1.70730E-03     83.6214E-03    -64.3627E+06    -179.907E+06    -57.8644E+06     105.120E+03    -52.9751E-03     105.902E-03    -52.9274E-03     17.5414E-03    -52.9568E-03     105.185E-03    -52.8625E-03     17.4795E-03
             693     2.56097E-03     83.6433E-03    -60.6008E+06    -173.507E+06    -48.8642E+06     161.317E+03    -53.0113E-03     105.963E-03    -52.9517E-03     25.7813E-03    -53.0025E-03     105.265E-03    -52.8566E-03     25.6862E-03
             694     3.41471E-03     83.6730E-03    -56.1913E+06    -165.261E+06    -38.1338E+06    -40.5677E+03    -53.0814E-03     106.052E-03    -52.9706E-03     33.8730E-03    -53.0869E-03     105.382E-03    -52.8401E-03     33.7370E-03
             695     4.26844E-03     83.7110E-03    -51.4436E+06    -153.300E+06    -29.5967E+06    -525.440E+03    -53.1815E-03     106.151E-03    -52.9697E-03     41.7137E-03    -53.2056E-03     105.534E-03    -52.8208E-03     41.5277E-03
             696     5.12224E-03     83.7565E-03    -46.8659E+06    -142.465E+06    -21.7772E+06    -623.752E+03    -53.2964E-03     106.262E-03    -52.9656E-03     49.2341E-03    -53.3419E-03     105.698E-03    -52.7999E-03     48.9972E-03
             697     5.97616E-03     83.8094E-03    -42.4424E+06    -136.150E+06    -13.0537E+06    -380.061E+03    -53.4326E-03     106.404E-03    -52.9715E-03     56.4032E-03    -53.5009E-03     105.876E-03    -52.7778E-03     56.1132E-03
             698     6.82991E-03     83.8691E-03    -38.2596E+06    -126.443E+06    -7.05731E+06    -311.257E+03    -53.5820E-03     106.541E-03    -52.9592E-03     63.0946E-03    -53.6823E-03     106.077E-03    -52.7557E-03     62.7412E-03
             699     7.68403E-03     83.9354E-03    -34.3745E+06    -115.304E+06    -3.31247E+06    -428.232E+03    -53.7110E-03     106.645E-03    -52.9340E-03     69.2425E-03    -53.8523E-03     106.265E-03    -52.7336E-03     68.8154E-03
             700     8.53772E-03     84.0073E-03    -30.6085E+06    -103.765E+06    -775.631E+03    -314.960E+03    -53.8210E-03     106.722E-03    -52.9011E-03     74.9270E-03    -54.0136E-03     106.440E-03    -52.7101E-03     74.4210E-03
             701     9.39211E-03     84.0847E-03    -27.5743E+06    -90.3180E+06     743.679E+03    -272.037E+03    -53.9148E-03     106.775E-03    -52.8606E-03     79.9806E-03    -54.1770E-03     106.617E-03    -52.6859E-03     79.3859E-03
             702     10.2459E-03     84.1667E-03    -25.0223E+06    -75.4643E+06     1.76658E+06    -20.2192E+03    -53.9938E-03     106.811E-03    -52.8176E-03     84.0679E-03    -54.3451E-03     106.801E-03    -52.6630E-03     83.3788E-03
             703     11.0999E-03     84.2521E-03    -22.7632E+06    -55.2409E+06     2.48034E+06     344.323E+03    -54.0311E-03     106.800E-03    -52.7691E-03     87.2474E-03    -54.5017E-03     106.987E-03    -52.6436E-03     86.4567E-03
             704     11.9546E-03     84.3406E-03    -20.8150E+06    -28.0690E+06     4.47417E+06     959.060E+03    -54.0604E-03     106.782E-03    -52.7213E-03     90.9840E-03    -54.7005E-03     107.235E-03    -52.6280E-03     90.0863E-03
             705     12.8074E-03     84.4330E-03    -18.8681E+06     9.81239E+06     4.69685E+06     1.42096E+06    -53.9541E-03     106.603E-03    -52.6493E-03     95.3548E-03    -54.8401E-03     107.444E-03    -52.6126E-03     94.3350E-03
             706     13.6628E-03     84.5309E-03    -16.5664E+06     76.7534E+06     19.2482E+06     1.04755E+06    -53.5402E-03     106.139E-03    -52.5992E-03     97.1136E-03    -54.7177E-03     107.475E-03    -52.5902E-03     96.0303E-03
             707     14.5165E-03     84.6261E-03    -13.4175E+06     125.729E+06     48.8720E+06     507.343E+03    -52.8778E-03     105.523E-03    -52.6454E-03     84.9628E-03    -54.1449E-03     107.047E-03    -52.5639E-03     83.9498E-03
             708     15.3706E-03     84.7011E-03    -9.69450E+06     134.818E+06     76.6107E+06     239.078E+03    -52.3274E-03     105.073E-03    -52.7454E-03     69.0565E-03    -53.5661E-03     106.534E-03    -52.5438E-03     68.1525E-03
             709     16.2248E-03     84.7632E-03    -4.83139E+06     134.100E+06     89.1312E+06     428.670E+03    -51.7715E-03     104.554E-03    -52.7820E-03     35.1689E-03    -52.6342E-03     105.617E-03    -52.5238E-03     34.5455E-03
             710     853.605E-06     84.6614E-03    -67.6184E+06    -178.688E+06    -65.5275E+06    -198.602E+03    -52.9681E-03     105.830E-03    -52.8619E-03     9.60479E-03    -52.9535E-03     105.131E-03    -52.8324E-03     9.56862E-03
             711     1.70729E-03     84.6749E-03    -64.7024E+06    -179.759E+06    -58.4637E+06    -257.165E+03    -52.9545E-03     105.889E-03    -52.9342E-03     17.5347E-03    -52.9373E-03     105.173E-03    -52.8721E-03     17.4682E-03
             712     2.56099E-03     84.6965E-03    -60.9418E+06    -173.659E+06    -49.2256E+06    -105.058E+03    -52.9994E-03     105.950E-03    -52.9510E-03     25.8052E-03    -52.9915E-03     105.252E-03    -52.8569E-03     25.7067E-03
             713     3.41470E-03     84.7265E-03    -56.5189E+06    -164.475E+06    -39.2018E+06    -360.599E+03    -53.0768E-03     106.040E-03    -52.9627E-03     33.9166E-03    -53.0835E-03     105.375E-03    -52.8383E-03     33.7766E-03
             714     4.26847E-03     84.7642E-03    -51.9033E+06    -152.442E+06    -30.6477E+06    -986.128E+03    -53.1631E-03     106.123E-03    -52.9604E-03     41.7494E-03    -53.1891E-03     105.513E-03    -52.8173E-03     41.5578E-03
             715     5.12233E-03     84.8098E-03    -47.3927E+06    -142.690E+06    -22.0827E+06    -953.474E+03    -53.2849E-03     106.245E-03    -52.9599E-03     49.2524E-03    -53.3323E-03     105.681E-03    -52.7947E-03     49.0113E-03
             716     5.97610E-03     84.8626E-03    -43.0136E+06    -136.201E+06    -13.4417E+06    -634.118E+03    -53.4314E-03     106.397E-03    -52.9653E-03     56.3821E-03    -53.5019E-03     105.870E-03    -52.7726E-03     56.0886E-03
             717     6.83013E-03     84.9224E-03    -38.6546E+06    -126.167E+06    -7.61823E+06    -674.144E+03    -53.5530E-03     106.504E-03    -52.9507E-03     63.0724E-03    -53.6548E-03     106.042E-03    -52.7498E-03     62.7145E-03
             718     7.68386E-03     84.9885E-03    -34.5488E+06    -114.893E+06    -3.80580E+06    -909.729E+03    -53.6872E-03     106.610E-03    -52.9232E-03     69.2289E-03    -53.8293E-03     106.233E-03    -52.7256E-03     68.7957E-03
             719     8.53813E-03     85.0605E-03    -31.0722E+06    -104.082E+06    -1.71190E+06    -923.859E+03    -53.8322E-03     106.722E-03    -52.8898E-03     74.8877E-03    -54.0255E-03     106.440E-03    -52.7024E-03     74.3733E-03
             720     9.39178E-03     85.1378E-03    -27.8912E+06    -90.2347E+06     84.0571E+03    -585.767E+03    -53.9419E-03     106.795E-03    -52.8526E-03     79.8867E-03    -54.2049E-03     106.638E-03    -52.6809E-03     79.2875E-03
             721     10.2461E-03     85.2197E-03    -25.0818E+06    -75.8054E+06     1.19708E+06    -402.139E+03    -54.0359E-03     106.850E-03    -52.8139E-03     84.0074E-03    -54.3863E-03     106.839E-03    -52.6617E-03     83.3126E-03
             722     11.1001E-03     85.3055E-03    -22.6578E+06    -55.7442E+06     1.84028E+06     95.9173E+03    -54.0575E-03     106.826E-03    -52.7681E-03     87.1616E-03    -54.5257E-03     107.010E-03    -52.6452E-03     86.3674E-03
             723     11.9536E-03     85.3933E-03    -20.3678E+06    -28.9417E+06     3.95975E+06     543.129E+03    -54.0596E-03     106.781E-03    -52.7215E-03     91.0755E-03    -54.6958E-03     107.231E-03    -52.6302E-03     90.1727E-03
             724     12.8084E-03     85.4872E-03    -18.3396E+06     9.34971E+06     4.12652E+06     1.08344E+06    -54.0162E-03     106.666E-03    -52.6497E-03     95.4770E-03    -54.8984E-03     107.504E-03    -52.6160E-03     94.4524E-03
             725     13.6617E-03     85.5827E-03    -16.6231E+06     77.8988E+06     19.3216E+06     1.10362E+06    -53.6591E-03     106.265E-03    -52.6062E-03     97.3076E-03    -54.8397E-03     107.607E-03    -52.5985E-03     96.2227E-03
             726     14.5160E-03     85.6813E-03    -14.0053E+06     125.933E+06     48.6912E+06     515.432E+03    -52.8582E-03     105.513E-03    -52.6550E-03     85.5589E-03    -54.1306E-03     107.042E-03    -52.5738E-03     84.5478E-03
             727     15.3709E-03     85.7522E-03    -9.70489E+06     134.873E+06     76.2878E+06     722.221E+03    -52.0910E-03     104.835E-03    -52.7445E-03     70.1117E-03    -53.3325E-03     106.300E-03    -52.5446E-03     69.2227E-03
             728     16.2240E-03     85.8204E-03    -4.59461E+06     134.448E+06     89.1177E+06     420.742E+03    -51.6490E-03     104.420E-03    -52.7707E-03     36.0282E-03    -52.5134E-03     105.487E-03    -52.5134E-03     35.4088E-03
             729     853.627E-06     85.7149E-03    -67.7420E+06    -178.013E+06    -65.7188E+06    -257.529E+03    -52.9261E-03     105.815E-03    -52.8891E-03     9.60117E-03    -52.9129E-03     105.120E-03    -52.8614E-03     9.56438E-03
             730     1.70729E-03     85.7281E-03    -65.2195E+06    -179.299E+06    -58.7603E+06    -464.157E+03    -52.9373E-03     105.863E-03    -52.9253E-03     17.5598E-03    -52.9230E-03     105.151E-03    -52.8645E-03     17.4905E-03
             731     2.56102E-03     85.7499E-03     -61.391E+06    -173.652E+06    -49.8109E+06    -494.469E+03    -52.9910E-03     105.931E-03    -52.9397E-03     25.8122E-03    -52.9844E-03     105.234E-03    -52.8479E-03     25.7087E-03
             732     3.41475E-03     85.7797E-03    -56.9959E+06    -163.310E+06    -40.9134E+06    -918.290E+03    -53.0629E-03     106.007E-03    -52.9441E-03     33.9146E-03    -53.0712E-03     105.352E-03    -52.8292E-03     33.7673E-03
             733     4.26854E-03     85.8176E-03    -52.5597E+06    -151.563E+06    -32.4537E+06    -1.42225E+06    -53.1605E-03     106.103E-03    -52.9425E-03     41.7218E-03    -53.1886E-03     105.500E-03    -52.8088E-03     41.5243E-03
             734     5.12232E-03     85.8630E-03    -48.1955E+06    -143.135E+06    -22.4506E+06    -1.21927E+06    -53.2833E-03     106.236E-03    -52.9529E-03     49.2298E-03    -53.3335E-03     105.672E-03    -52.7877E-03     48.9852E-03
             735     5.97623E-03     85.9159E-03    -43.5133E+06    -135.934E+06    -13.5794E+06    -1.09479E+06    -53.4162E-03     106.375E-03    -52.9584E-03     56.3673E-03    -53.4894E-03     105.850E-03    -52.7661E-03     56.0677E-03
             736     6.82996E-03     85.9755E-03    -38.8957E+06    -125.735E+06    -8.35942E+06    -1.31011E+06    -53.5413E-03     106.481E-03    -52.9396E-03     63.0353E-03    -53.6439E-03     106.023E-03    -52.7427E-03     62.6692E-03
             737     7.68422E-03     86.0417E-03    -34.9343E+06    -114.523E+06    -4.58482E+06    -1.35655E+06    -53.6897E-03     106.602E-03    -52.9128E-03     69.2036E-03    -53.8331E-03     106.229E-03    -52.7190E-03     68.7646E-03
             738     8.53784E-03     86.1137E-03    -31.3475E+06    -103.895E+06    -2.21809E+06    -1.44797E+06    -53.8512E-03     106.734E-03    -52.8829E-03     74.8319E-03    -54.0454E-03     106.455E-03    -52.6978E-03     74.3103E-03
             739     9.39216E-03     86.1909E-03    -28.0660E+06    -90.7101E+06    -775.669E+03    -1.35024E+06    -53.9848E-03     106.833E-03    -52.8480E-03     79.8995E-03    -54.2470E-03     106.676E-03    -52.6797E-03     79.2896E-03
             740     10.2458E-03     86.2730E-03    -25.2235E+06    -75.9577E+06     612.698E+03    -889.782E+03    -54.0717E-03     106.885E-03    -52.8135E-03     84.0564E-03    -54.4222E-03     106.875E-03    -52.6637E-03     83.3546E-03
             741     11.0999E-03     86.3584E-03    -22.6874E+06    -56.5807E+06     1.12468E+06    -559.294E+03    -54.0483E-03     106.817E-03    -52.7684E-03     87.2431E-03    -54.5147E-03     106.998E-03    -52.6479E-03     86.4405E-03
             742     11.9543E-03     86.4470E-03    -20.4345E+06    -29.5625E+06     3.30627E+06     3.61434E+03    -53.9777E-03     106.696E-03    -52.7181E-03     91.1802E-03    -54.6122E-03     107.143E-03    -52.6291E-03     90.2723E-03
             743     12.8079E-03     86.5395E-03    -18.4090E+06     9.07717E+06     3.80292E+06     509.323E+03    -54.0363E-03     106.681E-03    -52.6447E-03     95.7376E-03    -54.9194E-03     107.520E-03    -52.6122E-03     94.7049E-03
             744     13.6623E-03     86.6376E-03    -16.0067E+06     77.7440E+06     18.9828E+06     1.23638E+06    -53.6972E-03     106.299E-03    -52.6017E-03     97.2353E-03    -54.8753E-03     107.641E-03    -52.5963E-03     96.1497E-03
             745     14.5170E-03     86.7325E-03    -13.6209E+06     126.454E+06     48.3201E+06     1.51908E+06    -52.6886E-03     105.335E-03    -52.6462E-03     85.5293E-03    -53.9586E-03     106.865E-03    -52.5682E-03     84.5345E-03
             746     15.3706E-03     86.8078E-03    -9.71640E+06     135.178E+06     75.9817E+06     324.476E+03    -51.9882E-03     104.718E-03    -52.7301E-03     69.6157E-03    -53.2281E-03     106.183E-03    -52.5321E-03     68.7225E-03
             747     16.2280E-03     86.8694E-03    -4.73613E+06     135.024E+06     89.1160E+06     49.3670E+03    -52.0099E-03     104.776E-03    -52.7659E-03     34.9033E-03    -52.8737E-03     105.844E-03    -52.5092E-03     34.2745E-03
             748     853.704E-06     86.7681E-03    -68.3198E+06    -177.603E+06    -66.0009E+06     10.2216E+03    -52.8519E-03     105.749E-03    -52.8967E-03     9.61111E-03    -52.8418E-03     105.057E-03    -52.8701E-03     9.57795E-03
             749     1.70737E-03     86.7815E-03    -65.5772E+06    -178.441E+06    -58.7909E+06    -421.549E+03    -52.9480E-03     105.850E-03    -52.9021E-03     17.5632E-03    -52.9366E-03     105.143E-03    -52.8423E-03     17.4945E-03
             750     2.56102E-03     86.8031E-03    -61.6102E+06    -172.785E+06    -50.1085E+06    -1.12903E+06    -53.0031E-03     105.931E-03    -52.9280E-03     25.7793E-03    -52.9985E-03     105.240E-03    -52.8387E-03     25.6673E-03
             751     3.41478E-03     86.8330E-03    -57.1866E+06    -162.299E+06    -41.6286E+06    -1.57873E+06    -53.0567E-03     105.991E-03    -52.9342E-03     33.8655E-03    -53.0664E-03     105.342E-03    -52.8241E-03     33.7094E-03
             752     4.26854E-03     86.8708E-03    -52.9977E+06    -150.833E+06    -32.7196E+06    -1.61387E+06    -53.1520E-03     106.088E-03    -52.9358E-03     41.6929E-03    -53.1829E-03     105.490E-03    -52.8038E-03     41.4928E-03
             753     5.12236E-03     86.9163E-03    -48.5553E+06    -143.154E+06    -22.5684E+06    -1.58558E+06    -53.2691E-03     106.217E-03    -52.9474E-03     49.2018E-03    -53.3209E-03     105.653E-03    -52.7823E-03     48.9525E-03
             754     5.97618E-03     86.9691E-03    -43.9911E+06    -135.523E+06    -14.3602E+06    -1.64491E+06    -53.3986E-03     106.347E-03    -52.9480E-03     56.3303E-03    -53.4737E-03     105.826E-03    -52.7595E-03     56.0237E-03
             755     6.83028E-03     87.0288E-03    -39.7073E+06    -125.108E+06    -9.20632E+06    -1.88247E+06    -53.5535E-03     106.484E-03    -52.9300E-03     62.9785E-03    -53.6598E-03     106.031E-03    -52.7371E-03     62.6046E-03
             756     7.68389E-03     87.0948E-03    -35.5008E+06    -114.229E+06    -5.39310E+06    -2.14793E+06    -53.7017E-03     106.608E-03    -52.9060E-03     69.1787E-03    -53.8473E-03     106.237E-03    -52.7159E-03     68.7291E-03
             757     8.53819E-03     87.1669E-03    -31.5987E+06    -103.534E+06    -2.95554E+06    -2.21265E+06    -53.8468E-03     106.724E-03    -52.8769E-03     74.8458E-03    -54.0418E-03     106.448E-03    -52.6957E-03     74.3145E-03
             758     9.39179E-03     87.2441E-03    -28.3047E+06    -90.8618E+06    -1.49573E+06    -2.10157E+06    -53.9881E-03     106.831E-03    -52.8429E-03     79.9480E-03    -54.2504E-03     106.675E-03    -52.6776E-03     79.3282E-03
             759     10.2461E-03     87.3262E-03    -25.4001E+06    -76.5820E+06    -371.597E+03    -1.69492E+06    -54.0629E-03     106.870E-03    -52.8073E-03     84.1427E-03    -54.4119E-03     106.858E-03    -52.6613E-03     83.4309E-03
             760     11.0999E-03     87.4118E-03    -22.9483E+06    -56.8847E+06     471.455E+03    -1.13015E+06    -54.0466E-03     106.810E-03    -52.7632E-03     87.2676E-03    -54.5134E-03     106.992E-03    -52.6450E-03     86.4572E-03
             761     11.9539E-03     87.4996E-03    -20.7289E+06    -30.2604E+06     2.50939E+06    -618.715E+03    -54.0172E-03     106.732E-03    -52.7144E-03     91.0814E-03    -54.6511E-03     107.177E-03    -52.6280E-03     90.1642E-03
             762     12.8083E-03     87.5933E-03    -18.9117E+06     8.17152E+06     3.09280E+06     203.124E+03    -53.9738E-03     106.615E-03    -52.6415E-03     95.8544E-03    -54.8579E-03     107.452E-03    -52.6105E-03     94.8188E-03
             763     13.6621E-03     87.6904E-03    -17.3638E+06     76.7815E+06     17.4567E+06     891.643E+03    -53.6576E-03     106.250E-03    -52.5926E-03     97.1715E-03    -54.8373E-03     107.590E-03    -52.5915E-03     96.0832E-03
             764     14.5157E-03     87.7864E-03    -13.4625E+06     126.988E+06     47.1484E+06     1.10256E+06    -52.7492E-03     105.385E-03    -52.6360E-03     85.1167E-03    -54.0158E-03     106.918E-03    -52.5648E-03     84.1143E-03
             765     15.3719E-03     87.8591E-03    -8.89014E+06     136.489E+06     76.5397E+06     834.341E+03    -52.2951E-03     105.032E-03    -52.7367E-03     70.0382E-03    -53.5361E-03     106.504E-03    -52.5391E-03     69.1443E-03
             766     16.2216E-03     87.9264E-03    -5.23373E+06     135.091E+06     89.1504E+06     325.026E+03    -51.9029E-03     104.681E-03    -52.7780E-03     35.6187E-03    -52.7709E-03     105.751E-03    -52.5205E-03     34.9919E-03
             767     853.686E-06     87.8214E-03    -68.5434E+06    -177.725E+06    -66.3081E+06     384.223E+03    -52.8952E-03     105.740E-03    -52.8448E-03     9.60159E-03    -52.8856E-03     105.048E-03    -52.8193E-03     9.57321E-03
             768     1.70738E-03     87.8348E-03    -66.0020E+06    -176.909E+06    -59.6210E+06    -502.497E+03    -52.9434E-03     105.837E-03    -52.8934E-03     17.5324E-03    -52.9352E-03     105.139E-03    -52.8392E-03     17.4627E-03
             769     2.56105E-03     87.8565E-03    -62.4742E+06    -171.115E+06    -51.3270E+06    -1.62124E+06    -52.9944E-03     105.913E-03    -52.9181E-03     25.7410E-03    -52.9948E-03     105.233E-03    -52.8360E-03     25.6225E-03
             770     3.41473E-03     87.8862E-03    -58.5327E+06    -161.518E+06    -42.0688E+06    -1.93954E+06    -53.0532E-03     105.984E-03    -52.9309E-03     33.8521E-03    -53.0701E-03     105.342E-03    -52.8222E-03     33.6913E-03
             771     4.26856E-03     87.9241E-03    -54.0599E+06    -150.439E+06    -33.0539E+06    -1.94939E+06    -53.1367E-03     106.070E-03    -52.9331E-03     41.6778E-03    -53.1730E-03     105.476E-03    -52.8019E-03     41.4734E-03
             772     5.12238E-03     87.9695E-03    -49.4037E+06    -142.859E+06    -23.3152E+06    -2.07434E+06    -53.2596E-03     106.201E-03    -52.9417E-03     49.1497E-03    -53.3150E-03     105.642E-03    -52.7795E-03     48.8939E-03
             773     5.97631E-03     88.0223E-03    -44.6893E+06    -134.764E+06    -15.0835E+06    -2.16922E+06    -53.4044E-03     106.347E-03    -52.9424E-03     56.2664E-03    -53.4829E-03     105.832E-03    -52.7576E-03     55.9530E-03
             774     6.83000E-03     88.0819E-03    -40.0115E+06    -124.029E+06    -9.80006E+06    -2.62817E+06    -53.5453E-03     106.470E-03    -52.9247E-03     62.9433E-03    -53.6539E-03     106.025E-03    -52.7359E-03     62.5598E-03
             775     7.68423E-03     88.1481E-03    -35.7229E+06    -113.686E+06    -6.18516E+06    -3.13707E+06    -53.6888E-03     106.589E-03    -52.8997E-03     69.1698E-03    -53.8352E-03     106.222E-03    -52.7140E-03     68.7075E-03
             776     8.53787E-03     88.2199E-03    -31.9092E+06    -103.299E+06    -3.88328E+06    -3.13894E+06    -53.8476E-03     106.718E-03    -52.8700E-03     74.8745E-03    -54.0431E-03     106.444E-03    -52.6934E-03     74.3313E-03
             777     9.39223E-03     88.2974E-03    -28.5239E+06    -90.7297E+06    -2.26425E+06    -2.98543E+06    -53.9733E-03     106.810E-03    -52.8365E-03     79.9537E-03    -54.2358E-03     106.656E-03    -52.6749E-03     79.3227E-03
             778     10.2458E-03     88.3793E-03    -25.5739E+06    -77.2181E+06    -1.26979E+06    -2.58700E+06    -54.0385E-03     106.838E-03    -52.8000E-03     84.1059E-03    -54.3860E-03     106.825E-03    -52.6573E-03     83.3829E-03
             779     11.1002E-03     88.4648E-03    -22.9199E+06    -57.4011E+06    -415.725E+03    -1.88403E+06    -54.0719E-03     106.828E-03    -52.7556E-03     87.2966E-03    -54.5366E-03     107.008E-03    -52.6412E-03     86.4764E-03
             780     11.9541E-03     88.5533E-03    -20.7476E+06    -30.6973E+06     1.93064E+06    -1.02277E+06    -54.0960E-03     106.808E-03    -52.7120E-03     91.1515E-03    -54.7296E-03     107.253E-03    -52.6278E-03     90.2270E-03
             781     12.8079E-03     88.6459E-03    -18.9381E+06     6.14275E+06     1.75483E+06    -27.7609E+03    -53.9121E-03     106.550E-03    -52.6381E-03     95.8186E-03    -54.7900E-03     107.378E-03    -52.6108E-03     94.7824E-03
             782     13.6623E-03     88.7442E-03    -16.5114E+06     76.3410E+06     17.1517E+06     620.484E+03    -53.5169E-03     106.101E-03    -52.5838E-03     97.4041E-03    -54.6901E-03     107.437E-03    -52.5848E-03     96.3181E-03
             783     14.5174E-03     88.8392E-03    -13.8055E+06     127.597E+06     47.3147E+06     551.410E+03    -53.0711E-03     105.705E-03    -52.6344E-03     85.3134E-03    -54.3431E-03     107.244E-03    -52.5628E-03     84.2962E-03
             784     15.3695E-03     88.9131E-03    -10.0149E+06     135.979E+06     75.3690E+06     1.06800E+06    -52.1122E-03     104.848E-03    -52.7353E-03     70.1929E-03    -53.3556E-03     106.320E-03    -52.5411E-03     69.3064E-03
             785     16.2285E-03     88.9795E-03    -4.84319E+06     135.940E+06     89.2616E+06     639.957E+03    -51.6652E-03     104.432E-03    -52.7673E-03     35.5740E-03    -52.5302E-03     105.504E-03    -52.5111E-03     34.9627E-03
             786     853.683E-06     88.8747E-03    -70.5402E+06    -178.012E+06    -68.9570E+06     249.189E+03    -52.9318E-03     105.769E-03    -52.8371E-03     9.62103E-03    -52.9278E-03     105.083E-03    -52.8215E-03     9.59088E-03
             787     1.70729E-03     88.8882E-03    -68.0090E+06    -174.893E+06    -62.8012E+06    -687.073E+03    -52.9115E-03     105.802E-03    -52.8905E-03     17.5193E-03    -52.9116E-03     105.122E-03    -52.8523E-03     17.4472E-03
             788     2.56104E-03     88.9097E-03    -64.6621E+06    -169.306E+06    -52.8211E+06    -1.79018E+06    -52.9582E-03     105.869E-03    -52.9110E-03     25.7540E-03    -52.9700E-03     105.204E-03    -52.8359E-03     25.6334E-03
             789     3.41481E-03     88.9396E-03    -60.0677E+06    -160.630E+06    -42.3116E+06    -2.36344E+06    -53.0515E-03     105.979E-03    -52.9276E-03     33.8358E-03    -53.0770E-03     105.344E-03    -52.8192E-03     33.6695E-03
             790     4.26854E-03     88.9773E-03    -55.3220E+06    -149.908E+06    -33.3599E+06    -2.48988E+06    -53.1383E-03     106.070E-03    -52.9320E-03     41.6376E-03    -53.1813E-03     105.481E-03    -52.8012E-03     41.4261E-03
             791     5.12239E-03     89.0228E-03    -50.5643E+06    -142.109E+06    -23.8283E+06    -2.57779E+06    -53.2639E-03     106.205E-03    -52.9408E-03     49.1335E-03    -53.3255E-03     105.651E-03    -52.7806E-03     48.8712E-03
             792     5.97615E-03     89.0755E-03    -45.4636E+06    -133.502E+06    -15.8254E+06    -3.14001E+06    -53.3947E-03     106.334E-03    -52.9395E-03     56.2412E-03    -53.4778E-03     105.828E-03    -52.7591E-03     55.9152E-03
             793     6.83025E-03     89.1351E-03    -40.4939E+06    -123.064E+06    -10.8676E+06    -3.78324E+06    -53.5271E-03     106.446E-03    -52.9189E-03     62.9414E-03    -53.6379E-03     106.008E-03    -52.7361E-03     62.5432E-03
             794     7.68395E-03     89.2011E-03    -36.1031E+06    -112.659E+06    -7.02581E+06    -4.13354E+06    -53.6872E-03     106.581E-03    -52.8939E-03     69.1414E-03    -53.8357E-03     106.222E-03    -52.7133E-03     68.6662E-03
             795     8.53823E-03     89.2731E-03    -32.2342E+06    -102.956E+06    -4.81776E+06    -4.27802E+06    -53.8350E-03     106.699E-03    -52.8644E-03     74.8556E-03    -54.0312E-03     106.430E-03    -52.6925E-03     74.2978E-03
             796     9.39180E-03     89.3505E-03    -28.7542E+06    -90.7493E+06    -3.23567E+06    -4.04574E+06    -53.9627E-03     106.793E-03    -52.8302E-03     79.9574E-03    -54.2248E-03     106.640E-03    -52.6731E-03     79.3130E-03
             797     10.2463E-03     89.4324E-03    -25.6792E+06    -77.5622E+06    -2.16098E+06    -3.60262E+06    -54.0394E-03     106.833E-03    -52.7941E-03     84.0936E-03    -54.3857E-03     106.820E-03    -52.6552E-03     83.3573E-03
             798     11.0999E-03     89.5181E-03    -23.0724E+06    -58.3135E+06    -1.48499E+06    -2.82527E+06    -54.0380E-03     106.786E-03    -52.7484E-03     87.3767E-03    -54.5001E-03     106.964E-03    -52.6378E-03     86.5455E-03
             799     11.9541E-03     89.6062E-03    -20.6653E+06    -32.0352E+06     973.515E+03    -1.72002E+06    -54.0933E-03     106.797E-03    -52.7040E-03     91.3389E-03    -54.7239E-03     107.238E-03    -52.6227E-03     90.4054E-03
             800     12.8081E-03     89.6998E-03    -18.6700E+06     4.90195E+06     1.00518E+06    -405.430E+03    -53.9535E-03     106.586E-03    -52.6320E-03     95.6222E-03    -54.8265E-03     107.407E-03    -52.6070E-03     94.5802E-03
             801     13.6625E-03     89.7959E-03    -17.0996E+06     75.8065E+06     16.1097E+06     364.513E+03    -53.6222E-03     106.204E-03    -52.5816E-03     97.3605E-03    -54.7979E-03     107.541E-03    -52.5862E-03     96.2666E-03
             802     14.5161E-03     89.8938E-03    -14.3240E+06     127.477E+06     46.0102E+06     892.663E+03    -53.0071E-03     105.638E-03    -52.6314E-03     85.4128E-03    -54.2812E-03     107.181E-03    -52.5654E-03     84.4000E-03
             803     15.3713E-03     89.9667E-03    -9.92138E+06     136.560E+06     74.9504E+06     396.932E+03    -52.2168E-03     104.953E-03    -52.7365E-03     69.2287E-03    -53.4575E-03     106.426E-03    -52.5453E-03     68.3288E-03
             804     16.2231E-03     90.0296E-03    -4.61801E+06     136.386E+06     89.3797E+06     98.1989E+03    -51.6623E-03     104.438E-03    -52.7753E-03     35.3577E-03    -52.5281E-03     105.512E-03    -52.5195E-03     34.7306E-03
             805     853.604E-06     89.9280E-03    -72.7414E+06    -177.226E+06    -71.4628E+06    -366.234E+03    -52.9058E-03     105.774E-03    -52.8687E-03     9.61908E-03    -52.9104E-03     105.099E-03    -52.8635E-03     9.58091E-03
             806     1.70733E-03     89.9414E-03    -70.1191E+06    -173.054E+06    -64.7513E+06    -1.37213E+06    -52.8839E-03     105.772E-03    -52.8877E-03     17.5022E-03    -52.8944E-03     105.107E-03    -52.8588E-03     17.4211E-03
             807     2.56109E-03     89.9630E-03    -66.1837E+06    -167.298E+06    -54.3878E+06    -2.11013E+06    -52.9574E-03     105.861E-03    -52.9041E-03     25.7556E-03    -52.9774E-03     105.210E-03    -52.8375E-03     25.6310E-03
             808     3.41474E-03     89.9929E-03    -61.6132E+06    -159.195E+06    -43.4951E+06    -2.99245E+06    -53.0372E-03     105.961E-03    -52.9236E-03     33.7958E-03    -53.0708E-03     105.337E-03    -52.8209E-03     33.6213E-03
             809     4.26856E-03     90.0305E-03    -56.4627E+06    -149.327E+06    -33.2865E+06    -3.10231E+06    -53.1392E-03     106.074E-03    -52.9346E-03     41.6181E-03    -53.1888E-03     105.489E-03    -52.8027E-03     41.3987E-03
             810     5.12234E-03     90.0761E-03    -51.1276E+06    -140.496E+06    -23.7844E+06    -3.40457E+06    -53.2608E-03     106.203E-03    -52.9417E-03     49.1288E-03    -53.3275E-03     105.658E-03    -52.7828E-03     48.8560E-03
             811     5.97628E-03     90.1287E-03    -45.9656E+06    -131.901E+06    -16.8274E+06    -4.31812E+06    -53.3812E-03     106.316E-03    -52.9344E-03     56.2026E-03    -53.4678E-03     105.820E-03    -52.7606E-03     55.8613E-03
             812     6.83004E-03     90.1882E-03    -41.0932E+06    -121.862E+06    -11.9258E+06    -5.08585E+06    -53.5257E-03     106.439E-03    -52.9136E-03     62.9191E-03    -53.6395E-03     106.009E-03    -52.7370E-03     62.5041E-03
             813     7.68420E-03     90.2544E-03    -36.5488E+06    -111.756E+06    -8.08209E+06    -5.43690E+06    -53.6796E-03     106.568E-03    -52.8887E-03     69.1558E-03    -53.8300E-03     106.216E-03    -52.7140E-03     68.6639E-03
             814     8.53782E-03     90.3262E-03    -32.5238E+06    -102.337E+06    -5.71645E+06    -5.49067E+06    -53.8220E-03     106.681E-03    -52.8592E-03     74.8566E-03    -54.0192E-03     106.416E-03    -52.6922E-03     74.2832E-03
             815     9.39232E-03     90.4036E-03    -28.9908E+06    -90.7505E+06    -4.34457E+06    -5.33739E+06    -53.9400E-03     106.763E-03    -52.8232E-03     79.9960E-03    -54.2015E-03     106.612E-03    -52.6713E-03     79.3354E-03
             816     10.2458E-03     90.4858E-03    -25.7915E+06    -77.7642E+06    -3.18289E+06    -4.82713E+06    -54.0075E-03     106.793E-03    -52.7854E-03     84.1432E-03    -54.3524E-03     106.779E-03    -52.6511E-03     83.3920E-03
             817     11.1003E-03     90.5709E-03    -22.9604E+06    -59.4894E+06    -2.62285E+06    -3.84459E+06    -54.0365E-03     106.775E-03    -52.7388E-03     87.4672E-03    -54.4951E-03     106.949E-03    -52.6323E-03     86.6226E-03
             818     11.9541E-03     90.6598E-03    -20.7065E+06    -33.6862E+06    -434.071E+03    -2.69657E+06    -54.0202E-03     106.711E-03    -52.6911E-03     91.4287E-03    -54.6454E-03     107.145E-03    -52.6144E-03     90.4855E-03
             819     12.8084E-03     90.7526E-03    -18.7198E+06     3.38015E+06    -125.170E+03    -984.175E+03    -54.0822E-03     106.704E-03    -52.6221E-03     95.6901E-03    -54.9528E-03     107.521E-03    -52.6005E-03     94.6376E-03
             820     13.6620E-03     90.8496E-03    -16.8740E+06     74.9129E+06     14.8450E+06     764.658E+03    -53.8051E-03     106.384E-03    -52.5790E-03     97.6702E-03    -54.9795E-03     107.722E-03    -52.5890E-03     96.5764E-03
             821     14.5165E-03     90.9471E-03    -14.3311E+06     127.670E+06     45.1658E+06     692.665E+03    -52.7949E-03     105.423E-03    -52.6280E-03     85.6576E-03    -54.0665E-03     106.966E-03    -52.5665E-03     84.6502E-03
             822     15.3706E-03     91.0191E-03    -10.0078E+06     137.116E+06     74.6006E+06     492.099E+03    -52.1689E-03     104.895E-03    -52.7265E-03     70.1399E-03    -53.4134E-03     106.375E-03    -52.5378E-03     69.2441E-03
             823     16.2255E-03     91.0866E-03    -4.54094E+06     136.804E+06     89.3230E+06     114.877E+03    -51.7531E-03     104.520E-03    -52.7667E-03     36.0861E-03    -52.6231E-03     105.600E-03    -52.5118E-03     35.4569E-03
             824     853.612E-06     90.9814E-03    -72.4352E+06    -175.349E+06    -71.0240E+06    -1.13840E+06    -52.8663E-03     105.761E-03    -52.8946E-03     9.51288E-03    -52.8727E-03     105.094E-03    -52.8904E-03     9.46440E-03
             825     1.70736E-03     90.9946E-03    -70.1595E+06    -171.064E+06    -64.2858E+06    -1.67824E+06    -52.9088E-03     105.797E-03    -52.8887E-03     17.5170E-03    -52.9231E-03     105.142E-03    -52.8604E-03     17.4319E-03
             826     2.56096E-03     91.0164E-03     -66.799E+06    -165.086E+06    -55.5568E+06    -2.61547E+06    -52.9606E-03     105.865E-03    -52.9042E-03     25.7209E-03    -52.9852E-03     105.227E-03    -52.8458E-03     25.5896E-03
             827     3.41478E-03     91.0461E-03    -62.3569E+06    -157.113E+06    -44.7373E+06    -3.52324E+06    -53.0226E-03     105.944E-03    -52.9218E-03     33.7942E-03    -53.0612E-03     105.334E-03    -52.8272E-03     33.6129E-03
             828     4.26853E-03     91.0839E-03    -57.1618E+06    -148.525E+06    -33.6644E+06    -4.09550E+06    -53.1364E-03     106.073E-03    -52.9367E-03     41.6085E-03    -53.1901E-03     105.494E-03    -52.8068E-03     41.3763E-03
             829     5.12235E-03     91.1293E-03    -51.5470E+06    -138.762E+06    -24.5049E+06    -4.51020E+06    -53.2429E-03     106.182E-03    -52.9388E-03     49.0899E-03    -53.3132E-03     105.647E-03    -52.7854E-03     48.8029E-03
             830     5.97616E-03     91.1819E-03    -46.2537E+06    -129.678E+06    -17.5705E+06    -5.52873E+06    -53.3787E-03     106.308E-03    -52.9292E-03     56.1904E-03    -53.4687E-03     105.824E-03    -52.7620E-03     55.8336E-03
             831     6.83019E-03     91.2415E-03    -41.3711E+06    -120.048E+06    -12.8233E+06    -6.43463E+06    -53.5179E-03     106.426E-03    -52.9080E-03     62.9162E-03    -53.6345E-03     106.007E-03    -52.7380E-03     62.4838E-03
             832     7.68394E-03     91.3074E-03    -36.9070E+06    -110.769E+06    -9.17882E+06    -6.88279E+06    -53.6550E-03     106.537E-03    -52.8817E-03     69.1689E-03    -53.8069E-03     106.191E-03    -52.7135E-03     68.6589E-03
             833     8.53830E-03     91.3794E-03    -32.8240E+06    -101.694E+06    -6.90920E+06    -6.98616E+06    -53.8126E-03     106.663E-03    -52.8506E-03     74.8860E-03    -54.0105E-03     106.404E-03    -52.6901E-03     74.2936E-03
             834     9.39174E-03     91.4567E-03    -29.1593E+06    -90.4148E+06    -5.37704E+06    -6.83703E+06    -53.8947E-03     106.708E-03    -52.8135E-03     79.9966E-03    -54.1559E-03     106.560E-03    -52.6670E-03     79.3173E-03
             835     10.2465E-03     91.5386E-03    -25.9207E+06    -78.2672E+06    -4.40688E+06    -6.25105E+06    -53.9846E-03     106.758E-03    -52.7731E-03     84.2236E-03    -54.3275E-03     106.744E-03    -52.6441E-03     83.4547E-03
             836     11.1000E-03     91.6243E-03    -23.2003E+06    -60.5834E+06    -3.88930E+06    -5.19699E+06    -54.0452E-03     106.772E-03    -52.7270E-03     87.5141E-03    -54.5020E-03     106.943E-03    -52.6250E-03     86.6518E-03
             837     11.9543E-03     91.7126E-03    -20.7367E+06    -35.2776E+06    -1.60719E+06    -3.60099E+06    -54.0210E-03     106.702E-03    -52.6810E-03     91.3693E-03    -54.6419E-03     107.129E-03    -52.6078E-03     90.4147E-03
             838     12.8085E-03     91.8059E-03    -18.9466E+06     804.172E+03    -1.40509E+06    -1.59202E+06    -54.0742E-03     106.687E-03    -52.6126E-03     96.0314E-03    -54.9423E-03     107.495E-03    -52.5934E-03     94.9710E-03
             839     13.6623E-03     91.9037E-03    -16.8694E+06     73.1860E+06     12.9774E+06     260.371E+03    -53.7003E-03     106.262E-03    -52.5613E-03     97.6638E-03    -54.8690E-03     107.593E-03    -52.5781E-03     96.5663E-03
             840     14.5168E-03     91.9992E-03    -13.6585E+06     128.386E+06     43.6282E+06     995.639E+03    -52.7380E-03     105.341E-03    -52.6030E-03     85.7448E-03    -54.0051E-03     106.889E-03    -52.5512E-03     84.7420E-03
             841     15.3712E-03     92.0737E-03    -9.83672E+06     137.695E+06     74.3435E+06     138.857E+03    -52.0044E-03     104.708E-03    -52.7035E-03     70.1144E-03    -53.2495E-03     106.191E-03    -52.5172E-03     69.2172E-03
             842     16.2264E-03     92.1370E-03    -4.63008E+06     137.006E+06     89.5726E+06    -279.104E+03    -51.8479E-03     104.595E-03    -52.7466E-03     35.3703E-03    -52.7164E-03     105.673E-03    -52.4907E-03     34.7381E-03
             843     853.709E-06     92.0344E-03    -72.2853E+06    -173.002E+06    -70.5086E+06    -1.04754E+06    -52.9101E-03     105.759E-03    -52.8491E-03     9.52885E-03    -52.9199E-03     105.103E-03    -52.8459E-03     9.48154E-03
             844     1.70728E-03     92.0482E-03    -69.9951E+06    -169.024E+06    -64.5004E+06    -1.81359E+06    -52.9299E-03     105.820E-03    -52.8901E-03     17.5089E-03    -52.9461E-03     105.175E-03    -52.8660E-03     17.4221E-03
             845     2.56100E-03     92.0696E-03    -66.4228E+06    -162.340E+06    -54.9646E+06    -2.88309E+06    -52.9534E-03     105.864E-03    -52.9107E-03     25.7028E-03    -52.9809E-03     105.239E-03    -52.8538E-03     25.5680E-03
             846     3.41474E-03     92.0994E-03    -62.0171E+06    -154.719E+06    -44.3130E+06    -4.09081E+06    -53.0346E-03     105.962E-03    -52.9269E-03     33.7933E-03    -53.0755E-03     105.362E-03    -52.8342E-03     33.6047E-03
             847     4.26848E-03     92.1372E-03    -56.9131E+06    -146.746E+06    -33.9847E+06    -4.92507E+06    -53.1192E-03     106.057E-03    -52.9380E-03     41.5858E-03    -53.1737E-03     105.487E-03    -52.8126E-03     41.3430E-03
             848     5.12233E-03     92.1824E-03    -51.6513E+06    -136.820E+06    -25.4073E+06    -5.83587E+06    -53.2233E-03     106.157E-03    -52.9337E-03     49.0834E-03    -53.2956E-03     105.634E-03    -52.7875E-03     48.7793E-03
             849     5.97626E-03     92.2353E-03    -46.2698E+06    -127.116E+06    -18.4753E+06    -6.82090E+06    -53.3622E-03     106.283E-03    -52.9205E-03     56.2161E-03    -53.4547E-03     105.813E-03    -52.7615E-03     55.8429E-03
             850     6.83004E-03     92.2945E-03    -41.4116E+06    -117.970E+06    -13.6019E+06    -7.84003E+06    -53.5047E-03     106.404E-03    -52.8991E-03     62.9050E-03    -53.6233E-03     105.996E-03    -52.7360E-03     62.4546E-03
             851     7.68423E-03     92.3607E-03    -37.0345E+06    -109.343E+06    -10.1504E+06    -8.40737E+06    -53.6397E-03     106.512E-03    -52.8719E-03     69.1842E-03    -53.7928E-03     106.174E-03    -52.7104E-03     68.6547E-03
             852     8.53784E-03     92.4324E-03    -33.0318E+06    -100.877E+06    -7.99730E+06    -8.62021E+06    -53.7592E-03     106.597E-03    -52.8382E-03     74.9343E-03    -53.9575E-03     106.344E-03    -52.6840E-03     74.3217E-03
             853     9.39247E-03     92.5098E-03    -29.3857E+06    -89.8868E+06    -6.36631E+06    -8.43332E+06    -53.8915E-03     106.691E-03    -52.7998E-03     80.0234E-03    -54.1530E-03     106.548E-03    -52.6587E-03     79.3237E-03
             854     10.2459E-03     92.5915E-03    -26.2377E+06    -78.8450E+06    -5.62456E+06    -7.87724E+06    -53.9955E-03     106.757E-03    -52.7610E-03     84.2718E-03    -54.3379E-03     106.742E-03    -52.6368E-03     83.4813E-03
             855     11.1005E-03     92.6776E-03    -23.3434E+06    -61.6396E+06    -5.20291E+06    -6.71180E+06    -54.0005E-03     106.714E-03    -52.7139E-03     87.5641E-03    -54.4543E-03     106.882E-03    -52.6167E-03     86.6834E-03
             856     11.9543E-03     92.7655E-03    -20.7244E+06    -37.5571E+06    -2.98450E+06    -4.88161E+06    -54.0531E-03     106.722E-03    -52.6686E-03     91.5559E-03    -54.6700E-03     107.140E-03    -52.5990E-03     90.5836E-03
             857     12.8082E-03     92.8593E-03    -18.6298E+06    -2.77143E+06    -3.25558E+06    -2.06142E+06    -53.9658E-03     106.562E-03    -52.5964E-03     96.2387E-03    -54.8231E-03     107.353E-03    -52.5816E-03     95.1765E-03
             858     13.6627E-03     92.9565E-03    -17.0352E+06     72.1010E+06     11.4771E+06    -49.4115E+03    -53.5684E-03     106.105E-03    -52.5361E-03     97.7538E-03    -54.7317E-03     107.430E-03    -52.5586E-03     96.6585E-03
             859     14.5169E-03     93.0530E-03    -14.1357E+06     128.690E+06     42.0781E+06    -73.8771E+03    -52.8504E-03     105.427E-03    -52.5762E-03     85.6371E-03    -54.1190E-03     106.980E-03    -52.5320E-03     84.6176E-03
             860     15.3717E-03     93.1257E-03    -9.04818E+06     138.447E+06     74.0066E+06     180.416E+03    -52.0863E-03     104.773E-03    -52.6869E-03     70.0867E-03    -53.3249E-03     106.256E-03    -52.5045E-03     69.1893E-03
             861     16.2243E-03     93.1925E-03    -4.28148E+06     137.294E+06     89.8769E+06     45.3265E+03    -51.8554E-03     104.593E-03    -52.7372E-03     36.0477E-03    -52.7214E-03     105.670E-03    -52.4807E-03     35.4201E-03
             862     853.659E-06     93.0883E-03    -71.9588E+06    -170.714E+06    -70.6237E+06    -858.087E+03    -52.9568E-03     105.771E-03    -52.8142E-03     9.61964E-03    -52.9681E-03     105.126E-03    -52.8154E-03     9.57510E-03
             863     1.70724E-03     93.1012E-03    -69.6529E+06    -166.242E+06    -63.9407E+06    -2.26737E+06    -52.9201E-03     105.814E-03    -52.8941E-03     17.4583E-03    -52.9393E-03     105.181E-03    -52.8718E-03     17.3654E-03
             864     2.56104E-03     93.1230E-03    -65.8770E+06    -159.777E+06    -54.6308E+06    -3.29253E+06    -52.9614E-03     105.873E-03    -52.9115E-03     25.7178E-03    -52.9904E-03     105.259E-03    -52.8575E-03     25.5779E-03
             865     3.41465E-03     93.1528E-03    -61.4394E+06    -151.827E+06    -43.7988E+06    -4.29361E+06    -53.0262E-03     105.954E-03    -52.9278E-03     33.7887E-03    -53.0692E-03     105.367E-03    -52.8376E-03     33.5976E-03
             866     4.26852E-03     93.1904E-03    -56.6310E+06    -143.867E+06    -34.0317E+06    -5.77590E+06    -53.0992E-03     106.033E-03    -52.9336E-03     41.5977E-03    -53.1564E-03     105.477E-03    -52.8130E-03     41.3440E-03
             867     5.12233E-03     93.2358E-03    -51.3472E+06    -134.062E+06    -26.1244E+06    -7.11301E+06    -53.2157E-03     106.140E-03    -52.9240E-03     49.0976E-03    -53.2893E-03     105.631E-03    -52.7857E-03     48.7772E-03
             868     5.97619E-03     93.2882E-03    -46.2412E+06    -124.658E+06    -19.4804E+06    -8.27789E+06    -53.3376E-03     106.246E-03    -52.9085E-03     56.2057E-03    -53.4320E-03     105.790E-03    -52.7581E-03     55.8139E-03
             869     6.83025E-03     93.3479E-03    -41.4988E+06    -115.687E+06    -14.5045E+06    -9.18503E+06    -53.4744E-03     106.360E-03    -52.8853E-03     62.9242E-03    -53.5953E-03     105.965E-03    -52.7299E-03     62.4570E-03
             870     7.68399E-03     93.4135E-03    -37.2716E+06    -107.545E+06    -11.0089E+06    -9.95981E+06    -53.6060E-03     106.463E-03    -52.8566E-03     69.2071E-03    -53.7616E-03     106.136E-03    -52.7017E-03     68.6579E-03
             871     8.53844E-03     93.4857E-03    -33.3000E+06    -99.6015E+06    -8.89346E+06    -10.1954E+06    -53.7266E-03     106.548E-03    -52.8213E-03     74.9429E-03    -53.9266E-03     106.302E-03    -52.6731E-03     74.3105E-03
             872     9.39204E-03     93.5625E-03    -29.8388E+06    -89.4772E+06    -7.56007E+06    -10.1043E+06    -53.8811E-03     106.663E-03    -52.7820E-03     80.1309E-03    -54.1440E-03     106.524E-03    -52.6468E-03     79.4098E-03
             873     10.2465E-03     93.6451E-03    -26.6420E+06    -78.7577E+06    -6.70931E+06    -9.56737E+06    -53.9794E-03     106.723E-03    -52.7437E-03     84.3804E-03    -54.3223E-03     106.711E-03    -52.6245E-03     83.5686E-03
             874     11.1002E-03     93.7300E-03    -23.7658E+06    -63.0624E+06    -6.67364E+06    -8.41021E+06    -53.9891E-03     106.686E-03    -52.6965E-03     87.6926E-03    -54.4411E-03     106.849E-03    -52.6039E-03     86.7901E-03
             875     11.9546E-03     93.8191E-03    -21.1844E+06    -40.1519E+06    -4.84099E+06    -6.48810E+06    -54.0096E-03     106.659E-03    -52.6493E-03     91.7131E-03    -54.6224E-03     107.068E-03    -52.5845E-03     90.7213E-03
             876     12.8088E-03     93.9120E-03    -18.5936E+06    -6.27828E+06    -4.86645E+06    -3.49638E+06    -53.9374E-03     106.514E-03    -52.5770E-03     96.1553E-03    -54.7869E-03     107.290E-03    -52.5653E-03     95.0754E-03
             877     13.6630E-03     94.0096E-03    -15.8280E+06     70.0653E+06     10.1102E+06    -550.019E+03    -53.6020E-03     106.117E-03    -52.5150E-03     97.7079E-03    -54.7549E-03     107.433E-03    -52.5431E-03     96.6041E-03
             878     14.5176E-03     94.1061E-03    -13.3412E+06     129.666E+06     41.0762E+06     96.5194E+03    -52.9792E-03     105.538E-03    -52.5584E-03     85.6406E-03    -54.2440E-03     107.096E-03    -52.5217E-03     84.6194E-03
             879     15.3707E-03     94.1798E-03    -9.57566E+06     138.143E+06     72.8227E+06    -721.622E+03    -52.3403E-03     105.024E-03    -52.6836E-03     69.4673E-03    -53.5816E-03     106.510E-03    -52.5059E-03     68.5466E-03
             880     16.2282E-03     94.2434E-03    -4.54799E+06     137.068E+06     89.4871E+06    -101.077E+03    -51.9193E-03     104.667E-03    -52.7472E-03     35.2627E-03    -52.7868E-03     105.745E-03    -52.4919E-03     34.6278E-03
             881     853.580E-06     94.1413E-03    -71.5449E+06    -167.886E+06    -70.1709E+06    -1.49904E+06    -52.8733E-03     105.763E-03    -52.8901E-03     9.58177E-03    -52.8873E-03     105.131E-03    -52.8938E-03     9.52883E-03
             882     1.70739E-03     94.1549E-03    -69.0493E+06    -163.201E+06    -63.5263E+06    -2.53265E+06    -52.9109E-03     105.799E-03    -52.8885E-03     17.4845E-03    -52.9321E-03     105.180E-03    -52.8694E-03     17.3883E-03
             883     2.56089E-03     94.1762E-03    -65.6279E+06    -156.987E+06    -54.2488E+06    -3.74623E+06    -52.9587E-03     105.865E-03    -52.9060E-03     25.7194E-03    -52.9911E-03     105.264E-03    -52.8545E-03     25.5736E-03
             884     3.41480E-03     94.2061E-03    -60.9724E+06    -148.902E+06    -43.8386E+06    -4.92726E+06    -52.9969E-03     105.915E-03    -52.9176E-03     33.7878E-03    -53.0417E-03     105.341E-03    -52.8324E-03     33.5887E-03
             885     4.26850E-03     94.2437E-03    -55.8516E+06    -140.050E+06    -34.0473E+06    -6.46687E+06    -53.0929E-03     106.012E-03    -52.9192E-03     41.5912E-03    -53.1517E-03     105.474E-03    -52.8054E-03     41.3286E-03
             886     5.12240E-03     94.2889E-03    -50.9816E+06    -130.622E+06    -26.5617E+06    -8.31996E+06    -53.1948E-03     106.103E-03    -52.9081E-03     49.1181E-03    -53.2709E-03     105.611E-03    -52.7776E-03     48.7825E-03
             887     5.97627E-03     94.3416E-03    -46.2204E+06    -121.904E+06    -20.3871E+06    -9.56692E+06    -53.3069E-03     106.196E-03    -52.8896E-03     56.2377E-03    -53.4038E-03     105.756E-03    -52.7478E-03     55.8297E-03
             888     6.83017E-03     94.4008E-03    -41.7483E+06    -113.132E+06    -15.3436E+06    -10.5200E+06    -53.4313E-03     106.296E-03    -52.8645E-03     62.9780E-03    -53.5558E-03     105.915E-03    -52.7166E-03     62.4943E-03
             889     7.68442E-03     94.4669E-03    -37.5058E+06    -105.201E+06    -11.6380E+06    -11.3380E+06    -53.5696E-03     106.404E-03    -52.8344E-03     69.2215E-03    -53.7287E-03     106.090E-03    -52.6857E-03     68.6551E-03
             890     8.53812E-03     94.5383E-03    -33.7274E+06    -98.2891E+06    -9.83577E+06    -11.8433E+06    -53.7124E-03     106.511E-03    -52.7986E-03     74.9991E-03    -53.9150E-03     106.273E-03    -52.6563E-03     74.3458E-03
             891     9.39261E-03     94.6160E-03    -30.1939E+06    -88.5441E+06    -8.57387E+06    -11.7707E+06    -53.8205E-03     106.578E-03    -52.7575E-03     80.2618E-03    -54.0848E-03     106.446E-03    -52.6282E-03     79.5207E-03
             892     10.2464E-03     94.6975E-03    -27.0331E+06    -78.6315E+06    -7.83682E+06    -11.3285E+06    -53.9343E-03     106.651E-03    -52.7166E-03     84.5216E-03    -54.2775E-03     106.642E-03    -52.6026E-03     83.6884E-03
             893     11.1008E-03     94.7836E-03    -24.1164E+06    -64.1295E+06    -8.00153E+06    -10.2415E+06    -54.0144E-03     106.685E-03    -52.6703E-03     87.8605E-03    -54.4653E-03     106.846E-03    -52.5824E-03     86.9341E-03
             894     11.9546E-03     94.8716E-03    -21.4040E+06    -42.0176E+06    -6.24508E+06    -8.31353E+06    -54.0177E-03     106.644E-03    -52.6259E-03     91.8322E-03    -54.6269E-03     107.046E-03    -52.5652E-03     90.8176E-03
             895     12.8088E-03     94.9655E-03    -18.9099E+06    -10.2584E+06    -6.67302E+06    -5.49605E+06    -53.9880E-03     106.546E-03    -52.5575E-03     96.2143E-03    -54.8314E-03     107.305E-03    -52.5486E-03     95.1076E-03
             896     13.6629E-03     95.0623E-03    -16.2015E+06     66.3248E+06     7.12362E+06    -2.39962E+06    -53.7034E-03     106.198E-03    -52.4942E-03     97.9739E-03    -54.8500E-03     107.502E-03    -52.5313E-03     96.8436E-03
             897     14.5168E-03     95.1598E-03    -12.1948E+06     129.523E+06     39.1530E+06    -200.884E+03    -52.9760E-03     105.514E-03    -52.5379E-03     86.0358E-03    -54.2322E-03     107.073E-03    -52.5122E-03     85.0117E-03
             898     15.3723E-03     95.2328E-03    -8.75040E+06     138.876E+06     72.7046E+06     156.050E+03    -52.5096E-03     105.184E-03    -52.6745E-03     70.4450E-03    -53.7520E-03     106.678E-03    -52.4997E-03     69.5356E-03
             899     16.2214E-03     95.2991E-03    -5.12234E+06     136.670E+06     89.1732E+06     34.9688E+03    -51.8645E-03     104.607E-03    -52.7428E-03     36.3115E-03    -52.7389E-03     105.690E-03    -52.4876E-03     35.6780E-03
             900     853.689E-06     95.1948E-03    -70.9762E+06    -164.383E+06    -69.1903E+06    -1.63721E+06    -52.8879E-03     105.760E-03    -52.8719E-03     9.55135E-03    -52.9056E-03     105.143E-03    -52.8765E-03     9.49647E-03
             901     1.70724E-03     95.2081E-03    -68.6552E+06    -160.110E+06    -62.9869E+06    -2.79276E+06    -52.8843E-03     105.766E-03    -52.8819E-03     17.4953E-03    -52.9088E-03     105.161E-03    -52.8652E-03     17.3960E-03
             902     2.56110E-03     95.2297E-03    -64.8919E+06    -153.500E+06    -53.5484E+06    -4.18518E+06    -52.9261E-03     105.818E-03    -52.8914E-03     25.6959E-03    -52.9609E-03     105.232E-03    -52.8425E-03     25.5446E-03
             903     3.41469E-03     95.2592E-03    -60.4133E+06    -145.391E+06    -43.7330E+06    -5.84878E+06    -52.9784E-03     105.876E-03    -52.8972E-03     33.7881E-03    -53.0256E-03     105.319E-03    -52.8174E-03     33.5772E-03
             904     4.26863E-03     95.2970E-03    -55.4445E+06    -136.357E+06    -34.8013E+06    -7.47858E+06    -53.0615E-03     105.955E-03    -52.8930E-03     41.6418E-03    -53.1224E-03     105.435E-03    -52.7889E-03     41.3667E-03
             905     5.12240E-03     95.3421E-03    -50.5758E+06    -126.612E+06    -26.8086E+06    -9.05457E+06    -53.1527E-03     106.034E-03    -52.8810E-03     49.1290E-03    -53.2322E-03     105.562E-03    -52.7581E-03     48.7843E-03
             906     5.97645E-03     95.3946E-03    -46.1303E+06    -118.583E+06    -20.5847E+06    -10.6930E+06    -53.2573E-03     106.118E-03    -52.8609E-03     56.2902E-03    -53.3581E-03     105.694E-03    -52.7250E-03     55.8684E-03
             907     6.83045E-03     95.4540E-03    -41.6859E+06    -110.175E+06    -15.7881E+06    -11.8111E+06    -53.3916E-03     106.224E-03    -52.8325E-03     63.0428E-03    -53.5193E-03     105.859E-03    -52.6913E-03     62.5431E-03
             908     7.68434E-03     95.5196E-03    -37.6058E+06    -102.684E+06    -12.1564E+06    -12.7301E+06    -53.5223E-03     106.323E-03    -52.8011E-03     69.3305E-03    -53.6844E-03     106.023E-03    -52.6584E-03     68.7476E-03
             909     8.53872E-03     95.5916E-03    -33.8379E+06    -96.4379E+06    -10.3905E+06    -13.3653E+06    -53.6547E-03     106.418E-03    -52.7634E-03     75.1524E-03    -53.8597E-03     106.191E-03    -52.6264E-03     74.4807E-03
             910     9.39253E-03     95.6684E-03    -30.4210E+06    -87.3870E+06    -9.33105E+06    -13.4983E+06    -53.7756E-03     106.496E-03    -52.7201E-03     80.4323E-03    -54.0413E-03     106.370E-03    -52.5959E-03     79.6704E-03
             911     10.2470E-03     95.7509E-03    -27.2213E+06    -78.2440E+06    -8.61819E+06    -13.1541E+06    -53.9127E-03     106.592E-03    -52.6794E-03     84.7788E-03    -54.2564E-03     106.586E-03    -52.5696E-03     83.9233E-03
             912     11.1009E-03     95.8361E-03    -24.3095E+06    -64.9466E+06     -9.0793E+06    -12.2245E+06    -53.9698E-03     106.602E-03    -52.6326E-03     88.0864E-03    -54.4186E-03     106.761E-03    -52.5485E-03     87.1365E-03
             913     11.9552E-03     95.9251E-03    -21.5588E+06    -44.2072E+06    -7.60030E+06    -10.2409E+06    -54.0303E-03     106.619E-03    -52.5887E-03     92.2145E-03    -54.6356E-03     107.013E-03    -52.5313E-03     91.1763E-03
             914     12.8092E-03     96.0181E-03    -19.1618E+06    -14.1905E+06    -8.45089E+06    -7.46419E+06    -54.0677E-03     106.592E-03    -52.5244E-03     96.6910E-03    -54.9046E-03     107.335E-03    -52.5183E-03     95.5590E-03
             915     13.6634E-03     96.1160E-03    -16.6680E+06     63.0484E+06     5.49522E+06    -4.26323E+06    -53.7523E-03     106.218E-03    -52.4654E-03     98.4365E-03    -54.8959E-03     107.510E-03    -52.5051E-03     97.2831E-03
             916     14.5181E-03     96.2126E-03    -13.8353E+06     127.361E+06     36.0920E+06    -1.66440E+06    -52.9812E-03     105.485E-03    -52.5038E-03     86.4955E-03    -54.2424E-03     107.045E-03    -52.4879E-03     85.4523E-03
             917     15.3709E-03     96.2868E-03    -9.26239E+06     138.260E+06     70.4982E+06     388.653E+03    -52.0820E-03     104.712E-03    -52.6299E-03     70.7718E-03    -53.3194E-03     106.203E-03    -52.4644E-03     69.8787E-03
             918     16.2307E-03     96.3519E-03    -4.64849E+06     137.494E+06     89.4744E+06     819.418E+03    -51.8859E-03     104.583E-03    -52.6972E-03     36.0811E-03    -52.7541E-03     105.663E-03    -52.4425E-03     35.4658E-03
             919     853.572E-06     96.2482E-03    -70.2532E+06    -161.002E+06    -68.7190E+06    -1.68635E+06    -52.8997E-03     105.703E-03    -52.8032E-03     9.52245E-03    -52.9194E-03     105.101E-03    -52.8115E-03     9.46701E-03
             920     1.70736E-03     96.2614E-03    -67.7871E+06    -156.325E+06    -61.9405E+06    -2.98417E+06    -52.8596E-03     105.715E-03    -52.8555E-03     17.5295E-03    -52.8868E-03     105.126E-03    -52.8402E-03     17.4279E-03
             921     2.56100E-03     96.2830E-03    -64.1337E+06    -149.646E+06    -53.0938E+06    -4.74804E+06    -52.8812E-03     105.741E-03    -52.8601E-03     25.7364E-03    -52.9184E-03     105.174E-03    -52.8156E-03     25.5782E-03
             922     3.41493E-03     96.3126E-03    -59.6149E+06    -140.971E+06    -43.6387E+06    -6.61609E+06    -52.9439E-03     105.804E-03    -52.8601E-03     33.8225E-03    -52.9936E-03     105.268E-03    -52.7875E-03     33.6021E-03
             923     4.26867E-03     96.3501E-03    -55.0053E+06    -132.437E+06    -34.7456E+06    -8.48223E+06    -53.0109E-03     105.866E-03    -52.8551E-03     41.6816E-03    -53.0753E-03     105.366E-03    -52.7571E-03     41.3942E-03
             924     5.12271E-03     96.3954E-03    -50.1876E+06    -122.861E+06    -26.9178E+06    -10.0524E+06    -53.0903E-03     105.929E-03    -52.8390E-03     49.1705E-03    -53.1729E-03     105.476E-03    -52.7227E-03     48.8138E-03
             925     5.97657E-03     96.4476E-03    -45.5203E+06    -114.516E+06    -20.2647E+06    -11.5532E+06    -53.1904E-03     106.007E-03    -52.8163E-03     56.3589E-03    -53.2943E-03     105.601E-03    -52.6856E-03     55.9271E-03
             926     6.83068E-03     96.5070E-03    -41.3767E+06    -106.963E+06    -15.7847E+06    -13.0233E+06    -53.3036E-03     106.087E-03    -52.7834E-03     63.1880E-03    -53.4341E-03     105.737E-03    -52.6472E-03     62.6745E-03
             927     7.68488E-03     96.5727E-03    -37.3210E+06    -99.8132E+06    -12.3037E+06    -14.0297E+06    -53.4319E-03     106.178E-03    -52.7463E-03     69.5307E-03    -53.5962E-03     105.891E-03    -52.6090E-03     68.9331E-03
             928     8.53886E-03     96.6442E-03    -33.7233E+06    -94.0301E+06    -10.5741E+06    -14.8033E+06    -53.5813E-03     106.287E-03    -52.7054E-03     75.4117E-03    -53.7884E-03     106.071E-03    -52.5730E-03     74.7239E-03
             929     9.39335E-03     96.7216E-03    -30.3488E+06    -85.9819E+06    -9.82214E+06    -15.1644E+06    -53.7316E-03     106.392E-03    -52.6607E-03     80.7293E-03    -53.9982E-03     106.274E-03    -52.5411E-03     79.9476E-03
             930     10.2473E-03     96.8033E-03    -27.3032E+06    -77.4110E+06    -9.27209E+06    -14.9661E+06    -53.8355E-03     106.454E-03    -52.6186E-03     85.2278E-03    -54.1793E-03     106.453E-03    -52.5131E-03     84.3525E-03
             931     11.1016E-03     96.8896E-03    -24.5175E+06    -65.3649E+06    -9.92431E+06    -14.1580E+06    -53.9206E-03     106.491E-03    -52.5705E-03     88.5902E-03    -54.3682E-03     106.648E-03    -52.4898E-03     87.6188E-03
             932     11.9558E-03     96.9773E-03    -21.8543E+06    -46.8194E+06    -9.20665E+06    -12.4150E+06    -53.9863E-03     106.511E-03    -52.5251E-03     92.7119E-03    -54.5866E-03     106.895E-03    -52.4716E-03     91.6489E-03
             933     12.8100E-03     97.0721E-03    -19.2325E+06    -17.0240E+06    -9.58271E+06    -9.55914E+06    -54.0764E-03     106.540E-03    -52.4637E-03     97.3566E-03    -54.9086E-03     107.271E-03    -52.4591E-03     96.2009E-03
             934     13.6639E-03     97.1683E-03    -16.9084E+06     59.0277E+06     4.09649E+06    -5.71883E+06    -53.8337E-03     106.243E-03    -52.4094E-03     99.0661E-03    -54.9733E-03     107.520E-03    -52.4500E-03     97.8943E-03
             935     14.5176E-03     97.2668E-03    -14.1618E+06     124.318E+06     33.7737E+06    -1.96353E+06    -53.0142E-03     105.461E-03    -52.4466E-03     87.1006E-03    -54.2718E-03     107.011E-03    -52.4375E-03     86.0561E-03
             936     15.3735E-03     97.3391E-03    -10.4813E+06     137.116E+06     67.7022E+06    -401.452E+03    -52.3375E-03     104.916E-03    -52.5788E-03     70.5981E-03    -53.5761E-03     106.408E-03    -52.4239E-03     69.6869E-03
             937     16.2233E-03     97.4046E-03    -4.71086E+06     137.065E+06     88.5505E+06     125.256E+03    -51.8110E-03     104.471E-03    -52.6605E-03     35.9223E-03    -52.6773E-03     105.551E-03    -52.4096E-03     35.2901E-03
             938     853.819E-06     97.3013E-03    -69.1328E+06    -157.093E+06    -67.7582E+06    -1.95262E+06    -52.7847E-03     105.575E-03    -52.7906E-03     9.53025E-03    -52.8058E-03     104.990E-03    -52.8014E-03     9.47163E-03
             939     1.70741E-03     97.3148E-03    -66.6761E+06    -152.312E+06    -61.2912E+06    -3.48275E+06    -52.8097E-03     105.602E-03    -52.7920E-03     17.5504E-03    -52.8380E-03     105.030E-03    -52.7810E-03     17.4426E-03
             940     2.56126E-03     97.3361E-03    -62.9711E+06    -145.058E+06    -52.4852E+06    -5.36909E+06    -52.8437E-03     105.645E-03    -52.8010E-03     25.7847E-03    -52.8826E-03     105.097E-03    -52.7618E-03     25.6189E-03
             941     3.41499E-03     97.3658E-03    -58.6798E+06    -136.320E+06    -42.8451E+06    -7.42567E+06    -52.8863E-03     105.691E-03    -52.8046E-03     33.8779E-03    -52.9391E-03     105.176E-03    -52.7361E-03     33.6477E-03
             942     4.26896E-03     97.4033E-03    -53.8564E+06    -127.745E+06    -33.7485E+06    -9.36396E+06    -52.9327E-03     105.730E-03    -52.7976E-03     41.7220E-03    -52.9995E-03     105.250E-03    -52.7030E-03     41.4240E-03
             943     5.12285E-03     97.4483E-03    -49.1451E+06     -118.76E+06    -26.2469E+06    -11.1330E+06    -52.9827E-03     105.757E-03    -52.7745E-03     49.2897E-03    -53.0669E-03     105.321E-03    -52.6623E-03     48.9205E-03
             944     5.97705E-03     97.5006E-03    -44.6037E+06    -110.822E+06    -19.9849E+06    -12.5750E+06    -53.0768E-03     105.820E-03    -52.7431E-03     56.5427E-03    -53.1815E-03     105.431E-03    -52.6176E-03     56.0999E-03
             945     6.83116E-03     97.5598E-03    -40.3845E+06    -103.045E+06    -15.1526E+06    -13.8904E+06    -53.1741E-03     105.878E-03    -52.7041E-03     63.4040E-03    -53.3057E-03     105.545E-03    -52.5719E-03     62.8820E-03
             946     7.68540E-03     97.6254E-03    -36.6958E+06    -96.6268E+06    -11.9441E+06    -15.2210E+06    -53.2912E-03     105.951E-03    -52.6598E-03     69.8246E-03    -53.4569E-03     105.678E-03    -52.5262E-03     69.2150E-03
             947     8.53983E-03     97.6971E-03    -33.1435E+06    -91.4065E+06    -10.3289E+06    -16.0915E+06    -53.4667E-03     106.080E-03    -52.6134E-03     75.8303E-03    -53.6743E-03     105.875E-03    -52.4845E-03     75.1299E-03
             948     9.39387E-03     97.7741E-03    -30.0525E+06    -83.9010E+06    -9.81377E+06    -16.6081E+06    -53.6146E-03     106.179E-03    -52.5646E-03     81.2451E-03    -53.8820E-03     106.071E-03    -52.4484E-03     80.4491E-03
             949     10.2484E-03     97.8563E-03    -27.1056E+06    -76.3001E+06    -9.46722E+06    -16.6914E+06    -53.7149E-03     106.234E-03    -52.5189E-03     85.7879E-03    -54.0582E-03     106.237E-03    -52.4163E-03     84.8952E-03
             950     11.1028E-03     97.9418E-03    -24.2473E+06    -65.3361E+06    -10.2675E+06    -16.1574E+06    -53.8461E-03     106.315E-03    -52.4691E-03     89.3506E-03    -54.2917E-03     106.472E-03    -52.3905E-03     88.3581E-03
             951     11.9567E-03     98.0310E-03    -21.5683E+06    -48.0091E+06    -9.63189E+06    -14.6124E+06    -53.9770E-03     106.403E-03    -52.4264E-03     93.3979E-03    -54.5738E-03     106.781E-03    -52.3737E-03     92.3102E-03
             952     12.8113E-03     98.1237E-03    -19.0534E+06    -20.9204E+06    -10.9161E+06    -11.8434E+06    -54.0292E-03     106.396E-03    -52.3663E-03     98.2201E-03    -54.8534E-03     107.109E-03    -52.3629E-03     97.0404E-03
             953     13.6653E-03     98.2232E-03    -16.5438E+06     53.1165E+06     2.60025E+06    -6.93226E+06    -53.8886E-03     106.205E-03    -52.3166E-03     99.9229E-03    -55.0156E-03     107.454E-03    -52.3566E-03     98.7398E-03
             954     14.5202E-03     98.3184E-03    -14.1636E+06     120.895E+06     30.9123E+06    -2.07095E+06    -53.2748E-03     105.630E-03    -52.3556E-03     87.6621E-03    -54.5209E-03     107.166E-03    -52.3558E-03     86.6155E-03
             955     15.3727E-03     98.3942E-03    -10.6486E+06     136.524E+06     64.5053E+06    -435.771E+03    -52.4615E-03     104.957E-03    -52.4954E-03     71.6163E-03    -53.6982E-03     106.453E-03    -52.3554E-03     70.7060E-03
             956     16.2300E-03     98.4583E-03    -4.76898E+06     136.923E+06     88.0336E+06    -655.031E+03    -51.9297E-03     104.528E-03    -52.5980E-03     37.0065E-03    -52.8012E-03     105.613E-03    -52.3495E-03     36.3627E-03
             957     853.637E-06     98.3547E-03    -67.5904E+06    -152.485E+06    -66.1387E+06    -2.15503E+06    -52.7363E-03     105.426E-03    -52.6895E-03     9.56488E-03    -52.7587E-03     104.859E-03    -52.7011E-03     9.50406E-03
             958     1.70763E-03     98.3677E-03    -65.0786E+06    -147.483E+06    -59.9515E+06    -4.10858E+06    -52.7265E-03     105.440E-03    -52.7140E-03     17.5498E-03    -52.7558E-03     104.889E-03    -52.7055E-03     17.4344E-03
             959     2.56137E-03     98.3894E-03    -61.4564E+06    -140.068E+06    -51.1375E+06    -6.24901E+06    -52.7508E-03     105.470E-03    -52.7191E-03     25.8243E-03    -52.7913E-03     104.943E-03    -52.6826E-03     25.6479E-03
             960     3.41532E-03     98.4187E-03    -56.9613E+06    -131.316E+06    -41.5743E+06    -8.29810E+06    -52.7749E-03     105.491E-03    -52.7164E-03     33.9790E-03    -52.8281E-03     104.997E-03    -52.6513E-03     33.7387E-03
             961     4.26926E-03     98.4563E-03    -52.3419E+06    -122.899E+06    -32.6335E+06    -10.2389E+06    -52.7816E-03     105.481E-03    -52.6998E-03     41.8628E-03    -52.8493E-03     105.022E-03    -52.6088E-03     41.5554E-03
             962     5.12347E-03     98.5010E-03    -47.6821E+06    -114.269E+06    -25.1670E+06    -12.0490E+06    -52.8312E-03     105.498E-03    -52.6669E-03     49.5221E-03    -52.9158E-03     105.081E-03    -52.5579E-03     49.1435E-03
             963     5.97762E-03     98.5534E-03    -43.2818E+06    -106.834E+06    -19.0584E+06    -13.4966E+06    -52.9087E-03     105.535E-03    -52.6267E-03     56.8112E-03    -53.0134E-03     105.163E-03    -52.5043E-03     56.3597E-03
             964     6.83198E-03     98.6124E-03    -39.1823E+06    -99.4264E+06    -14.3925E+06    -14.8585E+06    -52.9976E-03     105.577E-03    -52.5791E-03     63.7309E-03    -53.1289E-03     105.258E-03    -52.4501E-03     63.2003E-03
             965     7.68640E-03     98.6780E-03    -35.3795E+06    -92.8225E+06    -10.8243E+06    -16.1084E+06    -53.1173E-03     105.646E-03    -52.5287E-03     70.2541E-03    -53.2826E-03     105.388E-03    -52.3969E-03     69.6378E-03
             966     8.54079E-03     98.7494E-03    -32.1318E+06    -88.4329E+06    -9.31866E+06    -17.1766E+06    -53.2466E-03     105.722E-03    -52.4749E-03     76.3621E-03    -53.4538E-03     105.528E-03    -52.3467E-03     75.6537E-03
             967     9.39548E-03     98.8268E-03    -29.0423E+06    -81.3162E+06    -8.88597E+06    -17.9127E+06    -53.4171E-03     105.834E-03    -52.4173E-03     81.9260E-03    -53.6832E-03     105.735E-03    -52.3018E-03     81.1201E-03
             968     10.2499E-03     98.9084E-03    -26.2284E+06    -74.7356E+06    -8.73282E+06    -18.2763E+06    -53.6073E-03     105.976E-03    -52.3691E-03     86.5244E-03    -53.9492E-03     105.985E-03    -52.2663E-03     85.6162E-03
             969     11.1042E-03     98.9947E-03    -23.7041E+06    -64.5896E+06    -9.80446E+06    -17.9706E+06    -53.7219E-03     106.041E-03    -52.3193E-03     90.1972E-03    -54.1657E-03     106.200E-03    -52.2403E-03     89.1880E-03
             970     11.9590E-03     99.0831E-03    -21.2096E+06    -48.8649E+06    -9.45562E+06    -16.6973E+06    -53.9342E-03     106.213E-03    -52.2793E-03     94.3811E-03    -54.5291E-03     106.587E-03    -52.2249E-03     93.2713E-03
             971     12.8126E-03     99.1775E-03    -19.0613E+06    -24.8224E+06    -11.6530E+06    -13.7773E+06    -54.1509E-03     106.380E-03    -52.2287E-03     99.0177E-03    -54.9699E-03     107.077E-03    -52.2233E-03     97.8136E-03
             972     13.6675E-03     99.2746E-03    -17.0971E+06     45.7858E+06     826.404E+03    -8.51201E+06    -54.0751E-03     106.270E-03    -52.1949E-03     100.689E-03    -55.1943E-03     107.489E-03    -52.2324E-03     99.4835E-03
             973     14.5204E-03     99.3739E-03    -13.7543E+06     116.222E+06     26.9770E+06    -3.03891E+06    -53.3613E-03     105.592E-03    -52.2308E-03     88.2267E-03    -54.5967E-03     107.113E-03    -52.2445E-03     87.1657E-03
             974     15.3756E-03     99.4460E-03    -9.57852E+06     137.287E+06     61.6013E+06    -1.26029E+06    -52.5522E-03     104.929E-03    -52.3766E-03     71.7069E-03    -53.7842E-03     106.436E-03    -52.2538E-03     70.7839E-03
             975     16.2283E-03     99.5112E-03    -5.31692E+06     136.563E+06     87.3783E+06    -1.19500E+06    -52.6054E-03     105.125E-03    -52.5195E-03     36.6841E-03    -53.4816E-03     106.214E-03    -52.2729E-03     36.0239E-03
             976     854.019E-06     99.4074E-03    -65.4041E+06    -146.963E+06    -63.8896E+06    -2.44087E+06    -52.6498E-03     105.186E-03    -52.5360E-03     9.67076E-03    -52.6726E-03     104.640E-03    -52.5475E-03     9.60682E-03
             977     1.70763E-03     99.4210E-03    -62.9780E+06    -141.933E+06    -57.7796E+06    -4.84267E+06    -52.6151E-03     105.211E-03    -52.5954E-03     17.6334E-03    -52.6451E-03     104.681E-03    -52.5872E-03     17.5092E-03
             978     2.56172E-03     99.4420E-03    -59.3369E+06    -134.590E+06    -49.3974E+06    -7.03826E+06    -52.5813E-03     105.174E-03    -52.5923E-03     25.9593E-03    -52.6215E-03     104.669E-03    -52.5581E-03     25.7740E-03
             979     3.41573E-03     99.4718E-03    -55.0424E+06    -126.119E+06    -40.1172E+06    -9.19887E+06    -52.5627E-03     105.135E-03    -52.5719E-03     34.1348E-03    -52.6157E-03     104.661E-03    -52.5098E-03     33.8850E-03
             980     4.26996E-03     99.5087E-03    -50.3462E+06    -117.947E+06    -31.2047E+06    -11.1542E+06    -52.5782E-03     105.119E-03    -52.5409E-03     42.0764E-03    -52.6448E-03     104.679E-03    -52.4529E-03     41.7598E-03
             981     5.12425E-03     99.5537E-03    -45.8116E+06    -109.508E+06    -23.5423E+06    -12.8892E+06    -52.6205E-03     105.120E-03    -52.4998E-03     49.8000E-03    -52.7044E-03     104.721E-03    -52.3923E-03     49.4142E-03
             982     5.97867E-03     99.6057E-03    -41.4420E+06    -102.801E+06    -17.5142E+06    -14.3885E+06    -52.6722E-03     105.123E-03    -52.4507E-03     57.1645E-03    -52.7751E-03     104.765E-03    -52.3291E-03     56.7059E-03
             983     6.83321E-03     99.6646E-03    -37.3497E+06    -95.2534E+06    -12.7947E+06    -15.7444E+06    -52.7499E-03     105.143E-03    -52.3930E-03     64.2060E-03    -52.8793E-03     104.839E-03    -52.2647E-03     63.6695E-03
             984     7.68783E-03     99.7301E-03    -33.7176E+06    -89.2972E+06    -9.27368E+06    -16.9228E+06    -52.8530E-03     105.186E-03    -52.3334E-03     70.8577E-03    -53.0162E-03     104.940E-03    -52.2014E-03     70.2374E-03
             985     8.54257E-03     99.8016E-03    -30.3962E+06    -84.7588E+06    -7.45790E+06    -17.9962E+06    -52.9903E-03     105.262E-03    -52.2716E-03     77.0676E-03    -53.1954E-03     105.080E-03    -52.1419E-03     76.3560E-03
             986     9.39733E-03     99.8785E-03    -27.6231E+06    -78.5848E+06    -7.38438E+06    -19.0009E+06    -53.1903E-03     105.398E-03    -52.2076E-03     82.7621E-03    -53.4541E-03     105.306E-03    -52.0905E-03     81.9501E-03
             987     10.2520E-03     99.9611E-03    -25.1223E+06    -72.5977E+06    -7.37467E+06    -19.4073E+06    -53.4346E-03     105.592E-03    -52.1574E-03     87.4641E-03    -53.7747E-03     105.607E-03    -52.0526E-03     86.5495E-03
             988     11.1068E-03     100.046E-03    -22.8898E+06    -63.3955E+06    -8.69223E+06    -19.3615E+06    -53.6658E-03     105.778E-03    -52.1123E-03     91.1423E-03    -54.1082E-03     105.939E-03    -52.0306E-03     90.1215E-03
             989     11.9609E-03     100.136E-03    -20.9984E+06    -49.7369E+06    -8.98819E+06    -18.2360E+06    -53.9342E-03     106.017E-03    -52.0823E-03     95.3752E-03    -54.5272E-03     106.385E-03    -52.0247E-03     94.2509E-03
             990     12.8159E-03     100.230E-03    -19.1797E+06    -28.2289E+06    -11.6475E+06    -15.3761E+06    -54.3594E-03     106.410E-03    -52.0501E-03     100.088E-03    -55.1771E-03     107.093E-03    -52.0396E-03     98.8628E-03
             991     13.6686E-03     100.329E-03    -16.9452E+06     38.6937E+06      184.67E+03    -10.1928E+06    -54.3468E-03     106.387E-03    -52.0407E-03     101.800E-03    -55.4598E-03     107.577E-03    -52.0713E-03     100.571E-03
             992     14.5237E-03     100.426E-03    -13.9075E+06     111.433E+06     23.5665E+06    -5.25619E+06    -53.5859E-03     105.667E-03    -52.0810E-03     88.7631E-03    -54.8158E-03     107.175E-03    -52.1046E-03     87.6715E-03
             993     15.3770E-03     100.500E-03    -9.14210E+06     136.806E+06     57.8698E+06    -2.60838E+06    -53.3322E-03     105.584E-03    -52.2519E-03     72.3012E-03    -54.5623E-03     107.100E-03    -52.1476E-03     71.3399E-03
             994     16.2306E-03     100.567E-03    -5.01883E+06     135.635E+06     86.6354E+06    -925.441E+03    -53.0349E-03     105.482E-03    -52.4470E-03     37.2907E-03    -53.9106E-03     106.570E-03    -52.2033E-03     36.6181E-03
             995     853.913E-06     100.461E-03    -62.7535E+06    -140.765E+06    -61.4344E+06    -2.81330E+06    -52.4110E-03     104.792E-03    -52.3810E-03     9.81201E-03    -52.4330E-03     104.270E-03    -52.3931E-03     9.74412E-03
             996     1.70816E-03     100.473E-03    -60.3257E+06    -135.594E+06    -55.3020E+06    -5.40427E+06    -52.3971E-03     104.790E-03    -52.3930E-03     17.7457E-03    -52.4266E-03     104.284E-03    -52.3855E-03     17.6154E-03
             997     2.56215E-03     100.495E-03    -56.8470E+06    -128.732E+06    -47.1635E+06    -7.89456E+06    -52.3425E-03     104.723E-03    -52.3802E-03     26.1127E-03    -52.3819E-03     104.240E-03    -52.3469E-03     25.9182E-03
             998     3.41651E-03     100.524E-03    -52.5859E+06    -120.594E+06    -37.9907E+06    -10.0526E+06    -52.2906E-03     104.639E-03    -52.3480E-03     34.3490E-03    -52.3422E-03     104.186E-03    -52.2868E-03     34.0909E-03
             999     4.27095E-03     100.561E-03    -48.0928E+06    -112.779E+06    -29.2530E+06    -12.1781E+06    -52.3049E-03     104.610E-03    -52.3054E-03     42.3867E-03    -52.3701E-03     104.189E-03    -52.2184E-03     42.0607E-03
            1000     5.12542E-03     100.606E-03    -43.4741E+06    -104.845E+06    -21.6039E+06    -13.7067E+06    -52.3107E-03     104.565E-03    -52.2538E-03     50.1751E-03    -52.3918E-03     104.182E-03    -52.1468E-03     49.7836E-03
            1001     5.98019E-03     100.658E-03    -39.1226E+06    -98.0896E+06    -15.3435E+06    -15.2960E+06    -52.3390E-03     104.532E-03    -52.1930E-03     57.6819E-03    -52.4393E-03     104.190E-03    -52.0707E-03     57.2178E-03
            1002     6.83498E-03     100.716E-03    -35.1086E+06    -91.3276E+06    -10.8085E+06    -16.5268E+06    -52.4015E-03     104.524E-03    -52.1226E-03     64.8531E-03    -52.5270E-03     104.232E-03    -51.9933E-03     64.3141E-03
            1003     7.68998E-03     100.782E-03    -31.5008E+06    -85.4394E+06    -7.24686E+06    -17.5926E+06    -52.5002E-03     104.552E-03    -52.0514E-03     71.6367E-03    -52.6591E-03     104.316E-03    -51.9181E-03     71.0168E-03
            1004     8.54507E-03     100.853E-03    -28.4223E+06    -81.3277E+06    -5.54652E+06    -18.7340E+06    -52.7007E-03     104.683E-03    -51.9824E-03     78.0108E-03    -52.9019E-03     104.511E-03    -51.8510E-03     77.2992E-03
            1005     9.39998E-03     100.930E-03    -25.7757E+06    -75.3594E+06    -5.32050E+06    -19.5058E+06    -52.9439E-03     104.861E-03    -51.9175E-03     83.8579E-03    -53.2043E-03     104.778E-03    -51.7975E-03     83.0494E-03
            1006     10.2551E-03     101.012E-03    -23.6114E+06    -70.0468E+06    -5.54177E+06    -20.1643E+06    -53.2306E-03     105.099E-03    -51.8686E-03     88.7167E-03    -53.5673E-03     105.120E-03    -51.7605E-03     87.8035E-03
            1007     11.1096E-03     101.099E-03    -21.8039E+06    -62.1366E+06    -7.25645E+06    -20.1352E+06    -53.6306E-03     105.463E-03    -51.8321E-03     92.5632E-03    -54.0710E-03     105.626E-03    -51.7466E-03     91.5408E-03
            1008     11.9644E-03     101.188E-03    -20.1718E+06    -50.0571E+06    -7.83063E+06    -19.1786E+06    -54.0556E-03     105.877E-03    -51.8214E-03     96.8509E-03    -54.6461E-03     106.241E-03    -51.7588E-03     95.7204E-03
            1009     12.8179E-03     101.283E-03    -18.6466E+06    -31.4773E+06    -11.2276E+06    -16.7434E+06    -54.5068E-03     106.318E-03    -51.8111E-03     101.881E-03    -55.3207E-03     106.986E-03    -51.7945E-03     100.644E-03
            1010     13.6726E-03     101.382E-03    -16.3646E+06     32.4828E+06     738.572E+03    -12.3347E+06    -54.6545E-03     106.485E-03    -51.8302E-03     103.197E-03    -55.7580E-03     107.643E-03    -51.8498E-03     101.943E-03
            1011     14.5252E-03     101.480E-03    -12.8312E+06     106.714E+06     21.4754E+06    -6.93827E+06    -54.3559E-03     106.250E-03    -51.8941E-03     90.1618E-03    -55.5747E-03     107.740E-03    -51.9229E-03     89.0371E-03
            1012     15.3785E-03     101.554E-03    -9.85848E+06     134.179E+06     52.5392E+06    -3.30692E+06    -53.8138E-03     105.903E-03    -52.0896E-03     73.9295E-03    -55.0406E-03     107.419E-03    -52.0071E-03     72.9519E-03
            1013     16.2308E-03     101.621E-03    -5.02289E+06     133.547E+06     85.1045E+06    -1.41016E+06    -53.0958E-03     105.417E-03    -52.3215E-03     38.1412E-03    -53.9661E-03     106.497E-03    -52.0823E-03     37.4628E-03
            1014     854.336E-06     101.512E-03    -59.5488E+06    -133.751E+06    -58.5112E+06    -3.22286E+06    -52.0948E-03     104.223E-03    -52.1279E-03     9.82107E-03    -52.1151E-03     103.727E-03    -52.1402E-03     9.74843E-03
            1015     1.70853E-03     101.526E-03    -57.3156E+06    -128.879E+06    -52.5870E+06    -5.90995E+06    -52.0303E-03     104.121E-03    -52.0902E-03     17.8896E-03    -52.0582E-03     103.640E-03    -52.0832E-03     17.7546E-03
            1016     2.56303E-03     101.547E-03    -53.9387E+06    -122.087E+06    -44.2842E+06    -8.60137E+06    -51.9931E-03     104.050E-03    -52.0568E-03     26.2999E-03    -52.0315E-03     103.592E-03    -52.0230E-03     26.0988E-03
            1017     3.41761E-03     101.576E-03    -49.9558E+06    -114.777E+06    -35.5943E+06    -11.0445E+06    -51.9530E-03     103.970E-03    -52.0173E-03     34.6639E-03    -52.0030E-03     103.539E-03    -51.9564E-03     34.3965E-03
            1018     4.27226E-03     101.613E-03    -45.3949E+06    -107.123E+06    -26.9201E+06    -12.9843E+06    -51.8990E-03     103.864E-03    -51.9651E-03     42.8110E-03    -51.9616E-03     103.463E-03    -51.8786E-03     42.4799E-03
            1019     5.12730E-03     101.657E-03    -40.9164E+06    -100.269E+06    -19.5363E+06    -14.7499E+06    -51.8757E-03     103.774E-03    -51.8982E-03     50.7289E-03    -51.9527E-03     103.406E-03    -51.7912E-03     50.3305E-03
            1020     5.98229E-03     101.709E-03    -36.6035E+06    -93.2784E+06    -13.3185E+06    -16.0563E+06    -51.8898E-03     103.711E-03    -51.8214E-03     58.4041E-03    -51.9860E-03     103.385E-03    -51.6997E-03     57.9387E-03
            1021     6.83761E-03     101.767E-03    -32.6780E+06    -87.5895E+06    -8.68714E+06    -17.3265E+06    -51.9397E-03     103.679E-03    -51.7391E-03     65.7117E-03    -52.0597E-03     103.397E-03    -51.6081E-03     65.1726E-03
            1022     7.69299E-03     101.833E-03    -29.1632E+06    -81.6344E+06    -5.34257E+06    -18.1833E+06    -52.0780E-03     103.734E-03    -51.6561E-03     72.7145E-03    -52.2311E-03     103.509E-03    -51.5221E-03     72.0989E-03
            1023     8.54831E-03     101.904E-03    -26.1099E+06    -77.6961E+06    -3.17710E+06    -19.2165E+06    -52.3083E-03     103.892E-03    -51.5834E-03     79.3193E-03    -52.5041E-03     103.728E-03    -51.4488E-03     78.6145E-03
            1024     9.40384E-03     101.981E-03    -23.6591E+06    -72.5612E+06    -3.20219E+06    -19.8237E+06    -52.6038E-03     104.120E-03    -51.5162E-03     85.3791E-03    -52.8577E-03     104.042E-03    -51.3927E-03     84.5811E-03
            1025     10.2589E-03     102.064E-03    -21.7336E+06    -66.7397E+06    -2.99523E+06    -20.3208E+06    -53.0050E-03     104.478E-03    -51.4725E-03     90.5694E-03    -53.3386E-03     104.506E-03    -51.3592E-03     89.6683E-03
            1026     11.1142E-03     102.150E-03    -20.1716E+06    -61.0247E+06    -5.23697E+06    -20.5277E+06    -53.5163E-03     104.963E-03    -51.4470E-03     94.7163E-03    -53.9513E-03     105.125E-03    -51.3555E-03     93.7029E-03
            1027     11.9683E-03     102.241E-03    -18.8311E+06    -49.7916E+06    -5.95185E+06    -19.6509E+06    -54.1313E-03     105.587E-03    -51.4555E-03     99.1796E-03    -54.7190E-03     105.948E-03    -51.3858E-03     98.0537E-03
            1028     12.8231E-03     102.335E-03    -17.3755E+06    -33.4204E+06    -9.55200E+06    -17.9207E+06    -54.7887E-03     106.264E-03    -51.4756E-03     104.289E-03    -55.5971E-03     106.920E-03    -51.4497E-03     103.045E-03
            1029     13.6758E-03     102.436E-03    -15.3837E+06     27.2032E+06     2.20842E+06    -14.1140E+06    -55.1821E-03     106.719E-03    -51.5373E-03     105.532E-03    -56.2811E-03     107.854E-03    -51.5434E-03     104.254E-03
            1030     14.5298E-03     102.534E-03    -12.9289E+06     100.315E+06     20.3193E+06    -8.45297E+06    -54.8935E-03     106.527E-03    -51.6334E-03     92.5703E-03    -56.1118E-03     107.997E-03    -51.6585E-03     91.4207E-03
            1031     15.3818E-03     102.610E-03    -8.97349E+06     131.328E+06     48.8485E+06    -3.68459E+06    -54.1630E-03     106.007E-03    -51.8437E-03     75.8062E-03    -55.3820E-03     107.518E-03    -51.7769E-03     74.8242E-03
            1032     16.2363E-03     102.674E-03    -4.85947E+06     132.148E+06     83.5280E+06    -1.76420E+06    -54.1594E-03     106.291E-03    -52.1311E-03     39.4429E-03    -55.0304E-03     107.371E-03    -51.8981E-03     38.7460E-03
            1033     854.460E-06     102.564E-03    -55.7940E+06    -125.887E+06    -54.7456E+06    -3.77091E+06    -51.6592E-03     103.348E-03    -51.6887E-03     9.81976E-03    -51.6777E-03     102.880E-03    -51.6990E-03     9.74072E-03
            1034     1.70933E-03     102.577E-03    -53.7463E+06    -121.558E+06    -49.2291E+06    -6.47549E+06    -51.5499E-03     103.193E-03    -51.6428E-03     18.0876E-03    -51.5754E-03     102.739E-03    -51.6347E-03     17.9477E-03
            1035     2.56423E-03     102.598E-03    -50.6325E+06    -115.319E+06    -41.5032E+06    -9.09467E+06    -51.5123E-03     103.107E-03    -51.5943E-03     26.6258E-03    -51.5478E-03     102.673E-03    -51.5612E-03     26.4221E-03
            1036     3.41910E-03     102.627E-03    -46.8280E+06    -108.125E+06    -32.8081E+06    -11.6550E+06    -51.4425E-03     102.988E-03    -51.5450E-03     35.0697E-03    -51.4901E-03     102.580E-03    -51.4844E-03     34.7998E-03
            1037     4.27440E-03     102.663E-03    -42.7565E+06    -101.319E+06    -24.7829E+06    -13.9082E+06    -51.3435E-03     102.821E-03    -51.4773E-03     43.3936E-03    -51.4036E-03     102.441E-03    -51.3923E-03     43.0575E-03
            1038     5.12969E-03     102.708E-03    -38.4169E+06    -95.2369E+06    -17.5823E+06    -15.6108E+06    -51.2940E-03     102.688E-03    -51.3941E-03     51.4963E-03    -51.3673E-03     102.338E-03    -51.2882E-03     51.0960E-03
            1039     5.98541E-03     102.759E-03    -34.3184E+06    -89.0682E+06    -11.7254E+06    -16.9311E+06    -51.2739E-03     102.573E-03    -51.2996E-03     59.3556E-03    -51.3652E-03     102.261E-03    -51.1793E-03     58.8904E-03
            1040     6.84114E-03     102.818E-03    -30.5486E+06    -83.5353E+06    -6.82781E+06     -17.904E+06    -51.3422E-03     102.546E-03    -51.2034E-03     66.9517E-03    -51.4576E-03     102.276E-03    -51.0722E-03     66.4190E-03
            1041     7.69704E-03     102.882E-03    -27.1544E+06    -78.1537E+06    -3.50271E+06    -18.8861E+06    -51.5027E-03     102.613E-03    -51.1099E-03     74.2448E-03    -51.6504E-03     102.397E-03    -50.9748E-03     73.6360E-03
            1042     8.55309E-03     102.954E-03    -24.2268E+06    -74.2188E+06    -1.11630E+06    -19.5207E+06    -51.7524E-03     102.782E-03    -51.0299E-03     81.1784E-03    -51.9429E-03     102.626E-03    -50.8927E-03     80.4882E-03
            1043     9.40876E-03     103.031E-03    -21.8627E+06    -69.8481E+06    -787.660E+03    -19.9345E+06    -52.1543E-03     103.117E-03    -50.9624E-03     87.5746E-03    -52.4027E-03     103.042E-03    -50.8333E-03     86.7947E-03
            1044     10.2648E-03     103.114E-03    -20.0628E+06     -63.803E+06    -324.383E+03    -20.1858E+06    -52.6918E-03     103.617E-03    -50.9255E-03     93.0765E-03    -53.0215E-03     103.650E-03    -50.8055E-03     92.1966E-03
            1045     11.1197E-03     103.201E-03    -18.8402E+06    -59.2996E+06    -2.29305E+06    -20.3317E+06    -53.3639E-03     104.282E-03    -50.9184E-03     97.4728E-03    -53.7963E-03     104.444E-03    -50.8166E-03     96.4804E-03
            1046     11.9751E-03     103.292E-03    -17.9105E+06    -49.2348E+06    -3.43938E+06    -19.7157E+06    -54.2212E-03     105.174E-03    -50.9530E-03     102.102E-03    -54.8085E-03     105.533E-03    -50.8728E-03     100.990E-03
            1047     12.8284E-03     103.389E-03    -17.3054E+06    -34.2766E+06    -6.74061E+06    -18.3493E+06    -55.1968E-03     106.215E-03    -51.0184E-03     107.163E-03    -56.0104E-03     106.865E-03    -50.9773E-03     105.921E-03
            1048     13.6825E-03     103.489E-03    -16.0568E+06     23.4042E+06     4.43648E+06    -15.4019E+06    -55.8387E-03     106.974E-03    -51.1355E-03     108.502E-03    -56.9488E-03     108.098E-03    -51.1240E-03     107.206E-03
            1049     14.5341E-03     103.590E-03    -12.6289E+06     93.8995E+06     21.6344E+06    -10.7027E+06    -55.5633E-03     106.849E-03    -51.2857E-03     94.4502E-03    -56.7823E-03     108.294E-03    -51.2954E-03     93.2664E-03
            1050     15.3879E-03     103.663E-03    -7.82829E+06     126.488E+06     49.1316E+06    -5.46194E+06    -55.4367E-03     106.994E-03    -51.5572E-03     76.6435E-03    -56.6528E-03     108.489E-03    -51.4836E-03     75.6119E-03
            1051     16.2384E-03     103.731E-03    -3.93025E+06     130.455E+06     83.1218E+06    -1.38347E+06    -55.6833E-03     107.607E-03    -51.9241E-03     40.1059E-03    -56.5551E-03     108.687E-03    -51.6920E-03     39.3803E-03
            1052     855.243E-06     103.614E-03    -52.6615E+06    -117.530E+06    -51.4278E+06    -4.12357E+06    -51.0285E-03     102.036E-03    -51.0072E-03     9.94331E-03    -51.0481E-03     101.600E-03    -51.0176E-03     9.86143E-03
            1053     1.71042E-03     103.627E-03    -50.5453E+06    -113.695E+06    -46.3709E+06    -6.87141E+06    -50.9575E-03     101.955E-03    -50.9975E-03     18.3182E-03    -50.9823E-03     101.531E-03    -50.9912E-03     18.1761E-03
            1054     2.56572E-03     103.648E-03    -47.6026E+06    -108.172E+06    -39.0773E+06    -9.71991E+06    -50.8279E-03     101.780E-03    -50.9519E-03     27.0257E-03    -50.8617E-03     101.374E-03    -50.9214E-03     26.8189E-03
            1055     3.42141E-03     103.677E-03    -43.9737E+06    -101.451E+06    -30.8457E+06    -12.1365E+06    -50.6947E-03     101.575E-03    -50.8804E-03     35.6518E-03    -50.7397E-03     101.193E-03    -50.8237E-03     35.3829E-03
            1056     4.27713E-03     103.713E-03    -40.2322E+06    -95.0904E+06    -22.7698E+06    -14.3799E+06    -50.5959E-03     101.389E-03    -50.7933E-03     44.1963E-03    -50.6541E-03     101.033E-03    -50.7110E-03     43.8636E-03
            1057     5.13331E-03     103.757E-03    -36.4660E+06    -90.0406E+06    -16.0010E+06    -16.3117E+06    -50.4978E-03     101.190E-03    -50.6917E-03     52.5501E-03    -50.5694E-03     100.858E-03    -50.5883E-03     52.1531E-03
            1058     5.98951E-03     103.808E-03    -32.6234E+06    -84.6302E+06    -10.3247E+06    -17.5843E+06    -50.4585E-03     101.037E-03    -50.5780E-03     60.7032E-03    -50.5471E-03     100.739E-03    -50.4596E-03     60.2448E-03
            1059     6.84616E-03     103.866E-03    -29.1014E+06    -79.7100E+06    -5.51021E+06    -18.4518E+06    -50.5190E-03     100.983E-03    -50.4643E-03     68.6663E-03    -50.6311E-03     100.725E-03    -50.3340E-03     68.1450E-03
            1060     7.70276E-03     103.931E-03    -25.9768E+06    -74.5794E+06    -2.04198E+06    -19.2458E+06    -50.7008E-03     101.057E-03    -50.3566E-03     76.3434E-03    -50.8456E-03     100.851E-03    -50.2210E-03     75.7512E-03
            1061     8.55935E-03     104.003E-03    -23.2686E+06    -71.1273E+06     516.639E+03    -19.7452E+06    -51.0348E-03     101.304E-03    -50.2690E-03     83.6419E-03    -51.2221E-03     101.154E-03    -50.1295E-03     82.9727E-03
            1062     9.41621E-03     104.080E-03    -20.9588E+06     -66.972E+06     1.19840E+06    -20.0140E+06    -51.5767E-03     101.781E-03    -50.2038E-03     90.4646E-03    -51.8223E-03     101.710E-03    -50.0703E-03     89.7084E-03
            1063     10.2719E-03     104.164E-03    -19.1965E+06    -61.9859E+06     1.54323E+06    -19.9637E+06    -52.3060E-03     102.486E-03    -50.1797E-03     96.3167E-03    -52.6317E-03     102.519E-03    -50.0543E-03     95.4644E-03
            1064     11.1282E-03     104.251E-03    -17.8700E+06    -56.8496E+06     331.603E+03    -19.7923E+06    -53.2618E-03     103.463E-03    -50.2016E-03     101.046E-03    -53.6937E-03     103.629E-03    -50.0916E-03     100.083E-03
            1065     11.9824E-03     104.344E-03    -16.7994E+06    -48.5315E+06    -887.171E+03    -19.4491E+06    -54.4297E-03     104.710E-03    -50.2803E-03     105.873E-03    -55.0161E-03     105.067E-03    -50.1900E-03     104.781E-03
            1066     12.8371E-03     104.441E-03    -15.9926E+06    -35.0470E+06    -4.09693E+06    -17.8622E+06    -55.7597E-03     106.165E-03    -50.4053E-03     111.029E-03    -56.5746E-03     106.811E-03    -50.3518E-03     109.802E-03
            1067     13.6890E-03     104.544E-03    -14.7737E+06     22.0399E+06     8.16847E+06    -15.9430E+06    -56.6538E-03     107.252E-03    -50.5980E-03     112.027E-03    -57.7685E-03     108.369E-03    -50.5677E-03     110.725E-03
            1068     14.5420E-03     104.644E-03    -12.8258E+06     88.3381E+06     25.6340E+06    -12.2382E+06    -57.0429E-03     107.890E-03    -50.8475E-03     97.4197E-03    -58.2706E-03     109.312E-03    -50.8288E-03     96.1994E-03
            1069     15.3915E-03     104.720E-03    -10.5068E+06     119.425E+06     47.6015E+06    -6.05365E+06    -57.4262E-03     108.638E-03    -51.2121E-03     79.6269E-03    -58.6640E-03     110.125E-03    -51.1320E-03     78.5507E-03
            1070     16.2413E-03     104.790E-03    -4.86536E+06     126.804E+06     80.3286E+06    -1.93559E+06    -57.2500E-03     108.923E-03    -51.6734E-03     41.7687E-03    -58.1312E-03     110.005E-03    -51.4485E-03     41.0074E-03
            1071     855.910E-06     104.664E-03    -49.1912E+06    -108.565E+06    -48.3559E+06    -4.08725E+06    -50.1697E-03     100.293E-03    -50.1232E-03     10.1520E-03    -50.1894E-03     99.8928E-03    -50.1362E-03     10.0731E-03
            1072     1.71182E-03     104.676E-03    -47.7176E+06    -105.516E+06    -43.8926E+06    -7.32356E+06    -50.0791E-03     100.201E-03    -50.1216E-03     18.6311E-03    -50.1051E-03     99.8099E-03    -50.1189E-03     18.4873E-03
            1073     2.56797E-03     104.697E-03    -44.9826E+06    -100.541E+06    -37.2662E+06    -10.2903E+06    -49.8746E-03     99.9345E-03    -50.0598E-03     27.5562E-03    -49.9085E-03     99.5597E-03    -50.0352E-03     27.3487E-03
            1074     3.42439E-03     104.725E-03    -41.7026E+06    -94.9821E+06    -29.4155E+06    -12.7021E+06    -49.7070E-03     99.6722E-03    -49.9652E-03     36.4753E-03    -49.7512E-03     99.3163E-03    -49.9140E-03     36.2086E-03
            1075     4.28116E-03     104.761E-03    -38.0321E+06    -88.8607E+06    -21.3678E+06    -14.6189E+06    -49.5554E-03     99.4097E-03    -49.8543E-03     45.2563E-03    -49.6120E-03     99.0776E-03    -49.7771E-03     44.9332E-03
            1076     5.13802E-03     104.804E-03    -34.5396E+06    -84.4863E+06    -14.4109E+06    -16.4750E+06    -49.4264E-03     99.1566E-03    -49.7301E-03     53.9363E-03    -49.4962E-03     98.8455E-03    -49.6296E-03     53.5532E-03
            1077     5.99545E-03     104.855E-03    -31.3467E+06    -80.2618E+06    -9.17360E+06    -17.7984E+06    -49.3771E-03     98.9713E-03    -49.5942E-03     62.4895E-03    -49.4638E-03     98.6883E-03    -49.4782E-03     62.0480E-03
            1078     6.85277E-03     104.913E-03    -28.3630E+06    -75.7841E+06    -4.77684E+06    -18.6215E+06    -49.4274E-03     98.8868E-03    -49.4594E-03     70.8638E-03    -49.5379E-03     98.6413E-03    -49.3323E-03     70.3635E-03
            1079     7.71054E-03     104.978E-03    -25.8222E+06    -71.1748E+06    -1.25916E+06    -19.1114E+06    -49.6583E-03     98.9956E-03    -49.3373E-03     79.0152E-03    -49.8024E-03     98.7990E-03    -49.2030E-03     78.4518E-03
            1080     8.56823E-03     105.050E-03    -23.6546E+06    -67.9256E+06     1.32856E+06    -19.5114E+06    -50.1476E-03     99.3931E-03    -49.2455E-03     86.7914E-03    -50.3361E-03     99.2525E-03    -49.1060E-03     86.1541E-03
            1081     9.42524E-03     105.128E-03    -21.8524E+06    -64.4374E+06     2.04722E+06    -19.9385E+06    -50.8626E-03     100.053E-03    -49.1901E-03     94.0910E-03    -51.1105E-03     99.9883E-03    -49.0547E-03     93.3663E-03
            1082     10.2827E-03     105.212E-03    -19.9907E+06    -60.2208E+06     2.66546E+06    -19.9719E+06    -51.8763E-03     101.067E-03    -49.1911E-03     100.398E-03    -52.2043E-03     101.103E-03    -49.0615E-03     99.5752E-03
            1083     11.1381E-03     105.301E-03    -18.2998E+06    -54.9201E+06     2.10662E+06    -19.6464E+06    -53.2080E-03     102.466E-03    -49.2576E-03     105.541E-03    -53.6439E-03     102.635E-03    -49.1409E-03     104.604E-03
            1084     11.9939E-03     105.394E-03    -16.8865E+06    -47.2323E+06     1.88102E+06    -19.3472E+06    -54.7962E-03     104.200E-03    -49.4042E-03     110.509E-03    -55.3908E-03     104.562E-03    -49.3018E-03     109.434E-03
            1085     12.8468E-03     105.493E-03    -15.1821E+06    -35.9667E+06    -1.14905E+06    -18.3206E+06    -56.5646E-03     106.178E-03    -49.6134E-03     115.687E-03    -57.3859E-03     106.821E-03    -49.5450E-03     114.460E-03
            1086     13.6997E-03     105.599E-03    -13.2923E+06     21.8041E+06     13.1479E+06    -16.1538E+06    -57.9727E-03     107.888E-03    -49.9156E-03     115.990E-03    -59.1020E-03     109.010E-03    -49.8622E-03     114.673E-03
            1087     14.5502E-03     105.700E-03    -11.1202E+06     82.1487E+06     30.0855E+06    -11.7171E+06    -58.7981E-03     109.088E-03    -50.2902E-03     101.233E-03    -60.0387E-03     110.494E-03    -50.2428E-03     99.9899E-03
            1088     15.3995E-03     105.780E-03    -8.29035E+06     112.962E+06     49.6481E+06    -6.27756E+06    -59.3546E-03     110.123E-03    -50.7680E-03     82.9368E-03    -60.6014E-03     111.597E-03    -50.6715E-03     81.8204E-03
            1089     16.2486E-03     105.846E-03    -4.52706E+06     125.141E+06     80.5125E+06    -2.61347E+06    -60.3097E-03     111.675E-03    -51.3652E-03     43.7774E-03    -61.2065E-03     112.767E-03    -51.1375E-03     42.9552E-03
            1090     856.869E-06     105.710E-03    -46.3082E+06    -99.3228E+06    -45.4479E+06    -4.21817E+06    -48.9975E-03     97.9693E-03    -48.9718E-03     10.4902E-03    -49.0203E-03     97.6069E-03    -48.9879E-03     10.4126E-03
            1091     1.71379E-03     105.723E-03    -44.7955E+06    -96.8636E+06    -41.5034E+06    -7.68612E+06    -48.8099E-03     97.7450E-03    -48.9351E-03     19.0824E-03    -48.8370E-03     97.3894E-03    -48.9372E-03     18.9394E-03
            1092     2.57108E-03     105.743E-03    -42.6434E+06     -92.878E+06    -35.6459E+06    -10.5754E+06    -48.6338E-03     97.4771E-03    -48.8433E-03     28.2645E-03    -48.6687E-03     97.1342E-03    -48.8250E-03     28.0617E-03
            1093     3.42854E-03     105.771E-03    -39.9430E+06    -88.2538E+06    -28.5286E+06    -12.9532E+06    -48.4027E-03     97.1325E-03    -48.7299E-03     37.4734E-03    -48.4477E-03     96.8051E-03    -48.6866E-03     37.2152E-03
            1094     4.28632E-03     105.806E-03    -36.9719E+06    -83.4644E+06    -21.3071E+06    -14.7330E+06    -48.1669E-03     96.7578E-03    -48.5909E-03     46.6181E-03    -48.2239E-03     96.4489E-03    -48.5228E-03     46.3091E-03
            1095     5.14468E-03     105.850E-03    -34.1372E+06    -79.1961E+06    -14.5029E+06    -16.0303E+06    -48.0239E-03     96.4625E-03    -48.4385E-03     55.7034E-03    -48.0959E-03     96.1740E-03    -48.3467E-03     55.3458E-03
            1096     6.00300E-03     105.900E-03    -31.6216E+06    -75.7369E+06    -9.22221E+06    -17.3151E+06    -47.9623E-03     96.2430E-03    -48.2807E-03     64.6878E-03    -48.0523E-03     95.9785E-03    -48.1712E-03     64.2764E-03
            1097     6.86197E-03     105.958E-03    -29.4283E+06    -71.9548E+06    -5.15205E+06    -18.0153E+06    -48.0618E-03     96.1899E-03    -48.1280E-03     73.5572E-03    -48.1766E-03     95.9595E-03    -48.0068E-03     73.0927E-03
            1098     7.72072E-03     106.023E-03    -27.7284E+06    -68.0538E+06    -1.71367E+06    -18.1770E+06    -48.4014E-03     96.4008E-03    -47.9994E-03     82.2312E-03    -48.5516E-03     96.2158E-03    -47.8691E-03     81.7113E-03
            1099     8.57942E-03     106.095E-03    -26.4085E+06    -64.7235E+06     925.990E+03    -18.6033E+06    -49.0465E-03     96.9589E-03    -47.9124E-03     90.5908E-03    -49.2445E-03     96.8306E-03    -47.7756E-03     89.9993E-03
            1100     9.43809E-03     106.173E-03    -25.0320E+06    -61.5202E+06     2.27085E+06    -19.2585E+06    -50.0948E-03     97.9777E-03    -47.8829E-03     98.3807E-03    -50.3552E-03     97.9242E-03    -47.7461E-03     97.6984E-03
            1101     10.2952E-03     106.258E-03    -23.7198E+06    -57.7219E+06     3.02724E+06    -19.9048E+06    -51.5135E-03     99.4455E-03    -47.9320E-03     105.115E-03    -51.8580E-03     99.4920E-03    -47.7988E-03     104.324E-03
            1102     11.1523E-03     106.349E-03    -21.9273E+06    -53.2932E+06     2.91981E+06    -20.1750E+06    -53.3050E-03     101.377E-03    -48.0715E-03     110.492E-03    -53.7598E-03     101.556E-03    -47.9479E-03     109.574E-03
            1103     12.0065E-03     106.445E-03    -19.7002E+06    -45.5966E+06     3.60207E+06    -20.0442E+06    -55.4442E-03     103.760E-03    -48.3153E-03     115.530E-03    -56.0614E-03     104.135E-03    -48.2026E-03     114.459E-03
            1104     12.8604E-03     106.547E-03    -17.3737E+06    -35.1797E+06     1.62357E+06    -19.9652E+06    -57.7939E-03     106.442E-03    -48.6483E-03     120.446E-03    -58.6446E-03     107.102E-03    -48.5640E-03     119.193E-03
            1105     13.7110E-03     106.653E-03    -14.2361E+06     19.6293E+06     16.0445E+06    -17.6242E+06    -59.8552E-03     108.951E-03    -49.0957E-03     120.359E-03    -61.0168E-03     110.085E-03    -49.0233E-03     118.992E-03
            1106     14.5601E-03     106.759E-03    -10.2541E+06     75.9537E+06     33.2038E+06    -12.7079E+06    -61.0759E-03     110.709E-03    -49.6334E-03     104.420E-03    -62.3385E-03     112.109E-03    -49.5627E-03     103.116E-03
            1107     15.4084E-03     106.838E-03    -6.51209E+06     107.010E+06     52.9721E+06    -6.39954E+06    -62.3453E-03     112.631E-03    -50.2861E-03     84.6932E-03    -63.6044E-03     114.094E-03    -50.1670E-03     83.5024E-03
            1108     16.2530E-03     106.911E-03    -4.81627E+06     122.512E+06     80.6794E+06    -1.49715E+06    -63.9711E-03     115.033E-03    -51.0623E-03     45.1104E-03    -64.8810E-03     116.127E-03    -50.8295E-03     44.2285E-03
            1109     858.044E-06     106.755E-03    -44.2536E+06    -89.8312E+06    -43.4119E+06    -4.33275E+06    -47.4298E-03     94.7995E-03    -47.3698E-03     10.7428E-03    -47.4590E-03     94.4784E-03    -47.3924E-03     10.6671E-03
            1110     1.71660E-03     106.767E-03    -43.0854E+06    -88.0012E+06    -40.2192E+06    -7.75809E+06    -47.2056E-03     94.5484E-03    -47.3427E-03     19.6488E-03    -47.2385E-03     94.2322E-03    -47.3538E-03     19.5115E-03
            1111     2.57508E-03     106.786E-03    -41.4505E+06    -85.3901E+06    -35.3024E+06    -10.5177E+06    -46.9923E-03     94.2286E-03    -47.2363E-03     29.1158E-03    -47.0317E-03     93.9199E-03    -47.2289E-03     28.9238E-03
            1112     3.43397E-03     106.814E-03    -39.6524E+06    -81.8738E+06    -29.3462E+06    -12.5100E+06    -46.6915E-03     93.7906E-03    -47.0991E-03     38.6526E-03    -46.7416E-03     93.4940E-03    -47.0696E-03     38.4141E-03
            1113     4.29346E-03     106.849E-03    -37.8752E+06    -78.3075E+06    -23.0307E+06    -14.0339E+06    -46.4276E-03     93.3622E-03    -46.9346E-03     48.2305E-03    -46.4915E-03     93.0801E-03    -46.8813E-03     47.9489E-03
            1114     5.15303E-03     106.892E-03    -35.9891E+06    -74.6024E+06    -16.7930E+06    -14.9731E+06    -46.2364E-03     92.9936E-03    -46.7572E-03     57.7519E-03    -46.3169E-03     92.7299E-03    -46.6808E-03     57.4310E-03
            1115     6.01332E-03     106.941E-03    -34.5148E+06    -71.6207E+06    -11.2600E+06    -15.7032E+06    -46.2171E-03     92.7995E-03    -46.5824E-03     67.2501E-03    -46.3189E-03     92.5569E-03    -46.4848E-03     66.8869E-03
            1116     6.87342E-03     106.999E-03    -33.5971E+06    -68.5893E+06    -7.03047E+06    -16.1179E+06    -46.4428E-03     92.8687E-03    -46.4259E-03     76.6531E-03    -46.5733E-03     92.6566E-03    -46.3129E-03     76.2443E-03
            1117     7.73382E-03     107.064E-03    -32.7075E+06    -65.0564E+06    -3.36858E+06    -16.3682E+06    -46.9637E-03     93.2722E-03    -46.3085E-03     85.8571E-03    -47.1322E-03     93.1032E-03    -46.1836E-03     85.3946E-03
            1118     8.59394E-03     107.137E-03    -31.6556E+06    -61.4034E+06    -223.002E+03    -17.0129E+06    -47.9061E-03     94.1572E-03    -46.2511E-03     94.7358E-03    -48.1241E-03     94.0453E-03    -46.1173E-03     94.2004E-03
            1119     9.45308E-03     107.216E-03    -30.6077E+06    -58.0338E+06     1.69115E+06    -18.0575E+06    -49.3912E-03     95.6678E-03    -46.2766E-03     103.030E-03    -49.6753E-03     95.6321E-03    -46.1396E-03     102.397E-03
            1120     10.3117E-03     107.304E-03    -29.1295E+06    -54.2506E+06     2.87258E+06    -19.4165E+06    -51.3670E-03     97.7757E-03    -46.4087E-03     110.066E-03    -51.7373E-03     97.8417E-03    -46.2735E-03     109.309E-03
            1121     11.1676E-03     107.396E-03    -26.8912E+06    -50.1915E+06     3.13413E+06    -21.1074E+06    -53.7423E-03     100.402E-03    -46.6597E-03     115.720E-03    -54.2262E-03     100.603E-03    -46.5323E-03     114.808E-03
            1122     12.0228E-03     107.495E-03    -23.5185E+06    -43.7925E+06     4.00714E+06    -22.1594E+06    -56.5126E-03     103.552E-03    -47.0397E-03     120.790E-03    -57.1592E-03     103.949E-03    -46.9221E-03     119.696E-03
            1123     12.8744E-03     107.599E-03    -20.3039E+06    -34.0746E+06     2.88287E+06    -21.6422E+06    -59.5880E-03     107.125E-03    -47.5373E-03     125.534E-03    -60.4776E-03     107.814E-03    -47.4440E-03     124.239E-03
            1124     13.7243E-03     107.711E-03    -17.4313E+06     18.1568E+06     17.1165E+06    -19.9751E+06    -62.2146E-03     110.384E-03    -48.1693E-03     124.848E-03    -63.4237E-03     111.546E-03    -48.0848E-03     123.406E-03
            1125     14.5717E-03     107.818E-03    -13.9837E+06     68.5446E+06     32.8585E+06    -14.6069E+06    -64.3126E-03     113.227E-03    -48.9141E-03     108.088E-03    -65.6182E-03     114.631E-03    -48.8290E-03     106.686E-03
            1126     15.4146E-03     107.902E-03    -10.5275E+06     98.8094E+06     49.6306E+06    -6.62128E+06    -66.3440E-03     116.128E-03    -49.7836E-03     88.2559E-03    -67.6510E-03     117.604E-03    -49.6635E-03     86.9532E-03
            1127     16.2569E-03     107.977E-03    -4.60146E+06     119.120E+06     78.7277E+06    -1.77708E+06    -67.5529E-03     118.325E-03    -50.7720E-03     47.5524E-03    -68.4829E-03     119.433E-03    -50.5444E-03     46.5826E-03
            1128     860.069E-06     107.795E-03    -43.0528E+06    -80.3469E+06    -42.6318E+06    -4.18923E+06    -45.3541E-03     90.7134E-03    -45.3593E-03     10.9315E-03    -45.3921E-03     90.4366E-03    -45.3935E-03     10.8616E-03
            1129     1.71993E-03     107.807E-03    -42.8219E+06    -79.5580E+06    -40.4711E+06    -7.19261E+06    -45.1685E-03     90.4648E-03    -45.2963E-03     20.2765E-03    -45.2114E-03     90.1903E-03    -45.3213E-03     20.1540E-03
            1130     2.58030E-03     107.826E-03    -42.3956E+06    -78.5002E+06    -37.0950E+06    -9.71489E+06    -44.8794E-03     90.0552E-03    -45.1759E-03     30.0562E-03    -44.9299E-03     89.7837E-03    -45.1861E-03     29.8859E-03
            1131     3.44118E-03     107.853E-03    -41.6916E+06    -76.4124E+06    -32.4856E+06    -11.2579E+06    -44.5837E-03     89.6020E-03    -45.0184E-03     39.9647E-03    -44.6453E-03     89.3382E-03    -45.0095E-03     39.7578E-03
            1132     4.30217E-03     107.888E-03    -41.1083E+06    -73.6513E+06    -26.7939E+06    -12.0373E+06    -44.2926E-03     89.1330E-03    -44.8404E-03     49.9313E-03    -44.3707E-03     88.8809E-03    -44.8079E-03     49.6955E-03
            1133     5.16395E-03     107.929E-03    -40.8931E+06    -70.9328E+06    -20.9108E+06    -12.5790E+06    -44.1137E-03     88.7668E-03    -44.6531E-03     59.9487E-03    -44.2133E-03     88.5296E-03    -44.5955E-03     59.6832E-03
            1134     6.02577E-03     107.979E-03    -40.8255E+06    -68.4714E+06    -15.1310E+06    -12.5921E+06    -44.2058E-03     88.6859E-03    -44.4802E-03     69.9749E-03    -44.3316E-03     88.4672E-03    -44.3973E-03     69.6809E-03
            1135     6.88795E-03     108.037E-03    -40.5615E+06    -65.2289E+06    -9.83037E+06    -13.0889E+06    -44.6415E-03     88.9867E-03    -44.3453E-03     79.9038E-03    -44.7996E-03     88.7975E-03    -44.2410E-03     79.5662E-03
            1136     7.74972E-03     108.102E-03    -39.5744E+06    -61.7655E+06    -5.50555E+06    -14.1711E+06    -45.5132E-03     89.7840E-03    -44.2708E-03     89.6078E-03    -45.7085E-03     89.6353E-03    -44.1514E-03     89.2072E-03
            1137     8.61091E-03     108.176E-03    -37.8527E+06    -57.7532E+06    -1.70935E+06    -15.4345E+06    -46.9248E-03     91.2084E-03    -44.2837E-03     98.9789E-03    -47.1677E-03     91.1168E-03    -44.1536E-03     98.4970E-03
            1138     9.47131E-03     108.257E-03    -35.2741E+06    -53.8764E+06     1.32010E+06    -17.2838E+06    -48.9238E-03     93.3317E-03    -44.4080E-03     107.744E-03    -49.2285E-03     93.3161E-03    -44.2721E-03     107.152E-03
            1139     10.3294E-03     108.347E-03    -32.2068E+06    -50.0173E+06     3.11319E+06    -19.3710E+06    -51.4930E-03     96.1555E-03    -44.6625E-03     115.181E-03    -51.8807E-03     96.2423E-03    -44.5277E-03     114.448E-03
            1140     11.1864E-03     108.443E-03    -28.9200E+06    -44.8984E+06     4.37160E+06    -22.0650E+06    -54.5541E-03     99.6178E-03    -45.0636E-03     121.129E-03    -55.0591E-03     99.8482E-03    -44.9347E-03     120.216E-03
            1141     12.0396E-03     108.545E-03    -25.6188E+06    -40.8075E+06     4.95840E+06    -24.2654E+06    -58.0482E-03     103.668E-03    -45.6199E-03     126.407E-03    -58.7225E-03     104.093E-03    -45.4988E-03     125.281E-03
            1142     12.8909E-03     108.654E-03    -21.7794E+06    -34.1097E+06     3.81296E+06    -24.2384E+06    -61.8473E-03     108.165E-03    -46.3177E-03     131.132E-03    -62.7718E-03     108.881E-03    -46.2176E-03     129.772E-03
            1143     13.7381E-03     108.769E-03    -18.0350E+06     17.1951E+06     18.7458E+06    -21.1039E+06    -65.1760E-03     112.346E-03    -47.1702E-03     129.773E-03    -66.4303E-03     113.544E-03    -47.0752E-03     128.250E-03
            1144     14.5823E-03     108.881E-03    -15.0050E+06     59.8182E+06     32.2739E+06    -15.2812E+06    -67.9236E-03     116.072E-03    -48.1486E-03     113.061E-03    -69.2734E-03     117.488E-03    -48.0522E-03     111.555E-03
            1145     15.4242E-03     108.969E-03    -10.4876E+06     90.1961E+06     47.3921E+06    -8.42562E+06    -70.3101E-03     119.556E-03    -49.2455E-03     92.7350E-03    -71.6573E-03     121.049E-03    -49.1241E-03     91.2930E-03
            1146     16.2624E-03     109.047E-03    -5.46733E+06     116.292E+06     77.2102E+06    -3.37349E+06    -71.8349E-03     122.300E-03    -50.4652E-03     50.2794E-03    -72.7978E-03     123.433E-03    -50.2399E-03     49.1863E-03
            1147     861.953E-06     108.831E-03    -44.6385E+06    -71.9367E+06    -44.2250E+06    -3.55418E+06    -42.8088E-03     85.6737E-03    -42.8649E-03     11.3226E-03    -42.8645E-03     85.4432E-03    -42.9169E-03     11.2650E-03
            1148     1.72431E-03     108.843E-03    -45.2168E+06    -72.5669E+06    -43.3866E+06    -5.84553E+06    -42.6131E-03     85.3782E-03    -42.7652E-03     20.8697E-03    -42.6734E-03     85.1456E-03    -42.8113E-03     20.7725E-03
            1149     2.58692E-03     108.861E-03    -46.1040E+06    -72.6772E+06    -41.3085E+06    -7.49013E+06    -42.3470E-03     84.9813E-03    -42.6342E-03     30.9814E-03    -42.4172E-03     84.7489E-03    -42.6686E-03     30.8517E-03
            1150     3.44969E-03     108.888E-03    -47.3521E+06    -72.3083E+06    -38.0783E+06    -8.43099E+06    -42.0505E-03     84.5252E-03    -42.4748E-03     41.2675E-03    -42.1360E-03     84.2958E-03    -42.4916E-03     41.1132E-03
            1151     4.31321E-03     108.921E-03    -48.4621E+06    -70.6812E+06    -33.2102E+06    -8.55982E+06    -41.7991E-03     84.0985E-03    -42.2993E-03     51.6383E-03    -41.9054E-03     83.8775E-03    -42.2926E-03     51.4676E-03
            1152     5.17688E-03     108.963E-03    -49.2846E+06    -68.2430E+06    -26.4642E+06    -8.38076E+06    -41.7779E-03     83.9122E-03    -42.1343E-03     62.1415E-03    -41.9101E-03     83.7034E-03    -42.0962E-03     61.9545E-03
            1153     6.04090E-03     109.013E-03    -49.2191E+06    -65.4429E+06    -19.2414E+06    -8.91045E+06    -42.0896E-03     84.0937E-03    -42.0040E-03     72.6272E-03    -42.2490E-03     83.9013E-03    -41.9340E-03     72.4082E-03
            1154     6.90468E-03     109.070E-03    -47.7919E+06    -61.6675E+06    -12.7943E+06    -10.2739E+06    -42.8626E-03     84.7928E-03    -41.9303E-03     83.0347E-03    -43.0495E-03     84.6279E-03    -41.8355E-03     82.7632E-03
            1155     7.76803E-03     109.137E-03    -45.3649E+06    -57.5631E+06    -7.29951E+06    -12.4283E+06    -44.2070E-03     86.1509E-03    -41.9439E-03     93.2248E-03    -44.4258E-03     86.0252E-03    -41.8312E-03     92.8772E-03
            1156     8.63037E-03     109.212E-03    -41.8628E+06    -53.0671E+06    -2.53309E+06    -14.9828E+06    -46.1688E-03     88.2413E-03    -42.0725E-03     103.161E-03    -46.4288E-03     88.1716E-03    -41.9475E-03     102.714E-03
            1157     9.49083E-03     109.296E-03    -37.6762E+06    -48.7306E+06     1.13064E+06    -17.9203E+06    -48.7343E-03     91.0700E-03    -42.3357E-03     112.439E-03    -49.0512E-03     91.0769E-03    -42.2048E-03     111.864E-03
            1158     10.3499E-03     109.388E-03    -32.7937E+06    -45.0971E+06     3.71910E+06    -20.9113E+06    -51.9063E-03     94.6570E-03    -42.7507E-03     120.435E-03    -52.3016E-03     94.7652E-03    -42.6191E-03     119.702E-03
            1159     11.2054E-03     109.488E-03    -28.4017E+06    -39.3836E+06     5.80947E+06    -23.2722E+06    -55.6512E-03     98.9832E-03    -43.3321E-03     126.827E-03    -56.1669E-03     99.2419E-03    -43.2047E-03     125.907E-03
            1160     12.0587E-03     109.595E-03    -24.5645E+06    -35.9375E+06     6.99007E+06    -25.9586E+06    -59.8787E-03     103.970E-03    -44.0908E-03     132.511E-03    -60.5729E-03     104.429E-03    -43.9681E-03     131.350E-03
            1161     12.9075E-03     109.709E-03    -20.6109E+06    -33.2418E+06     4.82486E+06    -27.0182E+06    -64.3731E-03     109.379E-03    -45.0060E-03     137.513E-03    -65.3254E-03     110.127E-03    -44.9038E-03     136.077E-03
            1162     13.7530E-03     109.830E-03    -16.0124E+06     13.0390E+06     18.9257E+06    -23.3701E+06    -68.5292E-03     114.625E-03    -46.0957E-03     136.090E-03    -69.8250E-03     115.856E-03    -45.9968E-03     134.452E-03
            1163     14.5950E-03     109.946E-03    -11.3504E+06     50.9794E+06     32.3123E+06    -15.8249E+06    -71.9015E-03     119.232E-03    -47.3300E-03     118.786E-03    -73.2910E-03     120.669E-03    -47.2259E-03     117.154E-03
            1164     15.4322E-03     110.040E-03    -8.91952E+06     83.5940E+06     46.5914E+06    -8.87565E+06    -74.7704E-03     123.453E-03    -48.6822E-03     97.2226E-03    -76.1581E-03     124.971E-03    -48.5575E-03     95.6362E-03
            1165     16.2676E-03     110.122E-03    -4.64806E+06     112.072E+06     76.4096E+06    -4.60646E+06    -76.5975E-03     126.756E-03    -50.1585E-03     52.7065E-03    -77.5818E-03     127.901E-03    -49.9322E-03     51.4734E-03
            1166     864.735E-06     109.861E-03    -50.8293E+06    -66.0540E+06    -50.2521E+06    -1.96212E+06    -39.7966E-03     79.6360E-03    -39.8394E-03     11.6198E-03    -39.8830E-03     79.4523E-03    -39.9212E-03     11.5870E-03
            1167     1.72950E-03     109.872E-03    -52.8275E+06    -67.8530E+06    -50.5771E+06    -3.07521E+06    -39.6290E-03     79.3811E-03    -39.7522E-03     21.3976E-03    -39.7232E-03     79.1928E-03    -39.8301E-03     21.3438E-03
            1168     2.59453E-03     109.891E-03    -55.3108E+06    -69.3839E+06    -49.6511E+06    -3.51657E+06    -39.3958E-03     79.0312E-03    -39.6354E-03     31.8283E-03    -39.5034E-03     78.8393E-03    -39.7029E-03     31.7614E-03
            1169     3.46010E-03     109.916E-03    -57.7196E+06    -69.7961E+06    -46.2375E+06    -3.62202E+06    -39.1648E-03     78.6641E-03    -39.4994E-03     42.4149E-03    -39.2915E-03     78.4715E-03    -39.5456E-03     42.3379E-03
            1170     4.32588E-03     109.950E-03    -59.1746E+06    -68.6277E+06    -40.1425E+06    -4.01522E+06    -39.1308E-03     78.4999E-03    -39.3692E-03     53.1845E-03    -39.2798E-03     78.3110E-03    -39.3846E-03     53.0910E-03
            1171     5.19192E-03     109.991E-03    -58.4634E+06    -65.9193E+06    -31.7057E+06    -4.68479E+06    -39.3876E-03     78.6617E-03    -39.2741E-03     64.0573E-03    -39.5564E-03     78.4803E-03    -39.2523E-03     63.9395E-03
            1172     6.05782E-03     110.041E-03    -55.9095E+06    -61.9520E+06    -22.7863E+06    -6.31942E+06    -40.0594E-03     79.2937E-03    -39.2343E-03     74.9947E-03    -40.2457E-03     79.1272E-03    -39.1773E-03     74.8330E-03
            1173     6.92330E-03     110.100E-03    -52.1385E+06    -57.2548E+06    -14.9963E+06    -9.12266E+06    -41.2820E-03     80.5553E-03    -39.2734E-03     85.9025E-03    -41.4862E-03     80.4144E-03    -39.1897E-03     85.6715E-03
            1174     7.78786E-03     110.168E-03    -47.2635E+06    -52.1646E+06    -8.23625E+06    -12.2593E+06    -43.1189E-03     82.5402E-03    -39.4213E-03     96.6398E-03    -43.3455E-03     82.4375E-03    -39.3183E-03     96.3204E-03
            1175     8.65088E-03     110.245E-03    -42.2176E+06    -47.2763E+06    -2.75971E+06    -15.8329E+06    -45.6045E-03     85.3064E-03    -39.7019E-03     107.178E-03    -45.8663E-03     85.2585E-03    -39.5859E-03     106.745E-03
            1176     9.51229E-03     110.332E-03    -37.0630E+06    -42.4847E+06     1.59001E+06    -19.5179E+06    -48.7436E-03     88.8774E-03    -40.1338E-03     117.113E-03    -49.0607E-03     88.9076E-03    -40.0105E-03     116.539E-03
            1177     10.3705E-03     110.428E-03    -32.2534E+06    -39.0682E+06      4.5415E+06    -23.2100E+06    -52.4978E-03     93.2304E-03    -40.7326E-03     125.819E-03    -52.8975E-03     93.3640E-03    -40.6064E-03     125.073E-03
            1178     11.2265E-03     110.533E-03    -27.4962E+06    -35.4864E+06     6.53112E+06    -25.3580E+06    -56.8443E-03     98.3531E-03    -41.5088E-03     133.016E-03    -57.3662E-03     98.6330E-03    -41.3848E-03     132.075E-03
            1179     12.0778E-03     110.645E-03    -23.5201E+06    -29.4317E+06     8.81985E+06    -27.5077E+06    -61.7253E-03     104.198E-03    -42.4732E-03     139.407E-03    -62.4420E-03     104.702E-03    -42.3523E-03     138.215E-03
            1180     12.9259E-03     110.765E-03    -19.8368E+06    -31.0709E+06     5.64597E+06    -29.7868E+06    -66.9858E-03     110.595E-03    -43.6093E-03     144.861E-03    -67.9734E-03     111.387E-03    -43.5073E-03     143.346E-03
            1181     13.7694E-03     110.892E-03    -16.1335E+06     6.95630E+06     16.8922E+06    -26.0537E+06    -72.0761E-03     117.016E-03    -44.9397E-03     143.710E-03    -73.4256E-03     118.285E-03    -44.8419E-03     141.945E-03
            1182     14.6073E-03     111.016E-03    -12.3895E+06     41.1991E+06     29.3882E+06    -17.9943E+06    -76.2344E-03     122.676E-03    -46.4419E-03     125.650E-03    -77.6890E-03     124.149E-03    -46.3367E-03     123.855E-03
            1183     15.4421E-03     111.114E-03    -6.74934E+06     75.7246E+06     43.0320E+06    -9.32388E+06    -79.4389E-03     127.495E-03    -48.0557E-03     103.967E-03    -80.8738E-03     129.051E-03    -47.9405E-03     102.221E-03
            1184     16.2714E-03     111.203E-03    -2.52703E+06     108.051E+06     74.1712E+06    -4.13288E+06    -81.8811E-03     131.688E-03    -49.8064E-03     58.1178E-03    -82.8947E-03     132.861E-03    -49.5886E-03     56.7491E-03
            1185     867.588E-06     110.884E-03    -65.4084E+06    -65.4490E+06    -63.5734E+06     1.62330E+06    -36.3707E-03     72.7799E-03    -36.4093E-03     11.7565E-03    -36.5114E-03     72.6395E-03    -36.5374E-03     11.7736E-03
            1186     1.73542E-03     110.895E-03    -68.5983E+06    -66.7973E+06    -63.8305E+06     2.01037E+06    -36.2709E-03     72.6164E-03    -36.3456E-03     21.7694E-03    -36.4258E-03     72.4748E-03    -36.4684E-03     21.7879E-03
            1187     2.60339E-03     110.913E-03    -71.0692E+06    -68.1242E+06    -61.5709E+06     1.47428E+06    -36.1492E-03     72.4231E-03    -36.2739E-03     32.3884E-03    -36.3188E-03     72.2762E-03    -36.3799E-03     32.3957E-03
            1188     3.47161E-03     110.939E-03    -71.0630E+06    -68.2464E+06    -55.5057E+06     385.684E+03    -36.1781E-03     72.3880E-03    -36.2099E-03     43.2523E-03    -36.3582E-03     72.2337E-03    -36.2854E-03     43.2397E-03
            1189     4.33992E-03     110.972E-03    -68.5199E+06    -66.2012E+06    -46.1068E+06    -1.19378E+06    -36.4710E-03     72.6528E-03    -36.1818E-03     54.3357E-03    -36.6583E-03     72.4948E-03    -36.2170E-03     54.2940E-03
            1190     5.20806E-03     111.014E-03    -64.2822E+06    -62.7332E+06    -35.9196E+06    -3.67994E+06    -37.1188E-03     73.3249E-03    -36.2062E-03     65.5591E-03    -37.3106E-03     73.1695E-03    -36.2016E-03     65.4716E-03
            1191     6.07581E-03     111.064E-03    -58.4745E+06    -57.4679E+06    -25.8002E+06    -6.69822E+06    -38.2369E-03     74.5407E-03    -36.3037E-03     76.9281E-03    -38.4325E-03     74.3990E-03    -36.2646E-03     76.7808E-03
            1192     6.94276E-03     111.125E-03    -52.0302E+06    -51.5594E+06    -16.5314E+06    -10.0956E+06    -39.9051E-03     76.4036E-03    -36.4984E-03     88.3441E-03    -40.1080E-03     76.2864E-03    -36.4309E-03     88.1214E-03
            1193     7.80834E-03     111.195E-03    -45.9476E+06    -46.3232E+06    -9.14313E+06    -13.8897E+06    -42.2031E-03     79.0147E-03    -36.8116E-03     99.7503E-03    -42.4226E-03     78.9330E-03    -36.7235E-03     99.4322E-03
            1194     8.67230E-03     111.275E-03    -39.8425E+06    -40.4552E+06    -2.59565E+06    -17.7945E+06    -45.1576E-03     82.4236E-03    -37.2659E-03     110.999E-03    -45.4099E-03     82.3983E-03    -37.1625E-03     110.563E-03
            1195     9.53356E-03     111.366E-03    -34.2001E+06    -36.1351E+06     2.50912E+06    -21.5292E+06    -48.7744E-03     86.6523E-03    -37.8780E-03     121.782E-03    -49.0808E-03     86.7020E-03    -37.7634E-03     121.204E-03
            1196     10.3925E-03     111.467E-03    -29.4361E+06    -32.5134E+06     6.25880E+06    -24.6267E+06    -53.0701E-03     91.7325E-03    -38.6624E-03     131.440E-03    -53.4635E-03     91.8882E-03    -38.5412E-03     130.693E-03
            1197     11.2472E-03     111.576E-03    -25.4087E+06    -31.4869E+06     7.92571E+06    -27.2930E+06    -57.9836E-03     97.6144E-03    -39.6308E-03     139.564E-03    -58.5047E-03     97.9112E-03    -39.5087E-03     138.607E-03
            1198     12.0988E-03     111.695E-03    -20.7566E+06    -22.9903E+06     11.4552E+06    -29.6852E+06    -63.4730E-03     104.267E-03    -40.7937E-03     146.832E-03    -64.2012E-03     104.807E-03    -40.6730E-03     145.605E-03
            1199     12.9451E-03     111.822E-03    -17.4390E+06    -28.6300E+06     8.33468E+06    -30.9842E+06    -69.6736E-03     111.825E-03    -42.1516E-03     152.969E-03    -70.6901E-03     112.655E-03    -42.0432E-03     151.397E-03
            1200     13.7860E-03     111.957E-03    -15.3238E+06     634.255E+03     15.9496E+06    -27.0654E+06    -75.6626E-03     119.383E-03    -43.7201E-03     152.192E-03    -77.0595E-03     120.683E-03    -43.6191E-03     150.320E-03
            1201     14.6224E-03     112.089E-03    -12.0217E+06     32.3551E+06     26.6198E+06    -19.6479E+06    -80.4696E-03     125.947E-03    -45.4777E-03     133.635E-03    -81.9871E-03     127.461E-03    -45.3741E-03     131.677E-03
            1202     15.4521E-03     112.193E-03    -8.71525E+06     66.1326E+06     38.9488E+06    -12.2611E+06    -84.5209E-03     131.890E-03    -47.3691E-03     110.564E-03    -86.0289E-03     133.490E-03    -47.2576E-03     108.595E-03
            1203     16.2819E-03     112.287E-03    -4.87953E+06     102.352E+06     71.7846E+06    -4.76037E+06    -88.0643E-03     137.497E-03    -49.4324E-03     62.9100E-03    -89.1307E-03     138.702E-03    -49.2148E-03     61.3520E-03
            1204     870.905E-06     111.901E-03    -94.8683E+06    -70.2813E+06    -93.4867E+06     3.53258E+06    -32.7335E-03     65.4442E-03    -32.7107E-03     11.7867E-03    -32.9709E-03     65.3654E-03    -32.9387E-03     11.8312E-03
            1205     1.74170E-03     111.911E-03    -91.8099E+06    -68.6532E+06    -86.0697E+06     4.36612E+06    -32.7466E-03     65.4729E-03    -32.7264E-03     21.8559E-03    -32.9820E-03     65.3874E-03    -32.9241E-03     21.9099E-03
            1206     2.61273E-03     111.929E-03    -87.2853E+06    -67.0888E+06    -75.9819E+06     3.16481E+06    -32.9117E-03     65.6651E-03    -32.7534E-03     32.5678E-03    -33.1419E-03     65.5667E-03    -32.9094E-03     32.6041E-03
            1207     3.48358E-03     111.955E-03    -81.7891E+06    -65.6215E+06    -64.9354E+06     400.452E+03    -33.3012E-03     66.1181E-03    -32.8170E-03     43.6293E-03    -33.5231E-03     66.0043E-03    -32.9279E-03     43.6260E-03
            1208     4.35423E-03     111.988E-03    -74.9121E+06    -62.6338E+06    -53.1740E+06    -2.86779E+06    -33.9763E-03     66.9068E-03    -32.9305E-03     54.9387E-03    -34.1877E-03     66.7835E-03    -32.9969E-03     54.8864E-03
            1209     5.22445E-03     112.031E-03    -66.6032E+06    -57.5915E+06    -40.8938E+06    -6.70334E+06    -35.0627E-03     68.1746E-03    -33.1119E-03     66.5057E-03    -35.2627E-03     68.0518E-03    -33.1363E-03     66.3921E-03
            1210     6.09380E-03     112.083E-03    -57.7709E+06    -51.9600E+06    -29.2421E+06    -10.5728E+06    -36.6135E-03     69.9935E-03    -33.3800E-03     78.2875E-03    -36.8037E-03     69.8786E-03    -33.3671E-03     78.1049E-03
            1211     6.96194E-03     112.145E-03    -49.1845E+06    -46.1356E+06    -18.7453E+06    -13.7259E+06    -38.6717E-03     72.4215E-03    -33.7498E-03     90.2586E-03    -38.8590E-03     72.3245E-03    -33.7053E-03     90.0062E-03
            1212     7.82869E-03     112.218E-03    -41.6630E+06    -40.2539E+06    -9.64289E+06    -16.6419E+06    -41.3469E-03     75.5855E-03    -34.2387E-03     102.377E-03    -41.5456E-03     75.5214E-03    -34.1681E-03     102.043E-03
            1213     8.69310E-03     112.302E-03    -35.7706E+06    -33.6540E+06    -2.00851E+06    -20.0171E+06    -44.6682E-03     79.5327E-03    -34.8645E-03     114.465E-03    -44.9023E-03     79.5263E-03    -34.7739E-03     114.023E-03
            1214     9.55533E-03     112.397E-03    -31.0359E+06    -30.2971E+06     3.81283E+06    -22.9889E+06    -48.6987E-03     84.3464E-03    -35.6477E-03     126.220E-03    -48.9908E-03     84.4100E-03    -35.5397E-03     125.646E-03
            1215     10.4139E-03     112.503E-03    -26.8256E+06    -26.0449E+06     8.40668E+06    -26.0098E+06    -53.4600E-03     90.0620E-03    -36.6020E-03     136.949E-03    -53.8452E-03     90.2357E-03    -36.4833E-03     136.206E-03
            1216     11.2692E-03     112.619E-03    -22.4266E+06    -26.2591E+06     10.7922E+06    -28.9242E+06    -58.9532E-03     96.7002E-03    -37.7470E-03     146.147E-03    -59.4677E-03     97.0114E-03    -37.6225E-03     145.184E-03
            1217     12.1193E-03     112.744E-03    -20.2803E+06    -18.2223E+06     13.2700E+06    -30.2032E+06    -65.1815E-03     104.276E-03    -39.0945E-03     154.465E-03    -65.9226E-03     104.843E-03    -38.9723E-03     153.231E-03
            1218     12.9648E-03     112.880E-03    -18.7913E+06    -24.8660E+06     10.4853E+06    -31.9207E+06    -72.2735E-03     112.938E-03    -40.6647E-03     161.706E-03    -73.3306E-03     113.811E-03    -40.5489E-03     160.086E-03
            1219     13.8040E-03     113.024E-03    -14.4740E+06    -5.18727E+06     13.4360E+06    -29.7816E+06    -79.2102E-03     121.663E-03    -42.4527E-03     161.123E-03    -80.6454E-03     122.991E-03    -42.3570E-03     159.125E-03
            1220     14.6367E-03     113.164E-03    -10.3625E+06     21.8023E+06     22.2170E+06    -21.0491E+06    -85.1385E-03     129.612E-03    -44.4734E-03     141.680E-03    -86.7122E-03     131.164E-03    -44.3789E-03     139.537E-03
            1221     15.4650E-03     113.277E-03    -8.62471E+06     58.2455E+06     39.1842E+06    -11.9063E+06    -90.5978E-03     137.299E-03    -46.7008E-03     117.324E-03    -92.1939E-03     138.959E-03    -46.5769E-03     115.115E-03
            1222     16.2824E-03     113.380E-03    -6.83867E+06     95.3096E+06     71.1587E+06    -5.48611E+06    -94.3749E-03     143.471E-03    -49.0958E-03     68.5744E-03    -95.5084E-03     144.713E-03    -48.8683E-03     66.7800E-03
            1223     873.896E-06     112.909E-03    -125.916E+06    -73.3252E+06    -126.137E+06    -337.807E+03    -29.2357E-03     58.3666E-03    -29.1309E-03     11.6110E-03    -29.5764E-03     58.3650E-03    -29.4727E-03     11.6070E-03
            1224     1.74797E-03     112.920E-03    -118.312E+06    -68.4631E+06    -116.205E+06    -1.37703E+06    -29.4412E-03     58.6678E-03    -29.2266E-03     21.5601E-03    -29.7654E-03     58.6651E-03    -29.5368E-03     21.5427E-03
            1225     2.62162E-03     112.938E-03    -107.579E+06    -64.3130E+06    -101.052E+06    -3.71427E+06    -29.9116E-03     59.2792E-03    -29.3676E-03     32.2583E-03    -30.2101E-03     59.2599E-03    -29.6236E-03     32.2099E-03
            1226     3.49500E-03     112.964E-03    -94.9653E+06    -60.7873E+06    -82.9571E+06    -6.93233E+06    -30.6551E-03     60.2360E-03    -29.5809E-03     43.3626E-03    -30.9225E-03     60.1905E-03    -29.7698E-03     43.2702E-03
            1227     4.36777E-03     112.999E-03    -81.7334E+06    -56.7619E+06    -65.3674E+06    -10.9953E+06    -31.7466E-03     61.6073E-03    -29.8607E-03     54.8482E-03    -31.9811E-03     61.5392E-03    -29.9867E-03     54.6979E-03
            1228     5.23970E-03     113.043E-03    -68.9221E+06    -51.2798E+06    -49.3276E+06    -14.7999E+06    -33.2120E-03     63.4259E-03    -30.2139E-03     66.6882E-03    -33.4177E-03     63.3476E-03    -30.2862E-03     66.4789E-03
            1229     6.11052E-03     113.097E-03    -57.3779E+06    -46.3895E+06    -35.1088E+06    -17.8815E+06    -35.0946E-03     65.7470E-03    -30.6525E-03     78.8664E-03    -35.2784E-03     65.6641E-03    -30.6776E-03     78.6008E-03
            1230     6.98004E-03     113.162E-03    -47.5672E+06    -41.6180E+06    -22.7465E+06    -19.6607E+06    -37.4864E-03     68.6748E-03    -31.1884E-03     91.4065E-03    -37.6609E-03     68.5985E-03    -31.1728E-03     91.0917E-03
            1231     7.84755E-03     113.238E-03    -39.5317E+06    -35.3634E+06    -11.7758E+06    -20.9008E+06    -40.4377E-03     72.2739E-03    -31.8361E-03     104.250E-03    -40.6223E-03     72.2267E-03    -31.7864E-03     103.879E-03
            1232     8.71312E-03     113.326E-03    -32.9928E+06    -28.0224E+06    -1.74533E+06    -22.4492E+06    -44.0489E-03     76.6635E-03    -32.6146E-03     117.173E-03    -44.2678E-03     76.6710E-03    -32.5348E-03     116.721E-03
            1233     9.57559E-03     113.425E-03    -27.4927E+06    -24.9506E+06     5.88429E+06    -24.6147E+06    -48.4452E-03     81.9899E-03    -33.5446E-03     129.952E-03    -48.7186E-03     82.0604E-03    -33.4392E-03     129.383E-03
            1234     10.4349E-03     113.537E-03    -23.2660E+06    -20.1346E+06     11.3729E+06    -26.6344E+06    -53.6236E-03     88.2653E-03    -34.6416E-03     141.826E-03    -53.9907E-03     88.4459E-03    -34.5218E-03     141.102E-03
            1235     11.2898E-03     113.660E-03    -21.4451E+06    -20.2574E+06     13.9655E+06    -28.9391E+06    -59.6962E-03     95.6339E-03    -35.9377E-03     152.244E-03    -60.2068E-03     95.9568E-03    -35.8074E-03     151.305E-03
            1236     12.1402E-03     113.794E-03    -19.3312E+06    -16.1818E+06     15.3562E+06    -29.3201E+06    -66.6852E-03     104.133E-03    -37.4480E-03     161.857E-03    -67.4211E-03     104.700E-03    -37.3198E-03     160.644E-03
            1237     12.9841E-03     113.938E-03    -16.9470E+06    -16.8094E+06     15.7443E+06    -31.3831E+06    -74.5484E-03     113.753E-03    -39.2044E-03     170.655E-03    -75.6220E-03     114.663E-03    -39.0768E-03     169.028E-03
            1238     13.8216E-03     114.093E-03    -15.3925E+06    -9.35416E+06     13.6409E+06    -32.4258E+06    -82.6633E-03     123.861E-03    -41.1978E-03     171.003E-03    -84.1351E-03     125.208E-03    -41.0937E-03     168.893E-03
            1239     14.6522E-03     114.243E-03    -12.3498E+06     7.25873E+06     17.6128E+06    -23.3005E+06    -90.2043E-03     133.679E-03    -43.4743E-03     152.234E-03    -91.8572E-03     135.265E-03    -43.3788E-03     149.872E-03
            1240     15.4724E-03     114.368E-03    -6.92108E+06     51.0545E+06     36.1447E+06    -13.5834E+06    -96.9348E-03     142.946E-03    -46.0117E-03     127.338E-03    -98.6334E-03     144.699E-03    -45.8949E-03     124.837E-03
            1241     16.2926E-03     114.478E-03    -1.20999E+06     86.5866E+06     68.8950E+06    -5.83503E+06    -100.711E-03     149.448E-03    -48.7375E-03     74.8279E-03    -101.876E-03     150.718E-03    -48.5168E-03     72.7929E-03
            1242     876.693E-06     113.911E-03    -121.658E+06    -67.8059E+06    -121.468E+06    -5.00287E+06    -26.4513E-03     52.7496E-03    -26.2983E-03     11.0842E-03    -26.7854E-03     52.7629E-03    -26.6309E-03     11.0202E-03
            1243     1.75296E-03     113.922E-03    -116.986E+06    -62.0140E+06    -115.430E+06    -9.06929E+06    -26.8245E-03     53.2691E-03    -26.4446E-03     20.6581E-03    -27.1523E-03     53.2957E-03    -26.7622E-03     20.5419E-03
            1244     2.62904E-03     113.941E-03    -109.780E+06    -57.1887E+06    -105.078E+06    -13.3022E+06    -27.4711E-03     54.1229E-03    -26.6518E-03     31.0660E-03    -27.7849E-03     54.1483E-03    -26.9351E-03     30.8948E-03
            1245     3.50447E-03     113.968E-03    -100.413E+06    -52.7983E+06    -91.7775E+06    -17.7047E+06    -28.4449E-03     55.3861E-03    -26.9412E-03     42.0387E-03    -28.7379E-03     55.4010E-03    -27.1779E-03     41.8089E-03
            1246     4.37910E-03     114.005E-03    -89.9087E+06    -48.3988E+06    -78.0326E+06    -21.9712E+06    -29.7782E-03     57.0906E-03    -27.3123E-03     53.6043E-03    -30.0463E-03     57.0937E-03    -27.5020E-03     53.3154E-03
            1247     5.25256E-03     114.051E-03    -78.9656E+06    -43.9563E+06    -63.6990E+06    -25.7066E+06    -31.4855E-03     59.2588E-03    -27.7733E-03     65.6932E-03    -31.7294E-03     59.2509E-03    -27.9136E-03     65.3483E-03
            1248     6.12485E-03     114.107E-03    -67.2483E+06    -40.2891E+06    -47.6977E+06    -28.4531E+06    -33.6287E-03     61.9655E-03    -28.3368E-03     78.2496E-03    -33.8494E-03     61.9427E-03    -28.4194E-03     77.8555E-03
            1249     6.99538E-03     114.175E-03    -54.8708E+06    -38.5434E+06    -31.6342E+06    -29.3379E+06    -36.2636E-03     65.2694E-03    -29.0058E-03     91.2647E-03    -36.4612E-03     65.2271E-03    -29.0285E-03     90.8365E-03
            1250     7.86416E-03     114.254E-03    -42.9619E+06    -32.3618E+06    -16.4652E+06    -28.4982E+06    -39.4400E-03     69.2185E-03    -29.7785E-03     104.703E-03    -39.6315E-03     69.1905E-03    -29.7516E-03     104.250E-03
            1251     8.73034E-03     114.346E-03    -33.2707E+06    -25.3727E+06    -3.20351E+06    -27.1810E+06    -43.2890E-03     73.9620E-03    -30.6730E-03     118.450E-03    -43.4996E-03     73.9739E-03    -30.6040E-03     117.959E-03
            1252     9.59377E-03     114.451E-03    -26.9603E+06    -20.3149E+06     6.72439E+06    -26.8490E+06    -47.9506E-03     79.6612E-03    -31.7106E-03     132.241E-03    -48.2130E-03     79.7367E-03    -31.6085E-03     131.671E-03
            1253     10.4535E-03     114.569E-03    -22.9785E+06    -16.3117E+06     13.4232E+06    -27.2802E+06    -53.5293E-03     86.4467E-03    -32.9174E-03     145.280E-03    -53.8823E-03     86.6220E-03    -32.7933E-03     144.581E-03
            1254     11.3089E-03     114.700E-03    -18.9294E+06    -14.3115E+06     18.5736E+06    -28.3302E+06    -60.0737E-03     94.4026E-03    -34.3289E-03     157.167E-03    -60.5617E-03     94.7197E-03    -34.1878E-03     156.272E-03
            1255     12.1585E-03     114.841E-03    -15.2201E+06    -14.7958E+06     20.1945E+06    -29.5677E+06    -67.6380E-03     103.600E-03    -35.9618E-03     168.499E-03    -68.3343E-03     104.132E-03    -35.8173E-03     167.317E-03
            1256     13.0025E-03     114.996E-03    -13.7891E+06    -11.0233E+06     22.4429E+06    -28.7968E+06    -76.2401E-03     114.093E-03    -37.8528E-03     179.147E-03    -77.2881E-03     114.990E-03    -37.7046E-03     177.573E-03
            1257     13.8394E-03     115.162E-03    -14.5635E+06    -6.52665E+06     20.7637E+06    -29.7122E+06    -85.3932E-03     125.405E-03    -40.0114E-03     181.585E-03    -86.8732E-03     126.752E-03    -39.8770E-03     179.483E-03
            1258     14.6667E-03     115.326E-03    -12.8172E+06    -6.78395E+06     18.1094E+06    -26.8454E+06    -94.3575E-03     136.839E-03    -42.4817E-03     165.033E-03    -96.0805E-03     138.443E-03    -42.3627E-03     162.467E-03
            1259     15.4876E-03     115.463E-03    -9.57626E+06     39.4861E+06     35.5036E+06    -15.2355E+06    -102.336E-03     147.604E-03    -45.2677E-03     140.326E-03    -104.179E-03     149.453E-03    -45.1335E-03     137.534E-03
            1260     16.2939E-03     115.585E-03    -8.00408E+06     77.7808E+06     69.0059E+06    -6.65907E+06    -107.987E-03     156.308E-03    -48.3216E-03     84.7970E-03    -109.271E-03     157.643E-03    -48.0777E-03     82.4887E-03
            1261     878.184E-06     114.908E-03    -89.1409E+06    -55.6281E+06    -87.4166E+06    -6.89906E+06    -24.8291E-03     49.5486E-03    -24.7195E-03     10.1291E-03    -25.0674E-03     49.5265E-03    -24.9467E-03     10.0398E-03
            1262     1.75620E-03     114.920E-03    -86.2289E+06    -50.8374E+06    -81.1099E+06    -11.8240E+06    -25.2831E-03     50.1555E-03    -24.8724E-03     18.9177E-03    -25.5231E-03     50.1440E-03    -25.0792E-03     18.7643E-03
            1263     2.63365E-03     114.940E-03    -83.1283E+06    -46.1416E+06    -74.7197E+06    -16.7699E+06    -25.9978E-03     51.1006E-03    -25.1028E-03     28.6253E-03    -26.2386E-03     51.0991E-03    -25.2890E-03     28.4072E-03
            1264     3.51052E-03     114.969E-03     -80.059E+06    -41.7840E+06    -68.9044E+06    -21.7511E+06    -27.0052E-03     52.4089E-03    -25.4037E-03     39.0640E-03    -27.2459E-03     52.4168E-03    -25.5716E-03     38.7798E-03
            1265     4.38646E-03     115.006E-03    -76.6648E+06    -37.6955E+06    -62.5476E+06    -26.7708E+06    -28.3335E-03     54.1169E-03    -25.7834E-03     50.2875E-03    -28.5737E-03     54.1325E-03    -25.9304E-03     49.9353E-03
            1266     5.26148E-03     115.054E-03    -72.0166E+06    -34.0673E+06    -54.4855E+06    -31.5951E+06    -30.0697E-03     56.3242E-03    -26.2545E-03     62.3034E-03    -30.3064E-03     56.3423E-03    -26.3731E-03     61.8828E-03
            1267     6.13483E-03     115.113E-03    -66.5059E+06    -32.5454E+06    -45.1145E+06    -35.3425E+06    -32.2880E-03     59.1185E-03    -26.8305E-03     75.0839E-03    -32.5185E-03     59.1282E-03    -26.9124E-03     74.6041E-03
            1268     7.00657E-03     115.184E-03    -60.0395E+06    -33.3491E+06    -35.2490E+06    -37.7379E+06    -35.0192E-03     62.5379E-03    -27.5186E-03     88.5231E-03    -35.2410E-03     62.5304E-03    -27.5595E-03     87.9942E-03
            1269     7.87607E-03     115.267E-03    -51.3850E+06    -30.0686E+06    -23.8200E+06    -38.3150E+06    -38.3099E-03     66.6322E-03    -28.3223E-03     102.607E-03    -38.5284E-03     66.6308E-03    -28.3233E-03     102.041E-03
            1270     8.74327E-03     115.363E-03    -40.4669E+06    -25.4763E+06    -9.55917E+06    -36.1229E+06    -42.3299E-03     71.5964E-03    -29.2665E-03     117.191E-03    -42.5536E-03     71.6140E-03    -29.2187E-03     116.606E-03
            1271     9.60742E-03     115.473E-03    -29.8966E+06    -19.9486E+06     4.97195E+06    -31.9175E+06    -47.2127E-03     77.5793E-03    -30.3666E-03     131.922E-03    -47.4664E-03     77.6421E-03    -30.2695E-03     131.318E-03
            1272     10.4677E-03     115.598E-03    -22.4385E+06    -14.0818E+06     16.1391E+06    -28.9620E+06    -53.0035E-03     84.6392E-03    -31.6357E-03     146.252E-03    -53.3296E-03     84.7895E-03    -31.5020E-03     145.573E-03
            1273     11.3234E-03     115.736E-03    -18.7809E+06    -10.8644E+06     22.6904E+06    -28.4483E+06    -59.8107E-03     92.9110E-03    -33.1004E-03     159.787E-03    -60.2647E-03     93.1950E-03    -32.9439E-03     158.945E-03
            1274     12.1743E-03     115.888E-03    -16.5302E+06    -10.1085E+06     26.0649E+06    -29.8132E+06    -67.8622E-03     102.659E-03    -34.7965E-03     172.927E-03    -68.5210E-03     103.149E-03    -34.6275E-03     171.806E-03
            1275     13.0181E-03     116.052E-03    -12.1208E+06    -12.4580E+06     27.8400E+06    -29.2085E+06    -76.9740E-03     113.728E-03    -36.7539E-03     185.472E-03    -77.9420E-03     114.530E-03    -36.5790E-03     183.965E-03
            1276     13.8542E-03     116.232E-03    -7.81705E+06    -2.12397E+06     31.1977E+06    -26.4462E+06    -86.7275E-03     125.721E-03    -38.9934E-03     190.802E-03    -88.1211E-03     126.991E-03    -38.8230E-03     188.801E-03
            1277     14.6831E-03     116.409E-03    -8.43248E+06    -12.3880E+06     24.5583E+06    -23.7638E+06    -97.2541E-03     138.826E-03    -41.5715E-03     177.383E-03    -98.9827E-03     140.413E-03    -41.4185E-03     174.779E-03
            1278     15.4977E-03     116.564E-03    -8.12340E+06     23.7016E+06     34.8100E+06    -15.7829E+06    -106.944E-03     151.475E-03    -44.5313E-03     150.855E-03    -108.879E-03     153.368E-03    -44.3799E-03     147.806E-03
            1279     16.3121E-03     116.695E-03    -1.91946E+06     71.0213E+06     72.3367E+06    -7.20902E+06    -115.164E-03     163.047E-03    -47.8832E-03     94.1744E-03    -116.508E-03     164.431E-03    -47.6217E-03     91.5836E-03
            1280     878.424E-06     115.904E-03    -56.2703E+06    -42.0214E+06    -54.1028E+06    -6.59487E+06    -24.7379E-03     49.4230E-03    -24.6850E-03     8.73697E-03    -24.8801E-03     49.3730E-03    -24.8130E-03     8.64982E-03
            1281     1.75659E-03     115.916E-03    -54.6658E+06    -38.5965E+06    -49.1211E+06    -11.3619E+06    -25.1788E-03     49.9877E-03    -24.8089E-03     16.3201E-03    -25.3255E-03     49.9456E-03    -24.9193E-03     16.1695E-03
            1282     2.63438E-03     115.937E-03    -51.9474E+06    -34.2008E+06    -42.2376E+06    -16.1218E+06    -25.8646E-03     50.9030E-03    -25.0384E-03     24.8011E-03    -26.0147E-03     50.8697E-03    -25.1247E-03     24.5867E-03
            1283     3.51147E-03     115.966E-03    -48.7257E+06    -30.3975E+06    -34.5288E+06    -20.6095E+06    -26.7850E-03     52.1279E-03    -25.3429E-03     34.0340E-03    -26.9367E-03     52.0987E-03    -25.4008E-03     33.7586E-03
            1284     4.38794E-03     116.006E-03    -45.8025E+06    -26.0957E+06    -27.2291E+06    -25.0674E+06    -27.9529E-03     53.6625E-03    -25.7096E-03     44.1580E-03    -28.1085E-03     53.6418E-03    -25.7415E-03     43.8210E-03
            1285     5.26321E-03     116.055E-03    -44.5255E+06    -23.2067E+06    -22.3351E+06    -29.3423E+06    -29.4377E-03     55.5730E-03    -26.1353E-03     55.3535E-03    -29.6009E-03     55.5606E-03    -26.1488E-03     54.9560E-03
            1286     6.13753E-03     116.117E-03    -44.6319E+06    -22.9916E+06    -19.8961E+06    -32.9280E+06    -31.3725E-03     58.0058E-03    -26.6334E-03     67.7105E-03    -31.5447E-03     57.9957E-03    -26.6348E-03     67.2584E-03
            1287     7.01004E-03     116.190E-03    -44.8260E+06    -24.1265E+06    -17.8782E+06    -36.7759E+06    -33.8763E-03     61.1053E-03    -27.2289E-03     81.1738E-03    -34.0588E-03     61.0949E-03    -27.2183E-03     80.6586E-03
            1288     7.88061E-03     116.277E-03    -44.0152E+06    -23.6227E+06    -14.5480E+06    -40.5831E+06    -37.0535E-03     64.9986E-03    -27.9451E-03     95.7230E-03    -37.2515E-03     64.9988E-03    -27.9197E-03     95.1366E-03
            1289     8.74868E-03     116.377E-03    -41.2303E+06    -24.2738E+06    -9.05581E+06    -41.6918E+06    -41.0619E-03     69.8733E-03    -28.8114E-03     111.196E-03    -41.2776E-03     69.8831E-03    -28.7617E-03     110.559E-03
            1290     9.61340E-03     116.493E-03    -34.9020E+06    -21.4917E+06     1.27023E+06    -39.5200E+06    -45.9689E-03     75.8253E-03    -29.8564E-03     127.118E-03    -46.2138E-03     75.8668E-03    -29.7683E-03     126.449E-03
            1291     10.4747E-03     116.624E-03    -25.4879E+06    -16.3737E+06     14.8927E+06    -34.8560E+06    -51.7917E-03     82.8879E-03    -31.0962E-03     142.764E-03    -52.0852E-03     82.9902E-03    -30.9610E-03     142.062E-03
            1292     11.3316E-03     116.770E-03    -17.3416E+06    -11.3879E+06     26.8593E+06    -29.0896E+06    -58.7787E-03     91.3223E-03    -32.5436E-03     157.910E-03    -59.1662E-03     91.5309E-03    -32.3676E-03     157.134E-03
            1293     12.1826E-03     116.930E-03    -14.3271E+06    -4.41752E+06     34.8282E+06    -27.1660E+06    -67.1190E-03     101.345E-03    -34.2258E-03     173.040E-03    -67.6933E-03     101.753E-03    -34.0245E-03     172.054E-03
            1294     13.0270E-03     117.108E-03    -15.6591E+06    -11.3887E+06     35.0770E+06    -28.8326E+06    -76.4511E-03     112.622E-03    -36.1708E-03     187.299E-03    -77.3123E-03     113.287E-03    -35.9562E-03     185.931E-03
            1295     13.8655E-03     117.297E-03    -14.7601E+06    -1.55433E+06     37.5278E+06    -29.1943E+06    -86.3701E-03     124.760E-03    -38.3896E-03     195.635E-03    -87.6456E-03     125.871E-03    -38.1783E-03     193.752E-03
            1296     14.6930E-03     117.494E-03    -7.24531E+06    -18.1594E+06     30.6140E+06    -25.2573E+06    -98.1040E-03     139.061E-03    -40.9567E-03     187.952E-03    -99.7196E-03     140.502E-03    -40.7668E-03     185.428E-03
            1297     15.5103E-03     117.667E-03    -1.63638E+06     10.0584E+06     30.3981E+06    -15.7333E+06    -111.489E-03     155.465E-03    -43.9761E-03     162.872E-03    -113.462E-03     157.385E-03    -43.8364E-03     159.566E-03
            1298     16.3071E-03     117.812E-03    -3.62725E+06     62.1171E+06     65.7915E+06    -5.86617E+06    -120.971E-03     168.534E-03    -47.5631E-03     103.664E-03    -122.475E-03     170.058E-03    -47.3189E-03     100.663E-03
            1299     876.960E-06     116.900E-03    -27.2365E+06    -29.5392E+06    -25.7510E+06    -5.51608E+06    -26.5361E-03     52.9978E-03    -26.4617E-03     6.95949E-03    -26.5927E-03     52.9268E-03    -26.5081E-03     6.88382E-03
            1300     1.75372E-03     116.913E-03    -25.7948E+06    -26.7780E+06    -21.3506E+06    -10.3912E+06    -26.9368E-03     53.5363E-03    -26.5995E-03     12.9700E-03    -26.9972E-03     53.4712E-03    -26.6300E-03     12.8274E-03
            1301     2.63003E-03     116.935E-03    -23.8406E+06    -23.3041E+06    -14.2156E+06    -14.7042E+06    -27.5437E-03     54.3734E-03    -26.8297E-03     19.7161E-03    -27.6107E-03     54.3136E-03    -26.8325E-03     19.5131E-03
            1302     3.50585E-03     116.966E-03    -21.9868E+06    -20.1958E+06    -6.84961E+06    -18.3258E+06    -28.3244E-03     55.4479E-03    -27.1235E-03     27.0723E-03    -28.3990E-03     55.3919E-03    -27.0966E-03     26.8171E-03
            1303     4.38084E-03     117.006E-03    -20.8675E+06    -16.6736E+06    -1.24116E+06    -21.1749E+06    -29.2212E-03     56.6778E-03    -27.4566E-03     35.3188E-03    -29.3057E-03     56.6320E-03    -27.4084E-03     35.0209E-03
            1304     5.25538E-03     117.057E-03    -20.4080E+06    -13.7856E+06     3.00934E+06    -23.7776E+06    -30.3108E-03     58.1364E-03    -27.8256E-03     44.7065E-03    -30.4065E-03     58.1014E-03    -27.7610E-03     44.3683E-03
            1305     6.12885E-03     117.120E-03    -20.1191E+06    -14.0001E+06     6.39037E+06    -26.7039E+06    -31.6824E-03     59.9240E-03    -28.2416E-03     55.3963E-03    -31.7856E-03     59.8871E-03    -28.1602E-03     55.0125E-03
            1306     7.00141E-03     117.196E-03    -20.3778E+06    -14.1207E+06     9.39496E+06    -29.9520E+06    -33.5058E-03     62.2237E-03    -28.7180E-03     67.6030E-03    -33.6208E-03     62.1887E-03    -28.6210E-03     67.1670E-03
            1307     7.87237E-03     117.285E-03    -22.5582E+06    -14.5901E+06     10.5563E+06    -32.9758E+06    -36.0325E-03     65.3104E-03    -29.2778E-03     81.5116E-03    -36.1693E-03     65.2846E-03    -29.1712E-03     81.0213E-03
            1308     8.74095E-03     117.390E-03    -26.0758E+06    -17.2486E+06     9.28672E+06    -35.9900E+06    -39.4366E-03     69.3901E-03    -29.9535E-03     97.1891E-03    -39.6013E-03     69.3743E-03    -29.8443E-03     96.6362E-03
            1309     9.60707E-03     117.509E-03    -28.7215E+06    -17.8726E+06     9.80305E+06    -38.7501E+06    -43.8635E-03     74.6529E-03    -30.7894E-03     114.115E-03    -44.0682E-03     74.6642E-03    -30.6728E-03     113.487E-03
            1310     10.4692E-03     117.647E-03    -28.4316E+06    -18.4283E+06     14.8332E+06    -38.4969E+06    -49.4747E-03     81.3082E-03    -31.8336E-03     131.303E-03    -49.7307E-03     81.3557E-03    -31.6914E-03     130.611E-03
            1311     11.3270E-03     117.799E-03    -23.2047E+06    -15.6765E+06     25.4570E+06    -34.7296E+06    -56.5272E-03     89.6520E-03    -33.1248E-03     148.538E-03    -56.8557E-03     89.7697E-03    -32.9411E-03     147.781E-03
            1312     12.1795E-03     117.971E-03    -16.0707E+06    -7.15722E+06     39.1921E+06    -27.2409E+06    -64.9594E-03     99.6497E-03    -34.6903E-03     165.389E-03    -65.4208E-03     99.9164E-03    -34.4607E-03     164.539E-03
            1313     13.0261E-03     118.157E-03    -12.5088E+06    -5.94932E+06     47.0288E+06    -22.6596E+06    -74.0564E-03     110.578E-03    -36.5212E-03     181.066E-03    -74.7365E-03     111.058E-03    -36.2593E-03     179.974E-03
            1314     13.8637E-03     118.360E-03    -14.0064E+06     2.54811E+06     48.2050E+06    -24.2160E+06    -83.9836E-03     122.580E-03    -38.5969E-03     193.016E-03    -85.0188E-03     123.438E-03    -38.3392E-03     191.457E-03
            1315     14.6964E-03     118.569E-03    -17.2277E+06    -16.9983E+06     39.7059E+06    -29.6358E+06    -95.1376E-03     136.140E-03    -41.0021E-03     192.237E-03    -96.5265E-03     137.296E-03    -40.7540E-03     190.012E-03
            1316     15.5133E-03     118.771E-03    -11.6145E+06    -9.02959E+06     30.6285E+06    -24.3713E+06    -109.887E-03     153.712E-03    -43.8248E-03     179.615E-03    -111.799E-03     155.468E-03    -43.6417E-03     176.369E-03
            1317     16.3168E-03     118.942E-03    -938.395E+03     42.1722E+06     64.6314E+06    -5.28882E+06    -123.899E-03     171.250E-03    -47.3510E-03     121.540E-03    -125.478E-03     172.794E-03    -47.0877E-03     118.330E-03
            1318     873.677E-06     117.903E-03    -1.77763E+06    -18.4458E+06    -628.334E+03    -4.90612E+06    -30.4445E-03     60.8679E-03    -30.4234E-03     4.79850E-03    -30.4271E-03     60.7784E-03    -30.3972E-03     4.72760E-03
            1319     1.74705E-03     117.916E-03    -1.33288E+06    -16.2304E+06     3.49989E+06    -8.80113E+06    -30.8906E-03     61.4497E-03    -30.5591E-03     8.88444E-03    -30.8809E-03     61.3652E-03    -30.5162E-03     8.75644E-03
            1320     2.62001E-03     117.939E-03    -539.722E+03    -13.9859E+06     9.02320E+06    -12.1854E+06    -31.4191E-03     62.2244E-03    -30.8052E-03     13.4489E-03    -31.4179E-03     62.1431E-03    -30.7391E-03     13.2695E-03
            1321     3.49230E-03     117.970E-03     284.154E+03    -12.1800E+06     14.2326E+06    -14.6463E+06    -32.0373E-03     63.1318E-03    -31.0944E-03     18.5355E-03    -32.0440E-03     63.0526E-03    -31.0060E-03     18.3160E-03
            1322     4.36419E-03     118.011E-03     1.07894E+06    -9.42925E+06     19.2757E+06    -16.6609E+06    -32.7532E-03     64.1717E-03    -31.4185E-03     24.3160E-03    -32.7697E-03     64.1003E-03    -31.3100E-03     24.0615E-03
            1323     5.23524E-03     118.063E-03     1.80123E+06    -7.01888E+06     24.3871E+06    -18.3193E+06    -33.5041E-03     65.2773E-03    -31.7732E-03     31.0294E-03    -33.5312E-03     65.2129E-03    -31.6437E-03     30.7440E-03
            1324     6.10576E-03     118.127E-03     1.36659E+06    -6.56549E+06     28.5920E+06    -20.0118E+06    -34.3069E-03     66.4556E-03    -32.1487E-03     38.9021E-03    -34.3474E-03     66.3925E-03    -31.9982E-03     38.5852E-03
            1325     6.97563E-03     118.203E-03    -736.314E+03    -7.10148E+06     30.8006E+06    -21.5139E+06    -35.2896E-03     67.8300E-03    -32.5403E-03     48.2956E-03    -35.3486E-03     67.7697E-03    -32.3750E-03     47.9490E-03
            1326     7.84465E-03     118.294E-03    -3.47050E+06    -7.36767E+06     32.5465E+06    -22.7383E+06    -36.6750E-03     69.6435E-03    -32.9685E-03     59.5394E-03    -36.7571E-03     69.5909E-03    -32.7900E-03     59.1653E-03
            1327     8.71292E-03     118.400E-03    -6.64739E+06    -8.59863E+06     33.5468E+06    -24.7713E+06    -38.7104E-03     72.1712E-03    -33.4609E-03     72.8833E-03    -38.8182E-03     72.1263E-03    -33.2710E-03     72.4678E-03
            1328     9.57888E-03     118.524E-03    -11.3580E+06    -10.0144E+06     32.1627E+06    -27.1807E+06    -41.5586E-03     75.5979E-03    -34.0394E-03     88.4139E-03    -41.7008E-03     75.5704E-03    -33.8476E-03     87.9460E-03
            1329     10.4428E-03     118.665E-03    -16.8958E+06    -13.1106E+06     29.7647E+06    -29.8145E+06    -45.8667E-03     80.6248E-03    -34.7581E-03     106.013E-03    -46.0533E-03     80.6188E-03    -34.5658E-03     105.475E-03
            1330     11.3023E-03     118.826E-03    -21.4525E+06    -13.6628E+06     31.4370E+06    -32.5929E+06    -52.1719E-03     87.8796E-03    -35.7077E-03     124.983E-03    -52.4275E-03     87.9205E-03    -35.4996E-03     124.339E-03
            1331     12.1561E-03     119.004E-03    -20.0464E+06    -14.4401E+06     38.1914E+06    -30.9135E+06    -59.8314E-03     96.7712E-03    -36.9398E-03     144.213E-03    -60.1671E-03     96.8758E-03    -36.6989E-03     143.472E-03
            1332     13.0028E-03     119.202E-03    -11.9911E+06    -9.05132E+06     49.6924E+06    -24.2437E+06    -68.7517E-03     107.210E-03    -38.4587E-03     162.505E-03    -69.2102E-03     107.452E-03    -38.1797E-03     161.645E-03
            1333     13.8471E-03     119.413E-03    -6.63012E+06     1.04692E+06     62.0172E+06    -16.1377E+06    -78.3450E-03     118.614E-03    -40.2693E-03     177.024E-03    -79.0296E-03     119.102E-03    -39.9511E-03     175.944E-03
            1334     14.6786E-03     119.642E-03    -10.1494E+06     156.647E+03     63.4589E+06    -16.6136E+06    -86.0882E-03     128.381E-03    -42.2926E-03     181.502E-03    -87.0597E-03     129.136E-03    -41.9608E-03     180.013E-03
            1335     15.5095E-03     119.853E-03    -17.5758E+06    -14.0987E+06     43.1170E+06    -25.7683E+06    -97.8587E-03     142.371E-03    -44.5125E-03     184.885E-03    -99.3746E-03     143.655E-03    -44.2510E-03     182.409E-03
            1336     16.3228E-03     120.069E-03    -15.0996E+06     11.4836E+06     53.6600E+06    -16.9872E+06    -118.183E-03     165.630E-03    -47.4468E-03     139.140E-03    -119.638E-03     166.928E-03    -47.1732E-03     136.141E-03
            1337     868.243E-06     118.915E-03     19.5847E+06    -9.51257E+06     21.1836E+06    -3.58149E+06    -36.9771E-03     73.7596E-03    -36.7826E-03     2.27596E-03    -36.8988E-03     73.6507E-03    -36.6912E-03     2.21913E-03
            1338     1.73610E-03     118.930E-03     19.3812E+06    -7.78622E+06     23.7972E+06    -6.29942E+06    -37.2803E-03     74.2990E-03    -37.0187E-03     3.96527E-03    -37.2098E-03     74.1956E-03    -36.9165E-03     3.86389E-03
            1339     2.60336E-03     118.952E-03     19.4049E+06    -6.86649E+06     27.4491E+06    -8.61157E+06    -37.7387E-03     75.0062E-03    -37.2675E-03     6.01512E-03    -37.6756E-03     74.9029E-03    -37.1485E-03     5.87347E-03
            1340     3.47035E-03     118.984E-03     19.3434E+06    -6.00958E+06     31.8999E+06    -10.4507E+06    -38.2816E-03     75.8535E-03    -37.5719E-03     8.43005E-03    -38.2279E-03     75.7493E-03    -37.4317E-03     8.25352E-03
            1341     4.33642E-03     119.026E-03     19.1600E+06    -4.10994E+06     36.8360E+06    -11.8316E+06    -38.8802E-03     76.8036E-03    -37.9234E-03     11.3672E-03    -38.8391E-03     76.7038E-03    -37.7610E-03     11.1611E-03
            1342     5.20179E-03     119.078E-03     18.2940E+06    -2.53839E+06     41.3979E+06    -12.4099E+06    -39.4531E-03     77.7630E-03    -38.3099E-03     14.9421E-03    -39.4277E-03     77.6680E-03    -38.1258E-03     14.7164E-03
            1343     6.06657E-03     119.142E-03     16.7981E+06    -2.24520E+06     45.2376E+06    -12.2965E+06    -39.9756E-03     78.6945E-03    -38.7188E-03     19.3433E-03    -39.9672E-03     78.6006E-03    -38.5137E-03     19.1065E-03
            1344     6.93052E-03     119.219E-03     15.1052E+06    -2.41919E+06     48.7822E+06    -12.6480E+06    -40.4756E-03     79.6202E-03    -39.1445E-03     24.7589E-03    -40.4849E-03     79.5268E-03    -38.9190E-03     24.5046E-03
            1345     7.79416E-03     119.309E-03     13.4051E+06    -3.23790E+06     51.8382E+06    -13.2348E+06    -40.9624E-03     80.5467E-03    -39.5844E-03     31.4891E-03    -40.9888E-03     80.4525E-03    -39.3399E-03     31.2140E-03
            1346     8.65655E-03     119.416E-03     10.6569E+06    -3.33882E+06     53.8537E+06    -13.3663E+06    -41.4324E-03     81.4641E-03    -40.0317E-03     39.8813E-03    -41.4822E-03     81.3775E-03    -39.7731E-03     39.5913E-03
            1347     9.51906E-03     119.539E-03     7.34180E+06    -4.23337E+06     54.2744E+06    -13.7526E+06    -42.2484E-03     82.7432E-03    -40.4948E-03     50.2036E-03    -42.3232E-03     82.6653E-03    -40.2279E-03     49.8937E-03
            1348     10.3807E-03     119.682E-03     3.85409E+06    -4.35835E+06     54.4217E+06    -15.9058E+06    -43.9841E-03     85.0013E-03    -41.0172E-03     62.8776E-03    -44.0888E-03     84.9407E-03    -40.7444E-03     62.5194E-03
            1349     11.2406E-03     119.846E-03    -162.292E+03    -5.75679E+06     54.3812E+06    -18.2639E+06    -46.6430E-03     88.2837E-03    -41.6407E-03     78.4666E-03    -46.7846E-03     88.2437E-03    -41.3602E-03     78.0482E-03
            1350     12.0965E-03     120.032E-03    -6.74147E+06    -9.64588E+06     52.3001E+06    -21.3348E+06    -50.9561E-03     93.3532E-03    -42.3971E-03     96.8399E-03    -51.1539E-03     93.3404E-03    -42.1118E-03     96.3312E-03
            1351     12.9510E-03     120.234E-03    -12.0554E+06    -13.1687E+06     52.6266E+06    -23.0338E+06    -57.7841E-03     101.154E-03    -43.3699E-03     117.073E-03    -58.0635E-03     101.194E-03    -43.0702E-03     116.441E-03
            1352     13.7915E-03     120.463E-03    -9.50920E+06    -9.21722E+06     61.4083E+06    -17.3963E+06    -63.7719E-03     108.315E-03    -44.5432E-03     135.817E-03    -64.1460E-03     108.452E-03    -44.2090E-03     135.123E-03
            1353     14.6349E-03     120.691E-03     572.523E+03     5.11079E+06     73.9182E+06    -11.3222E+06    -69.0894E-03     114.884E-03    -45.7948E-03     147.620E-03    -69.5776E-03     115.185E-03    -45.4335E-03     146.818E-03
            1354     15.4745E-03     120.919E-03     4.23955E+06    -1.89974E+06     68.4316E+06    -9.60099E+06    -77.3324E-03     124.459E-03    -47.1269E-03     160.667E-03    -78.1016E-03     125.045E-03    -46.7882E-03     159.446E-03
            1355     16.3073E-03     121.160E-03    -3.52224E+06     2.06405E+06     51.1077E+06    -11.2446E+06    -92.0286E-03     140.810E-03    -48.7809E-03     146.162E-03    -92.9595E-03     141.600E-03    -48.5232E-03     144.317E-03
            1356     860.173E-06     119.944E-03     36.1359E+06    -3.43243E+06     36.9520E+06    -1.96313E+06    -46.1457E-03     92.4224E-03    -46.2767E-03    -1.17248E-03    -46.0183E-03     92.2946E-03    -46.1393E-03    -1.20810E-03
            1357     1.72013E-03     119.958E-03     35.3770E+06    -2.49540E+06     38.2560E+06    -3.24988E+06    -46.3835E-03     92.7204E-03    -46.3370E-03    -1.93860E-03    -46.2635E-03     92.5964E-03    -46.1934E-03    -1.99945E-03
            1358     2.57986E-03     119.982E-03     34.1431E+06    -2.25462E+06     41.4433E+06    -4.31707E+06    -46.7909E-03     93.3507E-03    -46.5599E-03    -2.67099E-03    -46.6822E-03     93.2252E-03    -46.3989E-03    -2.75516E-03
            1359     3.43850E-03     120.014E-03     32.8165E+06    -1.92413E+06     45.8618E+06    -5.15442E+06    -47.3626E-03     94.2544E-03    -46.8918E-03    -3.27443E-03    -47.2678E-03     94.1262E-03    -46.7073E-03    -3.37957E-03
            1360     4.29654E-03     120.057E-03     31.1567E+06    -780.452E+03     50.0458E+06    -5.54090E+06    -47.9500E-03     95.2563E-03    -47.3064E-03    -3.70576E-03    -47.8719E-03     95.1303E-03    -47.1002E-03    -3.82652E-03
            1361     5.15376E-03     120.109E-03     29.4267E+06    -518.274E+03     54.2536E+06    -5.16582E+06    -48.5706E-03     96.3615E-03    -47.7908E-03    -3.92878E-03    -48.5086E-03     96.2334E-03    -47.5615E-03    -4.05610E-03
            1362     6.00964E-03     120.173E-03     28.2107E+06    -445.842E+03     59.3756E+06    -4.74073E+06    -49.1984E-03     97.5430E-03    -48.3446E-03    -3.88301E-03    -49.1513E-03     97.4100E-03    -48.0880E-03    -4.01697E-03
            1363     6.86469E-03     120.249E-03     27.2456E+06    -26.7533E+03     64.7082E+06    -4.29221E+06    -49.6786E-03     98.6341E-03    -48.9555E-03    -3.50795E-03    -49.6464E-03     98.4974E-03    -48.6715E-03    -3.64923E-03
            1364     7.71790E-03     120.340E-03     25.5702E+06    -524.773E+03     67.9831E+06    -4.17397E+06    -49.8030E-03     99.3973E-03    -49.5943E-03    -2.58464E-03    -49.7855E-03     99.2568E-03    -49.2907E-03    -2.73802E-03
            1365     8.57098E-03     120.444E-03     24.3761E+06    -1.76600E+06     70.2552E+06    -3.58493E+06    -49.5994E-03     99.8457E-03    -50.2463E-03    -1.09954E-03    -49.5926E-03     99.6985E-03    -49.9278E-03    -1.25931E-03
            1366     9.42287E-03     120.566E-03     23.9349E+06    -800.526E+03     73.7338E+06    -3.84759E+06    -49.1774E-03     100.096E-03    -50.9185E-03     1.09990E-03    -49.1832E-03     99.9513E-03    -50.5834E-03     921.546E-06
            1367     10.2732E-03     120.707E-03     22.3116E+06    -170.915E+03     76.3055E+06    -3.78078E+06    -47.9347E-03     99.5182E-03    -51.5836E-03     5.09802E-03    -47.9577E-03     99.3804E-03    -51.2341E-03     4.90608E-03
            1368     11.1225E-03     120.868E-03     19.0469E+06     11.9243E+03     77.1632E+06    -4.01120E+06    -46.0683E-03     98.2646E-03    -52.1963E-03     11.5568E-03    -46.1161E-03     98.1370E-03    -51.8381E-03     11.3509E-03
            1369     11.9763E-03     121.048E-03     16.0851E+06    -2.60744E+06     76.8250E+06    -3.88028E+06    -44.7835E-03     97.5541E-03    -52.7706E-03     20.9009E-03    -44.8518E-03     97.4303E-03    -52.4060E-03     20.6805E-03
            1370     12.8235E-03     121.259E-03     12.4063E+06    -4.19387E+06     75.1224E+06    -6.68394E+06    -42.6937E-03     95.9597E-03    -53.2660E-03     35.2654E-03    -42.7892E-03     95.8582E-03    -52.9023E-03     34.9926E-03
            1371     13.6794E-03     121.483E-03     7.44372E+06    -10.3395E+06     70.4104E+06    -9.41525E+06    -39.4483E-03     93.0020E-03    -53.5538E-03     51.6943E-03    -39.5660E-03     92.9040E-03    -53.1975E-03     51.3858E-03
            1372     14.5368E-03     121.718E-03     5.87786E+06     514.740E+03     72.4201E+06    -10.1121E+06    -41.5725E-03     95.3045E-03    -53.7320E-03     67.3538E-03    -41.7426E-03     95.2928E-03    -53.3792E-03     66.9990E-03
            1373     15.3844E-03     121.963E-03     8.08759E+06    -4.10810E+06     69.1960E+06    -3.90596E+06    -45.3981E-03     99.3674E-03    -53.9693E-03     76.6838E-03    -45.6085E-03     99.3986E-03    -53.6291E-03     76.3314E-03
            1374     16.2388E-03     122.198E-03     15.8604E+06    -2.82233E+06     55.7076E+06    -779.607E+03    -35.4637E-03     89.2517E-03    -53.7880E-03     76.2945E-03    -35.7039E-03     89.4036E-03    -53.5284E-03     75.8187E-03
            1375     16.2281E-03     60.5429E-03    -4.47683E+06     128.146E+06     88.2263E+06    -136.141E+03    -51.5434E-03     104.312E-03    -52.7690E-03     35.3812E-03    -52.3945E-03     105.347E-03    -52.5072E-03     34.7594E-03
            1376     15.3701E-03     60.4765E-03    -9.91457E+06     127.513E+06     75.4803E+06     296.158E+03    -51.8651E-03     104.620E-03    -52.7547E-03     70.1905E-03    -53.0970E-03     106.050E-03    -52.5478E-03     69.3027E-03
            1377     14.5169E-03     60.4040E-03    -13.7515E+06     119.049E+06     49.1439E+06     539.238E+03    -52.6948E-03     105.378E-03    -52.6827E-03     85.9282E-03    -53.9609E-03     106.875E-03    -52.5897E-03     84.9219E-03
            1378     13.6611E-03     60.3068E-03    -16.8212E+06     74.1023E+06     20.4426E+06     480.753E+03    -53.5852E-03     106.228E-03    -52.6432E-03     97.7862E-03    -54.7672E-03     107.554E-03    -52.6241E-03     96.6947E-03
            1379     12.8084E-03     60.2095E-03    -18.9710E+06     10.5387E+06     6.37264E+06     179.412E+03    -53.9346E-03     106.629E-03    -52.6940E-03     96.0029E-03    -54.8285E-03     107.474E-03    -52.6499E-03     94.9674E-03
            1380     11.9530E-03     60.1164E-03    -20.3819E+06    -27.2773E+06     6.60396E+06     196.260E+03    -53.9959E-03     106.771E-03    -52.7747E-03     91.4531E-03    -54.6409E-03     107.227E-03    -52.6726E-03     90.5457E-03
            1381     11.0996E-03     60.0276E-03    -22.2546E+06    -54.8652E+06     4.47119E+06     286.466E+03    -54.1018E-03     106.928E-03    -52.8264E-03     87.5394E-03    -54.5754E-03     107.115E-03    -52.6923E-03     86.7455E-03
            1382     10.2454E-03     59.9421E-03    -24.4998E+06    -75.3520E+06     3.89049E+06     273.559E+03    -54.1545E-03     107.025E-03    -52.8709E-03     84.2263E-03    -54.5081E-03     107.013E-03    -52.7066E-03     83.5373E-03
            1383     9.39164E-03     59.8596E-03    -27.0278E+06    -90.1232E+06     3.14097E+06     338.750E+03    -54.1003E-03     107.004E-03    -52.9035E-03     80.0352E-03    -54.3647E-03     106.843E-03    -52.7179E-03     79.4447E-03
            1384     8.53774E-03     59.7824E-03    -30.0023E+06    -103.862E+06     1.67648E+06     420.522E+03    -53.9631E-03     106.895E-03    -52.9315E-03     74.9324E-03    -54.1567E-03     106.608E-03    -52.7291E-03     74.4335E-03
            1385     7.68381E-03     59.7099E-03    -33.4539E+06    -115.487E+06    -577.850E+03     358.913E+03    -53.8224E-03     106.776E-03    -52.9536E-03     69.2263E-03    -53.9632E-03     106.390E-03    -52.7405E-03     68.8077E-03
            1386     6.83008E-03     59.6439E-03    -37.2780E+06    -126.236E+06    -4.40823E+06     395.522E+03    -53.6725E-03     106.638E-03    -52.9659E-03     63.0387E-03    -53.7723E-03     106.171E-03    -52.7509E-03     62.6930E-03
            1387     5.97622E-03     59.5839E-03    -41.5134E+06    -135.241E+06    -10.3895E+06     439.470E+03    -53.4934E-03     106.459E-03    -52.9657E-03     56.3728E-03    -53.5624E-03     105.931E-03    -52.7613E-03     56.0924E-03
            1388     5.12241E-03     59.5311E-03    -45.9014E+06    -142.456E+06    -18.9445E+06     391.350E+03    -53.3231E-03     106.275E-03    -52.9519E-03     49.2308E-03    -53.3680E-03     105.706E-03    -52.7735E-03     49.0066E-03
            1389     4.26857E-03     59.4854E-03    -50.3977E+06    -151.014E+06    -28.2831E+06     306.036E+03    -53.1894E-03     106.126E-03    -52.9363E-03     41.7061E-03    -53.2136E-03     105.517E-03    -52.7857E-03     41.5304E-03
            1390     3.41493E-03     59.4476E-03    -54.6527E+06    -158.840E+06    -37.8673E+06     345.419E+03    -53.0722E-03     105.989E-03    -52.9164E-03     33.9005E-03    -53.0797E-03     105.348E-03    -52.7962E-03     33.7691E-03
            1391     2.56108E-03     59.4175E-03    -58.5000E+06    -167.053E+06    -47.6395E+06     176.547E+03    -52.9722E-03     105.867E-03    -52.8950E-03     25.8061E-03    -52.9640E-03     105.196E-03    -52.8062E-03     25.7109E-03
            1392     1.70741E-03     59.3961E-03    -61.8848E+06    -172.248E+06    -56.1654E+06     44.0998E+03    -52.9136E-03     105.785E-03    -52.8716E-03     17.5876E-03    -52.8966E-03     105.100E-03    -52.8129E-03     17.5248E-03
            1393     853.718E-06     59.3823E-03    -64.2519E+06    -173.197E+06    -62.5443E+06     85.2922E+03    -52.8977E-03     105.710E-03    -52.8119E-03     9.61554E-03    -52.8786E-03     105.029E-03    -52.7803E-03     9.58309E-03
            1394     16.2224E-03     59.4891E-03    -4.75084E+06     127.850E+06     88.0544E+06     14.6206E+03    -51.4509E-03     104.241E-03    -52.7904E-03     36.1277E-03    -52.3075E-03     105.279E-03    -52.5286E-03     35.5057E-03
            1395     15.3710E-03     59.4242E-03      -9.707E+06     127.668E+06     75.4666E+06     130.975E+03    -52.0596E-03     104.833E-03    -52.7737E-03     70.2971E-03    -53.2944E-03     106.268E-03    -52.5674E-03     69.4003E-03
            1396     14.5150E-03     59.3504E-03    -13.9444E+06     118.881E+06     48.9627E+06     371.930E+03    -52.8328E-03     105.526E-03    -52.6931E-03     85.7701E-03    -54.0996E-03     107.023E-03    -52.6005E-03     84.7567E-03
            1397     13.6624E-03     59.2535E-03    -16.6355E+06     74.6414E+06     20.9983E+06     352.135E+03    -53.5930E-03     106.244E-03    -52.6513E-03     97.5735E-03    -54.7757E-03     107.572E-03    -52.6304E-03     96.4795E-03
            1398     12.8066E-03     59.1564E-03    -18.2405E+06     10.5161E+06     6.64758E+06     79.9170E+03    -53.9260E-03     106.627E-03    -52.7006E-03     95.8899E-03    -54.8171E-03     107.471E-03    -52.6562E-03     94.8527E-03
            1399     11.9539E-03     59.0629E-03    -20.2582E+06    -27.8077E+06     6.46255E+06     170.665E+03    -54.0898E-03     106.868E-03    -52.7779E-03     91.3516E-03    -54.7338E-03     107.322E-03    -52.6759E-03     90.4411E-03
            1400     11.0993E-03     58.9745E-03    -22.3967E+06    -54.7883E+06     4.47815E+06     339.850E+03    -54.1351E-03     106.960E-03    -52.8250E-03     87.4764E-03    -54.6100E-03     107.148E-03    -52.6907E-03     86.6819E-03
            1401     10.2456E-03     58.8885E-03    -24.6101E+06    -75.3255E+06     3.88692E+06     312.708E+03    -54.1594E-03     107.027E-03    -52.8674E-03     84.1926E-03    -54.5137E-03     107.015E-03    -52.7031E-03     83.5039E-03
            1402     9.39159E-03     58.8065E-03    -27.1782E+06    -90.2505E+06     2.98993E+06     346.672E+03    -54.0926E-03     106.992E-03    -52.8992E-03     79.9780E-03    -54.3574E-03     106.831E-03    -52.7140E-03     79.3876E-03
            1403     8.53775E-03     58.7288E-03    -30.1074E+06    -103.874E+06     1.61110E+06     370.274E+03    -53.9792E-03     106.906E-03    -52.9264E-03     74.9053E-03    -54.1734E-03     106.619E-03    -52.7240E-03     74.4052E-03
            1404     7.68399E-03     58.6568E-03    -33.4572E+06    -115.466E+06    -600.871E+03     400.587E+03    -53.8229E-03     106.770E-03    -52.9469E-03     69.2255E-03    -53.9638E-03     106.384E-03    -52.7340E-03     68.8074E-03
            1405     6.83002E-03     58.5904E-03    -37.3120E+06    -126.412E+06    -4.44187E+06     312.242E+03    -53.6582E-03     106.618E-03    -52.9595E-03     63.0265E-03    -53.7579E-03     106.149E-03    -52.7444E-03     62.6799E-03
            1406     5.97627E-03     58.5307E-03    -41.4821E+06    -135.146E+06    -10.3729E+06     367.520E+03    -53.4951E-03     106.454E-03    -52.9588E-03     56.3424E-03    -53.5641E-03     105.926E-03    -52.7546E-03     56.0608E-03
            1407     5.12245E-03     58.4777E-03    -45.9675E+06    -142.337E+06    -18.8932E+06     398.891E+03    -53.3176E-03     106.262E-03    -52.9444E-03     49.2079E-03    -53.3631E-03     105.694E-03    -52.7658E-03     48.9838E-03
            1408     4.26870E-03     58.4322E-03    -50.3732E+06    -150.797E+06    -28.2119E+06     269.592E+03    -53.1634E-03     106.094E-03    -52.9304E-03     41.7246E-03    -53.1878E-03     105.486E-03    -52.7798E-03     41.5487E-03
            1409     3.41482E-03     58.3942E-03    -54.5596E+06    -158.768E+06    -37.9281E+06     184.034E+03    -53.0505E-03     105.965E-03    -52.9146E-03     33.9197E-03    -53.0576E-03     105.325E-03    -52.7949E-03     33.7862E-03
            1410     2.56115E-03     58.3644E-03    -58.3742E+06    -166.829E+06    -47.3194E+06     233.502E+03    -52.9696E-03     105.868E-03    -52.8983E-03     25.8188E-03    -52.9616E-03     105.198E-03    -52.8083E-03     25.7244E-03
            1411     1.70739E-03     58.3426E-03    -61.6692E+06    -172.075E+06    -55.9689E+06     202.352E+03    -52.8927E-03     105.776E-03    -52.8831E-03     17.5886E-03    -52.8751E-03     105.091E-03    -52.8241E-03     17.5279E-03
            1412     853.625E-06     58.3293E-03    -64.0933E+06    -173.133E+06    -62.4690E+06     61.2609E+03    -52.9140E-03     105.749E-03    -52.8348E-03     9.64015E-03    -52.8943E-03     105.068E-03    -52.8032E-03     9.60746E-03
            1413     16.2265E-03     58.4352E-03    -4.85405E+06     127.778E+06     87.8624E+06     180.208E+03    -51.5753E-03     104.371E-03    -52.7955E-03     35.4942E-03    -52.4299E-03     105.407E-03    -52.5345E-03     34.8717E-03
            1414     15.3695E-03     58.3712E-03    -9.97095E+06     127.305E+06     75.3712E+06     103.996E+03    -52.1696E-03     104.942E-03    -52.7725E-03     69.4803E-03    -53.4011E-03     106.372E-03    -52.5658E-03     68.5798E-03
            1415     14.5171E-03     58.2966E-03    -13.7805E+06     118.916E+06     49.2492E+06     94.4415E+03    -52.8047E-03     105.494E-03    -52.6892E-03     85.5186E-03    -54.0688E-03     106.988E-03    -52.5954E-03     84.5035E-03
            1416     13.6611E-03     58.2009E-03    -16.3297E+06     74.4949E+06     21.1309E+06    -256.100E+03    -53.5428E-03     106.191E-03    -52.6484E-03     97.4655E-03    -54.7240E-03     107.518E-03    -52.6271E-03     96.3641E-03
            1417     12.8083E-03     58.1029E-03    -18.3849E+06     10.3929E+06     6.64999E+06     291.893E+03    -53.9562E-03     106.654E-03    -52.6978E-03     95.8193E-03    -54.8483E-03     107.498E-03    -52.6529E-03     94.7835E-03
            1418     11.9531E-03     58.0098E-03    -20.3392E+06    -27.8725E+06     6.39241E+06     481.242E+03    -54.0963E-03     106.869E-03    -52.7727E-03     91.3192E-03    -54.7407E-03     107.324E-03    -52.6709E-03     90.4123E-03
            1419     11.0997E-03     57.9210E-03    -22.3589E+06    -54.9290E+06     4.55725E+06     325.415E+03    -54.1710E-03     106.989E-03    -52.8183E-03     87.4301E-03    -54.6460E-03     107.177E-03    -52.6835E-03     86.6343E-03
            1420     10.2456E-03     57.8353E-03    -24.6123E+06    -75.1734E+06     3.99369E+06     389.636E+03    -54.1458E-03     107.005E-03    -52.8589E-03     84.1210E-03    -54.5002E-03     106.993E-03    -52.6942E-03     83.4334E-03
            1421     9.39176E-03     57.7530E-03    -27.1556E+06    -90.2808E+06      2.9815E+06     275.407E+03    -54.0692E-03     106.960E-03    -52.8909E-03     79.9477E-03    -54.3338E-03     106.799E-03    -52.7057E-03     79.3566E-03
            1422     8.53784E-03     57.6756E-03    -30.0475E+06    -104.000E+06     1.67257E+06     339.528E+03    -53.9621E-03     106.882E-03    -52.9196E-03     74.8897E-03    -54.1559E-03     106.595E-03    -52.7169E-03     74.3895E-03
            1423     7.68391E-03     57.6033E-03    -33.4374E+06    -115.404E+06    -528.074E+03     332.784E+03    -53.8199E-03     106.760E-03    -52.9403E-03     69.2110E-03    -53.9608E-03     106.374E-03    -52.7271E-03     68.7920E-03
            1424     6.83019E-03     57.5372E-03    -37.2287E+06    -126.380E+06    -4.57847E+06     271.751E+03    -53.6569E-03     106.608E-03    -52.9512E-03     63.0144E-03    -53.7559E-03     106.140E-03    -52.7369E-03     62.6673E-03
            1425     5.97629E-03     57.4773E-03    -41.4446E+06    -135.267E+06    -10.4646E+06     290.010E+03    -53.4682E-03     106.420E-03    -52.9521E-03     56.3333E-03    -53.5366E-03     105.892E-03    -52.7482E-03     56.0511E-03
            1426     5.12250E-03     57.4245E-03    -45.7502E+06    -142.210E+06    -18.7342E+06     390.567E+03    -53.2966E-03     106.238E-03    -52.9414E-03     49.2405E-03    -53.3414E-03     105.670E-03    -52.7625E-03     49.0165E-03
            1427     4.26862E-03     57.3789E-03    -50.2450E+06    -150.496E+06    -28.2624E+06     273.127E+03    -53.1562E-03     106.085E-03    -52.9285E-03     41.7524E-03    -53.1804E-03     105.478E-03    -52.7788E-03     41.5766E-03
            1428     3.41489E-03     57.3411E-03    -54.5862E+06    -158.789E+06    -38.0691E+06     142.343E+03    -53.0436E-03     105.958E-03    -52.9147E-03     33.9279E-03    -53.0505E-03     105.318E-03    -52.7956E-03     33.7941E-03
            1429     2.56107E-03     57.3110E-03    -58.4534E+06    -166.828E+06    -47.4343E+06     158.338E+03    -52.9581E-03     105.860E-03    -52.9021E-03     25.8107E-03    -52.9503E-03     105.190E-03    -52.8126E-03     25.7154E-03
            1430     1.70737E-03     57.2894E-03    -61.6937E+06    -171.813E+06    -55.8905E+06     162.020E+03    -52.9105E-03     105.797E-03    -52.8862E-03     17.5855E-03    -52.8936E-03     105.113E-03    -52.8271E-03     17.5243E-03
            1431     853.676E-06     57.2759E-03    -63.7285E+06    -172.955E+06    -62.2018E+06     114.339E+03    -52.9103E-03     105.749E-03    -52.8385E-03     9.66315E-03    -52.8895E-03     105.068E-03    -52.8063E-03     9.63118E-03
            1432     16.2237E-03     57.3835E-03    -4.61738E+06     127.652E+06     87.9720E+06     527.001E+03    -51.7286E-03     104.500E-03    -52.7717E-03     35.6006E-03    -52.5789E-03     105.532E-03    -52.5102E-03     34.9855E-03
            1433     15.3717E-03     57.3167E-03    -9.13481E+06     127.994E+06     76.3109E+06     254.630E+03    -51.9210E-03     104.674E-03    -52.7530E-03     69.5689E-03    -53.1477E-03     106.101E-03    -52.5438E-03     68.6803E-03
            1434     14.5154E-03     57.2447E-03    -13.4050E+06     119.067E+06     49.1975E+06    -382.101E+03    -52.6664E-03     105.343E-03    -52.6765E-03     85.5061E-03    -53.9295E-03     106.838E-03    -52.5837E-03     84.4876E-03
            1435     13.6623E-03     57.1468E-03    -16.8085E+06     73.7357E+06     20.3064E+06     79.0512E+03    -53.5736E-03     106.211E-03    -52.6371E-03     97.5525E-03    -54.7552E-03     107.536E-03    -52.6182E-03     96.4546E-03
            1436     12.8071E-03     57.0502E-03    -19.0442E+06     10.1897E+06     6.51595E+06     249.297E+03    -53.9655E-03     106.653E-03    -52.6873E-03     95.6976E-03    -54.8598E-03     107.497E-03    -52.6419E-03     94.6610E-03
            1437     11.9539E-03     56.9562E-03    -20.5033E+06    -27.7926E+06     6.48351E+06     236.058E+03    -54.0680E-03     106.830E-03    -52.7619E-03     91.3453E-03    -54.7132E-03     107.285E-03    -52.6594E-03     90.4360E-03
            1438     11.0995E-03     56.8678E-03    -22.2899E+06    -55.1146E+06     4.60469E+06     380.948E+03    -54.1364E-03     106.945E-03    -52.8088E-03     87.3849E-03    -54.6104E-03     107.131E-03    -52.6736E-03     86.5906E-03
            1439     10.2458E-03     56.7819E-03    -24.4495E+06    -75.0586E+06     4.17516E+06     356.620E+03    -54.1393E-03     106.990E-03    -52.8503E-03     84.1652E-03    -54.4936E-03     106.979E-03    -52.6852E-03     83.4772E-03
            1440     9.39178E-03     56.6999E-03    -26.9584E+06    -90.2976E+06     3.12472E+06     298.427E+03    -54.0637E-03     106.946E-03    -52.8823E-03     79.9725E-03    -54.3273E-03     106.784E-03    -52.6966E-03     79.3821E-03
            1441     8.53790E-03     56.6222E-03    -29.8941E+06    -104.006E+06     1.77611E+06     263.986E+03    -53.9351E-03     106.847E-03    -52.9118E-03     74.8966E-03    -54.1281E-03     106.559E-03    -52.7087E-03     74.3958E-03
            1442     7.68407E-03     56.5502E-03    -33.2272E+06    -115.377E+06    -419.232E+03     274.646E+03    -53.7981E-03     106.732E-03    -52.9342E-03     69.2414E-03    -53.9381E-03     106.346E-03    -52.7209E-03     68.8221E-03
            1443     6.83014E-03     56.4838E-03    -37.0644E+06    -126.338E+06    -4.36472E+06     291.143E+03    -53.6349E-03     106.583E-03    -52.9479E-03     63.0395E-03    -53.7335E-03     106.114E-03    -52.7328E-03     62.6930E-03
            1444     5.97636E-03     56.4242E-03    -41.2675E+06    -135.238E+06    -10.4578E+06     234.003E+03    -53.4474E-03     106.398E-03    -52.9505E-03     56.3662E-03    -53.5150E-03     105.869E-03    -52.7469E-03     56.0835E-03
            1445     5.12241E-03     56.3712E-03    -45.7132E+06    -142.276E+06    -18.8528E+06     291.032E+03    -53.2881E-03     106.230E-03    -52.9419E-03     49.2532E-03    -53.3325E-03     105.662E-03    -52.7636E-03     49.0279E-03
            1446     4.26867E-03     56.3257E-03    -50.0259E+06    -150.282E+06    -28.0986E+06     329.550E+03    -53.1664E-03     106.096E-03    -52.9298E-03     41.7426E-03    -53.1900E-03     105.490E-03    -52.7798E-03     41.5674E-03
            1447     3.41484E-03     56.2878E-03    -54.2909E+06    -158.701E+06    -37.6870E+06     171.481E+03    -53.0484E-03     105.964E-03    -52.9156E-03     33.9198E-03    -53.0546E-03     105.323E-03    -52.7952E-03     33.7863E-03
            1448     2.56114E-03     56.2578E-03    -58.3618E+06    -166.887E+06    -47.3179E+06     139.523E+03    -52.9676E-03     105.867E-03    -52.8996E-03     25.8043E-03    -52.9594E-03     105.197E-03    -52.8096E-03     25.7088E-03
            1449     1.70735E-03     56.2361E-03    -61.5414E+06    -171.669E+06    -55.8339E+06     75.6279E+03    -52.9351E-03     105.806E-03    -52.8712E-03     17.5727E-03    -52.9177E-03     105.123E-03    -52.8122E-03     17.5103E-03
            1450     853.763E-06     56.2225E-03    -63.6564E+06    -172.716E+06    -62.0116E+06     44.9832E+03    -52.8584E-03     105.700E-03    -52.8412E-03     9.56225E-03    -52.8378E-03     105.020E-03    -52.8085E-03     9.52927E-03
            1451     16.2274E-03     56.3296E-03    -4.89635E+06     127.506E+06     87.9366E+06    -20.3586E+03    -51.8591E-03     104.625E-03    -52.7662E-03     35.6529E-03    -52.7153E-03     105.662E-03    -52.5043E-03     35.0294E-03
            1452     15.3703E-03     56.2647E-03    -8.74272E+06     128.266E+06     76.2174E+06    -5.11894E+03    -51.8818E-03     104.625E-03    -52.7432E-03     70.0046E-03    -53.1134E-03     106.060E-03    -52.5354E-03     69.1106E-03
            1453     14.5170E-03     56.1911E-03    -13.3374E+06     119.084E+06     49.0679E+06     443.404E+03    -52.7425E-03     105.409E-03    -52.6662E-03     85.6831E-03    -54.0078E-03     106.907E-03    -52.5742E-03     84.6711E-03
            1454     13.6616E-03     56.0940E-03    -16.6453E+06     73.8254E+06     20.6856E+06     327.634E+03    -53.5672E-03     106.194E-03    -52.6267E-03     97.5744E-03    -54.7484E-03     107.518E-03    -52.6061E-03     96.4802E-03
            1455     12.8084E-03     55.9967E-03    -18.3205E+06     9.82346E+06     6.71710E+06     66.4813E+03    -53.9462E-03     106.622E-03    -52.6762E-03     95.8192E-03    -54.8366E-03     107.463E-03    -52.6303E-03     94.7806E-03
            1456     11.9536E-03     55.9032E-03    -20.1449E+06    -27.9418E+06     6.67310E+06     171.129E+03    -54.0725E-03     106.824E-03    -52.7512E-03     91.4301E-03    -54.7166E-03     107.278E-03    -52.6481E-03     90.5197E-03
            1457     11.0999E-03     55.8144E-03    -22.1549E+06    -55.0130E+06     4.65626E+06     269.910E+03    -54.0703E-03     106.870E-03    -52.7994E-03     87.4538E-03    -54.5431E-03     107.055E-03    -52.6642E-03     86.6603E-03
            1458     10.2456E-03     55.7288E-03    -24.2758E+06    -75.2185E+06     4.23806E+06     304.084E+03    -54.1127E-03     106.957E-03    -52.8446E-03     84.2008E-03    -54.4659E-03     106.945E-03    -52.6792E-03     83.5126E-03
            1459     9.39194E-03     55.6464E-03    -26.8555E+06    -90.1508E+06     3.17528E+06     339.104E+03    -54.0583E-03     106.936E-03    -52.8772E-03     80.0193E-03    -54.3217E-03     106.774E-03    -52.6917E-03     79.4297E-03
            1460     8.53798E-03     55.5691E-03    -29.8029E+06    -103.992E+06     1.74559E+06     273.764E+03    -53.9320E-03     106.839E-03    -52.9067E-03     74.9550E-03    -54.1245E-03     106.551E-03    -52.7040E-03     74.4546E-03
            1461     7.68401E-03     55.4967E-03    -33.2282E+06    -115.370E+06    -495.870E+03     263.149E+03    -53.7693E-03     106.700E-03    -52.9307E-03     69.2862E-03    -53.9092E-03     106.314E-03    -52.7177E-03     68.8672E-03
            1462     6.83019E-03     55.4307E-03    -37.0235E+06    -126.362E+06    -4.54317E+06     253.124E+03    -53.6111E-03     106.558E-03    -52.9469E-03     63.0378E-03    -53.7091E-03     106.089E-03    -52.7327E-03     62.6911E-03
            1463     5.97622E-03     55.3708E-03    -41.2301E+06    -135.261E+06    -10.5367E+06     223.605E+03    -53.4544E-03     106.405E-03    -52.9510E-03     56.3322E-03    -53.5217E-03     105.877E-03    -52.7478E-03     56.0492E-03
            1464     5.12252E-03     55.3180E-03    -45.6470E+06    -142.214E+06    -18.8020E+06     215.471E+03    -53.3033E-03     106.244E-03    -52.9410E-03     49.2443E-03    -53.3474E-03     105.676E-03    -52.7626E-03     49.0181E-03
            1465     4.26861E-03     55.2724E-03    -50.0367E+06    -150.246E+06    -27.9266E+06     199.391E+03    -53.1675E-03     106.095E-03    -52.9279E-03     41.7247E-03    -53.1914E-03     105.489E-03    -52.7771E-03     41.5479E-03
            1466     3.41490E-03     55.2345E-03    -54.2903E+06    -158.499E+06    -37.4535E+06     264.510E+03    -53.0504E-03     105.963E-03    -52.9124E-03     33.8805E-03    -53.0572E-03     105.323E-03    -52.7911E-03     33.7483E-03
            1467     2.56107E-03     55.2046E-03    -58.2546E+06    -166.609E+06    -47.1035E+06     195.814E+03    -52.9906E-03     105.880E-03    -52.8895E-03     25.8340E-03    -52.9826E-03     105.210E-03    -52.7989E-03     25.7393E-03
            1468     1.70751E-03     55.1827E-03    -61.5944E+06    -171.672E+06    -55.9709E+06     31.4415E+03    -52.9178E-03     105.773E-03    -52.8547E-03     17.5482E-03    -52.9005E-03     105.089E-03    -52.7963E-03     17.4852E-03
            1469     853.690E-06     55.1695E-03    -63.6580E+06    -172.776E+06    -62.2111E+06    -9.80630E+03    -52.8220E-03     105.668E-03    -52.8457E-03     9.58529E-03    -52.8010E-03     104.988E-03    -52.8139E-03     9.55168E-03
            1470     16.2236E-03     55.2767E-03    -4.79988E+06     127.399E+06     87.8181E+06    -253.315E+03    -51.6397E-03     104.422E-03    -52.7822E-03     35.6826E-03    -52.4957E-03     105.458E-03    -52.5209E-03     35.0543E-03
            1471     15.3713E-03     55.2117E-03    -9.56514E+06     127.340E+06     75.4761E+06     117.396E+03    -52.2416E-03     104.997E-03    -52.7555E-03     70.3801E-03    -53.4772E-03     106.432E-03    -52.5489E-03     69.4778E-03
            1472     14.5159E-03     55.1376E-03    -13.2643E+06     119.179E+06     49.5674E+06     349.139E+03    -52.8988E-03     105.567E-03    -52.6683E-03     85.9398E-03    -54.1645E-03     107.065E-03    -52.5740E-03     84.9250E-03
            1473     13.6626E-03     55.0411E-03    -15.7105E+06     74.1771E+06     21.0853E+06     239.745E+03    -53.5519E-03     106.175E-03    -52.6230E-03     97.7378E-03    -54.7290E-03     107.498E-03    -52.6023E-03     96.6444E-03
            1474     12.8073E-03     54.9434E-03    -18.0784E+06     9.52251E+06     6.25127E+06     405.735E+03    -53.9541E-03     106.625E-03    -52.6713E-03     96.2010E-03    -54.8438E-03     107.467E-03    -52.6276E-03     95.1674E-03
            1475     11.9541E-03     54.8498E-03    -20.1576E+06    -27.7970E+06     6.49496E+06     391.721E+03    -54.0957E-03     106.843E-03    -52.7469E-03     91.4571E-03    -54.7399E-03     107.298E-03    -52.6449E-03     90.5492E-03
            1476     11.0997E-03     54.7614E-03    -22.1979E+06    -55.0488E+06     4.43223E+06     198.542E+03    -54.0874E-03     106.881E-03    -52.7936E-03     87.5457E-03    -54.5604E-03     107.067E-03    -52.6594E-03     86.7511E-03
            1477     10.2460E-03     54.6753E-03    -24.4707E+06    -75.4407E+06     3.91627E+06     258.990E+03    -54.0824E-03     106.922E-03    -52.8393E-03     84.2531E-03    -54.4357E-03     106.909E-03    -52.6749E-03     83.5651E-03
            1478     9.39177E-03     54.5934E-03    -26.9433E+06    -90.0688E+06     3.06489E+06     317.387E+03    -54.0270E-03     106.902E-03    -52.8750E-03     80.0480E-03    -54.2907E-03     106.741E-03    -52.6900E-03     79.4587E-03
            1479     8.53793E-03     54.5156E-03    -29.8753E+06    -103.900E+06     1.70552E+06     279.577E+03    -53.9390E-03     106.845E-03    -52.9058E-03     74.9684E-03    -54.1320E-03     106.558E-03    -52.7033E-03     74.4680E-03
            1480     7.68411E-03     54.4437E-03    -33.2851E+06    -115.216E+06    -462.246E+03     289.308E+03    -53.7799E-03     106.709E-03    -52.9288E-03     69.2428E-03    -53.9203E-03     106.323E-03    -52.7158E-03     68.8238E-03
            1481     6.83010E-03     54.3772E-03    -37.1749E+06    -126.424E+06    -4.69297E+06     232.581E+03    -53.6024E-03     106.546E-03    -52.9441E-03     63.0111E-03    -53.7008E-03     106.078E-03    -52.7303E-03     62.6643E-03
            1482     5.97640E-03     54.3177E-03    -41.4012E+06    -135.425E+06    -10.7946E+06     214.009E+03    -53.4573E-03     106.405E-03    -52.9477E-03     56.3265E-03    -53.5248E-03     105.876E-03    -52.7453E-03     56.0435E-03
            1483     5.12240E-03     54.2647E-03    -45.7833E+06    -142.167E+06    -18.9621E+06     129.937E+03    -53.3137E-03     106.250E-03    -52.9362E-03     49.2310E-03    -53.3584E-03     105.682E-03    -52.7584E-03     49.0035E-03
            1484     4.26875E-03     54.2191E-03    -50.2143E+06    -150.223E+06    -27.9241E+06     171.218E+03    -53.1666E-03     106.089E-03    -52.9219E-03     41.7048E-03    -53.1915E-03     105.483E-03    -52.7709E-03     41.5277E-03
            1485     3.41486E-03     54.1813E-03    -54.5775E+06    -158.326E+06    -37.6196E+06     225.422E+03    -53.0636E-03     105.965E-03    -52.9018E-03     33.8829E-03    -53.0718E-03     105.327E-03    -52.7812E-03     33.7502E-03
            1486     2.56123E-03     54.1512E-03    -58.4871E+06    -166.453E+06    -47.3997E+06     146.822E+03    -52.9709E-03     105.847E-03    -52.8762E-03     25.8181E-03    -52.9638E-03     105.179E-03    -52.7871E-03     25.7227E-03
            1487     1.70739E-03     54.1296E-03    -61.7054E+06    -171.593E+06    -56.0321E+06     92.3146E+03    -52.8779E-03     105.731E-03    -52.8532E-03     17.5273E-03    -52.8611E-03     105.049E-03    -52.7950E-03     17.4653E-03
            1488     853.726E-06     54.1162E-03    -63.9715E+06    -172.755E+06    -62.4366E+06    -19.7307E+03    -52.8627E-03     105.682E-03    -52.8193E-03     9.59407E-03    -52.8430E-03     105.003E-03    -52.7882E-03     9.56029E-03
            1489     16.2255E-03     54.2223E-03    -4.45485E+06     127.288E+06     87.8851E+06     52.9326E+03    -51.4457E-03     104.227E-03    -52.7816E-03     35.4236E-03    -52.2970E-03     105.260E-03    -52.5203E-03     34.8011E-03
            1490     15.3698E-03     54.1585E-03    -9.61343E+06     127.280E+06     75.8023E+06    -377.708E+03    -52.2117E-03     104.974E-03    -52.7621E-03     69.8133E-03    -53.4449E-03     106.405E-03    -52.5537E-03     68.9052E-03
            1491     14.5169E-03     54.0839E-03    -13.6791E+06     118.519E+06     48.7122E+06    -200.635E+03    -52.8642E-03     105.536E-03    -52.6716E-03     85.6581E-03    -54.1290E-03     107.032E-03    -52.5800E-03     84.6372E-03
            1492     13.6615E-03     53.9884E-03    -17.1379E+06     73.5787E+06     19.7072E+06     492.855E+03    -53.6057E-03     106.230E-03    -52.6243E-03     97.7951E-03    -54.7896E-03     107.557E-03    -52.6076E-03     96.7022E-03
            1493     12.8083E-03     53.8899E-03    -19.1843E+06     10.2493E+06     6.17574E+06     390.878E+03    -54.0121E-03     106.685E-03    -52.6730E-03     96.1722E-03    -54.9094E-03     107.533E-03    -52.6291E-03     95.1362E-03
            1494     11.9535E-03     53.7967E-03    -20.6244E+06    -27.8195E+06     6.21323E+06     171.580E+03    -54.0646E-03     106.811E-03    -52.7466E-03     91.4281E-03    -54.7102E-03     107.267E-03    -52.6452E-03     90.5183E-03
            1495     11.1000E-03     53.7080E-03    -22.5081E+06    -55.1161E+06     4.31556E+06     313.563E+03    -54.1135E-03     106.907E-03    -52.7939E-03     87.5641E-03    -54.5883E-03     107.094E-03    -52.6598E-03     86.7700E-03
            1496     10.2457E-03     53.6223E-03    -24.6895E+06    -75.3165E+06     3.78630E+06     180.030E+03    -54.0902E-03     106.928E-03    -52.8378E-03     84.2886E-03    -54.4445E-03     106.916E-03    -52.6738E-03     83.5997E-03
            1497     9.39198E-03     53.5400E-03    -27.1648E+06    -90.2908E+06     2.92635E+06     184.651E+03    -54.0394E-03     106.912E-03    -52.8729E-03     80.0918E-03    -54.3039E-03     106.751E-03    -52.6880E-03     79.5004E-03
            1498     8.53795E-03     53.4625E-03    -30.0554E+06    -103.752E+06     1.65106E+06     286.245E+03    -53.9396E-03     106.842E-03    -52.9026E-03     74.9170E-03    -54.1335E-03     106.556E-03    -52.7003E-03     74.4168E-03
            1499     7.68405E-03     53.3902E-03    -33.3985E+06    -115.280E+06    -530.119E+03     223.549E+03    -53.7754E-03     106.701E-03    -52.9254E-03     69.2032E-03    -53.9162E-03     106.315E-03    -52.7125E-03     68.7835E-03
            1500     6.83031E-03     53.3243E-03    -37.2464E+06    -126.373E+06    -4.47272E+06     244.172E+03    -53.6126E-03     106.554E-03    -52.9409E-03     63.0226E-03    -53.7118E-03     106.085E-03    -52.7260E-03     62.6759E-03
            1501     5.97620E-03     53.2643E-03    -41.4487E+06    -135.376E+06    -10.7746E+06     148.377E+03    -53.4655E-03     106.407E-03    -52.9416E-03     56.3302E-03    -53.5332E-03     105.878E-03    -52.7390E-03     56.0465E-03
            1502     5.12263E-03     53.2115E-03    -45.8227E+06    -142.139E+06    -19.1928E+06     144.715E+03    -53.3077E-03     106.235E-03    -52.9275E-03     49.1858E-03    -53.3523E-03     105.668E-03    -52.7509E-03     48.9584E-03
            1503     4.26863E-03     53.1659E-03    -50.3368E+06    -150.178E+06    -28.1273E+06     219.747E+03    -53.1667E-03     106.079E-03    -52.9124E-03     41.6952E-03    -53.1919E-03     105.474E-03    -52.7622E-03     41.5188E-03
            1504     3.41499E-03     53.1280E-03    -54.6730E+06    -158.332E+06    -37.8105E+06     168.159E+03    -53.0636E-03     105.954E-03    -52.8900E-03     33.8955E-03    -53.0721E-03     105.316E-03    -52.7702E-03     33.7620E-03
            1505     2.56118E-03     53.0981E-03    -58.6470E+06    -166.421E+06     -47.628E+06     118.157E+03    -52.9483E-03     105.813E-03    -52.8648E-03     25.7673E-03    -52.9418E-03     105.146E-03    -52.7766E-03     25.6716E-03
            1506     1.70746E-03     53.0764E-03    -61.8614E+06    -171.403E+06    -56.1761E+06     127.112E+03    -52.8617E-03     105.708E-03    -52.8458E-03     17.5117E-03    -52.8458E-03     105.026E-03    -52.7885E-03     17.4502E-03
            1507     853.664E-06     53.0629E-03    -64.2385E+06    -172.565E+06    -62.5836E+06     67.4017E+03    -52.8927E-03     105.671E-03    -52.7785E-03     9.60185E-03    -52.8744E-03     104.994E-03    -52.7481E-03     9.56907E-03
            1508     16.2254E-03     53.1721E-03    -4.27051E+06     127.714E+06     88.2792E+06     105.522E+03    -51.7272E-03     104.494E-03    -52.7667E-03     35.8206E-03    -52.5821E-03     105.531E-03    -52.5043E-03     35.1964E-03
            1509     15.3713E-03     53.1035E-03    -9.49718E+06     127.143E+06     75.2499E+06    -47.3210E+03    -51.8253E-03     104.571E-03    -52.7461E-03     69.8999E-03    -53.0567E-03     106.002E-03    -52.5405E-03     69.0058E-03
            1510     14.5158E-03     53.0321E-03    -14.5364E+06     117.647E+06     48.2997E+06     163.647E+03    -52.6927E-03     105.367E-03    -52.6745E-03     85.6920E-03    -53.9606E-03     106.861E-03    -52.5825E-03     84.6789E-03
            1511     13.6622E-03     52.9342E-03    -17.2368E+06     73.7802E+06     20.5883E+06     263.191E+03    -53.7234E-03     106.356E-03    -52.6326E-03     97.8603E-03    -54.9117E-03     107.685E-03    -52.6117E-03     96.7597E-03
            1512     12.8076E-03     52.8370E-03    -18.7089E+06     10.3802E+06     6.55580E+06     48.5696E+03    -54.0203E-03     106.694E-03    -52.6741E-03     96.0720E-03    -54.9151E-03     107.541E-03    -52.6292E-03     95.0314E-03
            1513     11.9540E-03     52.7434E-03    -20.5861E+06    -28.0126E+06     6.27739E+06     175.213E+03    -54.0481E-03     106.796E-03    -52.7475E-03     91.5041E-03    -54.6934E-03     107.250E-03    -52.6457E-03     90.5948E-03
            1514     11.0996E-03     52.6548E-03    -22.5958E+06    -55.0695E+06     4.37303E+06     192.759E+03    -54.1010E-03     106.897E-03    -52.7960E-03     87.5529E-03    -54.5762E-03     107.084E-03    -52.6615E-03     86.7576E-03
            1515     10.2460E-03     52.5691E-03    -24.6996E+06    -75.1666E+06     3.96537E+06     171.139E+03    -54.1348E-03     106.974E-03    -52.8388E-03     84.2684E-03    -54.4899E-03     106.963E-03    -52.6741E-03     83.5785E-03
            1516     9.39179E-03     52.4868E-03    -27.2586E+06    -90.3506E+06     2.78757E+06     106.837E+03    -54.0672E-03     106.937E-03    -52.8695E-03     80.0983E-03    -54.3319E-03     106.776E-03    -52.6850E-03     79.5057E-03
            1517     8.53809E-03     52.4091E-03    -30.0694E+06    -103.941E+06     1.59401E+06     147.123E+03    -53.9303E-03     106.829E-03    -52.8985E-03     74.9378E-03    -54.1240E-03     106.542E-03    -52.6963E-03     74.4360E-03
            1518     7.68415E-03     52.3372E-03    -33.4163E+06    -115.313E+06    -621.202E+03     193.338E+03    -53.7791E-03     106.700E-03    -52.9208E-03     69.1953E-03    -53.9198E-03     106.314E-03    -52.7083E-03     68.7753E-03
            1519     6.83009E-03     52.2708E-03    -37.2294E+06    -126.256E+06    -4.41417E+06     142.053E+03    -53.6393E-03     106.573E-03    -52.9342E-03     62.9870E-03    -53.7386E-03     106.105E-03    -52.7192E-03     62.6388E-03
            1520     5.97657E-03     52.2112E-03    -41.4844E+06    -135.186E+06    -10.5598E+06     225.763E+03    -53.4699E-03     106.402E-03    -52.9322E-03     56.2894E-03    -53.5384E-03     105.874E-03    -52.7288E-03     56.0065E-03
            1521     5.12246E-03     52.1582E-03    -46.0510E+06    -142.105E+06    -19.4239E+06     229.787E+03    -53.2930E-03     106.208E-03    -52.9154E-03     49.1526E-03    -53.3384E-03     105.642E-03    -52.7397E-03     48.9266E-03
            1522     4.26885E-03     52.1127E-03    -50.4484E+06    -150.226E+06    -28.5751E+06     167.527E+03    -53.1618E-03     106.060E-03    -52.8985E-03     41.6896E-03    -53.1868E-03     105.456E-03    -52.7504E-03     41.5126E-03
            1523     3.41494E-03     52.0747E-03    -54.6500E+06    -158.408E+06    -38.0098E+06     118.245E+03    -53.0381E-03     105.917E-03    -52.8785E-03     33.8705E-03    -53.0459E-03     105.278E-03    -52.7596E-03     33.7365E-03
            1524     2.56124E-03     52.0448E-03    -58.4547E+06    -166.263E+06    -47.4491E+06     142.277E+03    -52.9387E-03     105.795E-03    -52.8566E-03     25.7354E-03    -52.9317E-03     105.128E-03    -52.7680E-03     25.6399E-03
            1525     1.70747E-03     52.0232E-03    -61.7978E+06    -171.306E+06    -56.0705E+06     126.482E+03    -52.8745E-03     105.705E-03    -52.8306E-03     17.5332E-03    -52.8586E-03     105.024E-03    -52.7730E-03     17.4716E-03
            1526     853.769E-06     52.0097E-03    -63.9674E+06    -172.508E+06    -62.3773E+06     110.915E+03    -52.8391E-03     105.628E-03    -52.7888E-03     9.60323E-03    -52.8198E-03     104.950E-03    -52.7578E-03     9.57111E-03
            1527     16.2255E-03     52.1153E-03    -4.59099E+06     127.246E+06     87.9026E+06     35.4235E+03    -51.6318E-03     104.397E-03    -52.7653E-03     35.7377E-03    -52.4842E-03     105.430E-03    -52.5036E-03     35.1159E-03
            1528     15.3710E-03     52.0536E-03    -9.56645E+06     126.962E+06     75.2964E+06     927.972E+03    -51.8321E-03     104.581E-03    -52.7488E-03     70.2520E-03    -53.0620E-03     106.009E-03    -52.5426E-03     69.3742E-03
            1529     14.5161E-03     51.9775E-03    -13.6806E+06     118.290E+06     49.0982E+06     292.570E+03    -52.7572E-03     105.435E-03    -52.6775E-03     86.2194E-03    -54.0250E-03     106.931E-03    -52.5837E-03     85.2068E-03
            1530     13.6618E-03     51.8815E-03    -16.5810E+06     73.6566E+06     20.7592E+06    -422.873E+03    -53.7092E-03     106.342E-03    -52.6331E-03     97.7548E-03    -54.8920E-03     107.668E-03    -52.6121E-03     96.6468E-03
            1531     12.8081E-03     51.7835E-03    -18.6193E+06     9.83176E+06     6.21257E+06     239.231E+03    -53.9962E-03     106.671E-03    -52.6748E-03     96.0173E-03    -54.8876E-03     107.513E-03    -52.6309E-03     94.9811E-03
            1532     11.9536E-03     51.6903E-03    -20.5382E+06    -27.8185E+06     6.36806E+06     233.482E+03    -54.0846E-03     106.834E-03    -52.7490E-03     91.5051E-03    -54.7303E-03     107.289E-03    -52.6470E-03     90.5959E-03
            1533     11.0999E-03     51.6015E-03    -22.4526E+06    -55.0027E+06     4.42856E+06     74.8405E+03    -54.1314E-03     106.926E-03    -52.7948E-03     87.5235E-03    -54.6061E-03     107.113E-03    -52.6603E-03     86.7262E-03
            1534     10.2457E-03     51.5157E-03    -24.6678E+06    -75.2603E+06     3.86675E+06     154.311E+03    -54.1534E-03     106.988E-03    -52.8350E-03     84.2160E-03    -54.5079E-03     106.977E-03    -52.6707E-03     83.5257E-03
            1535     9.39213E-03     51.4335E-03    -27.1367E+06    -90.2108E+06     2.84293E+06     92.6266E+03    -54.0638E-03     106.929E-03    -52.8648E-03     80.0257E-03    -54.3280E-03     106.768E-03    -52.6804E-03     79.4330E-03
            1536     8.53792E-03     51.3560E-03    -30.1153E+06    -104.222E+06     1.43068E+06     29.4118E+03    -53.9277E-03     106.821E-03    -52.8933E-03     74.9084E-03    -54.1209E-03     106.533E-03    -52.6914E-03     74.4051E-03
            1537     7.68411E-03     51.2837E-03    -33.4780E+06    -115.218E+06    -520.113E+03     133.717E+03    -53.8143E-03     106.728E-03    -52.9138E-03     69.1629E-03    -53.9556E-03     106.343E-03    -52.7008E-03     68.7418E-03
            1538     6.83049E-03     51.2177E-03    -37.3742E+06    -126.241E+06    -4.66007E+06     141.074E+03    -53.6463E-03     106.568E-03    -52.9218E-03     62.9426E-03    -53.7460E-03     106.101E-03    -52.7079E-03     62.5942E-03
            1539     5.97633E-03     51.1577E-03    -41.6422E+06    -135.140E+06    -10.5084E+06     232.149E+03    -53.4477E-03     106.368E-03    -52.9207E-03     56.2621E-03    -53.5171E-03     105.841E-03    -52.7169E-03     55.9796E-03
            1540     5.12277E-03     51.1051E-03    -45.9927E+06    -141.971E+06    -19.2883E+06     272.447E+03    -53.2908E-03     106.194E-03    -52.9036E-03     49.1633E-03    -53.3362E-03     105.629E-03    -52.7275E-03     48.9381E-03
            1541     4.26874E-03     51.0594E-03    -50.3630E+06    -150.312E+06    -28.7350E+06     98.2393E+03    -53.1483E-03     106.033E-03    -52.8849E-03     41.6849E-03    -53.1725E-03     105.428E-03    -52.7376E-03     41.5072E-03
            1542     3.41508E-03     51.0216E-03    -54.5418E+06    -158.349E+06    -37.9443E+06     139.935E+03    -53.0071E-03     105.876E-03    -52.8685E-03     33.8511E-03    -53.0146E-03     105.237E-03    -52.7495E-03     33.7176E-03
            1543     2.56121E-03     50.9916E-03    -58.5293E+06    -166.306E+06    -47.5738E+06     95.8332E+03    -52.9224E-03     105.773E-03    -52.8505E-03     25.7683E-03    -52.9155E-03     105.106E-03    -52.7624E-03     25.6724E-03
            1544     1.70748E-03     50.9700E-03    -61.7254E+06    -171.196E+06    -56.0697E+06     76.8315E+03    -52.8837E-03     105.706E-03    -52.8224E-03     17.5413E-03    -52.8676E-03     105.026E-03    -52.7650E-03     17.4791E-03
            1545     853.743E-06     50.9565E-03    -63.7931E+06    -172.352E+06    -62.2375E+06     26.5807E+03    -52.8106E-03     105.604E-03    -52.7933E-03     9.54724E-03    -52.7909E-03     104.926E-03    -52.7621E-03     9.51425E-03
            1546     16.2254E-03     51.0651E-03    -4.74858E+06     126.738E+06     87.5465E+06     275.609E+03    -51.4142E-03     104.193E-03    -52.7792E-03     35.9759E-03    -52.2657E-03     105.224E-03    -52.5184E-03     35.3618E-03
            1547     15.3700E-03     50.9986E-03    -9.46888E+06     127.279E+06     75.9286E+06     207.018E+03    -52.1874E-03     104.951E-03    -52.7631E-03     70.3798E-03    -53.4216E-03     106.383E-03    -52.5543E-03     69.4832E-03
            1548     14.5165E-03     50.9255E-03    -12.8124E+06     118.841E+06     49.3813E+06     197.710E+03    -52.9862E-03     105.658E-03    -52.6719E-03     85.9518E-03    -54.2507E-03     107.156E-03    -52.5788E-03     84.9319E-03
            1549     13.6619E-03     50.8274E-03    -16.5522E+06     73.3957E+06     20.1320E+06     489.787E+03    -53.5647E-03     106.187E-03    -52.6224E-03     97.5858E-03    -54.7436E-03     107.509E-03    -52.6041E-03     96.4942E-03
            1550     12.8077E-03     50.7308E-03    -19.1580E+06     10.0786E+06     6.22608E+06     50.9273E+03    -53.9697E-03     106.641E-03    -52.6718E-03     95.8471E-03    -54.8641E-03     107.486E-03    -52.6275E-03     94.8086E-03
            1551     11.9539E-03     50.6367E-03    -20.4246E+06    -28.1130E+06     6.23635E+06    -53.7409E+03    -54.1175E-03     106.862E-03    -52.7441E-03     91.4229E-03    -54.7620E-03     107.316E-03    -52.6425E-03     90.5091E-03
            1552     11.0998E-03     50.5484E-03    -22.2826E+06    -55.1772E+06     4.50557E+06     126.599E+03    -54.1686E-03     106.956E-03    -52.7872E-03     87.3756E-03    -54.6423E-03     107.141E-03    -52.6524E-03     86.5778E-03
            1553     10.2461E-03     50.4624E-03    -24.5115E+06    -75.1595E+06     3.99240E+06     80.3199E+03    -54.1281E-03     106.954E-03    -52.8258E-03     84.1453E-03    -54.4817E-03     106.942E-03    -52.6613E-03     83.4548E-03
            1554     9.39184E-03     50.3802E-03    -27.0936E+06    -90.3638E+06     2.92474E+06     77.1558E+03    -54.0547E-03     106.911E-03    -52.8564E-03     79.9395E-03    -54.3186E-03     106.750E-03    -52.6714E-03     79.3465E-03
            1555     8.53825E-03     50.3027E-03    -30.0695E+06    -104.042E+06     1.57692E+06     126.791E+03    -53.9449E-03     106.828E-03    -52.8831E-03     74.8506E-03    -54.1382E-03     106.541E-03    -52.6807E-03     74.3484E-03
            1556     7.68429E-03     50.2305E-03    -33.5164E+06    -115.454E+06    -581.863E+03     65.0908E+03    -53.7911E-03     106.693E-03    -52.9024E-03     69.1680E-03    -53.9320E-03     106.307E-03    -52.6893E-03     68.7466E-03
            1557     6.83029E-03     50.1643E-03    -37.3425E+06    -126.126E+06    -4.44116E+06     211.049E+03    -53.6302E-03     106.542E-03    -52.9122E-03     62.9267E-03    -53.7301E-03     106.075E-03    -52.6974E-03     62.5795E-03
            1558     5.97671E-03     50.1048E-03    -41.6089E+06    -135.378E+06    -10.8864E+06     123.095E+03    -53.4487E-03     106.357E-03    -52.9081E-03     56.2523E-03    -53.5170E-03     105.828E-03    -52.7059E-03     55.9685E-03
            1559     5.12256E-03     50.0517E-03    -45.9403E+06    -141.884E+06    -19.2559E+06     126.907E+03    -53.2820E-03     106.174E-03    -52.8915E-03     49.1586E-03    -53.3274E-03     105.608E-03    -52.7154E-03     48.9316E-03
            1560     4.26898E-03     50.0063E-03    -50.3065E+06    -150.036E+06    -28.5037E+06     226.895E+03    -53.1269E-03     106.001E-03    -52.8741E-03     41.6486E-03    -53.1515E-03     105.397E-03    -52.7261E-03     41.4726E-03
            1561     3.41500E-03     49.9683E-03    -54.7412E+06    -158.509E+06    -38.2140E+06     129.759E+03    -52.9936E-03     105.851E-03    -52.8573E-03     33.8344E-03    -53.0014E-03     105.213E-03    -52.7392E-03     33.7008E-03
            1562     2.56124E-03     49.9386E-03    -58.5958E+06    -166.123E+06    -47.6829E+06     151.601E+03    -52.9114E-03     105.751E-03    -52.8398E-03     25.7505E-03    -52.9049E-03     105.085E-03    -52.7524E-03     25.6554E-03
            1563     1.70748E-03     49.9167E-03    -61.8041E+06    -171.095E+06    -56.3264E+06    -19.5277E+03    -52.8475E-03     105.667E-03    -52.8198E-03     17.5380E-03    -52.8316E-03     104.988E-03    -52.7638E-03     17.4747E-03
            1564     853.787E-06     49.9035E-03    -63.8317E+06    -172.371E+06    -62.3522E+06    -138.320E+03    -52.8267E-03     105.618E-03    -52.7916E-03     9.54665E-03    -52.8070E-03     104.941E-03    -52.7609E-03     9.51139E-03
            1565     16.2242E-03     50.0121E-03    -4.72185E+06     127.119E+06     87.9102E+06    -8.02196E+03    -51.8619E-03     104.642E-03    -52.7806E-03     35.3323E-03    -52.7169E-03     105.677E-03    -52.5185E-03     34.7048E-03
            1566     15.3709E-03     49.9449E-03    -9.10513E+06     127.502E+06     75.4451E+06    -287.341E+03    -52.2374E-03     104.983E-03    -52.7455E-03     69.9081E-03    -53.4714E-03     106.418E-03    -52.5399E-03     68.9984E-03
            1567     14.5166E-03     49.8717E-03    -13.9780E+06     117.883E+06     48.6791E+06     353.817E+03    -52.8998E-03     105.556E-03    -52.6564E-03     85.5738E-03    -54.1663E-03     107.050E-03    -52.5636E-03     84.5561E-03
            1568     13.6624E-03     49.7749E-03    -16.3388E+06     74.1826E+06     21.5071E+06     560.319E+03    -53.5636E-03     106.177E-03    -52.6136E-03     97.5402E-03    -54.7441E-03     107.501E-03    -52.5900E-03     96.4495E-03
            1569     12.8081E-03     49.6772E-03    -17.7929E+06     10.4555E+06     6.98193E+06     225.745E+03    -53.9321E-03     106.591E-03    -52.6593E-03     95.8743E-03    -54.8214E-03     107.434E-03    -52.6138E-03     94.8387E-03
            1570     11.9540E-03     49.5837E-03    -20.1079E+06    -28.5356E+06     6.26092E+06     60.6139E+03    -54.1117E-03     106.843E-03    -52.7314E-03     91.3493E-03    -54.7538E-03     107.294E-03    -52.6295E-03     90.4370E-03
            1571     11.1001E-03     49.4949E-03    -22.1785E+06    -55.3678E+06     4.51245E+06     46.5713E+03    -54.1217E-03     106.897E-03    -52.7755E-03     87.3982E-03    -54.5942E-03     107.081E-03    -52.6405E-03     86.6007E-03
            1572     10.2460E-03     49.4093E-03    -24.4151E+06    -75.1271E+06     4.18577E+06     142.119E+03    -54.1343E-03     106.950E-03    -52.8154E-03     84.1278E-03    -54.4880E-03     106.938E-03    -52.6502E-03     83.4376E-03
            1573     9.39232E-03     49.3270E-03    -27.0770E+06    -90.2964E+06     2.92960E+06     134.675E+03    -54.0574E-03     106.901E-03    -52.8437E-03     79.9569E-03    -54.3211E-03     106.740E-03    -52.6589E-03     79.3650E-03
            1574     8.53817E-03     49.2494E-03    -30.0283E+06    -104.062E+06     1.64463E+06     110.659E+03    -53.9386E-03     106.808E-03    -52.8697E-03     74.8342E-03    -54.1317E-03     106.521E-03    -52.6671E-03     74.3321E-03
            1575     7.68435E-03     49.1774E-03    -33.4694E+06    -115.273E+06    -583.602E+03     200.483E+03    -53.7655E-03     106.654E-03    -52.8886E-03     69.1415E-03    -53.9062E-03     106.268E-03    -52.6759E-03     68.7223E-03
            1576     6.83053E-03     49.1111E-03    -37.3920E+06    -126.500E+06    -4.72689E+06     85.4051E+03    -53.5977E-03     106.498E-03    -52.8999E-03     62.8845E-03    -53.6967E-03     106.029E-03    -52.6859E-03     62.5362E-03
            1577     5.97648E-03     49.0514E-03    -41.5382E+06    -135.256E+06    -10.7809E+06     89.1871E+03    -53.4486E-03     106.346E-03    -52.8973E-03     56.2218E-03    -53.5168E-03     105.818E-03    -52.6948E-03     55.9375E-03
            1578     5.12293E-03     48.9987E-03    -46.0564E+06    -142.016E+06    -19.2378E+06     135.555E+03    -53.2700E-03     106.150E-03    -52.8800E-03     49.1449E-03    -53.3157E-03     105.584E-03    -52.7035E-03     48.9182E-03
            1579     4.26883E-03     48.9530E-03    -50.5238E+06    -150.029E+06    -28.3724E+06     200.037E+03    -53.1137E-03     105.977E-03    -52.8629E-03     41.6216E-03    -53.1396E-03     105.373E-03    -52.7140E-03     41.4455E-03
            1580     3.41514E-03     48.9154E-03    -54.7206E+06    -158.344E+06    -38.1999E+06     234.936E+03    -52.9988E-03     105.841E-03    -52.8423E-03     33.8026E-03    -53.0068E-03     105.204E-03    -52.7244E-03     33.6704E-03
            1581     2.56133E-03     48.8852E-03    -58.7118E+06    -166.010E+06    -47.9888E+06     114.154E+03    -52.8887E-03     105.711E-03    -52.8219E-03     25.7401E-03    -52.8825E-03     105.046E-03    -52.7360E-03     25.6447E-03
            1582     1.70752E-03     48.8638E-03    -61.7815E+06    -170.845E+06    -56.2051E+06    -62.7579E+03    -52.8199E-03     105.628E-03    -52.8085E-03     17.5299E-03    -52.8043E-03     104.950E-03    -52.7523E-03     17.4661E-03
            1583     853.607E-06     48.8501E-03    -64.0093E+06    -172.662E+06    -62.5022E+06    -68.2249E+03    -52.8276E-03     105.603E-03    -52.7751E-03     9.51910E-03    -52.8081E-03     104.924E-03    -52.7444E-03     9.48464E-03
            1584     16.2266E-03     48.9567E-03    -4.68563E+06     126.879E+06     87.6002E+06    -87.1744E+03    -51.8956E-03     104.661E-03    -52.7655E-03     35.7320E-03    -52.7508E-03     105.696E-03    -52.5047E-03     35.1008E-03
            1585     15.3716E-03     48.8936E-03    -9.46340E+06     126.966E+06     75.5154E+06     492.714E+03    -52.2395E-03     104.972E-03    -52.7325E-03     70.4381E-03    -53.4719E-03     106.402E-03    -52.5253E-03     69.5420E-03
            1586     14.5165E-03     48.8175E-03    -13.3679E+06     118.074E+06     49.4857E+06     48.0432E+03    -52.7635E-03     105.412E-03    -52.6488E-03     85.7826E-03    -54.0244E-03     106.901E-03    -52.5532E-03     84.7693E-03
            1587     13.6625E-03     48.7223E-03    -16.1106E+06     73.9540E+06     21.0401E+06    -169.291E+03    -53.5784E-03     106.183E-03    -52.6047E-03     97.7612E-03    -54.7573E-03     107.506E-03    -52.5834E-03     96.6624E-03
            1588     12.8081E-03     48.6237E-03    -18.2594E+06     10.2410E+06     6.37915E+06     513.265E+03    -54.0147E-03     106.663E-03    -52.6479E-03     96.2174E-03    -54.9068E-03     107.508E-03    -52.6044E-03     95.1845E-03
            1589     11.9543E-03     48.5305E-03    -20.0607E+06    -27.8369E+06     6.45570E+06     395.042E+03    -54.0629E-03     106.784E-03    -52.7208E-03     91.4451E-03    -54.7061E-03     107.238E-03    -52.6191E-03     90.5388E-03
            1590     11.1000E-03     48.4417E-03    -22.2285E+06    -55.4856E+06     4.22570E+06     103.768E+03    -54.1072E-03     106.873E-03    -52.7659E-03     87.5097E-03    -54.5796E-03     107.057E-03    -52.6320E-03     86.7136E-03
            1591     10.2463E-03     48.3560E-03    -24.4761E+06    -75.2844E+06     4.01128E+06     229.786E+03    -54.1489E-03     106.955E-03    -52.8059E-03     84.1578E-03    -54.5027E-03     106.943E-03    -52.6412E-03     83.4683E-03
            1592     9.39214E-03     48.2738E-03    -27.0719E+06    -89.9897E+06     2.96904E+06     210.608E+03    -54.0833E-03     106.915E-03    -52.8319E-03     79.9569E-03    -54.3475E-03     106.755E-03    -52.6473E-03     79.3659E-03
            1593     8.53845E-03     48.1963E-03    -30.1077E+06    -104.249E+06     1.38598E+06     137.806E+03    -53.9393E-03     106.794E-03    -52.8548E-03     74.8103E-03    -54.1321E-03     106.506E-03    -52.6530E-03     74.3087E-03
            1594     7.68450E-03     48.1241E-03    -33.5008E+06    -115.293E+06    -597.477E+03     189.234E+03    -53.7567E-03     106.630E-03    -52.8733E-03     69.0687E-03    -53.8974E-03     106.244E-03    -52.6605E-03     68.6495E-03
            1595     6.83054E-03     48.0580E-03    -37.4024E+06    -126.328E+06    -4.77119E+06     132.703E+03    -53.5711E-03     106.455E-03    -52.8843E-03     62.8847E-03    -53.6703E-03     105.987E-03    -52.6707E-03     62.5375E-03
            1596     5.97680E-03     47.9983E-03    -41.7831E+06    -135.402E+06    -10.8796E+06     90.3970E+03    -53.4176E-03     106.302E-03    -52.8840E-03     56.2124E-03    -53.4866E-03     105.773E-03    -52.6815E-03     55.9287E-03
            1597     5.12270E-03     47.9454E-03    -46.1613E+06    -142.022E+06    -19.3061E+06     160.149E+03    -53.2648E-03     106.132E-03    -52.8669E-03     49.0854E-03    -53.3109E-03     105.566E-03    -52.6906E-03     48.8591E-03
            1598     4.26906E-03     47.9001E-03    -50.5212E+06    -150.127E+06    -28.3471E+06     98.0929E+03    -53.1113E-03     105.959E-03    -52.8482E-03     41.5972E-03    -53.1370E-03     105.355E-03    -52.6990E-03     41.4200E-03
            1599     3.41515E-03     47.8620E-03    -54.8271E+06    -158.256E+06    -37.9113E+06     205.017E+03    -52.9725E-03     105.801E-03    -52.8287E-03     33.7891E-03    -52.9815E-03     105.164E-03    -52.7093E-03     33.6567E-03
            1600     2.56132E-03     47.8325E-03    -58.6989E+06    -165.481E+06    -48.0007E+06     194.151E+03    -52.8860E-03     105.691E-03    -52.8049E-03     25.7502E-03    -52.8804E-03     105.029E-03    -52.7198E-03     25.6559E-03
            1601     1.70751E-03     47.8104E-03    -62.0309E+06    -170.882E+06    -56.6759E+06    -20.2734E+03    -52.8302E-03     105.609E-03    -52.7783E-03     17.5063E-03    -52.8152E-03     104.931E-03    -52.7239E-03     17.4430E-03
            1602     853.932E-06     47.7973E-03    -64.1065E+06    -172.870E+06    -62.5537E+06    -13.0431E+03    -52.7599E-03     105.526E-03    -52.7666E-03     9.58073E-03    -52.7405E-03     104.847E-03    -52.7358E-03     9.54729E-03
            1603     16.2238E-03     47.9057E-03    -4.68260E+06     126.471E+06     87.4652E+06     172.791E+03    -51.7259E-03     104.489E-03    -52.7626E-03     36.2013E-03    -52.5781E-03     105.519E-03    -52.5019E-03     35.5749E-03
            1604     15.3703E-03     47.8374E-03    -9.38524E+06     127.142E+06     75.9307E+06    -394.282E+03    -52.2350E-03     104.971E-03    -52.7356E-03     70.0055E-03    -53.4659E-03     106.399E-03    -52.5267E-03     69.0980E-03
            1605     14.5173E-03     47.7665E-03    -13.0404E+06     118.138E+06     49.2052E+06    -213.174E+03    -52.7815E-03     105.429E-03    -52.6475E-03     85.7499E-03    -54.0437E-03     106.922E-03    -52.5539E-03     84.7314E-03
            1606     13.6618E-03     47.6680E-03    -16.8148E+06     73.3410E+06     20.2428E+06     515.606E+03    -53.6158E-03     106.218E-03    -52.6018E-03     97.9302E-03    -54.8001E-03     107.544E-03    -52.5826E-03     96.8373E-03
            1607     12.8084E-03     47.5710E-03    -19.0513E+06     10.5193E+06     6.43328E+06     163.710E+03    -54.0182E-03     106.665E-03    -52.6464E-03     96.0850E-03    -54.9158E-03     107.513E-03    -52.6019E-03     95.0460E-03
            1608     11.9540E-03     47.4770E-03    -20.5622E+06    -27.9050E+06     6.20818E+06     216.153E+03    -54.0816E-03     106.798E-03    -52.7165E-03     91.4977E-03    -54.7275E-03     107.254E-03    -52.6152E-03     90.5882E-03
            1609     11.1003E-03     47.3887E-03    -22.4402E+06    -55.2052E+06     4.33798E+06     302.308E+03    -54.1443E-03     106.904E-03    -52.7598E-03     87.5036E-03    -54.6189E-03     107.090E-03    -52.6255E-03     86.7085E-03
            1610     10.2461E-03     47.3026E-03    -24.6685E+06    -75.4463E+06     3.83107E+06     90.4337E+03    -54.1680E-03     106.964E-03    -52.7961E-03     84.1574E-03    -54.5219E-03     106.951E-03    -52.6317E-03     83.4665E-03
            1611     9.39251E-03     47.2206E-03    -27.1616E+06    -90.1287E+06     3.00756E+06     262.831E+03    -54.0895E-03     106.910E-03    -52.8207E-03     79.8727E-03    -54.3539E-03     106.749E-03    -52.6356E-03     79.2821E-03
            1612     8.53844E-03     47.1429E-03    -30.1030E+06    -103.996E+06     1.44362E+06      229.73E+03    -53.9381E-03     106.780E-03    -52.8414E-03     74.8084E-03    -54.1312E-03     106.492E-03    -52.6397E-03     74.3083E-03
            1613     7.68463E-03     47.0711E-03    -33.5051E+06    -115.585E+06    -638.706E+03     94.2280E+03    -53.7520E-03     106.611E-03    -52.8590E-03     69.0540E-03    -53.8921E-03     106.224E-03    -52.6461E-03     68.6338E-03
            1614     6.83071E-03     47.0049E-03    -37.3746E+06    -126.075E+06    -4.34500E+06     219.591E+03    -53.5732E-03     106.443E-03    -52.8698E-03     62.8747E-03    -53.6731E-03     105.975E-03    -52.6545E-03     62.5289E-03
            1615     5.97670E-03     46.9451E-03    -41.6541E+06    -135.322E+06    -10.7916E+06     203.714E+03    -53.4120E-03     106.278E-03    -52.8658E-03     56.1710E-03    -53.4805E-03     105.749E-03    -52.6631E-03     55.8891E-03
            1616     5.12301E-03     46.8924E-03    -46.0883E+06    -142.155E+06    -19.5057E+06    -7.35772E+03    -53.2433E-03     106.090E-03    -52.8467E-03     49.0141E-03    -53.2885E-03     105.523E-03    -52.6713E-03     48.7860E-03
            1617     4.26904E-03     46.8468E-03    -50.5074E+06    -150.153E+06    -28.4178E+06     127.375E+03    -53.0736E-03     105.904E-03    -52.8306E-03     41.5547E-03    -53.0991E-03     105.300E-03    -52.6818E-03     41.3780E-03
            1618     3.41519E-03     46.8092E-03    -54.8887E+06    -158.150E+06    -37.7971E+06     193.614E+03    -52.9619E-03     105.775E-03    -52.8132E-03     33.7830E-03    -52.9716E-03     105.138E-03    -52.6933E-03     33.6507E-03
            1619     2.56137E-03     46.7791E-03    -58.7389E+06    -165.361E+06    -47.7382E+06     177.556E+03    -52.8887E-03     105.674E-03    -52.7851E-03     25.7098E-03    -52.8840E-03     105.012E-03    -52.6989E-03     25.6153E-03
            1620     1.70768E-03     46.7576E-03    -61.8643E+06    -170.685E+06    -56.6156E+06     161.010E+03    -52.7930E-03     105.550E-03    -52.7571E-03     17.5028E-03    -52.7774E-03     104.873E-03    -52.7030E-03     17.4421E-03
            1621     853.655E-06     46.7441E-03    -64.0626E+06    -172.902E+06    -62.7586E+06    -28.7336E+03    -52.7536E-03     105.493E-03    -52.7390E-03     9.60098E-03    -52.7337E-03     104.814E-03    -52.7092E-03     9.56736E-03
            1622     16.2269E-03     46.8504E-03    -4.43265E+06     127.296E+06     88.0542E+06    -94.2446E+03    -51.9902E-03     104.747E-03    -52.7565E-03     35.5413E-03    -52.8431E-03     105.780E-03    -52.4944E-03     34.9143E-03
            1623     15.3721E-03     46.7861E-03    -8.99398E+06     127.390E+06     75.4314E+06    -248.413E+03    -51.8030E-03     104.532E-03    -52.7290E-03     70.0296E-03    -53.0348E-03     105.965E-03    -52.5235E-03     69.1319E-03
            1624     14.5158E-03     46.7121E-03    -14.5598E+06     117.094E+06     48.1185E+06     212.975E+03    -52.8654E-03     105.518E-03    -52.6523E-03     86.0252E-03    -54.1378E-03     107.015E-03    -52.5604E-03     85.0059E-03
            1625     13.6630E-03     46.6154E-03    -16.8712E+06     73.6660E+06     21.0843E+06     92.9731E+03    -53.7488E-03     106.354E-03    -52.6056E-03     97.9386E-03    -54.9368E-03     107.683E-03    -52.5825E-03     96.8353E-03
            1626     12.8080E-03     46.5175E-03    -18.3475E+06     10.4810E+06     6.81287E+06     206.645E+03    -53.9991E-03     106.643E-03    -52.6438E-03     96.1197E-03    -54.8930E-03     107.489E-03    -52.5983E-03     95.0820E-03
            1627     11.9545E-03     46.4240E-03    -20.3890E+06    -28.1291E+06     6.31424E+06     228.104E+03    -54.1383E-03     106.850E-03    -52.7119E-03     91.4431E-03    -54.7830E-03     107.304E-03    -52.6100E-03     90.5324E-03
            1628     11.1001E-03     46.3353E-03    -22.3823E+06    -55.1048E+06     4.49407E+06     186.649E+03    -54.1871E-03     106.938E-03    -52.7509E-03     87.4735E-03    -54.6614E-03     107.124E-03    -52.6160E-03     86.6768E-03
            1629     10.2466E-03     46.2494E-03    -24.6380E+06    -75.2880E+06     3.97311E+06     194.009E+03    -54.1716E-03     106.956E-03    -52.7842E-03     84.0870E-03    -54.5253E-03     106.943E-03    -52.6194E-03     83.3980E-03
            1630     9.39239E-03     46.1672E-03    -27.1733E+06    -90.4690E+06     2.85799E+06     90.0833E+03    -54.0693E-03     106.877E-03    -52.8077E-03     79.8713E-03    -54.3327E-03     106.715E-03    -52.6229E-03     79.2794E-03
            1631     8.53866E-03     46.0899E-03    -30.0182E+06    -103.878E+06     1.67196E+06     280.531E+03    -53.9287E-03     106.758E-03    -52.8296E-03     74.7349E-03    -54.1216E-03     106.471E-03    -52.6271E-03     74.2358E-03
            1632     7.68464E-03     46.0178E-03    -33.4871E+06    -115.387E+06    -669.558E+03     165.215E+03    -53.7678E-03     106.612E-03    -52.8438E-03     69.0077E-03    -53.9079E-03     106.225E-03    -52.6313E-03     68.5887E-03
            1633     6.83080E-03     45.9518E-03    -37.3854E+06    -126.356E+06    -4.48117E+06     112.976E+03    -53.6128E-03     106.462E-03    -52.8491E-03     62.7849E-03    -53.7121E-03     105.993E-03    -52.6341E-03     62.4375E-03
            1634     5.97702E-03     45.8920E-03    -41.5437E+06    -135.040E+06    -10.5188E+06     204.025E+03    -53.3994E-03     106.241E-03    -52.8411E-03     56.0841E-03    -53.4680E-03     105.713E-03    -52.6376E-03     55.8026E-03
            1635     5.12303E-03     45.8392E-03    -46.0530E+06    -142.054E+06    -19.4179E+06     145.176E+03    -53.1943E-03     106.017E-03    -52.8223E-03     48.9685E-03    -53.2394E-03     105.450E-03    -52.6466E-03     48.7429E-03
            1636     4.26915E-03     45.7939E-03    -50.6908E+06    -150.261E+06    -28.6650E+06     110.947E+03    -53.0597E-03     105.866E-03    -52.8059E-03     41.5017E-03    -53.0856E-03     105.261E-03    -52.6578E-03     41.3250E-03
            1637     3.41526E-03     45.7560E-03    -54.9174E+06    -158.219E+06    -38.0766E+06     161.885E+03    -52.9575E-03     105.741E-03    -52.7838E-03     33.7218E-03    -52.9667E-03     105.104E-03    -52.6652E-03     33.5891E-03
            1638     2.56152E-03     45.7261E-03    -58.7905E+06    -165.425E+06    -47.8533E+06     77.6608E+03    -52.8421E-03     105.599E-03    -52.7564E-03     25.6546E-03    -52.8373E-03     104.937E-03    -52.6706E-03     25.5590E-03
            1639     1.70753E-03     45.7045E-03    -61.9089E+06    -170.454E+06    -56.2264E+06     158.919E+03    -52.7663E-03     105.500E-03    -52.7333E-03     17.4483E-03    -52.7519E-03     104.823E-03    -52.6775E-03     17.3875E-03
            1640     853.870E-06     45.6911E-03    -64.1697E+06    -172.589E+06    -62.5674E+06     287.762E+03    -52.7645E-03     105.441E-03    -52.6761E-03     9.56100E-03    -52.7458E-03     104.763E-03    -52.6456E-03     9.53163E-03
            1641     16.2256E-03     45.7980E-03    -4.73168E+06     126.614E+06     87.4697E+06    -244.348E+03    -51.6433E-03     104.413E-03    -52.7696E-03     35.9504E-03    -52.4986E-03     105.447E-03    -52.5090E-03     35.3245E-03
            1642     15.3697E-03     45.7340E-03    -9.74127E+06     126.604E+06     75.4607E+06     896.756E+03    -52.1297E-03     104.878E-03    -52.7482E-03     70.8259E-03    -53.3654E-03     106.310E-03    -52.5403E-03     69.9414E-03
            1643     14.5171E-03     45.6580E-03    -13.4025E+06     118.025E+06     49.5896E+06     293.938E+03    -52.9418E-03     105.606E-03    -52.6639E-03     86.2391E-03    -54.2084E-03     107.100E-03    -52.5677E-03     85.2233E-03
            1644     13.6617E-03     45.5625E-03    -16.5670E+06     73.4536E+06     20.4238E+06    -290.015E+03    -53.7982E-03     106.405E-03    -52.6065E-03     97.8882E-03    -54.9803E-03     107.730E-03    -52.5869E-03     96.7813E-03
            1645     12.8085E-03     45.4639E-03    -18.7219E+06     9.63414E+06     5.95731E+06     82.6765E+03    -54.1489E-03     106.788E-03    -52.6393E-03     96.1144E-03    -55.0409E-03     107.631E-03    -52.5964E-03     95.0733E-03
            1646     11.9541E-03     45.3710E-03    -20.2165E+06    -27.6049E+06     6.44903E+06     334.025E+03    -54.2019E-03     106.904E-03    -52.7020E-03     91.4049E-03    -54.8461E-03     107.360E-03    -52.6004E-03     90.4952E-03
            1647     11.1006E-03     45.2817E-03    -22.2964E+06    -55.0519E+06     4.25098E+06     282.432E+03    -54.2106E-03     106.946E-03    -52.7357E-03     87.3625E-03    -54.6832E-03     107.132E-03    -52.6022E-03     86.5678E-03
            1648     10.2464E-03     45.1964E-03    -24.5575E+06    -75.3519E+06     3.90237E+06     212.702E+03    -54.1486E-03     106.917E-03    -52.7686E-03     84.0031E-03    -54.5013E-03     106.904E-03    -52.6043E-03     83.3150E-03
            1649     9.39268E-03     45.1140E-03    -27.1690E+06    -90.2470E+06     2.81271E+06     189.979E+03    -54.0754E-03     106.866E-03    -52.7911E-03     79.7871E-03    -54.3386E-03     106.705E-03    -52.6067E-03     79.1970E-03
            1650     8.53869E-03     45.0367E-03    -30.1857E+06    -104.170E+06     1.40099E+06     90.9049E+03    -53.9438E-03     106.753E-03    -52.8096E-03     74.5821E-03    -54.1365E-03     106.465E-03    -52.6077E-03     74.0807E-03
            1651     7.68487E-03     44.9647E-03    -33.5043E+06    -115.184E+06    -654.078E+03     221.571E+03    -53.7826E-03     106.602E-03    -52.8199E-03     68.8916E-03    -53.9229E-03     106.217E-03    -52.6075E-03     68.4733E-03
            1652     6.83103E-03     44.8985E-03    -37.4078E+06    -126.309E+06    -4.71691E+06     153.936E+03    -53.6042E-03     106.424E-03    -52.8203E-03     62.6894E-03    -53.7031E-03     105.956E-03    -52.6065E-03     62.3430E-03
            1653     5.97714E-03     44.8390E-03    -41.7584E+06    -135.120E+06    -10.6924E+06     160.269E+03    -53.3785E-03     106.189E-03    -52.8109E-03     55.9812E-03    -53.4476E-03     105.662E-03    -52.6079E-03     55.6994E-03
            1654     5.12320E-03     44.7863E-03    -46.2375E+06    -141.884E+06    -19.2728E+06     314.096E+03    -53.1809E-03     105.971E-03    -52.7904E-03     48.8857E-03    -53.2272E-03     105.406E-03    -52.6140E-03     48.6626E-03
            1655     4.26929E-03     44.7408E-03    -50.6105E+06    -150.184E+06    -28.7151E+06     218.137E+03    -53.0582E-03     105.825E-03    -52.7672E-03     41.4324E-03    -53.0836E-03     105.221E-03    -52.6196E-03     41.2574E-03
            1656     3.41552E-03     44.7030E-03    -54.9820E+06    -158.282E+06    -38.4238E+06     18.1004E+03    -52.9133E-03     105.654E-03    -52.7403E-03     33.6391E-03    -52.9223E-03     105.017E-03    -52.6232E-03     33.5048E-03
            1657     2.56149E-03     44.6732E-03    -58.8440E+06    -165.308E+06    -47.9826E+06     69.8057E+03    -52.8038E-03     105.517E-03    -52.7129E-03     25.5858E-03    -52.7992E-03     104.856E-03    -52.6278E-03     25.4902E-03
            1658     1.70778E-03     44.6515E-03    -62.0389E+06    -170.511E+06    -56.4380E+06     36.7393E+03    -52.7434E-03     105.425E-03    -52.6816E-03     17.3900E-03    -52.7293E-03     104.749E-03    -52.6266E-03     17.3277E-03
            1659     853.865E-06     44.6381E-03    -64.0563E+06    -172.297E+06    -62.4037E+06     157.891E+03    -52.6542E-03     105.324E-03    -52.6702E-03     9.57370E-03    -52.6356E-03     104.648E-03    -52.6395E-03     9.54275E-03
            1660     16.2231E-03     44.7454E-03    -4.85291E+06     126.288E+06     87.4434E+06     34.3411E+03    -51.6523E-03     104.431E-03    -52.7790E-03     35.2320E-03    -52.5044E-03     105.461E-03    -52.5179E-03     34.6049E-03
            1661     15.3716E-03     44.6784E-03    -9.89377E+06     126.457E+06     75.3308E+06    -763.099E+03    -52.3552E-03     105.104E-03    -52.7486E-03     69.5140E-03    -53.5877E-03     106.532E-03    -52.5410E-03     68.5984E-03
            1662     14.5159E-03     44.6067E-03    -12.9861E+06     118.157E+06     49.3364E+06    -41.0834E+03    -52.9392E-03     105.594E-03    -52.6545E-03     85.8314E-03    -54.2018E-03     107.087E-03    -52.5603E-03     84.8099E-03
            1663     13.6625E-03     44.5075E-03    -16.1468E+06     73.1684E+06     20.6145E+06     561.425E+03    -53.7834E-03     106.383E-03    -52.5993E-03     97.5953E-03    -54.9620E-03     107.704E-03    -52.5789E-03     96.4988E-03
            1664     12.8082E-03     44.4115E-03    -18.7184E+06     9.66928E+06     6.07686E+06     246.482E+03    -54.1917E-03     106.821E-03    -52.6292E-03     95.7204E-03    -55.0833E-03     107.663E-03    -52.5857E-03     94.6794E-03
            1665     11.9547E-03     44.3168E-03    -20.7807E+06    -27.7515E+06     6.15029E+06     141.466E+03    -54.2353E-03     106.922E-03    -52.6865E-03     91.3125E-03    -54.8816E-03     107.378E-03    -52.5853E-03     90.3998E-03
            1666     11.1006E-03     44.2290E-03    -22.4853E+06    -54.7681E+06     4.41204E+06     221.521E+03    -54.2003E-03     106.919E-03    -52.7186E-03     87.2098E-03    -54.6741E-03     107.106E-03    -52.5846E-03     86.4146E-03
            1667     10.2468E-03     44.1429E-03    -24.6585E+06    -75.4764E+06     3.76473E+06     195.798E+03    -54.1812E-03     106.929E-03    -52.7476E-03     83.9115E-03    -54.5337E-03     106.915E-03    -52.5836E-03     83.2229E-03
            1668     9.39285E-03     44.0610E-03    -27.2179E+06    -90.1027E+06     2.91499E+06     264.583E+03    -54.0918E-03     106.858E-03    -52.7661E-03     79.6322E-03    -54.3553E-03     106.696E-03    -52.5814E-03     79.0432E-03
            1669     8.53902E-03     43.9835E-03    -30.1516E+06    -104.056E+06     1.32438E+06     101.683E+03    -53.9573E-03     106.736E-03    -52.7791E-03     74.4788E-03    -54.1494E-03     106.448E-03    -52.5779E-03     73.9779E-03
            1670     7.68518E-03     43.9116E-03    -33.6004E+06    -115.444E+06    -645.517E+03     100.409E+03    -53.7851E-03     106.571E-03    -52.7859E-03     68.7702E-03    -53.9253E-03     106.184E-03    -52.5730E-03     68.3506E-03
            1671     6.83123E-03     43.8455E-03    -37.4463E+06    -126.012E+06    -4.64407E+06     286.749E+03    -53.5570E-03     106.341E-03    -52.7838E-03     62.5350E-03    -53.6563E-03     105.873E-03    -52.5700E-03     62.1911E-03
            1672     5.97732E-03     43.7859E-03    -41.7322E+06    -135.140E+06    -10.7948E+06     208.272E+03    -53.3634E-03     106.136E-03    -52.7722E-03     55.8309E-03    -53.4320E-03     105.608E-03    -52.5697E-03     55.5501E-03
            1673     5.12346E-03     43.7334E-03    -46.1438E+06    -142.032E+06    -19.2126E+06     184.173E+03    -53.2027E-03     105.948E-03    -52.7448E-03     48.7898E-03    -53.2484E-03     105.381E-03    -52.5681E-03     48.5651E-03
            1674     4.26957E-03     43.6878E-03    -50.5335E+06    -150.082E+06    -28.5695E+06     221.202E+03    -53.0168E-03     105.731E-03    -52.7145E-03     41.3277E-03    -53.0421E-03     105.127E-03    -52.5664E-03     41.1531E-03
            1675     3.41556E-03     43.6502E-03    -54.7189E+06    -158.041E+06    -38.1138E+06     119.064E+03    -52.8713E-03     105.556E-03    -52.6846E-03     33.5265E-03    -52.8797E-03     104.919E-03    -52.5666E-03     33.3939E-03
            1676     2.56178E-03     43.6203E-03    -58.6539E+06    -165.374E+06    -47.7321E+06     19.9571E+03    -52.7573E-03     105.410E-03    -52.6529E-03     25.5188E-03    -52.7520E-03     104.748E-03    -52.5667E-03     25.4229E-03
            1677     1.70780E-03     43.5987E-03    -61.8459E+06    -170.435E+06    -56.2703E+06     23.8117E+03    -52.6565E-03     105.283E-03    -52.6264E-03     17.3764E-03    -52.6417E-03     104.607E-03    -52.5709E-03     17.3142E-03
            1678     853.888E-06     43.5854E-03    -64.0165E+06    -172.445E+06    -62.5548E+06    -84.5696E+03    -52.6296E-03     105.229E-03    -52.5991E-03     9.50900E-03    -52.6104E-03     104.552E-03    -52.5690E-03     9.47482E-03
            1679     16.2280E-03     43.6908E-03    -4.38795E+06     127.126E+06     88.0332E+06     233.381E+03    -51.9402E-03     104.705E-03    -52.7643E-03     35.8158E-03    -52.7934E-03     105.738E-03    -52.5021E-03     35.1912E-03
            1680     15.3705E-03     43.6269E-03    -9.05232E+06     127.204E+06     75.6213E+06    -259.953E+03    -52.1885E-03     104.918E-03    -52.7291E-03     70.0603E-03    -53.4204E-03     106.350E-03    -52.5223E-03     69.1526E-03
            1681     14.5174E-03     43.5519E-03    -14.4884E+06     116.597E+06     47.7045E+06    -156.170E+03    -53.0375E-03     105.671E-03    -52.6333E-03     85.8569E-03    -54.3039E-03     107.161E-03    -52.5429E-03     84.8308E-03
            1682     13.6627E-03     43.4555E-03    -17.5282E+06     72.8854E+06     20.0038E+06     450.803E+03    -53.7832E-03     106.360E-03    -52.5770E-03     97.6976E-03    -54.9675E-03     107.683E-03    -52.5573E-03     96.6000E-03
            1683     12.8088E-03     43.3571E-03    -19.1611E+06     10.8951E+06     6.51662E+06     362.082E+03    -54.1291E-03     106.738E-03    -52.6092E-03     95.6974E-03    -55.0248E-03     107.586E-03    -52.5646E-03     94.6600E-03
            1684     11.9547E-03     43.2643E-03    -20.5880E+06    -28.0380E+06     6.15142E+06    -91.3298E+03    -54.2063E-03     106.873E-03    -52.6669E-03     91.2009E-03    -54.8502E-03     107.327E-03    -52.5657E-03     90.2863E-03
            1685     11.1008E-03     43.1752E-03    -22.5471E+06    -55.3078E+06     4.35403E+06     19.3338E+03    -54.2314E-03     106.929E-03    -52.6976E-03     87.1515E-03    -54.7046E-03     107.113E-03    -52.5630E-03     86.3532E-03
            1686     10.2471E-03     43.0899E-03    -24.6897E+06    -75.0812E+06     3.92237E+06     252.564E+03    -54.2324E-03     106.953E-03    -52.7206E-03     83.7862E-03    -54.5855E-03     106.941E-03    -52.5563E-03     83.0982E-03
            1687     9.39320E-03     43.0076E-03    -27.1761E+06    -90.3507E+06     2.83143E+06     110.879E+03    -54.1144E-03     106.847E-03    -52.7325E-03     79.5294E-03    -54.3769E-03     106.684E-03    -52.5480E-03     78.9384E-03
            1688     8.53934E-03     42.9304E-03    -30.1074E+06    -103.814E+06     1.58061E+06     240.447E+03    -53.9692E-03     106.710E-03    -52.7410E-03     74.3637E-03    -54.1615E-03     106.422E-03    -52.5389E-03     73.8650E-03
            1689     7.68542E-03     42.8584E-03    -33.5465E+06    -115.529E+06    -705.326E+03     122.971E+03    -53.7768E-03     106.518E-03    -52.7416E-03     68.6026E-03    -53.9161E-03     106.131E-03    -52.5290E-03     68.1840E-03
            1690     6.83166E-03     42.7925E-03    -37.4258E+06    -126.204E+06    -4.39474E+06     199.729E+03    -53.5476E-03     106.284E-03    -52.7360E-03     62.3339E-03    -53.6466E-03     105.814E-03    -52.5207E-03     61.9894E-03
            1691     5.97765E-03     42.7331E-03    -41.6493E+06    -135.000E+06    -10.7906E+06     227.046E+03    -53.3494E-03     106.066E-03    -52.7165E-03     55.7049E-03    -53.4176E-03     105.538E-03    -52.5143E-03     55.4251E-03
            1692     5.12374E-03     42.6803E-03    -46.0974E+06    -142.053E+06    -19.3028E+06     122.151E+03    -53.1745E-03     105.857E-03    -52.6827E-03     48.6227E-03    -53.2196E-03     105.290E-03    -52.5063E-03     48.3975E-03
            1693     4.26984E-03     42.6352E-03    -50.5566E+06    -149.854E+06    -28.4008E+06     209.264E+03    -52.9796E-03     105.626E-03    -52.6466E-03     41.1668E-03    -53.0054E-03     105.023E-03    -52.4980E-03     40.9924E-03
            1694     3.41593E-03     42.5973E-03    -54.9065E+06    -157.916E+06    -38.2715E+06     123.535E+03    -52.8072E-03     105.418E-03    -52.6104E-03     33.4346E-03    -52.8163E-03     104.782E-03    -52.4932E-03     33.3026E-03
            1695     2.56192E-03     42.5676E-03    -58.7644E+06    -165.346E+06    -48.0631E+06     2.36066E+03    -52.6744E-03     105.252E-03    -52.5778E-03     25.4294E-03    -52.6692E-03     104.591E-03    -52.4931E-03     25.3337E-03
            1696     1.70790E-03     42.5461E-03    -61.9085E+06    -170.509E+06    -56.3977E+06     3.34192E+03    -52.5894E-03     105.141E-03    -52.5517E-03     17.3028E-03    -52.5746E-03     104.465E-03    -52.4967E-03     17.2407E-03
            1697     853.941E-06     42.5326E-03    -64.1701E+06    -172.498E+06    -62.4188E+06     31.2936E+03    -52.5931E-03     105.076E-03    -52.4832E-03     9.49722E-03    -52.5747E-03     104.399E-03    -52.4522E-03     9.46466E-03
            1698     16.2230E-03     42.6392E-03    -4.51053E+06     126.575E+06     87.6109E+06    -108.223E+03    -51.8631E-03     104.627E-03    -52.7641E-03     36.0088E-03    -52.7172E-03     105.661E-03    -52.5031E-03     35.3749E-03
            1699     15.3714E-03     42.5719E-03    -9.45462E+06     126.795E+06     75.8080E+06     665.040E+03    -52.4230E-03     105.151E-03    -52.7276E-03     70.0781E-03    -53.6555E-03     106.580E-03    -52.5187E-03     69.1774E-03
            1700     14.5167E-03     42.4995E-03    -14.2509E+06     116.813E+06     48.7109E+06     860.909E+03    -53.1137E-03     105.739E-03    -52.6249E-03     85.8369E-03    -54.3795E-03     107.227E-03    -52.5301E-03     84.8230E-03
            1701     13.6629E-03     42.4014E-03    -17.6240E+06     73.1002E+06     20.1777E+06    -163.885E+03    -53.8544E-03     106.414E-03    -52.5596E-03     97.7404E-03    -55.0399E-03     107.738E-03    -52.5391E-03     96.6337E-03
            1702     12.8090E-03     42.3044E-03    -18.7186E+06     11.0265E+06     6.80221E+06    -501.033E+03    -54.1295E-03     106.718E-03    -52.5882E-03     95.6914E-03    -55.0223E-03     107.564E-03    -52.5431E-03     94.6439E-03
            1703     11.9550E-03     42.2106E-03    -20.2323E+06    -28.0856E+06     6.22342E+06     22.8016E+03    -54.2310E-03     106.874E-03    -52.6428E-03     91.1019E-03    -54.8726E-03     107.326E-03    -52.5416E-03     90.1890E-03
            1704     11.1012E-03     42.1223E-03    -22.4542E+06    -55.6164E+06      4.1194E+06     126.695E+03    -54.2800E-03     106.948E-03    -52.6677E-03     87.0121E-03    -54.7513E-03     107.130E-03    -52.5339E-03     86.2151E-03
            1705     10.2473E-03     42.0364E-03    -24.6738E+06    -75.1234E+06     3.94966E+06     135.151E+03    -54.2546E-03     106.940E-03    -52.6858E-03     83.6064E-03    -54.6070E-03     106.927E-03    -52.5214E-03     82.9172E-03
            1706     9.39358E-03     41.9547E-03    -27.2546E+06    -90.1533E+06     2.78897E+06     194.308E+03    -54.1649E-03     106.855E-03    -52.6899E-03     79.3493E-03    -54.4275E-03     106.693E-03    -52.5057E-03     78.7593E-03
            1707     8.53972E-03     41.8772E-03    -30.2562E+06    -104.039E+06     1.43246E+06     136.077E+03    -53.9855E-03     106.676E-03    -52.6902E-03     74.1444E-03    -54.1774E-03     106.387E-03    -52.4883E-03     73.6448E-03
            1708     7.68599E-03     41.8055E-03    -33.6453E+06    -115.299E+06    -708.404E+03     254.008E+03    -53.7508E-03     106.436E-03    -52.6849E-03     68.3865E-03    -53.8903E-03     106.048E-03    -52.4724E-03     67.9707E-03
            1709     6.83193E-03     41.7396E-03    -37.5607E+06    -126.396E+06    -4.92019E+06     119.829E+03    -53.5528E-03     106.223E-03    -52.6706E-03     62.1640E-03    -53.6510E-03     105.754E-03    -52.4574E-03     61.8190E-03
            1710     5.97815E-03     41.6802E-03    -41.7572E+06    -134.987E+06    -10.7640E+06     139.887E+03    -53.3436E-03     105.987E-03    -52.6436E-03     55.5260E-03    -53.4120E-03     105.459E-03    -52.4412E-03     55.2455E-03
            1711     5.12419E-03     41.6276E-03    -46.2027E+06    -141.939E+06    -19.1625E+06     200.099E+03    -53.1094E-03     105.713E-03    -52.6033E-03     48.4475E-03    -53.1552E-03     105.146E-03    -52.4263E-03     48.2244E-03
            1712     4.27020E-03     41.5824E-03    -50.5777E+06    -149.808E+06    -28.3854E+06     182.653E+03    -52.9077E-03     105.471E-03    -52.5634E-03     41.0094E-03    -52.9335E-03     104.868E-03    -52.4148E-03     40.8355E-03
            1713     3.41619E-03     41.5448E-03    -54.9000E+06    -157.688E+06    -38.2739E+06     183.560E+03    -52.7249E-03     105.250E-03    -52.5246E-03     33.3271E-03    -52.7342E-03     104.615E-03    -52.4077E-03     33.1965E-03
            1714     2.56210E-03     41.5151E-03    -58.9038E+06    -165.277E+06    -48.1867E+06     32.7203E+03    -52.6061E-03     105.093E-03    -52.4872E-03     25.3435E-03    -52.6014E-03     104.432E-03    -52.4031E-03     25.2487E-03
            1715     1.70816E-03     41.4935E-03    -62.0867E+06    -170.633E+06    -56.7488E+06    -25.6768E+03    -52.5232E-03     104.970E-03    -52.4468E-03     17.2318E-03    -52.5086E-03     104.294E-03    -52.3931E-03     17.1696E-03
            1716     854.109E-06     41.4803E-03    -64.1772E+06    -172.507E+06    -62.7219E+06    -18.1040E+03    -52.4343E-03     104.849E-03    -52.4144E-03     9.46104E-03    -52.4155E-03     104.172E-03    -52.3849E-03     9.42805E-03
            1717     16.2272E-03     41.5837E-03    -4.39462E+06     126.416E+06     87.4233E+06     338.343E+03    -51.9432E-03     104.702E-03    -52.7591E-03     35.8509E-03    -52.7940E-03     105.733E-03    -52.4989E-03     35.2224E-03
            1718     15.3712E-03     41.5197E-03    -10.2570E+06     125.740E+06     75.0222E+06     541.757E+03    -52.4451E-03     105.164E-03    -52.7190E-03     70.0149E-03    -53.6766E-03     106.588E-03    -52.5114E-03     69.1129E-03
            1719     14.5173E-03     41.4453E-03    -13.0976E+06     118.025E+06     50.7207E+06     2.36725E+03    -53.2537E-03     105.872E-03    -52.6186E-03     85.7307E-03    -54.5178E-03     107.362E-03    -52.5172E-03     84.7024E-03
            1720     13.6633E-03     41.3485E-03    -14.5511E+06     73.8476E+06     22.3384E+06    -241.864E+03    -53.8966E-03     106.442E-03    -52.5452E-03     97.4180E-03    -55.0687E-03     107.760E-03    -52.5195E-03     96.3101E-03
            1721     12.8092E-03     41.2508E-03    -17.5577E+06     9.61776E+06     6.51764E+06     232.535E+03    -54.2012E-03     106.764E-03    -52.5624E-03     95.6231E-03    -55.0854E-03     107.601E-03    -52.5183E-03     94.5838E-03
            1722     11.9555E-03     41.1575E-03    -20.4418E+06    -27.8492E+06     6.32259E+06     391.804E+03    -54.3308E-03     106.941E-03    -52.6104E-03     90.9138E-03    -54.9738E-03     107.394E-03    -52.5087E-03     90.0036E-03
            1723     11.1016E-03     41.0687E-03    -22.5019E+06    -55.2054E+06     4.21991E+06     161.610E+03    -54.3079E-03     106.935E-03    -52.6266E-03     86.7872E-03    -54.7791E-03     107.118E-03    -52.4929E-03     85.9910E-03
            1724     10.2479E-03     40.9835E-03    -24.7296E+06    -75.4947E+06     3.82998E+06     137.096E+03    -54.2929E-03     106.931E-03    -52.6378E-03     83.3820E-03    -54.6441E-03     106.915E-03    -52.4733E-03     82.6928E-03
            1725     9.39404E-03     40.9013E-03    -27.2600E+06    -89.9248E+06     2.94764E+06     168.688E+03    -54.1869E-03     106.821E-03    -52.6343E-03     79.1012E-03    -54.4491E-03     106.659E-03    -52.4497E-03     78.5116E-03
            1726     8.54041E-03     40.8242E-03    -30.1492E+06    -104.076E+06     1.44432E+06     142.873E+03    -53.9843E-03     106.611E-03    -52.6265E-03     73.9004E-03    -54.1749E-03     106.321E-03    -52.4246E-03     73.4018E-03
            1727     7.68636E-03     40.7525E-03    -33.5386E+06    -115.416E+06    -606.713E+03     190.787E+03    -53.7464E-03     106.360E-03    -52.6140E-03     68.1518E-03    -53.8847E-03     105.972E-03    -52.4010E-03     67.7363E-03
            1728     6.83261E-03     40.6868E-03    -37.3673E+06    -125.965E+06    -4.62944E+06     260.953E+03    -53.5326E-03     106.124E-03    -52.5915E-03     61.9694E-03    -53.6304E-03     105.655E-03    -52.3778E-03     61.6272E-03
            1729     5.97863E-03     40.6274E-03    -41.7574E+06    -135.103E+06    -10.8531E+06     184.328E+03    -53.3040E-03     105.860E-03    -52.5557E-03     55.3117E-03    -53.3718E-03     105.331E-03    -52.3535E-03     55.0328E-03
            1730     5.12467E-03     40.5750E-03    -46.1891E+06    -141.998E+06    -19.2424E+06     114.444E+03    -53.0373E-03     105.547E-03    -52.5093E-03     48.2756E-03    -53.0824E-03     104.979E-03    -52.3326E-03     48.0527E-03
            1731     4.27063E-03     40.5298E-03    -50.6706E+06    -149.956E+06    -28.4703E+06     80.7675E+03    -52.8127E-03     105.280E-03    -52.4671E-03     40.8765E-03    -52.8384E-03     104.676E-03    -52.3186E-03     40.7023E-03
            1732     3.41649E-03     40.4924E-03    -54.9039E+06    -157.590E+06    -38.0501E+06     173.090E+03    -52.6570E-03     105.081E-03    -52.4244E-03     33.1743E-03    -52.6667E-03     104.447E-03    -52.3066E-03     33.0442E-03
            1733     2.56247E-03     40.4626E-03    -58.7265E+06    -165.091E+06    -47.9153E+06     177.014E+03    -52.5177E-03     104.896E-03    -52.3785E-03     25.2349E-03    -52.5127E-03     104.236E-03    -52.2936E-03     25.1424E-03
            1734     1.70827E-03     40.4413E-03    -62.0722E+06    -170.548E+06    -56.5260E+06     49.8319E+03    -52.4034E-03     104.740E-03    -52.3364E-03     17.1616E-03    -52.3891E-03     104.064E-03    -52.2817E-03     17.1007E-03
            1735     854.142E-06     40.4279E-03    -64.1730E+06    -172.466E+06    -62.6854E+06    -13.4913E+03    -52.3414E-03     104.629E-03    -52.2878E-03     9.37241E-03    -52.3227E-03     103.952E-03    -52.2581E-03     9.33972E-03
            1736     16.2244E-03     40.5318E-03    -4.99100E+06     126.002E+06     87.0903E+06     636.865E+03    -52.0632E-03     104.814E-03    -52.7509E-03     36.0342E-03    -52.9129E-03     105.841E-03    -52.4909E-03     35.4120E-03
            1737     15.3710E-03     40.4657E-03    -8.95318E+06     127.168E+06     76.0918E+06    -59.9393E+03    -52.5636E-03     105.269E-03    -52.7058E-03     70.1664E-03    -53.7935E-03     106.698E-03    -52.4967E-03     69.2543E-03
            1738     14.5175E-03     40.3914E-03    -12.7958E+06     117.912E+06     49.5291E+06    -1.02908E+06    -53.3393E-03     105.930E-03    -52.5905E-03     85.3179E-03    -54.5997E-03     107.420E-03    -52.4953E-03     84.2724E-03
            1739     13.6635E-03     40.2954E-03    -17.0979E+06     72.6458E+06     19.9874E+06     221.399E+03    -53.9367E-03     106.447E-03    -52.5104E-03     97.0699E-03    -55.1137E-03     107.763E-03    -52.4910E-03     95.9671E-03
            1740     12.8096E-03     40.1975E-03    -19.4013E+06     10.0278E+06     6.07133E+06     778.847E+03    -54.2918E-03     106.818E-03    -52.5262E-03     95.4891E-03    -55.1854E-03     107.661E-03    -52.4823E-03     94.4543E-03
            1741     11.9560E-03     40.1039E-03    -20.6815E+06    -27.6691E+06     6.36610E+06     296.297E+03    -54.3775E-03     106.944E-03    -52.5661E-03     90.6447E-03    -55.0201E-03     107.396E-03    -52.4642E-03     89.7333E-03
            1742     11.1023E-03     40.0157E-03    -22.5149E+06    -55.1649E+06     4.33831E+06     212.463E+03    -54.3589E-03     106.934E-03    -52.5746E-03     86.5973E-03    -54.8296E-03     107.116E-03    -52.4403E-03     85.8015E-03
            1743     10.2485E-03     39.9300E-03    -24.6820E+06    -75.3948E+06     3.85067E+06     52.3829E+03    -54.3274E-03     106.904E-03    -52.5765E-03     83.2101E-03    -54.6774E-03     106.887E-03    -52.4121E-03     82.5206E-03
            1744     9.39486E-03     39.8483E-03    -27.1411E+06    -90.1337E+06     3.03001E+06     76.4582E+03    -54.1826E-03     106.749E-03    -52.5661E-03     78.8818E-03    -54.4429E-03     106.584E-03    -52.3809E-03     78.2926E-03
            1745     8.54083E-03     39.7712E-03    -30.0924E+06    -103.895E+06     1.67394E+06     159.720E+03    -53.9829E-03     106.534E-03    -52.5511E-03     73.6584E-03    -54.1728E-03     106.243E-03    -52.3484E-03     73.1615E-03
            1746     7.68724E-03     39.6997E-03    -33.5391E+06    -115.356E+06    -568.222E+03     218.386E+03    -53.7616E-03     106.289E-03    -52.5275E-03     67.8994E-03    -53.8995E-03     105.900E-03    -52.3145E-03     67.4851E-03
            1747     6.83318E-03     39.6340E-03    -37.4513E+06    -126.237E+06    -4.63799E+06     197.517E+03    -53.4907E-03     105.986E-03    -52.4953E-03     61.7258E-03    -53.5879E-03     105.516E-03    -52.2811E-03     61.3845E-03
            1748     5.97925E-03     39.5748E-03    -41.5258E+06    -134.876E+06    -10.7777E+06     229.941E+03    -53.2121E-03     105.666E-03    -52.4537E-03     55.0804E-03    -53.2787E-03     105.137E-03    -52.2518E-03     54.8037E-03
            1749     5.12523E-03     39.5226E-03    -46.0693E+06    -141.887E+06    -19.3031E+06     233.668E+03    -52.9658E-03     105.368E-03    -52.4025E-03     48.0451E-03    -53.0100E-03     104.801E-03    -52.2265E-03     47.8249E-03
            1750     4.27104E-03     39.4776E-03    -50.7357E+06    -149.946E+06    -28.6042E+06     78.9503E+03    -52.7479E-03     105.099E-03    -52.3516E-03     40.6729E-03    -52.7735E-03     104.496E-03    -52.2036E-03     40.4996E-03
            1751     3.41697E-03     39.4400E-03    -55.0203E+06    -157.661E+06    -38.1949E+06     51.7818E+03    -52.5510E-03     104.852E-03    -52.3010E-03     33.0001E-03    -52.5607E-03     104.217E-03    -52.1836E-03     32.8691E-03
            1752     2.56274E-03     39.4106E-03    -58.8955E+06    -165.065E+06    -47.8670E+06     150.787E+03    -52.3915E-03     104.645E-03    -52.2530E-03     25.1062E-03    -52.3874E-03     103.984E-03    -52.1676E-03     25.0140E-03
            1753     1.70853E-03     39.3891E-03    -61.9693E+06    -170.284E+06    -56.4232E+06     79.1987E+03    -52.2688E-03     104.481E-03    -52.2124E-03     17.0568E-03    -52.2545E-03     103.806E-03    -52.1578E-03     16.9966E-03
            1754     854.283E-06     39.3760E-03    -64.1685E+06    -172.348E+06    -62.5358E+06     5.09527E+03    -52.2076E-03     104.386E-03    -52.1785E-03     9.38621E-03    -52.1893E-03     103.710E-03    -52.1482E-03     9.35407E-03
            1755     16.2265E-03     39.4781E-03    -4.72965E+06     126.759E+06     87.7509E+06    -239.025E+03    -52.6996E-03     105.436E-03    -52.7368E-03     35.2330E-03    -53.5539E-03     106.469E-03    -52.4750E-03     34.5849E-03
            1756     15.3723E-03     39.4117E-03    -8.14341E+06     127.714E+06     75.7576E+06    -667.734E+03    -52.5849E-03     105.251E-03    -52.6661E-03     69.3865E-03    -53.8107E-03     106.682E-03    -52.4607E-03     68.4614E-03
            1757     14.5181E-03     39.3380E-03    -13.9452E+06     116.440E+06     47.4498E+06     915.230E+03    -53.1010E-03     105.653E-03    -52.5517E-03     85.1990E-03    -54.3589E-03     107.137E-03    -52.4631E-03     84.1837E-03
            1758     13.6641E-03     39.2419E-03    -17.8052E+06     72.6760E+06     20.1292E+06     622.861E+03    -54.1116E-03     106.591E-03    -52.4793E-03     97.0491E-03    -55.2933E-03     107.909E-03    -52.4582E-03     95.9455E-03
            1759     12.8105E-03     39.1441E-03    -19.1101E+06     10.9851E+06     6.75253E+06    -150.861E+03    -54.3854E-03     106.869E-03    -52.4835E-03     95.3314E-03    -55.2774E-03     107.712E-03    -52.4379E-03     94.2836E-03
            1760     11.9566E-03     39.0507E-03    -20.4441E+06    -27.8843E+06     6.36737E+06     38.6272E+03    -54.3862E-03     106.901E-03    -52.5149E-03     90.6294E-03    -55.0253E-03     107.350E-03    -52.4130E-03     89.7169E-03
            1761     11.1029E-03     38.9624E-03    -22.2118E+06    -55.2007E+06     4.43234E+06     99.6872E+03    -54.4514E-03     106.967E-03    -52.5155E-03     86.4593E-03    -54.9192E-03     107.147E-03    -52.3810E-03     85.6622E-03
            1762     10.2493E-03     38.8769E-03    -24.4028E+06    -75.1824E+06     4.00040E+06     95.5191E+03    -54.3725E-03     106.879E-03    -52.5062E-03     82.9890E-03    -54.7203E-03     106.861E-03    -52.3418E-03     82.3012E-03
            1763     9.39538E-03     38.7952E-03    -27.1461E+06    -90.3194E+06     2.87236E+06     119.005E+03    -54.2012E-03     106.686E-03    -52.4851E-03     78.5886E-03    -54.4597E-03     106.520E-03    -52.3005E-03     78.0014E-03
            1764     8.54185E-03     38.7183E-03    -30.1768E+06    -103.929E+06     1.54390E+06     267.903E+03    -53.9846E-03     106.445E-03    -52.4600E-03     73.3817E-03    -54.1735E-03     106.153E-03    -52.2578E-03     72.8880E-03
            1765     7.68778E-03     38.6469E-03    -33.6365E+06    -115.325E+06    -749.849E+03     231.637E+03    -53.7435E-03     106.169E-03    -52.4259E-03     67.6431E-03    -53.8808E-03     105.780E-03    -52.2136E-03     67.2304E-03
            1766     6.83408E-03     38.5815E-03    -37.4759E+06    -126.171E+06    -4.81442E+06     131.898E+03    -53.4533E-03     105.836E-03    -52.3831E-03     61.4118E-03    -53.5498E-03     105.366E-03    -52.1699E-03     61.0710E-03
            1767     5.97997E-03     38.5225E-03    -41.8679E+06    -135.032E+06    -10.9666E+06     182.244E+03    -53.1372E-03     105.470E-03    -52.3331E-03     54.7900E-03    -53.2044E-03     104.941E-03    -52.1314E-03     54.5144E-03
            1768     5.12576E-03     38.4703E-03    -46.2539E+06    -141.751E+06    -19.4341E+06     293.249E+03    -52.8856E-03     105.158E-03    -52.2728E-03     47.7592E-03    -52.9304E-03     104.592E-03    -52.0974E-03     47.5406E-03
            1769     4.27177E-03     38.4254E-03    -50.5997E+06    -149.660E+06    -28.6893E+06     205.543E+03    -52.6458E-03     104.858E-03    -52.2125E-03     40.4166E-03    -52.6707E-03     104.256E-03    -52.0656E-03     40.2459E-03
            1770     3.41743E-03     38.3882E-03    -55.0149E+06    -157.684E+06    -38.3202E+06     30.7732E+03    -52.4140E-03     104.571E-03    -52.1571E-03     32.8151E-03    -52.4233E-03     103.936E-03    -52.0402E-03     32.6848E-03
            1771     2.56311E-03     38.3587E-03    -58.8846E+06    -165.027E+06    -47.8671E+06    -20.0631E+03    -52.2388E-03     104.348E-03    -52.1097E-03     24.9576E-03    -52.2345E-03     103.688E-03    -52.0243E-03     24.8638E-03
            1772     1.70878E-03     38.3374E-03    -62.0388E+06    -170.160E+06    -56.5005E+06     30.1814E+03    -52.1250E-03     104.195E-03    -52.0701E-03     16.9830E-03    -52.1110E-03     103.521E-03    -52.0159E-03     16.9227E-03
            1773     854.337E-06     38.3243E-03    -64.0989E+06    -172.344E+06    -62.8232E+06     70.5496E+03    -52.0587E-03     104.102E-03    -52.0429E-03     9.29159E-03    -52.0396E-03     103.425E-03    -52.0142E-03     9.26038E-03
            1774     16.2261E-03     38.4224E-03    -4.55215E+06     126.607E+06     87.4819E+06    -525.908E+03    -52.5385E-03     105.260E-03    -52.7214E-03     35.6160E-03    -53.3912E-03     106.292E-03    -52.4610E-03     34.9648E-03
            1775     15.3731E-03     38.3591E-03    -9.91278E+06     125.661E+06     74.6064E+06     1.00627E+06    -52.6715E-03     105.326E-03    -52.6543E-03     70.0977E-03    -53.8976E-03     106.746E-03    -52.4491E-03     69.1974E-03
            1776     14.5181E-03     38.2853E-03    -13.7791E+06     116.724E+06     49.0052E+06     1.13315E+06    -53.2834E-03     105.824E-03    -52.5405E-03     85.9970E-03    -54.5411E-03     107.305E-03    -52.4447E-03     84.9856E-03
            1777     13.6643E-03     38.1874E-03    -15.5515E+06     73.9496E+06     21.6025E+06     251.008E+03    -54.2231E-03     106.678E-03    -52.4549E-03     97.3473E-03    -55.3957E-03     107.995E-03    -52.4316E-03     96.2394E-03
            1778     12.8109E-03     38.0910E-03    -17.7366E+06     10.4955E+06     6.63970E+06     82.1077E+03    -54.5682E-03     107.013E-03    -52.4443E-03     95.2239E-03    -55.4504E-03     107.850E-03    -52.4006E-03     94.1782E-03
            1779     11.9571E-03     37.9974E-03    -19.9970E+06    -27.7627E+06     6.37132E+06     97.6841E+03    -54.5673E-03     107.029E-03    -52.4613E-03     90.5964E-03    -55.2040E-03     107.477E-03    -52.3602E-03     89.6829E-03
            1780     11.1036E-03     37.9089E-03    -22.2187E+06    -55.1699E+06     4.16967E+06     65.8234E+03    -54.5443E-03     106.991E-03    -52.4464E-03     86.1723E-03    -55.0100E-03     107.170E-03    -52.3134E-03     85.3754E-03
            1781     10.2500E-03     37.8239E-03    -24.5745E+06    -75.2907E+06     3.74414E+06     291.966E+03    -54.4528E-03     106.876E-03    -52.4237E-03     82.6410E-03    -54.7996E-03     106.858E-03    -52.2602E-03     81.9561E-03
            1782     9.39652E-03     37.7421E-03    -27.1531E+06    -90.1077E+06     2.76477E+06     317.996E+03    -54.2385E-03     106.627E-03    -52.3886E-03     78.2293E-03    -54.4959E-03     106.460E-03    -52.2048E-03     77.6460E-03
            1783     8.54253E-03     37.6656E-03    -30.1242E+06    -104.095E+06     1.33589E+06     265.810E+03    -53.9823E-03     106.333E-03    -52.3508E-03     73.0242E-03    -54.1693E-03     106.040E-03    -52.1495E-03     72.5320E-03
            1784     7.68889E-03     37.5942E-03    -33.4844E+06    -115.266E+06    -689.431E+03     205.010E+03    -53.6954E-03     106.002E-03    -52.3070E-03     67.2780E-03    -53.8310E-03     105.612E-03    -52.0947E-03     66.8669E-03
            1785     6.83479E-03     37.5291E-03    -37.5205E+06    -126.039E+06    -4.60186E+06     259.084E+03    -53.3957E-03     105.651E-03    -52.2553E-03     61.0339E-03    -53.4922E-03     105.180E-03    -52.0412E-03     60.6962E-03
            1786     5.98081E-03     37.4703E-03    -41.8536E+06    -134.835E+06    -10.7955E+06     300.005E+03    -53.0942E-03     105.286E-03    -52.1918E-03     54.4521E-03    -53.1613E-03     104.757E-03    -51.9896E-03     54.1792E-03
            1787     5.12676E-03     37.4183E-03    -46.3379E+06    -141.799E+06    -19.5757E+06     123.381E+03    -52.7682E-03     104.887E-03    -52.1191E-03     47.4845E-03    -52.8127E-03     104.321E-03    -51.9442E-03     47.2654E-03
            1788     4.27229E-03     37.3736E-03    -50.6797E+06    -149.642E+06    -28.6946E+06     207.949E+03    -52.4915E-03     104.546E-03    -52.0548E-03     40.1745E-03    -52.5166E-03     103.944E-03    -51.9078E-03     40.0053E-03
            1789     3.41800E-03     37.3365E-03    -54.9161E+06    -157.450E+06    -38.5099E+06     158.462E+03    -52.2664E-03     104.261E-03    -51.9949E-03     32.6038E-03    -52.2752E-03     103.628E-03    -51.8795E-03     32.4762E-03
            1790     2.56358E-03     37.3072E-03    -58.9541E+06    -164.950E+06    -48.3155E+06     3.40873E+03    -52.0747E-03     104.019E-03    -51.9445E-03     24.8072E-03    -52.0702E-03     103.360E-03    -51.8614E-03     24.7146E-03
            1791     1.70897E-03     37.2861E-03    -62.1565E+06    -170.254E+06    -56.6804E+06     69.9958E+03    -51.9662E-03     103.871E-03    -51.9047E-03     16.8936E-03    -51.9524E-03     103.196E-03    -51.8511E-03     16.8345E-03
            1792     854.600E-06     37.2727E-03    -64.3214E+06    -172.192E+06    -62.7065E+06     105.882E+03    -51.9117E-03     103.767E-03    -51.8556E-03     9.22689E-03    -51.8941E-03     103.092E-03    -51.8261E-03     9.19637E-03
            1793     16.2256E-03     37.3696E-03    -4.84172E+06     125.522E+06     86.7775E+06     228.543E+03    -51.9997E-03     104.731E-03    -52.7317E-03     36.1640E-03    -52.8470E-03     105.755E-03    -52.4728E-03     35.5297E-03
            1794     15.3707E-03     37.3042E-03    -10.5320E+06     125.454E+06     75.3577E+06    -48.4195E+03    -53.0325E-03     105.708E-03    -52.6758E-03     69.8055E-03    -54.2625E-03     107.128E-03    -52.4656E-03     68.8800E-03
            1795     14.5186E-03     37.2317E-03    -13.0041E+06     117.767E+06     50.2041E+06    -294.482E+03    -53.8909E-03     106.422E-03    -52.5312E-03     85.2853E-03    -55.1489E-03     107.906E-03    -52.4321E-03     84.2380E-03
            1796     13.6647E-03     37.1338E-03    -16.1424E+06     73.4842E+06     20.8355E+06     332.306E+03    -54.3038E-03     106.720E-03    -52.4164E-03     96.8551E-03    -55.4744E-03     108.034E-03    -52.3953E-03     95.7471E-03
            1797     12.8110E-03     37.0372E-03    -18.6403E+06     10.7159E+06     6.52918E+06     440.397E+03    -54.6933E-03     107.091E-03    -52.3973E-03     94.6719E-03    -55.5794E-03     107.930E-03    -52.3531E-03     93.6272E-03
            1798     11.9581E-03     36.9436E-03    -20.3746E+06    -27.8023E+06     6.13307E+06     212.651E+03    -54.7862E-03     107.181E-03    -52.3952E-03     90.0482E-03    -55.4236E-03     107.630E-03    -52.2947E-03     89.1317E-03
            1799     11.1045E-03     36.8559E-03    -22.4680E+06    -55.2491E+06     4.11397E+06     307.785E+03    -54.6316E-03     106.994E-03    -52.3627E-03     85.7604E-03    -55.0970E-03     107.172E-03    -52.2294E-03     84.9661E-03
            1800     10.2511E-03     36.7704E-03    -24.7227E+06    -75.3072E+06     3.71191E+06     278.705E+03    -54.4941E-03     106.820E-03    -52.3259E-03     82.2167E-03    -54.8398E-03     106.800E-03    -52.1623E-03     81.5328E-03
            1801     9.39736E-03     36.6895E-03    -27.2148E+06    -90.0710E+06     2.88969E+06     356.146E+03    -54.2735E-03     106.551E-03    -52.2774E-03     77.8310E-03    -54.5302E-03     106.383E-03    -52.0929E-03     77.2492E-03
            1802     8.54386E-03     36.6127E-03    -30.2127E+06    -103.855E+06     1.44892E+06     259.977E+03    -53.9907E-03     106.215E-03    -52.2243E-03     72.6356E-03    -54.1775E-03     105.922E-03    -52.0226E-03     72.1447E-03
            1803     7.68985E-03     36.5420E-03    -33.7775E+06    -115.344E+06    -699.431E+03     278.887E+03    -53.6439E-03     105.811E-03    -52.1673E-03     66.8515E-03    -53.7797E-03     105.420E-03    -51.9545E-03     66.4437E-03
            1804     6.83592E-03     36.4768E-03    -37.6174E+06    -125.983E+06    -4.89606E+06     325.619E+03    -53.3178E-03     105.420E-03    -52.1025E-03     60.6645E-03    -53.4135E-03     104.949E-03    -51.8898E-03     60.3300E-03
            1805     5.98183E-03     36.4183E-03    -41.7929E+06    -134.835E+06    -10.9899E+06     219.980E+03    -52.9844E-03     105.014E-03    -52.0297E-03     54.0750E-03    -53.0503E-03     104.485E-03    -51.8285E-03     53.8028E-03
            1806     5.12746E-03     36.3666E-03    -46.2360E+06    -141.523E+06    -19.4471E+06     252.090E+03    -52.6380E-03     104.588E-03    -51.9497E-03     47.1754E-03    -52.6820E-03     104.022E-03    -51.7747E-03     46.9599E-03
            1807     4.27318E-03     36.3222E-03    -50.7693E+06    -149.714E+06    -29.0038E+06     99.9280E+03    -52.3407E-03     104.218E-03    -51.8770E-03     39.9103E-03    -52.3654E-03     103.615E-03    -51.7314E-03     39.7412E-03
            1808     3.41862E-03     36.2851E-03    -54.9425E+06    -157.311E+06    -38.5106E+06     197.224E+03    -52.0885E-03     103.903E-03    -51.8142E-03     32.3604E-03    -52.0973E-03     103.270E-03    -51.6990E-03     32.2346E-03
            1809     2.56395E-03     36.2563E-03    -58.7594E+06    -164.784E+06    -48.2460E+06     251.784E+03    -51.9278E-03     103.683E-03    -51.7556E-03     24.6308E-03    -51.9226E-03     103.025E-03    -51.6727E-03     24.5423E-03
            1810     1.70945E-03     36.2347E-03    -62.0357E+06    -170.300E+06    -56.6364E+06     108.866E+03    -51.7857E-03     103.489E-03    -51.7033E-03     16.7250E-03    -51.7712E-03     102.814E-03    -51.6496E-03     16.6668E-03
            1811     854.620E-06     36.2220E-03    -64.0692E+06    -171.950E+06    -62.6140E+06     53.3420E+03    -51.6750E-03     103.353E-03    -51.6784E-03     9.17750E-03    -51.6566E-03     102.679E-03    -51.6493E-03     9.14665E-03
            1812     16.2258E-03     36.3172E-03    -4.50292E+06     126.440E+06     87.4876E+06     600.495E+03    -52.8061E-03     105.535E-03    -52.7285E-03     35.4234E-03    -53.6552E-03     106.563E-03    -52.4679E-03     34.7808E-03
            1813     15.3726E-03     36.2496E-03    -8.82848E+06     126.752E+06     75.4486E+06    -722.615E+03    -53.2011E-03     105.840E-03    -52.6389E-03     69.0178E-03    -54.4248E-03     107.263E-03    -52.4326E-03     68.0728E-03
            1814     14.5189E-03     36.1766E-03    -14.2668E+06     116.352E+06     48.4603E+06    -634.592E+03    -53.9754E-03     106.457E-03    -52.4817E-03     84.2130E-03    -55.2334E-03     107.937E-03    -52.3874E-03     83.1539E-03
            1815     13.6659E-03     36.0810E-03    -16.9945E+06     73.2511E+06     20.9750E+06     177.279E+03    -54.5533E-03     106.911E-03    -52.3578E-03     96.2149E-03    -55.7268E-03     108.224E-03    -52.3345E-03     95.0974E-03
            1816     12.8125E-03     35.9830E-03    -18.4215E+06     11.0883E+06     6.87412E+06     374.737E+03    -54.7522E-03     107.074E-03    -52.3217E-03     94.4658E-03    -55.6356E-03     107.911E-03    -52.2767E-03     93.4197E-03
            1817     11.9589E-03     35.8903E-03    -20.4413E+06    -27.8684E+06     6.27480E+06     421.629E+03    -54.8328E-03     107.142E-03    -52.3093E-03     89.5199E-03    -55.4676E-03     107.587E-03    -52.2078E-03     88.6064E-03
            1818     11.1058E-03     35.8022E-03    -22.4581E+06    -55.2278E+06     4.29228E+06     343.474E+03    -54.7067E-03     106.970E-03    -52.2637E-03     85.3563E-03    -55.1702E-03     107.146E-03    -52.1296E-03     84.5631E-03
            1819     10.2522E-03     35.7177E-03    -24.6772E+06    -75.1708E+06     3.98361E+06     298.425E+03    -54.5284E-03     106.741E-03    -52.2129E-03     81.8077E-03    -54.8724E-03     106.719E-03    -52.0482E-03     81.1260E-03
            1820     9.39872E-03     35.6364E-03    -27.3287E+06    -90.2043E+06     2.86105E+06     242.886E+03    -54.2912E-03     106.440E-03    -52.1492E-03     77.4110E-03    -54.5464E-03     106.270E-03    -51.9645E-03     76.8298E-03
            1821     8.54490E-03     35.5604E-03    -30.2535E+06    -103.770E+06     1.57866E+06     344.763E+03    -53.9737E-03     106.056E-03    -52.0819E-03     72.1897E-03    -54.1596E-03     105.761E-03    -51.8797E-03     71.7023E-03
            1822     7.69117E-03     35.4896E-03    -33.6211E+06    -115.157E+06    -664.205E+03     349.311E+03    -53.6103E-03     105.619E-03    -52.0092E-03     66.4380E-03    -53.7443E-03     105.227E-03    -51.7968E-03     66.0336E-03
            1823     6.83709E-03     35.4250E-03    -37.5158E+06    -126.057E+06    -4.79714E+06     293.911E+03    -53.2256E-03     105.158E-03    -51.9319E-03     60.2703E-03    -53.3197E-03     104.685E-03    -51.7187E-03     59.9381E-03
            1824     5.98285E-03     35.3666E-03    -41.7688E+06    -134.866E+06    -11.1825E+06     219.629E+03    -52.8420E-03     104.690E-03    -51.8485E-03     53.6735E-03    -52.9065E-03     104.160E-03    -51.6483E-03     53.4039E-03
            1825     5.12853E-03     35.3154E-03    -46.1714E+06    -141.478E+06    -19.5890E+06     259.495E+03    -52.4965E-03     104.257E-03    -51.7605E-03     46.7913E-03    -52.5395E-03     103.691E-03    -51.5863E-03     46.5777E-03
            1826     4.27395E-03     35.2709E-03    -50.5767E+06    -149.394E+06    -28.8513E+06     290.642E+03    -52.1756E-03     103.856E-03    -51.6801E-03     39.5860E-03    -52.1996E-03     103.253E-03    -51.5344E-03     39.4211E-03
            1827     3.41928E-03     35.2346E-03    -54.9897E+06    -157.326E+06    -38.4882E+06     163.002E+03    -51.9370E-03     103.543E-03    -51.6059E-03     32.1066E-03    -51.9459E-03     102.910E-03    -51.4905E-03     31.9816E-03
            1828     2.56462E-03     35.2051E-03    -58.8392E+06    -164.695E+06    -48.0234E+06     245.648E+03    -51.7372E-03     103.272E-03    -51.5345E-03     24.3845E-03    -51.7326E-03     102.613E-03    -51.4505E-03     24.2967E-03
            1829     1.70977E-03     35.1845E-03    -61.9174E+06    -170.005E+06    -56.5170E+06     206.647E+03    -51.5744E-03     103.043E-03    -51.4690E-03     16.5622E-03    -51.5599E-03     102.369E-03    -51.4153E-03     16.5059E-03
            1830     854.966E-06     35.1711E-03    -64.0902E+06    -171.943E+06    -62.5864E+06     17.4329E+03    -51.4465E-03     102.872E-03    -51.4254E-03     9.01838E-03    -51.4282E-03     102.197E-03    -51.3961E-03     8.98732E-03
            1831     16.2266E-03     35.2599E-03    -4.74989E+06     126.449E+06     87.4971E+06    -162.002E+03    -53.2704E-03     105.963E-03    -52.6923E-03     34.7668E-03    -54.1189E-03     106.989E-03    -52.4313E-03     34.1062E-03
            1832     15.3738E-03     35.1972E-03    -8.71612E+06     126.566E+06     75.3609E+06     648.036E+03    -53.2551E-03     105.841E-03    -52.5861E-03     69.3994E-03    -54.4756E-03     107.261E-03    -52.3801E-03     68.4736E-03
            1833     14.5198E-03     35.1218E-03    -13.5523E+06     116.562E+06     48.4890E+06     353.119E+03    -53.9336E-03     106.359E-03    -52.4259E-03     84.6086E-03    -55.1837E-03     107.835E-03    -52.3328E-03     83.5665E-03
            1834     13.6667E-03     35.0270E-03    -17.0089E+06     73.0403E+06     20.3064E+06    -448.748E+03    -54.7645E-03     107.056E-03    -52.2916E-03     96.0036E-03    -55.9327E-03     108.364E-03    -52.2713E-03     94.8744E-03
            1835     12.8133E-03     34.9295E-03    -18.8682E+06     10.2083E+06     6.00533E+06     279.998E+03    -54.9799E-03     107.217E-03    -52.2372E-03     94.4972E-03    -55.8610E-03     108.050E-03    -52.1946E-03     93.4480E-03
            1836     11.9603E-03     34.8366E-03    -20.5053E+06    -27.3472E+06     6.46161E+06     503.378E+03    -54.8841E-03     107.096E-03    -52.2116E-03     89.2439E-03    -55.5163E-03     107.539E-03    -52.1100E-03     88.3343E-03
            1837     11.1069E-03     34.7491E-03    -22.5345E+06    -54.9814E+06     4.11215E+06     294.114E+03    -54.7740E-03     106.925E-03    -52.1514E-03     84.9649E-03    -55.2350E-03     107.099E-03    -52.0185E-03     84.1735E-03
            1838     10.2536E-03     34.6646E-03    -24.7171E+06    -75.3631E+06     3.70316E+06     310.529E+03    -54.5983E-03     106.683E-03    -52.0843E-03     81.3589E-03    -54.9394E-03     106.658E-03    -51.9207E-03     80.6793E-03
            1839     9.39999E-03     34.5839E-03    -27.2877E+06    -89.9212E+06     2.78049E+06     338.479E+03    -54.3039E-03     106.308E-03    -52.0040E-03     76.9535E-03    -54.5571E-03     106.137E-03    -51.8202E-03     76.3764E-03
            1840     8.54640E-03     34.5080E-03    -30.2784E+06    -103.832E+06     1.27564E+06     276.111E+03    -53.9522E-03     105.873E-03    -51.9204E-03     71.6688E-03    -54.1357E-03     105.576E-03    -51.7196E-03     71.1835E-03
            1841     7.69240E-03     34.4377E-03    -33.6410E+06    -115.087E+06    -849.083E+03     344.822E+03    -53.5482E-03     105.381E-03    -51.8329E-03     65.9274E-03    -53.6806E-03     104.988E-03    -51.6215E-03     65.5258E-03
            1842     6.83841E-03     34.3733E-03    -37.4894E+06    -126.054E+06    -4.93224E+06     298.319E+03    -53.1253E-03     104.867E-03    -51.7422E-03     59.7645E-03    -53.2179E-03     104.394E-03    -51.5297E-03     59.4351E-03
            1843     5.98407E-03     34.3155E-03    -41.7331E+06    -134.720E+06    -11.1728E+06     250.091E+03    -52.7179E-03     104.364E-03    -51.6462E-03     53.2275E-03    -52.7817E-03     103.834E-03    -51.4462E-03     52.9609E-03
            1844     5.12958E-03     34.2641E-03    -46.1179E+06    -141.523E+06    -19.6255E+06     246.894E+03    -52.3342E-03     103.881E-03    -51.5466E-03     46.3534E-03    -52.3763E-03     103.314E-03    -51.3726E-03     46.1417E-03
            1845     4.27490E-03     34.2206E-03    -50.5262E+06    -149.159E+06    -28.3836E+06     372.167E+03    -52.0171E-03     103.473E-03    -51.4554E-03     39.1930E-03    -52.0414E-03     102.870E-03    -51.3078E-03     39.0308E-03
            1846     3.42014E-03     34.1836E-03    -54.8365E+06    -157.185E+06    -38.2846E+06     329.224E+03    -51.7475E-03     103.112E-03    -51.3650E-03     31.7751E-03    -51.7558E-03     102.479E-03    -51.2490E-03     31.6536E-03
            1847     2.56528E-03     34.1551E-03    -58.8137E+06    -164.696E+06    -48.0199E+06     141.492E+03    -51.4925E-03     102.777E-03    -51.2843E-03     24.1286E-03    -51.4877E-03     102.118E-03    -51.2003E-03     24.0406E-03
            1848     1.71018E-03     34.1341E-03    -62.0315E+06    -169.799E+06    -56.4440E+06     191.471E+03    -51.3179E-03     102.536E-03    -51.2184E-03     16.4372E-03    -51.3043E-03     101.863E-03    -51.1645E-03     16.3815E-03
            1849     855.194E-06     34.1213E-03    -64.0418E+06    -171.754E+06    -62.6365E+06     36.4571E+03    -51.2061E-03     102.371E-03    -51.1649E-03     8.92466E-03    -51.1877E-03     101.697E-03    -51.1362E-03     8.89429E-03
            1850     16.2275E-03     34.2071E-03    -4.80314E+06     125.807E+06     87.0793E+06    -92.0996E+03    -53.1396E-03     105.819E-03    -52.6796E-03     35.7421E-03    -53.9878E-03     106.844E-03    -52.4196E-03     35.0777E-03
            1851     15.3730E-03     34.1420E-03    -9.60725E+06     125.745E+06     75.5404E+06     98.0443E+03    -53.6729E-03     106.242E-03    -52.5695E-03     69.6300E-03    -54.8948E-03     107.658E-03    -52.3602E-03     68.6862E-03
            1852     14.5207E-03     34.0681E-03    -12.7769E+06     117.182E+06     49.4224E+06     521.555E+03    -54.2203E-03     106.608E-03    -52.3873E-03     84.5798E-03    -55.4646E-03     108.079E-03    -52.2916E-03     83.5356E-03
            1853     13.6671E-03     33.9727E-03    -16.2097E+06     73.2982E+06     20.3010E+06     782.981E+03    -55.0085E-03     107.239E-03    -52.2300E-03     95.8582E-03    -56.1697E-03     108.544E-03    -52.2113E-03     94.7407E-03
            1854     12.8146E-03     33.8755E-03    -19.1821E+06     10.4414E+06     5.92775E+06     152.069E+03    -55.2485E-03     107.403E-03    -52.1546E-03     93.8080E-03    -56.1279E-03     108.234E-03    -52.1123E-03     92.7526E-03
            1855     11.9613E-03     33.7833E-03    -20.7884E+06    -27.6995E+06     5.90280E+06     126.998E+03    -55.0175E-03     107.123E-03    -52.1057E-03     88.8865E-03    -55.6466E-03     107.563E-03    -52.0058E-03     87.9729E-03
            1856     11.1083E-03     33.6957E-03    -22.4903E+06    -54.7031E+06     4.10719E+06     396.450E+03    -54.8911E-03     106.919E-03    -52.0279E-03     84.4876E-03    -55.3494E-03     107.091E-03    -51.8954E-03     83.6986E-03
            1857     10.2550E-03     33.6117E-03    -24.7783E+06    -75.3363E+06     3.39435E+06     274.596E+03    -54.6664E-03     106.606E-03    -51.9401E-03     80.7966E-03    -55.0049E-03     106.580E-03    -51.7779E-03     80.1183E-03
            1858     9.40156E-03     33.5313E-03    -27.3131E+06    -90.0092E+06     2.58336E+06     333.297E+03    -54.3332E-03     106.174E-03    -51.8409E-03     76.3526E-03    -54.5838E-03     106.001E-03    -51.6579E-03     75.7780E-03
            1859     8.54782E-03     33.4558E-03    -30.2618E+06    -103.555E+06     1.18617E+06     375.627E+03    -53.9218E-03     105.661E-03    -51.7389E-03     71.0711E-03    -54.1035E-03     105.364E-03    -51.5389E-03     70.5903E-03
            1860     7.69407E-03     33.3860E-03    -33.7127E+06    -115.223E+06    -1.00268E+06     301.546E+03    -53.4728E-03     105.108E-03    -51.6353E-03     65.3242E-03    -53.6036E-03     104.713E-03    -51.4244E-03     64.9251E-03
            1861     6.83976E-03     33.3220E-03    -37.5355E+06    -125.797E+06    -5.08580E+06     321.848E+03    -53.0209E-03     104.549E-03    -51.5281E-03     59.1732E-03    -53.1126E-03     104.076E-03    -51.3167E-03     58.8471E-03
            1862     5.98548E-03     33.2644E-03    -41.8112E+06    -134.777E+06    -11.3736E+06     277.305E+03    -52.5821E-03     103.999E-03    -51.4166E-03     52.6738E-03    -52.6450E-03     103.468E-03    -51.2175E-03     52.4100E-03
            1863     5.13081E-03     33.2138E-03    -46.2892E+06    -141.393E+06    -19.7284E+06     301.094E+03    -52.1868E-03     103.487E-03    -51.3002E-03     45.8372E-03    -52.2290E-03     102.920E-03    -51.1267E-03     45.6284E-03
            1864     4.27606E-03     33.1700E-03    -50.7128E+06    -149.257E+06    -28.7669E+06     341.838E+03    -51.8212E-03     103.012E-03    -51.1910E-03     38.7447E-03    -51.8453E-03     102.410E-03    -51.0449E-03     38.5840E-03
            1865     3.42113E-03     33.1338E-03    -54.9911E+06    -157.003E+06    -38.2121E+06     373.222E+03    -51.4693E-03     102.564E-03    -51.0947E-03     31.4123E-03    -51.4785E-03     101.931E-03    -50.9783E-03     31.2931E-03
            1866     2.56586E-03     33.1053E-03    -58.8576E+06    -164.441E+06    -48.1664E+06     290.022E+03    -51.2260E-03     102.237E-03    -51.0111E-03     23.8847E-03    -51.2214E-03     101.579E-03    -50.9282E-03     23.8000E-03
            1867     1.71077E-03     33.0846E-03    -62.0677E+06    -169.684E+06    -56.6020E+06     56.7224E+03    -51.0334E-03     101.980E-03    -50.9467E-03     16.2237E-03    -51.0198E-03     101.308E-03    -50.8937E-03     16.1671E-03
            1868     855.225E-06     33.0719E-03    -64.1906E+06    -171.556E+06    -62.6503E+06    -3.65824E+03    -50.9286E-03     101.833E-03    -50.9048E-03     8.86499E-03    -50.9112E-03     101.161E-03    -50.8762E-03     8.83436E-03
            1869     16.2249E-03     33.1525E-03    -4.34270E+06     126.284E+06     87.5601E+06     19.4128E+03    -53.5713E-03     106.244E-03    -52.6729E-03     34.9900E-03    -54.4158E-03     107.268E-03    -52.4120E-03     34.3171E-03
            1870     15.3744E-03     33.0856E-03    -9.17034E+06     125.836E+06     74.9556E+06    -334.428E+03    -53.9281E-03     106.465E-03    -52.5373E-03     68.4879E-03    -55.1408E-03     107.875E-03    -52.3317E-03     67.5273E-03
            1871     14.5209E-03     33.0152E-03    -14.4214E+06     115.791E+06     48.1800E+06     243.547E+03    -54.5731E-03     106.908E-03    -52.3354E-03     83.9652E-03    -55.8194E-03     108.375E-03    -52.2415E-03     82.9055E-03
            1872     13.6684E-03     32.9171E-03    -16.8879E+06     73.7974E+06     20.9908E+06     805.003E+03    -55.2608E-03     107.421E-03    -52.1600E-03     95.4137E-03    -56.4246E-03     108.726E-03    -52.1376E-03     94.2905E-03
            1873     12.8157E-03     32.8221E-03    -18.2529E+06     11.1796E+06     6.50462E+06     436.002E+03    -55.3991E-03     107.460E-03    -52.0614E-03     93.1591E-03    -56.2710E-03     108.288E-03    -52.0186E-03     92.1059E-03
            1874     11.9628E-03     32.7295E-03    -20.3990E+06    -27.7748E+06     5.91946E+06     190.508E+03    -55.2516E-03     107.241E-03    -51.9893E-03     88.3058E-03    -55.8763E-03     107.677E-03    -51.8898E-03     87.3905E-03
            1875     11.1098E-03     32.6426E-03    -22.5948E+06    -54.8286E+06     4.00619E+06     357.037E+03    -54.9994E-03     106.887E-03    -51.8879E-03     83.8952E-03    -55.4546E-03     107.056E-03    -51.7556E-03     83.1072E-03
            1876     10.2566E-03     32.5588E-03    -24.8097E+06    -75.0423E+06     3.42945E+06     387.157E+03    -54.7461E-03     106.525E-03    -51.7784E-03     80.1478E-03    -55.0824E-03     106.496E-03    -51.6165E-03     79.4731E-03
            1877     9.40329E-03     32.4788E-03    -27.3730E+06    -90.1260E+06     2.36336E+06     291.957E+03    -54.3599E-03     106.017E-03    -51.6568E-03     75.6787E-03    -54.6077E-03     105.840E-03    -51.4746E-03     75.1065E-03
            1878     8.54970E-03     32.4040E-03    -30.2494E+06    -103.630E+06     1.20754E+06     378.767E+03    -53.8944E-03     105.429E-03    -51.5350E-03     70.3585E-03    -54.0738E-03     105.130E-03    -51.3348E-03     69.8808E-03
            1879     7.69558E-03     32.3344E-03    -33.6432E+06    -114.944E+06    -1.01254E+06     381.846E+03    -53.3980E-03     104.809E-03    -51.4109E-03     64.6121E-03    -53.5271E-03     104.413E-03    -51.2005E-03     64.2174E-03
            1880     6.84158E-03     32.2710E-03    -37.6209E+06    -125.899E+06    -4.85556E+06     317.513E+03    -52.9098E-03     104.196E-03    -51.2863E-03     58.4928E-03    -53.0007E-03     103.721E-03    -51.0735E-03     58.1696E-03
            1881     5.98694E-03     32.2140E-03    -41.9085E+06    -134.566E+06    -11.1346E+06     436.390E+03    -52.4411E-03     103.596E-03    -51.1548E-03     52.0212E-03    -52.5040E-03     103.065E-03    -50.9546E-03     51.7624E-03
            1882     5.13232E-03     32.1635E-03    -46.3992E+06    -141.356E+06    -20.0486E+06     387.935E+03    -51.9895E-03     103.007E-03    -51.0176E-03     45.2760E-03    -52.0311E-03     102.440E-03    -50.8456E-03     45.0711E-03
            1883     4.27737E-03     32.1203E-03    -50.8207E+06    -149.218E+06    -29.1563E+06     301.136E+03    -51.5510E-03     102.448E-03    -50.8966E-03     38.2600E-03    -51.5746E-03     101.846E-03    -50.7523E-03     38.1012E-03
            1884     3.42203E-03     32.0845E-03    -54.9663E+06    -157.015E+06    -38.3633E+06     321.561E+03    -51.1953E-03     101.989E-03    -50.7941E-03     31.0164E-03    -51.2038E-03     101.357E-03    -50.6785E-03     30.8985E-03
            1885     2.56677E-03     32.0561E-03    -58.8252E+06    -164.001E+06    -47.9202E+06     310.260E+03    -50.9178E-03     101.625E-03    -50.7076E-03     23.5654E-03    -50.9138E-03     100.969E-03    -50.6241E-03     23.4823E-03
            1886     1.71112E-03     32.0356E-03    -62.0358E+06    -169.399E+06    -56.5424E+06     166.303E+03    -50.7455E-03     101.382E-03    -50.6361E-03     16.0089E-03    -50.7322E-03     100.711E-03    -50.5832E-03     15.9546E-03
            1887     855.737E-06     32.0230E-03    -64.3091E+06    -171.596E+06    -62.7379E+06    -19.9003E+03    -50.6462E-03     101.199E-03    -50.5523E-03     8.68070E-03    -50.6293E-03     100.526E-03    -50.5240E-03     8.65035E-03
            1888     16.2297E-03     32.0950E-03    -4.53891E+06     125.917E+06     87.1691E+06     15.9422E+03    -53.8571E-03     106.501E-03    -52.6443E-03     34.9386E-03    -54.6980E-03     107.520E-03    -52.3845E-03     34.2630E-03
            1889     15.3744E-03     32.0338E-03    -9.67478E+06     125.380E+06     74.7495E+06     853.524E+03    -54.1028E-03     106.599E-03    -52.4963E-03     68.7617E-03    -55.3142E-03     108.004E-03    -52.2903E-03     67.8147E-03
            1890     14.5222E-03     31.9576E-03    -13.8941E+06     116.190E+06     48.7243E+06     426.762E+03    -54.9609E-03     107.237E-03    -52.2766E-03     83.8808E-03    -56.2020E-03     108.700E-03    -52.1813E-03     82.8163E-03
            1891     13.6699E-03     31.8646E-03    -16.9208E+06     73.1896E+06     20.3833E+06    -245.828E+03    -55.5227E-03     107.596E-03    -52.0730E-03     94.9048E-03    -56.6786E-03     108.892E-03    -52.0527E-03     93.7639E-03
            1892     12.8166E-03     31.7667E-03    -18.7762E+06     11.1924E+06     6.11617E+06     395.599E+03    -55.6084E-03     107.561E-03    -51.9525E-03     92.6044E-03    -56.4772E-03     108.385E-03    -51.9109E-03     91.5499E-03
            1893     11.9646E-03     31.6763E-03    -20.5004E+06    -27.1903E+06     5.96316E+06     547.314E+03    -55.4549E-03     107.311E-03    -51.8565E-03     87.5242E-03    -56.0763E-03     107.746E-03    -51.7576E-03     86.6130E-03
            1894     11.1115E-03     31.5891E-03    -22.5738E+06    -54.9991E+06     3.73149E+06     353.855E+03    -55.1497E-03     106.878E-03    -51.7284E-03     83.2249E-03    -55.6009E-03     107.043E-03    -51.5972E-03     82.4378E-03
            1895     10.2586E-03     31.5061E-03    -24.8002E+06    -74.9792E+06     3.40321E+06     453.195E+03    -54.8084E-03     106.404E-03    -51.5955E-03     79.3986E-03    -55.1409E-03     106.372E-03    -51.4338E-03     78.7280E-03
            1896     9.40517E-03     31.4266E-03    -27.3900E+06    -89.8902E+06     2.30423E+06     402.272E+03    -54.3913E-03     105.841E-03    -51.4499E-03     74.8934E-03    -54.6368E-03     105.664E-03    -51.2683E-03     74.3254E-03
            1897     8.55155E-03     31.3522E-03    -30.4111E+06    -103.730E+06     904.647E+03     332.584E+03    -53.8806E-03     105.184E-03    -51.3031E-03     69.5426E-03    -54.0577E-03     104.882E-03    -51.1040E-03     69.0680E-03
            1898     7.69779E-03     31.2834E-03    -33.8299E+06    -114.876E+06    -1.16206E+06     424.054E+03    -53.3247E-03     104.480E-03    -51.1556E-03     63.8100E-03    -53.4525E-03     104.084E-03    -50.9458E-03     63.4195E-03
            1899     6.84327E-03     31.2204E-03    -37.7271E+06    -125.745E+06    -5.14086E+06     475.688E+03    -52.7777E-03     103.786E-03    -51.0079E-03     57.7275E-03    -52.8673E-03     103.310E-03    -50.7966E-03     57.4101E-03
            1900     5.98890E-03     31.1639E-03    -42.0566E+06    -134.573E+06    -11.1801E+06     451.643E+03    -52.2493E-03     103.108E-03    -50.8585E-03     51.3596E-03    -52.3117E-03     102.576E-03    -50.6583E-03     51.1045E-03
            1901     5.13392E-03     31.1139E-03    -46.3988E+06    -141.194E+06    -19.8827E+06     418.588E+03    -51.7308E-03     102.438E-03    -50.7076E-03     44.6699E-03    -51.7720E-03     101.871E-03    -50.5350E-03     44.4686E-03
            1902     4.27862E-03     31.0712E-03    -50.7627E+06    -149.045E+06    -29.1863E+06     297.396E+03    -51.2857E-03     101.859E-03    -50.5730E-03     37.7074E-03    -51.3086E-03     101.257E-03    -50.4292E-03     37.5511E-03
            1903     3.42331E-03     31.0356E-03    -55.0745E+06    -156.921E+06    -38.6777E+06     297.986E+03    -50.9046E-03     101.360E-03    -50.4556E-03     30.5414E-03    -50.9129E-03     100.728E-03    -50.3416E-03     30.4251E-03
            1904     2.56758E-03     31.0076E-03    -58.9623E+06    -163.854E+06    -48.2813E+06     298.910E+03    -50.5978E-03     100.954E-03    -50.3563E-03     23.1953E-03    -50.5940E-03     100.299E-03    -50.2746E-03     23.1135E-03
            1905     1.71182E-03     30.9874E-03    -62.0890E+06    -169.106E+06    -56.6775E+06     229.119E+03    -50.3972E-03     100.674E-03    -50.2766E-03     15.7808E-03    -50.3842E-03     100.004E-03    -50.2247E-03     15.7283E-03
            1906     855.938E-06     30.9745E-03    -64.0825E+06    -171.407E+06    -62.6258E+06     24.9552E+03    -50.2808E-03     100.475E-03    -50.1942E-03     8.51077E-03    -50.2631E-03     99.8030E-03    -50.1659E-03     8.48169E-03
            1907     16.2252E-03     31.0426E-03    -4.85524E+06     125.211E+06     86.7134E+06     263.816E+03    -54.2464E-03     106.878E-03    -52.6320E-03     35.0795E-03    -55.0874E-03     107.895E-03    -52.3729E-03     34.3928E-03
            1908     15.3750E-03     30.9757E-03    -9.85737E+06     125.311E+06     75.1951E+06     289.717E+03    -54.7546E-03     107.212E-03    -52.4572E-03     68.2029E-03    -55.9645E-03     108.613E-03    -52.2486E-03     67.2294E-03
            1909     14.5231E-03     30.9045E-03    -13.0424E+06     116.755E+06     49.3700E+06     339.065E+03    -55.2312E-03     107.437E-03    -52.2056E-03     83.1133E-03    -56.4628E-03     108.893E-03    -52.1091E-03     82.0406E-03
            1910     13.6702E-03     30.8080E-03    -16.4776E+06     73.3149E+06     20.3325E+06     462.596E+03    -55.8785E-03     107.853E-03    -51.9740E-03     94.1341E-03    -57.0253E-03     109.142E-03    -51.9548E-03     92.9954E-03
            1911     12.8193E-03     30.7137E-03    -19.0118E+06     11.2452E+06     6.02816E+06     254.823E+03    -55.8755E-03     107.700E-03    -51.8248E-03     91.6481E-03    -56.7385E-03     108.518E-03    -51.7834E-03     90.5887E-03
            1912     11.9658E-03     30.6218E-03    -20.7526E+06    -27.4399E+06     5.57594E+06     434.314E+03    -55.5834E-03     107.286E-03    -51.7021E-03     86.8020E-03    -56.1999E-03     107.715E-03    -51.6043E-03     85.8910E-03
            1913     11.1138E-03     30.5362E-03    -22.6464E+06    -54.7605E+06     3.72245E+06     534.072E+03    -55.3192E-03     106.868E-03    -51.5488E-03     82.2833E-03    -55.7670E-03     107.030E-03    -51.4180E-03     81.4991E-03
            1914     10.2605E-03     30.4534E-03     -24.932E+06    -74.9362E+06     3.25089E+06     410.189E+03    -54.8915E-03     106.279E-03    -51.3872E-03     78.5479E-03    -55.2208E-03     106.244E-03    -51.2261E-03     77.8798E-03
            1915     9.40746E-03     30.3745E-03    -27.4402E+06    -89.8680E+06     2.16453E+06     466.915E+03    -54.4010E-03     105.616E-03    -51.2154E-03     73.9528E-03    -54.6429E-03     105.436E-03    -51.0344E-03     73.3897E-03
            1916     8.55387E-03     30.3008E-03    -30.4147E+06    -103.640E+06     743.577E+03     450.502E+03    -53.8316E-03     104.875E-03    -51.0435E-03     68.6627E-03    -54.0058E-03     104.571E-03    -50.8454E-03     68.1939E-03
            1917     7.69976E-03     30.2325E-03    -33.9024E+06    -114.925E+06    -1.29554E+06     481.308E+03    -53.2329E-03     104.105E-03    -50.8723E-03     62.9731E-03    -53.3587E-03     103.706E-03    -50.6630E-03     62.5875E-03
            1918     6.84566E-03     30.1704E-03    -37.7373E+06    -125.542E+06    -5.22447E+06     562.753E+03    -52.6203E-03     103.322E-03    -50.7016E-03     56.9714E-03    -52.7084E-03     102.846E-03    -50.4910E-03     56.6593E-03
            1919     5.99068E-03     30.1142E-03    -41.9585E+06    -134.494E+06    -11.3090E+06     527.972E+03    -52.0241E-03     102.557E-03    -50.5328E-03     50.6191E-03    -52.0846E-03     102.024E-03    -50.3335E-03     50.3689E-03
            1920     5.13562E-03     30.0650E-03    -46.5110E+06    -141.030E+06    -20.0674E+06     428.438E+03    -51.4853E-03     101.849E-03    -50.3636E-03     43.9585E-03    -51.5260E-03     101.282E-03    -50.1920E-03     43.7606E-03
            1921     4.28030E-03     30.0226E-03    -50.9703E+06    -148.978E+06    -29.4004E+06     368.317E+03    -51.0021E-03     101.212E-03    -50.2104E-03     37.0813E-03    -51.0252E-03     100.611E-03    -50.0675E-03     36.9284E-03
            1922     3.42453E-03     29.9875E-03    -55.2595E+06    -156.762E+06    -38.9087E+06     403.425E+03    -50.5787E-03     100.654E-03    -50.0758E-03     30.0062E-03    -50.5874E-03     100.023E-03    -49.9629E-03     29.8933E-03
            1923     2.56861E-03     29.9600E-03    -59.1532E+06    -163.609E+06    -48.7996E+06     325.269E+03    -50.2642E-03     100.220E-03    -49.9553E-03     22.8020E-03    -50.2607E-03     99.5667E-03    -49.8763E-03     22.7222E-03
            1924     1.71259E-03     29.9396E-03    -62.1567E+06    -168.910E+06    -57.0654E+06     142.022E+03    -49.9732E-03     99.8413E-03    -49.8681E-03     15.4440E-03    -49.9603E-03     99.1736E-03    -49.8184E-03     15.3915E-03
            1925     856.215E-06     29.9277E-03    -64.1763E+06    -171.246E+06    -62.7679E+06     130.373E+03    -49.8120E-03     99.6678E-03    -49.8558E-03     8.52170E-03    -49.7947E-03     98.9969E-03    -49.8283E-03     8.49488E-03
            1926     16.2292E-03     29.9848E-03    -4.53529E+06     125.657E+06     87.1816E+06     244.244E+03    -55.0522E-03     107.658E-03    -52.6059E-03     34.1829E-03    -55.8886E-03     108.672E-03    -52.3457E-03     33.4821E-03
            1927     15.3769E-03     29.9204E-03     -9.0929E+06     125.714E+06     74.8874E+06     16.7895E+03    -55.1410E-03     107.532E-03    -52.3915E-03     67.3691E-03    -56.3396E-03     108.928E-03    -52.1862E-03     66.3780E-03
            1928     14.5243E-03     29.8494E-03    -13.6390E+06     116.172E+06     48.7076E+06     193.137E+03    -55.6617E-03     107.774E-03    -52.1126E-03     82.5526E-03    -56.8894E-03     109.225E-03    -52.0177E-03     81.4652E-03
            1929     13.6731E-03     29.7528E-03    -16.1213E+06     73.5038E+06     21.0184E+06     781.944E+03    -56.1037E-03     107.961E-03    -51.8576E-03     93.3651E-03    -57.2417E-03     109.242E-03    -51.8358E-03     92.2285E-03
            1930     12.8200E-03     29.6592E-03    -18.2919E+06     11.1389E+06     6.02100E+06     875.671E+03    -56.0892E-03     107.770E-03    -51.6803E-03     90.8490E-03    -56.9414E-03     108.579E-03    -51.6398E-03     89.7968E-03
            1931     11.9688E-03     29.5682E-03    -20.5767E+06    -27.0720E+06     5.80059E+06     555.277E+03    -55.8525E-03     107.382E-03    -51.5291E-03     86.0361E-03    -56.4647E-03     107.808E-03    -51.4310E-03     85.1251E-03
            1932     11.1156E-03     29.4829E-03    -22.6424E+06    -54.6912E+06     3.61264E+06     477.710E+03    -55.4338E-03     106.778E-03    -51.3443E-03     81.3179E-03    -55.8756E-03     106.935E-03    -51.2141E-03     80.5366E-03
            1933     10.2633E-03     29.4008E-03    -24.7829E+06    -74.7777E+06     3.22899E+06     547.673E+03    -54.9877E-03     106.142E-03    -51.1539E-03     77.5867E-03    -55.3125E-03     106.104E-03    -50.9934E-03     76.9233E-03
            1934     9.40985E-03     29.3228E-03    -27.3810E+06    -89.8228E+06     2.04649E+06     489.710E+03    -54.3812E-03     105.335E-03    -50.9541E-03     72.9966E-03    -54.6188E-03     105.151E-03    -50.7739E-03     72.4392E-03
            1935     8.55624E-03     29.2497E-03    -30.2910E+06    -103.627E+06     712.320E+03     599.517E+03    -53.7520E-03     104.510E-03    -50.7583E-03     67.7439E-03    -53.9227E-03     104.204E-03    -50.5606E-03     67.2819E-03
            1936     7.70235E-03     29.1822E-03    -33.7433E+06    -114.756E+06    -1.39957E+06     589.360E+03    -53.1060E-03     103.669E-03    -50.5629E-03     62.0542E-03    -53.2286E-03     103.268E-03    -50.3546E-03     61.6751E-03
            1937     6.84761E-03     29.1206E-03    -37.6837E+06    -125.659E+06    -5.27056E+06     543.043E+03    -52.4571E-03     102.826E-03    -50.3692E-03     56.0694E-03    -52.5429E-03     102.347E-03    -50.1587E-03     55.7613E-03
            1938     5.99297E-03     29.0653E-03    -41.9279E+06    -134.237E+06    -11.2212E+06     632.742E+03    -51.8175E-03     101.993E-03    -50.1759E-03     49.7513E-03    -51.8769E-03     101.460E-03    -49.9766E-03     49.5063E-03
            1939     5.13764E-03     29.0167E-03    -46.3926E+06    -140.827E+06    -20.1042E+06     590.639E+03    -51.2098E-03     101.193E-03    -49.9835E-03     43.1997E-03    -51.2492E-03     100.626E-03    -49.8125E-03     43.0074E-03
            1940     4.28195E-03     28.9748E-03    -50.8846E+06    -148.881E+06    -29.4082E+06     544.100E+03    -50.6747E-03     100.487E-03    -49.8122E-03     36.4242E-03    -50.6968E-03     99.8851E-03    -49.6695E-03     36.2766E-03
            1941     3.42599E-03     28.9404E-03    -55.1067E+06    -156.598E+06    -38.7672E+06     481.853E+03    -50.2350E-03     99.8946E-03    -49.6596E-03     29.4824E-03    -50.2430E-03     99.2635E-03    -49.5465E-03     29.3729E-03
            1942     2.56983E-03     28.9128E-03    -58.8788E+06    -163.234E+06    -48.4449E+06     369.393E+03    -49.8457E-03     99.3728E-03    -49.5271E-03     22.3951E-03    -49.8417E-03     98.7208E-03    -49.4472E-03     22.3176E-03
            1943     1.71328E-03     28.8934E-03    -62.0994E+06    -168.684E+06    -56.8436E+06     265.309E+03    -49.5682E-03     98.9955E-03    -49.4273E-03     15.1707E-03    -49.5555E-03     98.3284E-03    -49.3769E-03     15.1210E-03
            1944     856.670E-06     28.8810E-03    -64.3087E+06    -171.073E+06    -62.8704E+06     278.828E+03    -49.4248E-03     98.7630E-03    -49.3383E-03     8.33533E-03    -49.4083E-03     98.0933E-03    -49.3113E-03     8.31111E-03
            1945     16.2281E-03     28.9279E-03    -4.69130E+06     125.126E+06     86.7579E+06    -24.3078E+03    -55.3195E-03     107.897E-03    -52.5772E-03     34.6479E-03    -56.1524E-03     108.906E-03    -52.3181E-03     33.9340E-03
            1946     15.3764E-03     28.8654E-03    -9.07520E+06     125.604E+06     75.0808E+06     502.866E+03    -55.7702E-03     108.109E-03    -52.3390E-03     67.7237E-03    -56.9659E-03     109.501E-03    -52.1326E-03     66.7220E-03
            1947     14.5260E-03     28.7920E-03    -13.5155E+06     115.920E+06     48.4228E+06     622.480E+03    -56.2841E-03     108.302E-03    -52.0177E-03     81.9609E-03    -57.5024E-03     109.743E-03    -51.9241E-03     80.8665E-03
            1948     13.6740E-03     28.6990E-03    -17.4657E+06     73.0051E+06     19.4888E+06     731.177E+03    -56.3542E-03     108.079E-03    -51.7244E-03     92.4904E-03    -57.4848E-03     109.350E-03    -51.7075E-03     91.3526E-03
            1949     12.8227E-03     28.6041E-03    -19.2422E+06     11.7743E+06     5.47977E+06     766.516E+03    -56.3467E-03     107.869E-03    -51.5222E-03     90.2914E-03    -57.1975E-03     108.677E-03    -51.4840E-03     89.2373E-03
            1950     11.9703E-03     28.5143E-03    -20.4773E+06    -26.7831E+06     5.64973E+06     629.508E+03    -56.1261E-03     107.466E-03    -51.3394E-03     85.0007E-03    -56.7317E-03     107.887E-03    -51.2427E-03     84.0904E-03
            1951     11.1187E-03     28.4299E-03    -22.4391E+06    -54.5449E+06     3.45612E+06     572.110E+03    -55.6033E-03     106.724E-03    -51.1204E-03     80.4459E-03    -56.0389E-03     106.876E-03    -50.9915E-03     79.6686E-03
            1952     10.2655E-03     28.3483E-03    -24.7045E+06    -74.8233E+06     3.00221E+06     634.255E+03    -55.0347E-03     105.934E-03    -50.8997E-03     76.5511E-03    -55.3539E-03     105.892E-03    -50.7404E-03     75.8936E-03
            1953     9.41263E-03     28.2714E-03    -27.3459E+06    -89.6132E+06     1.99316E+06     719.094E+03    -54.3747E-03     105.047E-03    -50.6723E-03     71.9913E-03    -54.6086E-03     104.860E-03    -50.4927E-03     71.4417E-03
            1954     8.55896E-03     28.1990E-03    -30.4145E+06    -103.528E+06     363.187E+03     631.838E+03    -53.6891E-03     104.136E-03    -50.4472E-03     66.7343E-03    -53.8568E-03     103.827E-03    -50.2511E-03     66.2780E-03
            1955     7.70472E-03     28.1323E-03    -33.7265E+06    -114.715E+06    -1.52077E+06     679.023E+03    -52.9829E-03     103.208E-03    -50.2250E-03     61.0250E-03    -53.1027E-03     102.805E-03    -50.0174E-03     60.6520E-03
            1956     6.85043E-03     28.0715E-03    -37.6741E+06    -125.478E+06    -5.40633E+06     678.515E+03    -52.2713E-03     102.276E-03    -50.0044E-03     55.0643E-03    -52.3551E-03     101.796E-03    -49.7948E-03     54.7627E-03
            1957     5.99518E-03     28.0170E-03    -41.9796E+06    -134.254E+06    -11.4520E+06     638.678E+03    -51.5661E-03     101.353E-03    -49.7866E-03     48.8590E-03    -51.6239E-03     100.818E-03    -49.5883E-03     48.6185E-03
            1958     5.13976E-03     27.9690E-03    -46.3548E+06    -140.713E+06    -20.0593E+06     719.052E+03    -50.9050E-03     100.478E-03    -49.5735E-03     42.3942E-03    -50.9434E-03     99.9110E-03    -49.4025E-03     42.2072E-03
            1959     4.28379E-03     27.9280E-03    -50.7505E+06    -148.606E+06    -29.3106E+06     704.407E+03    -50.3233E-03     99.7059E-03    -49.3825E-03     35.7261E-03    -50.3446E-03     99.1044E-03    -49.2400E-03     35.5839E-03
            1960     3.42756E-03     27.8937E-03    -55.0559E+06    -156.271E+06    -38.8286E+06     515.099E+03    -49.8203E-03     99.0356E-03    -49.2153E-03     28.9165E-03    -49.8280E-03     98.4057E-03    -49.1030E-03     28.8099E-03
            1961     2.57088E-03     27.8671E-03    -58.9195E+06    -163.038E+06    -48.3809E+06     432.375E+03    -49.4116E-03     98.4865E-03    -49.0749E-03     21.9207E-03    -49.4079E-03     97.8351E-03    -48.9950E-03     21.8459E-03
            1962     1.71401E-03     27.8475E-03    -61.9877E+06    -168.313E+06    -56.5487E+06     434.394E+03    -49.1482E-03     98.1068E-03    -48.9586E-03     14.8828E-03    -49.1358E-03     97.4408E-03    -48.9074E-03     14.8366E-03
            1963     857.250E-06     27.8355E-03    -64.3749E+06    -170.628E+06    -62.6144E+06     282.408E+03    -48.9863E-03     97.7963E-03    -48.8100E-03     8.14742E-03    -48.9711E-03     97.1285E-03    -48.7823E-03     8.12382E-03
            1964     16.2281E-03     27.8712E-03    -4.29000E+06     125.142E+06     86.9459E+06     56.3555E+03    -55.9782E-03     108.530E-03    -52.5513E-03     33.7610E-03    -56.8054E-03     109.534E-03    -52.2918E-03     33.0273E-03
            1965     15.3781E-03     27.8075E-03    -9.78713E+06     124.721E+06     74.3036E+06     141.329E+03    -56.4248E-03     108.696E-03    -52.2716E-03     66.3898E-03    -57.6128E-03     110.077E-03    -52.0668E-03     65.3612E-03
            1966     14.5272E-03     27.7356E-03    -14.1262E+06     115.317E+06     48.3310E+06     1.06248E+06    -56.5911E-03     108.510E-03    -51.9186E-03     80.5893E-03    -57.7984E-03     109.936E-03    -51.8237E-03     79.4945E-03
            1967     13.6765E-03     27.6439E-03    -16.7333E+06     73.9071E+06     20.5675E+06     1.04850E+06    -56.8137E-03     108.408E-03    -51.5939E-03     91.5252E-03    -57.9353E-03     109.673E-03    -51.5740E-03     90.3821E-03
            1968     12.8245E-03     27.5493E-03    -18.6200E+06     12.2641E+06     5.80320E+06     363.639E+03    -56.7224E-03     108.072E-03    -51.3497E-03     89.4134E-03    -57.5647E-03     108.875E-03    -51.3114E-03     88.3493E-03
            1969     11.9733E-03     27.4604E-03    -20.4653E+06    -27.1415E+06     5.38586E+06     482.224E+03    -56.2718E-03     107.405E-03    -51.1327E-03     83.8958E-03    -56.8685E-03     107.817E-03    -51.0367E-03     82.9869E-03
            1970     11.1207E-03     27.3765E-03    -22.4583E+06    -54.3033E+06     3.47009E+06      828.15E+03    -55.7494E-03     106.633E-03    -50.8838E-03     79.3585E-03    -56.1800E-03     106.781E-03    -50.7552E-03     78.5874E-03
            1971     10.2687E-03     27.2964E-03    -24.8183E+06    -74.8370E+06     2.76814E+06     785.702E+03    -55.0913E-03     105.722E-03    -50.6309E-03     75.4725E-03    -55.4056E-03     105.675E-03    -50.4726E-03     74.8219E-03
            1972     9.41528E-03     27.2200E-03    -27.3713E+06    -89.5412E+06     1.81567E+06     830.373E+03    -54.4024E-03     104.774E-03    -50.3718E-03     70.9416E-03    -54.6325E-03     104.584E-03    -50.1932E-03     70.3979E-03
            1973     8.56178E-03     27.1487E-03    -30.3256E+06    -103.170E+06     331.147E+03     858.485E+03    -53.6582E-03     103.771E-03    -50.1133E-03     65.5973E-03    -53.8225E-03     103.461E-03    -49.9180E-03     65.1489E-03
            1974     7.70779E-03     27.0829E-03    -33.8417E+06    -114.809E+06    -1.91213E+06     749.131E+03    -52.8407E-03     102.700E-03    -49.8591E-03     59.9504E-03    -52.9577E-03     102.295E-03    -49.6531E-03     59.5836E-03
            1975     6.85286E-03     27.0229E-03    -37.6110E+06    -125.181E+06    -5.38938E+06     818.907E+03    -52.0448E-03     101.658E-03    -49.6133E-03     54.0521E-03    -52.1266E-03     101.178E-03    -49.4042E-03     53.7577E-03
            1976     5.99781E-03     26.9694E-03    -41.9454E+06    -134.223E+06    -11.7040E+06     769.594E+03    -51.2892E-03     100.660E-03    -49.3711E-03     47.9055E-03    -51.3449E-03     100.125E-03    -49.1741E-03     47.6712E-03
            1977     5.14195E-03     26.9221E-03    -46.3434E+06    -140.722E+06    -20.3110E+06     718.081E+03    -50.5792E-03     99.7149E-03    -49.1357E-03     41.5129E-03    -50.6161E-03     99.1466E-03    -48.9660E-03     41.3298E-03
            1978     4.28584E-03     26.8817E-03    -50.6890E+06    -148.258E+06    -29.1154E+06     799.955E+03    -49.9270E-03     98.8552E-03    -48.9283E-03     34.9918E-03    -49.9479E-03     98.2544E-03    -48.7854E-03     34.8542E-03
            1979     3.42911E-03     26.8482E-03    -55.0934E+06    -155.907E+06    -38.7485E+06     718.481E+03    -49.3917E-03     98.1388E-03    -48.7471E-03     28.3017E-03    -49.3997E-03     97.5101E-03    -48.6349E-03     28.2005E-03
            1980     2.57216E-03     26.8219E-03    -59.0088E+06    -162.707E+06    -48.5266E+06     526.802E+03    -48.9908E-03     97.5781E-03    -48.5873E-03     21.4100E-03    -48.9875E-03     96.9284E-03    -48.5085E-03     21.3383E-03
            1981     1.71508E-03     26.8028E-03    -62.1773E+06    -167.988E+06    -56.8084E+06     346.386E+03    -48.6281E-03     97.0925E-03    -48.4643E-03     14.5190E-03    -48.6166E-03     96.4286E-03    -48.4146E-03     14.4729E-03
            1982     857.377E-06     26.7912E-03    -64.0578E+06    -170.046E+06    -62.6126E+06     213.240E+03    -48.4158E-03     96.8208E-03    -48.4051E-03     7.99514E-03    -48.3998E-03     96.1554E-03    -48.3787E-03     7.97127E-03
            1983     16.2304E-03     26.8135E-03    -4.63715E+06     124.734E+06     86.6581E+06     478.969E+03    -56.9130E-03     109.411E-03    -52.4976E-03     33.2091E-03    -57.7325E-03     110.405E-03    -52.2384E-03     32.4682E-03
            1984     15.3797E-03     26.7497E-03    -9.64072E+06     124.526E+06     74.4348E+06     1.29507E+06    -56.5831E-03     108.769E-03    -52.1863E-03     65.8557E-03    -57.7546E-03     110.133E-03    -51.9807E-03     64.8433E-03
            1985     14.5290E-03     26.6799E-03    -13.9739E+06     115.478E+06     49.1519E+06     436.943E+03    -56.8419E-03     108.661E-03    -51.8188E-03     80.1317E-03    -58.0397E-03     110.076E-03    -51.7202E-03     79.0256E-03
            1986     13.6776E-03     26.5875E-03    -16.1951E+06     74.3351E+06     21.2571E+06     259.182E+03    -57.4057E-03     108.864E-03    -51.4584E-03     90.8542E-03    -58.5192E-03     110.122E-03    -51.4364E-03     89.6894E-03
            1987     12.8276E-03     26.4946E-03    -17.8980E+06     12.0806E+06     5.78969E+06     824.963E+03    -57.1641E-03     108.330E-03    -51.1657E-03     88.2738E-03    -57.9939E-03     109.122E-03    -51.1283E-03     87.2111E-03
            1988     11.9755E-03     26.4065E-03    -20.1920E+06    -27.0088E+06     5.48327E+06     926.260E+03    -56.4806E-03     107.391E-03    -50.9105E-03     82.8168E-03    -57.0687E-03     107.796E-03    -50.8146E-03     81.9161E-03
            1989     11.1241E-03     26.3234E-03    -22.4569E+06    -54.3318E+06     3.27109E+06     940.330E+03    -55.8066E-03     106.437E-03    -50.6304E-03     78.1387E-03    -56.2300E-03     106.578E-03    -50.5027E-03     77.3748E-03
            1990     10.2711E-03     26.2445E-03    -24.6416E+06    -74.6698E+06     2.68521E+06     1.00191E+06    -55.1758E-03     105.523E-03    -50.3468E-03     74.3047E-03    -55.4843E-03     105.471E-03    -50.1894E-03     73.6614E-03
            1991     9.41845E-03     26.1689E-03    -27.2845E+06    -89.4439E+06     1.61134E+06     976.329E+03    -54.4416E-03     104.494E-03    -50.0521E-03     69.7314E-03    -54.6669E-03     104.300E-03    -49.8748E-03     69.1945E-03
            1992     8.56488E-03     26.0987E-03    -30.2253E+06    -103.112E+06     247.092E+03     1.04001E+06    -53.5716E-03     103.332E-03    -49.7609E-03     64.4212E-03    -53.7318E-03     103.019E-03    -49.5664E-03     63.9809E-03
            1993     7.71058E-03     26.0340E-03    -33.6131E+06    -114.249E+06    -1.96305E+06     1.03332E+06    -52.6856E-03     102.162E-03    -49.4765E-03     58.8478E-03    -52.7994E-03     101.757E-03    -49.2719E-03     58.4903E-03
            1994     6.85591E-03     25.9752E-03    -37.6167E+06    -125.361E+06    -5.94410E+06     899.529E+03    -51.8192E-03     101.021E-03    -49.2020E-03     52.9948E-03    -51.8978E-03     100.538E-03    -48.9954E-03     52.7067E-03
            1995     6.00031E-03     25.9223E-03    -41.7947E+06    -133.920E+06    -11.7047E+06     967.853E+03    -50.9871E-03     99.9244E-03    -48.9373E-03     46.9227E-03    -51.0409E-03     99.3884E-03    -48.7410E-03     46.6958E-03
            1996     5.14445E-03     25.8761E-03    -46.3501E+06    -140.482E+06    -20.4330E+06     939.364E+03    -50.2036E-03     98.8863E-03    -48.6827E-03     40.6740E-03    -50.2395E-03     98.3182E-03    -48.5139E-03     40.4983E-03
            1997     4.28776E-03     25.8365E-03    -50.9155E+06    -148.125E+06    -29.4593E+06     894.249E+03    -49.5369E-03     97.9943E-03    -48.4573E-03     34.2549E-03    -49.5580E-03     97.3942E-03    -48.3160E-03     34.1219E-03
            1998     3.43082E-03     25.8037E-03    -55.0972E+06    -155.422E+06    -38.6947E+06     879.936E+03    -48.9704E-03     97.2286E-03    -48.2583E-03     27.6736E-03    -48.9787E-03     96.6018E-03    -48.1465E-03     27.5772E-03
            1999     2.57355E-03     25.7777E-03    -58.9510E+06    -162.274E+06    -48.4635E+06     621.077E+03    -48.4801E-03     96.5704E-03    -48.0903E-03     20.9726E-03    -48.4770E-03     95.9225E-03    -48.0118E-03     20.9042E-03
            2000     1.71575E-03     25.7594E-03    -62.0793E+06    -167.462E+06    -56.7976E+06     310.052E+03    -48.1499E-03     96.1116E-03    -47.9617E-03     14.2009E-03    -48.1386E-03     95.4501E-03    -47.9128E-03     14.1555E-03
            2001     858.003E-06     25.7478E-03    -64.2256E+06    -169.717E+06    -62.7040E+06     215.933E+03    -47.9446E-03     95.8010E-03    -47.8564E-03     7.72201E-03    -47.9298E-03     95.1376E-03    -47.8307E-03     7.69892E-03
            2002     16.2300E-03     25.7539E-03    -5.10857E+06     123.752E+06     86.0570E+06     479.318E+03    -57.4093E-03     109.881E-03    -52.4719E-03     33.5503E-03    -58.2249E-03     110.868E-03    -52.2137E-03     32.7970E-03
            2003     15.3806E-03     25.6931E-03    -9.04728E+06     125.047E+06     75.7381E+06     597.025E+03    -57.2277E-03     109.361E-03    -52.1333E-03     65.4266E-03    -58.3924E-03     110.718E-03    -51.9228E-03     64.3876E-03
            2004     14.5296E-03     25.6230E-03    -12.4367E+06     116.402E+06     49.8581E+06     459.679E+03    -57.5642E-03     109.281E-03    -51.7166E-03     79.4923E-03    -58.7501E-03     110.691E-03    -51.6181E-03     78.3679E-03
            2005     13.6804E-03     25.5308E-03    -16.3471E+06     73.6077E+06     20.2097E+06     470.960E+03    -57.9176E-03     109.223E-03    -51.3056E-03     89.5884E-03    -59.0178E-03     110.468E-03    -51.2876E-03     88.4173E-03
            2006     12.8291E-03     25.4396E-03    -18.9718E+06     12.1459E+06     5.22767E+06     980.640E+03    -57.4913E-03     108.465E-03    -50.9741E-03     86.8181E-03    -58.3148E-03     109.250E-03    -50.9381E-03     85.7558E-03
            2007     11.9789E-03     25.3522E-03    -20.4633E+06    -26.9513E+06     5.04169E+06     1.18092E+06    -56.7482E-03     107.428E-03    -50.6798E-03     81.6502E-03    -57.3299E-03     107.827E-03    -50.5858E-03     80.7537E-03
            2008     11.1266E-03     25.2711E-03    -22.3087E+06    -54.2669E+06     3.16139E+06     1.09943E+06    -55.9912E-03     106.354E-03    -50.3623E-03     76.8633E-03    -56.4075E-03     106.489E-03    -50.2355E-03     76.1042E-03
            2009     10.2746E-03     25.1923E-03    -24.5946E+06    -74.4118E+06     2.49170E+06     1.13066E+06    -55.2302E-03     105.273E-03    -50.0423E-03     73.0412E-03    -55.5330E-03     105.217E-03    -49.8863E-03     72.4050E-03
            2010     9.42158E-03     25.1184E-03    -27.1368E+06    -89.4469E+06     1.41844E+06     1.21309E+06    -54.3855E-03     104.102E-03    -49.7165E-03     68.4389E-03    -54.6051E-03     103.904E-03    -49.5404E-03     67.9114E-03
            2011     8.56794E-03     25.0492E-03    -30.1104E+06    -102.923E+06     16.0991E+03     1.19921E+06    -53.4387E-03     102.836E-03    -49.3969E-03     63.2067E-03    -53.5947E-03     102.519E-03    -49.2039E-03     62.7749E-03
            2012     7.71372E-03     24.9857E-03    -33.5426E+06    -114.074E+06    -2.04673E+06     1.22915E+06    -52.4931E-03     101.580E-03    -49.0872E-03     57.7152E-03    -52.6038E-03     101.173E-03    -48.8834E-03     57.3664E-03
            2013     6.85863E-03     24.9278E-03    -37.3700E+06    -124.917E+06    -6.04308E+06     1.22859E+06    -51.5781E-03     100.365E-03    -48.7869E-03     51.9810E-03    -51.6539E-03     99.8822E-03    -48.5818E-03     51.7026E-03
            2014     6.00313E-03     24.8762E-03    -41.7646E+06    -133.925E+06    -12.0893E+06     1.14790E+06    -50.6603E-03     99.1602E-03    -48.4999E-03     45.9727E-03    -50.7118E-03     98.6231E-03    -48.3056E-03     45.7533E-03
            2015     5.14662E-03     24.8309E-03    -46.2173E+06    -140.186E+06    -20.5180E+06     1.30255E+06    -49.8450E-03     98.0725E-03    -48.2275E-03     39.8264E-03    -49.8793E-03     97.5046E-03    -48.0598E-03     39.6596E-03
            2016     4.28987E-03     24.7921E-03    -50.6973E+06    -147.723E+06    -29.6328E+06     1.13487E+06    -49.1523E-03     97.1341E-03    -47.9819E-03     33.5082E-03    -49.1718E-03     96.5352E-03    -47.8423E-03     33.3817E-03
            2017     3.43261E-03     24.7599E-03    -55.0285E+06    -155.020E+06    -38.9162E+06     884.433E+03    -48.4973E-03     96.2671E-03    -47.7698E-03     27.0451E-03    -48.5051E-03     95.6420E-03    -47.6598E-03     26.9516E-03
            2018     2.57468E-03     24.7350E-03    -58.7754E+06    -161.678E+06    -48.4878E+06     712.711E+03    -47.9889E-03     95.5876E-03    -47.5988E-03     20.4982E-03    -47.9855E-03     94.9422E-03    -47.5216E-03     20.4330E-03
            2019     1.71665E-03     24.7165E-03    -61.9369E+06    -166.899E+06    -56.7426E+06     507.221E+03    -47.6716E-03     95.1364E-03    -47.4648E-03     13.8955E-03    -47.6603E-03     94.4773E-03    -47.4167E-03     13.8541E-03
            2020     858.552E-06     24.7055E-03    -64.1116E+06    -169.252E+06    -62.6106E+06     178.163E+03    -47.4555E-03     94.7973E-03    -47.3419E-03     7.57895E-03    -47.4408E-03     94.1359E-03    -47.3166E-03     7.55587E-03
            2021     16.2300E-03     24.6954E-03    -4.72097E+06     124.078E+06     86.4390E+06     314.391E+03    -58.1719E-03     110.640E-03    -52.4677E-03     32.5877E-03    -58.9832E-03     111.624E-03    -52.2086E-03     31.8107E-03
            2022     15.3805E-03     24.6338E-03    -8.83234E+06     124.896E+06     75.1675E+06    -518.297E+03    -58.3447E-03     110.415E-03    -52.0706E-03     63.7605E-03    -59.4993E-03     111.764E-03    -51.8631E-03     62.6703E-03
            2023     14.5326E-03     24.5656E-03    -13.1519E+06     115.255E+06     48.8039E+06     690.685E+03    -58.3641E-03     109.956E-03    -51.5921E-03     78.0692E-03    -59.5385E-03     111.352E-03    -51.4961E-03     76.9271E-03
            2024     13.6820E-03     24.4739E-03    -16.3069E+06     73.8141E+06     20.2209E+06     1.71043E+06    -58.2550E-03     109.393E-03    -51.1377E-03     88.2198E-03    -59.3409E-03     110.624E-03    -51.1200E-03     87.0614E-03
            2025     12.8328E-03     24.3843E-03    -18.6674E+06     12.5918E+06     5.11360E+06     1.16545E+06    -57.7311E-03     108.502E-03    -50.7710E-03     85.3231E-03    -58.5413E-03     109.276E-03    -50.7366E-03     84.2643E-03
            2026     11.9808E-03     24.2983E-03    -20.5097E+06    -26.9369E+06     4.76321E+06     951.385E+03    -56.9845E-03     107.426E-03    -50.4417E-03     80.2355E-03    -57.5577E-03     107.817E-03    -50.3490E-03     79.3377E-03
            2027     11.1302E-03     24.2178E-03    -22.3113E+06    -54.1274E+06     2.97377E+06     1.21470E+06    -56.1667E-03     106.253E-03    -50.0866E-03     75.5575E-03    -56.5761E-03     106.383E-03    -49.9609E-03     74.8037E-03
            2028     10.2777E-03     24.1412E-03    -24.4922E+06    -74.2593E+06     2.33671E+06     1.32575E+06    -55.2675E-03     104.999E-03    -49.7314E-03     71.8735E-03    -55.5644E-03     104.939E-03    -49.5765E-03     71.2457E-03
            2029     9.42479E-03     24.0679E-03    -26.9678E+06    -89.4335E+06     1.15186E+06     1.35442E+06    -54.2736E-03     103.651E-03    -49.3771E-03     67.2495E-03    -54.4870E-03     103.448E-03    -49.2025E-03     66.7315E-03
            2030     8.57121E-03     24.0003E-03    -29.8831E+06    -102.718E+06    -144.495E+03     1.50107E+06    -53.2793E-03     102.313E-03    -49.0339E-03     62.0473E-03    -53.4305E-03     101.994E-03    -48.8423E-03     61.6263E-03
            2031     7.71664E-03     23.9379E-03    -33.3880E+06    -113.946E+06    -2.33271E+06     1.48295E+06    -52.2824E-03     100.983E-03    -48.7006E-03     56.6368E-03    -52.3893E-03     100.574E-03    -48.4986E-03     56.2976E-03
            2032     6.86153E-03     23.8813E-03    -37.3896E+06    -124.704E+06    -6.14855E+06     1.53192E+06    -51.2852E-03     99.6664E-03    -48.3813E-03     50.9122E-03    -51.3589E-03     99.1826E-03    -48.1770E-03     50.6436E-03
            2033     6.00551E-03     23.8308E-03    -41.7246E+06    -133.539E+06    -12.3284E+06     1.55437E+06    -50.3648E-03     98.4385E-03    -48.0738E-03     45.0095E-03    -50.4147E-03     97.9020E-03    -47.8813E-03     44.8002E-03
            2034     5.14909E-03     23.7866E-03    -46.2401E+06    -139.970E+06    -20.9473E+06     1.46513E+06    -49.5208E-03     97.2991E-03    -47.7783E-03     38.9689E-03    -49.5539E-03     96.7319E-03    -47.6130E-03     38.8081E-03
            2035     4.29192E-03     23.7484E-03    -50.5414E+06    -147.128E+06    -29.8265E+06     1.43795E+06    -48.7050E-03     96.2237E-03    -47.5187E-03     32.7471E-03    -48.7235E-03     95.6270E-03    -47.3812E-03     32.6281E-03
            2036     3.43408E-03     23.7176E-03    -54.7714E+06    -154.393E+06    -39.2095E+06     1.11038E+06    -48.0523E-03     95.3518E-03    -47.2995E-03     26.4474E-03    -48.0588E-03     94.7295E-03    -47.1923E-03     26.3594E-03
            2037     2.57604E-03     23.6927E-03    -58.6901E+06    -161.182E+06    -48.6394E+06     873.178E+03    -47.5568E-03     94.6738E-03    -47.1171E-03     20.0329E-03    -47.5532E-03     94.0308E-03    -47.0414E-03     19.9716E-03
            2038     1.71762E-03     23.6752E-03    -61.7054E+06    -166.282E+06    -56.7432E+06     682.383E+03    -47.1480E-03     94.1334E-03    -46.9855E-03     13.5933E-03    -47.1363E-03     93.4770E-03    -46.9386E-03     13.5555E-03
            2039     858.567E-06     23.6641E-03    -63.6245E+06    -168.445E+06    -62.3484E+06     67.1585E+03    -46.9678E-03     93.8622E-03    -46.8944E-03     7.33070E-03    -46.9523E-03     93.2037E-03    -46.8697E-03     7.30657E-03
            2040     16.2301E-03     23.6339E-03    -4.34907E+06     124.119E+06     86.7521E+06    -26.5698E+03    -58.9473E-03     111.369E-03    -52.4220E-03     31.1763E-03    -59.7480E-03     112.344E-03    -52.1619E-03     30.3763E-03
            2041     15.3834E-03     23.5746E-03    -9.30695E+06     123.802E+06     74.0249E+06     506.919E+03    -59.0314E-03     111.008E-03    -51.9762E-03     62.4484E-03    -60.1701E-03     112.338E-03    -51.7721E-03     61.3516E-03
            2042     14.5336E-03     23.5069E-03    -14.2677E+06     113.993E+06     47.9967E+06     1.16093E+06    -58.9590E-03     110.414E-03    -51.4553E-03     76.5108E-03    -60.1175E-03     111.788E-03    -51.3600E-03     75.3654E-03
            2043     13.6853E-03     23.4175E-03    -17.1298E+06     74.1644E+06     20.2550E+06     1.22094E+06    -58.5059E-03     109.470E-03    -50.9645E-03     86.7941E-03    -59.5784E-03     110.687E-03    -50.9460E-03     85.6319E-03
            2044     12.8342E-03     23.3287E-03    -18.5087E+06     13.1952E+06     4.89903E+06     1.23646E+06    -57.9996E-03     108.562E-03    -50.5628E-03     84.1670E-03    -58.7976E-03     109.327E-03    -50.5306E-03     83.1118E-03
            2045     11.9850E-03     23.2442E-03    -20.1799E+06    -26.7062E+06     4.66785E+06     1.11606E+06    -57.1923E-03     107.392E-03    -50.1996E-03     78.7928E-03    -57.7540E-03     107.774E-03    -50.1083E-03     77.9012E-03
            2046     11.1327E-03     23.1654E-03    -22.2152E+06    -54.1946E+06     2.52930E+06     1.23942E+06    -56.1920E-03     106.005E-03    -49.8129E-03     74.3747E-03    -56.5925E-03     106.127E-03    -49.6894E-03     73.6292E-03
            2047     10.2809E-03     23.0896E-03    -24.2772E+06    -74.2862E+06     2.05429E+06     1.50885E+06    -55.2581E-03     104.690E-03    -49.4317E-03     70.6064E-03    -55.5477E-03     104.624E-03    -49.2785E-03     69.9876E-03
            2048     9.42802E-03     23.0183E-03    -26.8777E+06    -89.2070E+06     771.038E+03     1.66566E+06    -54.1800E-03     103.231E-03    -49.0510E-03     66.1114E-03    -54.3882E-03     103.025E-03    -48.8788E-03     65.6047E-03
            2049     8.57401E-03     22.9517E-03    -29.8670E+06    -102.811E+06    -750.821E+03     1.72220E+06    -53.1335E-03     101.817E-03    -48.6835E-03     60.9489E-03    -53.2800E-03     101.495E-03    -48.4949E-03     60.5375E-03
            2050     7.71959E-03     22.8907E-03    -33.2115E+06    -113.664E+06    -2.69158E+06     1.91597E+06    -52.0701E-03     100.399E-03    -48.3286E-03     55.4772E-03    -52.1731E-03     99.9881E-03    -48.1291E-03     55.1496E-03
            2051     6.86417E-03     22.8354E-03    -37.2152E+06    -124.454E+06    -6.47176E+06     1.96135E+06    -51.0085E-03     98.9989E-03    -47.9904E-03     49.8374E-03    -51.0792E-03     98.5144E-03    -47.7884E-03     49.5799E-03
            2052     6.00805E-03     22.7862E-03    -41.6657E+06    -133.151E+06    -12.4197E+06     1.98451E+06    -50.0598E-03     97.7266E-03    -47.6667E-03     44.0875E-03    -50.1083E-03     97.1905E-03    -47.4754E-03     43.8884E-03
            2053     5.15127E-03     22.7427E-03    -46.1840E+06    -139.453E+06    -21.2841E+06     1.87632E+06    -49.1474E-03     96.5033E-03    -47.3559E-03     38.1085E-03    -49.1794E-03     95.9380E-03    -47.1931E-03     37.9571E-03
            2054     4.29373E-03     22.7063E-03    -50.6557E+06    -146.410E+06    -30.2823E+06     1.64292E+06    -48.3201E-03     95.4046E-03    -47.0845E-03     32.0213E-03    -48.3389E-03     94.8116E-03    -46.9502E-03     31.9083E-03
            2055     3.43568E-03     22.6755E-03    -54.7923E+06    -153.682E+06    -39.5293E+06     1.41124E+06    -47.6518E-03     94.5052E-03    -46.8534E-03     25.8370E-03    -47.6585E-03     93.8865E-03    -46.7488E-03     25.7554E-03
            2056     2.57721E-03     22.6518E-03    -58.5329E+06    -160.523E+06    -48.8099E+06     1.11352E+06    -47.1031E-03     93.7679E-03    -46.6648E-03     19.5489E-03    -47.0992E-03     93.1279E-03    -46.5912E-03     19.4927E-03
            2057     1.71817E-03     22.6345E-03    -61.5674E+06    -165.381E+06    -56.6195E+06     742.977E+03    -46.7330E-03     93.2542E-03    -46.5212E-03     13.2595E-03    -46.7220E-03     92.6018E-03    -46.4752E-03     13.2236E-03
            2058     859.415E-06     22.6239E-03    -63.6833E+06    -167.751E+06    -62.4046E+06     371.969E+03    -46.5312E-03     92.9063E-03    -46.3752E-03     7.15158E-03    -46.5168E-03     92.2514E-03    -46.3516E-03     7.13235E-03
            2059     16.2333E-03     22.5739E-03    -4.36312E+06     123.182E+06     86.2014E+06     327.461E+03    -59.6473E-03     112.008E-03    -52.3606E-03     30.8716E-03    -60.4335E-03     112.966E-03    -52.1019E-03     30.0641E-03
            2060     15.3830E-03     22.5148E-03    -9.77327E+06     122.875E+06     74.2968E+06     1.34924E+06    -59.4799E-03     111.365E-03    -51.8852E-03     61.8704E-03    -60.6002E-03     112.671E-03    -51.6777E-03     60.7799E-03
            2061     14.5368E-03     22.4470E-03    -13.4180E+06     114.418E+06     49.2938E+06     1.16794E+06    -59.3287E-03     110.664E-03    -51.3350E-03     75.1567E-03    -60.4672E-03     112.018E-03    -51.2350E-03     74.0099E-03
            2062     13.6868E-03     22.3619E-03    -16.3089E+06     74.3820E+06     20.3006E+06     963.318E+03    -58.9926E-03     109.794E-03    -50.8015E-03     85.5795E-03    -60.0465E-03     110.995E-03    -50.7842E-03     84.4107E-03
            2063     12.8379E-03     22.2721E-03    -18.3891E+06     13.5618E+06     4.60942E+06     1.09857E+06    -58.2848E-03     108.645E-03    -50.3601E-03     82.9346E-03    -59.0693E-03     109.399E-03    -50.3301E-03     81.8807E-03
            2064     11.9867E-03     22.1905E-03    -20.1130E+06    -26.9178E+06     4.08700E+06     1.32879E+06    -57.3019E-03     107.267E-03    -49.9649E-03     77.3096E-03    -57.8515E-03     107.638E-03    -49.8763E-03     76.4275E-03
            2065     11.1361E-03     22.1126E-03    -22.0389E+06    -54.1855E+06     2.16809E+06     1.48844E+06    -56.2440E-03     105.795E-03    -49.5513E-03     73.0454E-03    -56.6361E-03     105.911E-03    -49.4299E-03     72.3091E-03
            2066     10.2838E-03     22.0387E-03    -24.2818E+06    -74.4242E+06     1.47703E+06     1.65853E+06    -55.1492E-03     104.296E-03    -49.1469E-03     69.3026E-03    -55.4317E-03     104.224E-03    -48.9964E-03     68.6940E-03
            2067     9.43062E-03     21.9687E-03    -26.7195E+06    -89.1779E+06     384.664E+03     1.95751E+06    -54.0969E-03     102.843E-03    -48.7460E-03     64.8707E-03    -54.2995E-03     102.633E-03    -48.5760E-03     64.3740E-03
            2068     8.57704E-03     21.9037E-03    -29.6630E+06    -102.584E+06    -1.14696E+06     2.14088E+06    -52.9920E-03     101.348E-03    -48.3557E-03     59.7777E-03    -53.1336E-03     101.023E-03    -48.1697E-03     59.3780E-03
            2069     7.72226E-03     21.8440E-03    -33.1484E+06    -113.711E+06    -3.25844E+06     2.28973E+06    -51.8410E-03     99.8226E-03    -47.9816E-03     54.3327E-03    -51.9400E-03     99.4098E-03    -47.7850E-03     54.0160E-03
            2070     6.86666E-03     21.7904E-03    -36.9831E+06    -123.925E+06    -6.85743E+06     2.49056E+06    -50.7696E-03     98.3957E-03    -47.6261E-03     48.8305E-03    -50.8372E-03     97.9121E-03    -47.4271E-03     48.5850E-03
            2071     6.01037E-03     21.7420E-03    -41.2439E+06    -132.851E+06    -12.8619E+06     2.44454E+06    -49.7372E-03     97.0252E-03    -47.2880E-03     43.1245E-03    -49.7818E-03     96.4892E-03    -47.0999E-03     42.9362E-03
            2072     5.15316E-03     21.7002E-03    -45.6851E+06    -138.858E+06    -21.3474E+06     2.35512E+06    -48.7828E-03     95.7534E-03    -46.9706E-03     37.2150E-03    -48.8119E-03     95.1893E-03    -46.8097E-03     37.0739E-03
            2073     4.29540E-03     21.6642E-03    -50.1483E+06    -145.539E+06    -30.2723E+06     2.16419E+06    -47.9928E-03     94.6814E-03    -46.6886E-03     31.2736E-03    -48.0096E-03     94.0913E-03    -46.5562E-03     31.1702E-03
            2074     3.43718E-03     21.6348E-03    -54.6066E+06    -152.845E+06    -39.5586E+06     1.82763E+06    -47.2731E-03     93.7187E-03    -46.4456E-03     25.2055E-03    -47.2796E-03     93.1035E-03    -46.3426E-03     25.1318E-03
            2075     2.57816E-03     21.6116E-03    -58.5025E+06    -159.483E+06    -48.9136E+06     1.47681E+06    -46.7143E-03     92.9608E-03    -46.2465E-03     19.0771E-03    -46.7113E-03     92.3258E-03    -46.1750E-03     19.0274E-03
            2076     1.71918E-03     21.5948E-03    -61.6630E+06    -164.391E+06    -56.9071E+06     973.371E+03    -46.3325E-03     92.4208E-03    -46.0883E-03     12.9418E-03    -46.3229E-03     91.7737E-03    -46.0451E-03     12.9100E-03
            2077     859.523E-06     21.5844E-03    -63.6576E+06    -166.867E+06    -62.2424E+06     537.694E+03    -46.0900E-03     92.0268E-03    -45.9368E-03     6.96491E-03    -46.0770E-03     91.3760E-03    -45.9138E-03     6.94866E-03
            2078     16.2309E-03     21.5130E-03    -4.63250E+06     122.633E+06     85.9031E+06     486.615E+03    -60.6909E-03     113.019E-03    -52.3281E-03     30.3359E-03    -61.4689E-03     113.967E-03    -52.0697E-03     29.5093E-03
            2079     15.3868E-03     21.4529E-03    -9.03175E+06     123.136E+06     74.8535E+06     615.969E+03    -60.0358E-03     111.844E-03    -51.8079E-03     60.6390E-03    -61.1371E-03     113.133E-03    -51.5991E-03     59.5260E-03
            2080     14.5366E-03     21.3899E-03    -12.9191E+06     114.198E+06     49.1153E+06     881.040E+03    -59.6884E-03     110.911E-03    -51.2224E-03     73.8881E-03    -60.8073E-03     112.247E-03    -51.1236E-03     72.7320E-03
            2081     13.6892E-03     21.3024E-03    -16.0118E+06     74.5950E+06     20.0104E+06     1.36697E+06    -59.5435E-03     110.193E-03    -50.6496E-03     83.8865E-03    -60.5812E-03     111.381E-03    -50.6345E-03     82.7146E-03
            2082     12.8398E-03     21.2178E-03    -18.1936E+06     13.8114E+06     4.27929E+06     1.56303E+06    -58.5547E-03     108.722E-03    -50.1672E-03     81.2259E-03    -59.3253E-03     109.465E-03    -50.1394E-03     80.1796E-03
            2083     11.9900E-03     21.1357E-03    -20.2473E+06    -26.8274E+06     3.63761E+06     1.53332E+06    -57.3372E-03     107.081E-03    -49.7440E-03     75.8878E-03    -57.8769E-03     107.443E-03    -49.6576E-03     75.0156E-03
            2084     11.1386E-03     21.0607E-03    -22.1591E+06    -54.2299E+06     1.72374E+06     1.65292E+06    -56.2125E-03     105.523E-03    -49.3101E-03     71.6596E-03    -56.5971E-03     105.631E-03    -49.1907E-03     70.9325E-03
            2085     10.2864E-03     20.9880E-03    -24.1727E+06    -74.5099E+06     1.06235E+06     1.86446E+06    -55.1119E-03     103.997E-03    -48.8851E-03     68.1117E-03    -55.3880E-03     103.920E-03    -48.7367E-03     67.5120E-03
            2086     9.43356E-03     20.9196E-03    -26.6365E+06    -89.3448E+06    -59.8439E+03     2.20669E+06    -53.9933E-03     102.457E-03    -48.4637E-03     63.6270E-03    -54.1902E-03     102.242E-03    -48.2958E-03     63.1398E-03
            2087     8.57945E-03     20.8559E-03    -29.5007E+06    -102.510E+06    -1.53703E+06     2.59009E+06    -52.7865E-03     100.844E-03    -48.0572E-03     58.5395E-03    -52.9232E-03     100.516E-03    -47.8735E-03     58.1524E-03
            2088     7.72461E-03     20.7981E-03    -32.8696E+06    -113.525E+06    -3.73811E+06     2.79739E+06    -51.6289E-03     99.2981E-03    -47.6693E-03     53.2390E-03    -51.7232E-03     98.8837E-03    -47.4757E-03     52.9350E-03
            2089     6.86895E-03     20.7455E-03    -36.7445E+06    -123.767E+06    -7.47076E+06     2.91533E+06    -50.5362E-03     97.8355E-03    -47.2993E-03     47.7865E-03    -50.5999E-03     97.3510E-03    -47.1039E-03     47.5518E-03
            2090     6.01235E-03     20.6988E-03    -40.9308E+06    -132.183E+06    -13.1886E+06     2.99085E+06    -49.4587E-03     96.4079E-03    -46.9492E-03     42.0984E-03    -49.5007E-03     95.8736E-03    -46.7641E-03     41.9217E-03
            2091     5.15502E-03     20.6580E-03    -45.3930E+06    -138.212E+06    -21.5466E+06     2.91989E+06    -48.4979E-03     95.1182E-03    -46.6203E-03     36.3325E-03    -48.5250E-03     94.5561E-03    -46.4618E-03     36.2026E-03
            2092     4.29702E-03     20.6232E-03    -49.8424E+06    -144.672E+06    -30.4132E+06     2.74501E+06    -47.6473E-03     93.9767E-03    -46.3294E-03     30.4647E-03    -47.6629E-03     93.3899E-03    -46.1994E-03     30.3721E-03
            2093     3.43822E-03     20.5946E-03    -54.0009E+06    -151.606E+06    -39.2157E+06     2.41573E+06    -46.9409E-03     93.0214E-03    -46.0805E-03     24.5102E-03    -46.9462E-03     92.4106E-03    -45.9784E-03     24.4464E-03
            2094     2.57931E-03     20.5721E-03    -57.8713E+06    -158.194E+06    -48.2449E+06     1.89003E+06    -46.3735E-03     92.2447E-03    -45.8713E-03     18.5856E-03    -46.3699E-03     91.6141E-03    -45.7992E-03     18.5430E-03
            2095     1.71962E-03     20.5559E-03    -60.8912E+06    -163.018E+06    -56.2100E+06     1.30685E+06    -45.9272E-03     91.6407E-03    -45.7135E-03     12.5904E-03    -45.9166E-03     90.9983E-03    -45.6699E-03     12.5642E-03
            2096     859.964E-06     20.5460E-03    -62.9357E+06    -165.658E+06    -61.7750E+06     638.928E+03    -45.6931E-03     91.2907E-03    -45.5976E-03     6.77146E-03    -45.6788E-03     90.6441E-03    -45.5750E-03     6.75718E-03
            2097     16.2344E-03     20.4474E-03    -4.38287E+06     122.634E+06     86.0330E+06     424.867E+03    -61.4651E-03     113.784E-03    -52.3192E-03     29.6416E-03    -62.2357E-03     114.725E-03    -52.0605E-03     28.7960E-03
            2098     15.3853E-03     20.3944E-03    -9.15795E+06     122.654E+06     74.3185E+06     416.644E+03    -60.9949E-03     112.742E-03    -51.7472E-03     59.2229E-03    -62.0818E-03     114.016E-03    -51.5402E-03     58.0794E-03
            2099     14.5398E-03     20.3286E-03    -13.5219E+06     113.168E+06     48.3175E+06     1.02141E+06    -60.4208E-03     111.528E-03    -51.1068E-03     72.1433E-03    -61.5204E-03     112.841E-03    -51.0097E-03     70.9764E-03
            2100     13.6912E-03     20.2457E-03    -16.6212E+06     74.4677E+06     19.3175E+06     1.79849E+06    -59.6906E-03     110.186E-03    -50.4956E-03     81.9482E-03    -60.7095E-03     111.355E-03    -50.4829E-03     80.7873E-03
            2101     12.8425E-03     20.1608E-03    -18.7890E+06     14.3627E+06     3.59177E+06     1.77299E+06    -58.6327E-03     108.623E-03    -49.9903E-03     79.5160E-03    -59.3924E-03     109.357E-03    -49.9660E-03     78.4779E-03
            2102     11.9922E-03     20.0826E-03    -20.1761E+06    -26.5573E+06     3.38612E+06     1.56417E+06    -57.3578E-03     106.907E-03    -49.5492E-03     74.5655E-03    -57.8880E-03     107.262E-03    -49.4645E-03     73.7007E-03
            2103     11.1409E-03     20.0082E-03    -21.8766E+06    -54.4200E+06     1.37072E+06     1.77593E+06    -56.1769E-03     105.275E-03    -49.0978E-03     70.3730E-03    -56.5519E-03     105.375E-03    -48.9803E-03     69.6548E-03
            2104     10.2889E-03     19.9377E-03    -24.0833E+06    -74.6325E+06     682.589E+03     2.13945E+06    -55.0823E-03     103.737E-03    -48.6548E-03     66.8882E-03    -55.3519E-03     103.654E-03    -48.5082E-03     66.2978E-03
            2105     9.43572E-03     19.8706E-03    -26.5134E+06    -89.5499E+06    -616.394E+03     2.54461E+06    -53.8750E-03     102.091E-03    -48.2155E-03     62.4422E-03    -54.0654E-03     101.871E-03    -48.0503E-03     61.9665E-03
            2106     8.58184E-03     19.8090E-03    -29.2440E+06    -102.501E+06    -2.02977E+06     2.93839E+06    -52.6510E-03     100.445E-03    -47.7937E-03     57.3114E-03    -52.7818E-03     100.114E-03    -47.6129E-03     56.9353E-03
            2107     7.72673E-03     19.7524E-03    -32.4408E+06    -113.394E+06    -4.22064E+06     3.23506E+06    -51.4680E-03     98.8575E-03    -47.3896E-03     52.0072E-03    -51.5566E-03     98.4407E-03    -47.1992E-03     51.7147E-03
            2108     6.87086E-03     19.7013E-03    -36.1312E+06    -123.484E+06    -7.94074E+06     3.50875E+06    -50.3102E-03     97.3158E-03    -47.0055E-03     46.5269E-03    -50.3680E-03     96.8300E-03    -46.8138E-03     46.3055E-03
            2109     6.01411E-03     19.6561E-03    -40.3896E+06    -131.639E+06    -13.5895E+06     3.67798E+06    -49.2330E-03     95.8758E-03    -46.6428E-03     40.9476E-03    -49.2706E-03     95.3422E-03    -46.4613E-03     40.7845E-03
            2110     5.15662E-03     19.6164E-03    -44.8867E+06    -137.402E+06    -21.6198E+06     3.67254E+06    -48.2465E-03     94.5478E-03    -46.3013E-03     35.2950E-03    -48.2709E-03     93.9878E-03    -46.1451E-03     35.1787E-03
            2111     4.29829E-03     19.5829E-03    -49.2566E+06    -143.429E+06    -30.1360E+06     3.33624E+06    -47.3709E-03     93.3687E-03    -45.9978E-03     29.5159E-03    -47.3848E-03     92.7860E-03    -45.8691E-03     29.4342E-03
            2112     3.43956E-03     19.5550E-03    -53.4047E+06    -150.262E+06    -39.0053E+06     2.81602E+06    -46.6278E-03     92.3646E-03    -45.7368E-03     23.7040E-03    -46.6318E-03     91.7588E-03    -45.6366E-03     23.6479E-03
            2113     2.58001E-03     19.5335E-03    -57.0293E+06    -156.713E+06    -47.6565E+06     2.28054E+06    -46.0217E-03     91.5458E-03    -45.5242E-03     17.9190E-03    -46.0166E-03     90.9202E-03    -45.4525E-03     17.8832E-03
            2114     1.72034E-03     19.5178E-03    -59.9899E+06    -161.316E+06    -55.2900E+06     1.60335E+06    -45.5597E-03     90.9335E-03    -45.3738E-03     12.1465E-03    -45.5483E-03     90.2968E-03    -45.3294E-03     12.1253E-03
            2115     860.162E-06     19.5082E-03    -62.0589E+06    -163.856E+06    -60.8710E+06     1.01265E+06    -45.3565E-03     90.6223E-03    -45.2658E-03     6.66351E-03    -45.3418E-03     89.9822E-03    -45.2426E-03     6.65462E-03
            2116     16.2304E-03     19.3868E-03    -4.26829E+06     122.165E+06     86.0632E+06     328.775E+03    -62.2809E-03     114.573E-03    -52.2920E-03     27.6710E-03    -63.0318E-03     115.493E-03    -52.0326E-03     26.8084E-03
            2117     15.3876E-03     19.3289E-03    -9.25114E+06     121.975E+06     74.0220E+06     644.759E+03    -61.6841E-03     113.358E-03    -51.6736E-03     56.3587E-03    -62.7412E-03     114.600E-03    -51.4670E-03     55.2054E-03
            2118     14.5410E-03     19.2702E-03    -13.9604E+06     112.182E+06     47.8859E+06     1.69005E+06    -60.7128E-03     111.711E-03    -50.9977E-03     70.2343E-03    -61.7912E-03     112.999E-03    -50.9007E-03     69.0768E-03
            2119     13.6932E-03     19.1868E-03    -17.2932E+06     74.7126E+06     19.0217E+06     1.72076E+06    -59.7850E-03     110.149E-03    -50.3644E-03     80.6020E-03    -60.7890E-03     111.302E-03    -50.3525E-03     79.4473E-03
            2120     12.8441E-03     19.1060E-03    -18.3664E+06     15.0256E+06     3.37142E+06     1.26218E+06    -58.6282E-03     108.471E-03    -49.8427E-03     77.9833E-03    -59.3710E-03     109.192E-03    -49.8210E-03     76.9480E-03
            2121     11.9940E-03     19.0282E-03    -19.7334E+06    -26.8275E+06     2.96384E+06     1.64097E+06    -57.3931E-03     106.780E-03    -49.3870E-03     73.0660E-03    -57.9095E-03     107.123E-03    -49.3047E-03     72.2092E-03
            2122     11.1431E-03     18.9567E-03    -21.7698E+06    -54.5166E+06     851.858E+03     2.10251E+06    -56.2274E-03     105.144E-03    -48.9165E-03     69.0511E-03    -56.5932E-03     105.236E-03    -48.8016E-03     68.3433E-03
            2123     10.2907E-03     18.8871E-03    -23.7781E+06    -75.1160E+06     75.6578E+03     2.40534E+06    -55.0582E-03     103.512E-03    -48.4542E-03     65.4908E-03    -55.3179E-03     103.421E-03    -48.3104E-03     64.9110E-03
            2124     9.43781E-03     18.8223E-03    -26.1125E+06    -89.6144E+06    -1.00164E+06     2.91810E+06    -53.8357E-03     101.832E-03    -47.9964E-03     60.8843E-03    -54.0174E-03     101.606E-03    -47.8336E-03     60.4206E-03
            2125     8.58352E-03     18.7620E-03    -28.8470E+06    -102.581E+06    -2.61808E+06     3.24591E+06    -52.6437E-03     100.194E-03    -47.5500E-03     55.7477E-03    -52.7667E-03     99.8578E-03    -47.3726E-03     55.3819E-03
            2126     7.72879E-03     18.7071E-03    -32.0163E+06    -113.362E+06    -4.66904E+06     3.74727E+06    -51.4013E-03     98.5207E-03    -47.1194E-03     50.2857E-03    -51.4830E-03     98.0999E-03    -46.9319E-03     50.0064E-03
            2127     6.87272E-03     18.6578E-03    -35.7555E+06    -123.182E+06    -8.51192E+06     4.19774E+06    -50.1605E-03     96.8703E-03    -46.7098E-03     44.8213E-03    -50.2126E-03     96.3829E-03    -46.5219E-03     44.6153E-03
            2128     6.01589E-03     18.6136E-03    -39.8094E+06    -131.163E+06    -14.1783E+06     4.43451E+06    -49.0507E-03     95.3743E-03    -46.3236E-03     39.2742E-03    -49.0827E-03     94.8405E-03    -46.1466E-03     39.1266E-03
            2129     5.15813E-03     18.5757E-03    -44.0251E+06    -136.255E+06    -21.5027E+06     4.35566E+06    -48.0197E-03     93.9808E-03    -45.9611E-03     33.6554E-03    -48.0398E-03     93.4232E-03    -45.8072E-03     33.5528E-03
            2130     4.29979E-03     18.5428E-03    -48.2885E+06    -141.984E+06    -29.6548E+06     3.94895E+06    -47.0896E-03     92.7270E-03    -45.6374E-03     28.0791E-03    -47.1002E-03     92.1481E-03    -45.5098E-03     28.0096E-03
            2131     3.44061E-03     18.5165E-03    -52.3342E+06    -148.659E+06    -38.6144E+06     3.37718E+06    -46.3069E-03     91.6641E-03    -45.3572E-03     22.4850E-03    -46.3077E-03     91.0634E-03    -45.2588E-03     22.4395E-03
            2132     2.58104E-03     18.4953E-03    -56.0273E+06    -154.826E+06    -47.1260E+06     2.68787E+06    -45.6604E-03     90.7900E-03    -45.1296E-03     16.9075E-03    -45.6534E-03     90.1711E-03    -45.0595E-03     16.8796E-03
            2133     1.72085E-03     18.4805E-03    -58.9928E+06    -159.405E+06    -54.4589E+06     1.88941E+06    -45.1873E-03     90.1508E-03    -44.9636E-03     11.3926E-03    -45.1746E-03     89.5208E-03    -44.9192E-03     11.3767E-03
            2134     860.392E-06     18.4711E-03    -60.8303E+06    -161.711E+06    -59.6349E+06     1.17695E+06    -44.9291E-03     89.7821E-03    -44.8530E-03     6.33106E-03    -44.9131E-03     89.1491E-03    -44.8285E-03     6.32506E-03
            2135     16.2364E-03     18.3185E-03    -4.01440E+06     121.800E+06     86.0801E+06     595.435E+03    -63.0952E-03     115.345E-03    -52.2496E-03     26.3743E-03    -63.8281E-03     116.246E-03    -51.9900E-03     25.5120E-03
            2136     15.3894E-03     18.2692E-03    -9.19817E+06     121.154E+06     74.2626E+06     1.63639E+06    -61.6661E-03     113.276E-03    -51.6096E-03     55.4213E-03    -62.6987E-03     114.490E-03    -51.4006E-03     54.2916E-03
            2137     14.5419E-03     18.2087E-03    -13.2661E+06     112.109E+06     48.5560E+06     1.62766E+06    -60.8453E-03     111.771E-03    -50.9254E-03     68.7927E-03    -61.8986E-03     113.034E-03    -50.8259E-03     67.6411E-03
            2138     13.6944E-03     18.1298E-03    -15.2729E+06     75.2812E+06     19.8663E+06     1.34495E+06    -59.9441E-03     110.218E-03    -50.2740E-03     78.9105E-03    -60.9191E-03     111.349E-03    -50.2617E-03     77.7574E-03
            2139     12.8456E-03     18.0496E-03    -17.8219E+06     15.0187E+06     3.01182E+06     1.70627E+06    -58.7976E-03     108.527E-03    -49.7293E-03     76.4141E-03    -59.5217E-03     109.232E-03    -49.7102E-03     75.3904E-03
            2140     11.9958E-03     17.9750E-03    -19.9238E+06    -27.0656E+06     2.25469E+06     1.92692E+06    -57.5505E-03     106.801E-03    -49.2503E-03     71.4384E-03    -58.0546E-03     107.132E-03    -49.1709E-03     70.5909E-03
            2141     11.1443E-03     17.9044E-03    -21.5506E+06    -54.8186E+06     437.713E+03     2.23772E+06    -56.3720E-03     105.127E-03    -48.7550E-03     67.3661E-03    -56.7261E-03     105.209E-03    -48.6421E-03     66.6657E-03
            2142     10.2928E-03     17.8371E-03    -23.4875E+06    -75.1527E+06    -314.769E+03     2.77482E+06    -55.2517E-03     103.512E-03    -48.2605E-03     63.5601E-03    -55.5006E-03     103.412E-03    -48.1190E-03     62.9908E-03
            2143     9.43960E-03     17.7739E-03    -25.7538E+06    -89.8805E+06    -1.45702E+06     3.13353E+06    -54.0551E-03     101.816E-03    -47.7610E-03     58.6685E-03    -54.2261E-03     101.581E-03    -47.6007E-03     58.2136E-03
            2144     8.58599E-03     17.7152E-03    -28.3542E+06    -102.785E+06    -3.07874E+06     3.70362E+06    -52.7586E-03     100.027E-03    -47.2682E-03     53.2385E-03    -52.8710E-03     99.6826E-03    -47.0934E-03     52.8865E-03
            2145     7.73090E-03     17.6621E-03    -31.5198E+06    -113.628E+06    -5.11686E+06     4.33261E+06    -51.4305E-03     98.2222E-03    -46.7917E-03     47.6476E-03    -51.5025E-03     97.7938E-03    -46.6068E-03     47.3843E-03
            2146     6.87513E-03     17.6144E-03    -35.2215E+06    -122.905E+06    -8.69270E+06     4.99140E+06    -50.1542E-03     96.4871E-03    -46.3329E-03     42.1461E-03    -50.1989E-03     95.9957E-03    -46.1471E-03     41.9582E-03
            2147     6.01815E-03     17.5720E-03    -39.3102E+06    -130.245E+06    -14.2073E+06     5.12570E+06    -48.9055E-03     94.8017E-03    -45.8962E-03     36.6373E-03    -48.9324E-03     94.2679E-03    -45.7214E-03     36.5067E-03
            2148     5.16052E-03     17.5350E-03    -43.3270E+06    -134.943E+06    -21.4380E+06     4.86406E+06    -47.7513E-03     93.2406E-03    -45.4893E-03     31.1817E-03    -47.7670E-03     92.6857E-03    -45.3380E-03     31.0932E-03
            2149     4.30173E-03     17.5041E-03    -47.2517E+06    -140.428E+06    -29.2374E+06     4.50177E+06    -46.7348E-03     91.8628E-03    -45.1280E-03     25.8498E-03    -46.7411E-03     91.2876E-03    -45.0020E-03     25.7937E-03
            2150     3.44239E-03     17.4781E-03     -51.146E+06    -146.741E+06    -37.7665E+06     4.00592E+06    -45.8725E-03     90.6871E-03    -44.8146E-03     20.5459E-03    -45.8701E-03     90.0917E-03    -44.7165E-03     20.5138E-03
            2151     2.58238E-03     17.4584E-03    -54.6322E+06    -152.528E+06    -46.2316E+06     3.22724E+06    -45.1743E-03     89.7276E-03    -44.5532E-03     15.3657E-03    -45.1643E-03     89.1161E-03    -44.4840E-03     15.3487E-03
            2152     1.72190E-03     17.4438E-03    -57.5498E+06    -157.031E+06    -53.3092E+06     2.26194E+06    -44.6676E-03     89.0132E-03    -44.3456E-03     10.3536E-03    -44.6526E-03     88.3909E-03    -44.3010E-03     10.3453E-03
            2153     861.289E-06     17.4351E-03    -59.5645E+06    -159.421E+06    -58.4145E+06     1.29743E+06    -44.2765E-03     88.4938E-03    -44.2173E-03     5.70043E-03    -44.2591E-03     87.8685E-03    -44.1919E-03     5.69761E-03
            2154     16.2328E-03     17.2580E-03    -4.82524E+06     120.347E+06     84.9940E+06     698.837E+03    -63.4450E-03     115.713E-03    -52.2680E-03     26.0817E-03    -64.1679E-03     116.600E-03    -52.0106E-03     25.2141E-03
            2155     15.3874E-03     17.2043E-03    -8.84938E+06     121.129E+06     75.4128E+06     1.37819E+06    -62.4478E-03     114.053E-03    -51.6049E-03     54.0594E-03    -63.4598E-03     115.245E-03    -51.3907E-03     52.9130E-03
            2156     14.5431E-03     17.1492E-03    -12.4444E+06     112.192E+06     49.1447E+06     1.23264E+06    -61.2031E-03     112.085E-03    -50.8815E-03     66.4802E-03    -62.2276E-03     113.321E-03    -50.7804E-03     65.3229E-03
            2157     13.6950E-03     17.0711E-03    -16.4642E+06     74.9353E+06     17.9526E+06     2.04130E+06    -60.1569E-03     110.354E-03    -50.1971E-03     76.9166E-03    -61.1121E-03     111.465E-03    -50.1921E-03     75.7768E-03
            2158     12.8466E-03     16.9939E-03    -18.5036E+06     15.5798E+06     2.30873E+06     2.12865E+06    -59.0979E-03     108.728E-03    -49.6301E-03     74.2681E-03    -59.8074E-03     109.421E-03    -49.6143E-03     73.2514E-03
            2159     11.9968E-03     16.9207E-03    -19.8080E+06    -27.3960E+06     1.80620E+06     2.00283E+06    -57.9437E-03     107.060E-03    -49.1159E-03     69.2391E-03    -58.4322E-03     107.375E-03    -49.0385E-03     68.3932E-03
            2160     11.1467E-03     16.8526E-03    -21.5119E+06    -55.1071E+06     51.6377E+03     2.40327E+06    -56.8670E-03     105.438E-03    -48.5711E-03     64.9223E-03    -57.2078E-03     105.507E-03    -48.4598E-03     64.2250E-03
            2161     10.2946E-03     16.7867E-03    -23.2898E+06    -75.2486E+06    -685.257E+03     2.80052E+06    -55.7879E-03     103.799E-03    -48.0113E-03     60.6569E-03    -56.0231E-03     103.687E-03    -47.8719E-03     60.0919E-03
            2162     9.44269E-03     16.7252E-03    -25.3474E+06    -90.2990E+06    -1.71967E+06     3.41344E+06    -54.5512E-03     101.986E-03    -47.4352E-03     55.3319E-03    -54.7082E-03     101.738E-03    -47.2761E-03     54.8869E-03
            2163     8.58909E-03     16.6687E-03    -27.9318E+06    -102.971E+06    -3.18500E+06     4.16297E+06    -53.1030E-03     99.9622E-03    -46.8592E-03     49.5343E-03    -53.2029E-03     99.6067E-03    -46.6853E-03     49.1975E-03
            2164     7.73461E-03     16.6175E-03    -30.9559E+06    -114.046E+06    -5.30180E+06     4.94552E+06    -51.6246E-03     97.9215E-03    -46.2970E-03     43.8091E-03    -51.6845E-03     97.4822E-03    -46.1132E-03     43.5646E-03
            2165     6.87880E-03     16.5714E-03    -34.3914E+06    -122.798E+06    -8.56665E+06     5.65199E+06    -50.1900E-03     95.9418E-03    -45.7518E-03     38.2267E-03    -50.2243E-03     95.4430E-03    -45.5667E-03     38.0583E-03
            2166     6.02220E-03     16.5309E-03    -38.1401E+06    -128.811E+06    -14.1724E+06     5.88965E+06    -48.7312E-03     93.9598E-03    -45.2286E-03     32.8344E-03    -48.7492E-03     93.4263E-03    -45.0574E-03     32.7247E-03
            2167     5.16395E-03     16.4957E-03    -42.1732E+06    -133.495E+06    -21.6291E+06     5.48369E+06    -47.3752E-03     92.1210E-03    -44.7457E-03     27.6901E-03    -47.3833E-03     91.5681E-03    -44.5991E-03     27.6199E-03
            2168     4.30515E-03     16.4658E-03    -46.1259E+06    -138.736E+06    -28.9465E+06     5.05993E+06    -46.1876E-03     90.5092E-03    -44.3216E-03     22.7220E-03    -46.1886E-03     89.9379E-03    -44.1983E-03     22.6820E-03
            2169     3.44528E-03     16.4415E-03    -49.8533E+06    -144.672E+06    -37.0010E+06     4.52835E+06    -45.1670E-03     89.1245E-03    -43.9576E-03     17.9889E-03    -45.1606E-03     88.5349E-03    -43.8605E-03     17.9709E-03
            2170     2.58463E-03     16.4224E-03    -53.1732E+06    -150.049E+06     -45.054E+06     3.75008E+06    -44.3740E-03     88.0304E-03    -43.6565E-03     13.3929E-03    -44.3610E-03     87.4266E-03    -43.5871E-03     13.3881E-03
            2171     1.72352E-03     16.4089E-03    -55.9133E+06    -154.265E+06    -52.0229E+06     2.77884E+06    -43.7628E-03     87.1871E-03    -43.4243E-03     9.02312E-03    -43.7451E-03     86.5740E-03    -43.3797E-03     9.02529E-03
            2172     861.682E-06     16.4005E-03    -57.6114E+06    -156.280E+06    -56.6637E+06     1.53754E+06    -43.3749E-03     86.6413E-03    -43.2664E-03     4.93916E-03    -43.3547E-03     86.0261E-03    -43.2396E-03     4.94138E-03
            2173     16.2316E-03     16.1883E-03    -4.62715E+06     120.418E+06     85.4236E+06     289.785E+03    -64.3169E-03     116.604E-03    -52.2875E-03     22.8270E-03    -65.0182E-03     117.469E-03    -52.0283E-03     21.9379E-03
            2174     15.3905E-03     16.1415E-03    -8.86277E+06     120.346E+06     74.4750E+06     87.5793E+03    -62.8549E-03     114.437E-03    -51.5816E-03     49.9773E-03    -63.8315E-03     115.593E-03    -51.3708E-03     48.8032E-03
            2175     14.5428E-03     16.0881E-03    -13.4323E+06     110.630E+06     48.2554E+06     2.01870E+06    -61.4364E-03     112.273E-03    -50.8370E-03     64.0258E-03    -62.4373E-03     113.479E-03    -50.7366E-03     62.8771E-03
            2176     13.6963E-03     16.0130E-03    -16.1996E+06     75.3586E+06     18.8572E+06     2.51757E+06    -60.6555E-03     110.782E-03    -50.1266E-03     74.4412E-03    -61.5889E-03     111.871E-03    -50.1181E-03     73.3004E-03
            2177     12.8480E-03     15.9373E-03    -17.9356E+06     16.1814E+06     2.32477E+06     2.14583E+06    -59.6827E-03     109.191E-03    -49.5083E-03     71.6767E-03    -60.3698E-03     109.865E-03    -49.4941E-03     70.6553E-03
            2178     11.9992E-03     15.8665E-03    -19.7117E+06    -27.2144E+06     1.79529E+06     2.22623E+06    -58.7845E-03     107.714E-03    -48.9295E-03     66.2232E-03    -59.2545E-03     108.012E-03    -48.8525E-03     65.3750E-03
            2179     11.1488E-03     15.7996E-03    -21.3339E+06    -55.3382E+06    -227.843E+03     2.33786E+06    -57.8867E-03     106.177E-03    -48.2904E-03     61.3458E-03    -58.2087E-03     106.228E-03    -48.1803E-03     60.6448E-03
            2180     10.2990E-03     15.7359E-03    -23.0030E+06    -75.7566E+06    -853.848E+03     2.86310E+06    -56.7881E-03     104.403E-03    -47.6146E-03     56.3566E-03    -57.0043E-03     104.271E-03    -47.4756E-03     55.7950E-03
            2181     9.44702E-03     15.6763E-03    -25.1731E+06    -90.7941E+06    -1.85129E+06     3.66688E+06    -55.3424E-03     102.252E-03    -46.9100E-03     50.3684E-03    -55.4817E-03     101.986E-03    -46.7511E-03     49.9363E-03
            2182     8.59451E-03     15.6221E-03    -27.5857E+06    -103.444E+06    -3.14992E+06     4.54462E+06    -53.6989E-03     99.8982E-03    -46.1994E-03     44.1061E-03    -53.7827E-03     99.5262E-03    -46.0251E-03     43.7870E-03
            2183     7.74040E-03     15.5731E-03    -30.5246E+06    -114.228E+06    -5.02985E+06     5.53719E+06    -51.9323E-03     97.4323E-03    -45.5000E-03     38.2990E-03    -51.9791E-03     96.9799E-03    -45.3152E-03     38.0773E-03
            2184     6.88510E-03     15.5292E-03    -33.8996E+06    -122.627E+06    -9.01585E+06     6.13209E+06    -50.1198E-03     94.9415E-03    -44.8218E-03     32.8182E-03    -50.1424E-03     94.4347E-03    -44.6399E-03     32.6724E-03
            2185     6.02798E-03     15.4909E-03    -37.2867E+06    -127.483E+06    -14.4394E+06     6.35500E+06    -48.3696E-03     92.5510E-03    -44.1814E-03     27.7182E-03    -48.3784E-03     92.0168E-03    -44.0147E-03     27.6298E-03
            2186     5.17005E-03     15.4576E-03    -40.7055E+06    -131.660E+06    -21.1666E+06     6.15440E+06    -46.7188E-03     90.3174E-03    -43.5986E-03     23.1357E-03    -46.7184E-03     89.7665E-03    -43.4545E-03     23.0876E-03
            2187     4.31033E-03     15.4296E-03    -44.3474E+06    -136.966E+06    -28.2620E+06     5.65380E+06    -45.2485E-03     88.3437E-03    -43.0952E-03     18.8583E-03    -45.2413E-03     87.7748E-03    -42.9736E-03     18.8375E-03
            2188     3.44961E-03     15.4067E-03    -47.9011E+06    -142.442E+06    -35.7912E+06     5.09125E+06    -44.0513E-03     86.7260E-03    -42.6747E-03     14.8669E-03    -44.0385E-03     86.1412E-03    -42.5777E-03     14.8651E-03
            2189     2.58808E-03     15.3888E-03    -51.1334E+06    -147.303E+06    -43.2956E+06     4.21148E+06    -43.1119E-03     85.4502E-03    -42.3383E-03     11.0580E-03    -43.0944E-03     84.8537E-03    -42.2671E-03     11.0658E-03
            2190     1.72571E-03     15.3762E-03    -53.5966E+06    -150.958E+06    -49.6788E+06     3.05191E+06    -42.4521E-03     84.5382E-03    -42.0860E-03     7.37550E-03    -42.4307E-03     83.9344E-03    -42.0378E-03     7.38551E-03
            2191     863.099E-06     15.3683E-03    -55.1547E+06    -152.707E+06    -54.2502E+06     1.79883E+06    -42.0287E-03     83.9421E-03    -41.9134E-03     3.96883E-03    -42.0048E-03     83.3376E-03    -41.8833E-03     3.97666E-03
            2192     16.2362E-03     15.1210E-03    -4.21848E+06     119.891E+06     85.5122E+06     550.841E+03    -64.6093E-03     116.881E-03    -52.2722E-03     21.2108E-03    -65.2844E-03     117.719E-03    -52.0124E-03     20.3371E-03
            2193     15.3884E-03     15.0795E-03    -9.22756E+06     118.970E+06     74.4583E+06     1.69185E+06    -62.9123E-03     114.470E-03    -51.5575E-03     48.1216E-03    -63.8549E-03     115.586E-03    -51.3443E-03     46.9825E-03
            2194     14.5442E-03     15.0262E-03    -13.7867E+06     109.537E+06     48.4881E+06     1.75080E+06    -62.0684E-03     112.858E-03    -50.7897E-03     61.7829E-03    -63.0412E-03     114.030E-03    -50.6861E-03     60.6261E-03
            2195     13.6973E-03     14.9543E-03    -16.5232E+06     75.4854E+06     18.2178E+06     2.34669E+06    -61.5943E-03     111.611E-03    -50.0171E-03     71.8132E-03    -62.5005E-03     112.674E-03    -50.0115E-03     70.6567E-03
            2196     12.8501E-03     14.8801E-03    -18.4235E+06     16.9646E+06     1.62122E+06     2.41851E+06    -61.1039E-03     110.410E-03    -49.3058E-03     68.1782E-03    -61.7669E-03     111.063E-03    -49.2956E-03     67.1414E-03
            2197     12.0021E-03     14.8111E-03    -19.5604E+06    -27.0836E+06     1.70136E+06     2.00317E+06    -60.3960E-03     108.995E-03    -48.5994E-03     61.7646E-03    -60.8391E-03     109.268E-03    -48.5232E-03     60.9010E-03
            2198     11.1544E-03     14.7459E-03    -20.9977E+06    -55.4431E+06    -248.913E+03     2.38525E+06    -59.5144E-03     107.314E-03    -47.8000E-03     55.8487E-03    -59.8093E-03     107.339E-03    -47.6904E-03     55.1445E-03
            2199     10.3048E-03     14.6842E-03    -22.8730E+06    -76.2284E+06    -930.973E+03     3.13096E+06    -58.2048E-03     105.149E-03    -46.9437E-03     49.9590E-03    -58.3957E-03     104.991E-03    -46.8047E-03     49.4076E-03
            2200     9.45516E-03     14.6272E-03    -24.9039E+06    -91.2443E+06    -1.79034E+06     3.90874E+06    -56.4262E-03     102.475E-03    -46.0492E-03     43.3379E-03    -56.5427E-03     102.185E-03    -45.8897E-03     42.9233E-03
            2201     8.60329E-03     14.5756E-03    -27.3612E+06    -104.059E+06    -3.24788E+06     4.83996E+06    -54.3258E-03     99.4752E-03    -45.1494E-03     36.9637E-03    -54.3904E-03     99.0830E-03    -44.9751E-03     36.6677E-03
            2202     7.75004E-03     14.5294E-03    -30.1464E+06    -114.589E+06    -4.60238E+06     5.93454E+06    -52.0951E-03     96.3693E-03    -44.2742E-03     31.2842E-03    -52.1271E-03     95.9010E-03    -44.0873E-03     31.0882E-03
            2203     6.89457E-03     14.4885E-03    -33.2793E+06    -121.796E+06    -8.71087E+06     6.56783E+06    -49.7963E-03     93.2293E-03    -43.4330E-03     26.2073E-03    -49.8079E-03     92.7158E-03    -43.2517E-03     26.0877E-03
            2204     6.03761E-03     14.4527E-03    -36.4491E+06    -126.235E+06    -14.4592E+06     6.39224E+06    -47.5926E-03     90.2475E-03    -42.6549E-03     21.7882E-03    -47.5924E-03     89.7117E-03    -42.4913E-03     21.7187E-03
            2205     5.17834E-03     14.4219E-03    -39.4528E+06    -130.127E+06    -20.4390E+06     6.26683E+06    -45.5956E-03     87.5609E-03    -41.9653E-03     17.9310E-03    -45.5879E-03     87.0104E-03    -41.8216E-03     17.9001E-03
            2206     4.31779E-03     14.3961E-03    -42.5109E+06    -134.882E+06    -26.9652E+06     6.11890E+06    -43.8699E-03     85.2447E-03    -41.3748E-03     14.4821E-03    -43.8557E-03     84.6788E-03    -41.2524E-03     14.4802E-03
            2207     3.45587E-03     14.3747E-03    -45.7310E+06    -139.925E+06    -34.1238E+06     5.46060E+06    -42.4508E-03     83.3387E-03    -40.8879E-03     11.2937E-03    -42.4316E-03     82.7591E-03    -40.7893E-03     11.3066E-03
            2208     2.59270E-03     14.3585E-03    -48.5643E+06    -144.173E+06    -40.9498E+06     4.46530E+06    -41.3700E-03     81.8774E-03    -40.5074E-03     8.33883E-03    -41.3468E-03     81.2885E-03    -40.4327E-03     8.35721E-03
            2209     1.72893E-03     14.3464E-03    -50.9212E+06    -147.575E+06    -46.9019E+06     3.19721E+06    -40.6348E-03     80.8594E-03    -40.2246E-03     5.53451E-03    -40.6086E-03     80.2642E-03    -40.1713E-03     5.55113E-03
            2210     864.640E-06     14.3395E-03    -52.6708E+06    -148.995E+06    -51.3886E+06     1.79593E+06    -40.2199E-03     80.1858E-03    -39.9659E-03     2.87331E-03    -40.1932E-03     79.5919E-03    -39.9304E-03     2.88363E-03
            2211     16.2307E-03     14.0586E-03    -4.59160E+06     118.605E+06     85.1192E+06     462.256E+03    -65.2568E-03     117.546E-03    -52.2892E-03     19.1217E-03    -65.9133E-03     118.361E-03    -52.0289E-03     18.2386E-03
            2212     15.3899E-03     14.0119E-03    -9.00585E+06     118.716E+06     75.5547E+06     1.38121E+06    -63.9216E-03     115.455E-03    -51.5331E-03     44.8500E-03    -64.8349E-03     116.538E-03    -51.3144E-03     43.6863E-03
            2213     14.5448E-03     13.9668E-03    -13.2675E+06     109.023E+06     49.2906E+06     2.56480E+06    -63.3313E-03     114.023E-03    -50.6917E-03     58.2687E-03    -64.2712E-03     115.160E-03    -50.5841E-03     57.0931E-03
            2214     13.6991E-03     13.8925E-03    -17.1891E+06     75.8045E+06     18.1738E+06     2.52260E+06    -63.5258E-03     113.329E-03    -49.8031E-03     67.8900E-03    -64.4029E-03     114.362E-03    -49.7972E-03     66.6952E-03
            2215     12.8545E-03     13.8219E-03    -18.3958E+06     18.1400E+06     1.91702E+06     1.61423E+06    -63.4916E-03     112.415E-03    -48.9239E-03     62.6796E-03    -64.1209E-03     113.039E-03    -48.9139E-03     61.5953E-03
            2216     12.0093E-03     13.7535E-03    -19.3257E+06    -27.5061E+06     1.50219E+06     1.86250E+06    -62.8199E-03     110.826E-03    -48.0063E-03     55.3098E-03    -63.2267E-03     111.063E-03    -47.9309E-03     54.4242E-03
            2217     11.1629E-03     13.6910E-03    -20.9461E+06    -55.4223E+06    -110.924E+03     2.61522E+06    -61.6001E-03     108.576E-03    -46.9755E-03     48.4061E-03    -61.8629E-03     108.568E-03    -46.8653E-03     47.7029E-03
            2218     10.3164E-03     13.6317E-03    -22.6531E+06    -76.6222E+06    -866.732E+03     3.22507E+06    -59.7582E-03     105.641E-03    -45.8827E-03     41.8965E-03    -59.9194E-03     105.453E-03    -45.7431E-03     41.3587E-03
            2219     9.46736E-03     13.5778E-03    -24.6988E+06    -91.7758E+06    -1.47116E+06     4.12554E+06    -57.3558E-03     102.119E-03    -44.7632E-03     35.2093E-03    -57.4487E-03     101.803E-03    -44.6017E-03     34.8182E-03
            2220     8.61666E-03     13.5300E-03    -27.0598E+06    -104.452E+06    -2.95280E+06     5.05905E+06    -54.6937E-03     98.3458E-03    -43.6521E-03     29.1654E-03    -54.7400E-03     97.9343E-03    -43.4762E-03     28.8957E-03
            2221     7.76330E-03     13.4871E-03    -29.6796E+06    -115.097E+06    -4.15755E+06     6.05995E+06    -51.8547E-03     94.4427E-03    -42.5880E-03     23.9075E-03    -51.8722E-03     93.9586E-03    -42.3988E-03     23.7367E-03
            2222     6.90791E-03     13.4500E-03    -32.4555E+06    -120.655E+06    -7.82138E+06     6.63023E+06    -49.0194E-03     90.6033E-03    -41.5839E-03     19.5608E-03    -49.0216E-03     90.0847E-03    -41.4010E-03     19.4636E-03
            2223     6.04963E-03     13.4174E-03    -35.3150E+06    -124.649E+06    -13.8448E+06     6.33262E+06    -46.4048E-03     87.0707E-03    -40.6660E-03     15.9283E-03    -46.3966E-03     86.5349E-03    -40.5033E-03     15.8765E-03
            2224     5.18963E-03     13.3897E-03    -38.3079E+06    -128.940E+06    -19.6635E+06     6.15232E+06    -44.0745E-03     83.9350E-03    -39.8605E-03     12.7529E-03    -44.0602E-03     83.3839E-03    -39.7163E-03     12.7357E-03
            2225     4.32756E-03     13.3661E-03    -41.2881E+06    -132.887E+06    -25.7759E+06     6.07548E+06    -42.0572E-03     81.2302E-03    -39.1730E-03     10.1204E-03    -42.0394E-03     80.6685E-03    -39.0493E-03     10.1299E-03
            2226     3.46386E-03     13.3472E-03    -43.9756E+06    -137.163E+06    -32.6174E+06     5.41614E+06    -40.4233E-03     79.0299E-03    -38.6066E-03     7.79963E-03    -40.4003E-03     78.4580E-03    -38.5070E-03     7.82124E-03
            2227     2.59908E-03     13.3320E-03    -46.3660E+06    -141.056E+06    -39.0741E+06     4.35602E+06    -39.1754E-03     77.3390E-03    -38.1637E-03     5.71994E-03    -39.1478E-03     76.7590E-03    -38.0873E-03     5.74358E-03
            2228     1.73324E-03     13.3216E-03    -48.2207E+06    -144.133E+06    -44.5196E+06     3.10457E+06    -38.2855E-03     76.1308E-03    -37.8453E-03     3.76337E-03    -38.2540E-03     75.5450E-03    -37.7890E-03     3.78314E-03
            2229     866.695E-06     13.3147E-03    -49.4250E+06    -145.194E+06    -48.3245E+06     1.59614E+06    -37.8255E-03     75.4115E-03    -37.5859E-03     1.93368E-03    -37.7925E-03     74.8272E-03    -37.5454E-03     1.94374E-03
            2230     16.2350E-03     12.9860E-03    -4.42424E+06     118.293E+06     85.2640E+06     522.843E+03    -66.7517E-03     119.042E-03    -52.2906E-03     15.6372E-03    -67.3853E-03     119.833E-03    -52.0293E-03     14.7366E-03
            2231     15.3911E-03     12.9503E-03    -9.42600E+06     117.353E+06     75.2133E+06     1.69338E+06    -65.4443E-03     116.894E-03    -51.4497E-03     41.7610E-03    -66.3282E-03     117.943E-03    -51.2301E-03     40.5649E-03
            2232     14.5473E-03     12.9010E-03    -13.3748E+06     108.355E+06     51.1903E+06     2.31026E+06    -65.8596E-03     116.351E-03    -50.4909E-03     55.3247E-03    -66.7760E-03     117.456E-03    -50.3727E-03     54.0819E-03
            2233     13.7056E-03     12.8314E-03    -14.5318E+06     77.4923E+06     21.1541E+06     2.14477E+06    -66.7945E-03     116.195E-03    -49.4007E-03     63.0569E-03    -67.6290E-03     117.192E-03    -49.3862E-03     61.7863E-03
            2234     12.8626E-03     12.7592E-03    -16.5759E+06     18.7546E+06     2.36810E+06     2.14076E+06    -66.6495E-03     114.911E-03    -48.2618E-03     56.2546E-03    -67.2298E-03     115.493E-03    -48.2532E-03     55.1315E-03
            2235     12.0205E-03     12.6950E-03    -18.9541E+06    -27.2877E+06     1.89517E+06     2.25613E+06    -65.6127E-03     112.688E-03    -47.0758E-03     47.7534E-03    -65.9807E-03     112.887E-03    -46.9993E-03     46.8532E-03
            2236     11.1772E-03     12.6341E-03    -20.5967E+06    -55.5468E+06     266.451E+03     2.65010E+06    -63.6623E-03     109.437E-03    -45.7742E-03     40.4059E-03    -63.8913E-03     109.395E-03    -45.6625E-03     39.7071E-03
            2237     10.3316E-03     12.5791E-03    -22.4688E+06    -76.9968E+06    -428.200E+03     3.43073E+06    -60.9684E-03     105.401E-03    -44.4323E-03     33.7635E-03    -61.1031E-03     105.184E-03    -44.2902E-03     33.2463E-03
            2238     9.48384E-03     12.5295E-03    -24.5420E+06    -92.2135E+06    -854.355E+03     4.13014E+06    -57.8479E-03     100.939E-03    -43.0908E-03     27.4781E-03    -57.9212E-03     100.601E-03    -42.9258E-03     27.1110E-03
            2239     8.63315E-03     12.4856E-03    -26.7830E+06    -104.946E+06    -1.93522E+06     5.21279E+06    -54.5187E-03     96.3045E-03    -41.7858E-03     21.8717E-03    -54.5509E-03     95.8751E-03    -41.6045E-03     21.6290E-03
            2240     7.77993E-03     12.4476E-03    -29.4942E+06    -115.094E+06    -3.89691E+06     6.00189E+06    -51.0829E-03     91.6341E-03    -40.5511E-03     17.3379E-03    -51.0907E-03     91.1401E-03    -40.3610E-03     17.1896E-03
            2241     6.92316E-03     12.4145E-03    -32.1176E+06    -119.642E+06    -7.69326E+06     6.21203E+06    -47.8330E-03     87.2359E-03    -39.4029E-03     13.8063E-03    -47.8291E-03     86.7157E-03    -39.2213E-03     13.7230E-03
            2242     6.06425E-03     12.3859E-03    -34.8358E+06    -123.056E+06    -12.9758E+06     6.18707E+06    -44.8758E-03     83.2380E-03    -38.3622E-03     10.9153E-03    -44.8650E-03     82.7043E-03    -38.1981E-03     10.8773E-03
            2243     5.20262E-03     12.3613E-03    -37.7823E+06    -127.593E+06    -18.6471E+06     5.92545E+06    -42.2218E-03     79.6707E-03    -37.4488E-03     8.58539E-03    -42.2061E-03     79.1218E-03    -37.3023E-03     8.57745E-03
            2244     4.33884E-03     12.3411E-03    -40.3781E+06    -130.951E+06    -24.5886E+06     5.46904E+06    -39.9556E-03     76.6239E-03    -36.6683E-03     6.74362E-03    -39.9364E-03     76.0674E-03    -36.5428E-03     6.75430E-03
            2245     3.47329E-03     12.3240E-03    -42.5884E+06    -134.615E+06    -31.1206E+06     4.79537E+06    -38.1033E-03     74.1277E-03    -36.0244E-03     5.16999E-03    -38.0785E-03     73.5637E-03    -35.9231E-03     5.19018E-03
            2246     2.60618E-03     12.3112E-03    -44.4348E+06    -138.128E+06    -37.3092E+06     3.86133E+06    -36.6725E-03     72.1953E-03    -35.5227E-03     3.80958E-03    -36.6418E-03     71.6241E-03    -35.4446E-03     3.83138E-03
            2247     1.73801E-03     12.3014E-03    -45.8158E+06    -140.813E+06    -42.3969E+06     2.59860E+06    -35.6694E-03     70.8335E-03    -35.1641E-03     2.51937E-03    -35.6337E-03     70.2576E-03    -35.1054E-03     2.53548E-03
            2248     869.283E-06     12.2960E-03    -46.6059E+06    -141.905E+06    -45.7050E+06     1.30418E+06    -35.0921E-03     70.0193E-03    -34.9273E-03     1.24960E-03    -35.0535E-03     69.4436E-03    -34.8825E-03     1.25746E-03
            2249     16.2321E-03     11.9187E-03    -4.83061E+06     116.607E+06     84.5293E+06     770.730E+03    -68.1212E-03     120.384E-03    -52.2631E-03     14.1950E-03    -68.7366E-03     121.151E-03    -52.0025E-03     13.2674E-03
            2250     15.3919E-03     11.8821E-03    -9.31360E+06     116.903E+06     76.6600E+06     1.21706E+06    -68.5650E-03     119.868E-03    -51.3033E-03     38.7590E-03    -69.4262E-03     120.889E-03    -51.0761E-03     37.4767E-03
            2251     14.5525E-03     11.8351E-03    -12.5155E+06     108.361E+06     52.3709E+06     1.16899E+06    -69.7355E-03     119.861E-03    -50.1251E-03     51.7153E-03    -70.6242E-03     120.938E-03    -50.0022E-03     50.3594E-03
            2252     13.7130E-03     11.7634E-03    -16.2700E+06     77.4141E+06     19.4999E+06     1.97653E+06    -70.8023E-03     119.553E-03    -48.7508E-03     57.7176E-03    -71.6053E-03     120.517E-03    -48.7420E-03     56.3599E-03
            2253     12.8758E-03     11.6960E-03    -17.8640E+06     19.9959E+06     1.90141E+06     2.47419E+06    -70.2158E-03     117.529E-03    -47.3128E-03     49.3937E-03    -70.7628E-03     118.078E-03    -47.3064E-03     48.2248E-03
            2254     12.0358E-03     11.6329E-03    -18.7094E+06    -26.7563E+06     2.21637E+06     2.46999E+06    -68.1369E-03     113.973E-03    -45.8363E-03     40.2991E-03    -68.4690E-03     114.138E-03    -45.7593E-03     39.3924E-03
            2255     11.1945E-03     11.5776E-03    -20.4927E+06    -55.4800E+06     667.771E+03     2.98479E+06    -65.1394E-03     109.418E-03    -44.2782E-03     32.8653E-03    -65.3398E-03     109.347E-03    -44.1647E-03     32.1847E-03
            2256     10.3501E-03     11.5270E-03    -22.3634E+06    -77.1910E+06     207.800E+03     3.50821E+06    -61.5899E-03     104.307E-03    -42.7174E-03     26.6809E-03    -61.7039E-03     104.068E-03    -42.5720E-03     26.1879E-03
            2257     9.50260E-03     11.4826E-03    -24.4362E+06    -92.3529E+06     242.364E+03     4.26526E+06    -57.7160E-03     98.9089E-03    -41.1928E-03     20.9438E-03    -57.7757E-03     98.5539E-03    -41.0223E-03     20.6041E-03
            2258     8.65184E-03     11.4440E-03    -26.9600E+06    -105.645E+06    -756.505E+03     5.13672E+06    -53.6601E-03     93.4039E-03    -39.7438E-03     16.1724E-03    -53.6843E-03     92.9600E-03    -39.5553E-03     15.9537E-03
            2259     7.79711E-03     11.4113E-03    -29.4455E+06    -114.438E+06    -2.64691E+06     5.81657E+06    -49.8361E-03     88.2290E-03    -38.3929E-03     12.5576E-03    -49.8406E-03     87.7307E-03    -38.1975E-03     12.4271E-03
            2260     6.93979E-03     11.3827E-03    -32.1939E+06    -118.511E+06    -6.99040E+06     5.71184E+06    -46.2892E-03     83.4327E-03    -37.1435E-03     9.88124E-03    -46.2850E-03     82.9139E-03    -36.9600E-03     9.80682E-03
            2261     6.07907E-03     11.3583E-03    -34.9771E+06    -122.147E+06    -11.9990E+06     5.58851E+06    -43.0114E-03     79.0362E-03    -36.0248E-03     7.83683E-03    -43.0022E-03     78.5040E-03    -35.8570E-03     7.80273E-03
            2262     5.21570E-03     11.3379E-03    -37.4766E+06    -125.752E+06    -17.2997E+06     5.25502E+06    -40.1718E-03     75.2198E-03    -35.0481E-03     6.29733E-03    -40.1582E-03     74.6768E-03    -34.8979E-03     6.28892E-03
            2263     4.35008E-03     11.3204E-03    -39.9644E+06    -128.946E+06    -23.5146E+06     4.46315E+06    -37.7684E-03     71.9783E-03    -34.2099E-03     5.05831E-03    -37.7511E-03     71.4293E-03    -34.0826E-03     5.06165E-03
            2264     3.48242E-03     11.3065E-03    -42.0389E+06    -132.420E+06    -30.0654E+06     3.70889E+06    -35.7806E-03     69.2968E-03    -33.5162E-03     4.01060E-03    -35.7576E-03     68.7413E-03    -33.4136E-03     4.02051E-03
            2265     2.61321E-03     11.2952E-03    -43.5828E+06    -135.544E+06    -35.9807E+06     2.78630E+06    -34.2421E-03     67.2148E-03    -32.9727E-03     3.00532E-03    -34.2127E-03     66.6534E-03    -32.8928E-03     3.01565E-03
            2266     1.74284E-03     11.2874E-03    -44.7003E+06    -138.142E+06    -41.0284E+06     1.79605E+06    -33.1404E-03     65.7211E-03    -32.5807E-03     2.02060E-03    -33.1048E-03     65.1550E-03    -32.5207E-03     2.02784E-03
            2267     871.503E-06     11.2822E-03    -45.3998E+06    -139.531E+06    -44.3102E+06     764.897E+03    -32.5063E-03     64.8266E-03    -32.3202E-03     1.05877E-03    -32.4671E-03     64.2590E-03    -32.2736E-03     1.06036E-03
            2268     16.2335E-03     10.8460E-03    -4.13897E+06     116.831E+06     85.6268E+06     749.600E+03    -71.3710E-03     123.531E-03    -52.1600E-03     10.9463E-03    -71.9709E-03     124.283E-03    -51.8953E-03     9.94986E-03
            2269     15.3971E-03     10.8104E-03    -8.75397E+06     116.711E+06     76.8372E+06    -319.490E+03    -72.4459E-03     123.438E-03    -50.9922E-03     34.1934E-03    -73.2837E-03     124.436E-03    -50.7646E-03     32.7747E-03
            2270     14.5608E-03     10.7644E-03    -13.1959E+06     106.933E+06     51.7162E+06     1.41596E+06    -74.0821E-03     123.634E-03    -49.5520E-03     47.6859E-03    -74.9476E-03     124.683E-03    -49.4293E-03     46.2180E-03
            2271     13.7265E-03     10.6932E-03    -15.7636E+06     77.6269E+06     20.6497E+06     2.27247E+06    -74.8106E-03     122.694E-03    -47.8836E-03     52.1465E-03    -75.5765E-03     123.620E-03    -47.8700E-03     50.7102E-03
            2272     12.8907E-03     10.6284E-03    -17.4960E+06     21.1471E+06     2.74312E+06     1.98479E+06    -73.1967E-03     119.345E-03    -46.1482E-03     42.5459E-03    -73.7051E-03     119.859E-03    -46.1397E-03     41.3383E-03
            2273     12.0543E-03     10.5711E-03    -19.2503E+06    -26.3957E+06     2.52829E+06     2.65495E+06    -69.8548E-03     114.271E-03    -44.4166E-03     33.6300E-03    -70.1587E-03     114.407E-03    -44.3378E-03     32.7331E-03
            2274     11.2134E-03     10.5209E-03    -20.9725E+06    -55.3041E+06     1.39964E+06     3.18807E+06    -65.7690E-03     108.428E-03    -42.6585E-03     26.7598E-03    -65.9500E-03     108.335E-03    -42.5409E-03     26.1064E-03
            2275     10.3694E-03     10.4766E-03    -22.7783E+06    -77.1146E+06     1.25951E+06     3.55067E+06    -61.3812E-03     102.326E-03    -40.9452E-03     21.3919E-03    -61.4837E-03     102.071E-03    -40.7941E-03     20.9278E-03
            2276     9.52152E-03     10.4379E-03    -24.9009E+06    -92.6119E+06     1.69262E+06     4.24860E+06    -56.7005E-03     96.0185E-03    -39.3180E-03     16.5696E-03    -56.7547E-03     95.6513E-03    -39.1392E-03     16.2579E-03
            2277     8.66922E-03     10.4061E-03    -27.3151E+06    -105.768E+06     1.19393E+06     4.98707E+06    -52.1980E-03     90.0070E-03    -37.8091E-03     12.9547E-03    -52.2214E-03     89.5550E-03    -37.6101E-03     12.7568E-03
            2278     7.81361E-03     10.3782E-03    -29.9550E+06    -113.749E+06    -936.684E+03     5.22850E+06    -48.0942E-03     84.5160E-03    -36.4218E-03     10.4564E-03    -48.1023E-03     84.0169E-03    -36.2181E-03     10.3350E-03
            2279     6.95425E-03     10.3550E-03    -32.6358E+06    -117.269E+06    -5.40496E+06     5.02889E+06    -44.3489E-03     79.5077E-03    -35.1588E-03     8.64702E-03    -44.3500E-03     78.9925E-03    -34.9685E-03     8.57554E-03
            2280     6.09182E-03     10.3353E-03    -35.1942E+06    -121.046E+06    -10.6100E+06     4.57131E+06    -41.0324E-03     75.0728E-03    -34.0403E-03     7.37387E-03    -41.0278E-03     74.5443E-03    -33.8668E-03     7.33435E-03
            2281     5.22671E-03     10.3185E-03    -37.5721E+06    -124.000E+06    -15.9820E+06     4.02262E+06    -38.1749E-03     71.2429E-03    -33.0680E-03     6.35483E-03    -38.1664E-03     70.7072E-03    -32.9137E-03     6.33557E-03
            2282     4.35914E-03     10.3046E-03    -39.8426E+06    -127.091E+06    -22.3856E+06     3.22027E+06    -35.7736E-03     68.0106E-03    -32.2370E-03     5.45110E-03    -35.7602E-03     67.4694E-03    -32.1069E-03     5.44151E-03
            2283     3.48970E-03     10.2932E-03    -41.8679E+06    -130.498E+06    -29.0694E+06     2.28094E+06    -33.8300E-03     65.3769E-03    -31.5469E-03     4.55654E-03    -33.8105E-03     64.8297E-03    -31.4423E-03     4.54981E-03
            2284     2.61872E-03     10.2843E-03    -43.5268E+06    -133.645E+06    -35.1152E+06     1.40587E+06    -32.2950E-03     63.2949E-03    -30.9999E-03     3.58106E-03    -32.2693E-03     62.7419E-03    -30.9186E-03     3.57465E-03
            2285     1.74647E-03     10.2778E-03    -44.7502E+06    -136.519E+06    -40.5820E+06     661.586E+03    -31.1858E-03     61.7833E-03    -30.5974E-03     2.49612E-03    -31.1535E-03     61.2249E-03    -30.5375E-03     2.48930E-03
            2286     873.546E-06     10.2738E-03    -45.4578E+06    -138.288E+06    -44.3818E+06     171.915E+03    -30.4743E-03     60.8461E-03    -30.3718E-03     1.35957E-03    -30.4370E-03     60.2851E-03    -30.3273E-03     1.35379E-03
            2287     16.2398E-03     9.76962E-03    -3.70213E+06     116.631E+06     86.3600E+06     419.116E+03    -75.2722E-03     127.225E-03    -51.9531E-03     9.89421E-03    -75.8616E-03     127.965E-03    -51.6851E-03     8.81770E-03
            2288     15.4044E-03     9.73715E-03    -8.45014E+06     115.754E+06     77.4842E+06     1.53696E+06    -76.5507E-03     127.108E-03    -50.5571E-03     33.3560E-03    -77.3732E-03     128.087E-03    -50.3253E-03     31.8594E-03
            2289     14.5717E-03     9.68782E-03    -13.4309E+06     106.122E+06     52.3640E+06     1.31367E+06    -78.4903E-03     127.337E-03    -48.8462E-03     45.8217E-03    -79.3385E-03     128.362E-03    -48.7188E-03     44.2516E-03
            2290     13.7406E-03     9.62012E-03    -16.1868E+06     77.9342E+06     20.7850E+06     1.52174E+06    -78.3322E-03     125.218E-03    -46.8859E-03     47.7546E-03    -79.0666E-03     126.112E-03    -46.8715E-03     46.2528E-03
            2291     12.9085E-03     9.55956E-03    -17.8579E+06     21.8313E+06     2.88030E+06     2.61923E+06    -75.0705E-03     119.977E-03    -44.9061E-03     36.9495E-03    -75.5446E-03     120.458E-03    -44.8974E-03     35.7538E-03
            2292     12.0717E-03     9.50923E-03    -19.8689E+06    -25.9874E+06     3.31252E+06     3.01059E+06    -70.3977E-03     113.403E-03    -43.0053E-03     28.3667E-03    -70.6791E-03     113.513E-03    -42.9223E-03     27.5052E-03
            2293     11.2315E-03     9.46586E-03    -21.7785E+06    -54.8585E+06     2.69878E+06     3.23855E+06    -65.3201E-03     106.460E-03    -41.1402E-03     22.7937E-03    -65.4911E-03     106.352E-03    -41.0156E-03     22.1773E-03
            2294     10.3868E-03     9.42817E-03    -23.7731E+06    -76.8713E+06     2.92384E+06     3.52067E+06    -60.0259E-03     99.4077E-03    -39.3818E-03     18.4673E-03    -60.1264E-03     99.1432E-03    -39.2213E-03     18.0386E-03
            2295     9.53707E-03     9.39720E-03    -26.0241E+06    -92.8797E+06     3.70144E+06     3.89732E+06    -54.7863E-03     92.5548E-03    -37.7685E-03     15.0036E-03    -54.8438E-03     92.1801E-03    -37.5776E-03     14.7169E-03
            2296     8.68334E-03     9.37109E-03    -28.3775E+06    -105.531E+06     3.63879E+06     4.35844E+06    -50.0915E-03     86.4038E-03    -36.3123E-03     12.8721E-03    -50.1228E-03     85.9496E-03    -36.0999E-03     12.6869E-03
            2297     7.82545E-03     9.34940E-03    -30.9510E+06    -112.789E+06     991.225E+03     4.21445E+06    -45.9139E-03     80.9129E-03    -34.9991E-03     11.4007E-03    -45.9313E-03     80.4175E-03    -34.7857E-03     11.2805E-03
            2298     6.96411E-03     9.33117E-03    -33.2701E+06    -116.244E+06    -3.79110E+06     3.68889E+06    -42.2605E-03     76.0898E-03    -33.8293E-03     10.3728E-03    -42.2694E-03     75.5792E-03    -33.6315E-03     10.2934E-03
            2299     6.09991E-03     9.31580E-03    -35.4343E+06    -119.533E+06    -8.91175E+06     3.15548E+06    -39.1624E-03     71.9714E-03    -32.8090E-03     9.58384E-03    -39.1644E-03     71.4493E-03    -32.6289E-03     9.53166E-03
            2300     5.23309E-03     9.30292E-03    -37.7648E+06    -122.498E+06    -14.8098E+06     2.28595E+06    -36.5209E-03     68.4493E-03    -31.9284E-03     8.83947E-03    -36.5179E-03     67.9204E-03    -31.7701E-03     8.80123E-03
            2301     4.36413E-03     9.29213E-03    -39.7615E+06    -125.557E+06    -21.0897E+06     1.39408E+06    -34.3463E-03     65.5295E-03    -31.1831E-03     7.93575E-03    -34.3372E-03     64.9946E-03    -31.0489E-03     7.90463E-03
            2302     3.49346E-03     9.28323E-03    -41.6125E+06    -129.133E+06    -27.8773E+06     601.494E+03    -32.5886E-03     63.1556E-03    -30.5670E-03     6.81969E-03    -32.5717E-03     62.6135E-03    -30.4588E-03     6.79256E-03
            2303     2.62132E-03     9.27642E-03    -43.3646E+06    -132.660E+06    -34.3094E+06    -49.3659E+03    -31.2261E-03     61.3059E-03    -30.0798E-03     5.45418E-03    -31.2023E-03     60.7567E-03    -29.9961E-03     5.42978E-03
            2304     1.74819E-03     9.27132E-03    -44.9951E+06    -136.086E+06    -40.5275E+06    -314.736E+03    -30.2388E-03     59.9587E-03    -29.7199E-03     3.85791E-03    -30.2084E-03     59.4029E-03    -29.6600E-03     3.83897E-03
            2305     874.243E-06     9.26834E-03    -46.1319E+06    -138.286E+06    -44.8529E+06    -279.343E+03    -29.6230E-03     59.1264E-03    -29.5033E-03     2.16520E-03    -29.5883E-03     58.5671E-03    -29.4602E-03     2.15390E-03
            2306     16.2396E-03     8.69069E-03    -3.68356E+06     115.243E+06     86.1508E+06     106.963E+03    -78.9637E-03     130.707E-03    -51.7430E-03     10.9992E-03    -79.5539E-03     131.443E-03    -51.4740E-03     9.82511E-03
            2307     15.4109E-03     8.65693E-03    -9.05396E+06     114.893E+06     78.5553E+06     732.271E+03    -81.3952E-03     131.505E-03    -50.1103E-03     33.2585E-03    -82.2224E-03     132.481E-03    -49.8709E-03     31.6178E-03
            2308     14.5828E-03     8.60883E-03    -12.6213E+06     106.431E+06     54.0495E+06     1.95299E+06    -82.5190E-03     130.638E-03    -48.1192E-03     44.1528E-03    -83.3525E-03     131.649E-03    -47.9849E-03     42.4995E-03
            2309     13.7549E-03     8.54302E-03    -17.1151E+06     77.7964E+06     20.7963E+06     2.33534E+06    -80.6886E-03     126.604E-03    -45.9150E-03     43.6326E-03    -81.3949E-03     127.466E-03    -45.8990E-03     42.1209E-03
            2310     12.9233E-03     8.49139E-03    -20.0397E+06     22.3637E+06     3.42944E+06     2.80648E+06    -75.6146E-03     119.396E-03    -43.7818E-03     32.0053E-03    -76.0672E-03     119.849E-03    -43.7680E-03     30.8460E-03
            2311     12.0874E-03     8.44832E-03    -21.8440E+06    -25.5551E+06     4.39329E+06     3.50994E+06    -69.3587E-03     111.183E-03    -41.8247E-03     25.1756E-03    -69.6304E-03     111.275E-03    -41.7340E-03     24.3767E-03
            2312     11.2457E-03     8.41336E-03    -24.0628E+06    -53.8751E+06     4.70977E+06     3.32378E+06    -63.3320E-03     103.326E-03    -39.9935E-03     21.5300E-03    -63.5087E-03     103.213E-03    -39.8570E-03     20.9651E-03
            2313     10.3987E-03     8.38325E-03    -26.1095E+06    -76.3101E+06     5.25146E+06     2.88078E+06    -57.4523E-03     95.7884E-03    -38.3361E-03     18.7478E-03    -57.5640E-03     95.5221E-03    -38.1613E-03     18.3536E-03
            2314     9.54688E-03     8.36003E-03    -28.0633E+06    -92.9863E+06     6.58311E+06     2.96647E+06    -52.0848E-03     88.9596E-03    -36.8748E-03     17.0324E-03    -52.1560E-03     88.5826E-03    -36.6664E-03     16.7639E-03
            2315     8.69023E-03     8.33993E-03    -30.1405E+06    -104.875E+06     6.14604E+06     2.89447E+06    -47.4965E-03     83.0909E-03    -35.5943E-03     16.1438E-03    -47.5424E-03     82.6401E-03    -35.3678E-03     15.9599E-03
            2316     7.83020E-03     8.32390E-03    -31.9192E+06    -111.704E+06     3.37513E+06     2.24630E+06    -43.6141E-03     78.0883E-03    -34.4742E-03     15.4506E-03    -43.6430E-03     77.5979E-03    -34.2491E-03     15.3182E-03
            2317     6.96698E-03     8.31023E-03    -33.7179E+06    -115.256E+06    -1.58619E+06     1.56921E+06    -40.3701E-03     73.8721E-03    -33.5019E-03     14.9220E-03    -40.3875E-03     73.3654E-03    -33.2939E-03     14.8235E-03
            2318     6.10108E-03     8.29884E-03    -35.5806E+06    -118.372E+06    -7.18398E+06     898.238E+03    -37.6922E-03     70.3662E-03    -32.6740E-03     14.3024E-03    -37.7004E-03     69.8489E-03    -32.4867E-03     14.2265E-03
            2319     5.23307E-03     8.28928E-03    -37.2678E+06    -121.162E+06    -13.1512E+06     63.9017E+03    -35.5499E-03     67.5239E-03    -31.9740E-03     13.4122E-03    -35.5497E-03     66.9995E-03    -31.8100E-03     13.3487E-03
            2320     4.36344E-03     8.28104E-03    -39.2198E+06    -124.696E+06    -19.9617E+06    -733.920E+03    -33.8037E-03     65.1917E-03    -31.3880E-03     12.1193E-03    -33.7952E-03     64.6593E-03    -31.2501E-03     12.0632E-03
            2321     3.49229E-03     8.27460E-03    -41.2284E+06    -128.654E+06    -27.0434E+06    -1.18731E+06    -32.4245E-03     63.3355E-03    -30.9110E-03     10.4041E-03    -32.4080E-03     62.7943E-03    -30.7999E-03     10.3557E-03
            2322     2.62017E-03     8.26914E-03    -43.2291E+06    -132.862E+06    -34.0915E+06    -1.29849E+06    -31.3780E-03     61.9159E-03    -30.5378E-03     8.26099E-03    -31.3538E-03     61.3653E-03    -30.4530E-03     8.22181E-03
            2323     1.74720E-03     8.26563E-03    -45.0979E+06    -136.697E+06    -40.5752E+06    -1.05095E+06    -30.6358E-03     60.9028E-03    -30.2670E-03     5.79433E-03    -30.6050E-03     60.3442E-03    -30.2063E-03     5.76683E-03
            2324     873.719E-06     8.26307E-03    -46.3573E+06    -139.193E+06    -45.0321E+06    -515.687E+03    -30.1732E-03     60.2966E-03    -30.1234E-03     3.29035E-03    -30.1381E-03     59.7333E-03    -30.0796E-03     3.27659E-03
            2325     16.2455E-03     7.60698E-03    -3.83883E+06     115.513E+06     87.2004E+06     508.142E+03    -83.4725E-03     135.002E-03    -51.5293E-03     10.9155E-03    -84.0675E-03     135.740E-03    -51.2552E-03     9.64823E-03
            2326     15.4183E-03     7.57171E-03    -9.93929E+06     113.523E+06     77.4696E+06     119.434E+03    -85.1735E-03     134.828E-03    -49.6542E-03     32.6126E-03    -86.0017E-03     135.799E-03    -49.4170E-03     30.8564E-03
            2327     14.5938E-03     7.52559E-03    -14.6643E+06     104.302E+06     53.5741E+06     1.77646E+06    -85.2516E-03     132.710E-03    -47.4581E-03     42.4642E-03    -86.0777E-03     133.699E-03    -47.3202E-03     40.7552E-03
            2328     13.7667E-03     7.46628E-03    -17.7841E+06     77.6436E+06     23.3120E+06     3.98073E+06    -81.0428E-03     126.175E-03    -45.1322E-03     39.6128E-03    -81.7178E-03     126.997E-03    -45.1025E-03     38.1636E-03
            2329     12.9359E-03     7.42290E-03    -21.9816E+06     22.9655E+06     5.89306E+06     4.88241E+06    -73.6967E-03     116.699E-03    -43.0021E-03     29.1640E-03    -74.1306E-03     117.121E-03    -42.9741E-03     28.1230E-03
            2330     12.0969E-03     7.39201E-03    -25.8732E+06    -23.8967E+06     7.31059E+06     3.91029E+06    -66.3999E-03     107.568E-03    -41.1680E-03     25.5795E-03    -66.6847E-03     107.656E-03    -41.0593E-03     24.8669E-03
            2331     11.2521E-03     7.36339E-03    -27.7014E+06    -52.3621E+06     8.16456E+06     2.25399E+06    -59.6920E-03     99.2347E-03    -39.5427E-03     24.1850E-03    -59.8892E-03     99.1251E-03    -39.3858E-03     23.6730E-03
            2332     10.4020E-03     7.34335E-03    -29.0074E+06    -75.6227E+06     9.11402E+06     1.17900E+06    -53.8412E-03     91.9919E-03    -38.1507E-03     23.3152E-03    -53.9734E-03     91.7271E-03    -37.9534E-03     22.9471E-03
            2333     9.54649E-03     7.32554E-03    -30.1710E+06    -92.6794E+06     11.1043E+06     664.586E+03    -48.9897E-03     85.9669E-03    -36.9772E-03     23.0469E-03    -49.0801E-03     85.5897E-03    -36.7435E-03     22.7797E-03
            2334     8.68787E-03     7.31226E-03    -31.3488E+06    -104.071E+06     9.99770E+06     135.118E+03    -44.9488E-03     80.9283E-03    -35.9795E-03     22.8226E-03    -45.0094E-03     80.4797E-03    -35.7332E-03     22.6233E-03
            2335     7.82537E-03     7.30026E-03    -32.6704E+06    -110.621E+06     5.96715E+06    -779.013E+03    -41.6754E-03     76.8146E-03    -35.1392E-03     22.5378E-03    -41.7151E-03     76.3287E-03    -34.9016E-03     22.3798E-03
            2336     6.96069E-03     7.29083E-03    -33.7959E+06    -114.628E+06     1.08774E+06    -1.58083E+06    -39.1413E-03     73.5841E-03    -34.4429E-03     21.8965E-03    -39.1650E-03     73.0780E-03    -34.2222E-03     21.7663E-03
            2337     6.09381E-03     7.28252E-03    -34.9942E+06    -117.665E+06    -5.49094E+06    -2.16254E+06    -37.1847E-03     71.0460E-03    -33.8613E-03     20.8301E-03    -37.1943E-03     70.5296E-03    -33.6674E-03     20.7208E-03
            2338     5.22564E-03     7.27518E-03    -36.4424E+06    -120.839E+06    -12.2454E+06    -2.63443E+06    -35.6538E-03     69.0378E-03    -33.3841E-03     19.1901E-03    -35.6517E-03     68.5128E-03    -33.2172E-03     19.0962E-03
            2339     4.35610E-03     7.26930E-03    -38.1472E+06    -124.769E+06    -19.2679E+06    -2.81401E+06    -34.4862E-03     67.4821E-03    -32.9960E-03     17.0289E-03    -34.4736E-03     66.9468E-03    -32.8561E-03     16.9492E-03
            2340     3.48591E-03     7.26394E-03    -40.2531E+06    -129.393E+06    -26.8335E+06    -2.65922E+06    -33.5886E-03     66.2731E-03    -32.6845E-03     14.3591E-03    -33.5666E-03     65.7263E-03    -32.5727E-03     14.2943E-03
            2341     2.61493E-03     7.26020E-03    -42.5901E+06    -134.044E+06    -34.0937E+06    -2.09844E+06    -32.9257E-03     65.3724E-03    -32.4467E-03     11.2615E-03    -32.8967E-03     64.8147E-03    -32.3611E-03     11.2139E-03
            2342     1.74352E-03     7.25697E-03    -44.6646E+06    -138.139E+06    -40.5194E+06    -1.42763E+06    -32.4916E-03     64.7659E-03    -32.2744E-03     7.81043E-03    -32.4569E-03     64.1992E-03    -32.2119E-03     7.77935E-03
            2343     871.889E-06     7.25545E-03    -46.1075E+06    -140.705E+06    -44.8654E+06    -611.496E+03    -32.1971E-03     64.3877E-03    -32.1906E-03     4.35109E-03    -32.1591E-03     63.8161E-03    -32.1441E-03     4.33677E-03
            2344     16.2486E-03     6.51665E-03    -4.95826E+06     114.720E+06      87.411E+06     1.19714E+06    -87.0181E-03     138.392E-03    -51.3738E-03     13.9583E-03    -87.6244E-03     139.134E-03    -51.0959E-03     12.6310E-03
            2345     15.4254E-03     6.48664E-03    -10.3461E+06     113.173E+06     78.6063E+06     2.07137E+06    -87.8093E-03     137.139E-03    -49.3301E-03     35.1929E-03    -88.6413E-03     138.109E-03    -49.0861E-03     33.4247E-03
            2346     14.6005E-03     6.43884E-03    -16.7916E+06     101.159E+06     52.1860E+06     3.29962E+06    -85.4932E-03     132.526E-03    -47.0329E-03     42.2420E-03    -86.2976E-03     133.480E-03    -46.8943E-03     40.6022E-03
            2347     13.7754E-03     6.39041E-03    -23.6268E+06     74.8104E+06     22.5508E+06     6.46246E+06    -78.0052E-03     122.784E-03    -44.7792E-03     37.8224E-03    -78.6547E-03     123.552E-03    -44.7407E-03     36.5576E-03
            2348     12.9382E-03     6.36129E-03    -27.8275E+06     26.1195E+06     10.3732E+06     6.72016E+06    -68.8948E-03     111.795E-03    -42.9007E-03     31.3863E-03    -69.3421E-03     112.208E-03    -42.8463E-03     30.5221E-03
            2349     12.0957E-03     6.33705E-03    -29.3399E+06    -19.7312E+06     13.3113E+06     2.65249E+06    -61.3910E-03     102.795E-03    -41.4043E-03     31.1791E-03    -61.6998E-03     102.893E-03    -41.2666E-03     30.5579E-03
            2350     11.2470E-03     6.32050E-03    -30.3743E+06    -50.5618E+06     13.7625E+06    -550.595E+03    -55.1052E-03     95.2612E-03    -40.1561E-03     31.9372E-03    -55.3238E-03     95.1538E-03    -39.9699E-03     31.4647E-03
            2351     10.3919E-03     6.30537E-03    -30.8447E+06    -74.8302E+06     14.9330E+06    -2.06718E+06    -50.0649E-03     89.2175E-03    -39.1525E-03     32.3484E-03    -50.2158E-03     88.9507E-03    -38.9246E-03     31.9885E-03
            2352     9.53435E-03     6.29462E-03    -31.4297E+06    -92.4272E+06     16.8751E+06    -3.13063E+06    -46.1538E-03     84.5099E-03    -38.3562E-03     32.4972E-03    -46.2596E-03     84.1278E-03    -38.0922E-03     32.2139E-03
            2353     8.67273E-03     6.28492E-03    -32.1154E+06    -103.633E+06     14.6520E+06    -4.10036E+06    -43.1646E-03     80.8697E-03    -37.7051E-03     32.3526E-03    -43.2371E-03     80.4181E-03    -37.4350E-03     32.1200E-03
            2354     7.80959E-03     6.27738E-03    -32.3803E+06    -109.808E+06     9.03309E+06    -4.95123E+06    -40.9489E-03     78.1193E-03    -37.1704E-03     31.4285E-03    -40.9931E-03     77.6325E-03    -36.9190E-03     31.2308E-03
            2355     6.94408E-03     6.27016E-03    -32.9382E+06    -114.739E+06     2.63164E+06    -5.64443E+06    -39.3353E-03     76.0759E-03    -36.7405E-03     29.8114E-03    -39.3570E-03     75.5654E-03    -36.5132E-03     29.6385E-03
            2356     6.07808E-03     6.26383E-03    -33.6677E+06    -118.198E+06    -4.59671E+06    -5.83241E+06    -38.1654E-03     74.5540E-03    -36.3887E-03     27.4889E-03    -38.1688E-03     74.0312E-03    -36.1914E-03     27.3391E-03
            2357     5.21077E-03     6.25845E-03    -34.7395E+06    -121.875E+06    -12.0439E+06    -5.46481E+06    -37.2657E-03     73.3697E-03    -36.1041E-03     24.6571E-03    -37.2538E-03     72.8361E-03    -35.9372E-03     24.5318E-03
            2358     4.34317E-03     6.25322E-03    -36.4168E+06    -126.390E+06    -19.5068E+06    -4.61915E+06    -36.6051E-03     72.4838E-03    -35.8788E-03     21.3220E-03    -36.5811E-03     71.9376E-03    -35.7402E-03     21.2228E-03
            2359     3.47489E-03     6.24937E-03    -38.6356E+06    -131.321E+06    -27.1963E+06    -3.45867E+06    -36.1230E-03     71.8245E-03    -35.7015E-03     17.5798E-03    -36.0897E-03     71.2658E-03    -35.5910E-03     17.5073E-03
            2360     2.60639E-03     6.24572E-03    -41.0946E+06    -136.011E+06    -34.1823E+06    -2.31468E+06    -35.7803E-03     71.3497E-03    -35.5694E-03     13.5547E-03    -35.7410E-03     70.7797E-03    -35.4835E-03     13.5062E-03
            2361     1.73773E-03     6.24347E-03    -43.2410E+06    -139.865E+06    -40.0170E+06    -1.24702E+06    -35.5637E-03     71.0410E-03    -35.4773E-03     9.31688E-03    -35.5203E-03     70.4624E-03    -35.4118E-03     9.28928E-03
            2362     868.838E-06     6.24164E-03    -45.0047E+06    -142.282E+06    -43.8425E+06    -505.628E+03    -35.4800E-03     70.8638E-03    -35.3838E-03     5.12862E-03    -35.4359E-03     70.2808E-03    -35.3314E-03     5.11624E-03
            2363     16.2472E-03     5.42609E-03    -6.07304E+06     113.315E+06     86.7712E+06     2.00483E+06    -89.1150E-03     140.555E-03    -51.4396E-03     18.4354E-03    -89.7363E-03     141.305E-03    -51.1612E-03     17.0894E-03
            2364     15.4251E-03     5.39494E-03    -11.8852E+06     111.470E+06     79.4631E+06     3.54951E+06    -88.1033E-03     137.451E-03    -49.3475E-03     38.6419E-03    -88.9348E-03     138.407E-03    -49.0946E-03     36.9434E-03
            2365     14.6038E-03     5.35449E-03    -19.1032E+06     96.3163E+06     53.4771E+06     8.25335E+06    -81.4344E-03     128.607E-03    -47.1722E-03     43.8340E-03    -82.1957E-03     129.489E-03    -47.0167E-03     42.4605E-03
            2366     13.7689E-03     5.32180E-03    -25.6954E+06     74.6325E+06     27.4952E+06     9.98169E+06    -70.9189E-03     116.197E-03    -45.2779E-03     41.2966E-03    -71.5340E-03     116.908E-03    -45.2114E-03     40.3298E-03
            2367     12.9284E-03     5.30348E-03    -29.0925E+06     32.5702E+06     18.5540E+06     5.19314E+06    -61.8285E-03     105.720E-03    -43.8911E-03     40.1867E-03    -62.2825E-03     106.134E-03    -43.8034E-03     39.4842E-03
            2368     12.0787E-03     5.28997E-03    -30.4126E+06    -15.4007E+06     20.4084E+06    -343.059E+03    -55.5313E-03     98.4329E-03    -42.9016E-03     42.8034E-03    -55.8528E-03     98.5339E-03    -42.7332E-03     42.2624E-03
            2369     11.2242E-03     5.27898E-03    -31.2915E+06    -48.2016E+06     20.5462E+06    -4.15535E+06    -50.9771E-03     93.1060E-03    -42.1289E-03     43.8951E-03    -51.2071E-03     92.9953E-03    -41.9109E-03     43.4518E-03
            2370     10.3680E-03     5.27029E-03    -31.8549E+06    -74.2139E+06     20.8459E+06    -6.64319E+06    -47.4187E-03     88.9635E-03    -41.5448E-03     44.1552E-03    -47.5795E-03     88.6879E-03    -41.2868E-03     43.7857E-03
            2371     9.50710E-03     5.26321E-03    -31.8216E+06    -92.1468E+06     21.0759E+06    -8.28634E+06    -44.9018E-03     86.0110E-03    -41.1091E-03     43.3925E-03    -45.0128E-03     85.6206E-03    -40.8240E-03     43.0753E-03
            2372     8.64562E-03     5.25669E-03    -31.3499E+06    -103.250E+06     17.2022E+06    -9.74629E+06    -43.2888E-03     84.0461E-03    -40.7573E-03     41.7390E-03    -43.3590E-03     83.5881E-03    -40.4761E-03     41.4550E-03
            2373     7.78239E-03     5.25082E-03    -31.0118E+06    -110.577E+06     10.2378E+06    -10.4857E+06    -42.2327E-03     82.6919E-03    -40.4593E-03     39.1482E-03    -42.2686E-03     82.1947E-03    -40.2028E-03     38.8932E-03
            2374     6.91940E-03     5.24522E-03    -30.7668E+06    -115.933E+06     2.22873E+06    -10.3188E+06    -41.4498E-03     81.6554E-03    -40.2055E-03     35.9995E-03    -41.4567E-03     81.1340E-03    -39.9817E-03     35.7761E-03
            2375     6.05501E-03     5.24014E-03    -31.1021E+06    -120.614E+06    -5.75464E+06    -9.49482E+06    -40.8520E-03     80.8459E-03    -39.9939E-03     32.2840E-03    -40.8363E-03     80.3070E-03    -39.8027E-03     32.0941E-03
            2376     5.19087E-03     5.23525E-03    -32.1826E+06    -124.929E+06    -13.2296E+06    -7.70167E+06    -40.4162E-03     80.2347E-03    -39.8186E-03     28.2346E-03    -40.3846E-03     79.6825E-03    -39.6569E-03     28.0854E-03
            2377     4.32597E-03     5.23122E-03    -34.1199E+06    -129.689E+06    -20.8423E+06    -5.49322E+06    -40.0563E-03     79.7291E-03    -39.6727E-03     23.8897E-03    -40.0137E-03     79.1639E-03    -39.5394E-03     23.7827E-03
            2378     3.46108E-03     5.22729E-03    -36.5606E+06    -134.242E+06    -27.8781E+06    -3.45116E+06    -39.7864E-03     79.3432E-03    -39.5567E-03     19.3356E-03    -39.7373E-03     78.7671E-03    -39.4484E-03     19.2656E-03
            2379     2.59598E-03     5.22455E-03    -38.9609E+06    -138.319E+06    -33.9976E+06    -1.82197E+06    -39.5888E-03     79.0569E-03    -39.4680E-03     14.6878E-03    -39.5358E-03     78.4716E-03    -39.3810E-03     14.6470E-03
            2380     1.73063E-03     5.22204E-03    -40.8902E+06    -141.477E+06    -38.6747E+06    -751.875E+03    -39.4560E-03     78.8620E-03    -39.4060E-03     9.98467E-03    -39.4005E-03     78.2698E-03    -39.3349E-03     9.96436E-03
            2381     865.388E-06     5.22079E-03    -42.2752E+06    -143.172E+06    -41.6737E+06    -155.321E+03    -39.3982E-03     78.7485E-03    -39.3503E-03     5.45225E-03    -39.3424E-03     78.1539E-03    -39.2898E-03     5.44489E-03
            2382     16.2429E-03     4.33364E-03    -6.06190E+06     110.897E+06     85.3068E+06     4.02138E+06    -88.6199E-03     140.525E-03    -51.9051E-03     25.3532E-03    -89.2399E-03     141.271E-03    -51.6305E-03     24.0954E-03
            2383     15.4208E-03     4.30308E-03    -13.3881E+06     106.123E+06     78.3157E+06     7.79124E+06    -82.4470E-03     132.461E-03    -50.0139E-03     44.9280E-03    -83.2382E-03     133.357E-03    -49.7568E-03     43.5383E-03
            2384     14.5881E-03     4.27918E-03    -19.7227E+06     92.1128E+06     58.9728E+06     10.7053E+06    -71.6938E-03     120.037E-03    -48.3435E-03     51.1141E-03    -72.3983E-03     120.832E-03    -48.1536E-03     50.1160E-03
            2385     13.7482E-03     4.26063E-03    -22.8006E+06     78.8251E+06     36.8858E+06     9.74852E+06    -61.5748E-03     108.663E-03    -47.0881E-03     53.5797E-03    -62.1510E-03     109.334E-03    -46.9849E-03     52.8813E-03
            2386     12.8960E-03     4.25380E-03    -25.3095E+06     39.9559E+06     25.1628E+06     3.98452E+06    -55.2278E-03     101.524E-03    -46.2962E-03     54.8087E-03    -55.6541E-03     101.931E-03    -46.1917E-03     54.2650E-03
            2387     12.0420E-03     4.24467E-03    -28.2057E+06    -10.9360E+06     25.0756E+06    -3.18959E+06    -51.5223E-03     97.3428E-03    -45.8205E-03     56.8163E-03    -51.8258E-03     97.4354E-03    -45.6384E-03     56.3446E-03
            2388     11.1865E-03     4.23854E-03    -29.7092E+06    -45.8344E+06     23.7785E+06    -8.10767E+06    -49.1372E-03     94.6006E-03    -45.4634E-03     55.9652E-03    -49.3510E-03     94.4773E-03    -45.2350E-03     55.5419E-03
            2389     10.3272E-03     4.23321E-03    -30.1800E+06    -73.0221E+06     22.3070E+06    -11.7803E+06    -47.5443E-03     92.7384E-03    -45.1941E-03     54.0025E-03    -47.6888E-03     92.4510E-03    -44.9330E-03     53.6118E-03
            2390     9.46882E-03     4.22797E-03    -29.6954E+06    -91.5345E+06     20.5572E+06    -14.7993E+06    -46.6265E-03     91.6017E-03    -44.9752E-03     51.0546E-03    -46.7184E-03     91.2024E-03    -44.6967E-03     50.6827E-03
            2391     8.60891E-03     4.22281E-03    -28.4251E+06    -104.067E+06     14.5325E+06    -16.2939E+06    -46.0688E-03     90.8298E-03    -44.7610E-03     47.0909E-03    -46.1129E-03     90.3599E-03    -44.4962E-03     46.7424E-03
            2392     7.74951E-03     4.21765E-03    -27.4068E+06    -113.198E+06     6.25411E+06    -16.1357E+06    -45.6173E-03     90.1705E-03    -44.5532E-03     42.7900E-03    -45.6210E-03     89.6553E-03    -44.3180E-03     42.4763E-03
            2393     6.88892E-03     4.21295E-03    -27.1579E+06    -119.713E+06    -1.99881E+06    -14.4719E+06    -45.2735E-03     89.6322E-03    -44.3587E-03     38.2310E-03    -45.2476E-03     89.0891E-03    -44.1557E-03     37.9639E-03
            2394     6.02893E-03     4.20835E-03    -28.1035E+06    -125.287E+06    -10.2026E+06    -11.6374E+06    -44.9328E-03     89.1104E-03    -44.1776E-03     33.5485E-03    -44.8868E-03     88.5478E-03    -44.0062E-03     33.3379E-03
            2395     5.16796E-03     4.20422E-03    -30.1696E+06    -130.017E+06    -17.4310E+06    -8.38843E+06    -44.6103E-03     88.6268E-03    -44.0165E-03     28.7807E-03    -44.5538E-03     88.0506E-03    -43.8714E-03     28.6276E-03
            2396     4.30731E-03     4.20032E-03    -32.4940E+06    -134.141E+06    -23.6313E+06    -5.27331E+06    -44.3252E-03     88.2001E-03    -43.8749E-03     24.0036E-03    -44.2631E-03     87.6134E-03    -43.7514E-03     23.9028E-03
            2397     3.44611E-03     4.19720E-03    -34.6865E+06    -137.642E+06    -28.9548E+06    -2.74125E+06    -44.0609E-03     87.8136E-03    -43.7526E-03     19.2092E-03    -43.9955E-03     87.2188E-03    -43.6475E-03     19.1507E-03
            2398     2.58473E-03     4.19436E-03    -36.6055E+06    -140.386E+06    -33.2896E+06    -1.05474E+06    -43.8436E-03     87.4952E-03    -43.6516E-03     14.4482E-03    -43.7766E-03     86.8949E-03    -43.5614E-03     14.4189E-03
            2399     1.72338E-03     4.19247E-03    -38.0973E+06    -142.605E+06    -36.5747E+06    -184.700E+03    -43.6689E-03     87.2425E-03    -43.5736E-03     9.75809E-03    -43.6007E-03     86.6374E-03    -43.4944E-03     9.74595E-03
            2400     861.667E-06     4.19098E-03    -38.8950E+06    -143.224E+06    -38.6038E+06     139.416E+03    -43.5297E-03     87.0693E-03    -43.5396E-03     5.30955E-03    -43.4613E-03     86.4650E-03    -43.4686E-03     5.30635E-03
            2401     16.2258E-03     3.23814E-03    -5.43998E+06     106.104E+06     82.8209E+06     6.73695E+06    -81.1046E-03     134.315E-03    -53.2100E-03     38.0442E-03    -81.6950E-03     135.026E-03    -52.9419E-03     37.0648E-03
            2402     15.3944E-03     3.22401E-03    -11.2444E+06     102.618E+06     79.5912E+06     10.2564E+06    -70.1878E-03     122.110E-03    -51.9221E-03     59.4960E-03    -70.9180E-03     122.938E-03    -51.6567E-03     58.5372E-03
            2403     14.5518E-03     3.21525E-03    -14.6638E+06     92.3147E+06     65.3324E+06     9.41992E+06    -60.5546E-03     111.574E-03    -51.0197E-03     67.6067E-03    -61.1862E-03     112.295E-03    -50.8056E-03     66.9185E-03
            2404     13.6970E-03     3.20825E-03    -17.6301E+06     81.6455E+06     39.8696E+06     7.98614E+06    -55.3589E-03     105.762E-03    -50.4036E-03     69.8910E-03    -55.8592E-03     106.375E-03    -50.2971E-03     69.3852E-03
            2405     12.8454E-03     3.20300E-03    -20.3134E+06     46.8904E+06     21.8019E+06     3.39792E+06    -53.3350E-03     103.363E-03    -50.0281E-03     67.7908E-03    -53.6950E-03     103.754E-03    -49.9577E-03     67.3741E-03
            2406     11.9910E-03     3.19909E-03    -22.3601E+06    -4.49414E+06     17.4557E+06    -5.01364E+06    -52.0834E-03     101.904E-03    -49.8209E-03     65.3381E-03    -52.3209E-03     101.995E-03    -49.6947E-03     64.9308E-03
            2407     11.1343E-03     3.19298E-03    -23.6375E+06    -43.3224E+06     13.1215E+06    -11.7929E+06    -51.4300E-03     101.070E-03    -49.6403E-03     60.9629E-03    -51.5761E-03     100.939E-03    -49.4776E-03     60.5535E-03
            2408     10.2806E-03     3.18966E-03    -23.6015E+06    -70.7558E+06     8.63994E+06    -16.6369E+06    -51.3381E-03     100.786E-03    -49.4480E-03     55.7670E-03    -51.4145E-03     100.501E-03    -49.2680E-03     55.3551E-03
            2409     9.42473E-03     3.18418E-03    -23.1602E+06    -91.2832E+06     4.89131E+06    -20.1812E+06    -51.0952E-03     100.336E-03    -49.2403E-03     50.7646E-03    -51.1190E-03     99.9369E-03    -49.0499E-03     50.3523E-03
            2410     8.57029E-03     3.18001E-03    -22.9120E+06    -107.062E+06    -379.135E+03    -21.0976E+06    -50.7767E-03     99.7932E-03    -49.0165E-03     45.5055E-03    -50.7580E-03     99.3124E-03    -48.8299E-03     45.1168E-03
            2411     7.71434E-03     3.17555E-03    -23.1763E+06    -118.331E+06    -7.21052E+06    -19.2293E+06    -50.4139E-03     99.1943E-03    -48.7804E-03     40.4688E-03    -50.3632E-03     98.6604E-03    -48.6113E-03     40.1312E-03
            2412     6.85902E-03     3.17133E-03    -24.7078E+06    -126.399E+06    -13.2993E+06    -15.5579E+06    -50.0020E-03     98.5520E-03    -48.5501E-03     35.4148E-03    -49.9335E-03     97.9840E-03    -48.3975E-03     35.1455E-03
            2413     6.00251E-03     3.16745E-03    -26.9197E+06    -131.963E+06    -18.6388E+06    -11.2541E+06    -49.5698E-03     97.8987E-03    -48.3290E-03     30.5823E-03    -49.4930E-03     97.3105E-03    -48.1918E-03     30.3852E-03
            2414     5.14629E-03     3.16388E-03    -29.2519E+06    -135.789E+06    -23.3944E+06    -7.34250E+06    -49.1205E-03     97.2415E-03    -48.1210E-03     25.9171E-03    -49.0406E-03     96.6421E-03    -47.9987E-03     25.7837E-03
            2415     4.28907E-03     3.16067E-03    -31.4820E+06    -138.802E+06    -27.1902E+06    -4.17453E+06    -48.6834E-03     96.6178E-03    -47.9345E-03     21.3832E-03    -48.6031E-03     96.0106E-03    -47.8235E-03     21.3010E-03
            2416     3.43188E-03     3.15786E-03    -33.1868E+06    -140.701E+06    -30.2562E+06    -1.89181E+06    -48.2880E-03     96.0593E-03    -47.7713E-03     16.9975E-03    -48.2081E-03     95.4485E-03    -47.6704E-03     16.9529E-03
            2417     2.57431E-03     3.15569E-03    -34.4307E+06    -142.066E+06    -32.6479E+06    -450.773E+03    -47.9500E-03     95.5856E-03    -47.6356E-03     12.7709E-03    -47.8701E-03     94.9726E-03    -47.5429E-03     12.7515E-03
            2418     1.71629E-03     3.15390E-03    -35.3589E+06    -143.053E+06    -34.3440E+06     226.560E+03    -47.6912E-03     95.2202E-03    -47.5290E-03     8.58592E-03    -47.6117E-03     94.6058E-03    -47.4420E-03     8.58040E-03
            2419     858.251E-06     3.15300E-03    -35.8329E+06    -142.887E+06    -35.5926E+06     298.664E+03    -47.4825E-03     94.9542E-03    -47.4717E-03     4.65148E-03    -47.4036E-03     94.3429E-03    -47.3905E-03     4.65093E-03
            2420     16.1856E-03     2.15801E-03    -5.53457E+06     102.217E+06     82.0994E+06     7.41338E+06    -67.3427E-03     123.430E-03    -56.0873E-03     62.7838E-03    -67.9324E-03     124.130E-03    -55.8170E-03     62.0947E-03
            2421     15.3368E-03     2.15961E-03    -6.34666E+06     102.815E+06     82.7317E+06     8.20398E+06    -60.9377E-03     116.466E-03    -55.5285E-03     81.0508E-03    -61.5969E-03     117.228E-03    -55.2547E-03     80.3593E-03
            2422     14.4826E-03     2.15744E-03    -9.21144E+06     94.2343E+06     67.1962E+06     6.90571E+06    -58.5033E-03     113.609E-03    -55.1061E-03     80.4079E-03    -59.0210E-03     114.232E-03    -54.8934E-03     79.8932E-03
            2423     13.6346E-03     2.15180E-03    -10.5896E+06     83.1125E+06     36.1400E+06     5.79401E+06    -57.8104E-03     112.489E-03    -54.6785E-03     74.4676E-03    -58.1868E-03     113.015E-03    -54.6029E-03     74.0867E-03
            2424     12.7829E-03     2.14668E-03    -10.8652E+06     52.3716E+06     6.86267E+06     2.33494E+06    -57.7963E-03     112.087E-03    -54.2909E-03     66.1960E-03    -58.0336E-03     112.449E-03    -54.3167E-03     65.8808E-03
            2425     11.9338E-03     2.14366E-03    -12.1909E+06     2.90308E+06    -6.88692E+06    -5.03204E+06    -57.7441E-03     111.735E-03    -53.9905E-03     59.3631E-03    -57.8615E-03     111.836E-03    -54.0114E-03     59.0408E-03
            2426     11.0857E-03     2.13900E-03    -13.4862E+06    -39.0590E+06    -14.9666E+06    -12.8847E+06    -57.4770E-03     111.170E-03    -53.6928E-03     52.7958E-03    -57.5072E-03     111.055E-03    -53.6915E-03     52.4343E-03
            2427     10.2351E-03     2.13442E-03    -14.3675E+06    -68.9146E+06    -22.1747E+06    -17.8850E+06    -57.1554E-03     110.524E-03    -53.3690E-03     46.4416E-03    -57.1222E-03     110.258E-03    -53.3591E-03     46.0624E-03
            2428     9.38649E-03     2.13103E-03    -15.7836E+06    -92.3358E+06    -26.4964E+06    -20.0681E+06    -56.6141E-03     109.657E-03    -53.0429E-03     41.0089E-03    -56.5391E-03     109.273E-03    -53.0186E-03     40.6357E-03
            2429     8.53513E-03     2.12716E-03    -18.3220E+06    -111.347E+06    -28.1325E+06    -19.9135E+06    -55.9135E-03     108.644E-03    -52.7300E-03     36.1322E-03    -55.8154E-03     108.165E-03    -52.6827E-03     35.7875E-03
            2430     7.68477E-03     2.12374E-03    -21.5370E+06    -125.708E+06    -28.8492E+06    -17.2203E+06    -55.2585E-03     107.683E-03    -52.4244E-03     31.5628E-03    -55.1506E-03     107.135E-03    -52.3551E-03     31.2730E-03
            2431     6.83267E-03     2.12054E-03    -24.5212E+06    -134.178E+06    -29.0986E+06    -12.8365E+06    -54.5159E-03     106.640E-03    -52.1238E-03     27.3157E-03    -54.4075E-03     106.051E-03    -52.0392E-03     27.0985E-03
            2432     5.98072E-03     2.11759E-03    -27.1771E+06    -138.677E+06    -29.2177E+06    -8.74585E+06    -53.7829E-03     105.620E-03    -51.8372E-03     23.3566E-03    -53.6793E-03     105.011E-03    -51.7428E-03     23.2045E-03
            2433     5.12747E-03     2.11490E-03    -29.3060E+06    -141.263E+06    -29.7594E+06    -5.27890E+06    -53.0827E-03     104.652E-03    -51.5688E-03     19.6591E-03    -52.9839E-03     104.033E-03    -51.4703E-03     19.5616E-03
            2434     4.27426E-03     2.11256E-03    -30.8717E+06    -142.503E+06    -30.5897E+06    -2.63681E+06    -52.4202E-03     103.747E-03    -51.3267E-03     16.1731E-03    -52.3252E-03     103.124E-03    -51.2282E-03     16.1177E-03
            2435     3.42002E-03     2.11056E-03    -32.0057E+06    -143.003E+06    -31.4874E+06    -1.01697E+06    -51.8458E-03     102.964E-03    -51.1186E-03     12.8411E-03    -51.7540E-03     102.342E-03    -51.0223E-03     12.8128E-03
            2436     2.56539E-03     2.10893E-03    -32.6437E+06    -143.211E+06    -32.0996E+06    -61.1467E+03    -51.3801E-03     102.329E-03    -50.9493E-03     9.60562E-03    -51.2899E-03     101.707E-03    -50.8548E-03     9.59449E-03
            2437     1.71055E-03     2.10770E-03    -32.9054E+06    -143.057E+06    -32.5304E+06     328.272E+03    -51.0181E-03     101.841E-03    -50.8227E-03     6.46291E-03    -50.9285E-03     101.220E-03    -50.7302E-03     6.46073E-03
            2438     855.375E-06     2.10692E-03    -33.2385E+06    -142.307E+06    -33.0744E+06     296.008E+03    -50.8076E-03     101.535E-03    -50.7274E-03     3.49495E-03    -50.7198E-03     100.919E-03    -50.6383E-03     3.49535E-03
            2439     16.0972E-03     1.09342E-03    -1.12791E+06     101.963E+06     86.6349E+06     4.99436E+06    -64.8766E-03     125.178E-03    -60.3017E-03     72.9403E-03    -65.3732E-03     125.779E-03    -60.0147E-03     72.4308E-03
            2440     15.2515E-03     1.08876E-03    -2.47315E+06     104.768E+06     84.9995E+06     4.66287E+06    -67.7408E-03     127.571E-03    -59.8300E-03     72.0839E-03    -68.2205E-03     128.162E-03    -59.5534E-03     71.6149E-03
            2441     14.4155E-03     1.08827E-03    -4.48719E+06     96.8038E+06     62.8224E+06     3.03432E+06    -67.8896E-03     127.061E-03    -59.1709E-03     60.4995E-03    -68.2428E-03     127.556E-03    -58.9907E-03     60.1649E-03
            2442     13.5732E-03     1.08116E-03    -4.42777E+06     82.2680E+06     24.6755E+06     2.12881E+06    -66.7938E-03     125.221E-03    -58.4268E-03     50.7375E-03    -67.0307E-03     125.660E-03    -58.4163E-03     50.4928E-03
            2443     12.7341E-03     1.07980E-03    -2.93365E+06     55.0399E+06    -12.5291E+06     1.74675E+06    -65.6191E-03     123.342E-03    -57.7233E-03     41.7249E-03    -65.7303E-03     123.673E-03    -57.8615E-03     41.5514E-03
            2444     11.8915E-03     1.07511E-03    -2.29807E+06     10.6830E+06    -33.8016E+06    -2.97273E+06    -64.6935E-03     121.831E-03    -57.1372E-03     35.5604E-03    -64.6934E-03     121.957E-03    -57.3184E-03     35.3748E-03
            2445     11.0481E-03     1.07348E-03    -3.95539E+06    -34.9015E+06    -45.0975E+06    -8.97480E+06    -63.5429E-03     120.159E-03    -56.6163E-03     30.7071E-03    -63.4608E-03     120.069E-03    -56.7855E-03     30.4824E-03
            2446     10.2047E-03     1.07004E-03    -7.25391E+06    -68.3670E+06    -52.5879E+06    -11.8454E+06    -62.2417E-03     118.364E-03    -56.1225E-03     26.6560E-03    -62.1118E-03     118.118E-03    -56.2758E-03     26.4200E-03
            2447     9.35800E-03     1.06828E-03    -11.8416E+06    -94.3736E+06    -54.8815E+06    -12.5132E+06    -61.0801E-03     116.751E-03    -55.6710E-03     22.9048E-03    -60.9289E-03     116.381E-03    -55.7914E-03     22.6811E-03
            2448     8.51229E-03     1.06606E-03    -16.9977E+06    -115.251E+06    -53.0994E+06    -11.8712E+06    -59.9235E-03     115.180E-03    -55.2561E-03     20.0438E-03    -59.7685E-03     114.709E-03    -55.3298E-03     19.8422E-03
            2449     7.66389E-03     1.06407E-03    -21.6658E+06    -131.995E+06    -48.4184E+06    -10.1274E+06    -58.7803E-03     113.657E-03    -54.8764E-03     17.2689E-03    -58.6298E-03     113.101E-03    -54.8956E-03     17.1015E-03
            2450     6.81567E-03     1.06228E-03    -25.4039E+06    -140.608E+06    -43.0287E+06    -7.38469E+06    -57.7012E-03     112.219E-03    -54.5179E-03     14.8493E-03    -57.5639E-03     111.617E-03    -54.4924E-03     14.7258E-03
            2451     5.96571E-03     1.06070E-03    -28.1373E+06    -143.536E+06    -38.6017E+06    -4.66121E+06    -56.6828E-03     110.862E-03    -54.1791E-03     12.6820E-03    -56.5607E-03     110.242E-03    -54.1232E-03     12.6005E-03
            2452     5.11553E-03     1.05926E-03    -29.9119E+06    -145.184E+06    -35.3718E+06    -2.67043E+06    -55.7557E-03     109.625E-03    -53.8693E-03     10.6615E-03    -55.6443E-03     108.994E-03    -53.7922E-03     10.6111E-03
            2453     4.26391E-03     1.05805E-03    -30.8310E+06    -144.895E+06    -33.4291E+06    -1.21412E+06    -54.9381E-03     108.529E-03    -53.5904E-03     8.74007E-03    -54.8343E-03     107.898E-03    -53.5027E-03     8.71275E-03
            2454     3.41208E-03     1.05700E-03    -31.1802E+06    -144.287E+06    -32.2720E+06    -321.497E+03    -54.2423E-03     107.593E-03    -53.3504E-03     6.93787E-03    -54.1425E-03     106.963E-03    -53.2573E-03     6.92547E-03
            2455     2.55967E-03     1.05608E-03    -31.1876E+06    -143.661E+06    -31.4817E+06     67.6773E+03    -53.6727E-03     106.828E-03    -53.1558E-03     5.17320E-03    -53.5749E-03     106.201E-03    -53.0596E-03     5.16841E-03
            2456     1.70663E-03     1.05552E-03    -31.1183E+06    -142.988E+06    -31.1154E+06     185.386E+03    -53.2406E-03     106.253E-03    -53.0128E-03     3.45611E-03    -53.1439E-03     105.629E-03    -52.9159E-03     3.45491E-03
            2457     853.275E-06     1.05509E-03    -31.1107E+06    -141.718E+06    -31.0271E+06     187.310E+03    -53.0196E-03     105.907E-03    -52.8875E-03     1.86481E-03    -52.9247E-03     105.288E-03    -52.7920E-03     1.86531E-03


