********************************************************************************
Field Output Report, written Mon Aug 12 22:10:42 2024

Source 1
---------

   ODB: G:/Abaqus_calc_2019/1740/Vel_40/odb/zeides_2a_40_red_150_cal_30_vel_40_fric_025.odb
   Step: Step-1
   Frame: Increment   1597138: Step Time =   0.2087

Loc 1 : Nodal values from source 1

Output sorted by column "Nodal Label".

Field Output reported at nodes for region: DIE_2A_40_D0_36-1.Region_1
   Computation algorithm: EXTRAPOLATE_COMPUTE_AVERAGE
   Averaged at nodes
   Averaging regions: ODB_REGIONS

      Node Label     COORD.COOR1     COORD.COOR2
                          @Loc 1          @Loc 1
-------------------------------------------------
               1     23.7940E-03     112.142E-03


Field Output reported at nodes for region: DIE_2A_40_D0_36-1.Region_2
   Computation algorithm: EXTRAPOLATE_COMPUTE_AVERAGE
   Averaged at nodes
   Averaging regions: ODB_REGIONS

      Node Label     COORD.COOR1     COORD.COOR2
                          @Loc 1          @Loc 1
-------------------------------------------------
               1     23.7940E-03     112.142E-03


Field Output reported at nodes for part: WIRE-1
   Computation algorithm: EXTRAPOLATE_COMPUTE_AVERAGE
   Averaged at nodes
   Averaging regions: ODB_REGIONS

      Node Label     COORD.COOR1     COORD.COOR2           S.S11           S.S22           S.S33           S.S12         PE.PE11         PE.PE22         PE.PE33         PE.PE12         LE.LE11         LE.LE22         LE.LE33         LE.LE12
                          @Loc 1          @Loc 1          @Loc 1          @Loc 1          @Loc 1          @Loc 1          @Loc 1          @Loc 1          @Loc 1          @Loc 1          @Loc 1          @Loc 1          @Loc 1          @Loc 1
-------------------------------------------------------------------------------------------------------------------------------------------------------------------------------------------------------------------------------------------------
               1     181.770E-09     56.3957E-03    -16.0710E+06    -73.1374E+06    -16.1060E+06     193.822E+03    -15.8551E-03     31.8389E-03    -15.9838E-03     2.14437E-03    -15.8060E-03     31.5202E-03    -15.9350E-03     2.14653E-03
               2     17.7181E-03     57.5203E-03    -2.71042E+06     195.805E+06     113.285E+06     157.454E+03    -29.5802E-03     45.6051E-03    -16.0249E-03     309.132E-03    -42.0450E-03     58.4268E-03    -15.7385E-03     319.707E-03
               3     17.5072E-03     114.177E-03    -7.02050E+06    -11.1299E+06     7.43227E+06     8.20761E+06     11.9182E-03     12.2742E-03    -24.1924E-03     4.32170E-03     11.8838E-03     12.2132E-03    -24.1289E-03     4.42753E-03
               4     1.17937E-06     113.047E-03     24.1614E+06     3.09926E+06     25.7606E+06    -694.646E+03    -19.5002E-03     38.4752E-03    -18.9750E-03    -501.874E-06    -19.4212E-03     38.4186E-03    -18.8857E-03    -510.859E-06
               5     262.687E-09     97.1445E-18     1.19221E+06    -39.1897E+06     1.34330E+06    -416.085E+03    -12.4821E-03     24.9012E-03    -12.4191E-03     403.815E-06    -12.4203E-03     24.7021E-03    -12.3572E-03     398.803E-06
               6     17.6472E-03     97.1445E-18     4.48052E+06     91.5468E+06     81.6563E+06     4.85001E+06    -55.5237E-03     73.3228E-03    -17.7991E-03     50.6970E-03    -55.9030E-03     73.8067E-03    -17.5301E-03     50.3973E-03
               7     885.703E-06     56.3972E-03    -15.9069E+06    -72.9289E+06    -15.4706E+06     89.5889E+03    -15.8887E-03     31.8423E-03    -15.9536E-03     3.46395E-03    -15.8401E-03     31.5234E-03    -15.9021E-03     3.46455E-03
               8     1.77178E-03     56.4020E-03    -15.3069E+06    -72.0973E+06    -13.7018E+06     99.5175E+03    -15.9148E-03     31.8397E-03    -15.9249E-03     6.33387E-03    -15.8670E-03     31.5214E-03    -15.8667E-03     6.33412E-03
               9     2.65742E-03     56.4092E-03    -14.3705E+06    -70.5638E+06    -11.1714E+06     242.317E+03    -15.9199E-03     31.8492E-03    -15.9293E-03     9.48547E-03    -15.8735E-03     31.5336E-03    -15.8620E-03     9.48703E-03
              10     3.54343E-03     56.4197E-03    -13.2486E+06    -68.9065E+06    -8.52525E+06     286.732E+03    -15.9321E-03     31.8667E-03    -15.9346E-03     12.7522E-03    -15.8864E-03     31.5541E-03    -15.8581E-03     12.7537E-03
              11     4.42912E-03     56.4330E-03    -12.0139E+06    -67.4394E+06    -6.15594E+06     491.629E+03    -15.9433E-03     31.8816E-03    -15.9383E-03     16.1433E-03    -15.8972E-03     31.5713E-03    -15.8538E-03     16.1468E-03
              12     5.31520E-03     56.4497E-03    -10.7817E+06    -66.1632E+06    -3.95330E+06     630.106E+03    -15.9726E-03     31.9138E-03    -15.9411E-03     19.6692E-03    -15.9257E-03     31.6052E-03    -15.8493E-03     19.6737E-03
              13     6.20083E-03     56.4696E-03     -9.5811E+06    -65.2535E+06    -1.96558E+06     804.572E+03    -16.0034E-03     31.9471E-03    -15.9438E-03     23.3149E-03    -15.9551E-03     31.6389E-03    -15.8451E-03     23.3207E-03
              14     7.08701E-03     56.4931E-03    -8.59850E+06    -64.9085E+06    -633.077E+03     789.928E+03    -16.0519E-03     31.9963E-03    -15.9444E-03     27.1378E-03    -16.0019E-03     31.6871E-03    -15.8410E-03     27.1423E-03
              15     7.97253E-03     56.5201E-03    -7.95336E+06    -64.8184E+06     183.667E+03     695.528E+03    -16.1104E-03     32.0543E-03    -15.9439E-03     31.1382E-03    -16.0594E-03     31.7444E-03    -15.8374E-03     31.1398E-03
              16     8.85888E-03     56.5510E-03    -7.03131E+06    -64.5779E+06     1.68679E+06     856.744E+03    -16.2105E-03     32.1587E-03    -15.9482E-03     35.2002E-03    -16.1590E-03     31.8481E-03    -15.8359E-03     35.2016E-03
              17     9.74411E-03     56.5856E-03    -6.41919E+06    -65.2444E+06     1.18202E+06     672.890E+03    -16.2678E-03     32.2126E-03    -15.9448E-03     39.4155E-03    -16.2140E-03     31.9009E-03    -15.8350E-03     39.4114E-03
              18     10.6307E-03     56.6243E-03    -6.02419E+06    -60.4488E+06    -1.77903E+06     659.868E+03    -16.2685E-03     32.1855E-03    -15.9170E-03     43.7778E-03    -16.2191E-03     31.9052E-03    -15.8295E-03     43.7697E-03
              19     11.5161E-03     56.6669E-03    -5.93972E+06    -48.0633E+06    -826.583E+03     668.712E+03    -16.3985E-03     32.2959E-03    -15.8974E-03     48.1285E-03    -16.3741E-03     32.0822E-03    -15.8232E-03     48.1151E-03
              20     12.4026E-03     56.7138E-03    -5.82424E+06    -38.2395E+06     18.2845E+03     390.194E+03    -16.6215E-03     32.5079E-03    -15.8863E-03     54.6020E-03    -16.6238E-03     32.3536E-03    -15.8223E-03     54.5777E-03
              21     13.2873E-03     56.7678E-03    -4.88381E+06    -34.2611E+06    -6.63327E+06     394.776E+03    -16.5143E-03     32.3573E-03    -15.8430E-03     56.3399E-03    -16.5231E-03     32.2464E-03    -15.8194E-03     56.3081E-03
              22     14.1753E-03     56.8190E-03    -4.65264E+06    -17.6998E+06    -10.5487E+06     867.558E+03    -16.2069E-03     31.9859E-03    -15.7790E-03     61.2731E-03    -16.2640E-03     31.9943E-03    -15.7994E-03     61.2433E-03
              23     15.0591E-03     56.8829E-03    -4.43145E+06     23.1284E+06    -12.2041E+06     185.477E+03    -17.5502E-03     33.2287E-03    -15.6785E-03     97.3333E-03    -17.8621E-03     33.6423E-03    -15.7666E-03     97.3129E-03
              24     15.9489E-03     56.9982E-03    -4.94451E+06     88.7185E+06    -9.05720E+06     641.150E+03    -22.6590E-03     38.2406E-03    -15.5816E-03     179.457E-03    -24.9038E-03     40.8091E-03    -15.7484E-03     180.157E-03
              25     16.8326E-03     57.2210E-03    -4.30329E+06     162.455E+06     55.1582E+06     1.15195E+06    -27.9589E-03     43.7480E-03    -15.7891E-03     271.078E-03    -36.1776E-03     52.3682E-03    -15.7426E-03     277.074E-03
              26     17.7211E-03     58.5016E-03    -2.64571E+06     195.996E+06     112.945E+06     432.099E+03    -29.8412E-03     45.8369E-03    -15.9957E-03     312.141E-03    -42.3384E-03     58.6929E-03    -15.7113E-03     322.600E-03
              27     17.7185E-03     59.4834E-03    -2.96715E+06     197.075E+06     116.959E+06    -22.1858E+03    -30.9597E-03     46.9698E-03    -16.0100E-03     308.946E-03    -43.3830E-03     59.7428E-03    -15.7067E-03     319.367E-03
              28     17.7183E-03     60.4520E-03    -2.44240E+06     198.110E+06     114.783E+06     521.409E+03    -29.6534E-03     45.6897E-03    -16.0363E-03     304.571E-03    -41.9849E-03     58.3827E-03    -15.7461E-03     315.201E-03
              29     17.7199E-03     61.4432E-03    -4.37619E+06     197.902E+06     113.645E+06     825.341E+03    -31.3793E-03     47.4057E-03    -16.0264E-03     319.202E-03    -44.4274E-03     60.8114E-03    -15.7388E-03     329.812E-03
              30     17.7177E-03     62.4339E-03    -1.01079E+06     202.082E+06     117.048E+06     1.75530E+06    -30.2604E-03     46.3368E-03    -16.0764E-03     324.840E-03    -43.5905E-03     60.0425E-03    -15.7828E-03     335.625E-03
              31     17.7205E-03     63.3919E-03    -2.27989E+06     200.730E+06     114.914E+06      300.05E+03    -25.9819E-03     42.1202E-03    -16.1383E-03     314.983E-03    -38.7156E-03     55.2270E-03    -15.8515E-03     326.121E-03
              32     17.7176E-03     64.3614E-03    -4.05171E+06     199.465E+06     114.837E+06    -608.999E+03    -28.9832E-03     45.0305E-03    -16.0473E-03     305.938E-03    -41.1714E-03     57.5804E-03    -15.7565E-03     316.492E-03
              33     17.7202E-03     65.3514E-03    -4.20162E+06     200.500E+06     115.195E+06    -90.1939E+03    -32.4393E-03     48.4145E-03    -15.9752E-03     309.638E-03    -44.8590E-03     61.1974E-03    -15.6839E-03     319.854E-03
              34     17.7178E-03     66.3379E-03    -1.07392E+06     204.543E+06     116.998E+06     2.13027E+06    -30.0866E-03     46.1379E-03    -16.0513E-03     318.727E-03    -43.0154E-03     59.4504E-03    -15.7613E-03     329.423E-03
              35     17.7206E-03     67.3118E-03    -909.301E+03     204.811E+06     116.868E+06     464.743E+03    -26.0692E-03     42.2063E-03    -16.1372E-03     313.723E-03    -38.6810E-03     55.2044E-03    -15.8485E-03     324.724E-03
              36     17.7173E-03     68.2669E-03    -5.68897E+06     200.414E+06     114.220E+06    -2.10767E+06    -29.1892E-03     45.2294E-03    -16.0402E-03     301.583E-03    -41.1339E-03     57.5351E-03    -15.7515E-03     311.988E-03
              37     17.7199E-03     69.2613E-03    -4.56967E+06     202.561E+06     115.560E+06     84.9784E+03    -35.2923E-03     51.1945E-03    -15.9021E-03     306.188E-03    -47.5786E-03     63.8492E-03    -15.6114E-03     316.057E-03
              38     17.7179E-03     70.2654E-03    -1.05202E+06     207.254E+06     116.370E+06     1.95613E+06    -30.6331E-03     46.6646E-03    -16.0315E-03     320.252E-03    -43.7936E-03     60.2215E-03    -15.7486E-03     331.017E-03
              39     17.7206E-03     71.2224E-03    -3.01847E+06     205.634E+06     114.254E+06    -221.002E+03    -26.9863E-03     43.1055E-03    -16.1192E-03     323.248E-03    -40.2738E-03     56.7838E-03    -15.8417E-03     334.563E-03
              40     17.7177E-03     72.1976E-03    -3.56887E+06     205.037E+06     113.430E+06    -443.941E+03    -31.3841E-03     47.3592E-03    -15.9751E-03     318.997E-03    -44.4293E-03     60.7931E-03    -15.7000E-03     329.669E-03
              41     17.7220E-03     73.1946E-03    -1.66008E+06     207.791E+06     115.386E+06     1.35064E+06    -31.4484E-03     47.4251E-03    -15.9766E-03     323.594E-03    -44.7715E-03     61.1466E-03    -15.6986E-03     334.323E-03
              42     17.7174E-03     74.1608E-03    -916.994E+03     208.552E+06     112.245E+06     1.66118E+06    -28.2962E-03     44.3160E-03    -16.0197E-03     319.328E-03    -41.4871E-03     57.9192E-03    -15.7596E-03     330.516E-03
              43     17.7226E-03     75.1255E-03    -2.53531E+06     206.866E+06     110.122E+06     -1.9087E+06    -29.6163E-03     45.5623E-03    -15.9460E-03     312.585E-03    -42.5196E-03     58.8726E-03    -15.6917E-03     323.502E-03
              44     17.7175E-03     76.1263E-03    -3.89265E+06     206.776E+06     115.203E+06    -553.224E+03    -35.5661E-03     51.4545E-03    -15.8884E-03     324.152E-03    -49.1779E-03     65.4533E-03    -15.6066E-03     334.595E-03
              45     17.7204E-03     77.1109E-03    -259.296E+03     210.926E+06     117.825E+06     2.60852E+06    -34.3362E-03     50.2811E-03    -15.9449E-03     325.575E-03    -48.1158E-03     64.4671E-03    -15.6612E-03     336.361E-03
              46     17.7184E-03     78.0788E-03    -4.01527E+06     207.741E+06     115.632E+06    -737.638E+03    -29.9582E-03     46.0210E-03    -16.0628E-03     322.872E-03    -43.5917E-03     60.0424E-03    -15.7801E-03     334.294E-03
              47     17.7184E-03     79.0640E-03    -5.33835E+06     207.096E+06     114.628E+06     995.306E+03    -30.4087E-03     46.4860E-03    -16.0773E-03     325.445E-03    -44.2200E-03     60.6811E-03    -15.7967E-03     336.819E-03
              48     17.7189E-03     80.0386E-03    -3.64695E+06     209.070E+06     113.702E+06     365.920E+03    -31.9587E-03     47.9760E-03    -16.0173E-03     330.290E-03    -45.9311E-03     62.3479E-03    -15.7466E-03     341.439E-03
              49     17.7198E-03     81.0274E-03    -3.23048E+06     209.710E+06     113.778E+06    -282.676E+03    -30.9841E-03     47.0108E-03    -16.0267E-03     332.719E-03    -45.0218E-03     61.4516E-03    -15.7572E-03     343.991E-03
              50     17.7191E-03     81.9966E-03    -2.10763E+06     210.467E+06     112.963E+06     77.3596E+03    -27.2185E-03     43.3052E-03    -16.0867E-03     327.421E-03    -40.8659E-03     57.3651E-03    -15.8240E-03     338.927E-03
              51     17.7205E-03     82.9582E-03    -3.67459E+06     208.426E+06     112.816E+06    -812.892E+03    -29.1224E-03     45.1442E-03    -16.0218E-03     317.288E-03    -42.0855E-03     58.5077E-03    -15.7546E-03     328.240E-03
              52     17.7178E-03     83.9445E-03    -2.70904E+06     209.384E+06     114.764E+06     727.411E+03    -34.7045E-03     50.6105E-03    -15.9060E-03     317.431E-03    -47.7805E-03     64.0881E-03    -15.6319E-03     327.790E-03
              53     17.7205E-03     84.9404E-03    -2.09247E+06     210.866E+06     113.930E+06     817.474E+03    -33.2231E-03     49.1771E-03    -15.9539E-03     328.927E-03    -47.0770E-03     63.4420E-03    -15.6870E-03     339.752E-03
              54     17.7190E-03     85.9159E-03    -3.96640E+06     209.676E+06     113.743E+06    -759.798E+03    -31.5933E-03     47.6031E-03    -16.0098E-03     336.323E-03    -45.8646E-03     62.2749E-03    -15.7394E-03     347.563E-03
              55     17.7202E-03     86.8886E-03    -2.75833E+06     210.629E+06     113.935E+06     144.512E+03    -32.2415E-03     48.2048E-03    -15.9633E-03     330.320E-03    -46.1991E-03     62.5700E-03    -15.6950E-03     341.449E-03
              56     17.7199E-03     87.8724E-03    -2.65039E+06     210.503E+06     112.583E+06     142.859E+03    -30.7496E-03     46.7238E-03    -15.9741E-03     329.456E-03    -44.6495E-03     61.0352E-03    -15.7126E-03     340.743E-03
              57     17.7205E-03     88.8452E-03    -3.26329E+06     209.823E+06     111.876E+06    -242.437E+03    -31.0109E-03     46.9749E-03    -15.9640E-03     333.543E-03    -45.1051E-03     61.4780E-03    -15.7041E-03     344.806E-03
              58     17.7206E-03     89.8293E-03    -2.54818E+06     209.943E+06     110.851E+06     273.212E+03    -31.4637E-03     47.3826E-03    -15.9189E-03     333.048E-03    -45.5055E-03     61.8391E-03    -15.6654E-03     344.198E-03
              59     17.7215E-03     90.8012E-03    -2.97304E+06     210.610E+06     111.481E+06     354.783E+03    -32.0005E-03     47.8891E-03    -15.8886E-03     333.133E-03    -46.0320E-03     62.3345E-03    -15.6322E-03     344.240E-03
              60     17.7210E-03     91.7846E-03    -2.36920E+06     211.769E+06     112.074E+06     662.910E+03    -31.9865E-03     47.8518E-03    -15.8653E-03     331.929E-03    -45.9164E-03     62.2002E-03    -15.6086E-03     342.932E-03
              61     17.7225E-03     92.7598E-03    -2.52447E+06     212.181E+06     113.274E+06    -353.418E+03    -31.6949E-03     47.5467E-03    -15.8519E-03     330.204E-03    -45.5242E-03     61.7921E-03    -15.5895E-03     341.195E-03
              62     17.7214E-03     93.7338E-03    -2.84865E+06     211.275E+06     114.532E+06    -268.184E+03    -33.6663E-03     49.4530E-03    -15.7868E-03     327.520E-03    -47.3947E-03     63.5895E-03    -15.5163E-03     338.314E-03
              63     17.7232E-03     94.7245E-03    -3.95399E+06     210.367E+06     112.913E+06     619.627E+03    -33.4579E-03     49.2227E-03    -15.7648E-03     329.675E-03    -47.2983E-03     63.4686E-03    -15.4996E-03     340.487E-03
              64     17.7228E-03     95.6995E-03    -2.63137E+06     210.632E+06     113.468E+06    -187.916E+03    -31.9890E-03     47.7577E-03    -15.7688E-03     330.454E-03    -45.8067E-03     61.9848E-03    -15.5030E-03     341.399E-03
              65     17.7243E-03     96.6724E-03    -3.42615E+06     208.944E+06     113.074E+06    -953.865E+03    -32.5466E-03     48.2494E-03    -15.7029E-03     324.355E-03    -46.0242E-03     62.1287E-03    -15.4355E-03     335.127E-03
              66     17.7240E-03     97.6567E-03    -2.82189E+06     207.570E+06     112.265E+06    -288.753E+03    -33.4254E-03     49.0696E-03    -15.6441E-03     324.971E-03    -46.9817E-03     63.0271E-03    -15.3797E-03     335.675E-03
              67     17.7255E-03     98.6400E-03    -3.80369E+06     205.882E+06     112.668E+06    -1.44850E+06    -34.6677E-03     50.2739E-03    -15.6063E-03     331.297E-03    -48.6017E-03     64.5987E-03    -15.3359E-03     341.918E-03
              68     17.7250E-03     99.6241E-03    -1.20049E+06     204.840E+06     112.483E+06    -641.471E+03    -35.1836E-03     50.7349E-03    -15.5513E-03     332.606E-03    -49.1489E-03     65.0969E-03    -15.2842E-03     343.165E-03
              69     17.7276E-03     100.601E-03    -2.04084E+06     202.115E+06     113.010E+06    -2.68983E+06    -34.6589E-03     50.1882E-03    -15.5293E-03     329.253E-03    -48.4058E-03     64.3176E-03    -15.2544E-03     339.719E-03
              70     17.7252E-03     101.582E-03    -1.90888E+06     197.680E+06     111.286E+06    -1.60317E+06    -36.1379E-03     51.5995E-03    -15.4616E-03     328.034E-03    -49.7110E-03     65.5448E-03    -15.1891E-03     338.154E-03
              71     17.7292E-03     102.565E-03    -4.71469E+06     192.297E+06     107.863E+06    -1.69718E+06    -37.8290E-03     53.1957E-03    -15.3668E-03     325.930E-03    -51.1827E-03     66.9025E-03    -15.0994E-03     335.621E-03
              72     17.7265E-03     103.550E-03    -2.05095E+06     187.390E+06     102.471E+06    -1.87130E+06    -37.9671E-03     53.2423E-03    -15.2752E-03     323.384E-03    -51.0683E-03     66.7041E-03    -15.0316E-03     332.809E-03
              73     17.7319E-03     104.530E-03     853.278E+03     184.598E+06     98.2581E+06    -2.85559E+06    -39.4629E-03     54.5948E-03    -15.1320E-03     324.502E-03    -52.4554E-03     67.9611E-03    -14.9096E-03     333.542E-03
              74     17.7301E-03     105.527E-03     1.16930E+06     178.373E+06     105.231E+06    -4.61585E+06    -41.3077E-03     56.3849E-03    -15.0772E-03     325.194E-03    -54.1942E-03     69.6038E-03    -14.8114E-03     333.712E-03
              75     17.7322E-03     106.506E-03    -12.0548E+06     163.786E+06     97.5929E+06    -5.68104E+06    -42.6996E-03     57.7151E-03    -15.0155E-03     324.618E-03    -55.2396E-03     70.5106E-03    -14.7475E-03     332.419E-03
              76     17.7320E-03     107.497E-03    -1.59933E+06     153.319E+06     75.7649E+06    -2.54090E+06    -43.9530E-03     58.7492E-03    -14.7962E-03     321.300E-03    -55.6091E-03     70.7244E-03    -14.6374E-03     328.142E-03
              77     17.7360E-03     108.484E-03     3.98424E+06     142.075E+06     72.2087E+06    -5.82114E+06    -45.5770E-03     60.2636E-03    -14.6866E-03     316.634E-03    -56.1797E-03     71.1751E-03    -14.5374E-03     322.302E-03
              78     17.7325E-03     109.471E-03    -15.4745E+06     123.801E+06     56.1551E+06    -9.72219E+06    -43.4380E-03     58.0923E-03    -14.6543E-03     304.183E-03    -52.3835E-03     67.2594E-03    -14.5306E-03     308.551E-03
              79     17.7385E-03     110.447E-03    -6.33102E+06     84.9228E+06     24.9654E+06    -22.9111E+06    -32.0092E-03     46.7126E-03    -14.7034E-03     287.242E-03    -38.2272E-03     53.1376E-03    -14.6925E-03     290.249E-03
              80     17.7379E-03     111.403E-03     10.1632E+06     27.7339E+06     9.24317E+06    -29.9023E+06    -11.3930E-03     26.4632E-03    -15.0702E-03     255.032E-03    -14.4248E-03     29.6092E-03    -15.0790E-03     256.546E-03
              81     17.7398E-03     112.319E-03     11.5268E+06     538.768E+03      4.8888E+06    -7.82743E+06     10.6758E-03     5.93904E-03    -16.6149E-03     169.152E-03     9.99375E-03     6.65518E-03    -16.6079E-03     169.599E-03
              82     17.6565E-03     113.225E-03    -6.89054E+06    -6.90711E+06     5.82217E+06     3.14226E+06     15.9243E-03     5.12798E-03    -21.0523E-03     57.2156E-03     15.8536E-03     5.12757E-03    -21.0032E-03     57.2904E-03
              83     16.6128E-03     114.034E-03    -6.14113E+06     9.28165E+06     34.6649E+06     4.48611E+06     7.03384E-03     17.8025E-03    -24.8364E-03     14.4366E-03     6.93954E-03     17.8080E-03    -24.6676E-03     14.4942E-03
              84     15.7143E-03     113.882E-03    -6.32204E+06     2.55489E+06     53.7866E+06    -305.388E+03    -10.3434E-03     35.9065E-03    -25.5631E-03     21.1149E-03    -10.4589E-03     35.8508E-03    -25.2887E-03     21.1040E-03
              85     14.8508E-03     113.731E-03    -1.81245E+06     3.23967E+06     44.8965E+06    -10.8100E+06    -25.8270E-03     51.0883E-03    -25.2613E-03     11.0382E-03    -25.9192E-03     51.0325E-03    -25.0389E-03     10.8812E-03
              86     14.0048E-03     113.601E-03     6.46094E+06    -7.96029E+06     42.9245E+06    -11.9811E+06    -28.6539E-03     53.2280E-03    -24.5740E-03     1.14674E-03    -28.6828E-03     53.1082E-03    -24.3572E-03     972.930E-06
              87     13.1385E-03     113.511E-03     12.9574E+06    -4.04649E+06     54.8312E+06    -3.56965E+06    -28.7670E-03     52.7176E-03    -23.9507E-03    -2.97091E-03    -28.7810E-03     52.5946E-03    -23.6894E-03    -3.03280E-03
              88     12.2796E-03     113.430E-03     16.8274E+06     2.51331E+06     56.4219E+06    -3.22979E+06    -28.7773E-03     52.0885E-03    -23.3113E-03    -2.94899E-03    -28.7827E-03     51.9912E-03    -23.0572E-03    -3.00366E-03
              89     11.4088E-03     113.368E-03     18.8535E+06    -3.66558E+06     54.7209E+06    -1.69934E+06    -28.5000E-03     51.1790E-03    -22.6790E-03    -2.08964E-03    -28.4821E-03     51.0520E-03    -22.4274E-03    -2.12209E-03
              90     10.5426E-03     113.309E-03     20.5149E+06     1.66064E+06     54.2371E+06    -711.322E+03    -27.5745E-03     49.6190E-03    -22.0446E-03    -1.65267E-03    -27.5550E-03     49.5171E-03    -21.8056E-03    -1.67039E-03
              91     9.66928E-03     113.262E-03     21.6895E+06    -2.60351E+06     50.9575E+06    -718.690E+03    -26.0197E-03     47.4781E-03    -21.4584E-03    -1.16631E-03    -25.9829E-03     47.3585E-03    -21.2313E-03    -1.18238E-03
              92     8.79739E-03     113.219E-03     22.3936E+06     1.71062E+06     50.5666E+06    -668.574E+03    -24.7053E-03     45.6463E-03    -20.9410E-03    -886.940E-06    -24.6704E-03     45.5479E-03    -20.7231E-03    -901.013E-06
              93     7.92084E-03     113.184E-03     22.2130E+06    -1.30700E+06     45.7078E+06    -790.267E+03    -23.3854E-03     43.8625E-03    -20.4771E-03    -602.497E-06    -23.3397E-03     43.7566E-03    -20.2789E-03    -616.944E-06
              94     7.04490E-03     113.152E-03     22.5650E+06     744.596E+03     42.8028E+06    -840.755E+03    -22.1483E-03     42.2383E-03    -20.0900E-03    -345.995E-06    -22.0996E-03     42.1463E-03    -19.9097E-03    -360.184E-06
              95     6.16602E-03     113.127E-03     22.6744E+06    -1.13512E+06     38.7816E+06    -756.800E+03    -21.1648E-03     40.9434E-03    -19.7786E-03    -200.864E-06    -21.1067E-03     40.8480E-03    -19.6159E-03    -213.259E-06
              96     5.28671E-03     113.104E-03     22.6257E+06     932.788E+03     36.8618E+06    -979.910E+03    -20.4769E-03     40.0086E-03    -19.5317E-03    -217.517E-06    -20.4193E-03     39.9264E-03    -19.3815E-03    -232.265E-06
              97     4.40655E-03     113.087E-03     22.7179E+06     -850.83E+03     32.9032E+06    -1.30179E+06    -19.8818E-03     39.2144E-03    -19.3326E-03    -136.077E-06    -19.8153E-03     39.1289E-03    -19.1998E-03    -154.507E-06
              98     3.52589E-03     113.072E-03     23.4877E+06     7.30675E+03     29.6407E+06    -996.395E+03    -19.4290E-03     38.6202E-03    -19.1911E-03    -74.9233E-06    -19.3551E-03     38.5426E-03    -19.0770E-03    -88.9953E-06
              99     2.64458E-03     113.062E-03     24.0258E+06    -614.630E+03     27.1929E+06    -454.277E+03    -19.2009E-03     38.3055E-03    -19.1045E-03     2.73243E-06    -19.1198E-03     38.2276E-03    -19.0025E-03    -3.97160E-06
             100     1.76303E-03     113.053E-03     24.2251E+06     40.3064E+03     25.7645E+06    -539.537E+03    -18.9702E-03     38.0588E-03    -19.0885E-03    -573.191E-09    -18.8870E-03     37.9860E-03    -18.9949E-03    -8.10144E-06
             101     881.253E-06     113.048E-03     24.1707E+06    -109.283E+03     24.9465E+06    -881.678E+03    -19.1571E-03     38.1976E-03    -19.0405E-03    -267.216E-06    -19.0725E-03     38.1257E-03    -18.9506E-03    -278.835E-06
             102    -705.322E-09     112.062E-03     21.0354E+06    -1.01240E+06     20.6644E+06    -1.02726E+06    -17.5170E-03     35.1946E-03    -17.6775E-03     86.9830E-06    -17.4402E-03     35.1294E-03    -17.6033E-03     73.6722E-06
             103    -56.3408E-09     111.081E-03     14.7209E+06    -2.81744E+06     14.8743E+06    -399.802E+03    -14.6032E-03     29.6336E-03    -15.0304E-03     950.661E-06    -14.5468E-03     29.5770E-03    -14.9733E-03     945.328E-06
             104     64.2629E-09     110.109E-03     8.08786E+06    -5.31319E+06     8.32302E+06    -812.350E+03    -12.9400E-03     25.9017E-03    -12.9617E-03     1.39096E-03    -12.9037E-03     25.8517E-03    -12.9241E-03     1.38024E-03
             105    -108.647E-09     109.135E-03    -2.53007E+06    -11.3355E+06    -2.55834E+06    -1.98017E+06    -11.8388E-03     23.5298E-03    -11.6910E-03     1.53629E-03    -11.8310E-03     23.4810E-03    -11.6837E-03     1.51053E-03
             106     414.625E-09     108.167E-03    -16.9114E+06    -18.9943E+06      -16.68E+06    -2.81411E+06    -11.0565E-03     21.9512E-03    -10.8947E-03     1.75841E-03    -11.0889E-03     21.9054E-03    -10.9261E-03     1.72189E-03
             107    -431.961E-09     107.197E-03    -31.1876E+06    -27.7984E+06    -31.6465E+06    -3.22692E+06    -10.5700E-03     21.1793E-03    -10.6092E-03     1.92656E-03    -10.6394E-03     21.1318E-03    -10.6819E-03     1.88476E-03
             108     371.962E-09     106.230E-03    -51.6011E+06    -37.3142E+06    -51.8970E+06    -2.68509E+06    -10.5224E-03     21.0505E-03    -10.5280E-03     1.98200E-03    -10.6508E-03     21.0144E-03    -10.6586E-03     1.94726E-03
             109    -327.543E-09     105.260E-03    -70.1256E+06    -45.4923E+06    -69.7440E+06    -1.93022E+06    -10.6397E-03     21.2960E-03    -10.6563E-03     2.21420E-03    -10.8230E-03     21.2718E-03    -10.8374E-03     2.18923E-03
             110     255.292E-09     104.293E-03    -71.6499E+06    -52.5764E+06    -71.9196E+06    -2.09972E+06    -10.9736E-03     22.0402E-03    -11.0666E-03     2.18636E-03    -11.1511E-03     21.9859E-03    -11.2461E-03     2.15923E-03
             111    -354.122E-09     103.321E-03    -57.4763E+06    -54.5533E+06    -58.9046E+06     710.235E+03    -11.4797E-03     23.0970E-03    -11.6173E-03     2.21579E-03    -11.6023E-03     22.9933E-03    -11.7494E-03     2.22490E-03
             112     189.183E-09     102.352E-03    -43.1614E+06    -48.8671E+06    -43.3585E+06     2.59834E+06    -12.0078E-03     24.1639E-03    -12.1561E-03     2.43966E-03    -12.0896E-03     24.0454E-03    -12.2395E-03     2.47312E-03
             113    -293.349E-09     101.378E-03    -32.9944E+06    -40.2640E+06    -33.5589E+06     3.22481E+06    -12.5890E-03     25.1157E-03    -12.5267E-03     2.56706E-03    -12.6466E-03     25.0113E-03    -12.5883E-03     2.60859E-03
             114     498.062E-09     100.407E-03    -28.1653E+06    -30.1711E+06    -27.6710E+06     3.23330E+06    -13.0812E-03     26.0381E-03    -12.9569E-03     2.38135E-03    -13.1379E-03     25.9686E-03    -13.0106E-03     2.42296E-03
             115    -479.200E-09     99.4324E-03    -23.2231E+06    -21.0309E+06    -23.2550E+06     2.35957E+06    -13.4733E-03     27.0007E-03    -13.5274E-03     2.05910E-03    -13.5250E-03     26.9633E-03    -13.5795E-03     2.08947E-03
             116     361.671E-09     98.4590E-03    -19.9363E+06    -13.9666E+06    -19.6969E+06     1.69062E+06    -13.8168E-03     27.8375E-03    -14.0208E-03     1.93838E-03    -13.8674E-03     27.8256E-03    -14.0701E-03     1.96009E-03
             117    -605.687E-09     97.4824E-03    -16.2430E+06    -9.83470E+06    -16.2091E+06     475.953E+03    -14.1839E-03     28.5793E-03    -14.3954E-03     1.85717E-03    -14.2271E-03     28.5776E-03    -14.4386E-03     1.86315E-03
             118     472.794E-09     96.5075E-03    -11.9106E+06    -8.95478E+06    -11.5214E+06    -198.119E+03    -14.6221E-03     29.2679E-03    -14.6458E-03     1.99249E-03    -14.6518E-03     29.2575E-03    -14.6731E-03     1.98975E-03
             119    -379.586E-09     95.5290E-03    -8.88056E+06    -10.9358E+06    -8.93819E+06    -894.265E+03    -14.8796E-03     29.7402E-03    -14.8605E-03     2.22683E-03    -14.8950E-03     29.7117E-03    -14.8765E-03     2.21504E-03
             120     317.060E-09     94.5537E-03    -7.89890E+06    -14.4263E+06    -7.68439E+06    -1.22273E+06    -15.1037E-03     30.1788E-03    -15.0751E-03     2.21621E-03    -15.1110E-03     30.1296E-03    -15.0811E-03     2.20016E-03
             121    -203.877E-09     93.5746E-03    -6.21379E+06    -18.9562E+06    -6.49629E+06    -1.19051E+06    -15.2861E-03     30.5300E-03    -15.2439E-03     2.18764E-03    -15.2801E-03     30.4541E-03    -15.2399E-03     2.17204E-03
             122     159.797E-09     92.5983E-03    -7.46535E+06    -23.7749E+06    -7.09152E+06    -1.43769E+06    -15.3023E-03     30.6901E-03    -15.3878E-03     2.15233E-03    -15.2947E-03     30.5927E-03    -15.3779E-03     2.13352E-03
             123    -265.350E-09     91.6194E-03    -9.51785E+06    -28.8650E+06    -9.41636E+06    -1.67817E+06    -15.4631E-03     30.9208E-03    -15.4577E-03     2.09229E-03    -15.4550E-03     30.8043E-03    -15.4491E-03     2.07036E-03
             124     379.378E-09     90.6423E-03    -11.0567E+06    -33.6713E+06    -10.8036E+06    -1.17449E+06    -15.6159E-03     31.0949E-03    -15.4791E-03     2.01942E-03    -15.6065E-03     30.9587E-03    -15.4682E-03     2.00398E-03
             125    -250.248E-09     89.6635E-03    -11.9351E+06    -37.9599E+06    -11.6445E+06    -1.31938E+06    -15.5968E-03     31.1780E-03    -15.5812E-03     2.00321E-03    -15.5844E-03     31.0228E-03    -15.5671E-03     1.98590E-03
             126     150.074E-09     88.6859E-03    -11.5964E+06    -41.7599E+06    -11.9150E+06    -1.30598E+06    -15.5727E-03     31.3007E-03    -15.7280E-03     1.98340E-03    -15.5527E-03     31.1264E-03    -15.7102E-03     1.96625E-03
             127    -330.698E-09     87.7070E-03    -14.6162E+06    -46.2233E+06    -14.4878E+06    -1.22814E+06    -15.6342E-03     31.3909E-03    -15.7567E-03     1.98454E-03    -15.6191E-03     31.2024E-03    -15.7409E-03     1.96839E-03
             128     293.632E-09     86.7291E-03    -15.9955E+06    -49.2114E+06    -16.3708E+06    -930.244E+03    -15.7105E-03     31.4493E-03    -15.7388E-03     2.01701E-03    -15.6952E-03     31.2505E-03    -15.7261E-03     2.00468E-03
             129    -313.199E-09     85.7503E-03    -16.7193E+06    -51.8891E+06    -16.4630E+06    -954.253E+03    -15.7056E-03     31.4587E-03    -15.7532E-03     2.03285E-03    -15.6899E-03     31.2478E-03    -15.7360E-03     2.02018E-03
             130     249.239E-09     84.7722E-03    -17.1553E+06    -54.5866E+06    -17.4412E+06    -806.401E+03    -15.6924E-03     31.4327E-03    -15.7404E-03     2.08391E-03    -15.6736E-03     31.2104E-03    -15.7236E-03     2.07318E-03
             131    -275.847E-09     83.7937E-03    -18.3293E+06    -57.3158E+06    -18.1525E+06    -506.987E+03    -15.7116E-03     31.4229E-03    -15.7113E-03     2.03785E-03    -15.6937E-03     31.1896E-03    -15.6923E-03     2.03104E-03
             132     302.951E-09     82.8156E-03    -18.1929E+06    -59.7640E+06    -18.1032E+06    -633.675E+03    -15.7343E-03     31.4422E-03    -15.7078E-03     1.94663E-03    -15.7122E-03     31.1964E-03    -15.6853E-03     1.93820E-03
             133    -284.020E-09     81.8372E-03    -18.5166E+06    -62.0317E+06    -18.4032E+06    -557.767E+03    -15.7361E-03     31.4700E-03    -15.7338E-03     1.90762E-03    -15.7119E-03     31.2137E-03    -15.7091E-03     1.90010E-03
             134     268.536E-09     80.8588E-03    -18.7062E+06    -63.8414E+06    -18.4479E+06    -696.870E+03    -15.7320E-03     31.4819E-03    -15.7500E-03     2.04815E-03    -15.7060E-03     31.2170E-03    -15.7225E-03     2.03883E-03
             135    -284.217E-09     79.8803E-03    -18.5689E+06    -65.9146E+06    -18.8758E+06    -413.981E+03    -15.7339E-03     31.4615E-03    -15.7275E-03     2.15680E-03    -15.7037E-03     31.1866E-03    -15.6994E-03     2.15116E-03
             136     305.376E-09     78.9022E-03    -18.6681E+06    -67.1651E+06    -18.3924E+06    -407.026E+03    -15.7555E-03     31.4474E-03    -15.6919E-03     2.09512E-03    -15.7246E-03     31.1656E-03    -15.6594E-03     2.08955E-03
             137    -212.949E-09     77.9239E-03    -18.6317E+06    -68.8500E+06    -18.8105E+06    -472.703E+03    -15.7241E-03     31.4570E-03    -15.7328E-03     2.07271E-03    -15.6900E-03     31.1674E-03    -15.7000E-03     2.06628E-03
             138     100.804E-09     76.9455E-03    -18.4320E+06    -69.9504E+06    -18.2323E+06    -335.212E+03    -15.7090E-03     31.5153E-03    -15.8063E-03     2.11208E-03    -15.6732E-03     31.2191E-03    -15.7693E-03     2.10740E-03
             139    -161.012E-09     75.9671E-03    -17.9091E+06    -71.2751E+06    -17.9442E+06    -446.925E+03    -15.7713E-03     31.5505E-03    -15.7792E-03     2.14317E-03    -15.7313E-03     31.2465E-03    -15.7396E-03     2.13705E-03
             140     204.363E-09     74.9887E-03    -17.6968E+06    -71.9834E+06    -17.6176E+06    -26.3908E+03    -15.8276E-03     31.5633E-03    -15.7358E-03     2.13899E-03    -15.7860E-03     31.2550E-03    -15.6938E-03     2.13831E-03
             141    -86.5104E-09     74.0105E-03    -17.7242E+06    -72.4522E+06    -17.5975E+06    -297.396E+03    -15.8435E-03     31.6228E-03    -15.7792E-03     2.10796E-03    -15.8015E-03     31.3121E-03    -15.7364E-03     2.10378E-03
             142     81.8528E-09     73.0318E-03    -17.5475E+06    -73.3176E+06    -17.8024E+06     27.1735E+03    -15.7898E-03     31.6545E-03    -15.8647E-03     2.06658E-03    -15.7453E-03     31.3395E-03    -15.8220E-03     2.06664E-03
             143    -215.103E-09     72.0537E-03    -18.0297E+06    -73.5925E+06    -17.7493E+06    -112.320E+03    -15.7945E-03     31.6925E-03    -15.8980E-03     2.06043E-03    -15.7521E-03     31.3768E-03    -15.8539E-03     2.05867E-03
             144     166.072E-09     71.0747E-03    -17.4723E+06    -74.2139E+06    -17.5704E+06    -267.134E+03    -15.8781E-03     31.7514E-03    -15.8733E-03     2.07182E-03    -15.8323E-03     31.4315E-03    -15.8282E-03     2.06803E-03
             145    -111.679E-09     70.0966E-03    -18.0175E+06    -74.7803E+06    -17.9719E+06    -88.3926E+03    -15.9275E-03     31.7623E-03    -15.8348E-03     2.11581E-03    -15.8830E-03     31.4410E-03    -15.7901E-03     2.11431E-03
             146     219.786E-09     69.1174E-03    -17.6820E+06    -74.8050E+06    -17.7542E+06    -102.974E+03    -15.9484E-03     31.7997E-03    -15.8512E-03     2.09710E-03    -15.9025E-03     31.4774E-03    -15.8059E-03     2.09540E-03
             147    -158.702E-09     68.1397E-03    -17.3859E+06    -74.8557E+06    -17.4286E+06    -67.7331E+03    -15.8945E-03     31.8276E-03    -15.9331E-03     1.99025E-03    -15.8475E-03     31.5042E-03    -15.8865E-03     1.98905E-03
             148     26.7362E-09     67.1601E-03    -17.0473E+06    -74.9371E+06    -17.0053E+06     58.7444E+03    -15.8917E-03     31.8442E-03    -15.9525E-03     2.04584E-03    -15.8435E-03     31.5193E-03    -15.9042E-03     2.04631E-03
             149    -4.21826E-09     66.1823E-03    -17.1327E+06    -75.1821E+06    -17.1984E+06     68.3395E+03    -15.8834E-03     31.8367E-03    -15.9533E-03     2.07754E-03    -15.8351E-03     31.5109E-03    -15.9054E-03     2.07811E-03
             150    -144.963E-09     65.2030E-03    -16.7073E+06    -74.7276E+06    -16.6909E+06     196.003E+03    -15.8818E-03     31.8606E-03    -15.9788E-03     2.10310E-03    -15.8327E-03     31.5357E-03    -15.9296E-03     2.10530E-03
             151     120.386E-09     64.2248E-03    -16.4818E+06    -74.7888E+06    -16.5442E+06    -177.130E+03    -15.8495E-03     31.8393E-03    -15.9898E-03     2.10461E-03    -15.7994E-03     31.5136E-03    -15.9402E-03     2.10198E-03
             152    -347.158E-09     63.2458E-03    -16.4711E+06    -75.0191E+06    -16.6385E+06     235.826E+03    -15.8138E-03     31.8128E-03    -15.9990E-03     2.07052E-03    -15.7632E-03     31.4861E-03    -15.9495E-03     2.07325E-03
             153     241.776E-09     62.2676E-03    -16.4884E+06    -74.5976E+06    -16.4094E+06    -138.370E+03    -15.8560E-03     31.8548E-03    -15.9988E-03     2.06319E-03    -15.8064E-03     31.5299E-03    -15.9488E-03     2.06107E-03
             154    -390.628E-09     61.2885E-03    -16.1477E+06    -74.3290E+06    -16.6058E+06     144.432E+03    -15.8464E-03     31.8160E-03    -15.9696E-03     1.97782E-03    -15.7952E-03     31.4922E-03    -15.9215E-03     1.97936E-03
             155     313.928E-09     60.3105E-03    -16.2778E+06    -73.9143E+06    -15.9316E+06     51.7404E+03    -15.8679E-03     31.8083E-03    -15.9403E-03     1.87094E-03    -15.8189E-03     31.4858E-03    -15.8892E-03     1.87134E-03
             156    -363.320E-09     59.3316E-03    -15.8880E+06    -73.7760E+06    -16.3703E+06    -53.8488E+03    -15.8521E-03     31.8429E-03    -15.9909E-03     1.79115E-03    -15.8007E-03     31.5212E-03    -15.9427E-03     1.79019E-03
             157     159.629E-09     58.3532E-03    -16.0869E+06    -73.3854E+06    -15.9089E+06     38.1148E+03    -15.8808E-03     31.8873E-03    -16.0064E-03     1.91163E-03    -15.8317E-03     31.5671E-03    -15.9563E-03     1.91182E-03
             158    -178.253E-09     57.3737E-03    -16.0219E+06    -73.3829E+06    -16.1955E+06    -23.1305E+03    -15.9438E-03     31.8937E-03    -15.9499E-03     2.12843E-03    -15.8939E-03     31.5738E-03    -15.9013E-03     2.12778E-03
             159    -415.899E-09     55.4166E-03    -16.1876E+06    -73.1186E+06    -16.4349E+06       1.782E+03    -15.8382E-03     31.7839E-03    -15.9456E-03     2.05933E-03    -15.7892E-03     31.4660E-03    -15.8983E-03     2.05901E-03
             160     454.847E-09     54.4384E-03    -16.5483E+06    -73.1239E+06    -16.4259E+06     104.024E+03    -15.8863E-03     31.7219E-03    -15.8356E-03     1.94784E-03    -15.8391E-03     31.4045E-03    -15.7877E-03     1.94887E-03
             161    -404.528E-09     53.4600E-03    -16.3362E+06    -72.6924E+06    -16.2315E+06    -189.127E+03    -15.8430E-03     31.7188E-03    -15.8758E-03     1.82795E-03    -15.7956E-03     31.4030E-03    -15.8279E-03     1.82522E-03
             162     295.519E-09     52.4814E-03    -16.0655E+06    -72.5914E+06    -16.3325E+06    -100.198E+03    -15.8560E-03     31.7365E-03    -15.8805E-03     1.77912E-03    -15.8073E-03     31.4209E-03    -15.8336E-03     1.77755E-03
             163    -234.588E-09     51.5028E-03    -16.1717E+06    -72.4037E+06    -16.1825E+06     168.999E+03    -15.8145E-03     31.6487E-03    -15.8342E-03     1.79897E-03    -15.7669E-03     31.3340E-03    -15.7867E-03     1.80090E-03
             164     137.062E-09     50.5246E-03    -16.3083E+06    -72.3369E+06    -16.3571E+06    -113.886E+03    -15.7679E-03     31.5993E-03    -15.8314E-03     1.74694E-03    -15.7207E-03     31.2853E-03    -15.7847E-03     1.74522E-03
             165    -154.283E-09     49.5460E-03    -16.4531E+06    -72.4130E+06    -16.5547E+06          965.25    -15.7799E-03     31.5767E-03    -15.7967E-03     1.82301E-03    -15.7331E-03     31.2628E-03    -15.7507E-03     1.82275E-03
             166     138.883E-09     48.5675E-03    -16.5876E+06    -72.3276E+06    -16.4692E+06     17.0195E+03    -15.7309E-03     31.5071E-03    -15.7763E-03     1.97624E-03    -15.6850E-03     31.1938E-03    -15.7297E-03     1.97614E-03
             167    -204.460E-09     47.5893E-03    -16.3008E+06    -72.2542E+06    -16.8641E+06     66.5068E+03    -15.6719E-03     31.4511E-03    -15.7792E-03     2.13203E-03    -15.6241E-03     31.1383E-03    -15.7351E-03     2.13255E-03
             168     71.3098E-09     46.6106E-03    -16.4854E+06    -72.0095E+06    -16.4568E+06     141.994E+03    -15.6661E-03     31.3546E-03    -15.6885E-03     2.04105E-03    -15.6201E-03     31.0427E-03    -15.6425E-03     2.04254E-03
             169     20.3374E-09     45.6334E-03    -17.1772E+06    -72.5039E+06    -17.1023E+06    -125.324E+03    -15.6441E-03     31.2466E-03    -15.6026E-03     1.91618E-03    -15.5999E-03     30.9342E-03    -15.5581E-03     1.91422E-03
             170    -39.4799E-09     44.6546E-03    -16.8439E+06    -71.8981E+06    -16.8016E+06    -41.7879E+03    -15.5608E-03     31.1763E-03    -15.6155E-03     1.81190E-03    -15.5163E-03     30.8659E-03    -15.5708E-03     1.81105E-03
             171    -39.3788E-09     43.6775E-03    -16.8216E+06    -71.7429E+06    -17.1272E+06    -167.236E+03    -15.5107E-03     31.1263E-03    -15.6156E-03     1.92948E-03    -15.4659E-03     30.8172E-03    -15.5728E-03     1.92702E-03
             172    -72.9867E-09     42.6984E-03    -17.3250E+06    -71.8497E+06    -17.4190E+06     291.861E+03    -15.5482E-03     31.0776E-03    -15.5295E-03     2.01031E-03    -15.5052E-03     30.7692E-03    -15.4873E-03     2.01379E-03
             173     215.369E-09     41.7217E-03    -17.5872E+06    -71.6735E+06    -17.1970E+06     142.896E+03    -15.4765E-03     30.9202E-03    -15.4437E-03     1.87329E-03    -15.4354E-03     30.6127E-03    -15.4003E-03     1.87486E-03
             174    -296.982E-09     40.7432E-03    -16.7478E+06    -71.0346E+06    -17.3479E+06    -241.686E+03    -15.3005E-03     30.8016E-03    -15.5011E-03     1.84160E-03    -15.2560E-03     30.4963E-03    -15.4606E-03     1.83813E-03
             175     14.4301E-09     39.7663E-03    -17.2192E+06    -70.9205E+06    -17.6091E+06     27.7247E+03    -15.2808E-03     30.6592E-03    -15.3784E-03     1.84210E-03    -15.2384E-03     30.3554E-03    -15.3386E-03     1.84214E-03
             176     88.8922E-09     38.7879E-03    -17.8296E+06    -70.6688E+06    -17.5780E+06     673.250E+03    -15.2356E-03     30.4183E-03    -15.1827E-03     1.95381E-03    -15.1967E-03     30.1167E-03    -15.1423E-03     1.96229E-03
             177    -97.6097E-09     37.8122E-03    -18.2850E+06    -70.4034E+06    -17.6625E+06     80.6748E+03    -15.1422E-03     30.2562E-03    -15.1140E-03     1.65098E-03    -15.1058E-03     29.9566E-03    -15.0737E-03     1.65178E-03
             178     161.966E-09     36.8340E-03    -18.3281E+06    -70.1407E+06    -18.0804E+06    -8.34491E+03    -15.0555E-03     30.0388E-03    -14.9833E-03     1.57833E-03    -15.0191E-03     29.7413E-03    -14.9455E-03     1.57796E-03
             179    -96.9459E-09     35.8581E-03    -17.6053E+06    -69.1044E+06    -18.0294E+06     257.949E+03    -14.8036E-03     29.7344E-03    -14.9307E-03     1.72240E-03    -14.7651E-03     29.4409E-03    -14.8952E-03     1.72547E-03
             180    -200.098E-09     34.8808E-03    -17.1213E+06    -67.7912E+06    -17.7404E+06     260.054E+03    -14.6525E-03     29.4804E-03    -14.8280E-03     1.68033E-03    -14.6138E-03     29.1924E-03    -14.7936E-03     1.68340E-03
             181     177.072E-09     33.9053E-03    -18.6164E+06    -67.8123E+06    -18.0521E+06     592.746E+03    -14.6257E-03     29.2119E-03    -14.5862E-03     1.75305E-03    -14.5941E-03     28.9264E-03    -14.5512E-03     1.76046E-03
             182    -79.3581E-09     32.9284E-03    -18.0910E+06    -66.8873E+06    -18.2139E+06     361.023E+03    -14.3710E-03     28.7814E-03    -14.4104E-03     1.76431E-03    -14.3378E-03     28.4999E-03    -14.3782E-03     1.76871E-03
             183    -91.5196E-09     31.9540E-03    -17.3980E+06    -65.5016E+06    -17.5131E+06     53.3416E+03    -14.1204E-03     28.3313E-03    -14.2109E-03     1.63975E-03    -14.0868E-03     28.0548E-03    -14.1783E-03     1.64015E-03
             184     98.9213E-09     30.9781E-03    -17.4748E+06    -64.7796E+06    -17.4589E+06     211.323E+03    -14.0239E-03     27.9701E-03    -13.9462E-03     1.57256E-03    -13.9918E-03     27.6973E-03    -13.9142E-03     1.57501E-03
             185     30.1925E-09     30.0043E-03    -17.7681E+06    -63.6028E+06    -16.8752E+06     99.7706E+03    -13.7920E-03     27.5680E-03    -13.7761E-03     1.39414E-03    -13.7639E-03     27.3007E-03    -13.7424E-03     1.39516E-03
             186    -122.147E-09     29.0294E-03    -17.5045E+06    -63.0199E+06    -17.0335E+06     423.037E+03    -13.4615E-03     27.1149E-03    -13.6533E-03     1.34665E-03    -13.4327E-03     26.8502E-03    -13.6217E-03     1.35187E-03
             187    -122.334E-09     28.0558E-03    -15.9556E+06    -61.1972E+06    -16.5749E+06     794.403E+03    -13.1589E-03     26.5815E-03    -13.4226E-03     1.46080E-03    -13.1256E-03     26.3231E-03    -13.3936E-03     1.47084E-03
             188    -110.177E-09     27.0821E-03    -16.1226E+06    -59.8200E+06    -15.6182E+06     762.088E+03    -12.9428E-03     25.9916E-03    -13.0488E-03     1.44293E-03    -12.9137E-03     25.7390E-03    -13.0168E-03     1.45255E-03
             189     158.692E-09     26.1099E-03    -14.0450E+06    -57.6799E+06    -15.3168E+06     463.088E+03    -12.7282E-03     25.3754E-03    -12.6472E-03     1.35890E-03    -12.6923E-03     25.1300E-03    -12.6198E-03     1.36469E-03
             190    -79.1162E-09     25.1374E-03     -13.813E+06    -55.9334E+06    -14.0606E+06     943.672E+03    -12.4123E-03     24.7683E-03    -12.3559E-03     1.40348E-03    -12.3796E-03     24.5295E-03    -12.3251E-03     1.41547E-03
             191     95.5195E-09     24.1662E-03    -12.8470E+06    -53.8367E+06    -12.0852E+06     555.351E+03    -12.0966E-03     24.1926E-03    -12.0960E-03     1.10749E-03    -12.0649E-03     23.9601E-03    -12.0598E-03     1.11447E-03
             192    -103.402E-09     23.1956E-03    -11.8840E+06    -52.4311E+06    -12.1404E+06     242.622E+03    -11.8004E-03     23.6020E-03    -11.8015E-03     949.757E-06    -11.7659E-03     23.3751E-03    -11.7690E-03     952.717E-06
             193     105.383E-09     22.2246E-03    -11.1024E+06    -50.3569E+06    -10.6722E+06     483.894E+03    -11.5202E-03     23.0230E-03    -11.5028E-03     962.820E-06    -11.4869E-03     22.8033E-03    -11.4670E-03     968.872E-06
             194    -72.4189E-09     21.2555E-03    -9.26138E+06    -47.9726E+06    -9.30891E+06     636.784E+03    -11.2493E-03     22.4207E-03    -11.1714E-03     960.931E-06    -11.2122E-03     22.2082E-03    -11.1349E-03     968.992E-06
             195     176.599E-09     20.2852E-03    -7.86364E+06    -45.7209E+06    -7.91678E+06     1.03180E+06    -10.9855E-03     21.9020E-03    -10.9165E-03     1.09723E-03    -10.9466E-03     21.6968E-03    -10.8784E-03     1.11041E-03
             196    -159.800E-09     19.3173E-03    -6.68912E+06    -43.5456E+06    -6.60791E+06     613.236E+03    -10.7285E-03     21.4023E-03    -10.6738E-03     975.076E-06    -10.6887E-03     21.2043E-03    -10.6340E-03     982.835E-06
             197     240.032E-09     18.3481E-03    -6.19942E+06    -41.9631E+06    -5.93017E+06     844.031E+03    -10.5023E-03     20.8881E-03    -10.3858E-03     1.16438E-03    -10.4634E-03     20.6963E-03    -10.3456E-03     1.17515E-03
             198    -111.070E-09     17.3806E-03    -5.05565E+06    -39.5471E+06    -5.14631E+06     887.079E+03    -10.2276E-03     20.3540E-03    -10.1264E-03     900.213E-06    -10.1876E-03     20.1716E-03    -10.0874E-03     911.555E-06
             199     160.058E-09     16.4140E-03    -5.14852E+06    -37.9428E+06    -4.77782E+06     691.102E+03    -9.99096E-03     19.8925E-03    -9.90155E-03     605.671E-06    -9.95422E-03     19.7177E-03    -9.86296E-03     614.489E-06
             200    -46.5571E-09     15.4461E-03    -5.24800E+06    -36.4224E+06    -5.14924E+06     202.095E+03    -9.73442E-03     19.4135E-03    -9.67912E-03     524.046E-06    -9.69984E-03     19.2470E-03    -9.64444E-03     526.553E-06
             201     31.6958E-09     14.4809E-03    -7.40405E+06    -36.1091E+06    -6.93723E+06     13.9193E+03    -9.37647E-03     18.7199E-03    -9.34344E-03     433.385E-06    -9.35055E-03     18.5607E-03    -9.31503E-03     433.487E-06
             202     46.4776E-09     13.5138E-03    -8.19510E+06    -35.3091E+06    -8.30649E+06    -157.025E+03    -9.01107E-03     17.9246E-03    -8.91352E-03     383.572E-06    -8.98828E-03     17.7725E-03    -8.89197E-03     381.491E-06
             203     47.1595E-09     12.5506E-03    -10.6317E+06    -35.3240E+06    -10.7196E+06    -67.6907E+03    -8.48002E-03     16.8729E-03    -8.39286E-03     159.077E-06    -8.46590E-03     16.7277E-03    -8.37982E-03     158.130E-06
             204     12.9576E-09     11.5853E-03    -13.1760E+06    -34.9425E+06    -12.9499E+06     45.0308E+03    -7.89638E-03     15.6659E-03    -7.76956E-03     170.680E-06    -7.89228E-03     15.5296E-03    -7.76454E-03     171.190E-06
             205     155.212E-09     10.6243E-03    -15.9605E+06    -35.0513E+06    -16.2058E+06    -204.443E+03    -7.30848E-03     14.4943E-03    -7.18581E-03     88.0006E-06    -7.31339E-03     14.3662E-03    -7.19287E-03     85.2834E-06
             206    -107.938E-09     9.66174E-03    -18.9054E+06    -35.2009E+06    -18.3838E+06     101.340E+03    -6.86516E-03     13.6012E-03    -6.73606E-03     137.928E-06    -6.88140E-03     13.4798E-03    -6.74952E-03     139.170E-06
             207     296.489E-09     8.70175E-03    -19.3793E+06    -35.1037E+06    -19.1140E+06     173.846E+03    -6.69566E-03     13.3289E-03    -6.63324E-03     299.803E-06    -6.71332E-03     13.2097E-03    -6.64981E-03     301.983E-06
             208    -371.463E-09     7.74049E-03    -18.8579E+06    -35.9042E+06    -18.8831E+06     13.4831E+03    -6.91800E-03     13.8986E-03    -6.98057E-03     456.705E-06    -6.93229E-03     13.7743E-03    -6.99558E-03     456.820E-06
             209     333.292E-09     6.77863E-03    -16.2392E+06    -36.1291E+06    -16.3263E+06    -364.532E+03    -7.62388E-03     15.2413E-03    -7.61740E-03     536.420E-06    -7.62851E-03     15.1083E-03    -7.62310E-03     531.660E-06
             210    -285.390E-09     5.81554E-03    -12.7675E+06    -36.3921E+06    -12.8334E+06    -195.616E+03    -8.45513E-03     16.9895E-03    -8.53439E-03     725.081E-06    -8.44715E-03     16.8451E-03    -8.52727E-03     722.491E-06
             211     94.6761E-09     4.84926E-03    -9.15358E+06    -37.0631E+06    -9.43767E+06    -30.6087E+03    -9.47048E-03     18.9712E-03    -9.50077E-03     766.633E-06    -9.44841E-03     18.8133E-03    -9.48094E-03     766.192E-06
             212     37.8982E-09     3.88336E-03    -6.42946E+06    -37.6435E+06    -5.99545E+06    -224.226E+03    -10.4245E-03     20.8162E-03    -10.3917E-03     618.289E-06    -10.3930E-03     20.6464E-03    -10.3578E-03     615.362E-06
             213    -107.606E-09     2.91298E-03    -2.94025E+06    -38.1200E+06    -3.12229E+06    -287.964E+03    -11.2270E-03     22.4517E-03    -11.2247E-03     684.587E-06    -11.1815E-03     22.2704E-03    -11.1808E-03     680.773E-06
             214     178.480E-09     1.94398E-03    -689.753E+03    -39.0843E+06    -1.03408E+06    -72.1764E+03    -11.9115E-03     23.7962E-03    -11.8847E-03     379.187E-06    -11.8562E-03     23.6038E-03    -11.8322E-03     378.185E-06
             215    -206.669E-09     971.621E-06     587.176E+03    -39.1248E+06     1.00127E+06     29.8829E+03    -12.3107E-03     24.6076E-03    -12.2969E-03     238.810E-06    -12.2516E-03     24.4102E-03    -12.2360E-03     239.383E-06
             216     888.733E-06     97.1445E-18     1.24649E+06    -39.8545E+06     1.33676E+06    -219.474E+03    -12.4868E-03     24.9291E-03    -12.4422E-03     211.217E-06    -12.4242E-03     24.7262E-03    -12.3796E-03     208.553E-06
             217     1.77782E-03     97.1445E-18     1.31378E+06    -40.8119E+06     871.193E+03    -165.600E+03    -12.5506E-03     25.0309E-03    -12.4803E-03     336.433E-06    -12.4860E-03     24.8236E-03    -12.4187E-03     334.257E-06
             218     2.66622E-03     97.1445E-18     1.32227E+06    -41.8069E+06    -428.144E+03    -170.834E+03    -12.6444E-03     25.1566E-03    -12.5122E-03     524.891E-06    -12.5764E-03     24.9462E-03    -12.4556E-03     522.655E-06
             219     3.55517E-03     97.1445E-18     1.22464E+06    -42.6966E+06    -1.83457E+06    -475.164E+03    -12.7903E-03     25.3441E-03    -12.5538E-03     690.432E-06    -12.7195E-03     25.1315E-03    -12.5029E-03     684.241E-06
             220     4.44344E-03     97.1445E-18     1.29491E+06    -43.9473E+06    -3.66677E+06    -593.008E+03    -12.9876E-03     25.5958E-03    -12.6082E-03     900.382E-06    -12.9121E-03     25.3795E-03    -12.5647E-03     892.675E-06
             221     5.33172E-03     97.1445E-18     1.73931E+06    -45.5242E+06    -5.87774E+06    -970.898E+03    -13.2038E-03     25.8774E-03    -12.6736E-03     1.13241E-03    -13.1205E-03     25.6557E-03    -12.6395E-03     1.11979E-03
             222     6.21997E-03     97.1445E-18     2.08785E+06    -47.3833E+06    -8.17834E+06    -932.604E+03    -13.5064E-03     26.2599E-03    -12.7534E-03     1.37994E-03    -13.4154E-03     26.0318E-03    -12.7286E-03     1.36780E-03
             223     7.10740E-03     97.1445E-18     2.79410E+06    -49.6489E+06    -11.5495E+06    -1.64139E+06    -13.8290E-03     26.6727E-03    -12.8437E-03     1.68917E-03    -13.7263E-03     26.4371E-03    -12.8335E-03     1.66784E-03
             224     7.99514E-03     97.1445E-18     3.85203E+06    -51.0750E+06    -15.3801E+06    -1.72602E+06    -14.2041E-03     27.1481E-03    -12.9440E-03     1.92794E-03    -14.0885E-03     26.9094E-03    -12.9524E-03     1.90547E-03
             225     8.88224E-03     97.1445E-18     4.59811E+06    -53.1811E+06    -19.6803E+06    -1.38735E+06    -14.6956E-03     27.7570E-03    -13.0614E-03     2.50250E-03    -14.5669E-03     27.5129E-03    -13.0893E-03     2.48440E-03
             226     9.76811E-03     97.1445E-18     6.40544E+06    -54.8358E+06    -23.9073E+06    -2.89035E+06    -15.2040E-03     28.4003E-03    -13.1962E-03     2.84646E-03    -15.0578E-03     28.1515E-03    -13.2456E-03     2.80885E-03
             227     10.6557E-03     97.1445E-18     9.03624E+06    -54.6202E+06    -29.0927E+06    -3.86421E+06    -15.8665E-03     29.2098E-03    -13.3433E-03     3.36878E-03    -15.7000E-03     28.9658E-03    -13.4227E-03     3.31842E-03
             228     11.5391E-03     97.1445E-18     12.9711E+06    -48.5795E+06    -28.6490E+06    -3.93992E+06    -16.5780E-03     30.1106E-03    -13.5327E-03     4.08496E-03    -16.4012E-03     29.8905E-03    -13.6243E-03     4.03354E-03
             229     12.4259E-03     97.1445E-18     14.2208E+06    -25.2168E+06    -21.7498E+06    -909.797E+03    -17.5817E-03     31.3478E-03    -13.7660E-03     4.96653E-03    -17.4426E-03     31.2327E-03    -13.8588E-03     4.95376E-03
             230     13.3078E-03     97.1445E-18     12.8150E+06     6.90802E+06    -7.78722E+06    -1.93609E+06    -19.0250E-03     33.1043E-03    -14.0792E-03     5.97261E-03    -18.9598E-03     33.1316E-03    -14.1468E-03     5.94612E-03
             231     14.1907E-03     97.1445E-18     14.6119E+06     33.1393E+06     19.3258E+06     1.95206E+06    -22.1578E-03     36.7290E-03    -14.5712E-03     10.3465E-03    -22.1609E-03     36.8457E-03    -14.5438E-03     10.3703E-03
             232     15.0649E-03     97.1445E-18     11.4499E+06     47.5211E+06     45.4119E+06     2.75231E+06    -26.0244E-03     41.2700E-03    -15.2456E-03     17.2815E-03    -26.1028E-03     41.4252E-03    -15.1040E-03     17.3139E-03
             233     15.9333E-03     97.1445E-18     4.75056E+06     53.0484E+06     61.3144E+06     1.89382E+06    -29.0075E-03     45.0278E-03    -16.0203E-03     20.5244E-03    -29.1517E-03     45.1998E-03    -15.7976E-03     20.5356E-03
             234     16.8179E-03     97.1445E-18     3.68080E+06     73.7199E+06     74.4748E+06     6.30443E+06    -43.0249E-03     60.1340E-03    -17.1091E-03     35.9776E-03    -43.2979E-03     60.4674E-03    -16.8489E-03     35.8671E-03
             235     17.6942E-03     1.04287E-03     187.523E+03     95.2379E+06     77.3284E+06     4.34773E+06    -53.2877E-03     70.2757E-03    -16.9879E-03     76.9468E-03    -53.8167E-03     70.9259E-03    -16.7397E-03     76.6433E-03
             236     17.7070E-03     2.08191E-03    -2.48889E+06     107.562E+06     80.5701E+06     5.57832E+06    -58.1043E-03     73.8887E-03    -15.7845E-03     107.751E-03    -58.9741E-03     74.9077E-03    -15.5340E-03     107.330E-03
             237     17.7115E-03     3.12546E-03     620.144E+03     123.518E+06     90.8720E+06     8.53909E+06    -65.0207E-03     80.3391E-03    -15.3185E-03     132.266E-03    -66.4690E-03     81.9707E-03    -15.0441E-03     131.760E-03
             238     17.7142E-03     4.16259E-03    -2.91508E+06     134.331E+06     96.6649E+06     4.78210E+06    -67.3463E-03     82.6350E-03    -15.2887E-03     160.504E-03    -69.6425E-03     85.1239E-03    -14.9959E-03     159.986E-03
             239     17.7060E-03     5.20738E-03    -4.24520E+06     144.631E+06     101.824E+06     4.69359E+06    -67.8252E-03     83.2536E-03    -15.4284E-03     187.824E-03    -71.2309E-03     86.8674E-03    -15.1228E-03     187.626E-03
             240     17.7129E-03     6.23706E-03    -755.051E+03     152.630E+06     103.084E+06     3.87898E+06    -65.1335E-03     80.6311E-03    -15.4976E-03     222.098E-03    -69.7815E-03     85.5241E-03    -15.2024E-03     222.463E-03
             241     17.7109E-03     7.27563E-03    -1.26620E+06     157.549E+06     103.794E+06    -52.1252E+03    -61.6719E-03     77.2132E-03    -15.5413E-03     247.278E-03    -67.4524E-03     83.2514E-03    -15.2489E-03     248.410E-03
             242     17.7143E-03     8.28719E-03    -2.92048E+06     161.650E+06     106.536E+06     2.46981E+06    -55.6859E-03     71.4108E-03    -15.7250E-03     259.784E-03    -62.3631E-03     78.3428E-03    -15.4224E-03     262.075E-03
             243     17.7091E-03     9.28799E-03    -2.57063E+06     164.432E+06     106.853E+06     1.12679E+06    -51.4800E-03     67.3045E-03    -15.8245E-03     261.001E-03    -58.6631E-03     74.7515E-03    -15.5249E-03     264.167E-03
             244     17.7157E-03     10.2857E-03    -1.39529E+06     167.432E+06     103.381E+06     977.233E+03    -50.2616E-03     65.9791E-03    -15.7175E-03     270.041E-03    -58.0356E-03     74.0443E-03    -15.4413E-03     273.783E-03
             245     17.7170E-03     11.3105E-03    -1.69288E+06     168.600E+06     102.889E+06     1.16306E+06    -48.2310E-03     63.9071E-03    -15.6761E-03     283.103E-03    -56.6781E-03     72.6499E-03    -15.4037E-03     287.444E-03
             246     17.7162E-03     12.2935E-03    -86.1362E+03     170.925E+06     103.522E+06    -713.285E+03    -45.5776E-03     61.2816E-03    -15.7040E-03     284.912E-03    -54.3672E-03     70.3766E-03    -15.4341E-03     289.861E-03
             247     17.7190E-03     13.2855E-03    -2.47433E+06     171.342E+06     105.381E+06    -1.80738E+06    -47.0705E-03     62.7332E-03    -15.6627E-03     285.099E-03    -56.2466E-03     72.2048E-03    -15.3807E-03     290.332E-03
             248     17.7149E-03     14.3020E-03    -3.46823E+06     171.648E+06     104.697E+06     2.62932E+06    -46.7367E-03     62.4289E-03    -15.6922E-03     293.407E-03    -56.6289E-03     72.6156E-03    -15.4126E-03     299.233E-03
             249     17.7199E-03     15.2849E-03    -3.61309E+06     172.387E+06     103.580E+06     530.611E+03    -44.6931E-03     60.4261E-03    -15.7331E-03     303.763E-03    -55.3190E-03     71.3511E-03    -15.4599E-03     310.236E-03
             250     17.7160E-03     16.2903E-03    -7.52525E+06     170.471E+06     105.104E+06    -506.908E+03    -45.4851E-03     61.2422E-03    -15.7571E-03     309.593E-03    -56.6020E-03     72.6338E-03    -15.4678E-03     316.256E-03
             251     17.7178E-03     17.2830E-03    -7.01757E+06     171.281E+06     104.787E+06     3.10338E+06    -44.7098E-03     60.5161E-03    -15.8063E-03     315.528E-03    -56.2499E-03     72.3355E-03    -15.5205E-03     322.576E-03
             252     17.7169E-03     18.2697E-03    -1.65755E+06     176.070E+06     103.566E+06     2.30849E+06    -43.6851E-03     59.4327E-03    -15.7475E-03     317.830E-03    -55.4432E-03     71.5097E-03    -15.4826E-03     325.199E-03
             253     17.7217E-03     19.2668E-03     889.026E+03     178.918E+06     105.353E+06    -754.284E+03    -42.2341E-03     57.9579E-03    -15.7238E-03     320.027E-03    -54.2252E-03     70.2821E-03    -15.4578E-03     327.738E-03
             254     17.7175E-03     20.2541E-03    -4.21338E+06     176.095E+06     108.660E+06    -2.16238E+06    -41.0887E-03     56.9211E-03    -15.8324E-03     320.145E-03    -53.2415E-03     69.3687E-03    -15.5383E-03     328.183E-03
             255     17.7172E-03     21.2343E-03    -4.13202E+06     176.024E+06     106.040E+06     2.68693E+06    -41.4321E-03     57.2551E-03    -15.8230E-03     317.422E-03    -53.4538E-03     69.5793E-03    -15.5421E-03     325.492E-03
             256     17.7205E-03     22.2270E-03    -2.52893E+06     177.919E+06     105.687E+06     1.31943E+06    -41.3927E-03     57.1613E-03    -15.7687E-03     319.131E-03    -53.5706E-03     69.6559E-03    -15.4945E-03     327.321E-03
             257     17.7179E-03     23.2217E-03    -3.65232E+06     178.332E+06     107.423E+06    -273.066E+03    -38.4159E-03     54.2744E-03    -15.8585E-03     319.103E-03    -50.7982E-03     66.9654E-03    -15.5747E-03     327.881E-03
             258     17.7192E-03     24.1898E-03    -2.69299E+06     179.625E+06     107.108E+06     936.663E+03    -37.5982E-03     53.4735E-03    -15.8754E-03     318.820E-03    -49.9925E-03     66.1856E-03    -15.5964E-03     327.800E-03
             259     17.7190E-03     25.1879E-03    -1.39561E+06     181.604E+06     107.492E+06     603.772E+03    -38.8007E-03     54.6202E-03    -15.8195E-03     319.879E-03    -51.3018E-03     67.4501E-03    -15.5434E-03     328.748E-03
             260     17.7198E-03     26.1729E-03    -3.28113E+06     181.360E+06     106.880E+06    -358.306E+03    -37.3947E-03     53.2704E-03    -15.8757E-03     327.829E-03    -50.4765E-03     66.6747E-03    -15.5995E-03     337.180E-03
             261     17.7186E-03     27.1598E-03    -4.06374E+06     181.607E+06     106.249E+06     299.954E+03    -35.7001E-03     51.6233E-03    -15.9232E-03     330.990E-03    -48.9815E-03     65.2270E-03    -15.6494E-03     340.696E-03
             262     17.7204E-03     28.1324E-03    -1.61061E+06     184.061E+06     108.595E+06     733.987E+03    -34.5439E-03     50.4671E-03    -15.9232E-03     323.323E-03    -47.2944E-03     63.5504E-03    -15.6448E-03     332.959E-03
             263     17.7187E-03     29.1103E-03    -3.33286E+06     182.993E+06     108.906E+06     471.034E+03    -35.5873E-03     51.4882E-03    -15.9010E-03     316.373E-03    -47.9756E-03     64.1987E-03    -15.6169E-03     325.785E-03
             264     17.7189E-03     30.0977E-03    -1.99179E+06     184.959E+06     107.470E+06     1.85900E+06    -35.9349E-03     51.7996E-03    -15.8648E-03     316.544E-03    -48.4391E-03     64.6418E-03    -15.5927E-03     326.069E-03
             265     17.7212E-03     31.0809E-03     1.14858E+06     188.943E+06     108.289E+06    -22.2255E+03    -34.1296E-03     49.9928E-03    -15.8632E-03     322.866E-03    -47.0481E-03     63.2721E-03    -15.5974E-03     332.821E-03
             266     17.7204E-03     32.0685E-03    -2.62457E+06     186.639E+06     110.062E+06    -2.60505E+06    -33.4969E-03     49.4388E-03    -15.9419E-03     326.253E-03    -46.7272E-03     63.0032E-03    -15.6584E-03     336.418E-03
             267     17.7171E-03     33.0408E-03    -5.28891E+06     184.509E+06     109.410E+06     814.113E+03    -34.4611E-03     50.4436E-03    -15.9826E-03     324.729E-03    -47.6255E-03     63.9269E-03    -15.6954E-03     334.828E-03
             268     17.7200E-03     34.0237E-03    -4.42356E+06       185.6E+06     107.580E+06     2.27188E+06    -33.7107E-03     49.6732E-03    -15.9625E-03     323.037E-03    -46.7253E-03     63.0190E-03    -15.6873E-03     333.159E-03
             269     17.7192E-03     35.0082E-03    -3.81236E+06     187.020E+06     109.121E+06     237.717E+03    -32.6493E-03     48.6294E-03    -15.9801E-03     325.052E-03    -45.7642E-03     62.0783E-03    -15.7002E-03     335.338E-03
             270     17.7194E-03     35.9798E-03    -2.81477E+06     188.146E+06     110.681E+06    -128.749E+03    -33.3819E-03     49.3461E-03    -15.9642E-03     322.649E-03    -46.3813E-03     62.6825E-03    -15.6795E-03     332.838E-03
             271     17.7194E-03     36.9665E-03    -2.81344E+06     188.807E+06     110.871E+06     588.932E+03    -32.2492E-03     48.2330E-03    -15.9838E-03     321.090E-03    -45.2245E-03     61.5471E-03    -15.6991E-03     331.428E-03
             272     17.7193E-03     37.9429E-03    -2.82738E+06     189.569E+06     111.703E+06     476.268E+03    -32.2822E-03     48.2804E-03    -15.9981E-03     324.749E-03    -45.4117E-03     61.7490E-03    -15.7104E-03     335.169E-03
             273     17.7195E-03     38.9229E-03    -3.58493E+06     188.952E+06     111.449E+06     62.9633E+03    -32.7910E-03     48.7655E-03    -15.9745E-03     321.015E-03    -45.6913E-03     62.0010E-03    -15.6860E-03     331.277E-03
             274     17.7193E-03     39.9018E-03    -1.83185E+06     190.536E+06     112.437E+06     923.301E+03    -29.0955E-03     45.1380E-03    -16.0425E-03     312.250E-03    -41.4494E-03     57.8361E-03    -15.7539E-03     322.686E-03
             275     17.7195E-03     40.8629E-03    -2.63092E+06     189.203E+06     111.525E+06    -482.225E+03    -28.6095E-03     44.6390E-03    -16.0295E-03     302.546E-03    -40.2987E-03     56.6674E-03    -15.7424E-03     312.705E-03
             276     17.7191E-03     41.8456E-03    -4.86178E+06     187.316E+06     110.968E+06    -1.50097E+06    -32.0980E-03     48.0349E-03    -15.9369E-03     297.255E-03    -43.5575E-03     59.8206E-03    -15.6466E-03     306.894E-03
             277     17.7190E-03     42.8358E-03    -3.67713E+06     189.523E+06     112.912E+06     -743.04E+03    -32.5094E-03     48.4582E-03    -15.9487E-03     300.976E-03    -44.2366E-03     60.5178E-03    -15.6537E-03     310.703E-03
             278     17.7190E-03     43.8121E-03    -3.29504E+06     190.493E+06     113.372E+06     -498.78E+03    -31.5155E-03     47.4988E-03    -15.9833E-03     303.780E-03    -43.4288E-03     59.7478E-03    -15.6879E-03     313.755E-03
             279     17.7190E-03     44.7977E-03    -3.12407E+06     190.946E+06     113.434E+06    -159.354E+03    -31.1611E-03     47.1565E-03    -15.9954E-03     305.948E-03    -43.2272E-03     59.5604E-03    -15.7006E-03     316.049E-03
             280     17.7192E-03     45.7772E-03    -2.88012E+06     191.434E+06     113.595E+06     70.8961E+03    -30.2939E-03     46.3140E-03    -16.0201E-03     308.152E-03    -42.4978E-03     58.8578E-03    -15.7256E-03     318.416E-03
             281     17.7190E-03     46.7555E-03    -2.99759E+06     191.420E+06     113.388E+06     91.2401E+03    -29.7388E-03     45.7733E-03    -16.0345E-03     308.691E-03    -41.9766E-03     58.3511E-03    -15.7408E-03     319.048E-03
             282     17.7192E-03     47.7351E-03    -2.92490E+06     191.580E+06     113.465E+06     64.6919E+03    -29.7629E-03     45.7998E-03    -16.0369E-03     309.179E-03    -42.0239E-03     58.4014E-03    -15.7431E-03     319.525E-03
             283     17.7190E-03     48.7133E-03    -3.05139E+06     191.793E+06     113.744E+06    -1.03705E+03    -29.9807E-03     46.0158E-03    -16.0351E-03     309.477E-03    -42.2712E-03     58.6465E-03    -15.7401E-03     319.818E-03
             284     17.7191E-03     49.6928E-03    -2.96383E+06     191.967E+06     113.798E+06     56.8029E+03    -29.9068E-03     45.9412E-03    -16.0343E-03     308.678E-03    -42.1680E-03     58.5432E-03    -15.7394E-03     319.035E-03
             285     17.7190E-03     50.6702E-03    -2.94577E+06     192.342E+06     113.836E+06     85.4344E+03    -29.8899E-03     45.9215E-03    -16.0316E-03     308.818E-03    -42.1628E-03     58.5366E-03    -15.7371E-03     319.197E-03
             286     17.7193E-03     51.6511E-03    -3.13867E+06     192.744E+06     113.978E+06     79.2264E+03    -30.1692E-03     46.1961E-03    -16.0269E-03     310.097E-03    -42.5220E-03     58.8914E-03    -15.7319E-03     320.475E-03
             287     17.7190E-03     52.6308E-03    -2.54464E+06     193.378E+06     114.470E+06     340.063E+03    -29.6590E-03     45.7012E-03    -16.0421E-03     310.620E-03    -42.0493E-03     58.4369E-03    -15.7465E-03     321.071E-03
             288     17.7193E-03     53.6068E-03    -2.99720E+06     193.014E+06     113.705E+06     82.6415E+03    -29.2075E-03     45.2550E-03    -16.0474E-03     310.147E-03    -41.5684E-03     57.9607E-03    -15.7544E-03     320.648E-03
             289     17.7191E-03     54.5857E-03    -3.06642E+06     193.130E+06     113.238E+06    -100.156E+03    -29.5813E-03     45.6051E-03    -16.0238E-03     309.385E-03    -41.8919E-03     58.2620E-03    -15.7332E-03     319.818E-03
             290     17.7199E-03     55.5637E-03    -2.37807E+06     194.083E+06     113.652E+06     421.125E+03    -29.7570E-03     45.7636E-03    -16.0065E-03     309.367E-03    -42.0688E-03     58.4262E-03    -15.7163E-03     319.792E-03
             291     17.7194E-03     56.5445E-03    -3.46586E+06     194.626E+06     114.668E+06     492.282E+03    -29.8249E-03     45.8532E-03    -16.0283E-03     308.861E-03    -42.2218E-03     58.5962E-03    -15.7322E-03     319.380E-03
             292     885.929E-06     57.3763E-03    -15.8021E+06    -73.0482E+06    -15.4433E+06     46.2362E+03    -15.9290E-03     31.8735E-03    -15.9445E-03     3.46105E-03    -15.8797E-03     31.5538E-03    -15.8929E-03     3.46108E-03
             293     1.77147E-03     57.3804E-03    -15.2739E+06    -72.2206E+06    -13.6840E+06     140.278E+03    -15.9135E-03     31.8504E-03    -15.9369E-03     6.36929E-03    -15.8654E-03     31.5314E-03    -15.8785E-03     6.37006E-03
             294     2.65759E-03     57.3880E-03    -14.3775E+06    -70.7694E+06    -11.2670E+06     234.234E+03    -15.9153E-03     31.8508E-03    -15.9355E-03     9.52972E-03    -15.8684E-03     31.5344E-03    -15.8684E-03     9.53117E-03
             295     3.54326E-03     57.3982E-03    -13.2715E+06    -69.0953E+06    -8.52516E+06     341.200E+03    -15.9314E-03     31.8702E-03    -15.9388E-03     12.7675E-03    -15.8856E-03     31.5567E-03    -15.8620E-03     12.7698E-03
             296     4.42931E-03     57.4117E-03    -12.0603E+06    -67.6580E+06    -6.10102E+06     349.848E+03    -15.9540E-03     31.8969E-03    -15.9429E-03     16.1493E-03    -15.9079E-03     31.5855E-03    -15.8578E-03     16.1510E-03
             297     5.31494E-03     57.4283E-03    -10.8007E+06    -66.4449E+06    -4.05846E+06     555.844E+03    -15.9690E-03     31.9140E-03    -15.9450E-03     19.6612E-03    -15.9216E-03     31.6042E-03    -15.8533E-03     19.6647E-03
             298     6.20109E-03     57.4483E-03    -9.60923E+06    -65.5051E+06    -2.19991E+06     682.669E+03    -16.0099E-03     31.9564E-03    -15.9465E-03     23.3198E-03    -15.9611E-03     31.6473E-03    -15.8486E-03     23.3241E-03
             299     7.08664E-03     57.4716E-03    -8.54141E+06    -64.9881E+06    -614.263E+03     860.388E+03    -16.0703E-03     32.0193E-03    -15.9490E-03     27.1295E-03    -16.0199E-03     31.7096E-03    -15.8455E-03     27.1348E-03
             300     7.97291E-03     57.4988E-03    -7.58173E+06    -64.8028E+06     560.423E+03     952.474E+03    -16.1228E-03     32.0737E-03    -15.9509E-03     31.0995E-03    -16.0706E-03     31.7629E-03    -15.8431E-03     31.1044E-03
             301     8.85828E-03     57.5295E-03    -6.79508E+06    -64.7903E+06     1.60712E+06     713.482E+03    -16.1605E-03     32.1115E-03    -15.9510E-03     35.2340E-03    -16.1074E-03     31.7996E-03    -15.8392E-03     35.2337E-03
             302     9.74480E-03     57.5644E-03    -5.76794E+06    -64.9445E+06     1.85410E+06     761.153E+03    -16.2286E-03     32.1740E-03    -15.9455E-03     39.3899E-03    -16.1728E-03     31.8619E-03    -15.8337E-03     39.3871E-03
             303     10.6301E-03     57.6026E-03    -5.26127E+06    -60.8251E+06    -1.76039E+06     769.101E+03    -16.3037E-03     32.2185E-03    -15.9148E-03     43.7421E-03    -16.2500E-03     31.9353E-03    -15.8278E-03     43.7353E-03
             304     11.5166E-03     57.6457E-03    -5.10660E+06    -48.0428E+06    -771.247E+03     809.501E+03    -16.3268E-03     32.2200E-03    -15.8933E-03     48.2023E-03    -16.2982E-03     32.0050E-03    -15.8200E-03     48.1909E-03
             305     12.4021E-03     57.6921E-03    -4.82399E+06    -37.9802E+06     569.239E+03     623.949E+03    -16.5246E-03     32.4023E-03    -15.8777E-03     54.8200E-03    -16.5228E-03     32.2469E-03    -15.8128E-03     54.7990E-03
             306     13.2886E-03     57.7476E-03    -5.32940E+06    -33.8298E+06    -7.09276E+06     348.988E+03    -16.5920E-03     32.4223E-03    -15.8303E-03     56.8316E-03    -16.6030E-03     32.3148E-03    -15.8090E-03     56.7994E-03
             307     14.1724E-03     57.7964E-03    -3.99270E+06    -18.7624E+06    -9.93587E+06     363.248E+03    -16.1271E-03     31.8998E-03    -15.7728E-03     61.0660E-03    -16.1803E-03     31.9011E-03    -15.7894E-03     61.0300E-03
             308     15.0634E-03     57.8597E-03    -5.47507E+06     21.6447E+06    -14.9097E+06     1.08706E+06    -17.7886E-03     33.4509E-03    -15.6624E-03     97.8545E-03    -18.1022E-03     33.8652E-03    -15.7604E-03     97.8443E-03
             309     15.9449E-03     57.9793E-03      -8.429E+06     89.9991E+06    -10.8437E+06     488.027E+03    -22.5109E-03     38.0851E-03    -15.5743E-03     179.414E-03    -24.7966E-03     40.6919E-03    -15.7468E-03     180.138E-03
             310     16.8327E-03     58.1971E-03    -5.41350E+06     163.155E+06     56.4995E+06    -212.162E+03    -27.5364E-03     43.3179E-03    -15.7815E-03     271.501E-03    -35.8017E-03     51.9793E-03    -15.7277E-03     277.446E-03
             311     885.663E-06     58.3546E-03    -15.9249E+06    -73.2749E+06    -15.4424E+06     66.4853E+03    -15.8894E-03     31.8580E-03    -15.9686E-03     3.36718E-03    -15.8404E-03     31.5373E-03    -15.9165E-03     3.36750E-03
             312     1.77185E-03     58.3593E-03    -15.2423E+06    -72.3951E+06    -13.6645E+06     178.005E+03    -15.9149E-03     31.8461E-03    -15.9312E-03     6.38161E-03    -15.8664E-03     31.5261E-03    -15.8724E-03     6.38287E-03
             313     2.65737E-03     58.3665E-03    -14.3605E+06    -70.9159E+06    -11.1325E+06     262.802E+03    -15.9303E-03     31.8651E-03    -15.9348E-03     9.52497E-03    -15.8833E-03     31.5477E-03    -15.8668E-03     9.52679E-03
             314     3.54345E-03     58.3769E-03    -13.2492E+06    -69.2778E+06    -8.44669E+06     293.293E+03    -15.9408E-03     31.8823E-03    -15.9415E-03     12.7740E-03    -15.8947E-03     31.5677E-03    -15.8641E-03     12.7757E-03
             315     4.42907E-03     58.3903E-03    -12.0379E+06    -67.7926E+06    -5.93372E+06     402.575E+03    -15.9564E-03     31.9031E-03    -15.9468E-03     16.1419E-03    -15.9102E-03     31.5908E-03    -15.8607E-03     16.1443E-03
             316     5.31517E-03     58.4069E-03    -10.8692E+06    -66.6648E+06    -3.94166E+06     408.223E+03    -15.9775E-03     31.9268E-03    -15.9493E-03     19.6555E-03    -15.9303E-03     31.6158E-03    -15.8566E-03     19.6572E-03
             317     6.20078E-03     58.4268E-03    -9.65678E+06    -65.7710E+06    -2.29126E+06     585.867E+03    -16.0199E-03     31.9705E-03    -15.9506E-03     23.3307E-03    -15.9709E-03     31.6603E-03    -15.8527E-03     23.3337E-03
             318     7.08695E-03     58.4504E-03    -8.53448E+06    -65.2141E+06    -775.854E+03     768.735E+03    -16.0779E-03     32.0311E-03    -15.9532E-03     27.1476E-03    -16.0269E-03     31.7205E-03    -15.8501E-03     27.1517E-03
             319     7.97238E-03     58.4773E-03    -7.49688E+06    -64.8993E+06     497.189E+03     888.822E+03    -16.1249E-03     32.0801E-03    -15.9552E-03     31.1131E-03    -16.0721E-03     31.7688E-03    -15.8477E-03     31.1171E-03
             320     8.85880E-03     58.5083E-03    -6.60185E+06    -64.7110E+06     1.87371E+06     910.031E+03    -16.1417E-03     32.0970E-03    -15.9553E-03     35.1489E-03    -16.0881E-03     31.7848E-03    -15.8425E-03     35.1510E-03
             321     9.74425E-03     58.5426E-03    -5.98803E+06    -65.2679E+06     1.87767E+06     587.335E+03    -16.1922E-03     32.1392E-03    -15.9471E-03     39.3227E-03    -16.1371E-03     31.8258E-03    -15.8344E-03     39.3177E-03
             322     10.6307E-03     58.5816E-03    -5.34912E+06    -60.8634E+06    -1.55450E+06     597.092E+03    -16.3024E-03     32.2176E-03    -15.9152E-03     43.6943E-03    -16.2494E-03     31.9341E-03    -15.8270E-03     43.6852E-03
             323     11.5161E-03     58.6237E-03    -4.94581E+06    -47.9127E+06    -187.849E+03     796.770E+03    -16.3184E-03     32.2132E-03    -15.8948E-03     48.0992E-03    -16.2901E-03     31.9979E-03    -15.8191E-03     48.0876E-03
             324     12.4027E-03     58.6712E-03    -4.22711E+06    -37.2223E+06     1.61224E+06     529.687E+03    -16.3646E-03     32.2392E-03    -15.8745E-03     54.6655E-03    -16.3624E-03     32.0851E-03    -15.8064E-03     54.6436E-03
             325     13.2884E-03     58.7252E-03    -3.56466E+06    -34.2661E+06    -5.45969E+06     752.094E+03    -16.0500E-03     31.8578E-03    -15.8079E-03     56.2832E-03    -16.0525E-03     31.7418E-03    -15.7803E-03     56.2578E-03
             326     14.1767E-03     58.7760E-03    -4.86638E+06    -18.8725E+06    -10.3667E+06     377.805E+03    -17.0143E-03     32.7688E-03    -15.7545E-03     61.3218E-03    -17.0749E-03     32.7752E-03    -15.7719E-03     61.2815E-03
             327     15.0584E-03     58.8363E-03    -5.91032E+06     23.8360E+06    -13.9221E+06     1.07026E+06    -18.0626E-03     33.7480E-03    -15.6854E-03     96.6032E-03    -18.3752E-03     34.1648E-03    -15.7810E-03     96.5940E-03
             328     15.9482E-03     58.9604E-03    -4.96794E+06     89.4227E+06    -12.9296E+06     1.70956E+06    -21.5246E-03     37.0831E-03    -15.5585E-03     179.840E-03    -23.8076E-03     39.7035E-03    -15.7456E-03     180.599E-03
             329     16.8344E-03     59.1725E-03    -3.54875E+06     162.311E+06     54.3262E+06     367.383E+03    -28.1349E-03     43.8851E-03    -15.7502E-03     272.272E-03    -36.3763E-03     52.5325E-03    -15.7088E-03     278.221E-03
             330     885.981E-06     59.3334E-03    -15.7718E+06    -73.4436E+06    -15.4834E+06     54.2903E+03    -15.8880E-03     31.8466E-03    -15.9586E-03     3.32399E-03    -15.8379E-03     31.5249E-03    -15.9066E-03     3.32417E-03
             331     1.77147E-03     59.3378E-03    -15.3068E+06    -72.6376E+06    -13.5608E+06     196.628E+03    -15.9238E-03     31.8528E-03    -15.9290E-03     6.37767E-03    -15.8754E-03     31.5316E-03    -15.8693E-03     6.37916E-03
             332     2.65764E-03     59.3453E-03    -14.2843E+06     -71.062E+06    -11.0312E+06     285.019E+03    -15.9360E-03     31.8722E-03    -15.9361E-03     9.51645E-03    -15.8886E-03     31.5538E-03    -15.8675E-03     9.51855E-03
             333     3.54320E-03     59.3555E-03    -13.2369E+06    -69.3710E+06    -8.32857E+06     377.405E+03    -15.9449E-03     31.8889E-03    -15.9440E-03     12.7785E-03    -15.8988E-03     31.5736E-03    -15.8658E-03     12.7812E-03
             334     4.42930E-03     59.3690E-03    -12.0884E+06    -67.9354E+06    -5.91556E+06     402.280E+03    -15.9567E-03     31.9058E-03    -15.9490E-03     16.1432E-03    -15.9106E-03     31.5928E-03    -15.8626E-03     16.1455E-03
             335     5.31492E-03     59.3855E-03    -10.9262E+06    -66.7308E+06    -3.74854E+06     460.206E+03    -15.9942E-03     31.9476E-03    -15.9534E-03     19.6598E-03    -15.9476E-03     31.6361E-03    -15.8595E-03     19.6621E-03
             336     6.20101E-03     59.4056E-03    -9.84675E+06    -66.0223E+06    -2.15301E+06     452.982E+03    -16.0307E-03     31.9872E-03    -15.9566E-03     23.3281E-03    -15.9824E-03     31.6759E-03    -15.8573E-03     23.3294E-03
             337     7.08658E-03     59.4289E-03    -8.65195E+06    -65.5741E+06    -945.990E+03     608.912E+03    -16.0605E-03     32.0173E-03    -15.9568E-03     27.1487E-03    -16.0093E-03     31.7054E-03    -15.8539E-03     27.1508E-03
             338     7.97288E-03     59.4562E-03    -7.58481E+06    -65.0296E+06     529.414E+03     762.142E+03    -16.1215E-03     32.0793E-03    -15.9578E-03     31.1151E-03    -16.0689E-03     31.7674E-03    -15.8499E-03     31.1175E-03
             339     8.85824E-03     59.4867E-03    -6.76486E+06    -64.7870E+06     1.95998E+06     944.957E+03    -16.1915E-03     32.1518E-03    -15.9603E-03     35.0942E-03    -16.1388E-03     31.8394E-03    -15.8468E-03     35.0966E-03
             340     9.74461E-03     59.5215E-03    -6.04599E+06    -64.7236E+06     2.06901E+06     806.250E+03    -16.2343E-03     32.1900E-03    -15.9557E-03     39.1945E-03    -16.1807E-03     31.8791E-03    -15.8427E-03     39.1921E-03
             341     10.6302E-03     59.5596E-03    -5.70587E+06    -60.7076E+06    -1.76433E+06     497.383E+03    -16.2659E-03     32.1888E-03    -15.9229E-03     43.5115E-03    -16.2146E-03     31.9068E-03    -15.8354E-03     43.5011E-03
             342     11.5165E-03     59.6030E-03    -5.04310E+06    -48.3326E+06    -889.983E+03     554.679E+03    -16.3794E-03     32.2803E-03    -15.9010E-03     47.9148E-03    -16.3502E-03     32.0643E-03    -15.8280E-03     47.8998E-03
             343     12.4020E-03     59.6487E-03    -5.08200E+06    -37.5991E+06     506.004E+03     864.131E+03    -16.2211E-03     32.0982E-03    -15.8771E-03     54.1259E-03    -16.2203E-03     31.9444E-03    -15.8127E-03     54.1088E-03
             344     13.2886E-03     59.7046E-03    -5.06034E+06    -33.2054E+06    -5.82620E+06     561.783E+03    -16.4043E-03     32.2251E-03    -15.8208E-03     55.3252E-03    -16.4158E-03     32.1176E-03    -15.7944E-03     55.2956E-03
             345     14.1749E-03     59.7504E-03    -5.85476E+06    -18.6182E+06    -10.6992E+06     869.455E+03    -16.8614E-03     32.6361E-03    -15.7747E-03     61.6577E-03    -16.9253E-03     32.6443E-03    -15.7927E-03     61.6245E-03
             346     15.0589E-03     59.8258E-03    -4.33481E+06     21.4127E+06    -13.0033E+06     1.03659E+06    -17.4265E-03     33.1156E-03    -15.6891E-03     95.9524E-03    -17.7244E-03     33.5122E-03    -15.7789E-03     95.9432E-03
             347     15.9470E-03     59.9221E-03    -3.60156E+06     89.4118E+06    -7.78575E+06     943.913E+03    -22.4605E-03     38.0462E-03    -15.5857E-03     180.085E-03    -24.7500E-03     40.6631E-03    -15.7491E-03     180.794E-03
             348     16.8340E-03     60.1661E-03    -4.23597E+06     163.895E+06     56.5432E+06     1.08075E+06    -28.2993E-03     44.0920E-03    -15.7927E-03     271.806E-03    -36.5135E-03     52.7088E-03    -15.7415E-03     277.828E-03
             349     885.689E-06     60.3119E-03    -16.0362E+06    -73.7172E+06    -15.4078E+06     146.326E+03    -15.9054E-03     31.8356E-03    -15.9302E-03     3.35897E-03    -15.8563E-03     31.5128E-03    -15.8771E-03     3.36034E-03
             350     1.77184E-03     60.3166E-03    -15.2853E+06    -72.7869E+06    -13.5579E+06     240.770E+03    -15.9391E-03     31.8669E-03    -15.9277E-03     6.38447E-03    -15.8905E-03     31.5449E-03    -15.8678E-03     6.38653E-03
             351     2.65734E-03     60.3238E-03    -14.3619E+06    -71.2770E+06    -11.0151E+06     325.936E+03    -15.9320E-03     31.8704E-03    -15.9384E-03     9.53111E-03    -15.8847E-03     31.5510E-03    -15.8693E-03     9.53372E-03
             352     3.54347E-03     60.3343E-03    -13.1761E+06    -69.5452E+06    -8.22573E+06     466.811E+03    -15.9433E-03     31.8884E-03    -15.9451E-03     12.7782E-03    -15.8968E-03     31.5721E-03    -15.8663E-03     12.7821E-03
             353     4.42906E-03     60.3475E-03    -12.0357E+06    -68.0044E+06    -5.65684E+06     502.058E+03    -15.9706E-03     31.9223E-03    -15.9517E-03     16.1444E-03    -15.9245E-03     31.6085E-03    -15.8640E-03     16.1480E-03
             354     5.31513E-03     60.3643E-03    -10.9250E+06    -66.9202E+06    -3.62802E+06     529.860E+03    -16.0023E-03     31.9596E-03    -15.9573E-03     19.6715E-03    -15.9555E-03     31.6470E-03    -15.8626E-03     19.6747E-03
             355     6.20072E-03     60.3841E-03    -9.85256E+06    -66.0354E+06    -1.81090E+06     579.216E+03    -16.0342E-03     31.9959E-03    -15.9618E-03     23.3255E-03    -15.9864E-03     31.6840E-03    -15.8608E-03     23.3284E-03
             356     7.08688E-03     60.4077E-03    -8.90462E+06    -65.7939E+06    -743.194E+03     466.132E+03    -16.0742E-03     32.0369E-03    -15.9627E-03     27.1202E-03    -16.0243E-03     31.7240E-03    -15.8581E-03     27.1204E-03
             357     7.97239E-03     60.4345E-03    -7.95852E+06    -65.5567E+06     260.960E+03     723.532E+03    -16.1195E-03     32.0819E-03    -15.9624E-03     31.0713E-03    -16.0677E-03     31.7683E-03    -15.8545E-03     31.0732E-03
             358     8.85873E-03     60.4657E-03    -6.92202E+06    -64.8667E+06     1.84785E+06     866.782E+03    -16.2162E-03     32.1817E-03    -15.9654E-03     35.1123E-03    -16.1641E-03     31.8693E-03    -15.8521E-03     35.1137E-03
             359     9.74406E-03     60.4997E-03    -6.07459E+06    -64.2422E+06     1.74249E+06     916.160E+03    -16.3183E-03     32.2814E-03    -15.9631E-03     39.1930E-03    -16.2651E-03     31.9735E-03    -15.8524E-03     39.1919E-03
             360     10.6302E-03     60.5388E-03    -5.46785E+06    -60.2137E+06    -1.95313E+06     702.190E+03    -16.3930E-03     32.3316E-03    -15.9386E-03     43.4132E-03    -16.3411E-03     32.0522E-03    -15.8531E-03     43.4052E-03
             361     11.5160E-03     60.5805E-03    -5.58470E+06    -49.0723E+06    -2.12068E+06     557.706E+03    -16.3079E-03     32.2235E-03    -15.9156E-03     47.8220E-03    -16.2784E-03     32.0061E-03    -15.8470E-03     47.8072E-03
             362     12.4019E-03     60.6290E-03    -5.04385E+06    -37.7390E+06    -235.239E+03     895.111E+03    -16.3862E-03     32.2810E-03    -15.8948E-03     53.5591E-03    -16.3839E-03     32.1275E-03    -15.8339E-03     53.5420E-03
             363     13.2891E-03     60.6792E-03    -5.63396E+06    -32.4937E+06    -6.34690E+06     550.127E+03    -16.8624E-03     32.7204E-03    -15.8580E-03     56.4524E-03    -16.8790E-03     32.6200E-03    -15.8344E-03     56.4214E-03
             364     14.1706E-03     60.7374E-03    -4.83096E+06    -20.6705E+06    -10.6878E+06     474.462E+03    -15.8209E-03     31.6179E-03    -15.7970E-03     60.8975E-03    -15.8722E-03     31.6098E-03    -15.8135E-03     60.8640E-03
             365     15.0648E-03     60.7892E-03    -5.90718E+06     19.3478E+06    -16.9284E+06     489.225E+03    -17.8847E-03     33.5595E-03    -15.6748E-03     96.1005E-03    -18.1944E-03     33.9662E-03    -15.7789E-03     96.0772E-03
             366     15.9465E-03     60.9187E-03    -7.08368E+06     91.2477E+06    -10.2926E+06     589.766E+03    -22.7772E-03     38.3806E-03    -15.6034E-03     178.766E-03    -25.0382E-03     40.9702E-03    -15.7769E-03     179.482E-03
             367     16.8292E-03     61.1288E-03    -4.52097E+06     165.757E+06     58.6640E+06     880.138E+03    -27.8412E-03     43.6606E-03    -15.8194E-03     275.239E-03    -36.3532E-03     52.5748E-03    -15.7599E-03     281.271E-03
             368     886.017E-06     61.2907E-03    -16.0215E+06    -73.9422E+06    -15.7019E+06     194.659E+03    -15.8933E-03     31.8396E-03    -15.9462E-03     3.39734E-03    -15.8434E-03     31.5161E-03    -15.8943E-03     3.39931E-03
             369     1.77148E-03     61.2950E-03    -15.4984E+06    -73.0723E+06    -13.7453E+06     275.896E+03    -15.9327E-03     31.8608E-03    -15.9281E-03     6.36553E-03    -15.8844E-03     31.5379E-03    -15.8683E-03     6.36805E-03
             370     2.65763E-03     61.3026E-03    -14.4667E+06    -71.4951E+06    -11.0656E+06     380.423E+03    -15.9332E-03     31.8710E-03    -15.9378E-03     9.53245E-03    -15.8860E-03     31.5507E-03    -15.8685E-03     9.53576E-03
             371     3.54321E-03     61.3127E-03    -13.3296E+06    -69.7240E+06    -8.25061E+06     459.164E+03    -15.9493E-03     31.8950E-03    -15.9458E-03     12.7873E-03    -15.9032E-03     31.5781E-03    -15.8666E-03     12.7910E-03
             372     4.42928E-03     61.3264E-03    -12.0653E+06    -68.2108E+06    -5.73937E+06     622.767E+03    -15.9779E-03     31.9311E-03    -15.9533E-03     16.1588E-03    -15.9315E-03     31.6165E-03    -15.8656E-03     16.1640E-03
             373     5.31488E-03     61.3428E-03    -10.9694E+06    -67.0397E+06    -3.55490E+06     700.175E+03    -16.0034E-03     31.9634E-03    -15.9600E-03     19.6725E-03    -15.9568E-03     31.6502E-03    -15.8646E-03     19.6779E-03
             374     6.20099E-03     61.3630E-03    -9.90379E+06    -66.1590E+06    -1.82193E+06     696.311E+03    -16.0411E-03     32.0054E-03    -15.9643E-03     23.3283E-03    -15.9934E-03     31.6930E-03    -15.8631E-03     23.3327E-03
             375     7.08655E-03     61.3861E-03     -9.0153E+06    -65.7878E+06    -486.184E+03     754.782E+03    -16.0986E-03     32.0667E-03    -15.9681E-03     27.1275E-03    -16.0496E-03     31.7536E-03    -15.8621E-03     27.1313E-03
             376     7.97267E-03     61.4135E-03    -8.22878E+06    -65.9029E+06     216.588E+03     711.950E+03    -16.1509E-03     32.1207E-03    -15.9698E-03     31.0576E-03    -16.0998E-03     31.8059E-03    -15.8613E-03     31.0592E-03
             377     8.85821E-03     61.4438E-03    -7.30302E+06    -65.4170E+06     1.09295E+06     789.038E+03    -16.1997E-03     32.1697E-03    -15.9700E-03     35.1330E-03    -16.1475E-03     31.8562E-03    -15.8591E-03     35.1334E-03
             378     9.74443E-03     61.4792E-03    -6.44103E+06    -64.6049E+06     1.24748E+06     821.873E+03    -16.3525E-03     32.3212E-03    -15.9686E-03     39.2713E-03    -16.2999E-03     32.0127E-03    -15.8594E-03     39.2690E-03
             379     10.6300E-03     61.5166E-03    -6.00970E+06    -59.9288E+06    -2.50103E+06     755.968E+03    -16.5021E-03     32.4505E-03    -15.9484E-03     43.5666E-03    -16.4527E-03     32.1742E-03    -15.8653E-03     43.5591E-03
             380     11.5154E-03     61.5607E-03    -5.70725E+06    -48.4381E+06    -1.84104E+06     622.457E+03    -16.3293E-03     32.2623E-03    -15.9330E-03     47.5263E-03    -16.3017E-03     32.0478E-03    -15.8637E-03     47.5123E-03
             381     12.4027E-03     61.6045E-03    -5.28870E+06    -37.5065E+06    -196.962E+03     353.920E+03    -16.6610E-03     32.5815E-03    -15.9204E-03     54.2364E-03    -16.6615E-03     32.4306E-03    -15.8594E-03     54.2113E-03
             382     13.2853E-03     61.6631E-03    -4.28419E+06    -33.7315E+06    -6.08675E+06     579.352E+03    -16.1571E-03     32.0257E-03    -15.8685E-03     56.4123E-03    -16.1641E-03     31.9152E-03    -15.8438E-03     56.3841E-03
             383     14.1778E-03     61.7087E-03    -5.51331E+06    -20.9659E+06    -12.5995E+06     466.046E+03    -16.6249E-03     32.4244E-03    -15.7995E-03     60.0996E-03    -16.6799E-03     32.4219E-03    -15.8241E-03     60.0619E-03
             384     15.0571E-03     61.7732E-03    -6.43560E+06     22.7969E+06    -16.6759E+06     130.091E+03    -19.3258E-03     35.0731E-03    -15.7472E-03     96.9098E-03    -19.6508E-03     35.5046E-03    -15.8543E-03     96.8785E-03
             385     15.9426E-03     61.8957E-03    -6.85546E+06     89.5135E+06    -13.4992E+06     566.521E+03    -21.8968E-03     37.5890E-03    -15.6922E-03     173.731E-03    -24.0633E-03     40.0877E-03    -15.8795E-03     174.466E-03
             386     16.8395E-03     62.1026E-03    -4.80814E+06     163.636E+06     53.9488E+06     1.31150E+06    -26.7608E-03     42.6274E-03    -15.8666E-03     272.534E-03    -35.3210E-03     51.5953E-03    -15.8272E-03     278.668E-03
             387     885.639E-06     62.2692E-03    -16.2046E+06    -74.3075E+06    -15.8414E+06     86.0173E+03    -15.8840E-03     31.8454E-03    -15.9615E-03     3.44866E-03    -15.8342E-03     31.5205E-03    -15.9094E-03     3.44921E-03
             388     1.77182E-03     62.2739E-03    -15.5300E+06    -73.3086E+06    -13.8586E+06     306.902E+03    -15.9252E-03     31.8538E-03    -15.9286E-03     6.38252E-03    -15.8765E-03     31.5300E-03    -15.8691E-03     6.38544E-03
             389     2.65737E-03     62.2810E-03    -14.6123E+06    -71.7523E+06    -11.2236E+06     370.018E+03    -15.9382E-03     31.8753E-03    -15.9371E-03     9.53271E-03    -15.8912E-03     31.5542E-03    -15.8680E-03     9.53589E-03
             390     3.54344E-03     62.2916E-03    -13.4326E+06    -69.9242E+06    -8.43182E+06     524.826E+03    -15.9553E-03     31.9017E-03    -15.9464E-03     12.7982E-03    -15.9092E-03     31.5841E-03    -15.8677E-03     12.8028E-03
             391     4.42906E-03     62.3048E-03    -12.2452E+06    -68.5186E+06    -5.91512E+06     610.194E+03    -15.9772E-03     31.9318E-03    -15.9546E-03     16.1652E-03    -15.9311E-03     31.6161E-03    -15.8671E-03     16.1702E-03
             392     5.31511E-03     62.3218E-03    -10.9167E+06    -67.2231E+06    -3.73694E+06     780.834E+03    -16.0065E-03     31.9671E-03    -15.9606E-03     19.6699E-03    -15.9591E-03     31.6531E-03    -15.8660E-03     19.6763E-03
             393     6.20072E-03     62.3413E-03    -9.90617E+06    -66.3094E+06    -1.95546E+06     904.088E+03    -16.0512E-03     32.0170E-03    -15.9658E-03     23.3421E-03    -16.0031E-03     31.7040E-03    -15.8651E-03     23.3492E-03
             394     7.08679E-03     62.3652E-03    -8.97555E+06    -65.9567E+06    -598.026E+03     957.266E+03    -16.1045E-03     32.0749E-03    -15.9704E-03     27.1382E-03    -16.0549E-03     31.7611E-03    -15.8648E-03     27.1447E-03
             395     7.97240E-03     62.3917E-03    -8.02872E+06    -65.7187E+06     534.068E+03     843.798E+03    -16.1721E-03     32.1467E-03    -15.9746E-03     31.0959E-03    -16.1208E-03     31.8320E-03    -15.8650E-03     31.0992E-03
             396     8.85841E-03     62.4232E-03    -7.34259E+06    -65.4941E+06     1.17815E+06     727.781E+03    -16.2365E-03     32.2132E-03    -15.9767E-03     35.1360E-03    -16.1845E-03     31.8993E-03    -15.8652E-03     35.1356E-03
             397     9.74415E-03     62.4568E-03    -6.64614E+06    -64.7719E+06     1.10206E+06     749.998E+03    -16.3564E-03     32.3323E-03    -15.9759E-03     39.4006E-03    -16.3044E-03     32.0236E-03    -15.8668E-03     39.3973E-03
             398     10.6298E-03     62.4970E-03    -6.04478E+06    -60.2682E+06    -2.64988E+06     663.634E+03    -16.3789E-03     32.3291E-03    -15.9502E-03     43.5145E-03    -16.3287E-03     32.0512E-03    -15.8673E-03     43.5061E-03
             399     11.5163E-03     62.5375E-03    -5.42074E+06     -47.925E+06    -1.82688E+06     486.818E+03    -16.5385E-03     32.4748E-03    -15.9364E-03     47.7360E-03    -16.5106E-03     32.2628E-03    -15.8681E-03     47.7197E-03
             400     12.4004E-03     62.5855E-03    -4.99569E+06    -38.0912E+06    -604.694E+03     427.949E+03    -16.3995E-03     32.3205E-03    -15.9210E-03     54.6463E-03    -16.3965E-03     32.1662E-03    -15.8615E-03     54.6232E-03
             401     13.2898E-03     62.6393E-03    -4.54146E+06    -34.3054E+06    -7.11461E+06     338.932E+03    -16.4762E-03     32.3444E-03    -15.8682E-03     55.4761E-03    -16.4816E-03     32.2325E-03    -15.8474E-03     55.4437E-03
             402     14.1719E-03     62.6867E-03    -5.91391E+06    -18.2811E+06    -11.7273E+06     751.792E+03    -17.6481E-03     33.4928E-03    -15.8447E-03     61.4537E-03    -17.7147E-03     33.5076E-03    -15.8683E-03     61.4157E-03
             403     15.0581E-03     62.7591E-03    -6.84902E+06     21.8290E+06    -15.5421E+06     1.00794E+06    -18.3290E-03     34.1263E-03    -15.7972E-03     98.1676E-03    -18.6460E-03     34.5415E-03    -15.8967E-03     98.1558E-03
             404     15.9452E-03     62.8676E-03    -5.97608E+06     88.4532E+06    -12.3239E+06     927.936E+03    -23.2191E-03     38.9497E-03    -15.7306E-03     178.202E-03    -25.4777E-03     41.5361E-03    -15.9118E-03     178.860E-03
             405     16.8176E-03     63.0868E-03    -4.05767E+06     164.752E+06     54.2825E+06     751.955E+03    -27.0697E-03     42.9963E-03    -15.9267E-03     273.100E-03    -35.4399E-03     51.7798E-03    -15.8883E-03     279.321E-03
             406     886.000E-06     63.2480E-03    -16.2522E+06    -74.4922E+06    -15.7613E+06     122.370E+03    -15.8762E-03     31.8363E-03    -15.9601E-03     3.45654E-03    -15.8266E-03     31.5105E-03    -15.9073E-03     3.45756E-03
             407     1.77154E-03     63.2523E-03    -15.5680E+06    -73.5287E+06    -13.9890E+06     155.889E+03    -15.9353E-03     31.8617E-03    -15.9264E-03     6.38781E-03    -15.8863E-03     31.5370E-03    -15.8672E-03     6.38877E-03
             408     2.65759E-03     63.2600E-03    -14.5700E+06    -72.0498E+06    -11.4611E+06     383.721E+03    -15.9432E-03     31.8809E-03    -15.9377E-03     9.53733E-03    -15.8952E-03     31.5586E-03    -15.8694E-03     9.54069E-03
             409     3.54324E-03     63.2699E-03    -13.4427E+06    -70.2525E+06    -8.54988E+06     540.911E+03    -15.9561E-03     31.9040E-03    -15.9479E-03     12.8073E-03    -15.9094E-03     31.5850E-03    -15.8693E-03     12.8121E-03
             410     4.42923E-03     63.2839E-03    -12.1751E+06    -68.7229E+06    -6.00358E+06     651.027E+03    -15.9721E-03     31.9273E-03    -15.9551E-03     16.1701E-03    -15.9252E-03     31.6106E-03    -15.8678E-03     16.1757E-03
             411     5.31491E-03     63.2999E-03    -11.0772E+06    -67.5852E+06    -4.01117E+06     764.285E+03    -16.0084E-03     31.9686E-03    -15.9602E-03     19.7010E-03    -15.9609E-03     31.6535E-03    -15.8662E-03     19.7072E-03
             412     6.20092E-03     63.3205E-03    -9.83952E+06    -66.5471E+06    -2.17661E+06     973.235E+03    -16.0537E-03     32.0190E-03    -15.9654E-03     23.3633E-03    -16.0046E-03     31.7051E-03    -15.8655E-03     23.3713E-03
             413     7.08658E-03     63.3433E-03    -8.78443E+06    -66.0858E+06    -662.023E+03     1.04306E+06    -16.1098E-03     32.0804E-03    -15.9707E-03     27.1748E-03    -16.0590E-03     31.7658E-03    -15.8654E-03     27.1823E-03
             414     7.97257E-03     63.3711E-03    -7.92987E+06    -65.6513E+06     675.553E+03     954.661E+03    -16.1695E-03     32.1452E-03    -15.9757E-03     31.1091E-03    -16.1180E-03     31.8305E-03    -15.8656E-03     31.1138E-03
             415     8.85832E-03     63.4010E-03    -6.98842E+06    -65.1554E+06     1.83349E+06     823.676E+03    -16.2879E-03     32.2696E-03    -15.9818E-03     35.2215E-03    -16.2356E-03     31.9560E-03    -15.8680E-03     35.2222E-03
             416     9.74397E-03     63.4368E-03    -6.19707E+06    -64.6556E+06     1.36663E+06     781.076E+03    -16.2899E-03     32.2682E-03    -15.9783E-03     39.4522E-03    -16.2362E-03     31.9590E-03    -15.8687E-03     39.4494E-03
             417     10.6302E-03     63.4742E-03    -5.48968E+06    -60.4857E+06    -2.42584E+06     582.216E+03    -16.3183E-03     32.2652E-03    -15.9469E-03     43.5471E-03    -16.2653E-03     31.9850E-03    -15.8634E-03     43.5377E-03
             418     11.5155E-03     63.5174E-03    -5.49349E+06    -48.0720E+06    -1.85716E+06     594.406E+03    -16.4197E-03     32.3453E-03    -15.9256E-03     48.1251E-03    -16.3918E-03     32.1326E-03    -15.8572E-03     48.1105E-03
             419     12.4025E-03     63.5638E-03    -5.61774E+06    -37.6592E+06    -303.785E+03     646.349E+03    -16.4807E-03     32.3922E-03    -15.9115E-03     53.9603E-03    -16.4815E-03     32.2403E-03    -15.8503E-03     53.9398E-03
             420     13.2871E-03     63.6161E-03    -5.90855E+06    -34.4737E+06    -7.29443E+06     131.859E+03    -17.0610E-03     32.9418E-03    -15.8808E-03     56.7493E-03    -17.0752E-03     32.8338E-03    -15.8587E-03     56.7121E-03
             421     14.1723E-03     63.6717E-03    -4.93870E+06    -18.7378E+06    -10.4937E+06     251.938E+03    -16.7677E-03     32.6186E-03    -15.8510E-03     63.0446E-03    -16.8293E-03     32.6267E-03    -15.8691E-03     63.0041E-03
             422     15.0593E-03     63.7305E-03    -4.92808E+06     21.5145E+06    -14.5454E+06     1.53178E+06    -17.2411E-03     32.9820E-03    -15.7408E-03     98.1898E-03    -17.5481E-03     33.3900E-03    -15.8376E-03     98.1886E-03
             423     15.9470E-03     63.8506E-03    -5.74925E+06     89.6415E+06    -11.2342E+06     1.47802E+06    -22.4765E-03     38.0934E-03    -15.6169E-03     181.904E-03    -24.7834E-03     40.7303E-03    -15.7947E-03     182.607E-03
             424     16.8410E-03     64.0743E-03    -4.62366E+06     165.525E+06     56.3208E+06     -24.366E+03    -27.7126E-03     43.5296E-03    -15.8170E-03     271.599E-03    -35.8572E-03     52.0821E-03    -15.7687E-03     277.564E-03
             425     885.731E-06     64.2264E-03    -16.2428E+06    -74.5841E+06    -15.9551E+06     12.9342E+03    -15.8875E-03     31.8442E-03    -15.9566E-03     3.47489E-03    -15.8374E-03     31.5182E-03    -15.9047E-03     3.47449E-03
             426     1.77174E-03     64.2312E-03    -15.7054E+06    -73.7141E+06    -14.1405E+06     149.712E+03    -15.9344E-03     31.8637E-03    -15.9293E-03     6.39121E-03    -15.8856E-03     31.5385E-03    -15.8703E-03     6.39209E-03
             427     2.65743E-03     64.2382E-03    -14.7218E+06    -72.3264E+06    -11.6949E+06     231.856E+03    -15.9448E-03     31.8841E-03    -15.9393E-03     9.55092E-03    -15.8968E-03     31.5609E-03    -15.8715E-03     9.55231E-03
             428     3.54336E-03     64.2491E-03    -13.4315E+06    -70.6037E+06     -8.9631E+06     478.274E+03    -15.9458E-03     31.8926E-03    -15.9469E-03     12.8100E-03    -15.8979E-03     31.5724E-03    -15.8698E-03     12.8140E-03
             429     4.42912E-03     64.2620E-03    -12.2761E+06    -69.0570E+06    -6.43190E+06     665.784E+03    -15.9694E-03     31.9218E-03    -15.9524E-03     16.1977E-03    -15.9219E-03     31.6043E-03    -15.8666E-03     16.2034E-03
             430     5.31507E-03     64.2792E-03    -11.0654E+06    -67.7524E+06    -4.16219E+06     794.448E+03    -16.0059E-03     31.9640E-03    -15.9581E-03     19.7142E-03    -15.9578E-03     31.6482E-03    -15.8646E-03     19.7208E-03
             431     6.20079E-03     64.2985E-03    -9.95287E+06    -66.8623E+06    -2.37084E+06     835.691E+03    -16.0498E-03     32.0129E-03    -15.9631E-03     23.3939E-03    -16.0005E-03     31.6978E-03    -15.8636E-03     23.4000E-03
             432     7.08675E-03     64.3227E-03    -8.75497E+06    -66.2745E+06    -729.196E+03     993.843E+03    -16.1032E-03     32.0714E-03    -15.9681E-03     27.2047E-03    -16.0519E-03     31.7558E-03    -15.8630E-03     27.2116E-03
             433     7.97247E-03     64.3490E-03    -7.78395E+06    -65.6838E+06     769.144E+03     1.16156E+06    -16.1886E-03     32.1629E-03    -15.9743E-03     31.1659E-03    -16.1365E-03     31.8478E-03    -15.8639E-03     31.1733E-03
             434     8.85830E-03     64.3807E-03    -7.16036E+06    -65.1320E+06     1.67027E+06     977.769E+03    -16.2342E-03     32.2122E-03    -15.9780E-03     35.3066E-03    -16.1826E-03     31.8991E-03    -15.8648E-03     35.3094E-03
             435     9.74424E-03     64.4146E-03    -6.21702E+06    -64.7141E+06     1.24980E+06     763.421E+03    -16.2164E-03     32.1856E-03    -15.9692E-03     39.3533E-03    -16.1624E-03     31.8762E-03    -15.8601E-03     39.3504E-03
             436     10.6301E-03     64.4534E-03    -5.84408E+06    -60.3190E+06    -2.79202E+06     619.504E+03    -16.3417E-03     32.2768E-03    -15.9352E-03     43.7674E-03    -16.2903E-03     31.9987E-03    -15.8532E-03     43.7584E-03
             437     11.5162E-03     64.4957E-03    -5.54611E+06    -47.7740E+06    -1.68013E+06     623.879E+03    -16.3676E-03     32.2835E-03    -15.9159E-03     47.8005E-03    -16.3405E-03     32.0720E-03    -15.8470E-03     47.7864E-03
             438     12.4020E-03     64.5419E-03    -5.07280E+06    -37.6599E+06    -24.2338E+03     675.797E+03    -16.6714E-03     32.5788E-03    -15.9073E-03     54.1707E-03    -16.6709E-03     32.4266E-03    -15.8455E-03     54.1496E-03
             439     13.2873E-03     64.5972E-03    -5.20385E+06    -33.8416E+06    -7.09162E+06     540.641E+03    -16.4866E-03     32.3490E-03    -15.8623E-03     57.4492E-03    -16.4981E-03     32.2424E-03    -15.8412E-03     57.4191E-03
             440     14.1748E-03     64.6472E-03    -5.87369E+06    -19.8985E+06    -11.8769E+06     25.6790E+03    -16.1079E-03     31.9003E-03    -15.7924E-03     62.0117E-03    -16.1679E-03     31.9033E-03    -15.8144E-03     61.9709E-03
             441     15.0617E-03     64.7102E-03    -5.76839E+06     20.5467E+06    -16.0030E+06     328.819E+03    -17.9078E-03     33.5939E-03    -15.6861E-03     97.1939E-03    -18.2218E-03     34.0068E-03    -15.7875E-03     97.1725E-03
             442     15.9461E-03     64.8284E-03    -5.09817E+06     90.5110E+06    -10.3049E+06     1.18097E+06    -21.1864E-03     36.7531E-03    -15.5667E-03     178.645E-03    -23.4229E-03     39.3226E-03    -15.7421E-03     179.415E-03
             443     16.8297E-03     65.0448E-03    -4.63517E+06     166.309E+06     57.2110E+06     597.748E+03    -27.6567E-03     43.4019E-03    -15.7452E-03     270.312E-03    -35.8411E-03     51.9944E-03    -15.6936E-03     276.188E-03
             444     885.859E-06     65.2054E-03    -16.5688E+06    -74.6795E+06    -16.0424E+06     53.0732E+03    -15.9027E-03     31.8581E-03    -15.9553E-03     3.47777E-03    -15.8540E-03     31.5322E-03    -15.9032E-03     3.47790E-03
             445     1.77162E-03     65.2095E-03    -15.8294E+06    -73.8659E+06    -14.2858E+06     63.7188E+03    -15.9283E-03     31.8621E-03    -15.9338E-03     6.40687E-03    -15.8797E-03     31.5365E-03    -15.8752E-03     6.40664E-03
             446     2.65749E-03     65.2174E-03    -14.8441E+06    -72.4239E+06    -11.8178E+06     157.524E+03    -15.9299E-03     31.8686E-03    -15.9387E-03     9.56037E-03    -15.8821E-03     31.5453E-03    -15.8713E-03     9.56080E-03
             447     3.54331E-03     65.2272E-03    -13.6681E+06    -70.9730E+06    -9.34170E+06     209.442E+03    -15.9452E-03     31.8886E-03    -15.9434E-03     12.8255E-03    -15.8974E-03     31.5675E-03    -15.8674E-03     12.8260E-03
             448     4.42921E-03     65.2412E-03    -12.2336E+06    -69.3662E+06    -6.81662E+06     514.389E+03    -15.9691E-03     31.9178E-03    -15.9487E-03     16.2066E-03    -15.9204E-03     31.5992E-03    -15.8645E-03     16.2103E-03
             449     5.31497E-03     65.2573E-03    -11.0047E+06    -68.0398E+06    -4.45410E+06     714.826E+03    -16.0003E-03     31.9548E-03    -15.9545E-03     19.7272E-03    -15.9511E-03     31.6379E-03    -15.8622E-03     19.7328E-03
             450     6.20092E-03     65.2779E-03    -9.86484E+06    -67.0090E+06    -2.42021E+06     826.498E+03    -16.0378E-03     31.9973E-03    -15.9595E-03     23.4052E-03    -15.9878E-03     31.6814E-03    -15.8601E-03     23.4113E-03
             451     7.08667E-03     65.3007E-03    -8.89925E+06    -66.5869E+06    -914.653E+03     929.456E+03    -16.0937E-03     32.0571E-03    -15.9634E-03     27.2297E-03    -16.0424E-03     31.7405E-03    -15.8585E-03     27.2358E-03
             452     7.97261E-03     65.3284E-03    -7.84789E+06    -66.0321E+06     329.000E+03     1.11204E+06    -16.1676E-03     32.1345E-03    -15.9669E-03     31.2511E-03    -16.1146E-03     31.8183E-03    -15.8582E-03     31.2579E-03
             453     8.85835E-03     65.3587E-03    -6.83225E+06    -64.6632E+06     1.78758E+06     1.17904E+06    -16.1751E-03     32.1433E-03    -15.9682E-03     35.2323E-03    -16.1227E-03     31.8319E-03    -15.8556E-03     35.2377E-03
             454     9.74439E-03     65.3937E-03    -6.35423E+06    -64.6708E+06     1.19347E+06     656.271E+03    -16.2274E-03     32.1859E-03    -15.9585E-03     39.2777E-03    -16.1742E-03     31.8771E-03    -15.8495E-03     39.2733E-03
             455     10.6303E-03     65.4315E-03    -6.01846E+06    -60.2401E+06    -3.28951E+06     705.750E+03    -16.3435E-03     32.2673E-03    -15.9238E-03     43.7428E-03    -16.2924E-03     31.9905E-03    -15.8442E-03     43.7349E-03
             456     11.5160E-03     65.4749E-03    -5.87966E+06    -48.0883E+06    -2.73556E+06     719.997E+03    -16.4226E-03     32.3279E-03    -15.9054E-03     47.8319E-03    -16.3953E-03     32.1170E-03    -15.8408E-03     47.8189E-03
             457     12.4017E-03     65.5203E-03    -5.28770E+06    -37.8336E+06    -854.327E+03     352.451E+03    -16.5059E-03     32.3998E-03    -15.8939E-03     54.5776E-03    -16.5050E-03     32.2482E-03    -15.8356E-03     54.5529E-03
             458     13.2886E-03     65.5758E-03    -4.88260E+06    -33.2999E+06    -7.11787E+06     703.756E+03    -16.3848E-03     32.2282E-03    -15.8435E-03     56.1389E-03    -16.3942E-03     32.1228E-03    -15.8237E-03     56.1115E-03
             459     14.1744E-03     65.6242E-03    -5.35006E+06    -19.2796E+06    -11.6469E+06     604.966E+03    -16.5809E-03     32.3695E-03    -15.7886E-03     60.7602E-03    -16.6396E-03     32.3745E-03    -15.8111E-03     60.7251E-03
             460     15.0592E-03     65.6905E-03    -6.68213E+06     20.3928E+06    -16.7152E+06    -607.712E+03    -18.5432E-03     34.2589E-03    -15.7157E-03     96.6858E-03    -18.8609E-03     34.6738E-03    -15.8192E-03     96.6502E-03
             461     15.9460E-03     65.8059E-03    -7.62629E+06     87.9652E+06    -13.5099E+06    -448.405E+03    -22.0564E-03     37.7000E-03    -15.6435E-03     173.756E-03    -24.2361E-03     40.2037E-03    -15.8276E-03     174.462E-03
             462     16.8392E-03     66.0222E-03    -4.24903E+06     166.568E+06     55.7875E+06     1.33855E+06    -27.0284E-03     42.8645E-03    -15.8360E-03     270.838E-03    -35.4067E-03     51.6572E-03    -15.7925E-03     276.906E-03
             463     885.831E-06     66.1836E-03    -16.7251E+06    -74.7518E+06    -16.2467E+06     70.9653E+03    -15.9077E-03     31.8479E-03    -15.9403E-03     3.49171E-03    -15.8593E-03     31.5222E-03    -15.8888E-03     3.49207E-03
             464     1.77162E-03     66.1886E-03    -16.0105E+06    -73.8659E+06    -14.3600E+06    -49.6659E+03    -15.9224E-03     31.8514E-03    -15.9290E-03     6.43337E-03    -15.8747E-03     31.5263E-03    -15.8705E-03     6.43167E-03
             465     2.65752E-03     66.1955E-03    -14.9406E+06    -72.5480E+06    -12.0227E+06    -23.9148E+03    -15.9282E-03     31.8618E-03    -15.9337E-03     9.56991E-03    -15.8804E-03     31.5384E-03    -15.8669E-03     9.56800E-03
             466     3.54335E-03     66.2064E-03    -13.7618E+06    -70.9875E+06    -9.25410E+06     57.5727E+03    -15.9476E-03     31.8884E-03    -15.9409E-03     12.8336E-03    -15.9004E-03     31.5672E-03    -15.8642E-03     12.8321E-03
             467     4.42914E-03     66.2193E-03    -12.4792E+06    -69.7572E+06    -7.08208E+06     99.4242E+03    -15.9644E-03     31.9101E-03    -15.9457E-03     16.2147E-03    -15.9159E-03     31.5903E-03    -15.8619E-03     16.2131E-03
             468     5.31508E-03     66.2365E-03    -10.9650E+06    -68.4395E+06    -4.93489E+06     462.743E+03    -15.9896E-03     31.9388E-03    -15.9491E-03     19.7490E-03    -15.9390E-03     31.6205E-03    -15.8587E-03     19.7513E-03
             469     6.20084E-03     66.2560E-03    -9.75576E+06    -67.3603E+06    -2.82791E+06     799.677E+03    -16.0279E-03     31.9810E-03    -15.9530E-03     23.4126E-03    -15.9763E-03     31.6638E-03    -15.8554E-03     23.4182E-03
             470     7.08682E-03     66.2799E-03    -8.71392E+06    -66.7996E+06    -1.15815E+06     950.489E+03    -16.0815E-03     32.0380E-03    -15.9565E-03     27.2601E-03    -16.0286E-03     31.7204E-03    -15.8528E-03     27.2665E-03
             471     7.97256E-03     66.3065E-03    -7.77666E+06    -66.3132E+06       49.75E+03     950.740E+03    -16.1125E-03     32.0694E-03    -15.9569E-03     31.2371E-03    -16.0584E-03     31.7521E-03    -15.8493E-03     31.2418E-03
             472     8.85860E-03     66.3379E-03    -6.72355E+06    -64.8974E+06     1.12327E+06     973.990E+03    -16.1603E-03     32.1136E-03    -15.9534E-03     35.1996E-03    -16.1061E-03     31.8019E-03    -15.8439E-03     35.2024E-03
             473     9.74436E-03     66.3717E-03    -5.78717E+06    -63.8459E+06     1.38228E+06     835.945E+03    -16.2756E-03     32.2236E-03    -15.9479E-03     39.3430E-03    -16.2211E-03     31.9179E-03    -15.8401E-03     39.3408E-03
             474     10.6302E-03     66.4108E-03    -5.28432E+06    -60.4644E+06    -3.03846E+06     540.370E+03    -16.3277E-03     32.2446E-03    -15.9169E-03     43.7345E-03    -16.2730E-03     31.9653E-03    -15.8367E-03     43.7245E-03
             475     11.5163E-03     66.4528E-03    -4.71759E+06    -48.6686E+06    -2.94815E+06     720.198E+03    -16.3338E-03     32.2260E-03    -15.8922E-03     47.9257E-03    -16.2995E-03     32.0107E-03    -15.8295E-03     47.9129E-03
             476     12.4027E-03     66.4996E-03    -5.24553E+06    -37.4846E+06    -1.20980E+06     835.186E+03    -16.5257E-03     32.4040E-03    -15.8783E-03     54.4314E-03    -16.5243E-03     32.2544E-03    -15.8224E-03     54.4131E-03
             477     13.2875E-03     66.5536E-03    -5.31038E+06    -33.5313E+06    -7.45067E+06     539.663E+03    -16.7350E-03     32.5775E-03    -15.8424E-03     56.3024E-03    -16.7463E-03     32.4724E-03    -15.8234E-03     56.2719E-03
             478     14.1731E-03     66.6042E-03    -4.71746E+06    -18.7608E+06    -11.2563E+06     932.569E+03    -16.9406E-03     32.7506E-03    -15.8100E-03     61.5717E-03    -16.9988E-03     32.7580E-03    -15.8322E-03     61.5398E-03
             479     15.0600E-03     66.6678E-03    -6.03248E+06     21.8864E+06    -15.6057E+06     724.408E+03    -18.2348E-03     33.9704E-03    -15.7356E-03     98.8734E-03    -18.5542E-03     34.3913E-03    -15.8366E-03     98.8583E-03
             480     15.9426E-03     66.7886E-03    -8.24074E+06     87.2291E+06    -15.0426E+06    -424.343E+03    -23.7373E-03     39.4171E-03    -15.6798E-03     177.221E-03    -25.9785E-03     41.9820E-03    -15.8695E-03     177.863E-03
             481     16.8202E-03     66.9934E-03    -5.15893E+06     165.234E+06     53.4557E+06    -171.654E+03    -27.0892E-03     43.0003E-03    -15.9111E-03     269.965E-03    -35.3699E-03     51.6946E-03    -15.8759E-03     276.108E-03
             482     885.798E-06     67.1627E-03    -16.8348E+06    -74.6911E+06    -16.4395E+06    -31.2047E+03    -15.8941E-03     31.8283E-03    -15.9342E-03     3.46223E-03    -15.8461E-03     31.5033E-03    -15.8836E-03     3.46129E-03
             483     1.77175E-03     67.1668E-03    -16.0905E+06    -73.7399E+06    -14.4919E+06    -82.1486E+03    -15.9177E-03     31.8377E-03    -15.9201E-03     6.42227E-03    -15.8703E-03     31.5135E-03    -15.8623E-03     6.42014E-03
             484     2.65747E-03     67.1746E-03    -15.1620E+06    -72.5217E+06    -11.9731E+06    -202.140E+03    -15.9352E-03     31.8644E-03    -15.9291E-03     9.57559E-03    -15.8887E-03     31.5413E-03    -15.8619E-03     9.57138E-03
             485     3.54334E-03     67.1845E-03    -13.9223E+06    -71.0886E+06    -9.42268E+06    -125.892E+03    -15.9375E-03     31.8743E-03    -15.9368E-03     12.8431E-03    -15.8908E-03     31.5531E-03    -15.8606E-03     12.8393E-03
             486     4.42924E-03     67.1984E-03    -12.6486E+06    -69.7264E+06    -6.94372E+06    -90.4089E+03    -15.9565E-03     31.8986E-03    -15.9420E-03     16.2291E-03    -15.9092E-03     31.5789E-03    -15.8573E-03     16.2251E-03
             487     5.31501E-03     67.2146E-03    -11.3521E+06    -68.9323E+06    -5.38144E+06    -65.2822E+03    -15.9759E-03     31.9187E-03    -15.9427E-03     19.7531E-03    -15.9259E-03     31.5992E-03    -15.8532E-03     19.7486E-03
             488     6.20100E-03     67.2351E-03    -9.80227E+06    -67.8892E+06    -3.59171E+06     418.010E+03    -16.0140E-03     31.9574E-03    -15.9433E-03     23.4520E-03    -15.9608E-03     31.6387E-03    -15.8486E-03     23.4528E-03
             489     7.08673E-03     67.2581E-03    -8.53867E+06    -67.1085E+06    -1.61223E+06     832.476E+03    -16.0577E-03     32.0036E-03    -15.9459E-03     27.2817E-03    -16.0028E-03     31.6849E-03    -15.8443E-03     27.2865E-03
             490     7.97276E-03     67.2857E-03    -7.58403E+06    -66.3310E+06    -274.375E+03     918.206E+03    -16.0757E-03     32.0197E-03    -15.9440E-03     31.2075E-03    -16.0201E-03     31.7025E-03    -15.8382E-03     31.2118E-03
             491     8.85859E-03     67.3158E-03    -6.61193E+06    -65.1292E+06     735.817E+03     644.171E+03    -16.1394E-03     32.0779E-03    -15.9385E-03     35.2547E-03    -16.0837E-03     31.7654E-03    -15.8308E-03     35.2533E-03
             492     9.74462E-03     67.3510E-03    -5.55719E+06    -63.6327E+06     1.16503E+06     610.781E+03    -16.2635E-03     32.1960E-03    -15.9325E-03     39.4706E-03    -16.2078E-03     31.8913E-03    -15.8264E-03     39.4656E-03
             493     10.6304E-03     67.3888E-03    -5.06889E+06    -60.1817E+06    -2.64806E+06     503.344E+03    -16.3418E-03     32.2473E-03    -15.9055E-03     43.6729E-03    -16.2870E-03     31.9686E-03    -15.8241E-03     43.6624E-03
             494     11.5164E-03     67.4318E-03    -5.03036E+06    -48.8921E+06    -2.55352E+06     440.571E+03    -16.3777E-03     32.2634E-03    -15.8857E-03     47.8712E-03    -16.3452E-03     32.0469E-03    -15.8203E-03     47.8547E-03
             495     12.4019E-03     67.4777E-03    -4.08649E+06    -37.7386E+06    -131.456E+03     832.969E+03    -16.5286E-03     32.4040E-03    -15.8754E-03     54.4346E-03    -16.5227E-03     32.2500E-03    -15.8154E-03     54.4161E-03
             496     13.2887E-03     67.5330E-03    -4.17431E+06    -33.6495E+06    -6.53515E+06     949.915E+03    -16.6087E-03     32.4433E-03    -15.8346E-03     56.6139E-03    -16.6156E-03     32.3348E-03    -15.8124E-03     56.5888E-03
             497     14.1746E-03     67.5826E-03    -4.91266E+06    -18.6918E+06    -10.9967E+06     601.753E+03    -16.6774E-03     32.4656E-03    -15.7881E-03     62.2345E-03    -16.7378E-03     32.4740E-03    -15.8089E-03     62.1990E-03
             498     15.0589E-03     67.6476E-03    -5.07261E+06     21.1705E+06    -15.1038E+06     1.37691E+06    -17.2379E-03     32.9167E-03    -15.6788E-03     98.8918E-03    -17.5469E-03     33.3266E-03    -15.7777E-03     98.8917E-03
             499     15.9511E-03     67.7640E-03    -4.82255E+06     90.0466E+06    -11.3613E+06     1.20555E+06    -22.7185E-03     38.2773E-03    -15.5587E-03     183.690E-03    -25.0541E-03     40.9483E-03    -15.7391E-03     184.387E-03
             500     16.8366E-03     67.9917E-03    -4.90805E+06     166.338E+06     55.5472E+06    -1.06816E+06    -28.4716E-03     44.2556E-03    -15.7840E-03     270.627E-03    -36.5233E-03     52.7197E-03    -15.7403E-03     276.507E-03
             501     885.880E-06     68.1408E-03    -17.0931E+06    -74.4858E+06    -16.5946E+06    -56.7199E+03    -15.9038E-03     31.8292E-03    -15.9254E-03     3.43506E-03    -15.8572E-03     31.5058E-03    -15.8755E-03     3.43377E-03
             502     1.77160E-03     68.1458E-03    -16.4579E+06    -73.6648E+06    -14.7824E+06    -133.184E+03    -15.9068E-03     31.8252E-03    -15.9184E-03     6.42820E-03    -15.8609E-03     31.5023E-03    -15.8616E-03     6.42543E-03
             503     2.65757E-03     68.1528E-03    -15.4615E+06    -72.3452E+06    -12.1260E+06    -157.299E+03    -15.9138E-03     31.8370E-03    -15.9233E-03     9.59076E-03    -15.8688E-03     31.5155E-03    -15.8566E-03     9.58714E-03
             504     3.54337E-03     68.1636E-03    -14.2981E+06    -71.0027E+06    -9.47082E+06    -337.128E+03    -15.9313E-03     31.8609E-03    -15.9296E-03     12.8589E-03    -15.8864E-03     31.5407E-03    -15.8533E-03     12.8523E-03
             505     4.42920E-03     68.1766E-03    -12.9346E+06    -69.7874E+06    -7.17637E+06    -250.174E+03    -15.9367E-03     31.8700E-03    -15.9333E-03     16.2449E-03    -15.8903E-03     31.5508E-03    -15.8492E-03     16.2388E-03
             506     5.31515E-03     68.1937E-03    -11.7424E+06    -68.8079E+06    -5.19105E+06    -250.226E+03    -15.9652E-03     31.9001E-03    -15.9349E-03     19.7798E-03    -15.9175E-03     31.5816E-03    -15.8441E-03     19.7729E-03
             507     6.20093E-03     68.2132E-03    -10.4783E+06    -68.4323E+06    -4.07341E+06    -347.602E+03    -15.9934E-03     31.9264E-03    -15.9330E-03     23.4719E-03    -15.9421E-03     31.6067E-03    -15.8389E-03     23.4628E-03
             508     7.08697E-03     68.2372E-03    -8.76848E+06    -67.7917E+06    -2.42823E+06     245.322E+03    -16.0156E-03     31.9464E-03    -15.9308E-03     27.2970E-03    -15.9597E-03     31.6258E-03    -15.8320E-03     27.2944E-03
             509     7.97277E-03     68.2636E-03    -7.27276E+06    -66.4189E+06    -530.904E+03     667.442E+03    -16.0660E-03     31.9942E-03    -15.9283E-03     31.2066E-03    -16.0083E-03     31.6765E-03    -15.8241E-03     31.2077E-03
             510     8.85884E-03     68.2950E-03    -6.44325E+06    -64.7262E+06     920.544E+03     622.253E+03    -16.1374E-03     32.0626E-03    -15.9252E-03     35.2723E-03    -16.0817E-03     31.7516E-03    -15.8174E-03     35.2706E-03
             511     9.74465E-03     68.3289E-03    -6.07495E+06    -64.0200E+06     759.367E+03     322.440E+03    -16.2329E-03     32.1512E-03    -15.9183E-03     39.4403E-03    -16.1786E-03     31.8459E-03    -15.8128E-03     39.4316E-03
             512     10.6307E-03     68.3682E-03    -5.65740E+06    -60.1232E+06    -2.95761E+06     431.041E+03    -16.3947E-03     32.2880E-03    -15.8933E-03     43.6209E-03    -16.3426E-03     32.0110E-03    -15.8127E-03     43.6093E-03
             513     11.5163E-03     68.4098E-03    -5.24898E+06    -48.3781E+06    -2.42165E+06     557.662E+03    -16.4004E-03     32.2790E-03    -15.8787E-03     47.8084E-03    -16.3701E-03     32.0654E-03    -15.8130E-03     47.7932E-03
             514     12.4028E-03     68.4570E-03    -5.14374E+06    -38.6530E+06    -1.23525E+06     291.038E+03    -16.4250E-03     32.2884E-03    -15.8634E-03     54.5922E-03    -16.4215E-03     32.1330E-03    -15.8060E-03     54.5668E-03
             515     13.2879E-03     68.5107E-03    -4.41010E+06    -34.0356E+06    -7.16996E+06     806.181E+03    -16.5371E-03     32.3546E-03    -15.8175E-03     56.6515E-03    -16.5440E-03     32.2458E-03    -15.7976E-03     56.6246E-03
             516     14.1742E-03     68.5618E-03    -4.56577E+06    -18.1338E+06    -11.1872E+06     970.695E+03    -16.3786E-03     32.1401E-03    -15.7616E-03     61.2277E-03    -16.4365E-03     32.1499E-03    -15.7846E-03     61.1979E-03
             517     15.0628E-03     68.6246E-03    -4.49616E+06     20.4610E+06    -15.0165E+06    -211.257E+03    -17.4196E-03     33.0776E-03    -15.6580E-03     96.0861E-03    -17.7230E-03     33.4812E-03    -15.7562E-03     96.0616E-03
             518     15.9459E-03     68.7404E-03    -3.25325E+06     89.6983E+06    -9.97945E+06     482.640E+03    -20.0519E-03     35.5414E-03    -15.4896E-03     179.771E-03    -22.3099E-03     38.1354E-03    -15.6648E-03     180.574E-03
             519     16.8373E-03     68.9659E-03    -3.83751E+06     168.090E+06     57.1043E+06     1.00040E+06    -28.3962E-03     44.0450E-03    -15.6488E-03     271.002E-03    -36.5474E-03     52.6142E-03    -15.6014E-03     276.745E-03
             520     885.774E-06     69.1199E-03    -17.5483E+06    -74.4670E+06    -17.1459E+06    -101.156E+03    -15.9270E-03     31.8047E-03    -15.8777E-03     3.48789E-03    -15.8819E-03     31.4829E-03    -15.8300E-03     3.48600E-03
             521     1.77173E-03     69.1240E-03    -16.8627E+06    -73.4425E+06    -15.0770E+06    -121.362E+03    -15.8994E-03     31.8071E-03    -15.9077E-03     6.44401E-03    -15.8555E-03     31.4863E-03    -15.8521E-03     6.44139E-03
             522     2.65752E-03     69.1317E-03    -15.7841E+06    -72.1395E+06    -12.4157E+06    -261.941E+03    -15.8988E-03     31.8116E-03    -15.9128E-03     9.61291E-03    -15.8553E-03     31.4920E-03    -15.8474E-03     9.60793E-03
             523     3.54342E-03     69.1419E-03    -14.5065E+06    -70.7434E+06    -9.50876E+06    -320.056E+03    -15.9067E-03     31.8247E-03    -15.9179E-03     12.8666E-03    -15.8633E-03     31.5061E-03    -15.8419E-03     12.8603E-03
             524     4.42930E-03     69.1556E-03    -13.2649E+06    -69.8001E+06    -7.17232E+06    -461.811E+03    -15.9223E-03     31.8432E-03    -15.9209E-03     16.2545E-03    -15.8776E-03     31.5245E-03    -15.8363E-03     16.2457E-03
             525     5.31518E-03     69.1719E-03    -11.9179E+06    -68.7582E+06    -5.21472E+06    -340.112E+03    -15.9455E-03     31.8672E-03    -15.9217E-03     19.8056E-03    -15.8987E-03     31.5491E-03    -15.8307E-03     19.7976E-03
             526     6.20109E-03     69.1923E-03    -10.8642E+06    -68.0816E+06    -3.61039E+06    -507.510E+03    -15.9732E-03     31.8945E-03    -15.9213E-03     23.4764E-03    -15.9250E-03     31.5765E-03    -15.8249E-03     23.4652E-03
             527     7.08695E-03     69.2151E-03    -9.77628E+06    -68.4142E+06    -3.08134E+06    -719.938E+03    -15.9942E-03     31.9097E-03    -15.9155E-03     27.2752E-03    -15.9415E-03     31.5883E-03    -15.8175E-03     27.2601E-03
             528     7.97304E-03     69.2429E-03    -8.19484E+06    -67.1933E+06    -1.72131E+06    -45.8935E+03    -16.0650E-03     31.9759E-03    -15.9109E-03     31.2264E-03    -16.0091E-03     31.6574E-03    -15.8102E-03     31.2183E-03
             529     8.85880E-03     69.2729E-03    -6.88258E+06    -64.4643E+06     282.405E+03     410.589E+03    -16.1730E-03     32.0846E-03    -15.9116E-03     35.2494E-03    -16.1190E-03     31.7765E-03    -15.8068E-03     35.2448E-03
             530     9.74484E-03     69.3083E-03    -5.95217E+06    -63.5229E+06     851.251E+03     316.253E+03    -16.2605E-03     32.1717E-03    -15.9112E-03     39.3711E-03    -16.2065E-03     31.8687E-03    -15.8062E-03     39.3622E-03
             531     10.6306E-03     69.3459E-03    -5.22859E+06    -60.4943E+06    -3.37331E+06     211.832E+03    -16.3265E-03     32.2100E-03    -15.8835E-03     43.6737E-03    -16.2710E-03     31.9310E-03    -15.8051E-03     43.6594E-03
             532     11.5166E-03     69.3895E-03    -4.77609E+06    -49.0938E+06    -3.57678E+06     413.973E+03    -16.3417E-03     32.2026E-03    -15.8609E-03     47.7811E-03    -16.3063E-03     31.9864E-03    -15.8007E-03     47.7642E-03
             533     12.4023E-03     69.4340E-03    -4.30000E+06    -38.0383E+06    -1.44084E+06     585.254E+03    -16.4733E-03     32.3213E-03    -15.8481E-03     54.5201E-03    -16.4663E-03     32.1683E-03    -15.7939E-03     54.4984E-03
             534     13.2893E-03     69.4907E-03    -5.19446E+06    -34.3020E+06    -8.69627E+06     256.860E+03    -16.6456E-03     32.4508E-03    -15.8052E-03     56.6322E-03    -16.6538E-03     32.3440E-03    -15.7914E-03     56.5982E-03
             535     14.1745E-03     69.5393E-03    -4.80507E+06    -18.6336E+06    -12.1846E+06     303.782E+03    -16.7287E-03     32.4955E-03    -15.7668E-03     60.4100E-03    -16.7856E-03     32.5046E-03    -15.7938E-03     60.3706E-03
             536     15.0588E-03     69.6029E-03    -4.08140E+06     22.2178E+06    -14.6487E+06     21.6109E+03    -18.3588E-03     34.0620E-03    -15.7032E-03     96.0411E-03    -18.6697E-03     34.4798E-03    -15.8027E-03     96.0145E-03
             537     15.9464E-03     69.7204E-03    -6.89778E+06     87.2652E+06    -14.1357E+06    -184.069E+03    -21.8570E-03     37.4736E-03    -15.6165E-03     172.870E-03    -24.0012E-03     39.9437E-03    -15.8038E-03     173.591E-03
             538     16.8390E-03     69.9309E-03    -4.88393E+06     166.883E+06     53.7099E+06     1.12211E+06    -27.2021E-03     43.0087E-03    -15.8065E-03     270.406E-03    -35.6649E-03     51.8913E-03    -15.7729E-03     276.518E-03
             539     885.950E-06     70.0982E-03    -17.6312E+06    -74.2518E+06    -17.1425E+06    -145.153E+03    -15.9072E-03     31.7679E-03    -15.8607E-03     3.46994E-03    -15.8628E-03     31.4473E-03    -15.8132E-03     3.46750E-03
             540     1.77169E-03     70.1029E-03    -16.8759E+06    -73.2342E+06    -15.2733E+06    -225.154E+03    -15.8900E-03     31.7802E-03    -15.8902E-03     6.42569E-03    -15.8461E-03     31.4607E-03    -15.8359E-03     6.42174E-03
             541     2.65760E-03     70.1101E-03    -15.8959E+06    -71.9099E+06    -12.5824E+06    -284.389E+03    -15.8838E-03     31.7812E-03    -15.8973E-03     9.62112E-03    -15.8410E-03     31.4631E-03    -15.8329E-03     9.61585E-03
             542     3.54345E-03     70.1207E-03    -14.7013E+06    -70.6162E+06    -9.72362E+06    -416.752E+03    -15.8835E-03     31.7851E-03    -15.9016E-03     12.8748E-03    -15.8409E-03     31.4678E-03    -15.8265E-03     12.8672E-03
             543     4.42939E-03     70.1339E-03    -13.3813E+06    -69.5321E+06    -7.12140E+06    -433.438E+03    -15.9068E-03     31.8117E-03    -15.9049E-03     16.2647E-03    -15.8631E-03     31.4944E-03    -15.8203E-03     16.2562E-03
             544     5.31523E-03     70.1508E-03    -12.2129E+06    -68.8180E+06    -5.37870E+06    -557.180E+03    -15.9239E-03     31.8290E-03    -15.9051E-03     19.7974E-03    -15.8783E-03     31.5114E-03    -15.8145E-03     19.7865E-03
             545     6.20123E-03     70.1704E-03    -10.9306E+06    -67.7726E+06    -3.59744E+06    -461.704E+03    -15.9503E-03     31.8543E-03    -15.9040E-03     23.4769E-03    -15.9028E-03     31.5379E-03    -15.8079E-03     23.4663E-03
             546     7.08712E-03     70.1943E-03    -10.1374E+06    -67.8646E+06    -2.48744E+06    -758.411E+03    -16.0156E-03     31.9189E-03    -15.9033E-03     27.2534E-03    -15.9664E-03     31.6000E-03    -15.8027E-03     27.2377E-03
             547     7.97300E-03     70.2206E-03    -9.33436E+06    -67.8086E+06    -2.59587E+06    -1.01606E+06    -16.0776E-03     31.9758E-03    -15.8983E-03     31.2419E-03    -16.0253E-03     31.6572E-03    -15.7994E-03     31.2212E-03
             548     8.85900E-03     70.2524E-03    -7.66066E+06    -65.1198E+06    -1.31180E+06    -360.133E+03    -16.1706E-03     32.0673E-03    -15.8967E-03     35.3354E-03    -16.1173E-03     31.7594E-03    -15.7977E-03     35.3209E-03
             549     9.74468E-03     70.2860E-03    -6.11806E+06    -63.2099E+06     119.096E+03    -34.0707E+03    -16.2579E-03     32.1567E-03    -15.8988E-03     39.4695E-03    -16.2041E-03     31.8565E-03    -15.7977E-03     39.4561E-03
             550     10.6307E-03     70.3255E-03    -5.36585E+06    -60.9170E+06    -3.70966E+06    -104.203E+03    -16.2637E-03     32.1358E-03    -15.8721E-03     43.6449E-03    -16.2078E-03     31.8553E-03    -15.7946E-03     43.6266E-03
             551     11.5169E-03     70.3666E-03    -4.92691E+06    -49.4585E+06    -4.00927E+06    -144.940E+03    -16.3892E-03     32.2382E-03    -15.8491E-03     47.7682E-03    -16.3534E-03     32.0210E-03    -15.7902E-03     47.7441E-03
             552     12.4030E-03     70.4143E-03    -3.98669E+06    -37.7039E+06    -1.42435E+06    -54.1640E+03    -16.7451E-03     32.5939E-03    -15.8488E-03     54.3194E-03    -16.7374E-03     32.4423E-03    -15.7955E-03     54.2889E-03
             553     13.2878E-03     70.4675E-03    -3.36756E+06    -34.6641E+06    -8.05333E+06     446.901E+03    -16.6548E-03     32.4726E-03    -15.8178E-03     56.1832E-03    -16.6538E-03     32.3600E-03    -15.8029E-03     56.1519E-03
             554     14.1741E-03     70.5199E-03    -4.60007E+06    -19.1408E+06    -12.5040E+06     514.621E+03    -16.8864E-03     32.6674E-03    -15.7810E-03     60.9302E-03    -16.9416E-03     32.6746E-03    -15.8091E-03     60.8929E-03
             555     15.0606E-03     70.5808E-03    -6.51968E+06     22.7368E+06    -15.6235E+06     1.01738E+06    -18.7131E-03     34.4414E-03    -15.7283E-03     97.3420E-03    -19.0372E-03     34.8683E-03    -15.8299E-03     97.3270E-03
             556     15.9438E-03     70.7012E-03    -6.84568E+06     88.3690E+06    -15.0587E+06     966.004E+03    -23.8619E-03     39.5491E-03    -15.6872E-03     177.333E-03    -26.0748E-03     42.0939E-03    -15.8807E-03     177.964E-03
             557     16.8147E-03     70.9110E-03    -4.79891E+06     166.252E+06     51.8759E+06    -94.5982E+03    -27.3570E-03     43.2610E-03    -15.9040E-03     275.759E-03    -35.9454E-03     52.2723E-03    -15.8787E-03     282.039E-03
             558     885.766E-06     71.0770E-03    -17.3817E+06    -73.8927E+06    -17.0551E+06    -237.685E+03    -15.8725E-03     31.7463E-03    -15.8738E-03     3.46580E-03    -15.8275E-03     31.4270E-03    -15.8267E-03     3.46217E-03
             559     1.77177E-03     71.0813E-03    -16.8128E+06    -72.9330E+06    -15.2720E+06    -292.042E+03    -15.8634E-03     31.7391E-03    -15.8757E-03     6.43418E-03    -15.8196E-03     31.4210E-03    -15.8219E-03     6.42937E-03
             560     2.65761E-03     71.0888E-03    -15.7934E+06    -71.7477E+06    -12.7002E+06    -380.755E+03    -15.8629E-03     31.7415E-03    -15.8786E-03     9.60557E-03    -15.8196E-03     31.4243E-03    -15.8152E-03     9.59906E-03
             561     3.54357E-03     71.0990E-03    -14.6165E+06    -70.3872E+06    -9.80938E+06    -410.072E+03    -15.8717E-03     31.7548E-03    -15.8831E-03     12.8741E-03    -15.8288E-03     31.4386E-03    -15.8089E-03     12.8666E-03
             562     4.42940E-03     71.1126E-03    -13.4352E+06    -69.4341E+06    -7.34381E+06    -504.209E+03    -15.8822E-03     31.7683E-03    -15.8861E-03     16.2652E-03    -15.8387E-03     31.4519E-03    -15.8027E-03     16.2559E-03
             563     5.31543E-03     71.1290E-03    -12.1113E+06    -68.4731E+06    -5.27295E+06    -581.917E+03    -15.9069E-03     31.7937E-03    -15.8868E-03     19.7921E-03    -15.8614E-03     31.4775E-03    -15.7963E-03     19.7810E-03
             564     6.20123E-03     71.1493E-03    -11.0112E+06    -67.8580E+06    -3.91312E+06    -694.300E+03    -15.9465E-03     31.8321E-03    -15.8856E-03     23.4743E-03    -15.8989E-03     31.5158E-03    -15.7908E-03     23.4607E-03
             565     7.08729E-03     71.1723E-03    -9.73714E+06    -67.4960E+06    -2.25245E+06    -553.352E+03    -16.0153E-03     31.9033E-03    -15.8880E-03     27.2979E-03    -15.9649E-03     31.5853E-03    -15.7873E-03     27.2849E-03
             566     7.97307E-03     71.1999E-03    -9.04323E+06    -67.0479E+06    -1.81707E+06    -984.089E+03    -16.0914E-03     31.9790E-03    -15.8876E-03     31.2828E-03    -16.0399E-03     31.6626E-03    -15.7864E-03     31.2625E-03
             567     8.85901E-03     71.2299E-03    -8.37502E+06    -65.8385E+06    -2.49485E+06    -1.41129E+06    -16.1229E-03     32.0025E-03    -15.8796E-03     35.4312E-03    -16.0704E-03     31.6937E-03    -15.7844E-03     35.4033E-03
             568     9.74508E-03     71.2656E-03    -6.91346E+06    -63.9632E+06    -1.55247E+06    -859.603E+03    -16.1912E-03     32.0666E-03    -15.8754E-03     39.5542E-03    -16.1378E-03     31.7661E-03    -15.7804E-03     39.5304E-03
             569     10.6310E-03     71.3028E-03    -5.68887E+06    -60.4519E+06    -4.11764E+06    -780.903E+03    -16.3660E-03     32.2212E-03    -15.8552E-03     43.6713E-03    -16.3119E-03     31.9442E-03    -15.7799E-03     43.6441E-03
             570     11.5166E-03     71.3464E-03    -4.98678E+06    -49.2334E+06    -4.37574E+06    -602.522E+03    -16.5623E-03     32.4061E-03    -15.8438E-03     47.9372E-03    -16.5268E-03     32.1908E-03    -15.7871E-03     47.9068E-03
             571     12.4021E-03     71.3918E-03    -5.28774E+06    -38.3532E+06    -2.58149E+06    -374.136E+03    -16.7415E-03     32.5904E-03    -15.8489E-03     54.7146E-03    -16.7378E-03     32.4392E-03    -15.7985E-03     54.6800E-03
             572     13.2881E-03     71.4484E-03    -4.78139E+06    -34.9418E+06    -8.74709E+06    -403.635E+03    -16.7263E-03     32.5478E-03    -15.8215E-03     56.3950E-03    -16.7313E-03     32.4371E-03    -15.8076E-03     56.3522E-03
             573     14.1746E-03     71.4953E-03    -3.56285E+06    -20.1750E+06    -12.6501E+06     683.726E+03    -16.8259E-03     32.6101E-03    -15.7843E-03     61.5349E-03    -16.8748E-03     32.6115E-03    -15.8131E-03     61.4999E-03
             574     15.0588E-03     71.5638E-03    -4.07867E+06     21.8875E+06    -14.0616E+06     1.75681E+06    -18.4394E-03     34.1655E-03    -15.7261E-03     98.0131E-03    -18.7539E-03     34.5840E-03    -15.8222E-03     98.0078E-03
             575     15.9463E-03     71.6771E-03    -4.82281E+06     89.9525E+06    -11.9113E+06     1.23617E+06    -21.4671E-03     37.0816E-03    -15.6144E-03     178.308E-03    -23.6726E-03     39.6227E-03    -15.7974E-03     179.037E-03
             576     16.8482E-03     71.9009E-03    -4.11067E+06     167.487E+06     53.1337E+06     70.6386E+03    -27.2370E-03     42.9987E-03    -15.7617E-03     274.599E-03    -35.6987E-03     51.8863E-03    -15.7329E-03     280.657E-03
             577     885.979E-06     72.0553E-03    -17.6386E+06    -73.4666E+06    -17.0276E+06    -234.910E+03    -15.8223E-03     31.6970E-03    -15.8748E-03     3.47593E-03    -15.7792E-03     31.3802E-03    -15.8278E-03     3.47235E-03
             578     1.77174E-03     72.0600E-03    -16.8494E+06    -72.6677E+06    -15.2716E+06    -385.948E+03    -15.8503E-03     31.7043E-03    -15.8540E-03     6.44066E-03    -15.8071E-03     31.3876E-03    -15.8005E-03     6.43463E-03
             579     2.65772E-03     72.0672E-03    -15.7933E+06    -71.3710E+06    -12.7096E+06    -553.857E+03    -15.8494E-03     31.7091E-03    -15.8597E-03     9.59957E-03    -15.8066E-03     31.3938E-03    -15.7969E-03     9.59083E-03
             580     3.54354E-03     72.0777E-03    -14.4642E+06    -70.3145E+06    -9.91961E+06    -589.931E+03    -15.8485E-03     31.7127E-03    -15.8641E-03     12.8693E-03    -15.8049E-03     31.3968E-03    -15.7908E-03     12.8595E-03
             581     4.42959E-03     72.0909E-03    -13.0781E+06    -69.1658E+06    -7.19167E+06    -534.590E+03    -15.8607E-03     31.7275E-03    -15.8668E-03     16.2627E-03    -15.8160E-03     31.4117E-03    -15.7835E-03     16.2529E-03
             582     5.31539E-03     72.1077E-03    -11.9040E+06    -68.2398E+06    -5.23449E+06    -702.770E+03    -15.8907E-03     31.7577E-03    -15.8670E-03     19.8010E-03    -15.8446E-03     31.4423E-03    -15.7770E-03     19.7883E-03
             583     6.20151E-03     72.1274E-03    -10.6287E+06    -67.5374E+06    -3.78957E+06    -814.599E+03    -15.9414E-03     31.8083E-03    -15.8669E-03     23.5019E-03    -15.8925E-03     31.4929E-03    -15.7725E-03     23.4868E-03
             584     7.08723E-03     72.1512E-03    -9.61925E+06    -67.6806E+06    -2.81294E+06    -864.442E+03    -15.9907E-03     31.8580E-03    -15.8673E-03     27.3478E-03    -15.9386E-03     31.5397E-03    -15.7693E-03     27.3308E-03
             585     7.97340E-03     72.1778E-03    -8.44065E+06    -66.2625E+06    -1.71003E+06    -828.232E+03    -16.0641E-03     31.9310E-03    -15.8669E-03     31.3551E-03    -16.0108E-03     31.6175E-03    -15.7672E-03     31.3369E-03
             586     8.85913E-03     72.2092E-03    -7.84982E+06    -65.0156E+06    -1.68659E+06    -1.49095E+06    -16.1063E-03     31.9683E-03    -15.8620E-03     35.3950E-03    -16.0535E-03     31.6617E-03    -15.7648E-03     35.3661E-03
             587     9.74521E-03     72.2430E-03    -7.24538E+06    -64.6427E+06    -2.22088E+06    -1.80060E+06    -16.1612E-03     32.0148E-03    -15.8535E-03     39.6049E-03    -16.1076E-03     31.7123E-03    -15.7604E-03     39.5690E-03
             588     10.6311E-03     72.2826E-03    -6.30245E+06    -60.0227E+06    -4.89099E+06    -1.45288E+06    -16.4571E-03     32.2926E-03    -15.8354E-03     43.9494E-03    -16.4056E-03     32.0198E-03    -15.7637E-03     43.9135E-03
             589     11.5169E-03     72.3241E-03    -5.70230E+06    -49.8314E+06    -4.88072E+06    -1.41391E+06    -16.6075E-03     32.4408E-03    -15.8334E-03     48.1606E-03    -16.5741E-03     32.2245E-03    -15.7773E-03     48.1196E-03
             590     12.4028E-03     72.3719E-03    -4.41995E+06    -39.0637E+06    -2.77047E+06    -641.341E+03    -16.5236E-03     32.3559E-03    -15.8323E-03     54.8102E-03    -16.5139E-03     32.1999E-03    -15.7831E-03     54.7727E-03
             591     13.2890E-03     72.4250E-03    -4.26457E+06    -34.7328E+06    -9.01677E+06    -87.2391E+03    -16.7376E-03     32.5343E-03    -15.7967E-03     56.9374E-03    -16.7402E-03     32.4247E-03    -15.7853E-03     56.8988E-03
             592     14.1731E-03     72.4773E-03    -5.61426E+06    -21.2394E+06    -14.0192E+06    -300.146E+03    -16.9973E-03     32.7632E-03    -15.7660E-03     61.9069E-03    -17.0540E-03     32.7653E-03    -15.7971E-03     61.8586E-03
             593     15.0613E-03     72.5385E-03    -4.65863E+06     21.2711E+06    -15.5205E+06     295.084E+03    -18.1612E-03     33.8632E-03    -15.7020E-03     98.3520E-03    -18.4777E-03     34.2837E-03    -15.8037E-03     98.3316E-03
             594     15.9452E-03     72.6607E-03    -3.61513E+06     89.5450E+06    -12.9204E+06     1.24372E+06    -21.1566E-03     36.7443E-03    -15.5876E-03     173.421E-03    -23.2735E-03     39.2032E-03    -15.7768E-03     174.143E-03
             595     16.8238E-03     72.8595E-03    -3.03309E+06     168.140E+06     53.3595E+06     1.40732E+06    -27.2373E-03     42.9896E-03    -15.7523E-03     271.519E-03    -35.7527E-03     51.9366E-03    -15.7249E-03     277.599E-03
             596     885.833E-06     73.0339E-03    -17.4625E+06    -72.9439E+06    -17.0451E+06    -205.264E+03    -15.8114E-03     31.6602E-03    -15.8487E-03     3.46530E-03    -15.7682E-03     31.3457E-03    -15.8029E-03     3.46211E-03
             597     1.77188E-03     73.0383E-03    -16.8371E+06    -72.2021E+06    -15.1753E+06    -552.973E+03    -15.8317E-03     31.6676E-03    -15.8358E-03     6.41639E-03    -15.7893E-03     31.3531E-03    -15.7826E-03     6.40820E-03
             598     2.65768E-03     73.0458E-03    -15.8081E+06    -71.0382E+06    -12.7245E+06    -665.049E+03    -15.8244E-03     31.6648E-03    -15.8404E-03     9.58776E-03    -15.7822E-03     31.3512E-03    -15.7781E-03     9.57759E-03
             599     3.54373E-03     73.0560E-03    -14.5470E+06    -69.9285E+06    -9.89299E+06    -887.284E+03    -15.8247E-03     31.6685E-03    -15.8437E-03     12.8695E-03    -15.7821E-03     31.3546E-03    -15.7707E-03     12.8559E-03
             600     4.42956E-03     73.0695E-03    -13.0335E+06    -69.2384E+06    -7.41953E+06    -872.704E+03    -15.8426E-03     31.6880E-03    -15.8454E-03     16.2651E-03    -15.7972E-03     31.3721E-03    -15.7632E-03     16.2510E-03
             601     5.31568E-03     73.0860E-03    -11.5707E+06    -67.7592E+06    -5.14517E+06    -787.531E+03    -15.8774E-03     31.7240E-03    -15.8466E-03     19.8099E-03    -15.8304E-03     31.4104E-03    -15.7573E-03     19.7961E-03
             602     6.20142E-03     73.1061E-03    -10.4724E+06    -67.3434E+06    -3.75195E+06    -1.05102E+06    -15.9105E-03     31.7570E-03    -15.8465E-03     23.5053E-03    -15.8612E-03     31.4423E-03    -15.7525E-03     23.4871E-03
             603     7.08764E-03     73.1293E-03    -9.15128E+06    -67.4359E+06    -2.67354E+06    -1.20885E+06    -15.9702E-03     31.8162E-03    -15.8460E-03     27.3743E-03    -15.9163E-03     31.4982E-03    -15.7484E-03     27.3529E-03
             604     7.97332E-03     73.1567E-03    -8.08342E+06    -66.1025E+06    -1.86865E+06    -1.27907E+06    -16.0261E-03     31.8694E-03    -15.8434E-03     31.3740E-03    -15.9710E-03     31.5564E-03    -15.7451E-03     31.3501E-03
             605     8.85955E-03     73.1872E-03    -7.07743E+06    -64.1868E+06    -962.422E+03    -1.28288E+06    -16.1022E-03     31.9433E-03    -15.8411E-03     35.3711E-03    -16.0477E-03     31.6387E-03    -15.7426E-03     35.3448E-03
             606     9.74533E-03     73.2220E-03    -6.66094E+06    -64.0387E+06    -1.44256E+06    -1.88930E+06    -16.2203E-03     32.0581E-03    -15.8378E-03     39.5929E-03    -16.1657E-03     31.7568E-03    -15.7425E-03     39.5556E-03
             607     10.6314E-03     73.2603E-03    -6.57957E+06    -60.4150E+06    -5.21783E+06    -1.96798E+06    -16.3743E-03     32.1916E-03    -15.8173E-03     44.2556E-03    -16.3230E-03     31.9177E-03    -15.7463E-03     44.2133E-03
             608     11.5168E-03     73.3042E-03    -6.43974E+06    -49.7970E+06    -4.96545E+06    -1.69789E+06    -16.5204E-03     32.3316E-03    -15.8112E-03     48.2479E-03    -16.4906E-03     32.1165E-03    -15.7544E-03     48.2034E-03
             609     12.4029E-03     73.3487E-03    -6.36239E+06    -39.7190E+06    -3.65345E+06    -1.57908E+06    -16.5820E-03     32.3918E-03    -15.8099E-03     54.5345E-03    -16.5801E-03     32.2370E-03    -15.7613E-03     54.4844E-03
             610     13.2886E-03     73.4053E-03    -5.24692E+06    -35.5754E+06    -9.33258E+06    -765.177E+03    -16.4642E-03     32.2355E-03    -15.7712E-03     57.0406E-03    -16.4698E-03     32.1232E-03    -15.7587E-03     56.9940E-03
             611     14.1762E-03     73.4544E-03    -4.08260E+06    -20.2924E+06    -13.6068E+06    -180.134E+03    -17.1696E-03     32.9048E-03    -15.7352E-03     62.4454E-03    -17.2217E-03     32.9098E-03    -15.7679E-03     62.3980E-03
             612     15.0587E-03     73.5198E-03    -5.48223E+06     20.8393E+06    -16.1611E+06    -299.998E+03    -17.9756E-03     33.6500E-03    -15.6744E-03     97.3105E-03    -18.2847E-03     34.0605E-03    -15.7775E-03     97.2855E-03
             613     15.9477E-03     73.6356E-03    -6.50704E+06     87.7549E+06    -12.7636E+06     486.728E+03    -22.6608E-03     38.2603E-03    -15.5995E-03     175.643E-03    -24.8334E-03     40.7581E-03    -15.7811E-03     176.287E-03
             614     16.8382E-03     73.8494E-03    -3.25757E+06     168.671E+06     52.8416E+06     1.60967E+06    -27.8401E-03     43.6387E-03    -15.7985E-03     273.027E-03    -36.3495E-03     52.5821E-03    -15.7741E-03     279.266E-03
             615     885.981E-06     74.0122E-03    -17.3543E+06    -72.2728E+06    -16.9582E+06    -333.184E+03    -15.8290E-03     31.6260E-03    -15.7970E-03     3.50178E-03    -15.7863E-03     31.3146E-03    -15.7518E-03     3.49692E-03
             616     1.77175E-03     74.0169E-03    -16.6844E+06    -71.6143E+06    -15.0763E+06    -573.118E+03    -15.8080E-03     31.6254E-03    -15.8174E-03     6.42909E-03    -15.7658E-03     31.3135E-03    -15.7647E-03     6.42064E-03
             617     2.65785E-03     74.0241E-03    -15.6121E+06    -70.5433E+06    -12.4814E+06    -884.925E+03    -15.8024E-03     31.6234E-03    -15.8210E-03     9.57301E-03    -15.7603E-03     31.3116E-03    -15.7584E-03     9.56001E-03
             618     3.54369E-03     74.0345E-03    -14.3557E+06    -69.4504E+06    -9.72901E+06    -996.778E+03    -15.8091E-03     31.6332E-03    -15.8241E-03     12.8474E-03    -15.7664E-03     31.3212E-03    -15.7512E-03     12.8324E-03
             619     4.42979E-03     74.0478E-03    -13.0637E+06    -68.9105E+06    -7.28091E+06    -1.31576E+06    -15.8317E-03     31.6592E-03    -15.8275E-03     16.2471E-03    -15.7872E-03     31.3448E-03    -15.7450E-03     16.2273E-03
             620     5.31558E-03     74.0646E-03    -11.5076E+06    -67.8409E+06    -5.43584E+06    -1.26063E+06    -15.8498E-03     31.6769E-03    -15.8270E-03     19.7962E-03    -15.8020E-03     31.3631E-03    -15.7391E-03     19.7763E-03
             621     6.20177E-03     74.0844E-03    -9.97956E+06    -66.6601E+06    -3.32488E+06    -1.27923E+06    -15.8890E-03     31.7168E-03    -15.8277E-03     23.4910E-03    -15.8388E-03     31.4041E-03    -15.7332E-03     23.4699E-03
             622     7.08753E-03     74.1079E-03    -8.95105E+06    -67.2354E+06    -2.27973E+06    -1.62821E+06    -15.9443E-03     31.7719E-03    -15.8276E-03     27.3612E-03    -15.8903E-03     31.4541E-03    -15.7286E-03     27.3344E-03
             623     7.97376E-03     74.1350E-03    -7.81506E+06    -66.0325E+06    -1.90128E+06    -1.59984E+06    -15.9961E-03     31.8180E-03    -15.8220E-03     31.3377E-03    -15.9397E-03     31.5051E-03    -15.7244E-03     31.3096E-03
             624     8.85953E-03     74.1657E-03    -6.86277E+06    -63.9211E+06    -1.32560E+06    -1.64228E+06    -16.0972E-03     31.9152E-03    -15.8180E-03     35.4224E-03    -16.0415E-03     31.6121E-03    -15.7220E-03     35.3915E-03
             625     9.74561E-03     74.2004E-03    -6.19076E+06    -63.2693E+06    -1.28210E+06    -1.54347E+06    -16.2413E-03     32.0599E-03    -15.8186E-03     39.6718E-03    -16.1858E-03     31.7615E-03    -15.7243E-03     39.6390E-03
             626     10.6312E-03     74.2391E-03    -6.14584E+06    -60.4298E+06    -4.98581E+06    -1.78278E+06    -16.2578E-03     32.0550E-03    -15.7972E-03     44.2529E-03    -16.2046E-03     31.7800E-03    -15.7256E-03     44.2132E-03
             627     11.5179E-03     74.2820E-03    -6.01941E+06    -49.1866E+06    -4.98059E+06    -1.76221E+06    -16.4186E-03     32.2003E-03    -15.7817E-03     48.5531E-03    -16.3874E-03     31.9875E-03    -15.7265E-03     48.5082E-03
             628     12.4030E-03     74.3288E-03    -5.44994E+06    -40.0933E+06    -3.90282E+06    -1.65711E+06    -16.7365E-03     32.5195E-03    -15.7830E-03     54.5532E-03    -16.7295E-03     32.3621E-03    -15.7364E-03     54.5018E-03
             629     13.2893E-03     74.3821E-03    -5.59369E+06    -36.1130E+06    -11.7628E+06    -1.56753E+06    -16.5298E-03     32.2746E-03    -15.7449E-03     56.5106E-03    -16.5328E-03     32.1637E-03    -15.7432E-03     56.4533E-03
             630     14.1746E-03     74.4335E-03    -6.73836E+06    -20.9935E+06    -16.2137E+06    -623.444E+03    -16.0325E-03     31.7120E-03    -15.6796E-03     63.5303E-03    -16.0899E-03     31.7180E-03    -15.7204E-03     63.4822E-03
             631     15.0612E-03     74.5009E-03    -5.98080E+06     18.3225E+06    -17.0101E+06     1.02210E+06    -17.9663E-03     33.5584E-03    -15.5921E-03     98.8590E-03    -18.2777E-03     33.9631E-03    -15.6951E-03     98.8454E-03
             632     15.9476E-03     74.6083E-03    -6.07150E+06     89.1445E+06    -9.19444E+06     1.64829E+06    -22.9473E-03     38.4827E-03    -15.5355E-03     178.220E-03    -25.1524E-03     41.0093E-03    -15.7019E-03     178.906E-03
             633     16.8250E-03     74.8354E-03    -5.28756E+06     169.438E+06     55.1010E+06    -355.067E+03    -27.7083E-03     43.4478E-03    -15.7395E-03     272.014E-03    -36.1071E-03     52.2698E-03    -15.7020E-03     278.152E-03
             634     885.883E-06     74.9908E-03    -17.4864E+06    -71.5504E+06    -16.9345E+06    -372.299E+03    -15.8109E-03     31.5733E-03    -15.7624E-03     3.50014E-03    -15.7700E-03     31.2657E-03    -15.7180E-03     3.49477E-03
             635     1.77198E-03     74.9952E-03    -16.5860E+06    -70.8728E+06    -15.0121E+06    -748.383E+03    -15.7918E-03     31.5851E-03    -15.7933E-03     6.40776E-03    -15.7502E-03     31.2766E-03    -15.7416E-03     6.39706E-03
             636     2.65777E-03     75.0026E-03    -15.5524E+06    -69.8848E+06    -12.4133E+06    -998.672E+03    -15.7917E-03     31.5924E-03    -15.8006E-03     9.56453E-03    -15.7503E-03     31.2837E-03    -15.7388E-03     9.55005E-03
             637     3.54386E-03     75.0128E-03    -14.2582E+06    -68.9359E+06    -9.60111E+06    -1.30403E+06    -15.8039E-03     31.6112E-03    -15.8073E-03     12.8402E-03    -15.7617E-03     31.3015E-03    -15.7347E-03     12.8212E-03
             638     4.42969E-03     75.0263E-03    -12.8214E+06    -68.2313E+06    -6.90523E+06    -1.46599E+06    -15.8147E-03     31.6275E-03    -15.8129E-03     16.2345E-03    -15.7704E-03     31.3156E-03    -15.7299E-03     16.2127E-03
             639     5.31584E-03     75.0428E-03    -11.4950E+06    -67.5652E+06    -5.14891E+06    -1.85760E+06    -15.8314E-03     31.6440E-03    -15.8126E-03     19.7651E-03    -15.7844E-03     31.3312E-03    -15.7237E-03     19.7375E-03
             640     6.20169E-03     75.0628E-03    -10.0531E+06    -66.4864E+06    -3.71844E+06    -1.77773E+06    -15.8736E-03     31.6836E-03    -15.8100E-03     23.4876E-03    -15.8235E-03     31.3726E-03    -15.7176E-03     23.4601E-03
             641     7.08784E-03     75.0863E-03    -8.78967E+06    -66.5436E+06    -2.02721E+06    -1.75066E+06    -15.9214E-03     31.7332E-03    -15.8117E-03     27.3084E-03    -15.8680E-03     31.4182E-03    -15.7126E-03     27.2800E-03
             642     7.97367E-03     75.1132E-03    -7.86632E+06    -66.0334E+06    -2.26827E+06    -2.05019E+06    -15.9698E-03     31.7732E-03    -15.8034E-03     31.3005E-03    -15.9131E-03     31.4608E-03    -15.7076E-03     31.2666E-03
             643     8.85988E-03     75.1442E-03    -6.82277E+06    -63.7985E+06    -2.20381E+06    -1.95951E+06    -16.0663E-03     31.8616E-03    -15.7954E-03     35.4783E-03    -16.0094E-03     31.5604E-03    -15.7040E-03     35.4433E-03
             644     9.74569E-03     75.1788E-03    -6.14692E+06    -63.2705E+06    -2.15997E+06    -1.72181E+06    -16.1826E-03     31.9761E-03    -15.7935E-03     39.7302E-03    -16.1256E-03     31.6789E-03    -15.7036E-03     39.6952E-03
             645     10.6320E-03     75.2176E-03    -5.70238E+06    -59.8441E+06    -4.88457E+06    -1.62909E+06    -16.2607E-03     32.0356E-03    -15.7749E-03     44.0822E-03    -16.2065E-03     31.7628E-03    -15.7043E-03     44.0443E-03
             646     11.5174E-03     75.2601E-03    -5.63027E+06    -49.3393E+06    -4.72463E+06    -1.69651E+06    -16.1824E-03     31.9366E-03    -15.7542E-03     48.6629E-03    -16.1491E-03     31.7218E-03    -15.6981E-03     48.6194E-03
             647     12.4040E-03     75.3077E-03    -5.58129E+06    -39.5303E+06    -3.84108E+06    -1.93402E+06    -16.6042E-03     32.3463E-03    -15.7420E-03     55.3141E-03    -16.5985E-03     32.1916E-03    -15.6958E-03     55.2597E-03
             648     13.2889E-03     75.3612E-03    -5.52790E+06    -36.4296E+06    -11.2718E+06    -1.41610E+06    -16.7936E-03     32.5065E-03    -15.7128E-03     56.6866E-03    -16.7973E-03     32.3939E-03    -15.7084E-03     56.6295E-03
             649     14.1755E-03     75.4114E-03    -5.01298E+06    -23.4909E+06    -15.8668E+06    -718.809E+03    -15.7769E-03     31.4297E-03    -15.6528E-03     60.9826E-03    -15.8209E-03     31.4184E-03    -15.6908E-03     60.9326E-03
             650     15.0676E-03     75.4729E-03    -7.90358E+06     17.4522E+06    -21.5772E+06     262.077E+03    -17.3569E-03     32.8786E-03    -15.5217E-03     98.4891E-03    -17.6709E-03     33.2892E-03    -15.6434E-03     98.4706E-03
             651     15.9466E-03     75.6010E-03    -7.83365E+06     90.1658E+06    -14.0096E+06     312.684E+03    -21.2393E-03     36.6431E-03    -15.4038E-03     177.476E-03    -23.4191E-03     39.1557E-03    -15.5933E-03     178.198E-03
             652     16.8456E-03     75.8004E-03    -3.88839E+06     170.754E+06     58.1707E+06    -642.005E+03    -29.2166E-03     44.8509E-03    -15.6343E-03     275.143E-03    -37.9304E-03     53.9884E-03    -15.5854E-03     281.081E-03
             653     886.034E-06     75.9691E-03    -17.5480E+06    -70.6389E+06    -17.1745E+06    -460.543E+03    -15.7671E-03     31.5435E-03    -15.7764E-03     3.48074E-03    -15.7275E-03     31.2409E-03    -15.7344E-03     3.47423E-03
             654     1.77181E-03     75.9736E-03    -16.9017E+06    -69.9753E+06    -15.1981E+06    -878.258E+03    -15.7660E-03     31.5425E-03    -15.7765E-03     6.38424E-03    -15.7271E-03     31.2393E-03    -15.7265E-03     6.37186E-03
             655     2.65797E-03     75.9809E-03    -15.7236E+06    -69.2760E+06    -12.4825E+06    -1.22060E+06    -15.7789E-03     31.5624E-03    -15.7835E-03     9.55721E-03    -15.7392E-03     31.2571E-03    -15.7226E-03     9.53987E-03
             656     3.54378E-03     75.9913E-03    -14.3852E+06    -68.1205E+06    -9.57561E+06    -1.52344E+06    -15.7903E-03     31.5818E-03    -15.7915E-03     12.8355E-03    -15.7499E-03     31.2763E-03    -15.7197E-03     12.8137E-03
             657     4.42990E-03     76.0046E-03    -12.8746E+06    -67.6840E+06    -7.00362E+06    -1.89473E+06    -15.8011E-03     31.5984E-03    -15.7973E-03     16.2192E-03    -15.7578E-03     31.2894E-03    -15.7155E-03     16.1919E-03
             658     5.31577E-03     76.0212E-03    -11.4266E+06    -66.7958E+06    -5.03382E+06    -2.02849E+06    -15.8355E-03     31.6348E-03    -15.7993E-03     19.7546E-03    -15.7894E-03     31.3256E-03    -15.7110E-03     19.7248E-03
             659     6.20188E-03     76.0411E-03    -10.2675E+06    -66.2643E+06    -3.98236E+06    -2.32902E+06    -15.8635E-03     31.6612E-03    -15.7977E-03     23.4481E-03    -15.8144E-03     31.3519E-03    -15.7066E-03     23.4134E-03
             660     7.08779E-03     76.0646E-03    -8.77500E+06    -66.3586E+06    -2.55388E+06    -2.23138E+06    -15.8980E-03     31.6952E-03    -15.7972E-03     27.2750E-03    -15.8440E-03     31.3819E-03    -15.7011E-03     27.2403E-03
             661     7.97393E-03     76.0917E-03    -7.56236E+06    -65.3116E+06    -1.91232E+06    -2.35538E+06    -15.9805E-03     31.7731E-03    -15.7927E-03     31.2578E-03    -15.9239E-03     31.4634E-03    -15.6966E-03     31.2199E-03
             662     8.85984E-03     76.1224E-03    -6.65625E+06    -63.7600E+06    -2.37205E+06    -2.66579E+06    -16.0276E-03     31.8107E-03    -15.7831E-03     35.3755E-03    -15.9697E-03     31.5097E-03    -15.6928E-03     35.3314E-03
             663     9.74601E-03     76.1574E-03    -5.34202E+06    -63.3006E+06    -2.45925E+06    -2.43643E+06    -16.1168E-03     31.8928E-03    -15.7760E-03     39.6632E-03    -16.0553E-03     31.5947E-03    -15.6887E-03     39.6191E-03
             664     10.6317E-03     76.1958E-03    -4.63638E+06    -59.9564E+06    -6.02277E+06    -1.98541E+06    -16.2189E-03     31.9682E-03    -15.7493E-03     44.0208E-03    -16.1575E-03     31.6949E-03    -15.6857E-03     43.9783E-03
             665     11.5181E-03     76.2388E-03    -4.33160E+06    -49.6951E+06    -5.58923E+06    -1.66253E+06    -16.0594E-03     31.7844E-03    -15.7251E-03     48.2028E-03    -16.0178E-03     31.5672E-03    -15.6747E-03     48.1598E-03
             666     12.4048E-03     76.2845E-03    -4.79514E+06    -39.2894E+06    -3.85406E+06    -1.17160E+06    -16.0974E-03     31.7936E-03    -15.6962E-03     55.6822E-03    -16.0874E-03     31.6383E-03    -15.6516E-03     55.6390E-03
             667     13.2908E-03     76.3424E-03    -6.38449E+06    -36.2812E+06    -11.0782E+06    -1.16709E+06    -16.4793E-03     32.1242E-03    -15.6449E-03     57.0472E-03    -16.4850E-03     32.0105E-03    -15.6385E-03     56.9952E-03
             668     14.1762E-03     76.3872E-03    -8.36480E+06    -24.4188E+06    -19.5122E+06    -968.000E+03    -17.9805E-03     33.6116E-03    -15.6311E-03     61.5717E-03    -18.0419E-03     33.6130E-03    -15.6811E-03     61.5094E-03
             669     15.0554E-03     76.4540E-03    -11.3241E+06     20.1507E+06    -22.2574E+06    -1.37198E+06    -17.7018E-03     33.2951E-03    -15.5933E-03     95.2903E-03    -18.0207E-03     33.7099E-03    -15.7174E-03     95.2556E-03
             670     15.9543E-03     76.5698E-03    -10.3906E+06     88.1429E+06    -17.9002E+06    -2.68959E+06    -20.1383E-03     35.5980E-03    -15.4597E-03     171.306E-03    -22.2660E-03     38.0538E-03    -15.6620E-03     171.970E-03
             671     16.8315E-03     76.7823E-03    -4.05757E+06     167.595E+06     51.8570E+06    -162.846E+03    -29.2579E-03     44.9171E-03    -15.6592E-03     273.898E-03    -38.0149E-03     54.1044E-03    -15.6370E-03     279.959E-03
             672     885.846E-06     76.9475E-03     -18.131E+06    -69.6508E+06    -17.6188E+06    -602.186E+03    -15.7258E-03     31.5066E-03    -15.7808E-03     3.48697E-03    -15.6899E-03     31.2104E-03    -15.7416E-03     3.47863E-03
             673     1.77205E-03     76.9519E-03    -17.2527E+06    -68.9556E+06    -15.5396E+06    -962.994E+03    -15.7548E-03     31.5147E-03    -15.7599E-03     6.40553E-03    -15.7186E-03     31.2176E-03    -15.7126E-03     6.39206E-03
             674     2.65782E-03     76.9593E-03    -16.1711E+06    -68.3074E+06    -12.7123E+06    -1.49138E+06    -15.7666E-03     31.5361E-03    -15.7695E-03     9.55519E-03    -15.7302E-03     31.2367E-03    -15.7106E-03     9.53435E-03
             675     3.54396E-03     76.9696E-03    -14.6525E+06    -67.3326E+06    -9.90597E+06    -1.85826E+06    -15.7696E-03     31.5464E-03    -15.7768E-03     12.8134E-03    -15.7312E-03     31.2457E-03    -15.7074E-03     12.7872E-03
             676     4.42983E-03     76.9830E-03    -13.2189E+06    -66.8483E+06    -7.31544E+06    -2.18645E+06    -15.7992E-03     31.5824E-03    -15.7832E-03     16.2064E-03    -15.7583E-03     31.2785E-03    -15.7037E-03     16.1753E-03
             677     5.31594E-03     76.9995E-03    -11.7508E+06    -66.2833E+06    -5.51829E+06    -2.51287E+06    -15.8342E-03     31.6210E-03    -15.7868E-03     19.7471E-03    -15.7898E-03     31.3156E-03    -15.7013E-03     19.7110E-03
             678     6.20181E-03     77.0195E-03    -10.1988E+06    -65.4480E+06    -4.01491E+06    -2.69680E+06    -15.8634E-03     31.6514E-03    -15.7880E-03     23.4161E-03    -15.8151E-03     31.3462E-03    -15.6984E-03     23.3767E-03
             679     7.08793E-03     77.0428E-03    -8.95749E+06    -66.2464E+06    -2.93396E+06    -3.02789E+06    -15.9189E-03     31.7086E-03    -15.7897E-03     27.2345E-03    -15.8655E-03     31.3967E-03    -15.6953E-03     27.1895E-03
             680     7.97390E-03     77.0700E-03    -7.53088E+06    -64.7822E+06    -2.07211E+06    -2.95253E+06    -15.9889E-03     31.7766E-03    -15.7877E-03     31.2196E-03    -15.9327E-03     31.4698E-03    -15.6932E-03     31.1739E-03
             681     8.85983E-03     77.1009E-03    -6.35265E+06    -63.0705E+06    -1.82935E+06    -3.26738E+06    -16.0440E-03     31.8268E-03    -15.7828E-03     35.2423E-03    -15.9863E-03     31.5280E-03    -15.6913E-03     35.1903E-03
             682     9.74595E-03     77.1352E-03    -5.49841E+06    -63.5008E+06    -2.33055E+06    -3.46021E+06    -16.0954E-03     31.8712E-03    -15.7758E-03     39.5444E-03    -16.0346E-03     31.5722E-03    -15.6874E-03     39.4869E-03
             683     10.6322E-03     77.1746E-03    -4.39143E+06    -60.3074E+06    -5.91148E+06    -2.87127E+06    -16.1506E-03     31.8962E-03    -15.7455E-03     43.6831E-03    -16.0875E-03     31.6205E-03    -15.6813E-03     43.6293E-03
             684     11.5182E-03     77.2163E-03    -3.50863E+06    -49.6088E+06    -4.81735E+06    -2.60069E+06    -16.3112E-03     32.0420E-03    -15.7308E-03     47.5802E-03    -16.2673E-03     31.8235E-03    -15.6779E-03     47.5241E-03
             685     12.4039E-03     77.2632E-03    -1.50170E+06    -40.3879E+06    -2.23090E+06    -1.89646E+06    -16.0888E-03     31.8038E-03    -15.7150E-03     53.8584E-03    -16.0624E-03     31.6352E-03    -15.6654E-03     53.8058E-03
             686     13.2921E-03     77.3180E-03    -2.29172E+06    -36.7355E+06    -9.67820E+06    -1.19074E+06    -16.3320E-03     31.9889E-03    -15.6569E-03     55.4597E-03    -16.3178E-03     31.8641E-03    -15.6487E-03     55.4095E-03
             687     14.1778E-03     77.3692E-03    -9.92793E+06    -21.7385E+06    -17.0986E+06    -1.43694E+06    -17.7128E-03     33.3512E-03    -15.6384E-03     62.8459E-03    -17.7881E-03     33.3636E-03    -15.6779E-03     62.7809E-03
             688     15.0627E-03     77.4383E-03    -7.53977E+06     19.0253E+06    -16.7339E+06    -1.37798E+06    -18.9754E-03     34.6180E-03    -15.6426E-03     94.9361E-03    -19.2804E-03     35.0123E-03    -15.7429E-03     94.8848E-03
             689     15.9398E-03     77.5376E-03    -1.61492E+06     87.3489E+06    -13.9925E+06     482.093E+03    -23.1223E-03     38.7187E-03    -15.5964E-03     175.119E-03    -25.3075E-03     41.2490E-03    -15.7907E-03     175.753E-03
             690     16.8329E-03     77.7702E-03    -3.53655E+06     167.778E+06     51.0325E+06     670.566E+03    -28.3717E-03     44.1821E-03    -15.8104E-03     278.036E-03    -37.1431E-03     53.3888E-03    -15.7934E-03     284.396E-03
             691     886.122E-06     77.9258E-03    -18.4621E+06    -68.4428E+06    -18.0038E+06    -644.236E+03    -15.7362E-03     31.4720E-03    -15.7359E-03     3.47117E-03    -15.7031E-03     31.1829E-03    -15.6999E-03     3.46229E-03
             692     1.77186E-03     77.9303E-03    -17.7788E+06    -67.9451E+06    -16.0633E+06    -1.16087E+06    -15.7507E-03     31.4958E-03    -15.7451E-03     6.40327E-03    -15.7179E-03     31.2053E-03    -15.7011E-03     6.38724E-03
             693     2.65802E-03     77.9376E-03    -16.5406E+06    -67.0140E+06    -13.3313E+06    -1.66914E+06    -15.7507E-03     31.5064E-03    -15.7557E-03     9.54169E-03    -15.7171E-03     31.2149E-03    -15.7012E-03     9.51855E-03
             694     3.54386E-03     77.9479E-03    -15.2423E+06    -66.3374E+06    -10.4487E+06    -2.27008E+06    -15.7654E-03     31.5299E-03    -15.7645E-03     12.8091E-03    -15.7306E-03     31.2358E-03    -15.6985E-03     12.7776E-03
             695     4.43000E-03     77.9613E-03    -13.6242E+06    -66.0458E+06    -7.82084E+06    -2.55978E+06    -15.7932E-03     31.5658E-03    -15.7726E-03     16.2061E-03    -15.7548E-03     31.2672E-03    -15.6962E-03     16.1702E-03
             696     5.31583E-03     77.9779E-03    -12.1461E+06    -65.4024E+06    -5.81468E+06    -2.93691E+06    -15.8259E-03     31.6035E-03    -15.7777E-03     19.7361E-03    -15.7843E-03     31.3035E-03    -15.6943E-03     19.6946E-03
             697     6.20199E-03     77.9978E-03    -10.7142E+06    -64.6529E+06    -4.50223E+06    -3.45832E+06    -15.8838E-03     31.6641E-03    -15.7804E-03     23.4007E-03    -15.8385E-03     31.3644E-03    -15.6936E-03     23.3514E-03
             698     7.08786E-03     78.0213E-03    -9.20289E+06    -65.4902E+06    -2.96843E+06    -3.56968E+06    -15.9606E-03     31.7493E-03    -15.7887E-03     27.2225E-03    -15.9095E-03     31.4417E-03    -15.6953E-03     27.1705E-03
             699     7.97379E-03     78.0483E-03    -8.05593E+06    -64.6245E+06    -2.58047E+06    -3.73805E+06    -15.9954E-03     31.7843E-03    -15.7889E-03     31.1702E-03    -15.9414E-03     31.4797E-03    -15.6964E-03     31.1143E-03
             700     8.85998E-03     78.0792E-03    -6.99509E+06    -62.1306E+06    -1.94734E+06    -3.72173E+06    -16.1108E-03     31.8993E-03    -15.7885E-03     35.2290E-03    -16.0576E-03     31.6064E-03    -15.6980E-03     35.1711E-03
             701     9.74570E-03     78.1138E-03    -6.27574E+06    -63.1292E+06    -2.22245E+06    -3.98781E+06    -16.2176E-03     32.0098E-03    -15.7923E-03     39.2648E-03    -16.1614E-03     31.7138E-03    -15.7028E-03     39.2002E-03
             702     10.6317E-03     78.1524E-03    -5.92495E+06    -60.7264E+06    -6.19412E+06    -3.85316E+06    -16.2540E-03     32.0256E-03    -15.7716E-03     43.2951E-03    -16.1977E-03     31.7506E-03    -15.7059E-03     43.2284E-03
             703     11.5177E-03     78.1951E-03    -5.47895E+06    -49.7072E+06    -5.41674E+06    -3.36970E+06    -16.6073E-03     32.3768E-03    -15.7695E-03     47.6794E-03    -16.5725E-03     32.1618E-03    -15.7166E-03     47.6128E-03
             704     12.4032E-03     78.2421E-03    -5.52248E+06    -40.5956E+06    -4.11240E+06    -3.09146E+06    -16.9078E-03     32.6966E-03    -15.7888E-03     52.8787E-03    -16.8995E-03     32.5365E-03    -15.7425E-03     52.8083E-03
             705     13.2878E-03     78.2948E-03    -4.06550E+06    -37.6549E+06    -9.33644E+06    -2.60009E+06    -16.6946E-03     32.4710E-03    -15.7764E-03     55.5165E-03    -16.6917E-03     32.3471E-03    -15.7626E-03     55.4458E-03
             706     14.1730E-03     78.3498E-03     1.20080E+06    -22.2747E+06    -9.86420E+06    -858.641E+03    -15.7883E-03     31.5083E-03    -15.7200E-03     61.5685E-03    -15.8108E-03     31.4846E-03    -15.7387E-03     61.5185E-03
             707     15.0626E-03     78.4118E-03     2.42796E+06     16.9475E+06    -13.5411E+06    -276.989E+03    -17.9508E-03     33.5638E-03    -15.6130E-03     95.5236E-03    -18.2136E-03     33.9346E-03    -15.7088E-03     95.4896E-03
             708     15.9510E-03     78.5298E-03     -2.2262E+06     87.2074E+06    -13.1442E+06    -115.995E+03    -24.1373E-03     39.6994E-03    -15.5621E-03     177.059E-03    -26.3298E-03     42.2317E-03    -15.7510E-03     177.665E-03
             709     16.8289E-03     78.7388E-03    -5.03375E+06     169.752E+06     54.1065E+06     986.894E+03    -28.9378E-03     44.7652E-03    -15.8274E-03     278.186E-03    -37.7985E-03     54.0539E-03    -15.7957E-03     284.499E-03
             710     885.851E-06     78.9041E-03    -18.4208E+06    -67.0427E+06    -17.9256E+06    -679.605E+03    -15.7498E-03     31.4620E-03    -15.7122E-03     3.48477E-03    -15.7186E-03     31.1797E-03    -15.6779E-03     3.47544E-03
             711     1.77206E-03     78.9086E-03    -17.6903E+06    -66.5909E+06    -16.1211E+06    -1.26485E+06    -15.7343E-03     31.4714E-03    -15.7371E-03     6.39974E-03    -15.7029E-03     31.1876E-03    -15.6955E-03     6.38237E-03
             712     2.65787E-03     78.9159E-03    -16.6420E+06    -65.7938E+06    -13.5782E+06    -1.94476E+06    -15.7396E-03     31.4843E-03    -15.7447E-03     9.54749E-03    -15.7079E-03     31.1993E-03    -15.6931E-03     9.52079E-03
             713     3.54404E-03     78.9262E-03    -15.3054E+06    -65.0245E+06    -10.6839E+06    -2.46077E+06    -15.7667E-03     31.5212E-03    -15.7545E-03     12.8227E-03    -15.7338E-03     31.2342E-03    -15.6915E-03     12.7888E-03
             714     4.42984E-03     78.9396E-03    -13.9817E+06    -65.1725E+06    -8.14659E+06    -3.02266E+06    -15.7932E-03     31.5585E-03    -15.7652E-03     16.2037E-03    -15.7574E-03     31.2653E-03    -15.6912E-03     16.1618E-03
             715     5.31605E-03     78.9562E-03    -12.3611E+06    -64.2292E+06    -6.23363E+06    -3.43704E+06    -15.8362E-03     31.6074E-03    -15.7713E-03     19.7299E-03    -15.7967E-03     31.3142E-03    -15.6914E-03     19.6818E-03
             716     6.20183E-03     78.9762E-03    -10.9313E+06    -63.6130E+06    -4.57147E+06    -3.92974E+06    -15.9060E-03     31.6850E-03    -15.7790E-03     23.4148E-03    -15.8632E-03     31.3908E-03    -15.6937E-03     23.3594E-03
             717     7.08787E-03     78.9996E-03    -9.73687E+06    -64.9442E+06    -3.21905E+06    -4.26352E+06    -15.9720E-03     31.7620E-03    -15.7901E-03     27.2371E-03    -15.9239E-03     31.4582E-03    -15.6979E-03     27.1761E-03
             718     7.97387E-03     79.0268E-03    -8.47774E+06    -63.9836E+06    -2.69286E+06    -4.18471E+06    -16.0749E-03     31.8704E-03    -15.7955E-03     31.1469E-03    -16.0237E-03     31.5698E-03    -15.7039E-03     31.0852E-03
             719     8.85963E-03     79.0574E-03    -7.56409E+06    -61.6211E+06    -2.67312E+06    -4.27759E+06    -16.1973E-03     31.9976E-03    -15.8003E-03     35.2586E-03    -16.1467E-03     31.7092E-03    -15.7134E-03     35.1933E-03
             720     9.74558E-03     79.0927E-03    -6.80888E+06    -62.2218E+06    -3.05007E+06    -4.13774E+06    -16.3240E-03     32.1346E-03    -15.8105E-03     39.2812E-03    -16.2708E-03     31.8451E-03    -15.7257E-03     39.2146E-03
             721     10.6312E-03     79.1306E-03    -6.21318E+06    -61.0815E+06    -7.65382E+06    -4.20438E+06    -16.5188E-03     32.3201E-03    -15.8014E-03     43.4547E-03    -16.4615E-03     32.0462E-03    -15.7421E-03     43.3828E-03
             722     11.5170E-03     79.1738E-03    -6.27053E+06    -50.3212E+06    -8.00538E+06    -3.92391E+06    -16.6842E-03     32.4889E-03    -15.8048E-03     48.1957E-03    -16.6486E-03     32.2757E-03    -15.7627E-03     48.1221E-03
             723     12.4023E-03     79.2215E-03    -5.81901E+06    -40.4197E+06    -6.05141E+06    -3.16631E+06    -17.0415E-03     32.8693E-03    -15.8278E-03     54.1643E-03    -17.0325E-03     32.7136E-03    -15.7910E-03     54.0929E-03
             724     13.2874E-03     79.2748E-03    -4.24563E+06    -38.3309E+06    -11.9320E+06    -2.55297E+06    -16.6485E-03     32.4586E-03    -15.8102E-03     56.9511E-03    -16.6419E-03     32.3356E-03    -15.8081E-03     56.8808E-03
             725     14.1752E-03     79.3259E-03    -1.88123E+06    -25.2746E+06    -15.0087E+06    -1.76700E+06    -15.9458E-03     31.6928E-03    -15.7469E-03     62.1564E-03    -15.9736E-03     31.6677E-03    -15.7826E-03     62.0930E-03
             726     15.0614E-03     79.3887E-03    -1.78191E+06     16.5506E+06    -17.7034E+06    -1.35098E+06    -18.1210E-03     33.7692E-03    -15.6482E-03     96.5679E-03    -18.4106E-03     34.1625E-03    -15.7581E-03     96.5234E-03
             727     15.9455E-03     79.5084E-03    -6.04050E+06     87.3420E+06    -15.9359E+06    -192.575E+03    -22.4161E-03     37.9848E-03    -15.5687E-03     173.463E-03    -24.5347E-03     40.4383E-03    -15.7663E-03     174.107E-03
             728     16.8347E-03     79.7232E-03    -6.20880E+06     169.037E+06     51.6797E+06     672.499E+03    -28.2446E-03     44.0269E-03    -15.7823E-03     276.085E-03    -37.0915E-03     53.3021E-03    -15.7600E-03     282.319E-03
             729     886.128E-06     79.8824E-03    -18.2763E+06    -65.5187E+06    -17.9712E+06    -815.075E+03    -15.7218E-03     31.4492E-03    -15.7274E-03     3.49645E-03    -15.6920E-03     31.1744E-03    -15.6958E-03     3.48538E-03
             730     1.77187E-03     79.8869E-03    -17.4886E+06    -65.0807E+06    -15.9813E+06    -1.52190E+06    -15.7212E-03     31.4507E-03    -15.7295E-03     6.39137E-03    -15.6912E-03     31.1739E-03    -15.6897E-03     6.37067E-03
             731     2.65810E-03     79.8942E-03    -16.3466E+06    -64.3239E+06    -13.3389E+06    -2.13491E+06    -15.7428E-03     31.4804E-03    -15.7377E-03     9.55546E-03    -15.7121E-03     31.2021E-03    -15.6874E-03     9.52630E-03
             732     3.54387E-03     79.9046E-03    -15.0743E+06    -63.8442E+06    -10.5810E+06    -2.77057E+06    -15.7656E-03     31.5150E-03    -15.7494E-03     12.8159E-03    -15.7334E-03     31.2333E-03    -15.6878E-03     12.7780E-03
             733     4.43008E-03     79.9179E-03    -13.5499E+06    -63.7035E+06    -7.97981E+06    -3.33719E+06    -15.8048E-03     31.5663E-03    -15.7615E-03     16.2014E-03    -15.7692E-03     31.2796E-03    -15.6894E-03     16.1554E-03
             734     5.31580E-03     79.9346E-03    -12.2587E+06    -63.1192E+06    -6.29516E+06    -3.92469E+06    -15.8536E-03     31.6238E-03    -15.7702E-03     19.7490E-03    -15.8152E-03     31.3360E-03    -15.6924E-03     19.6947E-03
             735     6.20197E-03     79.9545E-03    -11.0806E+06    -62.5397E+06    -4.93676E+06    -4.23581E+06    -15.9090E-03     31.6874E-03    -15.7784E-03     23.4523E-03    -15.8680E-03     31.3993E-03    -15.6963E-03     23.3929E-03
             736     7.08782E-03     79.9781E-03    -9.91584E+06    -63.9474E+06    -3.54301E+06    -4.65480E+06    -16.0077E-03     31.7997E-03    -15.7920E-03     27.2483E-03    -15.9615E-03     31.5016E-03    -15.7026E-03     27.1823E-03
             737     7.97372E-03     80.0050E-03    -8.69220E+06    -63.5566E+06    -3.59227E+06    -4.97232E+06    -16.1410E-03     31.9415E-03    -15.8005E-03     31.2634E-03    -16.0903E-03     31.6448E-03    -15.7137E-03     31.1915E-03
             738     8.85950E-03     80.0364E-03    -7.45975E+06    -61.1128E+06    -3.63469E+06    -4.73473E+06    -16.2322E-03     32.0406E-03    -15.8084E-03     35.3879E-03    -16.1804E-03     31.7559E-03    -15.7271E-03     35.3167E-03
             739     9.74534E-03     80.0707E-03    -6.34136E+06    -61.8881E+06    -3.49132E+06    -4.80894E+06    -16.3277E-03     32.1487E-03    -15.8210E-03     39.5207E-03    -16.2719E-03     31.8608E-03    -15.7395E-03     39.4455E-03
             740     10.6313E-03     80.1099E-03    -5.53320E+06    -60.8053E+06    -8.03400E+06    -4.77308E+06    -16.6368E-03     32.4515E-03    -15.8146E-03     44.0739E-03    -16.5762E-03     32.1786E-03    -15.7586E-03     43.9946E-03
             741     11.5163E-03     80.1525E-03    -4.88468E+06    -50.3652E+06    -8.01276E+06    -4.34689E+06    -16.5539E-03     32.3705E-03    -15.8167E-03     48.5858E-03    -16.5111E-03     32.1549E-03    -15.7766E-03     48.5071E-03
             742     12.4029E-03     80.2000E-03    -4.85642E+06    -41.0924E+06    -5.97455E+06    -4.02400E+06    -16.4009E-03     32.2128E-03    -15.8119E-03     55.1379E-03    -16.3856E-03     32.0517E-03    -15.7751E-03     55.0572E-03
             743     13.2893E-03     80.2540E-03    -4.49306E+06    -39.0910E+06    -11.9732E+06    -3.38116E+06    -16.6283E-03     32.4014E-03    -15.7731E-03     56.4516E-03    -16.6214E-03     32.2745E-03    -15.7697E-03     56.3707E-03
             744     14.1745E-03     80.3026E-03    -4.12553E+06    -25.2656E+06    -15.9843E+06    -2.93797E+06    -17.3183E-03     33.0696E-03    -15.7513E-03     61.7079E-03    -17.3613E-03     33.0546E-03    -15.7886E-03     61.6237E-03
             745     15.0596E-03     80.3694E-03    -6.42828E+06     14.6906E+06    -20.8945E+06    -1.66133E+06    -19.3461E-03     35.0687E-03    -15.7226E-03     98.3360E-03    -19.6580E-03     35.4705E-03    -15.8391E-03     98.2815E-03
             746     15.9431E-03     80.4893E-03    -6.70102E+06     85.5443E+06    -18.8965E+06     719.960E+03    -21.7980E-03     37.4525E-03    -15.6545E-03     172.163E-03    -23.8784E-03     39.8676E-03    -15.8633E-03     172.851E-03
             747     16.8321E-03     80.6920E-03    -4.22002E+06     169.470E+06     50.7173E+06     723.519E+03    -26.9179E-03     42.7380E-03    -15.8201E-03     275.251E-03    -35.7518E-03     52.0116E-03    -15.8061E-03     281.584E-03
             748     885.812E-06     80.8607E-03    -18.3187E+06    -63.6927E+06    -17.8594E+06    -1.05892E+06    -15.7175E-03     31.4579E-03    -15.7404E-03     3.42203E-03    -15.6908E-03     31.1921E-03    -15.7108E-03     3.40781E-03
             749     1.77213E-03     80.8652E-03    -17.5089E+06    -63.3709E+06    -16.0213E+06    -1.78128E+06    -15.7163E-03     31.4483E-03    -15.7320E-03     6.36974E-03    -15.6888E-03     31.1802E-03    -15.6948E-03     6.34570E-03
             750     2.65784E-03     80.8725E-03    -16.4379E+06    -62.8424E+06    -13.5170E+06    -2.46049E+06    -15.7381E-03     31.4754E-03    -15.7373E-03     9.54475E-03    -15.7098E-03     31.2048E-03    -15.6899E-03     9.51139E-03
             751     3.54408E-03     80.8828E-03    -14.9548E+06    -62.2520E+06    -10.6640E+06    -3.14470E+06    -15.7665E-03     31.5147E-03    -15.7483E-03     12.8189E-03    -15.7359E-03     31.2410E-03    -15.6896E-03     12.7761E-03
             752     4.42980E-03     80.8963E-03    -13.5157E+06    -62.3136E+06    -8.18344E+06    -3.80096E+06    -15.8050E-03     31.5652E-03    -15.7602E-03     16.2220E-03    -15.7709E-03     31.2857E-03    -15.6912E-03     16.1701E-03
             753     5.31605E-03     80.9129E-03    -12.0666E+06    -61.8686E+06    -6.36262E+06    -4.21065E+06    -15.8580E-03     31.6278E-03    -15.7698E-03     19.7815E-03    -15.8204E-03     31.3461E-03    -15.6944E-03     19.7235E-03
             754     6.20177E-03     80.9330E-03    -10.8317E+06    -61.3929E+06    -5.13406E+06    -4.66492E+06    -15.9309E-03     31.7099E-03    -15.7789E-03     23.4800E-03    -15.8900E-03     31.4275E-03    -15.6999E-03     23.4151E-03
             755     7.08784E-03     80.9565E-03    -9.47893E+06    -62.6361E+06    -3.72050E+06    -5.16356E+06    -16.0286E-03     31.8229E-03    -15.7943E-03     27.3432E-03    -15.9819E-03     31.5309E-03    -15.7083E-03     27.2706E-03
             756     7.97359E-03     80.9838E-03    -8.24993E+06    -62.7654E+06    -3.77549E+06    -5.67174E+06    -16.1267E-03     31.9297E-03    -15.8031E-03     31.4084E-03    -16.0746E-03     31.6365E-03    -15.7190E-03     31.3275E-03
             757     8.85959E-03     81.0146E-03    -7.01642E+06    -60.7820E+06    -4.07260E+06    -5.83195E+06    -16.1843E-03     31.9907E-03    -15.8064E-03     35.5176E-03    -16.1301E-03     31.7076E-03    -15.7284E-03     35.4325E-03
             758     9.74537E-03     81.0497E-03    -5.79047E+06    -61.3519E+06    -3.69890E+06    -5.70340E+06    -16.3420E-03     32.1593E-03    -15.8173E-03     39.8105E-03    -16.2840E-03     31.8737E-03    -15.7385E-03     39.7238E-03
             759     10.6311E-03     81.0881E-03    -4.98993E+06    -60.4418E+06    -7.62665E+06    -5.53260E+06    -16.4390E-03     32.2453E-03    -15.8063E-03     44.4502E-03    -16.3765E-03     31.9727E-03    -15.7496E-03     44.3616E-03
             760     11.5172E-03     81.1323E-03    -4.48181E+06    -50.4648E+06    -7.86527E+06    -4.94439E+06    -16.3892E-03     32.1834E-03    -15.7942E-03     48.5192E-03    -16.3445E-03     31.9665E-03    -15.7539E-03     48.4330E-03
             761     12.4032E-03     81.1766E-03    -4.30525E+06    -41.3599E+06    -5.56167E+06    -4.32579E+06    -16.3762E-03     32.1620E-03    -15.7858E-03     54.7144E-03    -16.3583E-03     31.9981E-03    -15.7474E-03     54.6298E-03
             762     13.2895E-03     81.2336E-03     -4.2947E+06    -39.3482E+06    -11.6264E+06    -4.14757E+06    -16.9581E-03     32.7171E-03    -15.7590E-03     56.6011E-03    -16.9507E-03     32.5885E-03    -15.7538E-03     56.5093E-03
             763     14.1743E-03     81.2821E-03    -4.81959E+06    -26.0497E+06    -16.5508E+06    -3.26662E+06    -17.8695E-03     33.6314E-03    -15.7619E-03     62.7369E-03    -17.9164E-03     33.6168E-03    -15.7999E-03     62.6465E-03
             764     15.0580E-03     81.3506E-03    -4.60087E+06     12.8814E+06    -19.2703E+06    -1.10532E+06    -18.7330E-03     34.4702E-03    -15.7372E-03     99.8241E-03    -19.0334E-03     34.8559E-03    -15.8456E-03     99.7831E-03
             765     15.9458E-03     81.4665E-03    -5.68730E+06     83.5919E+06    -18.6034E+06     259.164E+03    -23.0517E-03     38.7265E-03    -15.6748E-03     173.288E-03    -25.1480E-03     41.1534E-03    -15.8808E-03     173.898E-03
             766     16.8284E-03     81.6727E-03    -4.71274E+06     169.434E+06     49.0045E+06     249.971E+03    -27.0248E-03     42.8951E-03    -15.8703E-03     272.922E-03    -35.6936E-03     52.0067E-03    -15.8641E-03     279.286E-03
             767     886.122E-06     81.8390E-03    -18.2096E+06    -61.6257E+06    -17.7047E+06    -1.07431E+06    -15.7322E-03     31.4670E-03    -15.7348E-03     3.38713E-03    -15.7082E-03     31.2112E-03    -15.7076E-03     3.37272E-03
             768     1.77177E-03     81.8435E-03    -17.4376E+06    -61.4993E+06    -15.9126E+06    -1.94393E+06    -15.7271E-03     31.4651E-03    -15.7380E-03     6.39667E-03    -15.7021E-03     31.2061E-03    -15.7031E-03     6.37053E-03
             769     2.65809E-03     81.8508E-03    -16.3273E+06    -60.9996E+06    -13.5279E+06    -2.79620E+06    -15.7348E-03     31.4772E-03    -15.7424E-03     9.55389E-03    -15.7086E-03     31.2157E-03    -15.6979E-03     9.51619E-03
             770     3.54381E-03     81.8612E-03    -15.0493E+06    -60.5437E+06    -11.0080E+06    -3.60918E+06    -15.7600E-03     31.5094E-03    -15.7495E-03     12.8407E-03    -15.7318E-03     31.2449E-03    -15.6949E-03     12.7919E-03
             771     4.43007E-03     81.8746E-03    -13.5900E+06    -60.7577E+06    -8.42803E+06    -4.24142E+06    -15.8043E-03     31.5650E-03    -15.7607E-03     16.2421E-03    -15.7725E-03     31.2937E-03    -15.6951E-03     16.1845E-03
             772     5.31577E-03     81.8913E-03    -12.1437E+06    -60.5621E+06    -6.68620E+06    -4.83876E+06    -15.8619E-03     31.6321E-03    -15.7702E-03     19.8071E-03    -15.8261E-03     31.3575E-03    -15.6982E-03     19.7410E-03
             773     6.20195E-03     81.9114E-03    -10.4879E+06    -60.0329E+06    -5.24076E+06    -5.29985E+06    -15.9289E-03     31.7083E-03    -15.7794E-03     23.5446E-03    -15.8881E-03     31.4324E-03    -15.7034E-03     23.4716E-03
             774     7.08766E-03     81.9350E-03    -9.14313E+06    -61.3939E+06    -3.74296E+06    -5.85476E+06    -16.0083E-03     31.8018E-03    -15.7935E-03     27.4527E-03    -15.9617E-03     31.5156E-03    -15.7099E-03     27.3713E-03
             775     7.97379E-03     81.9622E-03    -7.85910E+06    -61.3324E+06    -3.18422E+06    -6.36859E+06    -16.0615E-03     31.8616E-03    -15.8001E-03     31.4902E-03    -16.0104E-03     31.5741E-03    -15.7157E-03     31.4004E-03
             776     8.85948E-03     81.9933E-03    -6.85001E+06    -60.3664E+06    -3.89418E+06    -6.81667E+06    -16.1568E-03     31.9554E-03    -15.7986E-03     35.6114E-03    -16.1026E-03     31.6739E-03    -15.7206E-03     35.5135E-03
             777     9.74570E-03     82.0278E-03    -5.80088E+06    -60.7338E+06    -3.59601E+06    -6.70495E+06    -16.2992E-03     32.1057E-03    -15.8065E-03     39.9914E-03    -16.2422E-03     31.8230E-03    -15.7280E-03     39.8918E-03
             778     10.6312E-03     82.0676E-03    -5.02375E+06    -60.0711E+06    -7.57965E+06    -6.31736E+06    -16.3047E-03     32.0942E-03    -15.7895E-03     44.1881E-03    -16.2430E-03     31.8233E-03    -15.7330E-03     44.0895E-03
             779     11.5177E-03     82.1089E-03    -4.68355E+06    -51.0585E+06    -8.34908E+06    -5.84957E+06    -16.3472E-03     32.1184E-03    -15.7711E-03     48.3305E-03    -16.3019E-03     31.8994E-03    -15.7320E-03     48.2327E-03
             780     12.4031E-03     82.1575E-03    -3.68261E+06    -41.3431E+06    -5.25501E+06    -5.12290E+06    -16.6880E-03     32.4635E-03    -15.7756E-03     54.5870E-03    -16.6679E-03     32.2989E-03    -15.7365E-03     54.4912E-03
             781     13.2889E-03     82.2094E-03    -3.70558E+06    -39.9617E+06    -11.8472E+06    -4.19667E+06    -17.0197E-03     32.7793E-03    -15.7596E-03     57.6014E-03    -17.0092E-03     32.6482E-03    -15.7556E-03     57.5086E-03
             782     14.1741E-03     82.2652E-03    -4.53024E+06    -27.3405E+06    -16.2260E+06    -3.42858E+06    -16.9210E-03     32.6594E-03    -15.7383E-03     63.4731E-03    -16.9631E-03     32.6353E-03    -15.7732E-03     63.3844E-03
             783     15.0610E-03     82.3263E-03    -5.10388E+06     9.78552E+06    -20.5698E+06    -1.00124E+06    -17.9228E-03     33.5799E-03    -15.6571E-03     100.192E-03    -18.2202E-03     33.9535E-03    -15.7667E-03     100.156E-03
             784     15.9465E-03     82.4473E-03    -5.46427E+06     83.9249E+06    -19.4642E+06     615.117E+03    -22.9391E-03     38.4933E-03    -15.5542E-03     178.828E-03    -25.1222E-03     41.0112E-03    -15.7653E-03     179.460E-03
             785     16.8283E-03     82.6583E-03    -4.65243E+06     170.719E+06     49.8853E+06    -469.545E+03    -27.9457E-03     43.7189E-03    -15.7733E-03     272.450E-03    -36.3579E-03     52.5763E-03    -15.7646E-03     278.549E-03
             786     885.830E-06     82.8173E-03    -18.0705E+06    -59.4622E+06    -17.5817E+06    -1.03263E+06    -15.7330E-03     31.4505E-03    -15.7174E-03     3.39444E-03    -15.7116E-03     31.2051E-03    -15.6929E-03     3.38058E-03
             787     1.77214E-03     82.8218E-03    -17.3677E+06    -59.3489E+06    -15.8217E+06    -2.10746E+06    -15.7366E-03     31.4699E-03    -15.7332E-03     6.40668E-03    -15.7146E-03     31.2214E-03    -15.7011E-03     6.37842E-03
             788     2.65777E-03     82.8291E-03    -16.2056E+06    -58.9294E+06    -13.5010E+06    -3.14876E+06    -15.7447E-03     31.4871E-03    -15.7424E-03     9.58761E-03    -15.7209E-03     31.2358E-03    -15.7010E-03     9.54537E-03
             789     3.54406E-03     82.8395E-03    -14.8884E+06    -58.6121E+06    -10.8806E+06    -3.98750E+06    -15.7653E-03     31.5173E-03    -15.7520E-03     12.8664E-03    -15.7394E-03     31.2620E-03    -15.6998E-03     12.8127E-03
             790     4.42976E-03     82.8530E-03    -13.4907E+06    -59.0840E+06    -8.53333E+06    -4.79531E+06    -15.8083E-03     31.5712E-03    -15.7629E-03     16.2754E-03    -15.7783E-03     31.3083E-03    -15.7003E-03     16.2106E-03
             791     5.31599E-03     82.8698E-03    -11.9268E+06    -58.8692E+06    -6.69911E+06    -5.52049E+06    -15.8521E-03     31.6237E-03    -15.7715E-03     19.8499E-03    -15.8176E-03     31.3572E-03    -15.7024E-03     19.7750E-03
             792     6.20171E-03     82.8897E-03    -10.5700E+06    -58.6968E+06    -5.38232E+06    -6.16155E+06    -15.9013E-03     31.6793E-03    -15.7781E-03     23.6012E-03    -15.8626E-03     31.4104E-03    -15.7045E-03     23.5170E-03
             793     7.08793E-03     82.9134E-03    -9.06200E+06    -59.9448E+06    -3.70391E+06    -6.59140E+06    -15.9558E-03     31.7435E-03    -15.7877E-03     27.5063E-03    -15.9109E-03     31.4644E-03    -15.7062E-03     27.4154E-03
             794     7.97359E-03     82.9407E-03    -7.89644E+06    -59.9618E+06    -3.16908E+06    -7.08975E+06    -16.0212E-03     31.8110E-03    -15.7899E-03     31.5080E-03    -15.9722E-03     31.5304E-03    -15.7073E-03     31.4090E-03
             795     8.86000E-03     82.9715E-03    -6.80431E+06    -58.8489E+06    -3.39030E+06    -7.48666E+06    -16.1604E-03     31.9499E-03    -15.7895E-03     35.7129E-03    -16.1089E-03     31.6752E-03    -15.7113E-03     35.6064E-03
             796     9.74528E-03     83.0069E-03    -6.01838E+06    -60.8767E+06    -3.99203E+06    -7.48521E+06    -16.1936E-03     31.9859E-03    -15.7923E-03     39.9211E-03    -16.1369E-03     31.7033E-03    -15.7153E-03     39.8116E-03
             797     10.6319E-03     83.0451E-03    -5.47160E+06    -60.0703E+06    -8.36535E+06    -7.04479E+06    -16.2852E-03     32.0544E-03    -15.7692E-03     44.2666E-03    -16.2246E-03     31.7853E-03    -15.7159E-03     44.1586E-03
             798     11.5169E-03     83.0886E-03    -5.14262E+06    -50.9810E+06    -9.08622E+06    -6.40699E+06    -16.3839E-03     32.1366E-03    -15.7528E-03     48.4745E-03    -16.3400E-03     31.9199E-03    -15.7168E-03     48.3694E-03
             799     12.4039E-03     83.1343E-03    -5.29470E+06    -42.0961E+06    -7.05523E+06    -5.92338E+06    -16.6990E-03     32.4560E-03    -15.7570E-03     55.2105E-03    -16.6840E-03     32.2932E-03    -15.7236E-03     55.1041E-03
             800     13.2888E-03     83.1911E-03    -4.91723E+06    -40.8693E+06    -12.8469E+06    -4.92160E+06    -16.7164E-03     32.4519E-03    -15.7355E-03     57.9732E-03    -16.7092E-03     32.3194E-03    -15.7333E-03     57.8718E-03
             801     14.1755E-03     83.2407E-03    -4.57156E+06    -29.2013E+06    -17.5878E+06    -3.25824E+06    -16.3795E-03     32.0668E-03    -15.6873E-03     62.8705E-03    -16.4151E-03     32.0336E-03    -15.7263E-03     62.7861E-03
             802     15.0623E-03     83.3059E-03    -5.07308E+06     7.49602E+06    -21.6328E+06    -1.86957E+06    -17.7924E-03     33.3859E-03    -15.5935E-03     98.7490E-03    -18.0846E-03     33.7494E-03    -15.7052E-03     98.7026E-03
             803     15.9492E-03     83.4248E-03    -5.05209E+06     83.0635E+06    -20.0662E+06    -708.186E+03    -20.7830E-03     36.2215E-03    -15.4385E-03     176.740E-03    -22.9149E-03     38.6883E-03    -15.6519E-03     177.448E-03
             804     16.8424E-03     83.6389E-03    -3.50561E+06     172.247E+06     50.4857E+06     330.148E+03    -28.5416E-03     44.1699E-03    -15.6283E-03     271.635E-03    -36.9599E-03     53.0409E-03    -15.6205E-03     277.531E-03
             805     886.145E-06     83.7957E-03    -17.8319E+06    -57.1368E+06    -17.4214E+06    -1.17460E+06    -15.7232E-03     31.4399E-03    -15.7167E-03     3.42323E-03    -15.7041E-03     31.2055E-03    -15.6951E-03     3.40754E-03
             806     1.77178E-03     83.8001E-03    -16.9767E+06    -56.8900E+06    -15.5946E+06    -2.33818E+06    -15.7366E-03     31.4652E-03    -15.7285E-03     6.39799E-03    -15.7165E-03     31.2280E-03    -15.6994E-03     6.36676E-03
             807     2.65812E-03     83.8076E-03    -15.9800E+06    -56.5622E+06    -13.1806E+06    -3.46300E+06    -15.7519E-03     31.4929E-03    -15.7410E-03     9.58998E-03    -15.7309E-03     31.2526E-03    -15.7017E-03     9.54369E-03
             808     3.54377E-03     83.8178E-03    -14.7269E+06    -56.5374E+06    -10.7491E+06    -4.41409E+06    -15.7761E-03     31.5290E-03    -15.7529E-03     12.8850E-03    -15.7526E-03     31.2836E-03    -15.7033E-03     12.8258E-03
             809     4.43002E-03     83.8314E-03    -13.2147E+06    -56.9399E+06    -8.35559E+06    -5.37284E+06    -15.7961E-03     31.5597E-03    -15.7636E-03     16.3173E-03    -15.7681E-03     31.3069E-03    -15.7036E-03     16.2451E-03
             810     5.31572E-03     83.8480E-03    -11.7520E+06    -57.1783E+06    -6.65968E+06    -6.21380E+06    -15.8317E-03     31.6011E-03    -15.7693E-03     19.8996E-03    -15.7988E-03     31.3428E-03    -15.7027E-03     19.8157E-03
             811     6.20198E-03     83.8682E-03    -10.2668E+06    -57.0019E+06    -5.14759E+06    -6.83048E+06    -15.8761E-03     31.6496E-03    -15.7735E-03     23.6536E-03    -15.8387E-03     31.3883E-03    -15.7017E-03     23.5608E-03
             812     7.08766E-03     83.8917E-03    -9.02459E+06    -58.6655E+06    -3.76577E+06    -7.44320E+06    -15.9084E-03     31.6871E-03    -15.7787E-03     27.5064E-03    -15.8651E-03     31.4144E-03    -15.6994E-03     27.4046E-03
             813     7.97411E-03     83.9190E-03    -7.68441E+06    -58.5151E+06    -3.20359E+06    -7.72593E+06    -16.0266E-03     31.8053E-03    -15.7788E-03     31.5929E-03    -15.9787E-03     31.5317E-03    -15.6988E-03     31.4856E-03
             814     8.85942E-03     83.9502E-03    -6.79147E+06    -57.6003E+06    -3.51919E+06    -8.04196E+06    -16.0856E-03     31.8617E-03    -15.7762E-03     35.7554E-03    -16.0357E-03     31.5934E-03    -15.7004E-03     35.6418E-03
             815     9.74609E-03     83.9850E-03    -5.79205E+06    -60.2474E+06    -4.16257E+06    -8.23176E+06    -16.1307E-03     31.9047E-03    -15.7740E-03     39.9143E-03    -16.0735E-03     31.6252E-03    -15.6991E-03     39.7952E-03
             816     10.6315E-03     84.0236E-03    -5.23945E+06    -60.7040E+06    -8.92568E+06    -7.84592E+06    -16.2301E-03     31.9771E-03    -15.7470E-03     44.3266E-03    -16.1665E-03     31.7053E-03    -15.6960E-03     44.2084E-03
             817     11.5185E-03     84.0670E-03    -4.70444E+06    -50.8914E+06    -9.28643E+06    -7.20167E+06    -16.4349E-03     32.1668E-03    -15.7319E-03     48.5939E-03    -16.3888E-03     31.9503E-03    -15.6977E-03     48.4784E-03
             818     12.4032E-03     84.1131E-03    -3.75952E+06    -42.3697E+06    -6.84594E+06    -6.50226E+06    -16.6339E-03     32.3716E-03    -15.7376E-03     55.3230E-03    -16.6112E-03     32.2049E-03    -15.7050E-03     55.2092E-03
             819     13.2901E-03     84.1694E-03    -3.86194E+06    -42.4373E+06    -13.7178E+06    -5.42115E+06    -16.5528E-03     32.2598E-03    -15.7070E-03     57.2270E-03    -16.5359E-03     32.1183E-03    -15.7085E-03     57.1199E-03
             820     14.1759E-03     84.2186E-03    -4.26157E+06    -31.1473E+06    -18.4934E+06    -3.84023E+06    -16.6237E-03     32.2887E-03    -15.6650E-03     61.9996E-03    -16.6532E-03     32.2461E-03    -15.7061E-03     61.9069E-03
             821     15.0609E-03     84.2850E-03    -5.56586E+06     6.29394E+06    -22.2734E+06    -2.07078E+06    -18.4143E-03     34.0141E-03    -15.5997E-03     98.5592E-03    -18.7093E-03     34.3763E-03    -15.7122E-03     98.5068E-03
             822     15.9465E-03     84.4018E-03    -7.45694E+06     81.8646E+06    -22.6659E+06    -1.51318E+06    -21.4461E-03     36.9345E-03    -15.4884E-03     170.965E-03    -23.4859E-03     39.3042E-03    -15.7097E-03     171.636E-03
             823     16.8326E-03     84.6081E-03    -5.29784E+06     170.985E+06     47.4186E+06    -505.377E+03    -28.0331E-03     43.7231E-03    -15.6900E-03     271.669E-03    -36.7428E-03     52.8835E-03    -15.6931E-03     277.764E-03
             824     885.828E-06     84.7740E-03    -17.1092E+06    -54.4173E+06    -16.9070E+06    -1.44270E+06    -15.7138E-03     31.4461E-03    -15.7323E-03     3.45102E-03    -15.6958E-03     31.2236E-03    -15.7131E-03     3.43185E-03
             825     1.77214E-03     84.7785E-03    -16.4780E+06    -54.2861E+06    -15.1815E+06    -2.63574E+06    -15.7404E-03     31.4715E-03    -15.7311E-03     6.39651E-03    -15.7221E-03     31.2460E-03    -15.7044E-03     6.36145E-03
             826     2.65774E-03     84.7858E-03    -15.4473E+06    -54.1133E+06    -12.7395E+06    -3.66325E+06    -15.7488E-03     31.4919E-03    -15.7431E-03     9.59678E-03    -15.7293E-03     31.2624E-03    -15.7059E-03     9.54791E-03
             827     3.54404E-03     84.7963E-03    -14.1851E+06    -53.9950E+06    -10.1776E+06    -4.86482E+06    -15.7579E-03     31.5103E-03    -15.7523E-03     12.9086E-03    -15.7362E-03     31.2760E-03    -15.7044E-03     12.8437E-03
             828     4.42974E-03     84.8097E-03    -12.7984E+06    -54.6376E+06    -8.04404E+06    -5.95437E+06    -15.7766E-03     31.5351E-03    -15.7585E-03     16.3476E-03    -15.7503E-03     31.2927E-03    -15.7009E-03     16.2679E-03
             829     5.31605E-03     84.8265E-03    -11.3711E+06    -55.1513E+06    -6.36413E+06    -6.82638E+06    -15.8123E-03     31.5743E-03    -15.7620E-03     19.9527E-03    -15.7808E-03     31.3252E-03    -15.6974E-03     19.8610E-03
             830     6.20172E-03     84.8465E-03    -10.0547E+06    -55.3285E+06    -5.22212E+06    -7.55618E+06    -15.8336E-03     31.5953E-03    -15.7616E-03     23.6753E-03    -15.7975E-03     31.3422E-03    -15.6929E-03     23.5732E-03
             831     7.08812E-03     84.8702E-03    -8.62571E+06    -56.8691E+06    -3.69735E+06    -8.15914E+06    -15.9184E-03     31.6844E-03    -15.7660E-03     27.5756E-03    -15.8759E-03     31.4201E-03    -15.6895E-03     27.4645E-03
             832     7.97363E-03     84.8973E-03    -7.46804E+06    -57.5959E+06    -3.30852E+06    -8.46584E+06    -15.9758E-03     31.7415E-03    -15.7657E-03     31.6780E-03    -15.9280E-03     31.4723E-03    -15.6879E-03     31.5612E-03
             833     8.86021E-03     84.9288E-03    -6.33519E+06    -56.3719E+06    -3.29391E+06    -8.58724E+06    -16.0069E-03     31.7655E-03    -15.7586E-03     35.7537E-03    -15.9568E-03     31.5023E-03    -15.6841E-03     35.6332E-03
             834     9.74578E-03     84.9629E-03    -5.63760E+06    -59.2548E+06    -3.80040E+06    -9.03085E+06    -16.1086E-03     31.8633E-03    -15.7547E-03     39.9494E-03    -16.0526E-03     31.5880E-03    -15.6796E-03     39.8200E-03
             835     10.6322E-03     85.0027E-03    -4.70826E+06    -59.8567E+06    -8.58837E+06    -8.86536E+06    -16.3173E-03     32.0487E-03    -15.7314E-03     44.2993E-03    -16.2529E-03     31.7800E-03    -15.6807E-03     44.1677E-03
             836     11.5175E-03     85.0442E-03    -4.03251E+06    -51.2566E+06    -9.19452E+06    -8.24350E+06    -16.4390E-03     32.1603E-03    -15.7214E-03     48.5646E-03    -16.3891E-03     31.9408E-03    -15.6872E-03     48.4357E-03
             837     12.4042E-03     85.0933E-03    -3.66760E+06    -43.2692E+06    -6.86405E+06    -7.50977E+06    -16.7495E-03     32.4825E-03    -15.7331E-03     55.1459E-03    -16.7249E-03     32.3113E-03    -15.6993E-03     55.0189E-03
             838     13.2894E-03     85.1458E-03    -3.26962E+06    -42.9239E+06    -12.8334E+06    -5.94408E+06    -16.6971E-03     32.4125E-03    -15.7154E-03     56.4612E-03    -16.6776E-03     32.2663E-03    -15.7126E-03     56.3471E-03
             839     14.1750E-03     85.1995E-03    -3.28638E+06    -32.6627E+06    -17.6739E+06    -4.43416E+06    -16.9844E-03     32.6742E-03    -15.6898E-03     61.8998E-03    -17.0094E-03     32.6229E-03    -15.7260E-03     61.7976E-03
             840     15.0624E-03     85.2605E-03    -5.35055E+06     4.61754E+06    -22.0171E+06    -2.53786E+06    -18.7816E-03     34.4250E-03    -15.6434E-03     98.4717E-03    -19.0703E-03     34.7750E-03    -15.7525E-03     98.4115E-03
             841     15.9461E-03     85.3864E-03    -5.77214E+06     80.2648E+06    -25.5089E+06    -434.791E+03    -22.3067E-03     37.8480E-03    -15.5413E-03     172.290E-03    -24.3534E-03     40.2331E-03    -15.7768E-03     172.915E-03
             842     16.8294E-03     85.5832E-03    -3.82238E+06     170.258E+06     44.8679E+06    -261.866E+03    -28.1617E-03     43.9061E-03    -15.7444E-03     277.230E-03    -37.0911E-03     53.2961E-03    -15.7614E-03     283.485E-03
             843     886.127E-06     85.7524E-03    -16.4528E+06    -51.4384E+06    -15.9988E+06    -1.49203E+06    -15.7140E-03     31.4547E-03    -15.7407E-03     3.45440E-03    -15.6984E-03     31.2448E-03    -15.7223E-03     3.43458E-03
             844     1.77175E-03     85.7568E-03    -15.9634E+06    -51.3405E+06    -14.5249E+06    -2.75356E+06    -15.7264E-03     31.4581E-03    -15.7317E-03     6.43200E-03    -15.7107E-03     31.2457E-03    -15.7067E-03     6.39542E-03
             845     2.65808E-03     85.7643E-03    -14.8692E+06    -51.4538E+06    -12.2011E+06    -4.06615E+06    -15.7298E-03     31.4674E-03    -15.7376E-03     9.64197E-03    -15.7120E-03     31.2496E-03    -15.7025E-03     9.58792E-03
             846     3.54377E-03     85.7745E-03    -13.4917E+06    -51.2863E+06    -9.67760E+06    -5.23077E+06    -15.7334E-03     31.4756E-03    -15.7421E-03     12.9499E-03    -15.7128E-03     31.2531E-03    -15.6966E-03     12.8802E-03
             847     4.43010E-03     85.7881E-03    -12.1590E+06    -52.0344E+06    -7.45510E+06    -6.48469E+06    -15.7619E-03     31.5086E-03    -15.7467E-03     16.3924E-03    -15.7370E-03     31.2774E-03    -15.6909E-03     16.3059E-03
             848     5.31577E-03     85.8047E-03    -10.8321E+06    -52.9740E+06    -6.09740E+06    -7.43346E+06    -15.7764E-03     31.5235E-03    -15.7471E-03     19.9806E-03    -15.7459E-03     31.2841E-03    -15.6850E-03     19.8811E-03
             849     6.20215E-03     85.8249E-03    -9.47012E+06    -53.2927E+06    -4.96334E+06    -8.22126E+06    -15.8205E-03     31.5654E-03    -15.7450E-03     23.7103E-03    -15.7847E-03     31.3213E-03    -15.6788E-03     23.5996E-03
             850     7.08786E-03     85.8482E-03    -8.41330E+06    -55.1632E+06    -3.70911E+06    -8.82911E+06    -15.8893E-03     31.6375E-03    -15.7482E-03     27.6768E-03    -15.8481E-03     31.3814E-03    -15.6745E-03     27.5571E-03
             851     7.97419E-03     85.8761E-03    -7.15805E+06    -56.2293E+06    -3.12290E+06    -9.28300E+06    -15.9285E-03     31.6753E-03    -15.7468E-03     31.6702E-03    -15.8814E-03     31.4122E-03    -15.6705E-03     31.5429E-03
             852     8.85997E-03     85.9062E-03    -6.04987E+06    -55.5307E+06    -3.24697E+06    -9.37743E+06    -15.9815E-03     31.7193E-03    -15.7378E-03     35.7790E-03    -15.9312E-03     31.4598E-03    -15.6647E-03     35.6483E-03
             853     9.74626E-03     85.9423E-03    -5.13503E+06    -57.7173E+06    -3.27240E+06    -9.59580E+06    -16.1416E-03     31.8786E-03    -15.7370E-03     39.9715E-03    -16.0861E-03     31.6095E-03    -15.6622E-03     39.8347E-03
             854     10.6322E-03     85.9795E-03    -5.00408E+06    -58.9271E+06    -8.44419E+06    -9.58574E+06    -16.3589E-03     32.0772E-03    -15.7183E-03     44.5017E-03    -16.2976E-03     31.8134E-03    -15.6678E-03     44.3608E-03
             855     11.5179E-03     86.0251E-03    -4.97166E+06    -51.3876E+06    -9.85735E+06    -9.10401E+06    -16.5885E-03     32.3034E-03    -15.7149E-03     48.6961E-03    -16.5424E-03     32.0858E-03    -15.6825E-03     48.5557E-03
             856     12.4039E-03     86.0686E-03    -4.65540E+06    -43.7470E+06    -7.49001E+06    -8.33543E+06    -16.7098E-03     32.4415E-03    -15.7317E-03     55.4357E-03    -16.6884E-03     32.2701E-03    -15.6990E-03     55.2982E-03
             857     13.2886E-03     86.1294E-03    -4.09769E+06    -44.5068E+06    -13.5381E+06    -6.92915E+06    -16.8507E-03     32.5687E-03    -15.7181E-03     56.8310E-03    -16.8321E-03     32.4170E-03    -15.7153E-03     56.7035E-03
             858     14.1762E-03     86.1716E-03    -3.52477E+06    -34.1281E+06    -18.4196E+06    -5.01698E+06    -17.5693E-03     33.2813E-03    -15.7120E-03     63.1229E-03    -17.5951E-03     33.2269E-03    -15.7495E-03     63.0107E-03
             859     15.0575E-03     86.2485E-03    -2.35997E+06     1.91084E+06    -20.4009E+06    -3.20830E+06    -18.1517E-03     33.8237E-03    -15.6720E-03     98.5562E-03    -18.4148E-03     34.1444E-03    -15.7733E-03     98.4924E-03
             860     15.9466E-03     86.3544E-03    -2.55789E+06     78.1267E+06    -23.9770E+06    -721.125E+03    -21.2795E-03     36.7965E-03    -15.5170E-03     173.358E-03    -23.3188E-03     39.1735E-03    -15.7465E-03     173.989E-03
             861     16.8375E-03     86.5721E-03    -3.55782E+06     170.549E+06     43.9594E+06     695.922E+03    -28.3110E-03     43.9964E-03    -15.6854E-03     276.488E-03    -37.1043E-03     53.2550E-03    -15.7078E-03     282.697E-03
             862     885.795E-06     86.7306E-03    -15.8398E+06    -48.5168E+06    -15.5926E+06    -1.56163E+06    -15.7044E-03     31.4329E-03    -15.7284E-03     3.45075E-03    -15.6906E-03     31.2361E-03    -15.7131E-03     3.43004E-03
             863     1.77216E-03     86.7353E-03    -15.0077E+06    -48.0904E+06    -13.5422E+06    -2.93926E+06    -15.6997E-03     31.4184E-03    -15.7187E-03     6.45215E-03    -15.6855E-03     31.2194E-03    -15.6949E-03     6.41319E-03
             864     2.65781E-03     86.7425E-03    -14.0013E+06    -48.3724E+06    -11.3374E+06    -4.42371E+06    -15.7018E-03     31.4212E-03    -15.7194E-03     9.65578E-03    -15.6855E-03     31.2163E-03    -15.6856E-03     9.59712E-03
             865     3.54415E-03     86.7530E-03    -12.6755E+06    -48.5282E+06    -9.16923E+06    -5.80905E+06    -15.7184E-03     31.4399E-03    -15.7215E-03     12.9793E-03    -15.6985E-03     31.2293E-03    -15.6786E-03     12.9021E-03
             866     4.42985E-03     86.7663E-03    -11.2710E+06    -49.3371E+06    -6.99018E+06    -6.89667E+06    -15.7271E-03     31.4517E-03    -15.7246E-03     16.4306E-03    -15.7024E-03     31.2321E-03    -15.6717E-03     16.3388E-03
             867     5.31621E-03     86.7832E-03    -10.0965E+06    -50.5420E+06    -5.51203E+06    -7.95194E+06    -15.7521E-03     31.4765E-03    -15.7244E-03     20.0109E-03    -15.7222E-03     31.2474E-03    -15.6641E-03     19.9047E-03
             868     6.20200E-03     86.8029E-03    -9.01753E+06    -51.2006E+06    -4.68108E+06    -8.79856E+06    -15.8072E-03     31.5292E-03    -15.7220E-03     23.8035E-03    -15.7727E-03     31.2945E-03    -15.6581E-03     23.6854E-03
             869     7.08822E-03     86.8271E-03    -7.80329E+06    -53.2546E+06    -3.30314E+06    -9.40562E+06    -15.8408E-03     31.5656E-03    -15.7248E-03     27.6940E-03    -15.7999E-03     31.3175E-03    -15.6527E-03     27.5668E-03
             870     7.97421E-03     86.8535E-03    -6.84946E+06    -54.7306E+06    -2.91323E+06    -9.94146E+06    -15.8933E-03     31.6145E-03    -15.7211E-03     31.7309E-03    -15.8471E-03     31.3581E-03    -15.6464E-03     31.5952E-03
             871     8.86029E-03     86.8856E-03    -5.96414E+06    -54.4424E+06    -3.42338E+06    -10.2197E+06    -16.0014E-03     31.7141E-03    -15.7126E-03     35.8591E-03    -15.9520E-03     31.4602E-03    -15.6422E-03     35.7176E-03
             872     9.74645E-03     86.9190E-03    -5.06696E+06    -56.6509E+06    -3.31021E+06    -10.0745E+06    -16.2014E-03     31.9194E-03    -15.7180E-03     40.1886E-03    -16.1471E-03     31.6556E-03    -15.6451E-03     40.0457E-03
             873     10.6320E-03     86.9601E-03    -4.50879E+06    -58.2424E+06    -7.79769E+06    -10.0285E+06    -16.3863E-03     32.0940E-03    -15.7077E-03     44.4686E-03    -16.3243E-03     31.8319E-03    -15.6557E-03     44.3220E-03
             874     11.5186E-03     87.0007E-03    -4.47530E+06    -51.2894E+06    -9.88673E+06    -9.80537E+06    -16.5239E-03     32.2249E-03    -15.7009E-03     49.1073E-03    -16.4754E-03     32.0070E-03    -15.6695E-03     48.9581E-03
             875     12.4028E-03     87.0518E-03    -3.91364E+06    -44.3941E+06    -7.94803E+06    -8.76625E+06    -16.5146E-03     32.2221E-03    -15.7075E-03     55.5155E-03    -16.4872E-03     32.0462E-03    -15.6772E-03     55.3733E-03
             876     13.2918E-03     87.1012E-03    -3.83368E+06    -45.9806E+06    -14.6307E+06    -7.55051E+06    -16.9789E-03     32.6690E-03    -15.6900E-03     58.0334E-03    -16.9563E-03     32.5120E-03    -15.6909E-03     57.8975E-03
             877     14.1730E-03     87.1599E-03    -4.52023E+06    -37.0160E+06    -20.0845E+06    -5.90218E+06    -17.1309E-03     32.8061E-03    -15.6752E-03     64.3414E-03    -17.1538E-03     32.7398E-03    -15.7154E-03     64.2203E-03
             878     15.0629E-03     87.2184E-03    -3.78458E+06    -735.902E+03    -22.0934E+06    -3.52131E+06    -18.0935E-03     33.7139E-03    -15.6204E-03     98.8844E-03    -18.3598E-03     34.0282E-03    -15.7243E-03     98.8132E-03
             879     15.9486E-03     87.3393E-03    -5.05674E+06     77.2260E+06    -25.8761E+06    -1.52399E+06    -22.4003E-03     37.8974E-03    -15.4972E-03     172.471E-03    -24.4277E-03     40.2560E-03    -15.7312E-03     173.056E-03
             880     16.8301E-03     87.5432E-03    -4.72977E+06     170.176E+06     42.8855E+06    -366.445E+03    -28.0429E-03     43.7439E-03    -15.7010E-03     274.243E-03    -36.7867E-03     52.9507E-03    -15.7265E-03     280.489E-03
             881     886.169E-06     87.7092E-03    -14.2671E+06    -45.2339E+06    -14.2130E+06    -1.89682E+06    -15.6586E-03     31.3811E-03    -15.7225E-03     3.43016E-03    -15.6436E-03     31.1965E-03    -15.7073E-03     3.40515E-03
             882     1.77181E-03     87.7134E-03    -13.7204E+06    -44.7392E+06    -12.8521E+06    -3.29883E+06    -15.6776E-03     31.3674E-03    -15.6898E-03     6.45436E-03    -15.6628E-03     31.1823E-03    -15.6693E-03     6.41077E-03
             883     2.65820E-03     87.7210E-03    -12.7615E+06    -44.9727E+06    -10.5115E+06    -4.78174E+06    -15.6778E-03     31.3698E-03    -15.6920E-03     9.66626E-03    -15.6613E-03     31.1789E-03    -15.6608E-03     9.60300E-03
             884     3.54393E-03     87.7311E-03    -11.6357E+06    -45.3436E+06    -8.35607E+06    -6.30042E+06    -15.6777E-03     31.3707E-03    -15.6930E-03     13.0065E-03    -15.6584E-03     31.1733E-03    -15.6521E-03     12.9230E-03
             885     4.43028E-03     87.7449E-03    -10.3520E+06    -46.8182E+06    -6.50769E+06    -7.47473E+06    -15.6912E-03     31.3844E-03    -15.6932E-03     16.4513E-03    -15.6663E-03     31.1754E-03    -15.6428E-03     16.3520E-03
             886     5.31613E-03     87.7611E-03    -9.08941E+06    -48.0431E+06    -4.89899E+06    -8.28829E+06    -15.7332E-03     31.4268E-03    -15.6935E-03     20.0641E-03    -15.7028E-03     31.2077E-03    -15.6352E-03     19.9536E-03
             887     6.20234E-03     87.7817E-03    -8.21923E+06    -48.8193E+06    -3.91852E+06    -9.16951E+06    -15.7618E-03     31.4537E-03    -15.6919E-03     23.8441E-03    -15.7278E-03     31.2286E-03    -15.6288E-03     23.7213E-03
             888     7.08838E-03     87.8046E-03    -7.28246E+06    -51.3058E+06    -2.97865E+06    -9.99786E+06    -15.8010E-03     31.4928E-03    -15.6918E-03     27.7589E-03    -15.7607E-03     31.2532E-03    -15.6218E-03     27.6242E-03
             889     7.97441E-03     87.8327E-03    -6.23956E+06    -53.0708E+06    -2.46851E+06    -10.4253E+06    -15.8736E-03     31.5627E-03    -15.6891E-03     31.8073E-03    -15.8273E-03     31.3130E-03    -15.6154E-03     31.6654E-03
             890     8.86076E-03     87.8626E-03    -5.49071E+06    -53.0292E+06    -2.92207E+06    -10.8296E+06    -16.0290E-03     31.7137E-03    -15.6847E-03     36.0173E-03    -15.9801E-03     31.4655E-03    -15.6144E-03     35.8679E-03
             891     9.74626E-03     87.8991E-03    -4.89432E+06    -55.8317E+06    -3.17607E+06    -10.7740E+06    -16.1835E-03     31.8758E-03    -15.6923E-03     40.4034E-03    -16.1296E-03     31.6156E-03    -15.6201E-03     40.2516E-03
             892     10.6329E-03     87.9366E-03    -4.01529E+06    -57.7550E+06    -7.72039E+06    -10.5331E+06    -16.3714E-03     32.0532E-03    -15.6818E-03     44.9327E-03    -16.3078E-03     31.7927E-03    -15.6308E-03     44.7797E-03
             893     11.5173E-03     87.9818E-03    -3.62817E+06    -51.0916E+06    -9.48267E+06    -10.3159E+06    -16.2793E-03     31.9474E-03    -15.6681E-03     49.2767E-03    -16.2270E-03     31.7283E-03    -15.6361E-03     49.1217E-03
             894     12.4062E-03     88.0262E-03    -3.68377E+06    -44.6433E+06    -7.52009E+06    -9.46232E+06    -16.6219E-03     32.2946E-03    -15.6727E-03     55.7759E-03    -16.5941E-03     32.1170E-03    -15.6402E-03     55.6244E-03
             895     13.2882E-03     88.0846E-03    -3.70384E+06    -47.2975E+06    -14.3580E+06    -8.15518E+06    -16.7811E-03     32.4363E-03    -15.6552E-03     58.3601E-03    -16.7564E-03     32.2721E-03    -15.6530E-03     58.2172E-03
             896     14.1785E-03     88.1338E-03    -4.46330E+06    -38.2066E+06    -19.8051E+06    -6.39200E+06    -16.6250E-03     32.2466E-03    -15.6216E-03     63.2543E-03    -16.6435E-03     32.1711E-03    -15.6588E-03     63.1288E-03
             897     15.0622E-03     88.1998E-03    -4.98800E+06    -2.39795E+06    -22.3148E+06    -4.54840E+06    -19.1743E-03     34.7613E-03    -15.5869E-03     98.4795E-03    -19.4519E-03     35.0774E-03    -15.6878E-03     98.3861E-03
             898     15.9451E-03     88.3181E-03    -4.77204E+06     74.6183E+06    -27.4160E+06    -1.97023E+06    -22.8367E-03     38.3397E-03    -15.5030E-03     171.961E-03    -24.8462E-03     40.6766E-03    -15.7413E-03     172.547E-03
             899     16.8332E-03     88.5246E-03    -4.03900E+06     168.886E+06     41.1755E+06    -266.335E+03    -27.6148E-03     43.3158E-03    -15.7010E-03     275.270E-03    -36.4272E-03     52.5940E-03    -15.7341E-03     281.522E-03
             900     885.862E-06     88.6872E-03    -11.9452E+06    -41.4725E+06    -11.9589E+06    -1.97942E+06    -15.6083E-03     31.2950E-03    -15.6868E-03     3.45176E-03    -15.5905E-03     31.1226E-03    -15.6691E-03     3.42568E-03
             901     1.77227E-03     88.6920E-03    -11.9055E+06    -41.1778E+06    -11.2878E+06    -3.49347E+06    -15.6516E-03     31.2993E-03    -15.6477E-03     6.48822E-03    -15.6351E-03     31.1271E-03    -15.6272E-03     6.44212E-03
             902     2.65796E-03     88.6990E-03    -11.2072E+06    -41.4063E+06    -9.55192E+06    -5.18326E+06    -15.6471E-03     31.2988E-03    -15.6518E-03     9.70082E-03    -15.6294E-03     31.1221E-03    -15.6232E-03     9.63239E-03
             903     3.54434E-03     88.7097E-03    -10.2422E+06    -41.9965E+06    -7.34316E+06    -6.64200E+06    -15.6418E-03     31.2963E-03    -15.6545E-03     13.0187E-03    -15.6218E-03     31.1121E-03    -15.6155E-03     12.9309E-03
             904     4.43022E-03     88.7226E-03    -9.25593E+06    -43.8304E+06    -5.46914E+06    -7.95915E+06    -15.6629E-03     31.3195E-03    -15.6566E-03     16.4717E-03    -15.6383E-03     31.1222E-03    -15.6069E-03     16.3662E-03
             905     5.31645E-03     88.7398E-03    -8.21595E+06    -45.9050E+06    -4.34451E+06    -8.76408E+06    -15.6812E-03     31.3366E-03    -15.6555E-03     20.1026E-03    -15.6503E-03     31.1262E-03    -15.5987E-03     19.9860E-03
             906     6.20251E-03     88.7592E-03    -7.10136E+06    -46.3581E+06    -3.21936E+06    -9.36681E+06    -15.7044E-03     31.3554E-03    -15.6510E-03     23.8950E-03    -15.6693E-03     31.1399E-03    -15.5896E-03     23.7698E-03
             907     7.08862E-03     88.7835E-03    -6.41821E+06    -48.9154E+06    -2.15757E+06    -10.3449E+06    -15.7559E-03     31.4062E-03    -15.6503E-03     27.8189E-03    -15.7160E-03     31.1761E-03    -15.5808E-03     27.6798E-03
             908     7.97497E-03     88.8099E-03    -5.66664E+06    -51.4262E+06    -1.99767E+06    -11.0092E+06    -15.8786E-03     31.5280E-03    -15.6493E-03     31.9493E-03    -15.8326E-03     31.2850E-03    -15.5765E-03     31.8000E-03
             909     8.86057E-03     88.8421E-03    -4.81941E+06    -51.4065E+06    -2.31378E+06    -11.2273E+06    -15.9852E-03     31.6324E-03    -15.6473E-03     36.2230E-03    -15.9360E-03     31.3904E-03    -15.5773E-03     36.0687E-03
             910     9.74725E-03     88.8760E-03    -4.10510E+06    -54.7613E+06    -2.43034E+06    -11.3762E+06    -16.0710E-03     31.7232E-03    -15.6522E-03     40.6412E-03    -16.0157E-03     31.4660E-03    -15.5790E-03     40.4819E-03
             911     10.6325E-03     88.9165E-03    -3.87766E+06    -57.4028E+06    -7.54311E+06    -11.2861E+06    -16.1706E-03     31.8013E-03    -15.6307E-03     45.2667E-03    -16.1069E-03     31.5420E-03    -15.5796E-03     45.1045E-03
             912     11.5202E-03     88.9583E-03    -3.53997E+06    -50.4895E+06    -8.96183E+06    -10.7685E+06    -16.4026E-03     32.0213E-03    -15.6187E-03     49.2971E-03    -16.3516E-03     31.8045E-03    -15.5851E-03     49.1359E-03
             913     12.4034E-03     89.0062E-03    -3.37998E+06    -44.9175E+06    -6.94685E+06    -10.0250E+06    -16.6191E-03     32.2511E-03    -15.6320E-03     56.3294E-03    -16.5905E-03     32.0712E-03    -15.5968E-03     56.1707E-03
             914     13.2925E-03     89.0623E-03    -3.54231E+06    -48.4569E+06    -14.2507E+06    -8.69582E+06    -16.7238E-03     32.3378E-03    -15.6141E-03     58.2399E-03    -16.6958E-03     32.1666E-03    -15.6099E-03     58.0905E-03
             915     14.1752E-03     89.1116E-03    -3.35664E+06    -38.5125E+06    -18.6341E+06    -7.01460E+06    -17.3997E-03     33.0070E-03    -15.6073E-03     63.1968E-03    -17.4162E-03     32.9290E-03    -15.6398E-03     63.0603E-03
             916     15.0618E-03     89.1802E-03    -4.75750E+06    -4.70804E+06    -21.9699E+06    -5.05189E+06    -19.0242E-03     34.6147E-03    -15.5904E-03     100.096E-03    -19.3018E-03     34.9224E-03    -15.6866E-03     100.001E-03
             917     15.9469E-03     89.2993E-03    -6.50685E+06     70.7369E+06    -28.8353E+06    -2.80005E+06    -21.9864E-03     37.4608E-03    -15.4745E-03     171.807E-03    -23.9790E-03     39.7652E-03    -15.7118E-03     172.400E-03
             918     16.8345E-03     89.4976E-03    -4.67343E+06     167.503E+06     39.8717E+06    -723.622E+03    -27.6867E-03     43.3391E-03    -15.6525E-03     274.025E-03    -36.4558E-03     52.5708E-03    -15.6892E-03     280.221E-03
             919     886.274E-06     89.6658E-03    -11.3894E+06    -37.6488E+06    -10.9163E+06    -2.00164E+06    -15.6015E-03     31.1909E-03    -15.5894E-03     3.45279E-03    -15.5880E-03     31.0353E-03    -15.5729E-03     3.42645E-03
             920     1.77201E-03     89.6699E-03    -10.5743E+06    -37.2229E+06    -9.61357E+06    -3.74661E+06    -15.6022E-03     31.2015E-03    -15.5993E-03     6.47893E-03    -15.5872E-03     31.0448E-03    -15.5781E-03     6.42959E-03
             921     2.65842E-03     89.6776E-03    -9.78034E+06    -37.6118E+06    -8.14457E+06    -5.53451E+06    -15.5997E-03     31.2025E-03    -15.6028E-03     9.68438E-03    -15.5825E-03     31.0406E-03    -15.5748E-03     9.61143E-03
             922     3.54428E-03     89.6874E-03    -8.90195E+06    -38.6488E+06    -6.26799E+06    -6.98969E+06    -15.6041E-03     31.2101E-03    -15.6060E-03     13.0446E-03    -15.5839E-03     31.0392E-03    -15.5684E-03     12.9523E-03
             923     4.43053E-03     89.7013E-03    -7.92718E+06    -40.8464E+06    -4.18791E+06    -8.11950E+06    -15.6093E-03     31.2192E-03    -15.6100E-03     16.5286E-03    -15.5842E-03     31.0332E-03    -15.5602E-03     16.4211E-03
             924     5.31663E-03     89.7173E-03    -7.01937E+06    -43.3473E+06    -3.10336E+06    -9.14966E+06    -15.6200E-03     31.2276E-03    -15.6076E-03     20.1554E-03    -15.5887E-03     31.0265E-03    -15.5501E-03     20.0339E-03
             925     6.20283E-03     89.7380E-03    -6.11843E+06    -44.2958E+06    -2.79461E+06    -9.85584E+06    -15.6403E-03     31.2382E-03    -15.5979E-03     23.9578E-03    -15.6040E-03     31.0310E-03    -15.5387E-03     23.8263E-03
             926     7.08913E-03     89.7608E-03    -5.24335E+06    -46.4930E+06    -1.41123E+06    -10.3604E+06    -15.7248E-03     31.3228E-03    -15.5979E-03     27.9361E-03    -15.6836E-03     31.1019E-03    -15.5300E-03     27.7970E-03
             927     7.97498E-03     89.7889E-03    -4.88620E+06    -49.4185E+06    -1.07699E+06    -11.1805E+06    -15.8116E-03     31.4106E-03    -15.5990E-03     32.1225E-03    -15.7658E-03     31.1752E-03    -15.5257E-03     31.9711E-03
             928     8.86162E-03     89.8193E-03    -4.35187E+06    -49.8823E+06    -1.77492E+06    -11.6320E+06    -15.8733E-03     31.4654E-03    -15.5922E-03     36.4254E-03    -15.8247E-03     31.2295E-03    -15.5224E-03     36.2661E-03
             929     9.74712E-03     89.8552E-03    -3.69049E+06    -53.5150E+06    -1.89183E+06    -11.8772E+06    -15.9569E-03     31.5489E-03    -15.5920E-03     40.8300E-03    -15.9021E-03     31.2965E-03    -15.5185E-03     40.6645E-03
             930     10.6343E-03     89.8933E-03    -3.17083E+06    -56.5693E+06    -6.52825E+06    -11.8307E+06    -16.1368E-03     31.7084E-03    -15.5716E-03     45.3165E-03    -16.0722E-03     31.4506E-03    -15.5176E-03     45.1474E-03
             931     11.5188E-03     89.9377E-03    -3.16324E+06    -49.9532E+06    -8.44154E+06    -11.3766E+06    -16.3930E-03     31.9536E-03    -15.5605E-03     49.7599E-03    -16.3417E-03     31.7381E-03    -15.5257E-03     49.5912E-03
             932     12.4067E-03     89.9845E-03    -2.85348E+06    -45.4900E+06    -6.72587E+06    -10.5133E+06    -16.5864E-03     32.1624E-03    -15.5761E-03     56.3493E-03    -16.5542E-03     31.9782E-03    -15.5396E-03     56.1846E-03
             933     13.2907E-03     90.0396E-03    -3.04466E+06    -50.0016E+06    -14.4284E+06    -8.97547E+06    -16.9398E-03     32.5063E-03    -15.5666E-03     58.7898E-03    -16.9073E-03     32.3274E-03    -15.5618E-03     58.6362E-03
             934     14.1779E-03     90.0933E-03    -3.90437E+06    -40.6418E+06    -19.3007E+06    -7.54617E+06    -17.5251E-03     33.0964E-03    -15.5713E-03     64.8905E-03    -17.5428E-03     33.0120E-03    -15.6032E-03     64.7468E-03
             935     15.0612E-03     90.1578E-03    -4.46614E+06    -6.43921E+06    -21.1697E+06    -5.56534E+06    -18.6222E-03     34.1748E-03    -15.5526E-03     100.485E-03    -18.8938E-03     34.4691E-03    -15.6426E-03     100.388E-03
             936     15.9500E-03     90.2768E-03    -4.11655E+06     68.1568E+06    -26.9083E+06    -2.84514E+06    -21.8591E-03     37.2869E-03    -15.4277E-03     171.450E-03    -23.8254E-03     39.5585E-03    -15.6551E-03     172.032E-03
             937     16.8324E-03     90.4799E-03    -3.12400E+06     165.917E+06     41.3359E+06    -609.439E+03    -28.1561E-03     43.7701E-03    -15.6140E-03     274.004E-03    -36.9015E-03     52.9736E-03    -15.6434E-03     280.166E-03
             938     885.954E-06     90.6435E-03    -10.6974E+06    -33.3204E+06    -10.3329E+06    -2.27379E+06    -15.5789E-03     31.0917E-03    -15.5128E-03     3.45586E-03    -15.5690E-03     30.9559E-03    -15.5007E-03     3.42602E-03
             939     1.77239E-03     90.6484E-03    -9.80963E+06    -33.0424E+06    -8.77827E+06    -4.14262E+06    -15.5318E-03     31.0784E-03    -15.5465E-03     6.47495E-03    -15.5203E-03     30.9402E-03    -15.5283E-03     6.42052E-03
             940     2.65828E-03     90.6552E-03    -8.81884E+06    -33.6461E+06    -6.71421E+06    -5.89166E+06    -15.5304E-03     31.0773E-03    -15.5469E-03     9.71276E-03    -15.5161E-03     30.9318E-03    -15.5189E-03     9.63524E-03
             941     3.54464E-03     90.6660E-03    -7.81388E+06    -35.2364E+06    -4.87951E+06    -7.28611E+06    -15.5301E-03     31.0772E-03    -15.5471E-03     13.0672E-03    -15.5113E-03     30.9198E-03    -15.5091E-03     12.9711E-03
             942     4.43078E-03     90.6788E-03     -6.8146E+06    -37.8863E+06    -3.24278E+06    -8.40085E+06    -15.5339E-03     31.0804E-03    -15.5465E-03     16.5678E-03    -15.5089E-03     30.9061E-03    -15.4979E-03     16.4567E-03
             943     5.31699E-03     90.6960E-03    -5.74311E+06    -40.6416E+06    -2.13202E+06    -9.43296E+06    -15.5483E-03     31.0906E-03    -15.5423E-03     20.2057E-03    -15.5158E-03     30.8997E-03    -15.4857E-03     20.0806E-03
             944     6.20327E-03     90.7153E-03    -5.12781E+06    -42.0611E+06    -1.94353E+06    -10.0978E+06    -15.5840E-03     31.1168E-03    -15.5328E-03     24.0516E-03    -15.5471E-03     30.9180E-03    -15.4741E-03     23.9171E-03
             945     7.08938E-03     90.7395E-03    -4.67943E+06    -44.6024E+06    -1.16804E+06    -10.5453E+06    -15.6426E-03     31.1728E-03    -15.5302E-03     28.1089E-03    -15.6016E-03     30.9602E-03    -15.4646E-03     27.9675E-03
             946     7.97589E-03     90.7662E-03    -4.05752E+06    -47.2853E+06    -105.786E+03    -10.9579E+06    -15.6978E-03     31.2283E-03    -15.5305E-03     32.2732E-03    -15.6523E-03     31.0008E-03    -15.4565E-03     32.1249E-03
             947     8.86171E-03     90.7979E-03    -3.93207E+06    -48.1077E+06    -781.871E+03    -11.7522E+06    -15.7568E-03     31.2768E-03    -15.5200E-03     36.5821E-03    -15.7100E-03     31.0476E-03    -15.4485E-03     36.4215E-03
             948     9.74870E-03     90.8324E-03    -3.47582E+06    -51.9784E+06    -1.21458E+06    -12.3916E+06    -15.8996E-03     31.4171E-03    -15.5175E-03     41.0006E-03    -15.8468E-03     31.1710E-03    -15.4432E-03     40.8286E-03
             949     10.6339E-03     90.8721E-03    -3.00489E+06    -56.0123E+06    -6.16641E+06    -12.4184E+06    -16.1140E-03     31.6135E-03    -15.4996E-03     45.7039E-03    -16.0498E-03     31.3577E-03    -15.4448E-03     45.5275E-03
             950     11.5213E-03     90.9153E-03    -2.88040E+06    -50.4650E+06    -8.62078E+06    -11.8446E+06    -16.2380E-03     31.7234E-03    -15.4853E-03     50.1540E-03    -16.1839E-03     31.5049E-03    -15.4511E-03     49.9798E-03
             951     12.4059E-03     90.9628E-03    -3.06153E+06    -45.1846E+06    -6.32460E+06    -11.0507E+06    -16.7387E-03     32.2459E-03    -15.5072E-03     56.8570E-03    -16.7089E-03     32.0632E-03    -15.4689E-03     56.6851E-03
             952     13.2928E-03     91.0190E-03    -2.87152E+06    -51.4685E+06    -13.8755E+06    -9.44671E+06    -16.9965E-03     32.5079E-03    -15.5114E-03     59.2373E-03    -16.9622E-03     32.3209E-03    -15.5020E-03     59.0776E-03
             953     14.1774E-03     91.0706E-03    -3.39434E+06    -43.5380E+06    -19.5545E+06    -7.00765E+06    -16.8673E-03     32.3656E-03    -15.4982E-03     65.1775E-03    -16.8754E-03     32.2637E-03    -15.5280E-03     65.0438E-03
             954     15.0652E-03     91.1383E-03    -3.71501E+06    -6.56815E+06    -19.7023E+06    -5.91436E+06    -18.8295E-03     34.3017E-03    -15.4722E-03     101.330E-03    -19.1026E-03     34.5954E-03    -15.5558E-03     101.225E-03
             955     15.9465E-03     91.2552E-03    -4.90215E+06     65.5616E+06    -24.6866E+06    -4.17354E+06    -22.5478E-03     37.9341E-03    -15.3863E-03     171.230E-03    -24.5181E-03     40.1912E-03    -15.5977E-03     171.785E-03
             956     16.8385E-03     91.4569E-03    -4.59511E+06     162.924E+06     41.9158E+06    -846.028E+03    -28.1899E-03     43.7838E-03    -15.5939E-03     272.598E-03    -36.8837E-03     52.9181E-03    -15.6139E-03     278.700E-03
             957     886.318E-06     91.6221E-03    -9.31639E+06    -28.4764E+06    -9.05401E+06    -2.49186E+06    -15.4644E-03     30.9243E-03    -15.4599E-03     3.52408E-03    -15.4565E-03     30.8088E-03    -15.4504E-03     3.49143E-03
             958     1.77224E-03     91.6259E-03    -8.76091E+06    -28.6018E+06    -7.73005E+06    -4.43129E+06    -15.4669E-03     30.9331E-03    -15.4661E-03     6.53564E-03    -15.4581E-03     30.8141E-03    -15.4506E-03     6.47750E-03
             959     2.65872E-03     91.6337E-03    -7.90596E+06    -29.6983E+06    -5.64472E+06    -6.17049E+06    -15.4533E-03     30.9246E-03    -15.4713E-03     9.75238E-03    -15.4418E-03     30.7959E-03    -15.4450E-03     9.67131E-03
             960     3.54480E-03     91.6434E-03    -6.88208E+06    -31.7508E+06    -3.73415E+06    -7.55701E+06    -15.4468E-03     30.9184E-03    -15.4716E-03     13.0935E-03    -15.4300E-03     30.7753E-03    -15.4343E-03     12.9940E-03
             961     4.43110E-03     91.6572E-03    -5.91053E+06    -34.6845E+06    -2.55876E+06    -8.73753E+06    -15.4370E-03     30.9034E-03    -15.4665E-03     16.5940E-03    -15.4130E-03     30.7428E-03    -15.4204E-03     16.4788E-03
             962     5.31744E-03     91.6733E-03    -5.21115E+06    -38.1057E+06    -1.75229E+06    -9.61651E+06    -15.4476E-03     30.9064E-03    -15.4588E-03     20.2790E-03    -15.4167E-03     30.7268E-03    -15.4048E-03     20.1517E-03
             963     6.20371E-03     91.6937E-03    -4.61437E+06    -40.0566E+06    -1.24158E+06    -10.0645E+06    -15.4975E-03     30.9474E-03    -15.4499E-03     24.1912E-03    -15.4620E-03     30.7569E-03    -15.3913E-03     24.0573E-03
             964     7.09014E-03     91.7168E-03    -4.13969E+06    -42.3544E+06    -371.564E+03    -10.6099E+06    -15.5166E-03     30.9612E-03    -15.4446E-03     28.2322E-03    -15.4772E-03     30.7578E-03    -15.3790E-03     28.0901E-03
             965     7.97630E-03     91.7445E-03    -3.77558E+06    -45.8378E+06     333.756E+03    -10.9928E+06    -15.5550E-03     30.9941E-03    -15.4391E-03     32.4650E-03    -15.5108E-03     30.7728E-03    -15.3654E-03     32.3166E-03
             966     8.86306E-03     91.7752E-03    -3.44939E+06    -45.6769E+06     289.758E+03    -11.3352E+06    -15.6696E-03     31.0970E-03    -15.4274E-03     36.8248E-03    -15.6255E-03     30.8776E-03    -15.3547E-03     36.6698E-03
             967     9.74875E-03     91.8107E-03    -3.42349E+06    -49.9378E+06    -121.653E+03    -12.5357E+06    -15.8080E-03     31.2343E-03    -15.4263E-03     41.3287E-03    -15.7594E-03     30.9966E-03    -15.3496E-03     41.1552E-03
             968     10.6359E-03     91.8497E-03    -3.40519E+06    -55.6933E+06    -5.61540E+06    -12.8880E+06    -15.9912E-03     31.3987E-03    -15.4075E-03     46.0595E-03    -15.9301E-03     31.1441E-03    -15.3498E-03     45.8774E-03
             969     11.5211E-03     91.8935E-03    -3.15765E+06    -49.8067E+06    -7.95693E+06    -12.4425E+06    -16.3085E-03     31.7062E-03    -15.3977E-03     50.4999E-03    -16.2577E-03     31.4905E-03    -15.3607E-03     50.3180E-03
             970     12.4084E-03     91.9409E-03    -2.66598E+06    -45.6224E+06    -5.65631E+06    -11.5612E+06    -16.6736E-03     32.0998E-03    -15.4262E-03     57.4977E-03    -16.6420E-03     31.9133E-03    -15.3845E-03     57.3196E-03
             971     13.2927E-03     91.9981E-03    -3.26883E+06    -53.2858E+06    -13.8777E+06    -9.71058E+06    -16.8392E-03     32.2665E-03    -15.4273E-03     59.6630E-03    -16.8038E-03     32.0706E-03    -15.4147E-03     59.5007E-03
             972     14.1795E-03     92.0485E-03    -3.61101E+06    -44.2764E+06    -18.8517E+06    -7.71064E+06    -17.1335E-03     32.5574E-03    -15.4240E-03     65.1498E-03    -17.1427E-03     32.4514E-03    -15.4488E-03     65.0061E-03
             973     15.0649E-03     92.1158E-03    -4.09913E+06    -7.96161E+06    -18.5924E+06    -5.88402E+06    -18.5665E-03     33.9731E-03    -15.4066E-03     101.222E-03    -18.8389E-03     34.2566E-03    -15.4821E-03     101.122E-03
             974     15.9532E-03     92.2379E-03    -6.09912E+06     61.4269E+06    -24.8599E+06    -3.66077E+06    -22.9032E-03     38.2270E-03    -15.3237E-03     171.996E-03    -24.8903E-03     40.4825E-03    -15.5283E-03     172.532E-03
             975     16.8302E-03     92.4342E-03    -4.77374E+06     160.749E+06     42.3612E+06    -1.35637E+06    -28.8986E-03     44.4587E-03    -15.5601E-03     272.575E-03    -37.5585E-03     53.5495E-03    -15.5744E-03     278.640E-03
             976     886.212E-06     92.5993E-03    -7.30688E+06    -23.5802E+06    -6.89580E+06    -2.46655E+06    -15.3408E-03     30.7129E-03    -15.3721E-03     3.55565E-03    -15.3331E-03     30.6158E-03    -15.3618E-03     3.52334E-03
             977     1.77273E-03     92.6043E-03    -7.05383E+06    -23.9300E+06    -6.02755E+06    -4.36440E+06    -15.3742E-03     30.7364E-03    -15.3622E-03     6.54631E-03    -15.3661E-03     30.6358E-03    -15.3474E-03     6.48908E-03
             978     2.65873E-03     92.6110E-03    -6.71658E+06    -25.6897E+06    -4.65945E+06    -6.14111E+06    -15.3634E-03     30.7333E-03    -15.3699E-03     9.78191E-03    -15.3531E-03     30.6215E-03    -15.3462E-03     9.70129E-03
             979     3.54522E-03     92.6217E-03    -6.19374E+06    -28.3497E+06    -3.21195E+06    -7.55882E+06    -15.3368E-03     30.7067E-03    -15.3699E-03     13.1569E-03    -15.3223E-03     30.5789E-03    -15.3359E-03     13.0575E-03
             980     4.43153E-03     92.6345E-03    -5.58260E+06    -31.4622E+06    -1.85607E+06    -8.78452E+06    -15.3218E-03     30.6860E-03    -15.3642E-03     16.6709E-03    -15.3020E-03     30.5400E-03    -15.3197E-03     16.5551E-03
             981     5.31796E-03     92.6514E-03    -4.91935E+06    -35.4963E+06    -983.628E+03    -9.66981E+06    -15.3416E-03     30.6981E-03    -15.3566E-03     20.3953E-03    -15.3141E-03     30.5300E-03    -15.3029E-03     20.2675E-03
             982     6.20441E-03     92.6709E-03    -4.40437E+06    -38.2193E+06    -676.169E+03    -10.0343E+06    -15.3458E-03     30.6902E-03    -15.3444E-03     24.3115E-03    -15.3126E-03     30.5077E-03    -15.2860E-03     24.1781E-03
             983     7.09076E-03     92.6949E-03    -4.05041E+06    -40.3662E+06     7.81606E+03    -10.3442E+06    -15.3565E-03     30.6884E-03    -15.3319E-03     28.3950E-03    -15.3200E-03     30.4942E-03    -15.2675E-03     28.2566E-03
             984     7.97749E-03     92.7215E-03    -3.98030E+06    -44.1762E+06     821.535E+03    -10.7301E+06    -15.4199E-03     30.7437E-03    -15.3238E-03     32.6829E-03    -15.3797E-03     30.5301E-03    -15.2499E-03     32.5381E-03
             985     8.86369E-03     92.7532E-03    -3.91814E+06    -43.9837E+06     671.458E+03    -11.0180E+06    -15.5217E-03     30.8311E-03    -15.3093E-03     37.1402E-03    -15.4828E-03     30.6201E-03    -15.2365E-03     36.9897E-03
             986     9.75062E-03     92.7880E-03    -3.96753E+06    -47.2041E+06     946.127E+03    -11.9893E+06    -15.6970E-03     31.0062E-03    -15.3093E-03     41.6652E-03    -15.6564E-03     30.7813E-03    -15.2303E-03     41.4992E-03
             987     10.6363E-03     92.8275E-03    -4.04444E+06    -53.8691E+06    -3.81536E+06    -13.0870E+06    -15.9787E-03     31.2789E-03    -15.3002E-03     46.4056E-03    -15.9259E-03     31.0316E-03    -15.2353E-03     46.2212E-03
             988     11.5234E-03     92.8714E-03    -3.89826E+06    -48.8799E+06    -7.04873E+06    -13.0141E+06    -16.2976E-03     31.5926E-03    -15.2950E-03     51.1529E-03    -16.2531E-03     31.3812E-03    -15.2537E-03     50.9639E-03
             989     12.4079E-03     92.9196E-03    -3.86940E+06    -46.6300E+06    -5.59839E+06    -12.3206E+06    -16.5702E-03     31.8961E-03    -15.3259E-03     57.8902E-03    -16.5431E-03     31.7060E-03    -15.2806E-03     57.7028E-03
             990     13.2958E-03     92.9754E-03    -3.60771E+06    -55.7619E+06    -14.1379E+06    -10.1708E+06    -16.9075E-03     32.2389E-03    -15.3314E-03     59.8181E-03    -16.8697E-03     32.0314E-03    -15.3160E-03     59.6499E-03
             991     14.1806E-03     93.0279E-03    -4.45310E+06    -43.9443E+06    -18.2402E+06    -8.18574E+06    -17.6441E-03     32.9966E-03    -15.3525E-03     65.5750E-03    -17.6607E-03     32.8943E-03    -15.3735E-03     65.4232E-03
             992     15.0645E-03     93.0956E-03    -5.23380E+06    -10.5789E+06    -17.9086E+06    -6.65798E+06    -18.8439E-03     34.2129E-03    -15.3690E-03     100.705E-03    -19.1165E-03     34.4813E-03    -15.4357E-03     100.592E-03
             993     15.9500E-03     93.2122E-03    -4.08904E+06     57.2244E+06    -25.7969E+06    -3.39983E+06    -22.0277E-03     37.2881E-03    -15.2605E-03     172.837E-03    -24.0082E-03     39.5321E-03    -15.4665E-03     173.417E-03
             994     16.8418E-03     93.4222E-03    -3.05040E+06     159.958E+06     42.1407E+06    -812.710E+03    -29.0981E-03     44.5752E-03    -15.4771E-03     272.834E-03    -37.7117E-03     53.6237E-03    -15.4939E-03     278.847E-03
             995     886.470E-06     93.5777E-03    -6.42349E+06    -18.9137E+06    -6.28314E+06    -2.19840E+06    -15.2538E-03     30.5010E-03    -15.2472E-03     3.55675E-03    -15.2494E-03     30.4251E-03    -15.2418E-03     3.52793E-03
             996     1.77262E-03     93.5814E-03    -6.52069E+06    -19.6126E+06    -5.45384E+06    -4.02159E+06    -15.2183E-03     30.4645E-03    -15.2463E-03     6.54490E-03    -15.2146E-03     30.3839E-03    -15.2356E-03     6.49214E-03
             997     2.65933E-03     93.5892E-03    -6.25381E+06    -21.5515E+06    -3.88805E+06    -5.72812E+06    -15.2064E-03     30.4474E-03    -15.2410E-03     9.82507E-03    -15.2009E-03     30.3545E-03    -15.2201E-03     9.74986E-03
             998     3.54557E-03     93.5988E-03    -5.85467E+06    -24.9459E+06    -2.17612E+06    -7.26787E+06    -15.1932E-03     30.4315E-03    -15.2383E-03     13.2176E-03    -15.1835E-03     30.3187E-03    -15.2045E-03     13.1220E-03
             999     4.43218E-03     93.6124E-03    -5.45860E+06    -28.3889E+06    -955.707E+03    -8.34303E+06    -15.1959E-03     30.4285E-03    -15.2326E-03     16.7761E-03    -15.1811E-03     30.2963E-03    -15.1883E-03     16.6661E-03
            1000     5.31862E-03     93.6285E-03    -5.21639E+06    -32.6798E+06    -387.434E+03    -9.39832E+06    -15.1930E-03     30.4175E-03    -15.2244E-03     20.5286E-03    -15.1720E-03     30.2630E-03    -15.1714E-03     20.4044E-03
            1001     6.20514E-03     93.6488E-03    -4.85854E+06    -36.8570E+06    -506.348E+03    -9.79413E+06    -15.1611E-03     30.3693E-03    -15.2082E-03     24.4491E-03    -15.1324E-03     30.1940E-03    -15.1503E-03     24.3191E-03
            1002     7.09197E-03     93.6717E-03    -4.77504E+06    -38.6174E+06    -137.568E+03    -9.82872E+06    -15.1797E-03     30.3683E-03    -15.1886E-03     28.6010E-03    -15.1491E-03     30.1841E-03    -15.1264E-03     28.4696E-03
            1003     7.97840E-03     93.6994E-03    -4.67862E+06    -42.3906E+06     1.16567E+06    -10.1634E+06    -15.2736E-03     30.4544E-03    -15.1808E-03     32.9366E-03    -15.2399E-03     30.2502E-03    -15.1067E-03     32.7994E-03
            1004     8.86525E-03     93.7300E-03    -4.72142E+06    -42.4625E+06     1.28264E+06    -10.5106E+06    -15.3643E-03     30.5319E-03    -15.1676E-03     37.4098E-03    -15.3323E-03     30.3286E-03    -15.0928E-03     37.2662E-03
            1005     9.75158E-03     93.7657E-03    -4.85155E+06    -44.5481E+06     1.75139E+06    -11.3077E+06    -15.5922E-03     30.7603E-03    -15.1681E-03     42.0760E-03    -15.5610E-03     30.5486E-03    -15.0877E-03     41.9191E-03
            1006     10.6384E-03     93.8050E-03    -5.12861E+06    -51.2319E+06    -2.30856E+06    -12.6832E+06    -15.9435E-03     31.1123E-03    -15.1688E-03     46.9253E-03    -15.9021E-03     30.8775E-03    -15.0986E-03     46.7464E-03
            1007     11.5237E-03     93.8493E-03    -5.54866E+06    -48.5116E+06    -6.97944E+06    -13.4568E+06    -16.1556E-03     31.3198E-03    -15.1642E-03     51.7185E-03    -16.1198E-03     31.1123E-03    -15.1207E-03     51.5244E-03
            1008     12.4115E-03     93.8974E-03    -5.05142E+06    -46.9749E+06    -5.74332E+06    -12.8090E+06    -16.6694E-03     31.8707E-03    -15.2014E-03     58.5227E-03    -16.6476E-03     31.6809E-03    -15.1546E-03     58.3290E-03
            1009     13.2953E-03     93.9539E-03     -4.6015E+06    -57.2399E+06    -14.3891E+06    -11.0852E+06    -17.3176E-03     32.5493E-03    -15.2317E-03     60.6104E-03    -17.2832E-03     32.3371E-03    -15.2140E-03     60.4294E-03
            1010     14.1810E-03     94.0069E-03    -4.56378E+06    -46.7998E+06    -19.1707E+06    -8.21194E+06    -17.5258E-03     32.7903E-03    -15.2645E-03     66.3887E-03    -17.5369E-03     32.6747E-03    -15.2859E-03     66.2377E-03
            1011     15.0676E-03     94.0746E-03    -5.51772E+06    -11.2122E+06    -17.2625E+06    -7.03307E+06    -19.2009E-03     34.4962E-03    -15.2953E-03     101.723E-03    -19.4804E-03     34.7664E-03    -15.3573E-03     101.602E-03
            1012     15.9520E-03     94.1926E-03    -5.68098E+06     54.6637E+06    -25.3448E+06    -5.55078E+06    -22.7631E-03     37.9898E-03    -15.2267E-03     171.977E-03    -24.7440E-03     40.2181E-03    -15.4244E-03     172.522E-03
            1013     16.8360E-03     94.3936E-03    -4.40440E+06     156.658E+06     41.1161E+06    -1.45748E+06    -29.0651E-03     44.5269E-03    -15.4619E-03     272.375E-03    -37.7232E-03     53.6064E-03    -15.4770E-03     278.381E-03
            1014     886.330E-06     94.5544E-03    -7.66030E+06    -14.7214E+06    -7.16384E+06    -1.98484E+06    -15.0919E-03     30.1741E-03    -15.0823E-03     3.60938E-03    -15.0984E-03     30.1222E-03    -15.0856E-03     3.58333E-03
            1015     1.77317E-03     94.5594E-03    -7.19184E+06    -15.7339E+06    -5.44378E+06    -3.51155E+06    -15.0507E-03     30.1376E-03    -15.0870E-03     6.60359E-03    -15.0560E-03     30.0774E-03    -15.0809E-03     6.55747E-03
            1016     2.65946E-03     94.5660E-03    -6.83564E+06    -17.7985E+06    -3.23034E+06    -5.02332E+06    -15.0138E-03     30.0938E-03    -15.0800E-03     9.86700E-03    -15.0177E-03     30.0196E-03    -15.0604E-03     9.80097E-03
            1017     3.54634E-03     94.5766E-03    -6.63767E+06    -21.5681E+06    -1.42590E+06    -6.42264E+06    -15.0154E-03     30.0895E-03    -15.0741E-03     13.2791E-03    -15.0156E-03     29.9937E-03    -15.0403E-03     13.1946E-03
            1018     4.43278E-03     94.5893E-03    -6.34824E+06    -25.5422E+06    -515.427E+03    -7.60841E+06    -15.0097E-03     30.0758E-03    -15.0661E-03     16.8916E-03    -15.0042E-03     29.9585E-03    -15.0224E-03     16.7912E-03
            1019     5.31954E-03     94.6061E-03    -6.15093E+06    -30.0165E+06    -163.437E+03    -8.43853E+06    -14.9772E-03     30.0300E-03    -15.0528E-03     20.6625E-03    -14.9649E-03     29.8898E-03    -15.0012E-03     20.5509E-03
            1020     6.20634E-03     94.6253E-03    -6.31820E+06    -35.3233E+06    -444.625E+03    -9.12984E+06    -14.9774E-03     30.0122E-03    -15.0348E-03     24.6158E-03    -14.9582E-03     29.8465E-03    -14.9767E-03     24.4946E-03
            1021     7.09298E-03     94.6491E-03    -6.35497E+06    -37.2158E+06    -569.841E+03    -9.12645E+06    -15.0096E-03     30.0231E-03    -15.0135E-03     28.8429E-03    -14.9882E-03     29.8487E-03    -14.9532E-03     28.7208E-03
            1022     7.97997E-03     94.6759E-03    -6.55149E+06    -40.5814E+06     681.875E+03    -9.38790E+06    -15.0792E-03     30.0842E-03    -15.0050E-03     33.2201E-03    -15.0566E-03     29.8923E-03    -14.9333E-03     33.0933E-03
            1023     8.86656E-03     94.7075E-03    -6.35318E+06    -40.9011E+06     1.31653E+06    -9.97410E+06    -15.2189E-03     30.2140E-03    -14.9952E-03     37.7797E-03    -15.1972E-03     30.0208E-03    -14.9201E-03     37.6433E-03
            1024     9.75347E-03     94.7424E-03    -6.23794E+06    -42.0032E+06     2.00512E+06    -10.4126E+06    -15.4557E-03     30.4536E-03    -14.9980E-03     42.6723E-03    -15.4352E-03     30.2561E-03    -14.9180E-03     42.5275E-03
            1025     10.6396E-03     94.7828E-03    -6.51861E+06    -48.5779E+06    -1.26394E+06    -11.8851E+06    -15.8021E-03     30.8070E-03    -15.0049E-03     47.5649E-03    -15.7727E-03     30.5857E-03    -14.9313E-03     47.3969E-03
            1026     11.5267E-03     94.8266E-03    -6.59726E+06    -46.3731E+06    -5.58477E+06    -13.5440E+06    -16.1828E-03     31.1931E-03    -15.0103E-03     52.2077E-03    -16.1573E-03     30.9957E-03    -14.9614E-03     52.0127E-03
            1027     12.4116E-03     94.8751E-03    -6.24376E+06    -47.1223E+06    -5.30022E+06    -13.8445E+06    -16.7645E-03     31.8256E-03    -15.0611E-03     59.4270E-03    -16.7491E-03     31.6361E-03    -15.0102E-03     59.2201E-03
            1028     13.2986E-03     94.9333E-03    -5.57687E+06    -60.1433E+06    -15.0150E+06    -11.8026E+06    -17.2649E-03     32.3640E-03    -15.0991E-03     61.7551E-03    -17.2300E-03     32.1394E-03    -15.0789E-03     61.5656E-03
            1029     14.1832E-03     94.9853E-03    -5.62524E+06    -48.6022E+06    -19.8669E+06    -9.42157E+06    -17.8918E-03     33.0379E-03    -15.1461E-03     67.1573E-03    -17.9060E-03     32.9173E-03    -15.1668E-03     66.9893E-03
            1030     15.0683E-03     95.0528E-03    -4.65549E+06    -10.6120E+06    -14.8114E+06    -7.76307E+06    -19.5574E-03     34.7715E-03    -15.2141E-03     101.726E-03    -19.8349E-03     35.0377E-03    -15.2660E-03     101.594E-03
            1031     15.9531E-03     95.1739E-03    -5.24699E+06     50.6662E+06    -22.9537E+06    -5.23945E+06    -23.9152E-03     39.1124E-03    -15.1971E-03     172.464E-03    -25.9122E-03     41.3371E-03    -15.3778E-03     172.967E-03
            1032     16.8363E-03     95.3748E-03    -4.80689E+06     152.130E+06     41.2989E+06    -1.91278E+06    -29.5589E-03     45.0229E-03    -15.4640E-03     273.552E-03    -38.2284E-03     54.0956E-03    -15.4711E-03     279.577E-03
            1033     886.933E-06     95.5323E-03    -8.85774E+06    -11.1654E+06    -8.02989E+06    -1.53812E+06    -14.8637E-03     29.7290E-03    -14.8653E-03     3.60434E-03    -14.8801E-03     29.6979E-03    -14.8764E-03     3.58409E-03
            1034     1.77323E-03     95.5359E-03    -8.76347E+06    -12.6334E+06    -5.97734E+06    -2.63488E+06    -14.8382E-03     29.7090E-03    -14.8709E-03     6.61800E-03    -14.8550E-03     29.6673E-03    -14.8697E-03     6.58327E-03
            1035     2.66030E-03     95.5435E-03    -8.64538E+06    -14.7720E+06    -3.54558E+06    -3.63947E+06    -14.8169E-03     29.6884E-03    -14.8715E-03     9.94529E-03    -14.8337E-03     29.6323E-03    -14.8553E-03     9.89722E-03
            1036     3.54680E-03     95.5530E-03    -8.35455E+06    -18.3717E+06    -1.29764E+06    -5.03252E+06    -14.7905E-03     29.6602E-03    -14.8697E-03     13.3903E-03    -14.8040E-03     29.5826E-03    -14.8374E-03     13.3238E-03
            1037     4.43383E-03     95.5666E-03    -8.25219E+06    -22.9664E+06    -262.508E+03    -6.26423E+06    -14.7567E-03     29.6157E-03    -14.8590E-03     17.0001E-03    -14.7647E-03     29.5136E-03    -14.8150E-03     16.9173E-03
            1038     5.32065E-03     95.5824E-03    -8.32342E+06    -27.8233E+06    -252.276E+03    -7.15778E+06    -14.7398E-03     29.5803E-03    -14.8406E-03     20.7816E-03    -14.7414E-03     29.4543E-03    -14.7894E-03     20.6868E-03
            1039     6.20759E-03     95.6025E-03    -8.49273E+06    -33.3163E+06    -508.479E+03    -7.74313E+06    -14.7665E-03     29.5894E-03    -14.8228E-03     24.8119E-03    -14.7610E-03     29.4369E-03    -14.7647E-03     24.7088E-03
            1040     7.09461E-03     95.6254E-03    -8.90268E+06    -35.9267E+06    -1.06943E+06    -8.18441E+06    -14.7988E-03     29.6013E-03    -14.8024E-03     29.0944E-03    -14.7913E-03     29.4376E-03    -14.7428E-03     28.9848E-03
            1041     7.98146E-03     95.6530E-03    -8.87244E+06    -38.9739E+06    -190.487E+03    -8.38527E+06    -14.8572E-03     29.6488E-03    -14.7916E-03     33.5847E-03    -14.8472E-03     29.4695E-03    -14.7232E-03     33.4713E-03
            1042     8.86857E-03     95.6838E-03    -9.16530E+06    -39.2312E+06     726.673E+03     -9.0016E+06    -15.0351E-03     29.8202E-03    -14.7850E-03     38.3148E-03    -15.0289E-03     29.6400E-03    -14.7112E-03     38.1915E-03
            1043     9.75527E-03     95.7197E-03    -9.00313E+06    -39.6806E+06     1.88772E+06    -9.96165E+06    -15.2979E-03     30.0910E-03    -14.7931E-03     43.2524E-03    -15.2942E-03     29.9090E-03    -14.7131E-03     43.1139E-03
            1044     10.6423E-03     95.7595E-03    -8.42921E+06    -45.3355E+06    -197.207E+03    -11.3218E+06    -15.6712E-03     30.4797E-03    -14.8085E-03     48.2507E-03    -15.6574E-03     30.2756E-03    -14.7316E-03     48.0905E-03
            1045     11.5280E-03     95.8043E-03    -8.43108E+06    -43.3881E+06    -4.29234E+06    -13.3762E+06    -16.2344E-03     31.0615E-03    -14.8271E-03     53.1436E-03    -16.2242E-03     30.8798E-03    -14.7734E-03     52.9510E-03
            1046     12.4148E-03     95.8532E-03    -8.02563E+06    -45.8768E+06    -4.48956E+06    -14.5489E+06    -16.7511E-03     31.6430E-03    -14.8919E-03     60.3764E-03    -16.7475E-03     31.4611E-03    -14.8362E-03     60.1609E-03
            1047     13.2996E-03     95.9111E-03    -7.10274E+06    -62.8177E+06    -16.2859E+06    -13.4076E+06    -17.4296E-03     32.3697E-03    -14.9401E-03     62.4900E-03    -17.3965E-03     32.1357E-03    -14.9201E-03     62.2798E-03
            1048     14.1860E-03     95.9641E-03    -6.16226E+06    -48.4594E+06    -19.4924E+06    -10.9402E+06    -18.4695E-03     33.4907E-03    -15.0212E-03     67.8852E-03    -18.4885E-03     33.3723E-03    -15.0394E-03     67.6958E-03
            1049     15.0685E-03     96.0349E-03    -5.32540E+06    -12.5378E+06    -13.3603E+06    -9.26296E+06    -19.9470E-03     35.0796E-03    -15.1326E-03     102.227E-03    -20.2265E-03     35.3345E-03    -15.1735E-03     102.072E-03
            1050     15.9541E-03     96.1500E-03    -4.61926E+06     44.8383E+06    -22.3017E+06    -5.39548E+06    -23.8994E-03     39.0236E-03    -15.1242E-03     174.829E-03    -25.9158E-03     41.2475E-03    -15.2941E-03     175.340E-03
            1051     16.8384E-03     96.3608E-03    -3.91630E+06     149.802E+06     42.3045E+06    -1.56303E+06    -29.7368E-03     45.1298E-03    -15.3931E-03     272.772E-03    -38.2613E-03     54.0496E-03    -15.3931E-03     278.732E-03
            1052     886.613E-06     96.5081E-03    -11.8126E+06    -9.07747E+06    -10.6345E+06    -511.989E+03    -14.5813E-03     29.2099E-03    -14.6285E-03     3.50631E-03    -14.6117E-03     29.1972E-03    -14.6514E-03     3.49937E-03
            1053     1.77408E-03     96.5131E-03    -11.7862E+06    -10.7980E+06    -8.09713E+06    -1.07547E+06    -14.5581E-03     29.1698E-03    -14.6116E-03     6.65419E-03    -14.5897E-03     29.1447E-03    -14.6193E-03     6.63966E-03
            1054     2.66066E-03     96.5196E-03    -11.4623E+06    -12.5701E+06    -4.82230E+06    -1.86420E+06    -14.5529E-03     29.1655E-03    -14.6126E-03     9.99972E-03    -14.5852E-03     29.1264E-03    -14.6019E-03     9.97467E-03
            1055     3.54795E-03     96.5301E-03    -11.1417E+06    -15.6435E+06    -1.92450E+06    -3.05237E+06    -14.5155E-03     29.1288E-03    -14.6133E-03     13.4885E-03    -14.5459E-03     29.0698E-03    -14.5841E-03     13.4478E-03
            1056     4.43481E-03     96.5425E-03    -11.0814E+06    -20.7785E+06    -259.318E+03    -4.19914E+06    -14.4856E-03     29.0916E-03    -14.6059E-03     17.1054E-03    -14.5109E-03     29.0045E-03    -14.5610E-03     17.0494E-03
            1057     5.32204E-03     96.5592E-03    -11.3685E+06    -25.6653E+06    -217.356E+03    -5.10320E+06    -14.4815E-03     29.0704E-03    -14.5889E-03     20.9396E-03    -14.5014E-03     28.9595E-03    -14.5363E-03     20.8715E-03
            1058     6.20916E-03     96.5783E-03    -11.7718E+06    -31.4861E+06    -945.718E+03    -6.07422E+06    -14.5031E-03     29.0740E-03    -14.5709E-03     25.0320E-03    -14.5159E-03     28.9359E-03    -14.5129E-03     24.9508E-03
            1059     7.09629E-03     96.6021E-03    -11.7524E+06    -34.5041E+06    -1.41890E+06    -6.77658E+06    -14.5259E-03     29.0765E-03    -14.5506E-03     29.3649E-03    -14.5340E-03     28.9245E-03    -14.4907E-03     29.2738E-03
            1060     7.98361E-03     96.6287E-03    -11.7165E+06    -37.3215E+06    -847.543E+03    -7.57177E+06    -14.6212E-03     29.1600E-03    -14.5388E-03     33.9753E-03    -14.6267E-03     28.9938E-03    -14.4719E-03     33.8728E-03
            1061     8.87073E-03     96.6605E-03    -11.2810E+06    -37.5221E+06     825.655E+03    -7.89646E+06    -14.8290E-03     29.3674E-03    -14.5384E-03     38.8775E-03    -14.8358E-03     29.1986E-03    -14.4635E-03     38.7690E-03
            1062     9.75774E-03     96.6959E-03    -11.2794E+06    -37.2617E+06     2.05622E+06    -9.09853E+06    -15.1146E-03     29.6656E-03    -14.5510E-03     43.8858E-03    -15.1258E-03     29.4985E-03    -14.4703E-03     43.7590E-03
            1063     10.6443E-03     96.7364E-03    -11.1207E+06    -42.5075E+06     137.122E+03    -11.1917E+06    -15.5672E-03     30.1426E-03    -14.5753E-03     49.1414E-03    -15.5712E-03     29.9558E-03    -14.4969E-03     48.9835E-03
            1064     11.5314E-03     96.7814E-03    -10.2548E+06    -39.6181E+06    -2.62297E+06    -13.1171E+06    -16.1296E-03     30.7370E-03    -14.6074E-03     54.2670E-03    -16.1362E-03     30.5741E-03    -14.5482E-03     54.0784E-03
            1065     12.4165E-03     96.8312E-03    -9.42142E+06    -43.6705E+06    -3.42960E+06    -15.1932E+06    -16.8735E-03     31.5599E-03    -14.6864E-03     61.2210E-03    -16.8817E-03     31.3895E-03    -14.6265E-03     60.9972E-03
            1066     13.3034E-03     96.8888E-03    -8.71962E+06    -64.0121E+06    -17.4419E+06    -14.9409E+06    -17.9651E-03     32.7273E-03    -14.7622E-03     64.2209E-03    -17.9382E-03     32.4928E-03    -14.7439E-03     63.9895E-03
            1067     14.1855E-03     96.9455E-03    -7.92673E+06    -50.2771E+06    -20.8331E+06    -13.1508E+06    -18.5128E-03     33.3832E-03    -14.8704E-03     69.3006E-03    -18.5363E-03     33.2604E-03    -14.8902E-03     69.0831E-03
            1068     15.0726E-03     97.0122E-03    -6.35181E+06    -14.6220E+06    -13.4241E+06    -10.4908E+06    -20.3739E-03     35.3806E-03    -15.0067E-03     103.411E-03    -20.6647E-03     35.6359E-03    -15.0434E-03     103.236E-03
            1069     15.9557E-03     97.1328E-03    -6.77544E+06     40.3407E+06    -22.0441E+06    -6.88707E+06    -24.4201E-03     39.4584E-03    -15.0383E-03     174.567E-03    -26.4151E-03     41.6365E-03    -15.1972E-03     175.047E-03
            1070     16.8409E-03     97.3382E-03    -5.49016E+06     145.808E+06     42.3118E+06    -2.70170E+06    -29.9800E-03     45.3143E-03    -15.3343E-03     271.632E-03    -38.5126E-03     54.2223E-03    -15.3262E-03     277.535E-03
            1071     887.442E-06     97.4849E-03    -16.3597E+06    -9.29238E+06    -14.9317E+06     799.339E+03    -14.2283E-03     28.5736E-03    -14.3453E-03     3.47155E-03    -14.2749E-03     28.5728E-03    -14.3828E-03     3.48157E-03
            1072     1.77416E-03     97.4885E-03    -15.9989E+06    -10.0830E+06    -11.4738E+06     747.731E+03    -14.2526E-03     28.5525E-03    -14.2999E-03     6.71977E-03    -14.3014E-03     28.5420E-03    -14.3194E-03     6.72885E-03
            1073     2.66178E-03     97.4961E-03    -15.5359E+06    -11.6445E+06    -7.49572E+06     317.298E+03    -14.2198E-03     28.5238E-03    -14.3041E-03     10.0592E-03    -14.2698E-03     28.4991E-03    -14.3021E-03     10.0624E-03
            1074     3.54879E-03     97.5054E-03    -15.4240E+06    -13.9341E+06    -3.87246E+06    -309.734E+03    -14.1911E-03     28.4959E-03    -14.3048E-03     13.5538E-03    -14.2426E-03     28.4544E-03    -14.2816E-03     13.5486E-03
            1075     4.43631E-03     97.5189E-03    -15.3201E+06    -18.8572E+06    -1.14345E+06    -1.52783E+06    -14.1788E-03     28.4825E-03    -14.3037E-03     17.2252E-03    -14.2267E-03     28.4124E-03    -14.2599E-03     17.2039E-03
            1076     5.32355E-03     97.5344E-03    -15.2228E+06    -23.8930E+06    -363.672E+03    -2.59440E+06    -14.1808E-03     28.4739E-03    -14.2931E-03     21.1212E-03    -14.2223E-03     28.3776E-03    -14.2382E-03     21.0857E-03
            1077     6.21100E-03     97.5546E-03    -15.4126E+06    -29.0844E+06    -1.04892E+06    -3.83557E+06    -14.1844E-03     28.4597E-03    -14.2753E-03     25.2602E-03    -14.2187E-03     28.3390E-03    -14.2160E-03     25.2082E-03
            1078     7.09846E-03     97.5771E-03    -15.6355E+06    -32.8929E+06    -1.96796E+06    -5.29302E+06    -14.2327E-03     28.4880E-03    -14.2553E-03     29.6708E-03    -14.2616E-03     28.3503E-03    -14.1948E-03     29.5992E-03
            1079     7.98590E-03     97.6049E-03    -15.2513E+06    -35.2225E+06    -1.48904E+06    -6.47545E+06    -14.3752E-03     28.6214E-03    -14.2462E-03     34.4127E-03    -14.4003E-03     28.4717E-03    -14.1805E-03     34.3248E-03
            1080     8.87318E-03     97.6358E-03    -14.6749E+06    -36.4144E+06    -197.705E+03    -7.38473E+06    -14.5580E-03     28.8075E-03    -14.2495E-03     39.4326E-03    -14.5816E-03     28.6503E-03    -14.1764E-03     39.3313E-03
            1081     9.76053E-03     97.6724E-03    -13.5414E+06    -34.6181E+06     1.63515E+06    -8.32547E+06    -14.8849E-03     29.1496E-03    -14.2647E-03     44.6871E-03    -14.9104E-03     28.9994E-03    -14.1867E-03     44.5709E-03
            1082     10.6476E-03     97.7125E-03    -12.6516E+06    -38.6889E+06     904.214E+03    -10.6482E+06    -15.4413E-03     29.7417E-03    -14.3004E-03     50.1541E-03    -15.4594E-03     29.5749E-03    -14.2214E-03     50.0038E-03
            1083     11.5337E-03     97.7588E-03    -12.1642E+06    -36.5673E+06    -1.98700E+06    -13.3223E+06    -16.0721E-03     30.4186E-03    -14.3466E-03     55.3271E-03    -16.0933E-03     30.2726E-03    -14.2858E-03     55.1364E-03
            1084     12.4208E-03     97.8083E-03    -11.2003E+06    -39.7937E+06    -2.24214E+06     -16.052E+06    -17.0771E-03     31.5263E-03    -14.4491E-03     62.6328E-03    -17.1021E-03     31.3767E-03    -14.3864E-03     62.3977E-03
            1085     13.3043E-03     97.8683E-03    -10.0969E+06    -65.6338E+06    -18.0666E+06    -16.6138E+06    -18.0380E-03     32.5840E-03    -14.5461E-03     65.9508E-03    -18.0150E-03     32.3446E-03    -14.5266E-03     65.6983E-03
            1086     14.1912E-03     97.9243E-03    -9.01747E+06    -52.6055E+06    -22.2830E+06    -14.6976E+06    -18.8845E-03     33.5598E-03    -14.6753E-03     70.3026E-03    -18.9090E-03     33.4303E-03    -14.6974E-03     70.0639E-03
            1087     15.0736E-03     97.9917E-03    -8.11899E+06    -15.5446E+06    -13.1801E+06    -12.6229E+06    -21.5228E-03     36.3942E-03    -14.8714E-03     104.732E-03    -21.8325E-03     36.6582E-03    -14.9030E-03     104.521E-03
            1088     15.9564E-03     98.1161E-03    -5.71270E+06     35.0365E+06    -21.1345E+06    -8.04896E+06    -24.9675E-03     39.9324E-03    -14.9649E-03     173.585E-03    -26.9096E-03     42.0399E-03    -15.1131E-03     174.034E-03
            1089     16.8391E-03     98.3153E-03    -3.76034E+06     141.220E+06     43.3058E+06    -3.16046E+06    -30.5072E-03     45.7970E-03    -15.2898E-03     272.625E-03    -39.1625E-03     54.8147E-03    -15.2726E-03     278.476E-03
            1090     887.274E-06     98.4596E-03    -20.1936E+06    -12.4751E+06    -18.8957E+06     2.35813E+06    -13.8636E-03     27.8350E-03    -13.9714E-03     3.51657E-03    -13.9190E-03     27.8295E-03    -14.0185E-03     3.54676E-03
            1091     1.77521E-03     98.4645E-03    -20.7152E+06    -10.9853E+06    -15.9979E+06     3.09473E+06    -13.8965E-03     27.8257E-03    -13.9292E-03     6.75418E-03    -13.9610E-03     27.8241E-03    -13.9632E-03     6.79362E-03
            1092     2.66240E-03     98.4709E-03    -20.6341E+06    -11.8987E+06    -11.3307E+06     2.98515E+06    -13.8629E-03     27.8054E-03    -13.9424E-03     10.1222E-03    -13.9325E-03     27.7923E-03    -13.9519E-03     10.1599E-03
            1093     3.55025E-03     98.4813E-03    -19.8927E+06    -13.3702E+06    -6.22508E+06     2.56698E+06    -13.8304E-03     27.7817E-03    -13.9513E-03     13.6290E-03    -13.9017E-03     27.7529E-03    -13.9342E-03     13.6611E-03
            1094     4.43771E-03     98.4935E-03    -19.4477E+06    -17.4655E+06    -2.41067E+06     1.71884E+06    -13.8208E-03     27.7763E-03    -13.9555E-03     17.3449E-03    -13.8895E-03     27.7209E-03    -13.9140E-03     17.3657E-03
            1095     5.32546E-03     98.5103E-03    -19.3473E+06    -22.3792E+06    -897.954E+03     319.271E+03    -13.8185E-03     27.7678E-03    -13.9493E-03     21.2905E-03    -13.8820E-03     27.6858E-03    -13.8933E-03     21.2929E-03
            1096     6.21312E-03     98.5290E-03    -19.1307E+06    -26.7018E+06    -1.17233E+06    -1.35252E+06    -13.8395E-03     27.7727E-03    -13.9332E-03     25.4862E-03    -13.8955E-03     27.6694E-03    -13.8726E-03     25.4665E-03
            1097     7.10089E-03     98.5529E-03    -19.0139E+06    -30.3089E+06    -1.91436E+06    -3.28387E+06    -13.9306E-03     27.8485E-03    -13.9179E-03     30.0147E-03    -13.9801E-03     27.7284E-03    -13.8559E-03     29.9694E-03
            1098     7.98850E-03     98.5795E-03    -18.7339E+06    -32.8813E+06    -2.07684E+06    -5.34370E+06    -14.0643E-03     27.9756E-03    -13.9113E-03     34.8949E-03    -14.1092E-03     27.8433E-03    -13.8468E-03     34.8221E-03
            1099     8.87622E-03     98.6117E-03    -17.4985E+06    -34.7641E+06    -1.00862E+06    -6.99378E+06    -14.2734E-03     28.1913E-03    -13.9180E-03     40.0187E-03    -14.3121E-03     28.0475E-03    -13.8472E-03     39.9230E-03
            1100     9.76368E-03     98.6471E-03    -15.7882E+06    -31.6817E+06     1.16666E+06    -8.64888E+06    -14.6391E-03     28.5771E-03    -13.9380E-03     45.5348E-03    -14.6791E-03     28.4452E-03    -13.8633E-03     45.4151E-03
            1101     10.6507E-03     98.6893E-03    -13.9955E+06    -35.2808E+06     1.12456E+06    -10.6376E+06    -15.2705E-03     29.2543E-03    -13.9838E-03     51.2223E-03    -15.3002E-03     29.1059E-03    -13.9067E-03     51.0728E-03
            1102     11.5379E-03     98.7346E-03    -12.6149E+06    -32.4530E+06    -599.998E+03    -13.3033E+06    -16.1005E-03     30.1510E-03    -14.0505E-03     56.6005E-03    -16.1319E-03     30.0241E-03    -13.9881E-03     56.4105E-03
            1103     12.4229E-03     98.7866E-03    -11.7367E+06    -34.7865E+06    -277.421E+03    -16.5792E+06    -17.2015E-03     31.3806E-03    -14.1790E-03     64.3150E-03    -17.2396E-03     31.2543E-03    -14.1130E-03     64.0732E-03
            1104     13.3096E-03     98.8465E-03    -11.5008E+06    -65.9676E+06    -17.8830E+06    -17.8629E+06    -18.2033E-03     32.5051E-03    -14.3018E-03     66.8454E-03    -18.1868E-03     32.2654E-03    -14.2788E-03     66.5771E-03
            1105     14.1924E-03     98.9032E-03    -10.5140E+06    -53.9690E+06    -22.9108E+06    -16.9432E+06    -19.7349E-03     34.2071E-03    -14.4723E-03     72.1162E-03    -19.7673E-03     34.0772E-03    -14.4933E-03     71.8450E-03
            1106     15.0759E-03     98.9747E-03    -8.41092E+06    -17.3049E+06    -12.9189E+06    -14.8912E+06    -22.3188E-03     37.0468E-03    -14.7281E-03     106.469E-03    -22.6298E-03     37.3041E-03    -14.7554E-03     106.226E-03
            1107     15.9579E-03     99.0972E-03    -7.76813E+06     27.5607E+06    -22.3853E+06    -10.5931E+06    -25.4628E-03     40.3306E-03    -14.8678E-03     173.174E-03    -27.3851E-03     42.3880E-03    -15.0084E-03     173.562E-03
            1108     16.8440E-03     99.2953E-03    -4.59550E+06     135.983E+06     42.0218E+06    -4.18497E+06    -31.2064E-03     46.4289E-03    -15.2226E-03     272.992E-03    -39.8639E-03     55.4311E-03    -15.2030E-03     278.766E-03
            1109     888.075E-06     99.4350E-03    -23.4815E+06    -18.6430E+06    -22.4473E+06     3.84365E+06    -13.4937E-03     27.0113E-03    -13.5177E-03     3.60308E-03    -13.5514E-03     26.9849E-03    -13.5688E-03     3.65248E-03
            1110     1.77557E-03     99.4385E-03    -23.8374E+06    -14.3973E+06    -19.2603E+06     5.89907E+06    -13.4994E-03     27.0165E-03    -13.5171E-03     6.79278E-03    -13.5698E-03     27.0071E-03    -13.5580E-03     6.86849E-03
            1111     2.66375E-03     99.4461E-03    -23.9461E+06    -13.1671E+06    -13.9405E+06     6.16699E+06    -13.4686E-03     27.0054E-03    -13.5368E-03     10.1764E-03    -13.5491E-03     26.9946E-03    -13.5527E-03     10.2553E-03
            1112     3.55143E-03     99.4552E-03    -23.8131E+06    -14.2411E+06    -8.52350E+06     5.84802E+06    -13.4404E-03     26.9929E-03    -13.5525E-03     13.7356E-03    -13.5266E-03     26.9687E-03    -13.5399E-03     13.8102E-03
            1113     4.43955E-03     99.4687E-03    -23.2256E+06    -16.6852E+06    -4.06863E+06     5.10938E+06    -13.4188E-03     26.9789E-03    -13.5601E-03     17.4818E-03    -13.5051E-03     26.9353E-03    -13.5226E-03     17.5466E-03
            1114     5.32747E-03     99.4840E-03    -22.4619E+06    -20.8950E+06    -1.45299E+06     3.50038E+06    -13.4243E-03     26.9833E-03    -13.5590E-03     21.4570E-03    -13.5046E-03     26.9139E-03    -13.5034E-03     21.5007E-03
            1115     6.21560E-03     99.5041E-03    -21.8497E+06    -24.1564E+06    -938.933E+03     1.17005E+06    -13.4848E-03     27.0337E-03    -13.5489E-03     25.7298E-03    -13.5584E-03     26.9466E-03    -13.4869E-03     25.7430E-03
            1116     7.10352E-03     99.5266E-03    -21.0724E+06    -27.4526E+06    -1.49694E+06    -1.36145E+06    -13.5788E-03     27.1175E-03    -13.5387E-03     30.3583E-03    -13.6432E-03     27.0141E-03    -13.4759E-03     30.3382E-03
            1117     7.99161E-03     99.5547E-03    -20.1652E+06    -29.3516E+06    -1.47862E+06    -4.12475E+06    -13.7227E-03     27.2585E-03    -13.5358E-03     35.3269E-03    -13.7806E-03     27.1449E-03    -13.4714E-03     35.2703E-03
            1118     8.87945E-03     99.5855E-03    -18.8134E+06    -31.9908E+06    -710.596E+03    -7.05024E+06    -13.9873E-03     27.5355E-03    -13.5482E-03     40.6272E-03    -14.0369E-03     27.4068E-03    -13.4781E-03     40.5313E-03
            1119     9.76717E-03     99.6229E-03    -16.8611E+06     -29.104E+06     1.02907E+06    -8.85742E+06    -14.4012E-03     27.9765E-03    -13.5752E-03     46.3903E-03    -14.4498E-03     27.8589E-03    -13.5034E-03     46.2686E-03
            1120     10.6548E-03     99.6637E-03    -15.2171E+06    -31.4505E+06     1.60213E+06    -11.1726E+06    -15.0754E-03     28.7087E-03    -13.6333E-03     52.3883E-03    -15.1171E-03     28.5801E-03    -13.5576E-03     52.2327E-03
            1121     11.5411E-03     99.7121E-03    -13.2789E+06    -27.6513E+06     787.847E+03    -13.8526E+06    -16.1214E-03     29.8417E-03    -13.7203E-03     58.1514E-03    -16.1650E-03     29.7377E-03    -13.6570E-03     57.9548E-03
            1122     12.4279E-03     99.7631E-03    -11.8929E+06    -29.8484E+06     1.28229E+06    -16.6579E+06    -17.3255E-03     31.2005E-03    -13.8750E-03     65.8171E-03    -17.3738E-03     31.0969E-03    -13.8081E-03     65.5746E-03
            1123     13.3114E-03     99.8260E-03    -10.8405E+06    -63.9900E+06    -16.2499E+06    -19.1823E+06    -18.6734E-03     32.7114E-03    -14.0379E-03     68.4725E-03    -18.6599E-03     32.4794E-03    -14.0107E-03     68.1860E-03
            1124     14.1968E-03     99.8819E-03    -9.22508E+06    -53.5573E+06    -22.3224E+06    -19.8910E+06    -20.2342E-03     34.4807E-03    -14.2464E-03     75.0667E-03    -20.2649E-03     34.3532E-03    -14.2670E-03     74.7560E-03
            1125     15.0781E-03     99.9589E-03    -7.41763E+06    -20.2754E+06    -12.7614E+06    -17.6100E+06    -22.7117E-03     37.2507E-03    -14.5390E-03     108.492E-03    -23.0145E-03     37.4922E-03    -14.5626E-03     108.209E-03
            1126     15.9615E-03     100.076E-03    -5.66938E+06     19.3806E+06    -21.8796E+06    -10.7741E+06    -26.9966E-03     41.7417E-03    -14.7451E-03     173.393E-03    -28.8889E-03     43.7462E-03    -14.8744E-03     173.717E-03
            1127     16.8402E-03     100.280E-03    -3.56841E+06     129.114E+06     42.1841E+06    -4.48796E+06    -32.1315E-03     47.3036E-03    -15.1721E-03     271.468E-03    -40.6575E-03     56.1528E-03    -15.1432E-03     277.147E-03
            1128     888.120E-06     100.408E-03    -27.8323E+06    -27.3865E+06    -26.3220E+06     5.06308E+06    -13.0918E-03     26.0969E-03    -13.0051E-03     3.77820E-03    -13.1529E-03     26.0387E-03    -13.0567E-03     3.84336E-03
            1129     1.77667E-03     100.413E-03    -27.5630E+06    -20.8083E+06    -22.7455E+06     8.36096E+06    -13.0623E-03     26.1257E-03    -13.0634E-03     6.83596E-03    -13.1370E-03     26.0946E-03    -13.1070E-03     6.94353E-03
            1130     2.66469E-03     100.419E-03    -27.6363E+06    -16.0219E+06    -17.3090E+06     9.88455E+06    -13.0170E-03     26.1005E-03    -13.0835E-03     10.2520E-03    -13.1069E-03     26.0857E-03    -13.1068E-03     10.3791E-03
            1131     3.55321E-03     100.430E-03    -27.2124E+06    -15.6179E+06    -10.9995E+06     9.46805E+06    -13.0053E-03     26.1092E-03    -13.1039E-03     13.8505E-03    -13.1029E-03     26.0867E-03    -13.0968E-03     13.9719E-03
            1132     4.44139E-03     100.442E-03     -26.187E+06    -16.8113E+06    -5.63521E+06     8.35131E+06    -13.0014E-03     26.1206E-03    -13.1192E-03     17.6190E-03    -13.1000E-03     26.0829E-03    -13.0850E-03     17.7258E-03
            1133     5.32988E-03     100.458E-03    -24.9215E+06    -19.2375E+06    -2.16634E+06     6.33257E+06    -13.0321E-03     26.1584E-03    -13.1263E-03     21.6346E-03    -13.1261E-03     26.1019E-03    -13.0731E-03     21.7151E-03
            1134     6.21813E-03     100.477E-03    -23.5960E+06    -21.3941E+06    -748.624E+03     3.53815E+06    -13.0886E-03     26.2135E-03    -13.1249E-03     25.9780E-03    -13.1751E-03     26.1424E-03    -13.0634E-03     26.0221E-03
            1135     7.10659E-03     100.501E-03    -22.2200E+06    -23.9027E+06    -773.889E+03     124.635E+03    -13.1985E-03     26.3194E-03    -13.1209E-03     30.6830E-03    -13.2748E-03     26.2342E-03    -13.0579E-03     30.6824E-03
            1136     7.99483E-03     100.528E-03    -20.4115E+06    -25.4291E+06    -632.495E+03    -3.44474E+06    -13.3795E-03     26.5028E-03    -13.1234E-03     35.7665E-03    -13.4453E-03     26.4077E-03    -13.0601E-03     35.7190E-03
            1137     8.88308E-03     100.560E-03    -18.8071E+06    -28.0195E+06     244.487E+03    -6.60414E+06    -13.6840E-03     26.8284E-03    -13.1445E-03     41.2414E-03    -13.7404E-03     26.7179E-03    -13.0753E-03     41.1518E-03
            1138     9.77113E-03     100.596E-03    -17.5026E+06    -26.6313E+06     1.49914E+06    -9.16448E+06    -14.1733E-03     27.3570E-03    -13.1838E-03     47.2257E-03    -14.2291E-03     27.2518E-03    -13.1123E-03     47.1007E-03
            1139     10.6585E-03     100.640E-03    -15.2354E+06    -26.5167E+06     3.22458E+06    -11.5832E+06    -14.9477E-03     28.2072E-03    -13.2595E-03     53.4865E-03    -14.9987E-03     28.1006E-03    -13.1828E-03     53.3264E-03
            1140     11.5460E-03     100.687E-03    -13.4257E+06    -23.5625E+06     2.14937E+06    -15.1010E+06    -16.0440E-03     29.4092E-03    -13.3652E-03     59.7816E-03    -16.0959E-03     29.3236E-03    -13.3009E-03     59.5696E-03
            1141     12.4307E-03     100.742E-03    -11.4162E+06    -25.8472E+06     3.33002E+06    -17.1061E+06    -17.4235E-03     30.9689E-03    -13.5454E-03     67.4982E-03    -17.4780E-03     30.8815E-03    -13.4747E-03     67.2504E-03
            1142     13.3175E-03     100.802E-03    -9.79894E+06    -59.0418E+06    -13.5164E+06    -20.1075E+06    -18.9952E-03     32.7367E-03    -13.7415E-03     70.7460E-03    -18.9888E-03     32.5252E-03    -13.7093E-03     70.4469E-03
            1143     14.1988E-03     100.865E-03    -9.25754E+06    -51.6025E+06    -21.4074E+06    -22.6255E+06    -20.4908E-03     34.4701E-03    -13.9792E-03     77.2934E-03    -20.5266E-03     34.3519E-03    -13.9980E-03     76.9467E-03
            1144     15.0837E-03     100.937E-03    -6.82063E+06     -24.509E+06    -12.6273E+06    -20.3446E+06    -23.4889E-03     37.8042E-03    -14.3154E-03     110.688E-03    -23.7919E-03     38.0328E-03    -14.3331E-03     110.361E-03
            1145     15.9626E-03     101.064E-03    -5.51966E+06     9.82569E+06    -23.8062E+06    -13.2364E+06    -28.2332E-03     42.8123E-03    -14.5792E-03     175.327E-03    -30.1085E-03     44.7720E-03    -14.7044E-03     175.571E-03
            1146     16.8449E-03     101.261E-03    -3.97891E+06     122.816E+06     39.8504E+06    -4.72879E+06    -33.4075E-03     48.4771E-03    -15.0696E-03     271.224E-03    -41.8315E-03     57.2073E-03    -15.0426E-03     276.680E-03
            1147     888.926E-06     101.382E-03    -32.6667E+06    -37.6515E+06    -31.8683E+06     5.48348E+06    -12.5791E-03     25.1263E-03    -12.5472E-03     3.87093E-03    -12.6415E-03     25.0318E-03    -12.6046E-03     3.94156E-03
            1148     1.77726E-03     101.385E-03    -31.5888E+06    -30.0429E+06    -27.3776E+06     9.91230E+06    -12.5584E-03     25.1316E-03    -12.5732E-03     6.87362E-03    -12.6331E-03     25.0669E-03    -12.6208E-03     7.00127E-03
            1149     2.66624E-03     101.393E-03    -30.3165E+06    -21.1505E+06    -20.8503E+06     12.7707E+06    -12.5367E-03     25.1247E-03    -12.5880E-03     10.3432E-03    -12.6274E-03     25.0932E-03    -12.6176E-03     10.5076E-03
            1150     3.55477E-03     101.402E-03    -29.0828E+06    -17.2277E+06    -13.2762E+06     12.6284E+06    -12.5390E-03     25.1516E-03    -12.6126E-03     13.9609E-03    -12.6403E-03     25.1270E-03    -12.6119E-03     14.1233E-03
            1151     4.44366E-03     101.415E-03    -27.2704E+06    -17.2973E+06    -6.66095E+06     10.9508E+06    -12.5773E-03     25.2168E-03    -12.6395E-03     17.7715E-03    -12.6791E-03     25.1797E-03    -12.6082E-03     17.9120E-03
            1152     5.33224E-03     101.431E-03    -25.0979E+06    -17.6503E+06    -2.20329E+06     8.68432E+06    -12.6233E-03     25.2810E-03    -12.6576E-03     21.8359E-03    -12.7204E-03     25.2326E-03    -12.6066E-03     21.9469E-03
            1153     6.22108E-03     101.451E-03    -22.9461E+06    -18.2603E+06     126.222E+03     5.24385E+06    -12.6949E-03     25.3617E-03    -12.6667E-03     26.2124E-03    -12.7839E-03     25.3039E-03    -12.6063E-03     26.2787E-03
            1154     7.10976E-03     101.473E-03    -20.9481E+06    -19.7961E+06     716.177E+03     1.28869E+06    -12.8241E-03     25.4965E-03    -12.6724E-03     30.9767E-03    -12.9020E-03     25.4277E-03    -12.6098E-03     30.9915E-03
            1155     7.99841E-03     101.502E-03    -19.2223E+06    -20.7548E+06     981.212E+03    -2.93946E+06    -13.0303E-03     25.7144E-03    -12.6841E-03     36.1527E-03    -13.0992E-03     25.6385E-03    -12.6212E-03     36.1122E-03
            1156     8.88696E-03     101.533E-03    -17.2836E+06    -24.1725E+06     1.84018E+06    -6.45119E+06    -13.3968E-03     26.1139E-03    -12.7170E-03     41.8195E-03    -13.4533E-03     26.0178E-03    -12.6477E-03     41.7324E-03
            1157     9.77506E-03     101.571E-03    -15.1254E+06    -22.5804E+06     3.90499E+06    -9.21407E+06    -13.9620E-03     26.7355E-03    -12.7735E-03     48.0511E-03    -14.0150E-03     26.6433E-03    -12.6993E-03     47.9260E-03
            1158     10.6631E-03     101.613E-03    -13.7125E+06    -22.5490E+06     4.85744E+06    -11.9078E+06    -14.8008E-03     27.6646E-03    -12.8638E-03     54.7657E-03    -14.8519E-03     27.5729E-03    -12.7869E-03     54.6021E-03
            1159     11.5493E-03     101.664E-03    -12.3216E+06    -18.2245E+06     4.85794E+06    -14.9896E+06    -15.8532E-03     28.8412E-03    -12.9881E-03     61.4561E-03    -15.9107E-03     28.7763E-03    -12.9195E-03     61.2466E-03
            1160     12.4370E-03     101.717E-03    -10.8679E+06    -22.9568E+06     4.76518E+06    -18.1486E+06    -17.3023E-03     30.4804E-03    -13.1781E-03     69.7577E-03    -17.3601E-03     30.4043E-03    -13.1052E-03     69.4973E-03
            1161     13.3196E-03     101.783E-03    -9.63910E+06    -54.0179E+06    -11.9860E+06    -20.6785E+06    -19.2398E-03     32.6348E-03    -13.3950E-03     73.5391E-03    -19.2427E-03     32.4465E-03    -13.3626E-03     73.2327E-03
            1162     14.2055E-03     101.843E-03    -9.17891E+06    -46.3924E+06    -17.6259E+06    -23.4626E+06    -21.2895E-03     34.9817E-03    -13.6922E-03     79.5222E-03    -21.3407E-03     34.8868E-03    -13.6997E-03     79.1613E-03
            1163     15.0850E-03     101.922E-03    -9.02766E+06    -29.3067E+06    -13.1217E+06    -23.3631E+06    -24.4418E-03     38.5293E-03    -14.0875E-03     112.960E-03    -24.7541E-03     38.7436E-03    -14.0975E-03     112.587E-03
            1164     15.9674E-03     102.046E-03    -7.22536E+06    -237.063E+03    -26.0090E+06    -16.5111E+06    -28.8993E-03     43.3016E-03    -14.4023E-03     175.973E-03    -30.7287E-03     45.1800E-03    -14.5215E-03     176.153E-03
            1165     16.8465E-03     102.248E-03    -5.30466E+06     114.236E+06     37.4557E+06    -6.46799E+06    -34.5273E-03     49.4739E-03    -14.9466E-03     269.376E-03    -42.7916E-03     58.0162E-03    -14.9173E-03     274.579E-03
            1166     888.893E-06     102.353E-03    -41.6379E+06    -46.9613E+06    -41.2849E+06     4.16685E+06    -12.0022E-03     24.1098E-03    -12.1077E-03     3.85633E-03    -12.0823E-03     23.9955E-03    -12.1856E-03     3.90999E-03
            1167     1.77849E-03     102.358E-03    -37.5264E+06    -40.1256E+06    -35.1457E+06     8.08732E+06    -12.0155E-03     24.0740E-03    -12.0585E-03     6.94905E-03    -12.0940E-03     23.9787E-03    -12.1216E-03     7.05321E-03
            1168     2.66740E-03     102.364E-03    -32.6166E+06    -28.8385E+06    -26.0643E+06     12.3657E+06    -12.0350E-03     24.1023E-03    -12.0672E-03     10.3975E-03    -12.1185E-03     24.0432E-03    -12.1085E-03     10.5567E-03
            1169     3.55680E-03     102.374E-03    -28.8711E+06    -20.1011E+06    -16.0297E+06     14.2095E+06    -12.0596E-03     24.1554E-03    -12.0958E-03     14.0423E-03    -12.1517E-03     24.1200E-03    -12.1049E-03     14.2252E-03
            1170     4.44578E-03     102.387E-03    -26.1516E+06    -17.2613E+06    -7.49777E+06     12.5888E+06    -12.1164E-03     24.2486E-03    -12.1322E-03     17.9018E-03    -12.2114E-03     24.2112E-03    -12.1067E-03     18.0636E-03
            1171     5.33504E-03     102.403E-03    -23.0340E+06    -16.2040E+06    -1.67692E+06     9.60869E+06    -12.2047E-03     24.3671E-03    -12.1624E-03     22.0042E-03    -12.2942E-03     24.3221E-03    -12.1139E-03     22.1273E-03
            1172     6.22405E-03     102.422E-03    -20.0302E+06    -15.0420E+06     1.81643E+06     6.38921E+06    -12.3232E-03     24.5091E-03    -12.1859E-03     26.4099E-03    -12.4046E-03     24.4607E-03    -12.1260E-03     26.4911E-03
            1173     7.11308E-03     102.446E-03    -17.9461E+06    -15.3379E+06     3.14774E+06     2.23407E+06    -12.4645E-03     24.6712E-03    -12.2067E-03     31.1977E-03    -12.5373E-03     24.6167E-03    -12.1427E-03     31.2249E-03
            1174     8.00210E-03     102.473E-03    -16.1477E+06    -15.6629E+06     3.89849E+06    -2.19188E+06    -12.7032E-03     24.9356E-03    -12.2325E-03     36.4995E-03    -12.7681E-03     24.8763E-03    -12.1668E-03     36.4690E-03
            1175     8.89081E-03     102.506E-03    -14.1837E+06    -19.3276E+06     4.70061E+06    -6.70200E+06    -13.1119E-03     25.3909E-03    -12.2790E-03     42.3544E-03    -13.1638E-03     25.3102E-03    -12.2069E-03     42.2645E-03
            1176     9.77943E-03     102.543E-03    -11.7416E+06    -19.5625E+06     6.13676E+06    -9.70540E+06    -13.6932E-03     26.0406E-03    -12.3474E-03     48.9045E-03    -13.7366E-03     25.9550E-03    -12.2713E-03     48.7738E-03
            1177     10.6671E-03     102.588E-03    -9.53843E+06    -18.4978E+06     8.00992E+06    -11.5684E+06    -14.4951E-03     26.9435E-03    -12.4484E-03     56.0256E-03    -14.5353E-03     26.8609E-03    -12.3677E-03     55.8673E-03
            1178     11.5553E-03     102.637E-03    -9.16495E+06    -14.3485E+06     7.93801E+06    -13.4411E+06    -15.5950E-03     28.1755E-03    -12.5805E-03     63.1697E-03    -15.6462E-03     28.1202E-03    -12.5067E-03     62.9813E-03
            1179     12.4401E-03     102.695E-03    -9.12534E+06    -16.5281E+06     8.00144E+06    -17.7915E+06    -17.2427E-03     30.0256E-03    -12.7829E-03     71.8540E-03    -17.3053E-03     29.9739E-03    -12.7057E-03     71.5991E-03
            1180     13.3282E-03     102.759E-03    -7.89804E+06    -49.4260E+06    -8.93228E+06    -22.4493E+06    -19.5008E-03     32.5298E-03    -13.0290E-03     76.0744E-03    -19.5059E-03     32.3574E-03    -12.9905E-03     75.7454E-03
            1181     14.2076E-03     102.827E-03    -6.91175E+06    -43.5507E+06    -14.2112E+06    -23.9310E+06    -22.1484E-03     35.5287E-03    -13.3804E-03     82.5824E-03    -22.2004E-03     35.4430E-03    -13.3783E-03     82.2122E-03
            1182     15.0905E-03     102.902E-03    -6.14956E+06    -28.4597E+06    -9.84197E+06    -24.3897E+06    -25.6398E-03     39.4875E-03    -13.8477E-03     115.472E-03    -25.9483E-03     39.7019E-03    -13.8468E-03     115.074E-03
            1183     15.9684E-03     103.034E-03    -5.88130E+06    -11.9515E+06    -27.4334E+06    -18.4629E+06    -30.4501E-03     44.6899E-03    -14.2398E-03     177.265E-03    -32.2121E-03     46.4683E-03    -14.3511E-03     177.353E-03
            1184     16.8480E-03     103.231E-03    -4.08619E+06     103.200E+06     32.7506E+06    -7.28582E+06    -35.5712E-03     50.4105E-03    -14.8393E-03     268.501E-03    -43.6512E-03     58.7474E-03    -14.8193E-03     273.503E-03
            1185     889.764E-06     103.324E-03    -55.7843E+06    -51.8662E+06    -56.2104E+06     938.349E+03    -11.4825E-03     23.0572E-03    -11.5748E-03     3.76570E-03    -11.6046E-03     22.9605E-03    -11.6997E-03     3.77772E-03
            1186     1.77905E-03     103.328E-03    -50.3150E+06    -46.4558E+06    -49.2143E+06     2.22576E+06    -11.4937E-03     23.0267E-03    -11.5330E-03     6.99573E-03    -11.6065E-03     22.9387E-03    -11.6388E-03     7.02428E-03
            1187     2.66897E-03     103.336E-03    -41.3560E+06    -37.0687E+06    -38.4036E+06     5.79331E+06    -11.5216E-03     23.0655E-03    -11.5439E-03     10.4295E-03    -11.6190E-03     22.9959E-03    -11.6223E-03     10.5040E-03
            1188     3.55841E-03     103.345E-03    -31.4550E+06    -25.4290E+06    -24.5616E+06     10.0011E+06    -11.5575E-03     23.1314E-03    -11.5739E-03     14.0374E-03    -11.6424E-03     23.0855E-03    -11.6142E-03     14.1661E-03
            1189     4.44819E-03     103.358E-03    -24.1148E+06    -18.2815E+06    -11.3526E+06     11.6523E+06    -11.6310E-03     23.2486E-03    -11.6175E-03     17.8968E-03    -11.7088E-03     23.2087E-03    -11.6128E-03     18.0466E-03
            1190     5.33764E-03     103.374E-03    -20.4076E+06    -14.6553E+06    -2.14248E+06     9.96479E+06    -11.7684E-03     23.4311E-03    -11.6627E-03     22.0507E-03    -11.8463E-03     23.3908E-03    -11.6226E-03     22.1786E-03
            1191     6.22712E-03     103.394E-03    -17.6079E+06    -12.2062E+06     3.09766E+06     6.62701E+06    -11.9229E-03     23.6252E-03    -11.7024E-03     26.4878E-03    -11.9981E-03     23.5856E-03    -11.6437E-03     26.5723E-03
            1192     7.11654E-03     103.417E-03    -14.3752E+06    -10.6814E+06     6.01379E+06     2.60268E+06    -12.1120E-03     23.8509E-03    -11.7389E-03     31.3345E-03    -12.1778E-03     23.8102E-03    -11.6725E-03     31.3667E-03
            1193     8.00573E-03     103.445E-03    -12.0880E+06    -11.0852E+06     7.33378E+06    -1.59088E+06    -12.3993E-03     24.1806E-03    -11.7813E-03     36.7705E-03    -12.4554E-03     24.1332E-03    -11.7110E-03     36.7479E-03
            1194     8.89491E-03     103.477E-03    -10.8608E+06    -13.1300E+06     7.88815E+06    -6.12122E+06    -12.7949E-03     24.6335E-03    -11.8386E-03     42.7668E-03    -12.8436E-03     24.5741E-03    -11.7644E-03     42.6847E-03
            1195     9.78347E-03     103.517E-03    -9.24353E+06    -16.1577E+06     8.48583E+06    -10.5036E+06    -13.3520E-03     25.2689E-03    -11.9169E-03     49.5853E-03    -13.3908E-03     25.1929E-03    -11.8377E-03     49.4450E-03
            1196     10.6723E-03     103.560E-03    -6.87678E+06    -16.4282E+06     10.0870E+06    -11.9693E+06    -14.1056E-03     26.1273E-03    -12.0218E-03     56.9544E-03    -14.1377E-03     26.0475E-03    -11.9375E-03     56.7920E-03
            1197     11.5592E-03     103.613E-03    -4.75464E+06    -11.4920E+06     11.7276E+06    -12.6100E+06    -15.3556E-03     27.5194E-03    -12.1638E-03     64.6534E-03    -15.3935E-03     27.4656E-03    -12.0816E-03     64.4770E-03
            1198     12.4476E-03     103.669E-03    -4.64718E+06    -9.04258E+06     12.9004E+06    -15.4816E+06    -17.3033E-03     29.6865E-03    -12.3831E-03     73.9798E-03    -17.3606E-03     29.6577E-03    -12.2988E-03     73.7557E-03
            1199     13.3290E-03     103.740E-03    -6.83468E+06    -41.4907E+06    -4.21894E+06    -21.5746E+06    -19.6289E-03     32.2885E-03    -12.6596E-03     79.0027E-03    -19.6465E-03     32.1469E-03    -12.6106E-03     78.6856E-03
            1200     14.2156E-03     103.805E-03    -8.89963E+06    -44.2434E+06    -14.6284E+06    -24.8680E+06    -22.5741E-03     35.6086E-03    -13.0345E-03     86.5659E-03    -22.6351E-03     35.5236E-03    -13.0306E-03     86.1825E-03
            1201     15.0932E-03     103.890E-03    -8.83057E+06    -25.6074E+06    -9.04699E+06    -24.5429E+06    -27.1826E-03     40.7536E-03    -13.5711E-03     118.709E-03    -27.5176E-03     40.9928E-03    -13.5664E-03     118.294E-03
            1202     15.9731E-03     104.016E-03    -8.69906E+06    -21.8438E+06    -25.3060E+06    -20.4833E+06    -31.7383E-03     45.8108E-03    -14.0725E-03     178.827E-03    -33.4423E-03     47.4799E-03    -14.1548E-03     178.821E-03
            1203     16.8488E-03     104.222E-03    -4.23331E+06     88.3684E+06     29.3009E+06    -9.39083E+06    -36.4427E-03     51.1451E-03    -14.7024E-03     269.571E-03    -44.3870E-03     59.3032E-03    -14.6779E-03     274.305E-03
            1204     889.793E-06     104.293E-03    -70.2574E+06    -50.4578E+06    -70.5760E+06    -2.59098E+06    -11.0049E-03     22.0499E-03    -11.0450E-03     3.73822E-03    -11.1805E-03     22.0020E-03    -11.2229E-03     3.70470E-03
            1205     1.78011E-03     104.298E-03    -66.1579E+06     -45.759E+06    -65.5137E+06    -4.11513E+06    -11.0369E-03     22.0700E-03    -11.0332E-03     6.99427E-03    -11.2063E-03     22.0322E-03    -11.1985E-03     6.94100E-03
            1206     2.66988E-03     104.304E-03    -58.2616E+06    -40.3890E+06    -56.3677E+06    -4.59302E+06    -11.0466E-03     22.1011E-03    -11.0546E-03     10.4293E-03    -11.1976E-03     22.0654E-03    -11.1934E-03     10.3698E-03
            1207     3.56011E-03     104.315E-03    -46.1661E+06    -31.4940E+06    -42.9302E+06    -1.49327E+06    -11.0778E-03     22.1610E-03    -11.0832E-03     13.9572E-03    -11.2008E-03     22.1328E-03    -11.1852E-03     13.9376E-03
            1208     4.45008E-03     104.327E-03    -32.2588E+06    -22.3210E+06    -26.2484E+06     3.02196E+06    -11.1634E-03     22.2917E-03    -11.1283E-03     17.7309E-03    -11.2544E-03     22.2651E-03    -11.1804E-03     17.7694E-03
            1209     5.34017E-03     104.345E-03    -20.4673E+06    -15.4714E+06    -9.63988E+06     6.00082E+06    -11.2951E-03     22.4835E-03    -11.1884E-03     21.8237E-03    -11.3613E-03     22.4500E-03    -11.1845E-03     21.9004E-03
            1210     6.23003E-03     104.364E-03    -13.7701E+06    -9.91970E+06     2.38871E+06     5.62241E+06    -11.4775E-03     22.7243E-03    -11.2468E-03     26.2880E-03    -11.5358E-03     22.6915E-03    -11.2005E-03     26.3596E-03
            1211     7.11972E-03     104.388E-03    -11.0290E+06    -6.82771E+06     8.19207E+06     2.70704E+06    -11.7400E-03     23.0387E-03    -11.2987E-03     31.2275E-03    -11.7977E-03     23.0093E-03    -11.2319E-03     31.2612E-03
            1212     8.00939E-03     104.415E-03    -9.42033E+06    -6.61013E+06     10.0717E+06    -929.858E+03    -12.0585E-03     23.4112E-03    -11.3527E-03     36.7591E-03    -12.1117E-03     23.3782E-03    -11.2791E-03     36.7453E-03
            1213     8.89856E-03     104.450E-03    -7.88099E+06    -7.30338E+06     10.9972E+06    -5.29409E+06    -12.4531E-03     23.8711E-03    -11.4180E-03     42.8991E-03    -12.4996E-03     23.8318E-03    -11.3410E-03     42.8282E-03
            1214     9.78796E-03     104.487E-03    -7.38544E+06    -10.8524E+06     11.4589E+06    -9.58713E+06    -12.9724E-03     24.4757E-03    -11.5033E-03     49.8875E-03    -13.0134E-03     24.4187E-03    -11.4195E-03     49.7597E-03
            1215     10.6761E-03     104.534E-03    -6.29414E+06    -14.4119E+06     11.5571E+06    -13.0770E+06    -13.7700E-03     25.3812E-03    -11.6112E-03     57.5765E-03    -13.8035E-03     25.3077E-03    -11.5234E-03     57.4009E-03
            1216     11.5654E-03     104.584E-03    -3.98646E+06    -10.4246E+06     13.1349E+06    -13.3425E+06    -15.0798E-03     26.8395E-03    -11.7596E-03     66.0884E-03    -15.1163E-03     26.7867E-03    -11.6730E-03     65.9039E-03
            1217     12.4499E-03     104.647E-03    -2.87283E+06    -5.32011E+06     14.9972E+06    -13.0956E+06    -16.9432E-03     28.9218E-03    -11.9786E-03     76.2830E-03    -16.9981E-03     28.9041E-03    -11.8918E-03     76.0919E-03
            1218     13.3389E-03     104.715E-03    -4.55180E+06    -32.0128E+06     312.217E+03    -17.8236E+06    -19.5868E-03     31.8509E-03    -12.2641E-03     82.3592E-03    -19.6120E-03     31.7455E-03    -12.2096E-03     82.0919E-03
            1219     14.2177E-03     104.788E-03    -7.44799E+06    -40.7488E+06    -12.2833E+06    -23.8490E+06    -23.2097E-03     35.8804E-03    -12.6707E-03     90.8029E-03    -23.2733E-03     35.8087E-03    -12.6622E-03     90.4303E-03
            1220     15.1006E-03     104.872E-03    -8.12807E+06    -25.3942E+06    -6.82237E+06    -24.6587E+06    -28.3006E-03     41.5711E-03    -13.2705E-03     123.360E-03    -28.6367E-03     41.8082E-03    -13.2560E-03     122.931E-03
            1221     15.9732E-03     105.010E-03    -6.53080E+06    -29.3605E+06    -20.0528E+06    -20.9543E+06    -33.1315E-03     47.0031E-03    -13.8716E-03     179.160E-03    -34.7083E-03     48.5108E-03    -13.9198E-03     179.069E-03
            1222     16.8563E-03     105.200E-03    -2.06732E+06     74.5833E+06     34.6272E+06    -11.6469E+06    -38.1074E-03     52.7080E-03    -14.6006E-03     267.774E-03    -45.8632E-03     60.6209E-03    -14.5326E-03     272.161E-03
            1223     890.562E-06     105.263E-03    -69.6344E+06    -43.6993E+06    -69.3668E+06    -4.22181E+06    -10.6635E-03     21.3205E-03    -10.6570E-03     3.68008E-03    -10.8476E-03     21.3038E-03    -10.8395E-03     3.62549E-03
            1224     1.78054E-03     105.266E-03    -67.6904E+06    -39.6114E+06    -66.6900E+06    -8.01359E+06    -10.6928E-03     21.3613E-03    -10.6685E-03     6.84718E-03    -10.8771E-03     21.3581E-03    -10.8463E-03     6.74358E-03
            1225     2.67103E-03     105.274E-03    -64.5928E+06    -36.4645E+06    -61.2124E+06    -10.9662E+06    -10.7138E-03     21.4077E-03    -10.6940E-03     10.2379E-03    -10.8951E-03     21.4079E-03    -10.8535E-03     10.0961E-03
            1226     3.56120E-03     105.283E-03    -59.0731E+06    -32.6831E+06     -54.104E+06    -12.0942E+06    -10.7512E-03     21.4717E-03    -10.7205E-03     13.7071E-03    -10.9208E-03     21.4725E-03    -10.8580E-03     13.5506E-03
            1227     4.45157E-03     105.298E-03    -49.3253E+06    -25.8414E+06    -44.2445E+06    -10.0374E+06    -10.7917E-03     21.5395E-03    -10.7478E-03     17.3840E-03    -10.9369E-03     21.5462E-03    -10.8600E-03     17.2539E-03
            1228     5.34184E-03     105.313E-03    -35.7483E+06    -18.9192E+06    -30.4064E+06    -6.42182E+06    -10.8596E-03     21.6463E-03    -10.7867E-03     21.3330E-03    -10.9671E-03     21.6479E-03    -10.8595E-03     21.2495E-03
            1229     6.23227E-03     105.334E-03    -21.4605E+06    -11.7329E+06    -12.0647E+06    -1.99944E+06    -11.0212E-03     21.8723E-03    -10.8511E-03     25.7025E-03    -11.0944E-03     21.8626E-03    -10.8633E-03     25.6758E-03
            1230     7.12250E-03     105.357E-03    -11.4353E+06    -5.43121E+06     3.93964E+06     358.463E+03    -11.2980E-03     22.2245E-03    -10.9264E-03     30.6390E-03    -11.3536E-03     22.2088E-03    -10.8823E-03     30.6424E-03
            1231     8.01226E-03     105.386E-03    -6.48595E+06    -2.58092E+06     11.4844E+06    -1.25012E+06    -11.6494E-03     22.6413E-03    -10.9918E-03     36.2297E-03    -11.6957E-03     22.6220E-03    -10.9213E-03     36.2120E-03
            1232     8.90222E-03     105.419E-03    -4.50023E+06    -2.54158E+06     14.0415E+06    -4.41936E+06    -12.0534E-03     23.1123E-03    -11.0589E-03     42.5149E-03    -12.0941E-03     23.0873E-03    -10.9785E-03     42.4556E-03
            1233     9.79123E-03     105.459E-03    -3.86089E+06    -6.08727E+06     14.8902E+06    -7.61042E+06    -12.5906E-03     23.7337E-03    -11.1431E-03     49.6575E-03    -12.6254E-03     23.6901E-03    -11.0542E-03     49.5558E-03
            1234     10.6810E-03     105.504E-03    -4.19092E+06    -8.78280E+06     15.0648E+06    -12.0305E+06    -13.4334E-03     24.6855E-03    -11.2521E-03     57.8494E-03    -13.4689E-03     24.6312E-03    -11.1580E-03     57.6883E-03
            1235     11.5679E-03     105.559E-03    -3.78556E+06    -11.5633E+06     14.2427E+06    -14.1029E+06    -14.6162E-03     26.0131E-03    -11.3969E-03     66.9841E-03    -14.6499E-03     25.9510E-03    -11.3035E-03     66.7917E-03
            1236     12.4580E-03     105.619E-03    -1.61226E+06    -4.32213E+06     17.5129E+06    -12.7167E+06    -16.4004E-03     28.0055E-03    -11.6051E-03     77.9086E-03    -16.4510E-03     27.9843E-03    -11.5090E-03     77.7253E-03
            1237     13.3403E-03     105.694E-03    -947.554E+03    -21.8967E+06     7.56617E+06    -15.8210E+06    -19.5949E-03     31.4928E-03    -11.8980E-03     85.3653E-03    -19.6246E-03     31.4197E-03    -11.8270E-03     85.1257E-03
            1238     14.2268E-03     105.767E-03    -550.705E+03    -32.5883E+06    -4.62463E+06    -22.5319E+06    -23.7113E-03     36.0449E-03    -12.3335E-03     94.5418E-03    -23.7616E-03     35.9911E-03    -12.3086E-03     94.1852E-03
            1239     15.1019E-03     105.861E-03     1.60505E+06    -26.5265E+06    -1.21086E+06    -25.5293E+06    -28.8178E-03     41.7857E-03    -12.9680E-03     127.388E-03    -29.1046E-03     41.9879E-03    -12.9379E-03     126.940E-03
            1240     15.9838E-03     105.995E-03     3.12321E+06    -36.3532E+06    -14.2936E+06    -21.1136E+06    -35.1981E-03     48.8470E-03    -13.6489E-03     180.996E-03    -36.6274E-03     50.2001E-03    -13.6722E-03     180.779E-03
            1241     16.8502E-03     106.194E-03    -4.28044E+06     64.3068E+06     34.2805E+06    -11.2502E+06    -40.6088E-03     55.0977E-03    -14.4889E-03     267.125E-03    -48.0786E-03     62.6812E-03    -14.4046E-03     271.048E-03
            1242     890.306E-06     106.230E-03    -51.4168E+06    -34.6232E+06    -51.4401E+06    -4.67828E+06    -10.5142E-03     21.0351E-03    -10.5209E-03     3.47176E-03    -10.6463E-03     21.0113E-03    -10.6533E-03     3.41124E-03
            1243     1.78113E-03     106.236E-03    -51.5246E+06    -31.1675E+06    -50.0066E+06    -8.53812E+06    -10.5340E-03     21.0548E-03    -10.5209E-03     6.54703E-03    -10.6739E-03     21.0463E-03    -10.6510E-03     6.43658E-03
            1244     2.67147E-03     106.242E-03    -51.3289E+06    -29.3533E+06    -47.1909E+06    -11.8210E+06    -10.5940E-03     21.1377E-03    -10.5438E-03     9.77835E-03    -10.7397E-03     21.1339E-03    -10.6627E-03     9.62539E-03
            1245     3.56198E-03     106.253E-03    -50.5322E+06    -27.3850E+06    -43.7655E+06    -14.8409E+06    -10.6474E-03     21.2222E-03    -10.5748E-03     13.1274E-03    -10.7970E-03     21.2221E-03    -10.6806E-03     12.9353E-03
            1246     4.45233E-03     106.265E-03    -48.3261E+06    -24.3272E+06    -40.3521E+06    -16.8618E+06    -10.6667E-03     21.2651E-03    -10.5984E-03     16.6454E-03    -10.8148E-03     21.2723E-03    -10.6948E-03     16.4270E-03
            1247     5.34286E-03     106.283E-03    -43.6482E+06    -19.7566E+06    -35.4623E+06    -16.7209E+06    -10.6877E-03     21.3038E-03    -10.6161E-03     20.4317E-03    -10.8262E-03     21.3200E-03    -10.7015E-03     20.2150E-03
            1248     6.23328E-03     106.302E-03    -35.2093E+06    -15.6211E+06    -26.9764E+06    -14.2764E+06    -10.7471E-03     21.3894E-03    -10.6423E-03     24.6261E-03    -10.8619E-03     21.4019E-03    -10.7034E-03     24.4408E-03
            1249     7.12375E-03     106.327E-03    -22.4900E+06    -7.70390E+06    -12.4697E+06    -9.72768E+06    -10.8821E-03     21.5698E-03    -10.6877E-03     29.4143E-03    -10.9659E-03     21.5826E-03    -10.7062E-03     29.2875E-03
            1250     8.01435E-03     106.355E-03    -10.4084E+06    -1.59657E+06     3.73343E+06    -6.44866E+06    -11.1692E-03     21.9248E-03    -10.7555E-03     34.9346E-03    -11.2253E-03     21.9274E-03    -10.7195E-03     34.8498E-03
            1251     8.90414E-03     106.390E-03    -3.64069E+06    -875.466E+03     13.5880E+06    -5.07760E+06    -11.5844E-03     22.4109E-03    -10.8265E-03     41.2210E-03    -11.6224E-03     22.3934E-03    -10.7520E-03     41.1535E-03
            1252     9.79455E-03     106.428E-03    -1.93099E+06    -2.13591E+06     16.6646E+06    -5.93469E+06    -12.1618E-03     23.0604E-03    -10.8985E-03     48.5615E-03    -12.1949E-03     23.0306E-03    -10.8093E-03     48.4820E-03
            1253     10.6830E-03     106.476E-03    -2.56799E+06    -2.30518E+06     17.9152E+06    -9.18483E+06    -12.9688E-03     23.9634E-03    -10.9946E-03     57.1527E-03    -13.0086E-03     23.9339E-03    -10.8979E-03     57.0295E-03
            1254     11.5734E-03     106.529E-03    -1.84889E+06    -7.91087E+06     18.0857E+06    -14.3893E+06    -14.1271E-03     25.2594E-03    -11.1324E-03     66.6283E-03    -14.1600E-03     25.2053E-03    -11.0278E-03     66.4341E-03
            1255     12.4588E-03     106.594E-03     1.32511E+06    -6.59251E+06     19.7517E+06    -15.0768E+06    -16.1507E-03     27.4820E-03    -11.3313E-03     78.4399E-03    -16.1834E-03     27.4387E-03    -11.2250E-03     78.2285E-03
            1256     13.3488E-03     106.668E-03     3.40967E+06    -13.2333E+06     15.4771E+06    -15.4056E+06    -19.2433E-03     30.8716E-03    -11.6283E-03     87.7864E-03    -19.2701E-03     30.8187E-03    -11.5367E-03     87.5560E-03
            1257     14.2266E-03     106.751E-03     1.41070E+06    -22.8740E+06     3.65241E+06    -22.0339E+06    -23.3053E-03     35.3582E-03    -12.0529E-03     98.3740E-03    -23.3645E-03     35.3308E-03    -12.0035E-03     98.0280E-03
            1258     15.1109E-03     106.842E-03    -1.63909E+06    -25.6701E+06     1.48900E+06    -24.2725E+06    -29.8844E-03     42.5858E-03    -12.7014E-03     131.769E-03    -30.1883E-03     42.7888E-03    -12.6544E-03     131.323E-03
            1259     15.9812E-03     106.989E-03    -6.33620E+06    -42.9645E+06    -14.1391E+06    -19.9976E+06    -36.8057E-03     50.2689E-03    -13.4632E-03     182.941E-03    -38.1531E-03     51.4823E-03    -13.4624E-03     182.648E-03
            1260     16.8615E-03     107.184E-03    -5.90550E+06     50.8496E+06     21.5078E+06    -9.72301E+06    -41.6958E-03     56.0044E-03    -14.3085E-03     265.088E-03    -48.6236E-03     63.0293E-03    -14.2662E-03     268.457E-03
            1261     890.674E-06     107.200E-03    -31.8531E+06    -25.8596E+06    -31.9868E+06    -4.54803E+06    -10.5980E-03     21.1998E-03    -10.6018E-03     3.26887E-03    -10.6732E-03     21.1633E-03    -10.6780E-03     3.20995E-03
            1262     1.78096E-03     107.203E-03    -32.5431E+06    -23.0718E+06    -31.0091E+06    -7.40456E+06    -10.6471E-03     21.2563E-03    -10.6092E-03     6.07164E-03    -10.7314E-03     21.2332E-03    -10.6836E-03     5.97569E-03
            1263     2.67151E-03     107.211E-03    -32.6421E+06    -21.8307E+06    -28.5529E+06    -10.6150E+06    -10.6982E-03     21.3382E-03    -10.6401E-03     9.05847E-03    -10.7884E-03     21.3179E-03    -10.7038E-03     8.92089E-03
            1264     3.56186E-03     107.221E-03    -32.0723E+06    -20.2813E+06    -25.1473E+06    -13.6773E+06    -10.7660E-03     21.4427E-03    -10.6768E-03     12.1713E-03    -10.8606E-03     21.4245E-03    -10.7266E-03     11.9939E-03
            1265     4.45224E-03     107.235E-03    -31.7572E+06    -18.6268E+06    -21.6653E+06    -16.3907E+06    -10.8336E-03     21.5494E-03    -10.7159E-03     15.4096E-03    -10.9342E-03     21.5341E-03    -10.7511E-03     15.1970E-03
            1266     5.34251E-03     107.250E-03    -31.5195E+06    -16.8084E+06    -19.5276E+06    -18.1531E+06    -10.8634E-03     21.6083E-03    -10.7449E-03     18.9415E-03    -10.9688E-03     21.5987E-03    -10.7724E-03     18.7059E-03
            1267     6.23287E-03     107.271E-03    -30.4593E+06    -14.2382E+06    -18.5920E+06    -19.3432E+06    -10.8625E-03     21.6194E-03    -10.7569E-03     22.8586E-03    -10.9678E-03     21.6200E-03    -10.7851E-03     22.6074E-03
            1268     7.12338E-03     107.294E-03    -27.1948E+06    -10.0855E+06    -15.9580E+06    -19.0125E+06    -10.8276E-03     21.5878E-03    -10.7602E-03     27.3262E-03    -10.9266E-03     21.6007E-03    -10.7859E-03     27.0792E-03
            1269     8.01377E-03     107.325E-03    -20.2312E+06    -4.08742E+06    -7.52328E+06    -15.2756E+06    -10.8540E-03     21.6288E-03    -10.7748E-03     32.5706E-03    -10.9393E-03     21.6496E-03    -10.7772E-03     32.3717E-03
            1270     8.90474E-03     107.357E-03    -10.9355E+06    -2.86940E+06     3.32150E+06    -11.0226E+06    -11.1407E-03     21.9507E-03    -10.8101E-03     38.7345E-03    -11.1973E-03     21.9487E-03    -10.7735E-03     38.5903E-03
            1271     9.79431E-03     107.399E-03    -2.52401E+06    -1.27758E+06     13.3819E+06    -7.98293E+06    -11.6785E-03     22.5435E-03    -10.8650E-03     46.1506E-03    -11.7106E-03     22.5233E-03    -10.7926E-03     46.0451E-03
            1272     10.6852E-03     107.444E-03     1.28817E+06     1.24894E+06     19.9995E+06    -7.31711E+06    -12.4454E-03     23.3869E-03    -10.9415E-03     54.9046E-03    -12.4731E-03     23.3656E-03    -10.8452E-03     54.8064E-03
            1273     11.5727E-03     107.502E-03    -1.68082E+06    -619.553E+03     21.7475E+06    -10.0576E+06    -13.6964E-03     24.7552E-03    -11.0588E-03     64.8501E-03    -13.7424E-03     24.7299E-03    -10.9467E-03     64.7136E-03
            1274     12.4635E-03     107.565E-03    -5.84856E+06    -3.72937E+06     20.3559E+06    -15.7049E+06    -15.7549E-03     26.9948E-03    -11.2400E-03     77.9907E-03    -15.8245E-03     26.9714E-03    -11.1243E-03     77.7741E-03
            1275     13.3453E-03     107.646E-03    -4.38344E+06    -13.5282E+06     16.5830E+06    -16.2572E+06    -18.3189E-03     29.8288E-03    -11.5099E-03     88.5618E-03    -18.3782E-03     29.7764E-03    -11.4010E-03     88.3262E-03
            1276     14.2357E-03     107.727E-03    -4.90242E+06    -11.0442E+06     10.6950E+06    -18.6827E+06    -22.8729E-03     34.7801E-03    -11.9073E-03     100.774E-03    -22.9795E-03     34.7995E-03    -11.8307E-03     100.476E-03
            1277     15.1108E-03     107.831E-03    -8.53238E+06    -24.6187E+06     3.68920E+06    -22.8358E+06    -30.0735E-03     42.6143E-03    -12.5409E-03     135.475E-03    -30.3897E-03     42.8026E-03    -12.4744E-03     135.047E-03
            1278     15.9882E-03     107.980E-03    -6.77273E+06    -53.4495E+06    -15.6090E+06    -17.5112E+06    -37.3914E-03     50.6933E-03    -13.3018E-03     186.391E-03    -38.5580E-03     51.6915E-03    -13.2925E-03     186.058E-03
            1279     16.8545E-03     108.174E-03     -38.817E+03     41.7349E+06     20.3207E+06    -9.70404E+06    -43.1693E-03     57.3450E-03    -14.1757E-03     264.382E-03    -49.4056E-03     63.6704E-03    -14.1345E-03     267.114E-03
            1280     890.173E-06     108.168E-03    -16.5739E+06    -17.9957E+06    -15.9627E+06    -4.00438E+06    -11.0454E-03     21.9920E-03    -10.9466E-03     2.91675E-03    -11.0789E-03     21.9494E-03    -10.9763E-03     2.86477E-03
            1281     1.78045E-03     108.173E-03    -16.2674E+06    -16.3240E+06    -14.3641E+06    -6.47114E+06    -11.0485E-03     22.0608E-03    -11.0123E-03     5.40768E-03    -11.0854E-03     22.0236E-03    -11.0368E-03     5.32362E-03
            1282     2.67055E-03     108.179E-03    -15.9463E+06    -14.9240E+06    -11.7325E+06    -9.07797E+06    -11.1064E-03     22.1518E-03    -11.0454E-03     8.10895E-03    -11.1476E-03     22.1175E-03    -11.0593E-03     7.99096E-03
            1283     3.56069E-03     108.190E-03    -16.3418E+06    -13.9591E+06    -9.33267E+06    -11.6423E+06    -11.1888E-03     22.2729E-03    -11.0841E-03     10.8566E-03    -11.2370E-03     22.2405E-03    -11.0868E-03     10.7052E-03
            1284     4.45072E-03     108.203E-03    -17.0032E+06    -12.9379E+06    -7.07237E+06    -13.6937E+06    -11.2793E-03     22.4068E-03    -11.1274E-03     13.7497E-03    -11.3357E-03     22.3773E-03    -11.1194E-03     13.5715E-03
            1285     5.34064E-03     108.220E-03    -17.3550E+06    -11.6734E+06    -4.64973E+06    -15.8404E+06    -11.3607E-03     22.5332E-03    -11.1725E-03     16.8867E-03    -11.4244E-03     22.5073E-03    -11.1537E-03     16.6804E-03
            1286     6.23061E-03     108.239E-03    -17.3582E+06    -9.92683E+06    -2.26824E+06    -17.7283E+06    -11.3677E-03     22.5780E-03    -11.2103E-03     20.3737E-03    -11.4377E-03     22.5576E-03    -11.1820E-03     20.1428E-03
            1287     7.12039E-03     108.265E-03    -18.0225E+06    -8.21783E+06    -1.43274E+06    -18.7660E+06    -11.2907E-03     22.5171E-03    -11.2263E-03     24.3443E-03    -11.3679E-03     22.5052E-03    -11.1955E-03     24.0997E-03
            1288     8.01082E-03     108.292E-03    -18.4738E+06    -5.50549E+06    -2.46754E+06    -18.7758E+06    -11.1522E-03     22.3636E-03    -11.2114E-03     29.0674E-03    -11.2343E-03     22.3677E-03    -11.1890E-03     28.8227E-03
            1289     8.90086E-03     108.327E-03    -16.2318E+06    -4.72856E+06     59.0502E+03    -16.9483E+06    -11.1357E-03     22.3345E-03    -11.1988E-03     34.7941E-03    -11.2116E-03     22.3357E-03    -11.1681E-03     34.5730E-03
            1290     9.79209E-03     108.366E-03    -11.1001E+06    -4.03963E+06     6.08575E+06    -13.8909E+06    -11.3621E-03     22.5633E-03    -11.2012E-03     41.8103E-03    -11.4224E-03     22.5521E-03    -11.1488E-03     41.6285E-03
            1291     10.6812E-03     108.416E-03    -5.40234E+06    -340.760E+03     13.8343E+06    -9.13033E+06    -11.9339E-03     23.1615E-03    -11.2275E-03     50.5624E-03    -11.9830E-03     23.1501E-03    -11.1500E-03     50.4415E-03
            1292     11.5726E-03     108.470E-03    -2.51198E+06     1.83052E+06     20.9971E+06    -5.37381E+06    -13.1977E-03     24.5043E-03    -11.3066E-03     61.1442E-03    -13.2482E-03     24.4915E-03    -11.2006E-03     61.0698E-03
            1293     12.4581E-03     108.539E-03    -6.70226E+06     5.05957E+06     23.5590E+06    -7.39175E+06    -14.8800E-03     26.3222E-03    -11.4422E-03     74.7247E-03    -14.9661E-03     26.3341E-03    -11.3220E-03     74.6193E-03
            1294     13.3502E-03     108.618E-03    -13.7030E+06    -10.9772E+06     17.8212E+06    -14.1595E+06    -17.6307E-03     29.2990E-03    -11.6683E-03     86.5647E-03    -17.7338E-03     29.2629E-03    -11.5434E-03     86.3614E-03
            1295     14.2291E-03     108.707E-03    -14.3476E+06    -6.29757E+06     15.0242E+06    -15.4461E+06    -22.1928E-03     34.2242E-03    -12.0314E-03     101.623E-03    -22.3432E-03     34.2580E-03    -11.9263E-03     101.375E-03
            1296     15.1122E-03     108.816E-03    -15.5412E+06    -18.6717E+06     8.74856E+06    -20.3160E+06    -28.6356E-03     41.2298E-03    -12.5942E-03     136.931E-03    -28.9518E-03     41.3995E-03    -12.5009E-03     136.550E-03
            1297     15.9886E-03     108.966E-03    -13.4406E+06    -60.8528E+06    -17.6476E+06    -28.5421E+06    -37.6250E-03     50.9201E-03    -13.2951E-03     187.062E-03    -38.6300E-03     51.7127E-03    -13.2757E-03     186.517E-03
            1298     16.8668E-03     109.174E-03    -12.0923E+06     28.2165E+06     10.6382E+06    -19.4262E+06    -43.1262E-03     57.2796E-03    -14.1533E-03     258.565E-03    -48.3945E-03     62.5741E-03    -14.1235E-03     260.469E-03
            1299     889.571E-06     109.139E-03    -2.85492E+06    -11.0535E+06    -2.08454E+06    -3.20643E+06    -11.8158E-03     23.5511E-03    -11.7354E-03     2.54580E-03    -11.8109E-03     23.5033E-03    -11.7256E-03     2.50404E-03
            1300     1.77912E-03     109.142E-03    -2.99396E+06    -10.4924E+06    -722.290E+03    -5.43637E+06    -11.8362E-03     23.6325E-03    -11.7963E-03     4.65649E-03    -11.8350E-03     23.5854E-03    -11.7803E-03     4.58559E-03
            1301     2.66866E-03     109.150E-03    -3.24722E+06    -9.66036E+06     815.717E+03    -7.31744E+06    -11.9165E-03     23.7493E-03    -11.8328E-03     6.91946E-03    -11.9201E-03     23.7047E-03    -11.8100E-03     6.82390E-03
            1302     3.55804E-03     109.160E-03    -3.65321E+06    -8.86913E+06     2.73622E+06    -9.01228E+06    -12.0153E-03     23.8946E-03    -11.8793E-03     9.24607E-03    -12.0250E-03     23.8518E-03    -11.8474E-03     9.12823E-03
            1303     4.44734E-03     109.174E-03    -4.22363E+06    -8.18378E+06     4.95703E+06    -10.8859E+06    -12.1326E-03     24.0668E-03    -11.9342E-03     11.6770E-03    -12.1495E-03     24.0252E-03    -11.8914E-03     11.5346E-03
            1304     5.33664E-03     109.190E-03    -5.06335E+06    -6.97563E+06     7.50330E+06    -12.4968E+06    -12.2337E-03     24.2276E-03    -11.9938E-03     14.3141E-03    -12.2605E-03     24.1897E-03    -11.9388E-03     14.1504E-03
            1305     6.22560E-03     109.211E-03    -6.82916E+06    -5.90990E+06     9.10493E+06    -13.9085E+06    -12.2734E-03     24.3201E-03    -12.0467E-03     17.2304E-03    -12.3131E-03     24.2881E-03    -11.9827E-03     17.0480E-03
            1306     7.11507E-03     109.234E-03    -8.26130E+06    -4.89851E+06     10.5140E+06    -14.9405E+06    -12.2637E-03     24.3520E-03    -12.0883E-03     20.6233E-03    -12.3144E-03     24.3253E-03    -12.0166E-03     20.4272E-03
            1307     8.00389E-03     109.263E-03    -9.58837E+06    -3.59941E+06     11.7913E+06    -15.3984E+06    -12.2246E-03     24.3410E-03    -12.1164E-03     24.5815E-03    -12.2860E-03     24.3212E-03    -12.0383E-03     24.3792E-03
            1308     8.89376E-03     109.296E-03    -11.8550E+06    -4.53178E+06     10.9049E+06    -15.4629E+06    -12.0526E-03     24.1729E-03    -12.1203E-03     29.4177E-03    -12.1230E-03     24.1533E-03    -12.0421E-03     29.2145E-03
            1309     9.78260E-03     109.337E-03    -14.0506E+06    -5.06090E+06     9.29090E+06    -14.5869E+06    -11.8882E-03     23.9867E-03    -12.0985E-03     35.5024E-03    -11.9667E-03     23.9702E-03    -12.0243E-03     35.3106E-03
            1310     10.6740E-03     109.383E-03    -12.3337E+06    -4.36254E+06     12.0714E+06    -12.8268E+06    -12.0985E-03     24.1844E-03    -12.0860E-03     43.4940E-03    -12.1738E-03     24.1654E-03    -12.0014E-03     43.3250E-03
            1311     11.5619E-03     109.442E-03    -5.21560E+06    -1.56416E+06     19.9582E+06    -8.80964E+06    -12.7554E-03     24.8637E-03    -12.1084E-03     53.8326E-03    -12.8115E-03     24.8379E-03    -11.9988E-03     53.7149E-03
            1312     12.4538E-03     109.509E-03     1.37872E+06     4.64261E+06     28.5692E+06    -2.08916E+06    -13.9594E-03     26.1310E-03    -12.1717E-03     67.1023E-03    -14.0070E-03     26.1172E-03    -12.0375E-03     67.0689E-03
            1313     13.3373E-03     109.592E-03    -1.43945E+06     1.16738E+06     31.1985E+06    -2.72574E+06    -16.6950E-03     29.0197E-03    -12.3247E-03     81.6422E-03    -16.7648E-03     28.9982E-03    -12.1684E-03     81.5926E-03
            1314     14.2265E-03     109.685E-03    -9.30190E+06    -5.13055E+06     25.8352E+06    -9.55224E+06    -20.8018E-03     33.4075E-03    -12.6057E-03     97.9222E-03    -20.9240E-03     33.4036E-03    -12.4556E-03     97.7633E-03
            1315     15.1078E-03     109.796E-03    -11.3995E+06    -6.31885E+06     26.0248E+06    -15.3208E+06    -28.4603E-03     41.5854E-03    -13.1251E-03     132.876E-03    -28.7476E-03     41.7346E-03    -12.9692E-03     132.564E-03
            1316     15.9849E-03     109.957E-03    -22.9394E+06    -43.3255E+06    -2.71541E+06    -27.9532E+06    -37.7855E-03     51.6098E-03    -13.8243E-03     181.222E-03    -38.6450E-03     52.2423E-03    -13.7418E-03     180.650E-03
            1317     16.8472E-03     110.166E-03    -20.6051E+06     3.03364E+06    -5.15677E+06    -30.0561E+06    -36.8089E-03     51.2497E-03    -14.4407E-03     245.580E-03    -40.5666E-03     54.9601E-03    -14.4410E-03     246.721E-03
            1318     888.607E-06     110.109E-03     7.67612E+06    -5.71470E+06     8.27588E+06    -2.00140E+06    -13.0190E-03     26.0018E-03    -12.9828E-03     2.12715E-03    -12.9843E-03     25.9503E-03    -12.9442E-03     2.10085E-03
            1319     1.77705E-03     110.115E-03     6.89737E+06    -5.92363E+06     8.61220E+06    -3.98317E+06    -13.1286E-03     26.1616E-03    -13.0329E-03     3.71282E-03    -13.0982E-03     26.1095E-03    -12.9913E-03     3.66048E-03
            1320     2.66537E-03     110.121E-03     6.36706E+06    -5.66012E+06     9.78619E+06    -5.29445E+06    -13.2110E-03     26.3013E-03    -13.0903E-03     5.47530E-03    -13.1853E-03     26.2496E-03    -13.0424E-03     5.40555E-03
            1321     3.55372E-03     110.133E-03     5.61106E+06    -4.99368E+06     11.5856E+06    -6.60551E+06    -13.3367E-03     26.4887E-03    -13.1520E-03     7.31202E-03    -13.3185E-03     26.4389E-03    -13.0950E-03     7.22486E-03
            1322     4.44189E-03     110.146E-03     4.70371E+06    -4.38145E+06     13.7051E+06     -7.8446E+06    -13.4766E-03     26.6998E-03    -13.2232E-03     9.19985E-03    -13.4671E-03     26.6515E-03    -13.1552E-03     9.09614E-03
            1323     5.32978E-03     110.163E-03     3.46909E+06    -3.82040E+06     15.5670E+06    -8.90267E+06    -13.5875E-03     26.8842E-03    -13.2967E-03     11.2580E-03    -13.5879E-03     26.8380E-03    -13.2184E-03     11.1400E-03
            1324     6.21797E-03     110.182E-03     2.72112E+06    -2.94305E+06     18.5610E+06    -9.64510E+06    -13.7480E-03     27.1255E-03    -13.3775E-03     13.5338E-03    -13.7580E-03     27.0806E-03    -13.2844E-03     13.4057E-03
            1325     7.10542E-03     110.207E-03     1.26864E+06    -2.04547E+06     21.4475E+06    -10.4399E+06    -13.9345E-03     27.4002E-03    -13.4657E-03     16.0722E-03    -13.9576E-03     27.3580E-03    -13.3573E-03     15.9332E-03
            1326     7.99360E-03     110.235E-03    -593.696E+03    -2.22841E+06     22.7790E+06    -10.3718E+06    -14.0414E-03     27.5917E-03    -13.5502E-03     19.0914E-03    -14.0759E-03     27.5497E-03    -13.4323E-03     18.9527E-03
            1327     8.88042E-03     110.269E-03    -2.20717E+06    -2.70410E+06     22.8959E+06    -10.1675E+06    -14.0504E-03     27.6712E-03    -13.6209E-03     22.7235E-03    -14.0928E-03     27.6294E-03    -13.4993E-03     22.5869E-03
            1328     9.76930E-03     110.307E-03    -2.55785E+06    -3.91410E+06     23.2891E+06    -10.9703E+06    -13.9889E-03     27.6666E-03    -13.6777E-03     27.3530E-03    -14.0324E-03     27.6190E-03    -13.5519E-03     27.2057E-03
            1329     10.6558E-03     110.356E-03    -3.21683E+06    -4.42421E+06     25.1776E+06    -11.4532E+06    -13.8414E-03     27.5641E-03    -13.7227E-03     33.6418E-03    -13.8906E-03     27.5126E-03    -13.5857E-03     33.4883E-03
            1330     11.5459E-03     110.411E-03    -3.46506E+06    -5.05938E+06     25.8602E+06    -11.5284E+06    -13.6142E-03     27.3510E-03    -13.7369E-03     42.0118E-03    -13.6650E-03     27.2961E-03    -13.5952E-03     41.8576E-03
            1331     12.4322E-03     110.481E-03     2.27802E+06    -3.55652E+06     31.5705E+06    -7.64001E+06    -13.8144E-03     27.5633E-03    -13.7489E-03     53.9670E-03    -13.8478E-03     27.5002E-03    -13.5892E-03     53.8631E-03
            1332     13.3248E-03     110.563E-03     11.6197E+06     2.31448E+06     42.8990E+06     801.892E+03    -15.0741E-03     28.8751E-03    -13.8011E-03     69.2666E-03    -15.0888E-03     28.8150E-03    -13.6068E-03     69.2693E-03
            1333     14.2076E-03     110.662E-03     14.8414E+06     4.44533E+06     48.7072E+06     995.740E+03    -19.8732E-03     33.8588E-03    -13.9856E-03     87.3092E-03    -19.9025E-03     33.8157E-03    -13.7700E-03     87.2969E-03
            1334     15.0899E-03     110.775E-03     7.66090E+06     3.25010E+06     47.7044E+06    -5.36938E+06    -28.9783E-03     43.4387E-03    -14.4604E-03     123.804E-03    -29.1516E-03     43.5126E-03    -14.2377E-03     123.636E-03
            1335     15.9601E-03     110.950E-03     8.12714E+06    -16.5489E+06     33.6158E+06    -13.9247E+06    -34.4137E-03     49.5072E-03    -15.0935E-03     169.968E-03    -34.9038E-03     49.8702E-03    -14.9132E-03     169.613E-03
            1336     16.8438E-03     111.149E-03     12.0622E+06    -4.02466E+06     15.1026E+06    -25.2547E+06    -22.9954E-03     38.2302E-03    -15.2348E-03     222.313E-03    -24.8556E-03     40.0782E-03    -15.1710E-03     222.840E-03
            1337     887.025E-06     111.085E-03     14.7480E+06    -2.54867E+06     15.1971E+06    -993.843E+03    -14.7528E-03     29.6934E-03    -14.9405E-03     1.42568E-03    -14.6974E-03     29.6373E-03    -14.8822E-03     1.41239E-03
            1338     1.77386E-03     111.089E-03     14.4532E+06    -2.52616E+06     16.0144E+06    -2.20963E+06    -14.9670E-03     29.8471E-03    -14.8802E-03     2.46485E-03    -14.9145E-03     29.7902E-03    -14.8174E-03     2.43531E-03
            1339     2.66071E-03     111.097E-03     13.7350E+06    -2.61589E+06     17.1654E+06    -3.49569E+06    -15.1041E-03     30.0504E-03    -14.9463E-03     3.63605E-03    -15.0569E-03     29.9924E-03    -14.8766E-03     3.58937E-03
            1340     3.54728E-03     111.107E-03     13.2400E+06    -2.50720E+06     18.8207E+06    -4.19056E+06    -15.2370E-03     30.2600E-03    -15.0230E-03     4.85814E-03    -15.1948E-03     30.2009E-03    -14.9445E-03     4.80195E-03
            1341     4.43371E-03     111.121E-03     12.6503E+06    -2.00347E+06     21.0822E+06    -4.84605E+06    -15.3934E-03     30.5015E-03    -15.1081E-03     6.14500E-03    -15.3583E-03     30.4427E-03    -15.0181E-03     6.07975E-03
            1342     5.32021E-03     111.138E-03     12.2236E+06    -1.53202E+06     24.5615E+06    -5.59473E+06    -15.6726E-03     30.8873E-03    -15.2147E-03     7.49430E-03    -15.6455E-03     30.8265E-03    -15.1074E-03     7.41871E-03
            1343     6.20606E-03     111.159E-03     11.2349E+06    -1.05815E+06     28.1849E+06    -6.04737E+06    -16.0436E-03     31.3924E-03    -15.3488E-03     8.91173E-03    -16.0276E-03     31.3302E-03    -15.2226E-03     8.82950E-03
            1344     7.09205E-03     111.182E-03     10.6177E+06    -910.169E+03     31.0943E+06    -5.82125E+06    -16.4404E-03     31.9447E-03    -15.5042E-03     10.4835E-03    -16.4322E-03     31.8802E-03    -15.3628E-03     10.4033E-03
            1345     7.97662E-03     111.212E-03     9.88848E+06    -1.16941E+06     32.9363E+06    -5.93002E+06    -16.8442E-03     32.5186E-03    -15.6744E-03     12.3363E-03    -16.8423E-03     32.4514E-03    -15.5224E-03     12.2537E-03
            1346     8.86262E-03     111.244E-03     9.79778E+06    -1.49119E+06     34.9161E+06    -6.20945E+06    -17.3055E-03     33.1680E-03    -15.8625E-03     14.5317E-03    -17.3070E-03     33.0968E-03    -15.6999E-03     14.4444E-03
            1347     9.74566E-03     111.285E-03     8.81183E+06    -1.45779E+06     36.7599E+06    -6.90906E+06    -17.6947E-03     33.7600E-03    -16.0653E-03     17.3669E-03    -17.7044E-03     33.6880E-03    -15.8921E-03     17.2694E-03
            1348     10.6313E-03     111.330E-03     8.31707E+06    -3.31370E+06     38.2679E+06    -7.49860E+06    -17.6776E-03     33.9396E-03    -16.2620E-03     21.1287E-03    -17.6899E-03     33.8573E-03    -16.0779E-03     21.0228E-03
            1349     11.5141E-03     111.388E-03     7.90194E+06    -3.96239E+06     38.6286E+06    -7.86255E+06    -17.3428E-03     33.7628E-03    -16.4200E-03     26.1938E-03    -17.3575E-03     33.6776E-03    -16.2326E-03     26.0829E-03
            1350     12.4018E-03     111.453E-03     6.82602E+06    -6.63906E+06     39.2225E+06    -9.63099E+06    -16.4830E-03     33.0121E-03    -16.5291E-03     33.8995E-03    -16.5004E-03     32.9147E-03    -16.3333E-03     33.7664E-03
            1351     13.2843E-03     111.536E-03     12.6973E+06    -5.36122E+06     45.9250E+06    -9.01414E+06    -15.7925E-03     32.3851E-03    -16.5926E-03     45.5953E-03    -15.7928E-03     32.2762E-03    -16.3736E-03     45.4712E-03
            1352     14.1765E-03     111.633E-03     21.2455E+06     3.65112E+06     53.0797E+06    -992.028E+03    -18.6921E-03     35.3821E-03    -16.6900E-03     66.2765E-03    -18.6799E-03     35.3041E-03    -16.4607E-03     66.2488E-03
            1353     15.0531E-03     111.765E-03     26.9782E+06     9.35557E+06     58.6055E+06     1.88282E+06    -25.8461E-03     42.8500E-03    -17.0038E-03     104.567E-03    -25.8721E-03     42.8360E-03    -16.7635E-03     104.536E-03
            1354     15.9326E-03     111.929E-03     28.9502E+06     2.97009E+06     56.7608E+06    -8.33644E+06    -28.1734E-03     45.5972E-03    -17.4238E-03     141.551E-03    -28.3211E-03     45.6937E-03    -17.1863E-03     141.346E-03
            1355     16.8100E-03     112.127E-03     20.1487E+06    -2.61619E+06     28.1345E+06    -11.3814E+06    -7.79797E-03     24.9104E-03    -17.1124E-03     161.562E-03    -8.25261E-03     25.3485E-03    -16.9971E-03     161.636E-03
            1356     884.597E-06     112.063E-03     21.1258E+06    -745.646E+03     21.4180E+06    -709.084E+03    -17.4441E-03     35.0486E-03    -17.6046E-03     366.289E-06    -17.3685E-03     34.9832E-03    -17.5270E-03     356.816E-06
            1357     1.76941E-03     112.069E-03     21.0313E+06    -563.889E+03     22.7766E+06    -939.592E+03    -17.5025E-03     35.0372E-03    -17.5346E-03     878.764E-06    -17.4300E-03     34.9705E-03    -17.4504E-03     865.848E-06
            1358     2.65382E-03     112.076E-03     20.6661E+06    -844.827E+03     24.1017E+06    -1.51562E+06    -17.7094E-03     35.2840E-03    -17.5746E-03     1.28435E-03    -17.6403E-03     35.2145E-03    -17.4828E-03     1.26358E-03
            1359     3.53818E-03     112.087E-03     20.2410E+06    -1.08438E+06     25.8622E+06    -2.06732E+06    -17.8835E-03     35.5419E-03    -17.6584E-03     1.69893E-03    -17.8187E-03     35.4693E-03    -17.5569E-03     1.67058E-03
            1360     4.42253E-03     112.100E-03     20.0876E+06    -746.240E+03     29.2427E+06    -2.36075E+06    -18.2001E-03     35.9758E-03    -17.7758E-03     2.15172E-03    -18.1415E-03     35.9002E-03    -17.6576E-03     2.11907E-03
            1361     5.30620E-03     112.118E-03     19.6089E+06    -107.931E+03     33.2535E+06    -2.51963E+06    -18.7065E-03     36.6465E-03    -17.9400E-03     2.59330E-03    -18.6571E-03     36.5690E-03    -17.8020E-03     2.55800E-03
            1362     6.18949E-03     112.139E-03     19.3170E+06    -339.215E+03     36.2661E+06    -2.42345E+06    -19.2990E-03     37.4468E-03    -18.1478E-03     3.02266E-03    -19.2552E-03     37.3642E-03    -17.9940E-03     2.98789E-03
            1363     7.07170E-03     112.164E-03     18.9513E+06    -518.617E+03     38.8389E+06    -2.41280E+06    -20.0231E-03     38.4218E-03    -18.3987E-03     3.52432E-03    -19.9849E-03     38.3351E-03    -18.2312E-03     3.48886E-03
            1364     7.95440E-03     112.193E-03     19.0564E+06    -407.293E+03     42.2587E+06    -2.35140E+06    -20.9708E-03     39.6762E-03    -18.7054E-03     3.98977E-03    -20.9374E-03     39.5850E-03    -18.5211E-03     3.95401E-03
            1365     8.83396E-03     112.228E-03     18.5131E+06    -171.436E+03     45.2851E+06    -2.72228E+06    -21.9921E-03     41.0592E-03    -19.0671E-03     4.58539E-03    -21.9665E-03     40.9655E-03    -18.8672E-03     4.54354E-03
            1366     9.71522E-03     112.267E-03     18.3532E+06    -897.883E+03     47.4950E+06    -2.51563E+06    -22.9641E-03     42.4363E-03    -19.4722E-03     5.38186E-03    -22.9418E-03     42.3361E-03    -19.2600E-03     5.34121E-03
            1367     10.5923E-03     112.316E-03     17.4319E+06    -1.08452E+06     49.0404E+06    -3.34852E+06    -23.8820E-03     43.7930E-03    -19.9110E-03     6.32739E-03    -23.8669E-03     43.6908E-03    -19.6895E-03     6.27439E-03
            1368     11.4722E-03     112.369E-03     16.0263E+06    -2.92107E+06     50.2196E+06    -3.64921E+06    -24.2748E-03     44.6408E-03    -20.3660E-03     7.58438E-03    -24.2665E-03     44.5298E-03    -20.1339E-03     7.52593E-03
            1369     12.3465E-03     112.437E-03     14.7663E+06    -1.23922E+06     51.4945E+06    -5.37444E+06    -23.8328E-03     44.6233E-03    -20.7905E-03     9.65261E-03    -23.8362E-03     44.5202E-03    -20.5526E-03     9.57076E-03
            1370     13.2295E-03     112.511E-03     11.2302E+06    -6.45935E+06     50.1830E+06    -9.06999E+06    -23.0773E-03     44.2477E-03    -21.1704E-03     14.3379E-03    -23.0902E-03     44.1251E-03    -20.9264E-03     14.2075E-03
            1371     14.1035E-03     112.612E-03     11.0924E+06    -5.07490E+06     44.5912E+06    -9.58434E+06    -23.2011E-03     44.7123E-03    -21.5112E-03     26.3651E-03    -23.2111E-03     44.6041E-03    -21.2969E-03     26.2270E-03
            1372     14.9913E-03     112.737E-03     16.0709E+06     6.69835E+06     52.1489E+06    -5.63084E+06    -24.3110E-03     46.2639E-03    -21.9530E-03     50.1980E-03    -24.3341E-03     46.2061E-03    -21.7252E-03     50.1028E-03
            1373     15.8653E-03     112.916E-03     14.2039E+06     8.53091E+06     59.4736E+06    -1.34730E+06    -17.7671E-03     40.0198E-03    -22.2527E-03     71.0954E-03    -17.8318E-03     39.9919E-03    -21.9883E-03     71.0448E-03
            1374     16.7498E-03     113.088E-03     979.039E+03     1.38944E+06     30.5257E+06     967.236E+03     2.66342E-03     18.9960E-03    -21.6594E-03     67.0556E-03     2.57898E-03     19.0007E-03    -21.5102E-03     67.0670E-03
            1375     16.8329E-03     56.2388E-03    -4.58763E+06     161.525E+06     55.1955E+06     301.181E+03    -27.7555E-03     43.5454E-03    -15.7899E-03     270.899E-03    -35.9449E-03     52.1318E-03    -15.7415E-03     276.869E-03
            1376     15.9453E-03     56.0214E-03    -5.55786E+06     88.8963E+06    -11.3421E+06     507.118E+03    -22.2722E-03     37.8577E-03    -15.5855E-03     179.281E-03    -24.5204E-03     40.4346E-03    -15.7630E-03     179.996E-03
            1377     15.0614E-03     55.9041E-03    -5.54792E+06     23.3956E+06    -14.0230E+06     405.865E+03    -17.8262E-03     33.5141E-03    -15.6878E-03     97.1819E-03    -18.1397E-03     33.9315E-03    -15.7838E-03     97.1628E-03
            1378     14.1737E-03     55.8404E-03    -5.18685E+06    -17.3807E+06    -10.2522E+06     526.950E+03    -16.5415E-03     32.3213E-03    -15.7798E-03     61.6390E-03    -16.6036E-03     32.3330E-03    -15.7984E-03     61.6035E-03
            1379     13.2890E-03     55.7901E-03    -4.58742E+06    -34.3585E+06    -6.86147E+06     955.898E+03    -16.4417E-03     32.2746E-03    -15.8329E-03     56.7798E-03    -16.4484E-03     32.1629E-03    -15.8107E-03     56.7556E-03
            1380     12.4016E-03     55.7347E-03    -4.52254E+06    -37.9982E+06     501.039E+03     720.290E+03    -16.5104E-03     32.3948E-03    -15.8844E-03     54.4639E-03    -16.5070E-03     32.2390E-03    -15.8202E-03     54.4440E-03
            1381     11.5166E-03     55.6883E-03    -5.39479E+06    -48.0046E+06    -886.686E+03     671.744E+03    -16.3902E-03     32.2886E-03    -15.8984E-03     47.9475E-03    -16.3631E-03     32.0745E-03    -15.8254E-03     47.9341E-03
            1382     10.6301E-03     55.6459E-03    -6.20300E+06    -60.5232E+06    -2.01378E+06     647.867E+03    -16.3432E-03     32.2587E-03    -15.9156E-03     43.8037E-03    -16.2942E-03     31.9787E-03    -15.8289E-03     43.7953E-03
            1383     9.74475E-03     55.6068E-03    -6.77029E+06    -65.1974E+06     1.07153E+06     485.221E+03    -16.2726E-03     32.2130E-03    -15.9404E-03     39.3909E-03    -16.2203E-03     31.9022E-03    -15.8307E-03     39.3845E-03
            1384     8.85842E-03     55.5724E-03    -7.31662E+06    -64.8031E+06     1.24415E+06     571.814E+03    -16.1905E-03     32.1332E-03    -15.9427E-03     35.1757E-03    -16.1394E-03     31.8225E-03    -15.8319E-03     35.1735E-03
            1385     7.97294E-03     55.5415E-03    -7.88143E+06    -64.4900E+06     309.308E+03     692.661E+03    -16.1160E-03     32.0561E-03    -15.9401E-03     31.1362E-03    -16.0653E-03     31.7477E-03    -15.8337E-03     31.1378E-03
            1386     7.08673E-03     55.5144E-03    -8.89477E+06    -65.0591E+06    -1.23998E+06     560.557E+03    -16.0433E-03     31.9812E-03    -15.9379E-03     27.1415E-03    -15.9936E-03     31.6726E-03    -15.8369E-03     27.1430E-03
            1387     6.20109E-03     55.4911E-03    -9.69477E+06    -65.0579E+06    -1.93883E+06     713.649E+03    -16.0094E-03     31.9486E-03    -15.9392E-03     23.3176E-03    -15.9621E-03     31.6415E-03    -15.8405E-03     23.3223E-03
            1388     5.31501E-03     55.4710E-03    -10.7310E+06    -65.8686E+06    -3.73487E+06     693.545E+03    -15.9740E-03     31.9096E-03    -15.9356E-03     19.6360E-03    -15.9276E-03     31.6021E-03    -15.8432E-03     19.6414E-03
            1389     4.42933E-03     55.4545E-03    -11.9670E+06    -67.1585E+06    -5.87174E+06     533.231E+03    -15.9425E-03     31.8741E-03    -15.9316E-03     16.1208E-03    -15.8970E-03     31.5647E-03    -15.8462E-03     16.1249E-03
            1390     3.54332E-03     55.4409E-03    -13.2429E+06    -68.6939E+06    -8.46463E+06     390.824E+03    -15.9262E-03     31.8520E-03    -15.9258E-03     12.7385E-03    -15.8808E-03     31.5403E-03    -15.8494E-03     12.7414E-03
            1391     2.65763E-03     55.4307E-03    -14.4518E+06    -70.3712E+06    -11.2061E+06     200.796E+03    -15.9234E-03     31.8406E-03    -15.9171E-03     9.48863E-03    -15.8776E-03     31.5261E-03    -15.8501E-03     9.48965E-03
            1392     1.77161E-03     55.4232E-03    -15.4117E+06    -71.9382E+06    -13.7412E+06     185.957E+03    -15.9148E-03     31.8199E-03    -15.9051E-03     6.35625E-03    -15.8677E-03     31.5026E-03    -15.8472E-03     6.35762E-03
            1393     885.985E-06     55.4189E-03    -16.0109E+06    -72.8974E+06    -15.7155E+06     91.7078E+03    -15.8701E-03     31.7920E-03    -15.9219E-03     3.43376E-03    -15.8216E-03     31.4737E-03    -15.8716E-03     3.43439E-03
            1394     16.8333E-03     55.2628E-03    -4.32988E+06     161.369E+06     55.0038E+06     683.508E+03    -27.4378E-03     43.2189E-03    -15.7811E-03     270.637E-03    -35.5896E-03     51.7687E-03    -15.7338E-03     276.574E-03
            1395     15.9472E-03     55.0422E-03    -5.75573E+06     88.6840E+06    -10.9532E+06     251.142E+03    -22.0159E-03     37.6099E-03    -15.5940E-03     178.833E-03    -24.2684E-03     40.1886E-03    -15.7690E-03     179.553E-03
            1396     15.0593E-03     54.9256E-03    -4.59887E+06     23.3770E+06    -12.8983E+06     378.009E+03    -17.8541E-03     33.5574E-03    -15.7033E-03     97.2966E-03    -18.1647E-03     33.9721E-03    -15.7951E-03     97.2778E-03
            1397     14.1747E-03     54.8620E-03    -4.72942E+06    -17.9574E+06    -9.84504E+06     850.994E+03    -16.6757E-03     32.4647E-03    -15.7890E-03     61.5300E-03    -16.7356E-03     32.4727E-03    -15.8054E-03     61.4980E-03
            1398     13.2875E-03     54.8114E-03    -5.27513E+06    -33.9013E+06    -6.50771E+06     714.872E+03    -16.5667E-03     32.4004E-03    -15.8338E-03     56.8605E-03    -16.5781E-03     32.2917E-03    -15.8095E-03     56.8329E-03
            1399     12.4030E-03     54.7561E-03    -5.27396E+06    -37.7628E+06     500.238E+03     805.741E+03    -16.4592E-03     32.3406E-03    -15.8814E-03     54.6684E-03    -16.4597E-03     32.1869E-03    -15.8165E-03     54.6499E-03
            1400     11.5159E-03     54.7101E-03    -5.44552E+06    -48.3722E+06    -1.28283E+06     740.949E+03    -16.3972E-03     32.2919E-03    -15.8947E-03     47.9238E-03    -16.3692E-03     32.0766E-03    -15.8231E-03     47.9114E-03
            1401     10.6307E-03     54.6668E-03    -5.86907E+06    -60.0927E+06    -1.83866E+06     807.526E+03    -16.3827E-03     32.2935E-03    -15.9108E-03     43.7373E-03    -16.3330E-03     32.0150E-03    -15.8244E-03     43.7309E-03
            1402     9.74446E-03     54.6286E-03    -6.38471E+06    -64.8384E+06     1.24982E+06     635.071E+03    -16.2526E-03     32.1872E-03    -15.9346E-03     39.4103E-03    -16.1992E-03     31.8774E-03    -15.8251E-03     39.4059E-03
            1403     8.85879E-03     54.5937E-03    -7.16267E+06    -65.0235E+06     658.017E+03     357.426E+03    -16.1787E-03     32.1141E-03    -15.9355E-03     35.2184E-03    -16.1256E-03     31.8029E-03    -15.8275E-03     35.2134E-03
            1404     7.97267E-03     54.5629E-03    -8.04608E+06    -64.6976E+06     42.9202E+03     558.105E+03    -16.1211E-03     32.0559E-03    -15.9348E-03     31.0778E-03    -16.0705E-03     31.7470E-03    -15.8292E-03     31.0776E-03
            1405     7.08701E-03     54.5359E-03    -8.88648E+06    -64.6748E+06    -1.02913E+06     655.178E+03    -16.0581E-03     31.9901E-03    -15.9319E-03     27.1230E-03    -16.0093E-03     31.6831E-03    -15.8304E-03     27.1257E-03
            1406     6.20094E-03     54.5123E-03    -10.0235E+06    -65.2479E+06    -2.53630E+06     448.944E+03    -16.0115E-03     31.9397E-03    -15.9282E-03     23.2880E-03    -15.9647E-03     31.6330E-03    -15.8317E-03     23.2893E-03
            1407     5.31526E-03     54.4925E-03    -10.9144E+06    -65.6614E+06    -3.59738E+06     558.636E+03    -15.9697E-03     31.8957E-03    -15.9260E-03     19.6077E-03    -15.9247E-03     31.5893E-03    -15.8330E-03     19.6113E-03
            1408     4.42923E-03     54.4757E-03    -12.0223E+06    -66.9470E+06    -5.78765E+06     551.195E+03    -15.9352E-03     31.8557E-03    -15.9205E-03     16.1025E-03    -15.8904E-03     31.5474E-03    -15.8349E-03     16.1068E-03
            1409     3.54350E-03     54.4624E-03    -13.2310E+06    -68.3814E+06    -8.27105E+06     422.701E+03    -15.9119E-03     31.8266E-03    -15.9147E-03     12.7383E-03    -15.8672E-03     31.5163E-03    -15.8378E-03     12.7416E-03
            1410     2.65747E-03     54.4519E-03    -14.4197E+06     -70.202E+06    -11.2251E+06     300.569E+03    -15.9045E-03     31.8114E-03    -15.9069E-03     9.48911E-03    -15.8588E-03     31.4978E-03    -15.8403E-03     9.49143E-03
            1411     1.77181E-03     54.4447E-03    -15.4342E+06    -71.7856E+06    -13.7273E+06     169.164E+03    -15.9124E-03     31.8070E-03    -15.8946E-03     6.35097E-03    -15.8657E-03     31.4904E-03    -15.8367E-03     6.35213E-03
            1412     885.741E-06     54.4401E-03    -16.1745E+06    -72.7159E+06    -15.5492E+06     129.860E+03    -15.9052E-03     31.7663E-03    -15.8611E-03     3.37812E-03    -15.8580E-03     31.4489E-03    -15.8100E-03     3.37925E-03
            1413     16.8330E-03     54.2829E-03    -3.92246E+06     160.731E+06     54.0079E+06     357.480E+03    -27.5476E-03     43.3396E-03    -15.7921E-03     270.973E-03    -35.6985E-03     51.8906E-03    -15.7494E-03     276.905E-03
            1414     15.9463E-03     54.0652E-03    -5.36836E+06     89.8026E+06    -10.7263E+06     750.627E+03    -22.2917E-03     37.8930E-03    -15.6013E-03     179.506E-03    -24.5512E-03     40.4834E-03    -15.7774E-03     180.223E-03
            1415     15.0606E-03     53.9470E-03    -6.24716E+06     22.8201E+06    -13.4809E+06     278.359E+03    -17.9668E-03     33.6698E-03    -15.7030E-03     97.3368E-03    -18.2856E-03     34.0865E-03    -15.7944E-03     97.3155E-03
            1416     14.1736E-03     53.8830E-03    -5.26543E+06    -18.4372E+06    -10.3548E+06     689.999E+03    -16.6446E-03     32.4292E-03    -15.7846E-03     61.1783E-03    -16.7051E-03     32.4356E-03    -15.8020E-03     61.1444E-03
            1417     13.2891E-03     53.8329E-03    -4.45438E+06    -33.9419E+06    -5.85798E+06     1.02083E+06    -16.4800E-03     32.3159E-03    -15.8359E-03     56.7695E-03    -16.4879E-03     32.2045E-03    -15.8095E-03     56.7461E-03
            1418     12.4014E-03     53.7778E-03    -5.08723E+06    -38.1311E+06     636.749E+03     621.347E+03    -16.5020E-03     32.3859E-03    -15.8840E-03     54.7782E-03    -16.5013E-03     32.2299E-03    -15.8181E-03     54.7573E-03
            1419     11.5168E-03     53.7310E-03    -5.50139E+06    -47.7805E+06    -743.277E+03     852.703E+03    -16.4614E-03     32.3558E-03    -15.8944E-03     48.0437E-03    -16.4354E-03     32.1428E-03    -15.8209E-03     48.0326E-03
            1420     10.6304E-03     53.6885E-03    -5.54580E+06    -59.8877E+06    -1.54740E+06     858.341E+03    -16.3678E-03     32.2750E-03    -15.9072E-03     43.7313E-03    -16.3172E-03     31.9966E-03    -15.8201E-03     43.7256E-03
            1421     9.74462E-03     53.6498E-03    -6.18715E+06    -64.5399E+06     1.35881E+06     765.360E+03    -16.2695E-03     32.1991E-03    -15.9296E-03     39.3911E-03    -16.2157E-03     31.8903E-03    -15.8203E-03     39.3884E-03
            1422     8.85866E-03     53.6151E-03    -7.26435E+06    -64.8930E+06     735.613E+03     616.845E+03    -16.1963E-03     32.1250E-03    -15.9287E-03     35.1662E-03    -16.1441E-03     31.8145E-03    -15.8204E-03     35.1646E-03
            1423     7.97292E-03     53.5843E-03    -8.11531E+06    -64.8254E+06    -308.441E+03     369.879E+03    -16.1242E-03     32.0485E-03    -15.9243E-03     31.0432E-03    -16.0733E-03     31.7396E-03    -15.8201E-03     31.0406E-03
            1424     7.08691E-03     53.5571E-03    -8.97315E+06    -64.6323E+06    -873.023E+03     549.397E+03    -16.0697E-03     31.9911E-03    -15.9214E-03     27.0667E-03    -16.0215E-03     31.6842E-03    -15.8191E-03     27.0681E-03
            1425     6.20122E-03     53.5339E-03    -9.88793E+06    -64.9657E+06    -2.39149E+06     519.018E+03    -16.0021E-03     31.9173E-03    -15.9152E-03     23.2587E-03    -15.9552E-03     31.6116E-03    -15.8186E-03     23.2609E-03
            1426     5.31515E-03     53.5137E-03    -11.0786E+06    -65.8625E+06    -4.08053E+06     335.622E+03    -15.9570E-03     31.8677E-03    -15.9107E-03     19.5929E-03    -15.9119E-03     31.5612E-03    -15.8195E-03     19.5937E-03
            1427     4.42944E-03     53.4973E-03    -12.0978E+06    -66.7074E+06    -5.73702E+06     441.744E+03    -15.9241E-03     31.8306E-03    -15.9065E-03     16.0785E-03    -15.8801E-03     31.5235E-03    -15.8210E-03     16.0814E-03
            1428     3.54340E-03     53.4837E-03    -13.2493E+06    -68.2500E+06    -8.38820E+06     392.352E+03    -15.8983E-03     31.7978E-03    -15.8995E-03     12.7167E-03    -15.8537E-03     31.4883E-03    -15.8233E-03     12.7196E-03
            1429     2.65770E-03     53.4735E-03    -14.3929E+06    -69.9455E+06    -11.0349E+06     305.731E+03    -15.8886E-03     31.7816E-03    -15.8930E-03     9.47012E-03    -15.8433E-03     31.4689E-03    -15.8259E-03     9.47251E-03
            1430     1.77161E-03     53.4660E-03    -15.3927E+06    -71.5737E+06    -13.6848E+06     225.175E+03    -15.8932E-03     31.7748E-03    -15.8817E-03     6.33879E-03    -15.8466E-03     31.4592E-03    -15.8240E-03     6.34067E-03
            1431     886.054E-06     53.4616E-03    -16.1198E+06    -72.4913E+06    -15.5920E+06    -16.0384E+03    -15.8683E-03     31.7434E-03    -15.8750E-03     3.31677E-03    -15.8212E-03     31.4271E-03    -15.8245E-03     3.31603E-03
            1432     16.8317E-03     53.3049E-03    -4.83123E+06     160.403E+06     54.9617E+06    -108.936E+03    -27.5362E-03     43.3560E-03    -15.8198E-03     270.682E-03    -35.7059E-03     51.9186E-03    -15.7706E-03     276.626E-03
            1433     15.9458E-03     53.0859E-03    -6.28386E+06     89.1922E+06    -10.7902E+06     430.313E+03    -22.6378E-03     38.2507E-03    -15.6128E-03     178.746E-03    -24.8892E-03     40.8276E-03    -15.7870E-03     179.443E-03
            1434     15.0602E-03     52.9682E-03    -5.26203E+06     23.3322E+06    -13.4467E+06     896.979E+03    -18.0564E-03     33.7528E-03    -15.6964E-03     97.3310E-03    -18.3707E-03     34.1703E-03    -15.7898E-03     97.3165E-03
            1435     14.1751E-03     52.9049E-03    -5.33068E+06    -18.6245E+06    -10.4777E+06     484.077E+03    -16.5326E-03     32.3132E-03    -15.7807E-03     61.4050E-03    -16.5927E-03     32.3188E-03    -15.7983E-03     61.3688E-03
            1436     13.2874E-03     52.8544E-03    -5.09958E+06    -34.2927E+06    -6.77139E+06     655.968E+03    -16.5167E-03     32.3481E-03    -15.8314E-03     56.8327E-03    -16.5262E-03     32.2375E-03    -15.8082E-03     56.8044E-03
            1437     12.4030E-03     52.7992E-03    -4.64111E+06    -38.0938E+06     592.991E+03     825.216E+03    -16.5439E-03     32.4227E-03    -15.8788E-03     54.7145E-03    -16.5410E-03     32.2663E-03    -15.8138E-03     54.6962E-03
            1438     11.5159E-03     52.7523E-03    -4.80677E+06    -47.8619E+06    -550.010E+03     689.693E+03    -16.4241E-03     32.3139E-03    -15.8899E-03     47.9424E-03    -16.3946E-03     32.0991E-03    -15.8163E-03     47.9292E-03
            1439     10.6306E-03     52.7099E-03    -5.24840E+06    -59.8286E+06    -1.02772E+06     930.602E+03    -16.4053E-03     32.3095E-03    -15.9041E-03     43.6123E-03    -16.3540E-03     32.0301E-03    -15.8149E-03     43.6075E-03
            1440     9.74468E-03     52.6711E-03    -6.21608E+06    -64.4344E+06     2.05419E+06     1.03813E+06    -16.3073E-03     32.2310E-03    -15.9237E-03     39.3226E-03    -16.2548E-03     31.9217E-03    -15.8110E-03     39.3234E-03
            1441     8.85889E-03     52.6366E-03    -7.16441E+06    -64.3727E+06     1.28326E+06     726.547E+03    -16.2022E-03     32.1201E-03    -15.9179E-03     35.0812E-03    -16.1510E-03     31.8113E-03    -15.8078E-03     35.0809E-03
            1442     7.97291E-03     52.6056E-03    -8.17491E+06    -64.6881E+06    -171.388E+03     439.933E+03    -16.1260E-03     32.0362E-03    -15.9102E-03     31.0046E-03    -16.0758E-03     31.7278E-03    -15.8054E-03     31.0029E-03
            1443     7.08718E-03     52.5787E-03    -9.03187E+06    -64.7314E+06    -1.15501E+06     293.534E+03    -16.0539E-03     31.9584E-03    -15.9046E-03     27.0283E-03    -16.0055E-03     31.6515E-03    -15.8034E-03     27.0263E-03
            1444     6.20113E-03     52.5551E-03    -9.95778E+06    -64.8406E+06    -2.21843E+06     443.610E+03    -15.9931E-03     31.8927E-03    -15.8997E-03     23.2176E-03    -15.9469E-03     31.5875E-03    -15.8023E-03     23.2188E-03
            1445     5.31542E-03     52.5353E-03    -10.9920E+06    -65.6463E+06    -4.15080E+06     409.643E+03    -15.9414E-03     31.8343E-03    -15.8928E-03     19.5604E-03    -15.8961E-03     31.5289E-03    -15.8025E-03     19.5621E-03
            1446     4.42935E-03     52.5186E-03    -12.2674E+06    -66.7959E+06    -6.18464E+06     258.039E+03    -15.9073E-03     31.7947E-03    -15.8875E-03     16.0571E-03    -15.8633E-03     31.4880E-03    -15.8037E-03     16.0577E-03
            1447     3.54365E-03     52.5053E-03    -13.3717E+06    -68.0574E+06    -8.44483E+06     320.419E+03    -15.8859E-03     31.7669E-03    -15.8810E-03     12.7011E-03    -15.8422E-03     31.4586E-03    -15.8052E-03     12.7031E-03
            1448     2.65754E-03     52.4949E-03    -14.4893E+06    -69.8239E+06    -11.2058E+06     262.737E+03    -15.8746E-03     31.7467E-03    -15.8720E-03     9.46740E-03    -15.8297E-03     31.4350E-03    -15.8058E-03     9.46924E-03
            1449     1.77193E-03     52.4876E-03    -15.3938E+06    -71.3161E+06    -13.6795E+06     167.820E+03    -15.8565E-03     31.7218E-03    -15.8653E-03     6.32222E-03    -15.8103E-03     31.4074E-03    -15.8079E-03     6.32336E-03
            1450     885.677E-06     52.4831E-03    -15.8841E+06    -72.2648E+06    -15.6306E+06     3.24370E+03    -15.8497E-03     31.7213E-03    -15.8715E-03     3.27640E-03    -15.8017E-03     31.4059E-03    -15.8219E-03     3.27592E-03
            1451     16.8323E-03     52.3251E-03    -4.51441E+06     160.322E+06     55.0692E+06     262.187E+03    -27.6905E-03     43.4981E-03    -15.8076E-03     270.599E-03    -35.8656E-03     52.0666E-03    -15.7582E-03     276.527E-03
            1452     15.9471E-03     52.1076E-03    -5.64121E+06     88.4528E+06    -10.9273E+06     162.811E+03    -22.3799E-03     37.9816E-03    -15.6017E-03     178.441E-03    -24.6174E-03     40.5448E-03    -15.7764E-03     179.142E-03
            1453     15.0605E-03     51.9897E-03    -4.95883E+06     22.9651E+06    -13.2172E+06     674.263E+03    -17.8969E-03     33.5949E-03    -15.6980E-03     97.3794E-03    -18.2086E-03     34.0088E-03    -15.7902E-03     97.3635E-03
            1454     14.1733E-03     51.9264E-03    -4.64471E+06    -18.2157E+06    -9.79507E+06     945.326E+03    -16.6678E-03     32.4512E-03    -15.7834E-03     61.2714E-03    -16.7265E-03     32.4571E-03    -15.7992E-03     61.2405E-03
            1455     13.2891E-03     51.8758E-03    -4.94783E+06    -34.0569E+06    -6.29190E+06     559.164E+03    -16.6249E-03     32.4509E-03    -15.8260E-03     56.7380E-03    -16.6349E-03     32.3406E-03    -15.8009E-03     56.7081E-03
            1456     12.4018E-03     51.8205E-03    -5.39336E+06    -37.6673E+06     552.639E+03     552.519E+03    -16.5540E-03     32.4208E-03    -15.8668E-03     54.6641E-03    -16.5554E-03     32.2677E-03    -15.8016E-03     54.6422E-03
            1457     11.5170E-03     51.7740E-03    -5.66861E+06    -48.3643E+06    -1.05015E+06     639.167E+03    -16.4095E-03     32.2855E-03    -15.8760E-03     47.8590E-03    -16.3828E-03     32.0700E-03    -15.8029E-03     47.8453E-03
            1458     10.6305E-03     51.7310E-03    -5.94200E+06    -60.3906E+06    -1.46956E+06     870.862E+03    -16.3792E-03     32.2699E-03    -15.8907E-03     43.5746E-03    -16.3299E-03     31.9894E-03    -15.8019E-03     43.5691E-03
            1459     9.74487E-03     51.6926E-03    -6.18689E+06    -64.1095E+06     2.15543E+06     1.01879E+06    -16.3245E-03     32.2341E-03    -15.9095E-03     39.2387E-03    -16.2726E-03     31.9263E-03    -15.7968E-03     39.2392E-03
            1460     8.85895E-03     51.6578E-03    -6.96203E+06    -64.0267E+06     1.53935E+06     851.356E+03    -16.2118E-03     32.1132E-03    -15.9013E-03     35.0272E-03    -16.1605E-03     31.8054E-03    -15.7907E-03     35.0286E-03
            1461     7.97320E-03     51.6272E-03    -7.90677E+06    -64.2789E+06     29.7601E+03     594.055E+03    -16.1089E-03     32.0005E-03    -15.8916E-03     30.9509E-03    -16.0582E-03     31.6935E-03    -15.7868E-03     30.9512E-03
            1462     7.08715E-03     51.6000E-03    -9.06923E+06    -64.7387E+06    -1.46140E+06     363.786E+03    -16.0366E-03     31.9209E-03    -15.8844E-03     27.0001E-03    -15.9879E-03     31.6145E-03    -15.7847E-03     26.9991E-03
            1463     6.20144E-03     51.5767E-03    -10.0832E+06    -64.9307E+06    -2.51605E+06     245.821E+03    -15.9808E-03     31.8599E-03    -15.8791E-03     23.1838E-03    -15.9348E-03     31.5549E-03    -15.7829E-03     23.1825E-03
            1464     5.31536E-03     51.5567E-03    -11.0910E+06    -65.4904E+06    -3.95395E+06     336.479E+03    -15.9276E-03     31.8007E-03    -15.8731E-03     19.5274E-03    -15.8832E-03     31.4960E-03    -15.7818E-03     19.5281E-03
            1465     4.42962E-03     51.5402E-03    -12.2102E+06    -66.6126E+06    -6.21268E+06     294.762E+03    -15.8882E-03     31.7536E-03    -15.8654E-03     16.0298E-03    -15.8442E-03     31.4478E-03    -15.7822E-03     16.0309E-03
            1466     3.54350E-03     51.5267E-03    -13.4960E+06    -68.0397E+06    -8.61446E+06     167.044E+03    -15.8681E-03     31.7259E-03    -15.8578E-03     12.6745E-03    -15.8247E-03     31.4181E-03    -15.7827E-03     12.6745E-03
            1467     2.65786E-03     51.5164E-03    -14.5473E+06    -69.6424E+06    -11.3365E+06     198.661E+03    -15.8470E-03     31.6958E-03    -15.8489E-03     9.44430E-03    -15.8025E-03     31.3853E-03    -15.7835E-03     9.44531E-03
            1468     1.77164E-03     51.5090E-03    -15.4085E+06    -71.2395E+06    -13.8429E+06     58.4146E+03    -15.8422E-03     31.6826E-03    -15.8404E-03     6.30238E-03    -15.7960E-03     31.3690E-03    -15.7840E-03     6.30211E-03
            1469     886.087E-06     51.5046E-03    -15.9821E+06    -72.1600E+06    -15.4591E+06     76.2614E+03    -15.8327E-03     31.6684E-03    -15.8357E-03     3.26926E-03    -15.7856E-03     31.3534E-03    -15.7852E-03     3.26973E-03
            1470     16.8336E-03     51.3473E-03    -4.40407E+06     160.337E+06     55.3037E+06     225.778E+03    -27.6645E-03     43.4599E-03    -15.7954E-03     270.921E-03    -35.8257E-03     52.0143E-03    -15.7450E-03     276.826E-03
            1471     15.9459E-03     51.1288E-03    -6.10256E+06     88.5269E+06    -10.9162E+06     276.678E+03    -22.2073E-03     37.8038E-03    -15.5965E-03     178.885E-03    -24.4533E-03     40.3740E-03    -15.7706E-03     179.599E-03
            1472     15.0599E-03     51.0117E-03    -5.93319E+06     22.0558E+06    -14.0085E+06     313.365E+03    -18.0426E-03     33.7347E-03    -15.6922E-03     97.1950E-03    -18.3569E-03     34.1469E-03    -15.7856E-03     97.1730E-03
            1473     14.1752E-03     50.9472E-03    -5.25978E+06    -18.4367E+06    -9.88731E+06     694.365E+03    -16.7043E-03     32.4774E-03    -15.7731E-03     61.1473E-03    -16.7655E-03     32.4832E-03    -15.7882E-03     61.1131E-03
            1474     13.2879E-03     50.8975E-03    -4.63720E+06    -33.1667E+06    -5.65236E+06     949.423E+03    -16.6467E-03     32.4601E-03    -15.8134E-03     56.6485E-03    -16.6572E-03     32.3527E-03    -15.7868E-03     56.6236E-03
            1475     12.4032E-03     50.8417E-03    -4.94664E+06    -37.7053E+06     906.286E+03     706.277E+03    -16.5506E-03     32.4029E-03    -15.8522E-03     54.5953E-03    -16.5502E-03     32.2483E-03    -15.7859E-03     54.5754E-03
            1476     11.5164E-03     50.7954E-03    -5.70953E+06    -48.3955E+06    -943.238E+03     681.940E+03    -16.4075E-03     32.2674E-03    -15.8599E-03     47.8680E-03    -16.3811E-03     32.0517E-03    -15.7861E-03     47.8548E-03
            1477     10.6310E-03     50.7526E-03    -5.99363E+06    -60.5009E+06    -1.93115E+06     669.958E+03    -16.3916E-03     32.2616E-03    -15.8700E-03     43.6009E-03    -16.3417E-03     31.9812E-03    -15.7833E-03     43.5928E-03
            1478     9.74495E-03     50.7138E-03    -6.38016E+06    -64.3814E+06     1.71449E+06     689.487E+03    -16.2984E-03     32.1867E-03    -15.8884E-03     39.1440E-03    -16.2463E-03     31.8785E-03    -15.7772E-03     39.1402E-03
            1479     8.85924E-03     50.6793E-03    -6.87869E+06    -63.7420E+06     1.66797E+06     810.437E+03    -16.1958E-03     32.0776E-03    -15.8818E-03     34.9593E-03    -16.1447E-03     31.7709E-03    -15.7710E-03     34.9602E-03
            1480     7.97322E-03     50.6485E-03    -7.68642E+06    -63.9918E+06     142.007E+03     757.265E+03    -16.1034E-03     31.9741E-03    -15.8707E-03     30.9010E-03    -16.0522E-03     31.6681E-03    -15.7660E-03     30.9035E-03
            1481     7.08748E-03     50.6216E-03    -8.70778E+06    -64.3639E+06    -1.32510E+06     560.555E+03    -16.0222E-03     31.8841E-03    -15.8619E-03     26.9541E-03    -15.9724E-03     31.5788E-03    -15.7626E-03     26.9556E-03
            1482     6.20138E-03     50.5981E-03    -9.89044E+06    -64.8483E+06    -2.68738E+06     277.560E+03    -15.9608E-03     31.8160E-03    -15.8551E-03     23.1470E-03    -15.9137E-03     31.5113E-03    -15.7602E-03     23.1461E-03
            1483     5.31566E-03     50.5782E-03    -11.0684E+06    -65.5317E+06    -4.06194E+06     210.347E+03    -15.9156E-03     31.7643E-03    -15.8488E-03     19.4906E-03    -15.8709E-03     31.4595E-03    -15.7580E-03     19.4898E-03
            1484     4.42955E-03     50.5616E-03    -12.2097E+06    -66.4834E+06    -5.97922E+06     235.771E+03    -15.8750E-03     31.7151E-03    -15.8402E-03     15.9948E-03    -15.8315E-03     31.4096E-03    -15.7560E-03     15.9950E-03
            1485     3.54386E-03     50.5482E-03    -13.3374E+06    -67.9132E+06    -8.59529E+06     190.412E+03    -15.8365E-03     31.6670E-03    -15.8306E-03     12.6502E-03    -15.7925E-03     31.3596E-03    -15.7557E-03     12.6505E-03
            1486     2.65764E-03     50.5379E-03    -14.5442E+06    -69.5761E+06    -11.3325E+06     111.038E+03    -15.8241E-03     31.6458E-03    -15.8217E-03     9.42378E-03    -15.7797E-03     31.3357E-03    -15.7564E-03     9.42367E-03
            1487     1.77202E-03     50.5306E-03    -15.5356E+06    -71.1667E+06    -13.9201E+06     104.888E+03    -15.8180E-03     31.6289E-03    -15.8109E-03     6.29446E-03    -15.7724E-03     31.3159E-03    -15.7548E-03     6.29480E-03
            1488     885.799E-06     50.5261E-03    -16.1592E+06    -72.1792E+06    -15.8093E+06    -35.0400E+03    -15.7874E-03     31.6053E-03    -15.8179E-03     3.25600E-03    -15.7406E-03     31.2910E-03    -15.7689E-03     3.25504E-03
            1489     16.8324E-03     50.3697E-03    -4.50960E+06     160.004E+06     55.4254E+06     225.884E+03    -27.7559E-03     43.5533E-03    -15.7974E-03     270.197E-03    -35.8752E-03     52.0638E-03    -15.7457E-03     276.088E-03
            1490     15.9466E-03     50.1503E-03    -6.05083E+06     88.7427E+06    -10.5774E+06     376.367E+03    -22.3738E-03     37.9627E-03    -15.5889E-03     178.681E-03    -24.6166E-03     40.5297E-03    -15.7617E-03     179.382E-03
            1491     15.0611E-03     50.0325E-03    -5.95473E+06     22.0509E+06    -14.1704E+06     394.622E+03    -17.9918E-03     33.6701E-03    -15.6783E-03     97.2097E-03    -18.3053E-03     34.0818E-03    -15.7725E-03     97.1895E-03
            1492     14.1739E-03     49.9693E-03    -5.30456E+06    -18.7266E+06    -10.1386E+06     427.724E+03    -16.7249E-03     32.4843E-03    -15.7594E-03     61.3678E-03    -16.7855E-03     32.4891E-03    -15.7753E-03     61.3300E-03
            1493     13.2893E-03     49.9183E-03    -5.02659E+06    -33.2553E+06    -5.87522E+06     682.385E+03    -16.6352E-03     32.4343E-03    -15.7992E-03     56.6556E-03    -16.6471E-03     32.3274E-03    -15.7730E-03     56.6273E-03
            1494     12.4025E-03     49.8635E-03    -4.98972E+06    -37.7979E+06     687.019E+03     893.476E+03    -16.5594E-03     32.3960E-03    -15.8366E-03     54.6197E-03    -16.5586E-03     32.2413E-03    -15.7711E-03     54.6023E-03
            1495     11.5172E-03     49.8167E-03    -5.10981E+06    -48.1554E+06    -578.949E+03     754.389E+03    -16.4608E-03     32.3030E-03    -15.8423E-03     47.8835E-03    -16.4323E-03     32.0872E-03    -15.7679E-03     47.8712E-03
            1496     10.6310E-03     49.7739E-03    -5.74308E+06    -60.3342E+06    -1.70124E+06     676.610E+03    -16.3999E-03     32.2483E-03    -15.8484E-03     43.5029E-03    -16.3494E-03     31.9681E-03    -15.7610E-03     43.4949E-03
            1497     9.74537E-03     49.7354E-03    -6.33221E+06    -64.5576E+06     1.45340E+06     577.806E+03    -16.2654E-03     32.1296E-03    -15.8642E-03     39.1320E-03    -16.2124E-03     31.8207E-03    -15.7541E-03     39.1269E-03
            1498     8.85927E-03     49.7007E-03    -6.99964E+06    -63.7821E+06     1.55781E+06     660.306E+03    -16.1724E-03     32.0312E-03    -15.8589E-03     34.9111E-03    -16.1216E-03     31.7247E-03    -15.7484E-03     34.9101E-03
            1499     7.97356E-03     49.6700E-03    -7.79702E+06    -63.8569E+06     197.875E+03     710.568E+03    -16.0923E-03     31.9398E-03    -15.8475E-03     30.8382E-03    -16.0419E-03     31.6345E-03    -15.7426E-03     30.8400E-03
            1500     7.08750E-03     49.6430E-03    -8.64715E+06    -64.0629E+06    -1.09670E+06     627.251E+03    -16.0097E-03     31.8471E-03    -15.8374E-03     26.9074E-03    -15.9604E-03     31.5429E-03    -15.7375E-03     26.9098E-03
            1501     6.20176E-03     49.6196E-03    -9.73387E+06    -64.5521E+06    -2.58421E+06     497.647E+03    -15.9452E-03     31.7734E-03    -15.8283E-03     23.1075E-03    -15.8978E-03     31.4699E-03    -15.7335E-03     23.1095E-03
            1502     5.31561E-03     49.5998E-03    -10.9883E+06    -65.4719E+06    -4.28794E+06     241.765E+03    -15.8970E-03     31.7161E-03    -15.8191E-03     19.4423E-03    -15.8516E-03     31.4117E-03    -15.7297E-03     19.4419E-03
            1503     4.42991E-03     49.5832E-03    -12.1822E+06    -66.4764E+06    -6.14614E+06     177.630E+03    -15.8437E-03     31.6541E-03    -15.8104E-03     15.9583E-03    -15.7999E-03     31.3489E-03    -15.7271E-03     15.9578E-03
            1504     3.54369E-03     49.5699E-03    -13.4316E+06    -67.8658E+06    -8.57192E+06     194.069E+03    -15.8124E-03     31.6138E-03    -15.8014E-03     12.6333E-03    -15.7691E-03     31.3067E-03    -15.7264E-03     12.6337E-03
            1505     2.65801E-03     49.5595E-03    -14.5666E+06    -69.5260E+06    -11.3481E+06     176.943E+03    -15.7931E-03     31.5847E-03    -15.7916E-03     9.41526E-03    -15.7488E-03     31.2748E-03    -15.7264E-03     9.41600E-03
            1506     1.77179E-03     49.5522E-03    -15.5950E+06    -71.0815E+06    -13.9162E+06     97.5386E+03    -15.7728E-03     31.5588E-03    -15.7860E-03     6.28877E-03    -15.7276E-03     31.2463E-03    -15.7299E-03     6.28902E-03
            1507     886.050E-06     49.5477E-03    -16.2366E+06    -72.0906E+06    -15.7784E+06     40.4342E+03    -15.7740E-03     31.5651E-03    -15.7911E-03     3.27803E-03    -15.7277E-03     31.2513E-03    -15.7419E-03     3.27804E-03
            1508     16.8330E-03     49.3899E-03    -4.48874E+06     159.775E+06     55.4549E+06     173.394E+03    -27.8585E-03     43.6552E-03    -15.7968E-03     269.923E-03    -35.9671E-03     52.1543E-03    -15.7447E-03     275.798E-03
            1509     15.9475E-03     49.1721E-03    -5.61071E+06     88.5688E+06    -10.4034E+06     493.285E+03    -22.4782E-03     38.0602E-03    -15.5820E-03     178.883E-03    -24.7147E-03     40.6214E-03    -15.7543E-03     179.580E-03
            1510     15.0599E-03     49.0545E-03    -5.02214E+06     22.1112E+06    -13.7167E+06     535.874E+03    -18.0286E-03     33.6969E-03    -15.6683E-03     97.5037E-03    -18.3386E-03     34.1074E-03    -15.7617E-03     97.4845E-03
            1511     14.1753E-03     48.9900E-03    -5.11295E+06    -18.7182E+06    -10.0543E+06     411.665E+03    -16.7473E-03     32.4942E-03    -15.7469E-03     61.2281E-03    -16.8068E-03     32.4983E-03    -15.7626E-03     61.1901E-03
            1512     13.2884E-03     48.9402E-03    -4.90670E+06    -33.5878E+06    -5.97104E+06     526.854E+03    -16.6333E-03     32.4179E-03    -15.7846E-03     56.5383E-03    -16.6438E-03     32.3091E-03    -15.7587E-03     56.5081E-03
            1513     12.4032E-03     48.8847E-03    -5.09367E+06    -37.5515E+06     636.866E+03     717.274E+03    -16.5953E-03     32.4145E-03    -15.8193E-03     54.5322E-03    -16.5953E-03     32.2613E-03    -15.7543E-03     54.5125E-03
            1514     11.5170E-03     48.8380E-03    -5.61927E+06    -48.1900E+06    -1.10841E+06     806.609E+03    -16.4835E-03     32.3033E-03    -15.8198E-03     47.8659E-03    -16.4567E-03     32.0887E-03    -15.7473E-03     47.8543E-03
            1515     10.6315E-03     48.7954E-03    -5.61800E+06    -60.4172E+06    -1.67303E+06     681.307E+03    -16.3910E-03     32.2165E-03    -15.8255E-03     43.4679E-03    -16.3396E-03     31.9356E-03    -15.7381E-03     43.4600E-03
            1516     9.74535E-03     48.7568E-03    -6.11251E+06    -64.2208E+06     1.66641E+06     664.117E+03    -16.2589E-03     32.0990E-03    -15.8401E-03     39.0713E-03    -16.2056E-03     31.7911E-03    -15.7298E-03     39.0673E-03
            1517     8.85972E-03     48.7222E-03    -7.04332E+06    -63.8463E+06     1.28764E+06     645.102E+03    -16.1485E-03     31.9808E-03    -15.8323E-03     34.8721E-03    -16.0974E-03     31.6744E-03    -15.7231E-03     34.8709E-03
            1518     7.97360E-03     48.6916E-03    -7.95824E+06    -63.8013E+06     141.850E+03     643.120E+03    -16.0692E-03     31.8909E-03    -15.8218E-03     30.8137E-03    -16.0196E-03     31.5862E-03    -15.7170E-03     30.8147E-03
            1519     7.08786E-03     48.6645E-03    -8.90796E+06    -63.9850E+06    -1.09148E+06     631.527E+03    -16.0007E-03     31.8113E-03    -15.8106E-03     26.8606E-03    -15.9528E-03     31.5079E-03    -15.7104E-03     26.8630E-03
            1520     6.20172E-03     48.6413E-03    -9.89103E+06    -64.2879E+06    -2.48949E+06     561.482E+03    -15.9279E-03     31.7272E-03    -15.7993E-03     23.0743E-03    -15.8819E-03     31.4250E-03    -15.7041E-03     23.0771E-03
            1521     5.31603E-03     48.6212E-03    -11.0100E+06    -65.2002E+06    -4.39862E+06     397.051E+03    -15.8599E-03     31.6483E-03    -15.7884E-03     19.4214E-03    -15.8149E-03     31.3455E-03    -15.6999E-03     19.4231E-03
            1522     4.42979E-03     48.6049E-03    -12.2920E+06    -66.4232E+06    -6.42268E+06     223.156E+03    -15.8216E-03     31.6007E-03    -15.7791E-03     15.9401E-03    -15.7780E-03     31.2963E-03    -15.6971E-03     15.9402E-03
            1523     3.54407E-03     48.5913E-03    -13.4914E+06    -67.8738E+06    -8.60442E+06     185.280E+03    -15.7871E-03     31.5567E-03    -15.7696E-03     12.5971E-03    -15.7440E-03     31.2497E-03    -15.6946E-03     12.5974E-03
            1524     2.65784E-03     48.5813E-03    -14.6565E+06    -69.4748E+06    -11.3265E+06     130.314E+03    -15.7553E-03     31.5154E-03    -15.7601E-03     9.39334E-03    -15.7116E-03     31.2059E-03    -15.6948E-03     9.39348E-03
            1525     1.77205E-03     48.5738E-03    -15.5350E+06    -70.9002E+06    -13.8711E+06     83.9262E+03    -15.7450E-03     31.4991E-03    -15.7541E-03     6.24963E-03    -15.6998E-03     31.1873E-03    -15.6981E-03     6.24971E-03
            1526     885.874E-06     48.5695E-03    -16.2516E+06    -72.0046E+06    -15.7359E+06     18.4089E+03    -15.7350E-03     31.4993E-03    -15.7643E-03     3.31556E-03    -15.6890E-03     31.1859E-03    -15.7150E-03     3.31526E-03
            1527     16.8330E-03     48.4112E-03    -4.58097E+06     159.537E+06     55.4341E+06     95.6875E+03    -27.8442E-03     43.6427E-03    -15.7985E-03     269.897E-03    -35.9564E-03     52.1442E-03    -15.7460E-03     275.759E-03
            1528     15.9457E-03     48.1936E-03    -6.08854E+06     88.2252E+06    -10.7495E+06     270.640E+03    -22.5720E-03     38.1516E-03    -15.5796E-03     178.420E-03    -24.7990E-03     40.7013E-03    -15.7525E-03     179.110E-03
            1529     15.0617E-03     48.0753E-03    -5.72416E+06     22.0199E+06    -14.1180E+06     474.185E+03    -18.1699E-03     33.8270E-03    -15.6571E-03     97.4200E-03    -18.4827E-03     34.2385E-03    -15.7513E-03     97.3984E-03
            1530     14.1745E-03     48.0120E-03    -4.79750E+06    -18.9003E+06    -10.1307E+06     574.638E+03    -16.7472E-03     32.4781E-03    -15.7309E-03     61.2740E-03    -16.8046E-03     32.4807E-03    -15.7472E-03     61.2381E-03
            1531     13.2895E-03     47.9611E-03    -4.84629E+06    -33.7328E+06    -6.16013E+06     520.979E+03    -16.7220E-03     32.4863E-03    -15.7644E-03     56.4925E-03    -16.7318E-03     32.3770E-03    -15.7392E-03     56.4620E-03
            1532     12.4032E-03     47.9064E-03    -5.19693E+06    -37.2722E+06     607.116E+03     712.838E+03    -16.6095E-03     32.4037E-03    -15.7942E-03     54.3344E-03    -16.6103E-03     32.2519E-03    -15.7295E-03     54.3146E-03
            1533     11.5176E-03     47.8594E-03    -5.47335E+06    -48.0991E+06    -1.23239E+06     726.822E+03    -16.3933E-03     32.1884E-03    -15.7950E-03     47.8287E-03    -16.3656E-03     31.9741E-03    -15.7235E-03     47.8163E-03
            1534     10.6314E-03     47.8169E-03    -5.92723E+06    -60.4949E+06    -1.97289E+06     629.784E+03    -16.3944E-03     32.1966E-03    -15.8022E-03     43.4290E-03    -16.3441E-03     31.9162E-03    -15.7157E-03     43.4205E-03
            1535     9.74594E-03     47.7782E-03    -6.23237E+06    -64.1170E+06     1.70030E+06     715.261E+03    -16.2675E-03     32.0826E-03    -15.8151E-03     38.9975E-03    -16.2150E-03     31.7754E-03    -15.7046E-03     38.9942E-03
            1536     8.85970E-03     47.7439E-03    -7.04736E+06    -63.6578E+06     1.26646E+06     733.317E+03    -16.1243E-03     31.9292E-03    -15.8050E-03     34.8378E-03    -16.0734E-03     31.6237E-03    -15.6961E-03     34.8378E-03
            1537     7.97398E-03     47.7130E-03    -8.03018E+06    -63.7674E+06     7.67378E+03     647.803E+03    -16.0472E-03     31.8408E-03    -15.7936E-03     30.7781E-03    -15.9979E-03     31.5366E-03    -15.6895E-03     30.7792E-03
            1538     7.08787E-03     47.6863E-03    -8.97309E+06    -63.8448E+06    -1.03359E+06     592.595E+03    -15.9795E-03     31.7619E-03    -15.7824E-03     26.8303E-03    -15.9323E-03     31.4592E-03    -15.6820E-03     26.8322E-03
            1539     6.20217E-03     47.6627E-03    -9.95745E+06    -64.1376E+06    -2.39243E+06     542.031E+03    -15.8960E-03     31.6668E-03    -15.7708E-03     23.0340E-03    -15.8506E-03     31.3653E-03    -15.6753E-03     23.0365E-03
            1540     5.31588E-03     47.6432E-03    -11.0562E+06    -64.9536E+06    -4.17691E+06     463.410E+03    -15.8364E-03     31.5964E-03    -15.7600E-03     19.4022E-03    -15.7923E-03     31.2946E-03    -15.6707E-03     19.4047E-03
            1541     4.43016E-03     47.6263E-03    -12.2755E+06    -66.2185E+06    -6.28730E+06     317.822E+03    -15.8022E-03     31.5506E-03    -15.7484E-03     15.9144E-03    -15.7590E-03     31.2470E-03    -15.6660E-03     15.9157E-03
            1542     3.54397E-03     47.6133E-03    -13.5740E+06    -67.8151E+06    -8.73370E+06     166.635E+03    -15.7606E-03     31.4964E-03    -15.7359E-03     12.5625E-03    -15.7178E-03     31.1900E-03    -15.6615E-03     12.5626E-03
            1543     2.65812E-03     47.6028E-03    -14.7579E+06    -69.4231E+06    -11.4663E+06     130.484E+03    -15.7334E-03     31.4564E-03    -15.7229E-03     9.36530E-03    -15.6901E-03     31.1475E-03    -15.6582E-03     9.36546E-03
            1544     1.77199E-03     47.5956E-03    -15.7446E+06    -70.9222E+06    -14.0459E+06     78.1244E+03    -15.7025E-03     31.4178E-03    -15.7153E-03     6.23130E-03    -15.6581E-03     31.1064E-03    -15.6599E-03     6.23131E-03
            1545     886.098E-06     47.5911E-03    -16.2033E+06    -71.9279E+06    -16.0155E+06     83.6401E+03    -15.6769E-03     31.4236E-03    -15.7467E-03     3.39933E-03    -15.6303E-03     31.1109E-03    -15.6990E-03     3.39987E-03
            1546     16.8323E-03     47.4319E-03    -4.80882E+06     159.172E+06     55.4440E+06     73.7384E+03    -27.8696E-03     43.6716E-03    -15.8021E-03     269.968E-03    -35.9723E-03     52.1615E-03    -15.7487E-03     275.825E-03
            1547     15.9482E-03     47.2151E-03    -6.16514E+06     88.1554E+06    -10.4272E+06     256.619E+03    -22.8305E-03     38.4073E-03    -15.5768E-03     178.479E-03    -25.0615E-03     40.9596E-03    -15.7478E-03     179.160E-03
            1548     15.0602E-03     47.0967E-03    -5.34570E+06     22.2737E+06    -13.9151E+06     348.291E+03    -18.2842E-03     33.9256E-03    -15.6414E-03     97.0898E-03    -18.5947E-03     34.3365E-03    -15.7355E-03     97.0652E-03
            1549     14.1756E-03     47.0333E-03    -5.39411E+06    -19.0852E+06    -10.5408E+06     447.900E+03    -16.7811E-03     32.4891E-03    -15.7079E-03     61.0358E-03    -16.8402E-03     32.4918E-03    -15.7251E-03     60.9983E-03
            1550     13.2891E-03     46.9825E-03    -5.08035E+06    -34.2631E+06    -6.52244E+06     633.430E+03    -16.6743E-03     32.4146E-03    -15.7403E-03     56.4497E-03    -16.6839E-03     32.3034E-03    -15.7159E-03     56.4208E-03
            1551     12.4040E-03     46.9276E-03    -4.97469E+06    -37.2542E+06     873.032E+03     708.635E+03    -16.5698E-03     32.3431E-03    -15.7733E-03     54.3834E-03    -16.5698E-03     32.1907E-03    -15.7077E-03     54.3637E-03
            1552     11.5176E-03     46.8814E-03    -5.58451E+06    -47.6859E+06    -1.17730E+06     839.631E+03    -16.4372E-03     32.2083E-03    -15.7712E-03     47.8906E-03    -16.4108E-03     31.9962E-03    -15.6998E-03     47.8796E-03
            1553     10.6320E-03     46.8380E-03    -5.88084E+06    -60.5320E+06    -2.35735E+06     675.761E+03    -16.3527E-03     32.1274E-03    -15.7746E-03     43.3892E-03    -16.3015E-03     31.8471E-03    -15.6901E-03     43.3814E-03
            1554     9.74581E-03     46.8001E-03    -6.49242E+06    -64.2095E+06     1.43969E+06     672.234E+03    -16.2430E-03     32.0321E-03    -15.7892E-03     38.9062E-03    -16.1912E-03     31.7252E-03    -15.6795E-03     38.9024E-03
            1555     8.86023E-03     46.7652E-03    -7.34415E+06    -63.5483E+06     1.24776E+06     765.721E+03    -16.1271E-03     31.9054E-03    -15.7783E-03     34.8129E-03    -16.0779E-03     31.6009E-03    -15.6693E-03     34.8134E-03
            1556     7.97405E-03     46.7349E-03    -8.12050E+06    -63.5983E+06    -63.2363E+03     660.396E+03    -16.0299E-03     31.7939E-03    -15.7640E-03     30.7586E-03    -15.9812E-03     31.4907E-03    -15.6603E-03     30.7599E-03
            1557     7.08829E-03     46.7076E-03    -8.99927E+06    -63.7267E+06    -1.20257E+06     545.971E+03    -15.9417E-03     31.6938E-03    -15.7521E-03     26.7848E-03    -15.8945E-03     31.3919E-03    -15.6526E-03     26.7862E-03
            1558     6.20204E-03     46.6847E-03    -9.99183E+06    -63.9802E+06    -2.33545E+06     466.807E+03    -15.8742E-03     31.6156E-03    -15.7414E-03     22.9795E-03    -15.8293E-03     31.3149E-03    -15.6458E-03     22.9811E-03
            1559     5.31634E-03     46.6645E-03    -11.1181E+06    -64.7975E+06    -3.97001E+06     448.881E+03    -15.8183E-03     31.5479E-03    -15.7296E-03     19.3586E-03    -15.7750E-03     31.2466E-03    -15.6393E-03     19.3609E-03
            1560     4.43011E-03     46.6483E-03    -12.3810E+06    -66.0754E+06    -6.22200E+06     382.090E+03    -15.7624E-03     31.4792E-03    -15.7168E-03     15.8812E-03    -15.7200E-03     31.1763E-03    -15.6342E-03     15.8834E-03
            1561     3.54423E-03     46.6348E-03    -13.6806E+06    -67.6410E+06    -8.85430E+06     270.942E+03    -15.7365E-03     31.4394E-03    -15.7028E-03     12.5456E-03    -15.6943E-03     31.1342E-03    -15.6292E-03     12.5470E-03
            1562     2.65812E-03     46.6248E-03    -14.9311E+06    -69.3673E+06    -11.7197E+06     167.856E+03    -15.6946E-03     31.3840E-03    -15.6893E-03     9.35196E-03    -15.6519E-03     31.0760E-03    -15.6257E-03     9.35261E-03
            1563     1.77214E-03     46.6173E-03    -15.8998E+06    -70.9169E+06    -14.3100E+06     89.1751E+03    -15.6711E-03     31.3536E-03    -15.6825E-03     6.25658E-03    -15.6271E-03     31.0429E-03    -15.6282E-03     6.25674E-03
            1564     885.926E-06     46.6131E-03    -16.4256E+06    -71.8268E+06    -15.9657E+06     68.4745E+03    -15.6741E-03     31.3590E-03    -15.6849E-03     3.38122E-03    -15.6289E-03     31.0471E-03    -15.6368E-03     3.38156E-03
            1565     16.8331E-03     46.4543E-03    -4.50574E+06     159.088E+06     55.4157E+06     199.791E+03    -27.9532E-03     43.7506E-03    -15.7974E-03     270.097E-03    -36.0445E-03     52.2300E-03    -15.7445E-03     275.953E-03
            1566     15.9452E-03     46.2344E-03    -6.07981E+06     87.9948E+06    -10.6119E+06     215.316E+03    -22.9959E-03     38.5609E-03    -15.5650E-03     178.117E-03    -25.2251E-03     41.1117E-03    -15.7368E-03     178.788E-03
            1567     15.0626E-03     46.1186E-03    -5.99230E+06     21.9098E+06    -14.5659E+06     391.958E+03    -18.3740E-03     33.9932E-03    -15.6192E-03     96.4883E-03    -18.6834E-03     34.4013E-03    -15.7152E-03     96.4636E-03
            1568     14.1754E-03     46.0544E-03    -5.60919E+06    -19.2717E+06    -10.8780E+06     563.557E+03    -16.6856E-03     32.3701E-03    -15.6845E-03     61.2402E-03    -16.7448E-03     32.3725E-03    -15.7028E-03     61.2046E-03
            1569     13.2903E-03     46.0042E-03    -5.14835E+06    -33.9979E+06    -6.56896E+06     537.632E+03    -16.5696E-03     32.2927E-03    -15.7231E-03     56.6688E-03    -16.5796E-03     32.1828E-03    -15.6992E-03     56.6391E-03
            1570     12.4033E-03     45.9492E-03    -5.05787E+06    -37.3467E+06     674.465E+03     680.778E+03    -16.6494E-03     32.4051E-03    -15.7556E-03     54.4456E-03    -16.6495E-03     32.2527E-03    -15.6908E-03     54.4254E-03
            1571     11.5181E-03     45.9023E-03    -5.47483E+06    -47.5205E+06    -926.782E+03     858.044E+03    -16.5243E-03     32.2715E-03    -15.7472E-03     47.6628E-03    -16.4980E-03     32.0598E-03    -15.6750E-03     47.6519E-03
            1572     10.6321E-03     45.8601E-03    -6.00325E+06    -60.4436E+06    -2.42976E+06     794.752E+03    -16.3211E-03     32.0660E-03    -15.7449E-03     43.2624E-03    -16.2704E-03     31.7864E-03    -15.6607E-03     43.2562E-03
            1573     9.74638E-03     45.8212E-03    -6.62698E+06    -64.4676E+06     1.18226E+06     648.153E+03    -16.1758E-03     31.9366E-03    -15.7608E-03     38.8733E-03    -16.1239E-03     31.6289E-03    -15.6518E-03     38.8693E-03
            1574     8.86016E-03     45.7872E-03    -7.38490E+06    -63.3264E+06     1.29214E+06     708.956E+03    -16.1184E-03     31.8698E-03    -15.7514E-03     34.7639E-03    -16.0698E-03     31.5664E-03    -15.6424E-03     34.7637E-03
            1575     7.97447E-03     45.7561E-03    -8.23829E+06    -63.4702E+06    -190.877E+03      610.37E+03    -16.0203E-03     31.7546E-03    -15.7343E-03     30.7081E-03    -15.9720E-03     31.4524E-03    -15.6313E-03     30.7088E-03
            1576     7.08830E-03     45.7297E-03    -9.08136E+06    -63.5182E+06    -1.25083E+06     507.053E+03    -15.9195E-03     31.6403E-03    -15.7209E-03     26.7362E-03    -15.8729E-03     31.3396E-03    -15.6218E-03     26.7371E-03
            1577     6.20253E-03     45.7061E-03    -10.1385E+06    -63.8664E+06    -2.52293E+06     448.943E+03    -15.8448E-03     31.5537E-03    -15.7089E-03     22.9479E-03    -15.8005E-03     31.2540E-03    -15.6142E-03     22.9493E-03
            1578     5.31629E-03     45.6866E-03    -11.3318E+06    -64.7218E+06    -4.22905E+06     447.708E+03    -15.7814E-03     31.4783E-03    -15.6970E-03     19.3358E-03    -15.7389E-03     31.1781E-03    -15.6079E-03     19.3381E-03
            1579     4.43040E-03     45.6699E-03    -12.5455E+06    -65.9745E+06    -6.26913E+06     432.999E+03    -15.7394E-03     31.4239E-03    -15.6845E-03     15.8602E-03    -15.6979E-03     31.1219E-03    -15.6020E-03     15.8631E-03
            1580     3.54424E-03     45.6568E-03    -13.7650E+06    -67.5539E+06    -8.85913E+06     324.827E+03    -15.6869E-03     31.3588E-03    -15.6719E-03     12.5089E-03    -15.6452E-03     31.0541E-03    -15.5982E-03     12.5110E-03
            1581     2.65823E-03     45.6464E-03    -14.9237E+06    -69.2463E+06    -11.7332E+06     201.691E+03    -15.6573E-03     31.3194E-03    -15.6620E-03     9.32147E-03    -15.6147E-03     31.0120E-03    -15.5987E-03     9.32257E-03
            1582     1.77206E-03     45.6394E-03    -15.9047E+06    -70.6583E+06    -14.2287E+06     119.731E+03    -15.6657E-03     31.3160E-03    -15.6503E-03     6.25646E-03    -15.6222E-03     31.0065E-03    -15.5959E-03     6.25701E-03
            1583     886.217E-06     45.6346E-03    -16.7111E+06    -71.8423E+06    -16.1979E+06     16.0528E+03    -15.6565E-03     31.2790E-03    -15.6225E-03     3.34169E-03    -15.6124E-03     30.9677E-03    -15.5750E-03     3.34134E-03
            1584     16.8324E-03     45.4749E-03    -4.28307E+06     158.909E+06     55.3428E+06     338.497E+03    -28.2598E-03     44.0317E-03    -15.7718E-03     269.569E-03    -36.3231E-03     52.4833E-03    -15.7193E-03     275.380E-03
            1585     15.9493E-03     45.2560E-03    -5.64571E+06     88.0086E+06    -10.4678E+06     609.235E+03    -22.7865E-03     38.3208E-03    -15.5343E-03     177.754E-03    -25.0019E-03     40.8589E-03    -15.7061E-03     178.432E-03
            1586     15.0608E-03     45.1393E-03    -5.73117E+06     21.4975E+06    -14.3685E+06     597.470E+03    -18.1291E-03     33.7293E-03    -15.6003E-03     96.2494E-03    -18.4345E-03     34.1324E-03    -15.6950E-03     96.2297E-03
            1587     14.1762E-03     45.0764E-03    -5.09624E+06    -19.3163E+06    -10.4167E+06     504.795E+03    -16.7233E-03     32.3938E-03    -15.6705E-03     61.0567E-03    -16.7804E-03     32.3945E-03    -15.6872E-03     61.0203E-03
            1588     13.2890E-03     45.0257E-03    -4.87259E+06    -33.6657E+06    -6.11398E+06     416.117E+03    -16.6923E-03     32.3943E-03    -15.7020E-03     56.4239E-03    -16.7022E-03     32.2852E-03    -15.6767E-03     56.3924E-03
            1589     12.4046E-03     44.9703E-03    -5.64749E+06    -37.6887E+06     317.189E+03     544.736E+03    -16.6805E-03     32.4055E-03    -15.7251E-03     54.1415E-03    -16.6823E-03     32.2527E-03    -15.6607E-03     54.1195E-03
            1590     11.5183E-03     44.9240E-03    -5.77993E+06    -47.6266E+06    -918.007E+03     786.473E+03    -16.4430E-03     32.1598E-03    -15.7168E-03     47.4446E-03    -16.4179E-03     31.9478E-03    -15.6440E-03     47.4330E-03
            1591     10.6327E-03     44.8813E-03    -6.01308E+06    -60.0283E+06    -2.01902E+06     876.095E+03    -16.2888E-03     32.0058E-03    -15.7170E-03     43.1586E-03    -16.2393E-03     31.7277E-03    -15.6313E-03     43.1535E-03
            1592     9.74640E-03     44.8434E-03    -6.65931E+06    -64.3774E+06     894.337E+03     678.146E+03    -16.1656E-03     31.8946E-03    -15.7290E-03     38.8942E-03    -16.1136E-03     31.5878E-03    -15.6215E-03     38.8907E-03
            1593     8.86068E-03     44.8084E-03    -7.37367E+06    -63.4395E+06     1.02188E+06     562.947E+03    -16.0842E-03     31.8034E-03    -15.7191E-03     34.6889E-03    -16.0349E-03     31.4997E-03    -15.6113E-03     34.6868E-03
            1594     7.97454E-03     44.7783E-03    -8.18261E+06    -63.1719E+06    -8.25052E+03     568.717E+03    -15.9871E-03     31.6909E-03    -15.7038E-03     30.6022E-03    -15.9393E-03     31.3898E-03    -15.6004E-03     30.6024E-03
            1595     7.08871E-03     44.7511E-03    -9.22627E+06    -63.4925E+06    -1.40945E+06     534.735E+03    -15.8847E-03     31.5742E-03    -15.6895E-03     26.7066E-03    -15.8386E-03     31.2741E-03    -15.5911E-03     26.7079E-03
            1596     6.20250E-03     44.7282E-03    -10.3047E+06    -63.8448E+06    -2.76892E+06     551.375E+03    -15.8096E-03     31.4873E-03    -15.6777E-03     22.9411E-03    -15.7658E-03     31.1883E-03    -15.5840E-03     22.9439E-03
            1597     5.31658E-03     44.7082E-03    -11.4611E+06    -64.6519E+06    -4.44431E+06     465.798E+03    -15.7643E-03     31.4292E-03    -15.6649E-03     19.3047E-03    -15.7223E-03     31.1299E-03    -15.5767E-03     19.3073E-03
            1598     4.43044E-03     44.6919E-03    -12.6381E+06    -65.8681E+06    -6.37013E+06     391.870E+03    -15.7014E-03     31.3536E-03    -15.6522E-03     15.8094E-03    -15.6604E-03     31.0524E-03    -15.5702E-03     15.8117E-03
            1599     3.54445E-03     44.6786E-03    -13.8207E+06    -67.3861E+06    -8.84182E+06     309.048E+03    -15.6532E-03     31.2939E-03    -15.6407E-03     12.4784E-03    -15.6121E-03     30.9902E-03    -15.5672E-03     12.4804E-03
            1600     2.65823E-03     44.6685E-03    -15.0331E+06    -69.0597E+06    -11.7201E+06     245.394E+03    -15.6425E-03     31.2703E-03    -15.6278E-03     9.29008E-03    -15.6007E-03     30.9640E-03    -15.5645E-03     9.29176E-03
            1601     1.77231E-03     44.6610E-03    -16.0797E+06    -70.6516E+06    -14.3755E+06     162.367E+03    -15.6292E-03     31.2408E-03    -15.6116E-03     6.22768E-03    -15.5864E-03     30.9318E-03    -15.5577E-03     6.22880E-03
            1602     885.991E-06     44.6569E-03    -16.7414E+06    -71.6705E+06    -16.2085E+06     10.2516E+03    -15.5915E-03     31.2007E-03    -15.6092E-03     3.27532E-03    -15.5478E-03     30.8903E-03    -15.5620E-03     3.27492E-03
            1603     16.8351E-03     44.4955E-03    -4.18427E+06     158.786E+06     55.5432E+06     364.122E+03    -28.4730E-03     44.2124E-03    -15.7394E-03     268.780E-03    -36.4659E-03     52.5931E-03    -15.6859E-03     274.521E-03
            1604     15.9466E-03     44.2775E-03    -5.64377E+06     87.5873E+06    -10.2691E+06     784.350E+03    -22.5672E-03     38.0669E-03    -15.4997E-03     177.867E-03    -24.7801E-03     40.6005E-03    -15.6699E-03     178.557E-03
            1605     15.0629E-03     44.1609E-03    -5.75201E+06     21.6492E+06    -13.9320E+06     618.994E+03    -18.0991E-03     33.6702E-03    -15.5711E-03     95.6961E-03    -18.4039E-03     34.0719E-03    -15.6638E-03     95.6764E-03
            1606     14.1756E-03     44.0978E-03    -5.10743E+06    -18.8050E+06    -10.1639E+06     431.660E+03    -16.7901E-03     32.4255E-03    -15.6354E-03     60.5220E-03    -16.8480E-03     32.4280E-03    -15.6515E-03     60.4846E-03
            1607     13.2916E-03     44.0469E-03    -4.83519E+06    -33.8116E+06    -6.25132E+06     524.768E+03    -16.7265E-03     32.3858E-03    -15.6593E-03     56.2344E-03    -16.7356E-03     32.2759E-03    -15.6346E-03     56.2042E-03
            1608     12.4044E-03     43.9920E-03    -5.03715E+06    -37.9192E+06     526.401E+03     703.951E+03    -16.5335E-03     32.2181E-03    -15.6845E-03     54.0514E-03    -16.5321E-03     32.0626E-03    -15.6196E-03     54.0319E-03
            1609     11.5189E-03     43.9454E-03    -5.66799E+06    -48.2096E+06    -1.18610E+06     676.387E+03    -16.3053E-03     31.9882E-03    -15.6829E-03     47.3623E-03    -16.2782E-03     31.7734E-03    -15.6108E-03     47.3496E-03
            1610     10.6326E-03     43.9033E-03    -5.90237E+06    -59.6979E+06    -1.76376E+06     804.565E+03    -16.2666E-03     31.9546E-03    -15.6881E-03     43.1126E-03    -16.2173E-03     31.6776E-03    -15.6018E-03     43.1066E-03
            1611     9.74700E-03     43.8647E-03    -6.37435E+06     -63.702E+06     1.34897E+06     808.838E+03    -16.1816E-03     31.8792E-03    -15.6977E-03     38.8087E-03    -16.1297E-03     31.5747E-03    -15.5893E-03     38.8069E-03
            1612     8.86083E-03     43.8305E-03    -7.46837E+06    -63.5373E+06     554.298E+03     607.723E+03    -16.0296E-03     31.7133E-03    -15.6836E-03     34.6649E-03    -15.9800E-03     31.4099E-03    -15.5779E-03     34.6635E-03
            1613     7.97496E-03     43.7997E-03    -8.30168E+06    -63.2713E+06    -346.717E+03     597.180E+03    -15.9344E-03     31.6056E-03    -15.6713E-03     30.6020E-03    -15.8865E-03     31.3047E-03    -15.5692E-03     30.6026E-03
            1614     7.08877E-03     43.7732E-03    -9.21950E+06    -63.3868E+06    -1.52529E+06     629.637E+03    -15.8594E-03     31.5178E-03    -15.6584E-03     26.6486E-03    -15.8133E-03     31.2184E-03    -15.5608E-03     26.6513E-03
            1615     6.20279E-03     43.7498E-03    -10.3423E+06    -63.7259E+06    -2.80503E+06     592.061E+03    -15.7981E-03     31.4432E-03    -15.6451E-03     22.8813E-03    -15.7546E-03     31.1449E-03    -15.5517E-03     22.8846E-03
            1616     5.31669E-03     43.7302E-03    -11.4951E+06    -64.4871E+06    -4.42639E+06     482.173E+03    -15.7305E-03     31.3613E-03    -15.6309E-03     19.2270E-03    -15.6889E-03     31.0628E-03    -15.5428E-03     19.2298E-03
            1617     4.43068E-03     43.7137E-03    -12.7283E+06    -65.7503E+06    -6.62167E+06     354.115E+03    -15.6609E-03     31.2784E-03    -15.6175E-03     15.7510E-03    -15.6201E-03     30.9782E-03    -15.5368E-03     15.7529E-03
            1618     3.54441E-03     43.7006E-03    -14.0159E+06    -67.2080E+06    -9.01566E+06     326.564E+03    -15.6373E-03     31.2418E-03    -15.6046E-03     12.4431E-03    -15.5972E-03     30.9395E-03    -15.5319E-03     12.4453E-03
            1619     2.65851E-03     43.6903E-03    -15.2138E+06    -68.8938E+06    -11.7686E+06     254.852E+03    -15.6173E-03     31.2042E-03    -15.5869E-03     9.25793E-03    -15.5766E-03     30.8990E-03    -15.5238E-03     9.25974E-03
            1620     1.77218E-03     43.6833E-03    -16.2223E+06    -70.5644E+06    -14.5427E+06     158.270E+03    -15.5783E-03     31.1478E-03    -15.5696E-03     6.17875E-03    -15.5360E-03     30.8397E-03    -15.5165E-03     6.17982E-03
            1621     886.277E-06     43.6785E-03    -16.6849E+06    -71.4869E+06    -16.4535E+06    -25.7197E+03    -15.5322E-03     31.1213E-03    -15.5891E-03     3.28026E-03    -15.4881E-03     30.8121E-03    -15.5435E-03     3.27941E-03
            1622     16.8341E-03     43.5192E-03    -4.79073E+06     158.165E+06     55.5743E+06     21.8612E+03    -28.9353E-03     44.6459E-03    -15.7106E-03     266.727E-03    -36.8236E-03     52.9175E-03    -15.6551E-03     272.376E-03
            1623     15.9498E-03     43.2978E-03    -6.42877E+06     87.2364E+06    -10.3674E+06     569.316E+03    -22.5739E-03     38.0215E-03    -15.4476E-03     176.712E-03    -24.7586E-03     40.5232E-03    -15.6166E-03     177.375E-03
            1624     15.0624E-03     43.1829E-03    -5.63302E+06     22.2583E+06    -13.8601E+06     608.185E+03    -17.9012E-03     33.4179E-03    -15.5168E-03     95.6573E-03    -18.2053E-03     33.8213E-03    -15.6102E-03     95.6409E-03
            1625     14.1778E-03     43.1189E-03    -4.81605E+06    -18.5305E+06    -10.0975E+06     599.616E+03    -16.7429E-03     32.3282E-03    -15.5853E-03     60.6090E-03    -16.7995E-03     32.3313E-03    -15.6020E-03     60.5739E-03
            1626     13.2902E-03     43.0687E-03    -4.81223E+06    -34.2329E+06    -6.44527E+06     678.180E+03    -16.5009E-03     32.1166E-03    -15.6156E-03     56.2595E-03    -16.5085E-03     32.0042E-03    -15.5912E-03     56.2321E-03
            1627     12.4056E-03     43.0134E-03    -4.99932E+06    -38.1414E+06     374.281E+03     763.843E+03    -16.4143E-03     32.0644E-03    -15.6501E-03     54.1684E-03    -16.4119E-03     31.9078E-03    -15.5856E-03     54.1500E-03
            1628     11.5190E-03     42.9676E-03    -5.24824E+06    -47.9057E+06    -984.845E+03     788.337E+03    -16.2939E-03     31.9453E-03    -15.6514E-03     47.3620E-03    -16.2654E-03     31.7309E-03    -15.5793E-03     47.3508E-03
            1629     10.6333E-03     42.9247E-03    -5.90098E+06    -59.9129E+06    -2.08472E+06     873.308E+03    -16.2222E-03     31.8773E-03    -15.6552E-03     43.1239E-03    -16.1720E-03     31.5996E-03    -15.5701E-03     43.1190E-03
            1630     9.74711E-03     42.8866E-03    -6.47829E+06    -63.6368E+06     1.27643E+06     931.982E+03    -16.1208E-03     31.7886E-03    -15.6677E-03     38.8434E-03    -16.0694E-03     31.4845E-03    -15.5597E-03     38.8433E-03
            1631     8.86125E-03     42.8522E-03    -7.17949E+06    -62.9703E+06     770.984E+03     857.709E+03    -16.0195E-03     31.6738E-03    -15.6544E-03     34.6607E-03    -15.9694E-03     31.3725E-03    -15.5488E-03     34.6626E-03
            1632     7.97500E-03     42.8217E-03    -8.37099E+06    -63.4199E+06    -889.648E+03     678.300E+03    -15.9192E-03     31.5572E-03    -15.6379E-03     30.5655E-03    -15.8706E-03     31.2563E-03    -15.5383E-03     30.5673E-03
            1633     7.08909E-03     42.7949E-03    -9.28525E+06    -63.2951E+06    -1.58254E+06     644.678E+03    -15.8649E-03     31.4886E-03    -15.6238E-03     26.5747E-03    -15.8191E-03     31.1898E-03    -15.5264E-03     26.5776E-03
            1634     6.20302E-03     42.7718E-03    -10.3284E+06    -63.5203E+06    -2.80163E+06     656.116E+03    -15.7739E-03     31.3808E-03    -15.6068E-03     22.7906E-03    -15.7307E-03     31.0834E-03    -15.5137E-03     22.7948E-03
            1635     5.31696E-03     42.7520E-03    -11.4448E+06    -64.3433E+06    -4.54127E+06     493.967E+03    -15.6807E-03     31.2725E-03    -15.5918E-03     19.1551E-03    -15.6388E-03     30.9748E-03    -15.5047E-03     19.1581E-03
            1636     4.43070E-03     42.7359E-03    -12.7083E+06    -65.4964E+06    -6.55914E+06     427.172E+03    -15.6447E-03     31.2224E-03    -15.5777E-03     15.6828E-03    -15.6043E-03     30.9234E-03    -15.4971E-03     15.6856E-03
            1637     3.54479E-03     42.7224E-03    -14.0896E+06    -67.1302E+06    -9.14590E+06     397.601E+03    -15.6019E-03     31.1626E-03    -15.5607E-03     12.3828E-03    -15.5620E-03     30.8609E-03    -15.4887E-03     12.3859E-03
            1638     2.65840E-03     42.7126E-03    -15.2742E+06    -68.8522E+06    -11.8976E+06     263.911E+03    -15.5636E-03     31.1075E-03    -15.5438E-03     9.21210E-03    -15.5231E-03     30.8028E-03    -15.4813E-03     9.21405E-03
            1639     1.77251E-03     42.7050E-03    -16.2125E+06    -70.3165E+06    -14.5122E+06     124.552E+03    -15.5257E-03     31.0583E-03    -15.5326E-03     6.14479E-03    -15.4838E-03     30.7514E-03    -15.4797E-03     6.14542E-03
            1640     886.017E-06     42.7012E-03    -17.0223E+06    -71.4410E+06    -16.6223E+06     167.086E+03    -15.5241E-03     31.0535E-03    -15.5294E-03     3.32581E-03    -15.4815E-03     30.7453E-03    -15.4842E-03     3.32745E-03
            1641     16.8353E-03     42.5339E-03    -5.15435E+06     157.564E+06     55.7051E+06    -323.537E+03    -29.2622E-03     44.9225E-03    -15.6604E-03     263.608E-03    -37.0186E-03     53.0586E-03    -15.6028E-03     269.134E-03
            1642     15.9506E-03     42.3231E-03    -5.34820E+06     87.4455E+06    -9.32036E+06     420.180E+03    -22.3100E-03     37.6929E-03    -15.3829E-03     175.755E-03    -24.4525E-03     40.1538E-03    -15.5485E-03     176.422E-03
            1643     15.0639E-03     42.2034E-03    -4.13044E+06     22.5458E+06    -12.9641E+06     816.710E+03    -17.5636E-03     33.0262E-03    -15.4626E-03     96.4349E-03    -17.8624E-03     33.4280E-03    -15.5541E-03     96.4226E-03
            1644     14.1772E-03     42.1410E-03    -4.68399E+06    -18.6163E+06    -10.0572E+06     837.568E+03    -16.4322E-03     31.9802E-03    -15.5480E-03     60.7795E-03    -16.4872E-03     31.9817E-03    -15.5645E-03     60.7488E-03
            1645     13.2926E-03     42.0903E-03    -5.02619E+06    -34.5678E+06    -6.93139E+06     842.245E+03    -16.3870E-03     31.9755E-03    -15.5885E-03     56.5562E-03    -16.3943E-03     31.8623E-03    -15.5657E-03     56.5314E-03
            1646     12.4049E-03     42.0356E-03    -5.01504E+06    -38.1645E+06     49.4001E+03     866.002E+03    -16.3727E-03     32.0000E-03    -15.6273E-03     54.4342E-03    -16.3698E-03     31.8436E-03    -15.5644E-03     54.4174E-03
            1647     11.5196E-03     41.9887E-03    -5.49435E+06    -47.7041E+06    -1.23871E+06     932.056E+03    -16.3037E-03     31.9326E-03    -15.6289E-03     47.5623E-03    -16.2763E-03     31.7200E-03    -15.5580E-03     47.5530E-03
            1648     10.6334E-03     41.9470E-03    -5.79977E+06    -59.6464E+06    -2.18187E+06     1.03228E+06    -16.2262E-03     31.8570E-03    -15.6308E-03     43.2580E-03    -16.1757E-03     31.5805E-03    -15.5468E-03     43.2552E-03
            1649     9.74736E-03     41.9082E-03    -6.42989E+06    -63.7044E+06     917.152E+03     957.286E+03    -16.1202E-03     31.7608E-03    -15.6406E-03     38.8625E-03    -16.0678E-03     31.4568E-03    -15.5343E-03     38.8628E-03
            1650     8.86128E-03     41.8741E-03    -7.19845E+06    -62.7383E+06     873.017E+03     928.544E+03    -16.0435E-03     31.6688E-03    -15.6253E-03     34.5426E-03    -15.9940E-03     31.3686E-03    -15.5196E-03     34.5455E-03
            1651     7.97549E-03     41.8435E-03    -8.14561E+06    -62.8665E+06    -458.299E+03     902.493E+03    -15.9510E-03     31.5541E-03    -15.6031E-03     30.4565E-03    -15.9027E-03     31.2550E-03    -15.5024E-03     30.4612E-03
            1652     7.08931E-03     41.8168E-03    -9.42602E+06    -63.3756E+06    -1.94739E+06     737.640E+03    -15.8332E-03     31.4151E-03    -15.5819E-03     26.4921E-03    -15.7875E-03     31.1166E-03    -15.4861E-03     26.4962E-03
            1653     6.20332E-03     41.7936E-03    -10.3376E+06    -63.4313E+06    -2.95032E+06     619.189E+03    -15.7373E-03     31.3018E-03    -15.5645E-03     22.6903E-03    -15.6939E-03     31.0051E-03    -15.4723E-03     22.6940E-03
            1654     5.31707E-03     41.7743E-03    -11.4898E+06    -64.2251E+06    -4.63922E+06     620.665E+03    -15.6638E-03     31.2108E-03    -15.5470E-03     19.0732E-03    -15.6222E-03     30.9139E-03    -15.4604E-03     19.0779E-03
            1655     4.43112E-03     41.7576E-03    -12.8271E+06    -65.4183E+06    -6.68816E+06     547.956E+03    -15.6018E-03     31.1318E-03    -15.5301E-03     15.6230E-03    -15.5619E-03     30.8336E-03    -15.4500E-03     15.6275E-03
            1656     3.54472E-03     41.7449E-03    -14.0427E+06    -66.8511E+06    -9.10680E+06     465.287E+03    -15.5585E-03     31.0706E-03    -15.5122E-03     12.3237E-03    -15.5189E-03     30.7702E-03    -15.4404E-03     12.3278E-03
            1657     2.65879E-03     41.7343E-03    -15.2930E+06    -68.7083E+06    -12.1444E+06     310.419E+03    -15.4975E-03     30.9944E-03    -15.4968E-03     9.14619E-03    -15.4569E-03     30.6908E-03    -15.4357E-03     9.14876E-03
            1658     1.77225E-03     41.7277E-03    -16.3184E+06    -70.1666E+06    -14.6579E+06     184.111E+03    -15.4884E-03     30.9761E-03    -15.4877E-03     6.11779E-03    -15.4471E-03     30.6703E-03    -15.4356E-03     6.11921E-03
            1659     886.333E-06     41.7227E-03    -17.1161E+06    -71.1225E+06    -16.3775E+06     187.392E+03    -15.4973E-03     30.9612E-03    -15.4638E-03     3.26146E-03    -15.4560E-03     30.6543E-03    -15.4178E-03     3.26337E-03
            1660     16.8385E-03     41.5588E-03    -5.06292E+06     157.192E+06     55.7769E+06    -813.305E+03    -28.9452E-03     44.6062E-03    -15.6610E-03     263.067E-03    -36.5931E-03     52.6325E-03    -15.6027E-03     268.552E-03
            1661     15.9503E-03     41.3426E-03    -5.72722E+06     88.0948E+06    -9.02283E+06     411.770E+03    -22.7320E-03     38.1144E-03    -15.3824E-03     177.034E-03    -24.9026E-03     40.6036E-03    -15.5469E-03     177.700E-03
            1662     15.0650E-03     41.2274E-03    -5.22448E+06     22.0225E+06    -13.8993E+06     1.07747E+06    -17.8499E-03     33.2918E-03    -15.4419E-03     96.8872E-03    -18.1509E-03     33.6927E-03    -15.5357E-03     96.8737E-03
            1663     14.1781E-03     41.1622E-03    -4.26594E+06    -18.7763E+06    -9.92977E+06     1.11907E+06    -16.0804E-03     31.6132E-03    -15.5327E-03     61.5482E-03    -16.1330E-03     31.6128E-03    -15.5490E-03     61.5227E-03
            1664     13.2906E-03     41.1126E-03    -4.73661E+06    -34.0972E+06    -6.61764E+06     908.823E+03    -16.3964E-03     31.9811E-03    -15.5847E-03     56.9681E-03    -16.4035E-03     31.8696E-03    -15.5615E-03     56.9441E-03
            1665     12.4061E-03     41.0569E-03    -5.19317E+06    -38.1678E+06    -271.330E+03     967.139E+03    -16.4622E-03     32.0805E-03    -15.6184E-03     54.6070E-03    -16.4598E-03     31.9250E-03    -15.5568E-03     54.5913E-03
            1666     11.5193E-03     41.0110E-03    -5.38635E+06    -47.9567E+06    -1.48769E+06     1.00032E+06    -16.3056E-03     31.9223E-03    -15.6167E-03     47.6427E-03    -16.2768E-03     31.7085E-03    -15.5468E-03     47.6345E-03
            1667     10.6335E-03     40.9683E-03    -5.83742E+06    -59.5250E+06    -2.12098E+06     1.01292E+06    -16.3402E-03     31.9540E-03    -15.6138E-03     43.1888E-03    -16.2902E-03     31.6782E-03    -15.5297E-03     43.1857E-03
            1668     9.74774E-03     40.9303E-03    -6.42119E+06    -63.2537E+06     1.02048E+06     1.10593E+06    -16.2134E-03     31.8254E-03    -15.6120E-03     38.7005E-03    -16.1618E-03     31.5235E-03    -15.5059E-03     38.7027E-03
            1669     8.86178E-03     40.8957E-03    -7.37861E+06    -62.8040E+06     541.759E+03     1.02277E+06    -16.0497E-03     31.6374E-03    -15.5877E-03     34.4474E-03    -16.0005E-03     31.3375E-03    -15.4832E-03     34.4515E-03
            1670     7.97564E-03     40.8655E-03    -8.25419E+06    -62.7352E+06    -552.572E+03     1.06444E+06    -15.9381E-03     31.5005E-03    -15.5624E-03     30.3503E-03    -15.8904E-03     31.2024E-03    -15.4622E-03     30.3571E-03
            1671     7.08978E-03     40.8387E-03    -9.19122E+06    -62.9195E+06    -1.76477E+06     976.110E+03    -15.8154E-03     31.3537E-03    -15.5383E-03     26.4004E-03    -15.7694E-03     31.0568E-03    -15.4426E-03     26.4077E-03
            1672     6.20344E-03     40.8159E-03    -10.4806E+06    -63.4497E+06    -3.28684E+06     723.296E+03    -15.7209E-03     31.2365E-03    -15.5156E-03     22.5835E-03    -15.6777E-03     30.9404E-03    -15.4249E-03     22.5887E-03
            1673     5.31756E-03     40.7960E-03    -11.6714E+06    -64.1022E+06    -4.78751E+06     685.758E+03    -15.6343E-03     31.1289E-03    -15.4946E-03     18.9510E-03    -15.5936E-03     30.8330E-03    -15.4086E-03     18.9565E-03
            1674     4.43111E-03     40.7802E-03    -12.8746E+06    -65.2165E+06    -6.82583E+06     690.489E+03    -15.5541E-03     31.0286E-03    -15.4745E-03     15.5344E-03    -15.5145E-03     30.7315E-03    -15.3954E-03     15.5407E-03
            1675     3.54515E-03     40.7665E-03    -14.1851E+06    -66.7083E+06    -9.38490E+06     492.350E+03    -15.4951E-03     30.9514E-03    -15.4563E-03     12.2328E-03    -15.4560E-03     30.6523E-03    -15.3859E-03     12.2372E-03
            1676     2.65866E-03     40.7571E-03    -15.2969E+06    -68.3151E+06    -12.0429E+06     366.046E+03    -15.4704E-03     30.9081E-03    -15.4378E-03     9.05064E-03    -15.4305E-03     30.6064E-03    -15.3767E-03     9.05393E-03
            1677     1.77266E-03     40.7494E-03    -16.3200E+06    -69.8894E+06    -14.6901E+06     286.901E+03    -15.4403E-03     30.8572E-03    -15.4170E-03     6.04858E-03    -15.3993E-03     30.5528E-03    -15.3654E-03     6.05135E-03
            1678     886.239E-06     40.7455E-03    -16.8370E+06    -70.8468E+06    -16.7050E+06    -20.0389E+03    -15.3548E-03     30.8085E-03    -15.4536E-03     3.22266E-03    -15.3120E-03     30.5031E-03    -15.4100E-03     3.22188E-03
            1679     16.8313E-03     40.5777E-03    -5.52789E+06     156.160E+06     54.2365E+06    -637.790E+03    -28.7057E-03     44.4721E-03    -15.7664E-03     264.806E-03    -36.4570E-03     52.6011E-03    -15.7136E-03     270.451E-03
            1680     15.9488E-03     40.3628E-03    -7.73673E+06     86.4706E+06    -11.1866E+06     81.5492E+03    -24.1480E-03     39.6110E-03    -15.4630E-03     175.583E-03    -26.3055E-03     42.0806E-03    -15.6331E-03     176.149E-03
            1681     15.0638E-03     40.2482E-03    -6.80967E+06     22.2177E+06    -14.9705E+06     639.588E+03    -18.0902E-03     33.5683E-03    -15.4781E-03     96.6927E-03    -18.3951E-03     33.9713E-03    -15.5753E-03     96.6731E-03
            1682     14.1775E-03     40.1860E-03    -5.55663E+06    -18.7359E+06    -10.9207E+06     689.738E+03    -16.5516E-03     32.1005E-03    -15.5490E-03     62.3776E-03    -16.6108E-03     32.1052E-03    -15.5683E-03     62.3448E-03
            1683     13.2921E-03     40.1334E-03    -4.51350E+06    -34.0772E+06    -6.76058E+06     991.839E+03    -16.5541E-03     32.1386E-03    -15.5845E-03     57.1439E-03    -16.5601E-03     32.0272E-03    -15.5623E-03     57.1206E-03
            1684     12.4051E-03     40.0791E-03    -4.91288E+06    -37.8101E+06    -105.094E+03     1.15312E+06    -16.5633E-03     32.1731E-03    -15.6098E-03     54.2883E-03    -16.5600E-03     32.0185E-03    -15.5484E-03     54.2749E-03
            1685     11.5198E-03     40.0325E-03    -5.59875E+06    -47.9143E+06    -1.83332E+06     1.14920E+06    -16.4595E-03     32.0552E-03    -15.5957E-03     47.4692E-03    -16.4313E-03     31.8424E-03    -15.5273E-03     47.4628E-03
            1686     10.6339E-03     39.9901E-03    -6.07668E+06    -59.9421E+06    -2.66213E+06     1.10626E+06    -16.3757E-03     31.9586E-03    -15.5828E-03     42.9062E-03    -16.3255E-03     31.6817E-03    -15.5004E-03     42.9043E-03
            1687     9.74798E-03     39.9518E-03    -6.58146E+06    -63.1332E+06     805.196E+03     1.27658E+06    -16.2176E-03     31.7944E-03    -15.5769E-03     38.5313E-03    -16.1666E-03     31.4936E-03    -15.4718E-03     38.5357E-03
            1688     8.86205E-03     39.9179E-03    -7.39015E+06    -62.5986E+06     363.949E+03     1.27428E+06    -16.0660E-03     31.6136E-03    -15.5476E-03     34.3588E-03    -16.0169E-03     31.3150E-03    -15.4443E-03     34.3662E-03
            1689     7.97616E-03     39.8872E-03    -8.40794E+06    -62.6895E+06    -988.429E+03     1.13259E+06    -15.9218E-03     31.4388E-03    -15.5170E-03     30.2422E-03    -15.8742E-03     31.1417E-03    -15.4188E-03     30.2499E-03
            1690     7.08983E-03     39.8610E-03      -9.259E+06    -62.7019E+06    -1.80201E+06     1.06586E+06    -15.8282E-03     31.3170E-03    -15.4889E-03     26.2420E-03    -15.7827E-03     31.0214E-03    -15.3936E-03     26.2504E-03
            1691     6.20409E-03     39.8376E-03    -10.3610E+06    -63.0188E+06    -3.15747E+06     1.02753E+06    -15.7042E-03     31.1636E-03    -15.4595E-03     22.4294E-03    -15.6612E-03     30.8693E-03    -15.3689E-03     22.4386E-03
            1692     5.31758E-03     39.8186E-03    -11.7276E+06    -63.9245E+06    -4.98908E+06     828.593E+03    -15.5998E-03     31.0319E-03    -15.4321E-03     18.8211E-03    -15.5593E-03     30.7373E-03    -15.3473E-03     18.8285E-03
            1693     4.43170E-03     39.8019E-03    -12.9949E+06    -65.0209E+06    -6.95574E+06     697.112E+03    -15.5114E-03     30.9189E-03    -15.4075E-03     15.3781E-03    -15.4725E-03     30.6232E-03    -15.3292E-03     15.3845E-03
            1694     3.54513E-03     39.7895E-03    -14.2009E+06    -66.4163E+06    -9.44632E+06     556.477E+03    -15.4378E-03     30.8228E-03    -15.3850E-03     12.1154E-03    -15.3991E-03     30.5253E-03    -15.3154E-03     12.1206E-03
            1695     2.65908E-03     39.7788E-03    -15.4361E+06    -68.0893E+06    -12.0699E+06     393.509E+03    -15.4129E-03     30.7748E-03    -15.3619E-03     8.98380E-03    -15.3740E-03     30.4744E-03    -15.3011E-03     8.98746E-03
            1696     1.77269E-03     39.7723E-03    -16.3980E+06    -69.5889E+06    -14.7056E+06     306.107E+03    -15.3594E-03     30.6975E-03    -15.3380E-03     5.97260E-03    -15.3192E-03     30.3947E-03    -15.2869E-03     5.97563E-03
            1697     886.323E-06     39.7675E-03    -16.9524E+06    -70.5415E+06    -16.8015E+06     164.586E+03    -15.2975E-03     30.6503E-03    -15.3528E-03     3.18244E-03    -15.2556E-03     30.3468E-03    -15.3099E-03     3.18406E-03
            1698     16.8286E-03     39.5866E-03    -4.29555E+06     156.553E+06     54.4333E+06     728.638E+03    -28.3912E-03     44.1763E-03    -15.7851E-03     264.203E-03    -36.3402E-03     52.5082E-03    -15.7337E-03     269.979E-03
            1699     15.9495E-03     39.3844E-03    -6.76024E+06     85.3053E+06    -11.5426E+06     84.7986E+03    -23.3059E-03     38.8054E-03    -15.4995E-03     169.488E-03    -25.3233E-03     41.1351E-03    -15.6711E-03     170.040E-03
            1700     15.0620E-03     39.2701E-03    -6.51046E+06     21.8219E+06    -15.1292E+06    -172.146E+03    -18.0657E-03     33.5914E-03    -15.5258E-03     96.0480E-03    -18.3659E-03     33.9899E-03    -15.6236E-03     96.0185E-03
            1701     14.1770E-03     39.2064E-03    -6.41668E+06    -19.0939E+06    -11.7242E+06     231.700E+03    -17.1990E-03     32.7755E-03    -15.5764E-03     62.1088E-03    -17.2625E-03     32.7823E-03    -15.5981E-03     62.0676E-03
            1702     13.2912E-03     39.1555E-03    -5.86738E+06    -34.5386E+06    -7.84872E+06     755.481E+03    -16.9990E-03     32.5754E-03    -15.5763E-03     56.8364E-03    -17.0099E-03     32.4655E-03    -15.5570E-03     56.8088E-03
            1703     12.4062E-03     39.1006E-03    -5.27049E+06    -37.4776E+06    -221.848E+03     1.22830E+06    -16.7138E-03     32.2955E-03    -15.5818E-03     53.9874E-03    -16.7125E-03     32.1431E-03    -15.5209E-03     53.9748E-03
            1704     11.5200E-03     39.0539E-03    -5.76108E+06    -47.5830E+06    -1.98846E+06     1.45815E+06    -16.4838E-03     32.0416E-03    -15.5577E-03     47.1268E-03    -16.4566E-03     31.8307E-03    -15.4903E-03     47.1243E-03
            1705     10.6345E-03     39.0118E-03    -6.28811E+06    -59.8315E+06    -3.34862E+06     1.31303E+06    -16.3140E-03     31.8547E-03    -15.5407E-03     42.8359E-03    -16.2638E-03     31.5796E-03    -15.4616E-03     42.8369E-03
            1706     9.74832E-03     38.9738E-03    -6.72662E+06    -63.4162E+06     254.375E+03     1.30888E+06    -16.2091E-03     31.7444E-03    -15.5354E-03     38.4188E-03    -16.1575E-03     31.4432E-03    -15.4324E-03     38.4237E-03
            1707     8.86249E-03     38.9394E-03    -7.40273E+06    -62.3678E+06     304.342E+03     1.38954E+06    -16.0787E-03     31.5818E-03    -15.5031E-03     34.1228E-03    -16.0299E-03     31.2844E-03    -15.4004E-03     34.1317E-03
            1708     7.97631E-03     38.9096E-03    -8.36263E+06    -62.2974E+06    -882.140E+03     1.31002E+06    -15.9555E-03     31.4205E-03    -15.4650E-03     30.0538E-03    -15.9084E-03     31.1251E-03    -15.3669E-03     30.0639E-03
            1709     7.09063E-03     38.8826E-03    -9.49208E+06    -62.6820E+06    -2.16314E+06     1.13520E+06    -15.8106E-03     31.2384E-03    -15.4277E-03     26.0435E-03    -15.7659E-03     30.9436E-03    -15.3339E-03     26.0528E-03
            1710     6.20412E-03     38.8603E-03    -10.4413E+06    -62.7842E+06    -3.13867E+06     1.13311E+06    -15.6836E-03     31.0770E-03    -15.3933E-03     22.2409E-03    -15.6414E-03     30.7839E-03    -15.3029E-03     22.2514E-03
            1711     5.31832E-03     38.8404E-03    -11.5924E+06    -63.4908E+06    -4.85103E+06     1.07216E+06    -15.5688E-03     30.9276E-03    -15.3588E-03     18.6470E-03    -15.5285E-03     30.6348E-03    -15.2742E-03     18.6576E-03
            1712     4.43174E-03     38.8248E-03    -12.9647E+06    -64.7223E+06    -6.97939E+06     749.567E+03    -15.4629E-03     30.7897E-03    -15.3268E-03     15.2161E-03    -15.4242E-03     30.4955E-03    -15.2491E-03     15.2232E-03
            1713     3.54572E-03     38.8113E-03    -14.3187E+06    -66.0927E+06    -9.40283E+06     649.052E+03    -15.3760E-03     30.6742E-03    -15.2982E-03     11.9963E-03    -15.3384E-03     30.3784E-03    -15.2286E-03     12.0027E-03
            1714     2.65918E-03     38.8019E-03    -15.5912E+06    -67.8891E+06    -12.4086E+06     507.781E+03    -15.2955E-03     30.5708E-03    -15.2753E-03     8.91520E-03    -15.2572E-03     30.2721E-03    -15.2163E-03     8.92035E-03
            1715     1.77279E-03     38.7943E-03    -16.6002E+06    -69.2872E+06    -14.8965E+06     264.183E+03    -15.2828E-03     30.5387E-03    -15.2559E-03     5.90189E-03    -15.2438E-03     30.2380E-03    -15.2059E-03     5.90438E-03
            1716     886.497E-06     38.7907E-03    -17.4515E+06    -70.2291E+06    -16.7296E+06     386.770E+03    -15.2689E-03     30.4830E-03    -15.2140E-03     3.17546E-03    -15.2300E-03     30.1816E-03    -15.1705E-03     3.17999E-03
            1717     16.8395E-03     38.6098E-03    -4.13873E+06     156.480E+06     55.3645E+06     738.014E+03    -28.6324E-03     44.3575E-03    -15.7251E-03     267.395E-03    -36.7864E-03     52.8917E-03    -15.6691E-03     273.124E-03
            1718     15.9476E-03     38.4049E-03    -5.01478E+06     86.5527E+06    -9.76879E+06     1.03144E+06    -21.8998E-03     37.3786E-03    -15.4788E-03     168.532E-03    -23.8494E-03     39.6458E-03    -15.6459E-03     169.127E-03
            1719     15.0630E-03     38.2927E-03    -5.83226E+06     21.9687E+06    -14.8442E+06     352.684E+03    -18.4693E-03     33.9939E-03    -15.5246E-03     95.4677E-03    -18.7688E-03     34.3938E-03    -15.6223E-03     95.4418E-03
            1720     14.1767E-03     38.2263E-03    -6.29914E+06    -19.8832E+06    -11.9584E+06     212.649E+03    -17.1879E-03     32.7492E-03    -15.5614E-03     60.8533E-03    -17.2478E-03     32.7509E-03    -15.5832E-03     60.8115E-03
            1721     13.2923E-03     38.1771E-03    -6.10863E+06    -34.9708E+06    -8.32539E+06     622.250E+03    -17.0420E-03     32.5983E-03    -15.5563E-03     56.4383E-03    -17.0526E-03     32.4872E-03    -15.5384E-03     56.4089E-03
            1722     12.4063E-03     38.1215E-03    -5.94597E+06    -38.2525E+06    -996.898E+03     1.09923E+06    -16.8950E-03     32.4464E-03    -15.5514E-03     53.9147E-03    -16.8951E-03     32.2926E-03    -15.4923E-03     53.9000E-03
            1723     11.5210E-03     38.0760E-03    -5.94919E+06    -47.5283E+06    -2.18248E+06     1.55727E+06    -16.4253E-03     31.9471E-03    -15.5217E-03     47.1726E-03    -16.3986E-03     31.7368E-03    -15.4551E-03     47.1717E-03
            1724     10.6344E-03     38.0336E-03    -6.21206E+06    -59.3046E+06    -3.44954E+06     1.49844E+06    -16.3732E-03     31.8742E-03    -15.5010E-03     42.8522E-03    -16.3232E-03     31.6016E-03    -15.4232E-03     42.8556E-03
            1725     9.74896E-03     37.9953E-03    -6.83924E+06    -63.5024E+06    -50.9289E+03     1.34041E+06    -16.2575E-03     31.7447E-03    -15.4872E-03     38.1929E-03    -16.2059E-03     31.4435E-03    -15.3854E-03     38.1983E-03
            1726     8.86281E-03     37.9617E-03    -7.60108E+06    -62.2472E+06     91.2870E+03     1.45580E+06    -16.0999E-03     31.5465E-03    -15.4466E-03     33.9377E-03    -16.0519E-03     31.2503E-03    -15.3449E-03     33.9475E-03
            1727     7.97718E-03     37.9311E-03    -8.39164E+06    -62.1494E+06    -982.698E+03     1.42692E+06    -15.9600E-03     31.3607E-03    -15.4007E-03     29.8195E-03    -15.9131E-03     31.0663E-03    -15.3034E-03     29.8311E-03
            1728     7.09072E-03     37.9053E-03    -9.30189E+06    -62.2268E+06    -1.98634E+06     1.39347E+06    -15.7997E-03     31.1559E-03    -15.3561E-03     25.8110E-03    -15.7549E-03     30.8629E-03    -15.2623E-03     25.8238E-03
            1729     6.20499E-03     37.8820E-03    -10.5738E+06    -62.6659E+06    -3.32901E+06     1.18995E+06    -15.6554E-03     30.9684E-03    -15.3130E-03     22.0220E-03    -15.6137E-03     30.6764E-03    -15.2235E-03     22.0333E-03
            1730     5.31843E-03     37.8633E-03    -11.6497E+06    -63.1255E+06    -4.71757E+06     1.09373E+06    -15.5163E-03     30.7890E-03    -15.2727E-03     18.4290E-03    -15.4770E-03     30.4979E-03    -15.1878E-03     18.4399E-03
            1731     4.43245E-03     37.8468E-03    -12.9241E+06    -64.2411E+06    -6.88838E+06     1.02888E+06    -15.3924E-03     30.6272E-03    -15.2348E-03     15.0578E-03    -15.3544E-03     30.3352E-03    -15.1573E-03     15.0686E-03
            1732     3.54584E-03     37.8344E-03    -14.4023E+06    -65.8483E+06    -9.57230E+06     786.071E+03    -15.2907E-03     30.4922E-03    -15.2015E-03     11.8637E-03    -15.2536E-03     30.1981E-03    -15.1330E-03     11.8720E-03
            1733     2.65951E-03     37.8241E-03    -15.5795E+06    -67.3416E+06    -12.2785E+06     602.442E+03    -15.2150E-03     30.3895E-03    -15.1745E-03     8.78111E-03    -15.1776E-03     30.0934E-03    -15.1157E-03     8.78751E-03
            1734     1.77301E-03     37.8175E-03    -16.7817E+06    -68.9777E+06    -15.1071E+06     368.963E+03    -15.1713E-03     30.3238E-03    -15.1524E-03     5.83739E-03    -15.1334E-03     30.0252E-03    -15.1036E-03     5.84125E-03
            1735     886.487E-06     37.8128E-03    -17.8065E+06    -70.0878E+06    -17.0553E+06     152.798E+03    -15.1512E-03     30.2794E-03    -15.1283E-03     3.01684E-03    -15.1138E-03     29.9797E-03    -15.0861E-03     3.01836E-03
            1736     16.8297E-03     37.6253E-03    -4.78834E+06     155.591E+06     54.6565E+06     236.670E+03    -28.9603E-03     44.7041E-03    -15.7438E-03     268.301E-03    -37.2020E-03     53.3226E-03    -15.6892E-03     274.057E-03
            1737     15.9493E-03     37.4305E-03    -6.26615E+06     86.6691E+06    -10.1748E+06     1.08855E+06    -22.8316E-03     38.2979E-03    -15.4663E-03     167.810E-03    -24.7602E-03     40.5413E-03    -15.6337E-03     168.360E-03
            1738     15.0628E-03     37.3092E-03    -5.95376E+06     22.5569E+06    -14.6545E+06     1.23970E+06    -18.4859E-03     33.9688E-03    -15.4828E-03     95.0006E-03    -18.7876E-03     34.3719E-03    -15.5802E-03     94.9842E-03
            1739     14.1794E-03     37.2508E-03    -5.89086E+06    -19.9415E+06    -12.2439E+06     350.749E+03    -16.8944E-03     32.4179E-03    -15.5235E-03     61.0148E-03    -16.9506E-03     32.4179E-03    -15.5472E-03     60.9759E-03
            1740     13.2911E-03     37.1969E-03    -5.28688E+06    -35.2425E+06    -8.53715E+06     767.258E+03    -16.9372E-03     32.4671E-03    -15.5299E-03     56.8292E-03    -16.9432E-03     32.3539E-03    -15.5138E-03     56.8019E-03
            1741     12.4070E-03     37.1434E-03    -5.49223E+06    -39.3674E+06    -1.55452E+06     1.10621E+06    -16.8247E-03     32.3543E-03    -15.5296E-03     53.4257E-03    -16.8197E-03     32.1945E-03    -15.4723E-03     53.4113E-03
            1742     11.5203E-03     37.0978E-03    -6.11933E+06    -47.8628E+06    -2.54269E+06     1.38706E+06    -16.6336E-03     32.1266E-03    -15.4929E-03     47.0612E-03    -16.6069E-03     31.9155E-03    -15.4274E-03     47.0578E-03
            1743     10.6355E-03     37.0550E-03    -6.37027E+06    -59.1849E+06    -3.49370E+06     1.64746E+06    -16.5091E-03     31.9653E-03    -15.4561E-03     42.5826E-03    -16.4600E-03     31.6936E-03    -15.3786E-03     42.5879E-03
            1744     9.74923E-03     37.0176E-03    -6.97568E+06    -63.3772E+06    -496.564E+03     1.51140E+06    -16.2911E-03     31.7193E-03    -15.4281E-03     37.9510E-03    -16.2397E-03     31.4195E-03    -15.3286E-03     37.9586E-03
            1745     8.86368E-03     36.9832E-03    -7.69668E+06    -62.1296E+06    -195.346E+03     1.47225E+06    -16.1374E-03     31.5160E-03    -15.3786E-03     33.7319E-03    -16.0896E-03     31.2209E-03    -15.2783E-03     33.7420E-03
            1746     7.97735E-03     36.9537E-03     -8.4631E+06    -62.0042E+06    -1.16567E+06     1.44859E+06    -15.9651E-03     31.2881E-03    -15.3230E-03     29.5136E-03    -15.9185E-03     30.9947E-03    -15.2266E-03     29.5256E-03
            1747     7.09175E-03     36.9270E-03    -9.40513E+06    -62.0524E+06    -2.11850E+06     1.47275E+06    -15.7790E-03     31.0484E-03    -15.2694E-03     25.5260E-03    -15.7347E-03     30.7566E-03    -15.1764E-03     25.5398E-03
            1748     6.20522E-03     36.9049E-03    -10.4479E+06    -62.0656E+06    -3.20526E+06     1.43520E+06    -15.6055E-03     30.8245E-03    -15.2189E-03     21.7664E-03    -15.5643E-03     30.5351E-03    -15.1298E-03     21.7809E-03
            1749     5.31929E-03     36.8853E-03    -11.8315E+06    -62.9725E+06    -4.95685E+06     1.18103E+06    -15.4441E-03     30.6161E-03    -15.1720E-03     18.2029E-03    -15.4055E-03     30.3264E-03    -15.0883E-03     18.2150E-03
            1750     4.43264E-03     36.8700E-03    -13.0556E+06    -63.9439E+06    -6.91746E+06     1.08906E+06    -15.3039E-03     30.4345E-03    -15.1305E-03     14.8534E-03    -15.2669E-03     30.1442E-03    -15.0535E-03     14.8650E-03
            1751     3.54636E-03     36.8568E-03    -14.3255E+06    -65.2412E+06    -9.44760E+06     985.378E+03    -15.2027E-03     30.2955E-03    -15.0928E-03     11.6925E-03    -15.1664E-03     30.0041E-03    -15.0247E-03     11.7034E-03
            1752     2.65981E-03     36.8474E-03    -15.7881E+06    -66.9640E+06    -12.3659E+06     708.391E+03    -15.1301E-03     30.1871E-03    -15.0570E-03     8.66030E-03    -15.0942E-03     29.8933E-03    -14.9988E-03     8.66808E-03
            1753     1.77326E-03     36.8401E-03    -16.8533E+06    -68.5116E+06    -15.0982E+06     534.072E+03    -15.0498E-03     30.0785E-03    -15.0287E-03     5.75032E-03    -15.0129E-03     29.7823E-03    -14.9804E-03     5.75633E-03
            1754     886.615E-06     36.8363E-03    -17.8308E+06    -69.7051E+06    -17.2436E+06     249.072E+03    -15.0288E-03     30.0296E-03    -15.0007E-03     2.96322E-03    -14.9919E-03     29.7321E-03    -14.9600E-03     2.96599E-03
            1755     16.8350E-03     36.6474E-03    -4.50244E+06     155.679E+06     55.2712E+06     794.735E+03    -28.9141E-03     44.6436E-03    -15.7295E-03     266.405E-03    -37.0691E-03     53.1750E-03    -15.6723E-03     272.128E-03
            1756     15.9490E-03     36.4459E-03    -6.30578E+06     85.7996E+06    -9.63521E+06     776.258E+03    -22.7429E-03     38.1907E-03    -15.4478E-03     166.505E-03    -24.6550E-03     40.4130E-03    -15.6113E-03     167.054E-03
            1757     15.0659E-03     36.3349E-03    -5.67618E+06     22.6114E+06    -14.6706E+06     1.17012E+06    -18.2783E-03     33.7430E-03    -15.4646E-03     95.1479E-03    -18.5740E-03     34.1413E-03    -15.5625E-03     95.1317E-03
            1758     14.1757E-03     36.2700E-03    -4.91922E+06    -18.7722E+06    -11.6960E+06     1.35698E+06    -17.0647E-03     32.5702E-03    -15.5055E-03     61.7459E-03    -17.1197E-03     32.5750E-03    -15.5296E-03     61.7196E-03
            1759     13.2940E-03     36.2190E-03    -5.64237E+06    -35.7865E+06    -8.88824E+06     905.370E+03    -17.0864E-03     32.5867E-03    -15.5003E-03     56.1170E-03    -17.0922E-03     32.4712E-03    -15.4847E-03     56.0911E-03
            1760     12.4061E-03     36.1650E-03    -5.91899E+06    -39.8484E+06    -2.31614E+06     1.04508E+06    -16.8163E-03     32.3065E-03    -15.4901E-03     53.1489E-03    -16.8112E-03     32.1455E-03    -15.4354E-03     53.1340E-03
            1761     11.5219E-03     36.1188E-03    -5.81669E+06    -48.0731E+06    -3.04601E+06     1.43487E+06    -16.8067E-03     32.2498E-03    -15.4431E-03     46.4504E-03    -16.7774E-03     32.0381E-03    -15.3802E-03     46.4472E-03
            1762     10.6355E-03     36.0771E-03    -6.33573E+06    -58.9808E+06    -3.70541E+06     1.70241E+06    -16.5312E-03     31.9260E-03    -15.3948E-03     42.1150E-03    -16.4817E-03     31.6554E-03    -15.3186E-03     42.1210E-03
            1763     9.75022E-03     36.0390E-03    -6.86236E+06    -63.0750E+06    -687.332E+03     1.61737E+06    -16.3383E-03     31.6955E-03    -15.3573E-03     37.6994E-03    -16.2863E-03     31.3973E-03    -15.2593E-03     37.7084E-03
            1764     8.86401E-03     36.0057E-03    -7.68538E+06    -62.2082E+06    -600.110E+03     1.48885E+06    -16.1728E-03     31.4686E-03    -15.2958E-03     33.3781E-03    -16.1241E-03     31.1735E-03    -15.1975E-03     33.3885E-03
            1765     7.97858E-03     35.9753E-03    -8.55898E+06    -61.9495E+06    -1.39982E+06     1.55399E+06    -15.9523E-03     31.1825E-03    -15.2302E-03     29.1844E-03    -15.9058E-03     30.8898E-03    -15.1350E-03     29.1977E-03
            1766     7.09207E-03     35.9499E-03    -9.49127E+06    -61.8318E+06    -2.28610E+06     1.55728E+06    -15.7387E-03     30.9068E-03    -15.1681E-03     25.2280E-03    -15.6949E-03     30.6164E-03    -15.0761E-03     25.2430E-03
            1767     6.20623E-03     35.9269E-03    -10.5627E+06    -61.7765E+06    -3.33597E+06     1.52382E+06    -15.5324E-03     30.6434E-03    -15.1110E-03     21.4832E-03    -15.4919E-03     30.3558E-03    -15.0228E-03     21.4989E-03
            1768     5.31959E-03     35.9086E-03    -11.6916E+06    -62.5047E+06    -4.91337E+06     1.39402E+06    -15.3590E-03     30.4181E-03    -15.0591E-03     17.9537E-03    -15.3204E-03     30.1304E-03    -14.9761E-03     17.9686E-03
            1769     4.43339E-03     35.8923E-03    -13.0905E+06    -63.6357E+06    -6.90810E+06     1.19223E+06    -15.2210E-03     30.2327E-03    -15.0117E-03     14.6401E-03    -15.1846E-03     29.9440E-03    -14.9350E-03     14.6531E-03
            1770     3.54673E-03     35.8802E-03    -14.5182E+06    -64.8417E+06    -9.39127E+06     1.10444E+06    -15.0981E-03     30.0658E-03    -14.9676E-03     11.5089E-03    -15.0634E-03     29.7765E-03    -14.8995E-03     11.5214E-03
            1771     2.66012E-03     35.8700E-03    -15.7844E+06    -66.4577E+06    -12.4498E+06     889.219E+03    -14.9935E-03     29.9227E-03    -14.9293E-03     8.52203E-03    -14.9581E-03     29.6315E-03    -14.8723E-03     8.53218E-03
            1772     1.77349E-03     35.8637E-03    -16.9945E+06    -68.1107E+06    -15.2660E+06     652.155E+03    -14.9314E-03     29.8311E-03    -14.8997E-03     5.66403E-03    -14.8955E-03     29.5373E-03    -14.8526E-03     5.67158E-03
            1773     886.750E-06     35.8591E-03    -17.5734E+06    -68.9839E+06    -17.2742E+06     419.212E+03    -14.8586E-03     29.7673E-03    -14.9088E-03     3.00457E-03    -14.8213E-03     29.4732E-03    -14.8696E-03     3.00953E-03
            1774     16.8358E-03     35.6718E-03    -4.54880E+06     153.853E+06     53.0640E+06     751.419E+03    -29.1414E-03     44.8435E-03    -15.7021E-03     268.439E-03    -37.3056E-03     53.3839E-03    -15.6533E-03     274.093E-03
            1775     15.9493E-03     35.4650E-03    -4.97863E+06     85.1938E+06    -10.2700E+06     1.79603E+06    -22.1428E-03     37.5879E-03    -15.4451E-03     167.434E-03    -24.0455E-03     39.8052E-03    -15.6128E-03     167.998E-03
            1776     15.0613E-03     35.3574E-03    -5.66486E+06     24.1649E+06    -13.9628E+06     1.45630E+06    -18.9739E-03     34.4400E-03    -15.4661E-03     94.5714E-03    -19.2716E-03     34.8439E-03    -15.5627E-03     94.5558E-03
            1777     14.1804E-03     35.2897E-03    -6.33948E+06    -18.7984E+06    -12.6123E+06     1.20559E+06    -17.5944E-03     33.0572E-03    -15.4628E-03     60.5204E-03    -17.6552E-03     33.0654E-03    -15.4894E-03     60.4897E-03
            1778     13.2919E-03     35.2411E-03    -4.65226E+06    -35.5469E+06    -8.17974E+06     1.43362E+06    -16.8578E-03     32.3058E-03    -15.4480E-03     55.3255E-03    -16.8584E-03     32.1874E-03    -15.4306E-03     55.3077E-03
            1779     12.4084E-03     35.1859E-03    -5.37920E+06    -39.7349E+06    -2.53332E+06     1.28739E+06    -16.9973E-03     32.4282E-03    -15.4310E-03     53.2303E-03    -16.9895E-03     32.2676E-03    -15.3782E-03     53.2182E-03
            1780     11.5218E-03     35.1404E-03    -5.93696E+06    -48.9429E+06    -4.30794E+06     1.50413E+06    -16.7914E-03     32.1620E-03    -15.3706E-03     46.0853E-03    -16.7594E-03     31.9476E-03    -15.3125E-03     46.0833E-03
            1781     10.6370E-03     35.0987E-03    -5.93769E+06    -58.3377E+06    -3.70668E+06     1.95628E+06    -16.5839E-03     31.9016E-03    -15.3177E-03     41.7372E-03    -16.5333E-03     31.6336E-03    -15.2430E-03     41.7465E-03
            1782     9.75062E-03     35.0612E-03    -6.76975E+06    -62.4886E+06    -941.985E+03     1.81844E+06    -16.3925E-03     31.6596E-03    -15.2671E-03     37.3337E-03    -16.3405E-03     31.3644E-03    -15.1714E-03     37.3454E-03
            1783     8.86540E-03     35.0272E-03    -7.68099E+06    -62.2481E+06    -1.17517E+06     1.67132E+06    -16.1511E-03     31.3451E-03    -15.1941E-03     32.9446E-03    -16.1014E-03     31.0506E-03    -15.0985E-03     32.9574E-03
            1784     7.97888E-03     34.9982E-03    -8.61646E+06    -61.8517E+06    -1.68770E+06     1.68213E+06    -15.8930E-03     31.0157E-03    -15.1227E-03     28.8347E-03    -15.8465E-03     30.7239E-03    -15.0290E-03     28.8498E-03
            1785     7.09328E-03     34.9718E-03    -9.49446E+06    -61.6445E+06    -2.51149E+06     1.71051E+06    -15.6687E-03     30.7236E-03    -15.0549E-03     24.9116E-03    -15.6248E-03     30.4345E-03    -14.9643E-03     24.9286E-03
            1786     6.20667E-03     34.9502E-03    -10.5631E+06    -61.5507E+06    -3.50848E+06     1.59935E+06    -15.4634E-03     30.4548E-03    -14.9914E-03     21.2124E-03    -15.4230E-03     30.1686E-03    -14.9044E-03     21.2292E-03
            1787     5.32051E-03     34.9309E-03    -11.6613E+06    -62.0641E+06    -4.77625E+06     1.50140E+06    -15.2780E-03     30.2110E-03    -14.9330E-03     17.6774E-03    -15.2401E-03     29.9252E-03    -14.8500E-03     17.6938E-03
            1788     4.43380E-03     34.9159E-03    -13.0360E+06    -63.0807E+06    -6.79353E+06     1.45996E+06    -15.1171E-03     29.9951E-03    -14.8781E-03     14.4047E-03    -15.0814E-03     29.7089E-03    -14.8017E-03     14.4212E-03
            1789     3.54727E-03     34.9029E-03    -14.5096E+06    -64.4445E+06    -9.48689E+06     1.15144E+06    -14.9712E-03     29.7996E-03    -14.8284E-03     11.2949E-03    -14.9368E-03     29.5124E-03    -14.7613E-03     11.3080E-03
            1790     2.66057E-03     34.8939E-03    -15.7890E+06    -65.9078E+06    -12.3816E+06     1.03938E+06    -14.8449E-03     29.6353E-03    -14.7905E-03     8.37491E-03    -14.8104E-03     29.3468E-03    -14.7339E-03     8.38705E-03
            1791     1.77363E-03     34.8866E-03    -16.9461E+06    -67.4903E+06    -15.2915E+06     784.926E+03    -14.7840E-03     29.5489E-03    -14.7649E-03     5.57871E-03    -14.7487E-03     29.2582E-03    -14.7189E-03     5.58801E-03
            1792     886.892E-06     34.8831E-03    -17.3182E+06    -68.0400E+06    -17.1938E+06     385.804E+03    -14.7132E-03     29.5046E-03    -14.7914E-03     2.91184E-03    -14.6762E-03     29.2147E-03    -14.7536E-03     2.91636E-03
            1793     16.8318E-03     34.6823E-03    -5.12342E+06     152.711E+06     51.9117E+06     793.854E+03    -29.0199E-03     44.7401E-03    -15.7201E-03     266.820E-03    -37.1951E-03     53.2886E-03    -15.6746E-03     272.505E-03
            1794     15.9486E-03     34.4938E-03    -7.88388E+06     85.3483E+06    -12.4304E+06     1.95301E+06    -23.0642E-03     38.4924E-03    -15.4282E-03     165.415E-03    -24.9354E-03     40.6747E-03    -15.6027E-03     165.960E-03
            1795     15.0651E-03     34.3713E-03    -6.45810E+06     24.1789E+06    -14.4263E+06     1.12509E+06    -19.1938E-03     34.6083E-03    -15.4144E-03     93.5208E-03    -19.4945E-03     35.0138E-03    -15.5123E-03     93.4958E-03
            1796     14.1794E-03     34.3137E-03    -3.86968E+06    -18.6271E+06    -10.9326E+06     515.623E+03    -17.2072E-03     32.6257E-03    -15.4185E-03     59.8429E-03    -17.2563E-03     32.6267E-03    -15.4405E-03     59.8048E-03
            1797     13.2950E-03     34.2620E-03    -4.51039E+06    -35.6658E+06    -8.54929E+06     1.49555E+06    -17.1288E-03     32.5263E-03    -15.3976E-03     56.3868E-03    -17.1292E-03     32.4089E-03    -15.3820E-03     56.3690E-03
            1798     12.4078E-03     34.2076E-03    -4.50299E+06    -39.7574E+06    -2.53675E+06     1.72827E+06    -17.1341E-03     32.4982E-03    -15.3641E-03     52.8313E-03    -17.1218E-03     32.3361E-03    -15.3126E-03     52.8247E-03
            1799     11.5234E-03     34.1617E-03    -5.07149E+06    -49.0603E+06    -4.45686E+06     1.81483E+06    -16.7810E-03     32.0741E-03    -15.2931E-03     45.8130E-03    -16.7439E-03     31.8577E-03    -15.2369E-03     45.8153E-03
            1800     10.6371E-03     34.1207E-03    -5.60512E+06    -58.7280E+06    -3.87512E+06     2.20366E+06    -16.7182E-03     31.9475E-03    -15.2294E-03     41.4505E-03    -16.6650E-03     31.6773E-03    -15.1555E-03     41.4630E-03
            1801     9.75233E-03     34.0827E-03    -6.24778E+06    -61.5609E+06    -552.770E+03     2.53343E+06    -16.4289E-03     31.5921E-03    -15.1632E-03     36.8988E-03    -16.3760E-03     31.3002E-03    -15.0677E-03     36.9198E-03
            1802     8.86584E-03     34.0499E-03    -7.47731E+06    -61.9039E+06    -1.63732E+06     2.12314E+06    -16.0917E-03     31.1694E-03    -15.0776E-03     32.5740E-03    -16.0408E-03     30.8769E-03    -14.9852E-03     32.5928E-03
            1803     7.98045E-03     34.0201E-03    -8.38970E+06    -61.6068E+06    -1.94606E+06     1.91489E+06    -15.8234E-03     30.8249E-03    -15.0015E-03     28.4469E-03    -15.7756E-03     30.5343E-03    -14.9097E-03     28.4652E-03
            1804     7.09371E-03     33.9951E-03    -9.55188E+06    -61.4202E+06    -2.75478E+06     1.78766E+06    -15.5869E-03     30.5151E-03    -14.9282E-03     24.5769E-03    -15.5432E-03     30.2274E-03    -14.8390E-03     24.5950E-03
            1805     6.20771E-03     33.9726E-03    -10.5275E+06    -61.1931E+06    -3.52343E+06     1.66054E+06    -15.3835E-03     30.2419E-03    -14.8584E-03     20.8430E-03    -15.3434E-03     29.9574E-03    -14.7720E-03     20.8606E-03
            1806     5.32107E-03     33.9546E-03    -11.8338E+06    -61.7821E+06    -4.86645E+06     1.69589E+06    -15.1768E-03     29.9692E-03    -14.7924E-03     17.3903E-03    -15.1400E-03     29.6852E-03    -14.7100E-03     17.4092E-03
            1807     4.43461E-03     33.9388E-03    -13.1028E+06    -62.6310E+06    -6.79712E+06     1.56543E+06    -14.9941E-03     29.7255E-03    -14.7314E-03     14.1507E-03    -14.9594E-03     29.4416E-03    -14.6555E-03     14.1686E-03
            1808     3.54780E-03     33.9269E-03    -14.3723E+06    -63.7816E+06    -9.32666E+06     1.37596E+06    -14.8240E-03     29.5028E-03    -14.6788E-03     11.0696E-03    -14.7901E-03     29.2185E-03    -14.6121E-03     11.0856E-03
            1809     2.66084E-03     33.9172E-03    -15.8475E+06    -65.3500E+06    -12.3827E+06     1.09381E+06    -14.7147E-03     29.3505E-03    -14.6357E-03     8.21289E-03    -14.6814E-03     29.0648E-03    -14.5799E-03     8.22576E-03
            1810     1.77405E-03     33.9108E-03    -16.7442E+06    -66.5402E+06    -14.9418E+06     768.713E+03    -14.6227E-03     29.2300E-03    -14.6073E-03     5.44102E-03    -14.5883E-03     28.9433E-03    -14.5612E-03     5.45012E-03
            1811     886.922E-06     33.9064E-03    -17.7768E+06    -67.4100E+06    -17.0446E+06     569.726E+03    -14.5953E-03     29.1874E-03    -14.5921E-03     2.90186E-03    -14.5616E-03     28.9010E-03    -14.5538E-03     2.90879E-03
            1812     16.8358E-03     33.7100E-03    -6.11733E+06     153.846E+06     55.7296E+06     1.19235E+06    -29.8009E-03     45.5021E-03    -15.7012E-03     265.810E-03    -37.9411E-03     54.0051E-03    -15.6367E-03     271.387E-03
            1813     15.9500E-03     33.5065E-03    -6.05682E+06     85.2155E+06    -7.32447E+06    -293.139E+03    -23.0197E-03     38.4063E-03    -15.3866E-03     164.576E-03    -24.8875E-03     40.5764E-03    -15.5380E-03     165.074E-03
            1814     15.0670E-03     33.3965E-03    -3.49159E+06     22.2607E+06    -13.6540E+06     501.763E+03    -18.3043E-03     33.6796E-03    -15.3753E-03     93.8618E-03    -18.5838E-03     34.0654E-03    -15.4708E-03     93.8332E-03
            1815     14.1788E-03     33.3342E-03    -3.46037E+06    -18.3966E+06    -10.9345E+06     1.72992E+06    -17.3110E-03     32.7094E-03    -15.3984E-03     60.7820E-03    -17.3590E-03     32.7115E-03    -15.4214E-03     60.7597E-03
            1816     13.2931E-03     33.2829E-03    -4.48276E+06    -36.0199E+06    -9.02914E+06     1.66935E+06    -17.7789E-03     33.1286E-03    -15.3498E-03     55.5539E-03    -17.7786E-03     33.0108E-03    -15.3362E-03     55.5360E-03
            1817     12.4104E-03     33.2284E-03    -4.51822E+06    -39.6812E+06    -2.78428E+06     2.00714E+06    -17.1600E-03     32.4489E-03    -15.2888E-03     52.2691E-03    -17.1468E-03     32.2868E-03    -15.2387E-03     52.2664E-03
            1818     11.5235E-03     33.1843E-03    -4.55005E+06    -48.5089E+06    -4.13882E+06     2.32230E+06    -16.9343E-03     32.1400E-03    -15.2057E-03     45.5789E-03    -16.8957E-03     31.9250E-03    -15.1495E-03     45.5876E-03
            1819     10.6390E-03     33.1414E-03     -5.3973E+06    -59.4304E+06    -4.11253E+06     2.57760E+06    -16.7377E-03     31.8644E-03    -15.1267E-03     40.9630E-03    -16.6819E-03     31.5904E-03    -15.0533E-03     40.9805E-03
            1820     9.75276E-03     33.1055E-03    -5.97174E+06    -61.2194E+06    -133.897E+03     2.99589E+06    -16.3991E-03     31.4519E-03    -15.0528E-03     36.4462E-03    -16.3459E-03     31.1605E-03    -14.9560E-03     36.4734E-03
            1821     8.86753E-03     33.0716E-03    -6.82836E+06    -60.9847E+06    -1.13133E+06     2.83085E+06    -16.0638E-03     31.0211E-03    -14.9572E-03     32.1876E-03    -16.0116E-03     30.7314E-03    -14.8646E-03     32.2157E-03
            1822     7.98087E-03     33.0434E-03    -8.10443E+06    -61.2700E+06    -2.10773E+06     2.37401E+06    -15.7809E-03     30.6500E-03    -14.8691E-03     28.1022E-03    -15.7319E-03     30.3609E-03    -14.7791E-03     28.1265E-03
            1823     7.09514E-03     33.0174E-03    -9.17777E+06    -60.7625E+06    -2.49314E+06     2.09960E+06    -15.5323E-03     30.3188E-03    -14.7865E-03     24.1678E-03    -15.4880E-03     30.0335E-03    -14.6976E-03     24.1901E-03
            1824     6.20851E-03     32.9962E-03    -10.6001E+06    -60.9636E+06    -3.76165E+06     1.90794E+06    -15.2565E-03     29.9644E-03    -14.7079E-03     20.4850E-03    -15.2166E-03     29.6814E-03    -14.6230E-03     20.5060E-03
            1825     5.32200E-03     32.9776E-03    -11.8455E+06    -61.5025E+06    -4.95934E+06     1.79083E+06    -15.0554E-03     29.6930E-03    -14.6376E-03     17.0822E-03    -15.0189E-03     29.4105E-03    -14.5561E-03     17.1024E-03
            1826     4.43521E-03     32.9627E-03    -13.0620E+06    -62.1599E+06    -6.80345E+06     1.62241E+06    -14.8461E-03     29.4185E-03    -14.5724E-03     13.8332E-03    -14.8118E-03     29.1369E-03    -14.4973E-03     13.8519E-03
            1827     3.54832E-03     32.9505E-03    -14.5054E+06    -63.2242E+06    -9.25332E+06     1.45503E+06    -14.6857E-03     29.2013E-03    -14.5156E-03     10.8556E-03    -14.6534E-03     28.9199E-03    -14.4492E-03     10.8726E-03
            1828     2.66145E-03     32.9413E-03    -15.7469E+06    -64.5270E+06    -12.1549E+06     1.23142E+06    -14.5718E-03     29.0359E-03    -14.4641E-03     8.01649E-03    -14.5395E-03     28.7539E-03    -14.4085E-03     8.03116E-03
            1829     1.77428E-03     32.9346E-03    -16.8175E+06    -65.7785E+06    -14.8873E+06     855.704E+03    -14.4633E-03     28.8870E-03    -14.4237E-03     5.30049E-03    -14.4305E-03     28.6041E-03    -14.3784E-03     5.31074E-03
            1830     887.185E-06     32.9309E-03    -17.7375E+06    -66.6268E+06    -17.1431E+06     552.559E+03    -14.3971E-03     28.8064E-03    -14.4093E-03     2.89636E-03    -14.3642E-03     28.5241E-03    -14.3727E-03     2.90307E-03
            1831     16.8350E-03     32.7270E-03    -3.10245E+06     153.999E+06     55.7735E+06     255.223E+03    -30.5567E-03     46.2462E-03    -15.6896E-03     267.321E-03    -38.7532E-03     54.8168E-03    -15.6295E-03     272.858E-03
            1832     15.9529E-03     32.5282E-03    -131.786E+03     84.3911E+06    -6.22928E+06     80.6987E+03    -22.7134E-03     38.0854E-03    -15.3720E-03     164.587E-03    -24.5464E-03     40.2357E-03    -15.5254E-03     165.070E-03
            1833     15.0627E-03     32.4192E-03    -2.25696E+06     21.5298E+06    -12.6967E+06     1.82815E+06    -18.7024E-03     34.0661E-03    -15.3637E-03     93.4703E-03    -18.9737E-03     34.4426E-03    -15.4551E-03     93.4600E-03
            1834     14.1798E-03     32.3538E-03    -5.16244E+06    -18.4813E+06    -12.0347E+06     2.65810E+06    -18.1751E-03     33.5121E-03    -15.3369E-03     59.7183E-03    -18.2303E-03     33.5182E-03    -15.3628E-03     59.7042E-03
            1835     13.2975E-03     32.3029E-03    -4.61072E+06    -35.9837E+06    -8.98778E+06     2.32903E+06    -17.4746E-03     32.7424E-03    -15.2678E-03     54.1759E-03    -17.4731E-03     32.6229E-03    -15.2539E-03     54.1678E-03
            1836     12.4094E-03     32.2514E-03    -4.68331E+06    -39.2632E+06    -2.95075E+06     2.47190E+06    -17.2687E-03     32.4731E-03    -15.2044E-03     52.0876E-03    -17.2563E-03     32.3133E-03    -15.1555E-03     52.0910E-03
            1837     11.5257E-03     32.2039E-03    -5.44250E+06    -49.4177E+06    -4.94433E+06     2.64062E+06    -17.0886E-03     32.1924E-03    -15.1037E-03     45.0972E-03    -17.0518E-03     31.9752E-03    -15.0489E-03     45.1101E-03
            1838     10.6397E-03     32.1648E-03    -5.60594E+06    -59.6496E+06    -4.47196E+06     3.02107E+06    -16.6961E-03     31.7074E-03    -15.0113E-03     40.5113E-03    -16.6403E-03     31.4329E-03    -14.9390E-03     40.5349E-03
            1839     9.75438E-03     32.1264E-03    -5.98698E+06    -61.3653E+06    -363.954E+03     3.04283E+06    -16.3361E-03     31.2673E-03    -14.9312E-03     35.9965E-03    -16.2822E-03     30.9754E-03    -14.8353E-03     36.0246E-03
            1840     8.86814E-03     32.0952E-03    -6.58265E+06    -60.0928E+06    -368.514E+03     3.28413E+06    -16.0399E-03     30.8699E-03    -14.8300E-03     31.7063E-03    -15.9887E-03     30.5831E-03    -14.7352E-03     31.7404E-03
            1841     7.98249E-03     32.0654E-03    -7.73269E+06    -60.3028E+06    -1.62919E+06     3.02205E+06    -15.7632E-03     30.4904E-03    -14.7272E-03     27.6951E-03    -15.7144E-03     30.2048E-03    -14.6367E-03     27.7279E-03
            1842     7.09600E-03     32.0410E-03    -9.00182E+06    -60.5254E+06    -2.62748E+06     2.54157E+06    -15.4292E-03     30.0614E-03    -14.6322E-03     23.7311E-03    -15.3841E-03     29.7771E-03    -14.5446E-03     23.7592E-03
            1843     6.20955E-03     32.0193E-03    -10.1913E+06    -60.2400E+06    -3.43112E+06     2.41752E+06    -15.1664E-03     29.7126E-03    -14.5462E-03     20.1662E-03    -15.1260E-03     29.4322E-03    -14.4613E-03     20.1939E-03
            1844     5.32287E-03     32.0014E-03    -11.6392E+06    -61.0775E+06    -5.09353E+06     1.88632E+06    -14.9206E-03     29.3864E-03    -14.4658E-03     16.6869E-03    -14.8835E-03     29.1059E-03    -14.3859E-03     16.7084E-03
            1845     4.43604E-03     31.9865E-03    -12.9677E+06    -61.6030E+06    -6.76566E+06     1.71035E+06    -14.6874E-03     29.0837E-03    -14.3963E-03     13.4995E-03    -14.6535E-03     28.8047E-03    -14.3220E-03     13.5194E-03
            1846     3.54900E-03     31.9747E-03    -14.3966E+06    -62.5541E+06    -9.27396E+06     1.58624E+06    -14.5292E-03     28.8630E-03    -14.3339E-03     10.6115E-03    -14.4972E-03     28.5848E-03    -14.2686E-03     10.6303E-03
            1847     2.66184E-03     31.9654E-03    -15.7219E+06    -63.7444E+06    -12.0791E+06     1.25594E+06    -14.3894E-03     28.6683E-03    -14.2789E-03     7.81418E-03    -14.3582E-03     28.3900E-03    -14.2241E-03     7.82921E-03
            1848     1.77466E-03     31.9593E-03    -16.8521E+06    -64.9829E+06    -15.0035E+06     970.506E+03    -14.2990E-03     28.5285E-03    -14.2295E-03     5.18846E-03    -14.2673E-03     28.2499E-03    -14.1859E-03     5.20022E-03
            1849     887.389E-06     31.9550E-03    -17.3861E+06    -65.6041E+06    -16.9807E+06     432.566E+03    -14.1971E-03     28.4053E-03    -14.2082E-03     2.77643E-03    -14.1642E-03     28.1273E-03    -14.1728E-03     2.78158E-03
            1850     16.8331E-03     31.7387E-03    -3.19843E+06     151.225E+06     50.9054E+06    -630.675E+03    -29.3476E-03     45.0081E-03    -15.6605E-03     265.561E-03    -37.5121E-03     53.5505E-03    -15.6206E-03     271.154E-03
            1851     15.9482E-03     31.5522E-03    -6.75417E+06     83.0245E+06    -13.7998E+06     1.52025E+06    -23.2921E-03     38.6331E-03    -15.3410E-03     161.489E-03    -25.0886E-03     40.7405E-03    -15.5206E-03     161.993E-03
            1852     15.0672E-03     31.4376E-03    -7.64743E+06     23.0690E+06    -16.1547E+06     2.31990E+06    -19.7987E-03     35.0861E-03    -15.2874E-03     92.5046E-03    -20.0941E-03     35.4831E-03    -15.3905E-03     92.4917E-03
            1853     14.1839E-03     31.3733E-03    -5.38647E+06    -20.2224E+06    -13.3051E+06     2.84588E+06    -17.7105E-03     32.9550E-03    -15.2445E-03     59.5601E-03    -17.7593E-03     32.9514E-03    -15.2739E-03     59.5509E-03
            1854     13.2949E-03     31.3269E-03    -5.01349E+06    -35.6036E+06    -9.10739E+06     2.73065E+06    -17.5118E-03     32.6982E-03    -15.1864E-03     54.5791E-03    -17.5123E-03     32.5809E-03    -15.1730E-03     54.5767E-03
            1855     12.4125E-03     31.2701E-03    -5.21775E+06    -39.3161E+06    -3.29508E+06     2.73156E+06    -17.4926E-03     32.5998E-03    -15.1073E-03     51.6792E-03    -17.4822E-03     32.4409E-03    -15.0592E-03     51.6856E-03
            1856     11.5263E-03     31.2275E-03    -5.56935E+06    -50.0771E+06    -5.23242E+06     2.98096E+06    -17.0316E-03     32.0244E-03    -14.9928E-03     44.5358E-03    -16.9936E-03     31.8040E-03    -14.9383E-03     44.5535E-03
            1857     10.6412E-03     31.1851E-03    -5.55326E+06    -59.6211E+06    -4.80016E+06     3.10909E+06    -16.7037E-03     31.5944E-03    -14.8907E-03     40.0851E-03    -16.6469E-03     31.3202E-03    -14.8202E-03     40.1100E-03
            1858     9.75550E-03     31.1501E-03    -6.03170E+06    -61.2009E+06    -529.173E+03     3.38579E+06    -16.3132E-03     31.1138E-03    -14.8006E-03     35.5155E-03    -16.2593E-03     30.8228E-03    -14.7057E-03     35.5482E-03
            1859     8.86966E-03     31.1168E-03    -6.88838E+06    -59.9299E+06    -729.803E+03     3.42375E+06    -16.0269E-03     30.7137E-03    -14.6868E-03     31.3600E-03    -15.9768E-03     30.4286E-03    -14.5936E-03     31.3961E-03
            1860     7.98353E-03     31.0890E-03    -7.30675E+06    -59.6536E+06    -1.34156E+06     3.34970E+06    -15.6951E-03     30.2687E-03    -14.5736E-03     27.1333E-03    -15.6454E-03     29.9852E-03    -14.4832E-03     27.1705E-03
            1861     7.09718E-03     31.0641E-03    -8.44492E+06    -59.5265E+06    -2.06405E+06     3.11979E+06    -15.3540E-03     29.8222E-03    -14.4683E-03     23.3009E-03    -15.3083E-03     29.5413E-03    -14.3800E-03     23.3367E-03
            1862     6.21066E-03     31.0431E-03    -9.91175E+06    -59.5875E+06    -3.11515E+06     2.68644E+06    -15.0784E-03     29.4477E-03    -14.3693E-03     19.6839E-03    -15.0380E-03     29.1696E-03    -14.2841E-03     19.7151E-03
            1863     5.32392E-03     31.0252E-03    -11.1675E+06    -60.0724E+06    -4.69827E+06     2.40558E+06    -14.7564E-03     29.0361E-03    -14.2797E-03     16.2569E-03    -14.7189E-03     28.7594E-03    -14.1999E-03     16.2852E-03
            1864     4.43683E-03     31.0109E-03    -12.9077E+06    -61.1657E+06    -6.88220E+06     1.99302E+06    -14.5348E-03     28.7376E-03    -14.2027E-03     13.2205E-03    -14.5011E-03     28.4608E-03    -14.1297E-03     13.2441E-03
            1865     3.54973E-03     30.9989E-03    -14.2550E+06    -61.8039E+06    -9.14025E+06     1.76271E+06    -14.3419E-03     28.4771E-03    -14.1352E-03     10.3113E-03    -14.3105E-03     28.2022E-03    -14.0706E-03     10.3325E-03
            1866     2.66240E-03     30.9904E-03    -15.4980E+06    -62.9095E+06    -12.2271E+06     1.34717E+06    -14.1837E-03     28.2617E-03    -14.0780E-03     7.61028E-03    -14.1523E-03     27.9875E-03    -14.0255E-03     7.62653E-03
            1867     1.77499E-03     30.9836E-03    -16.7221E+06    -64.0423E+06    -14.9835E+06     894.979E+03    -14.0941E-03     28.1267E-03    -14.0326E-03     5.05614E-03    -14.0632E-03     27.8525E-03    -13.9904E-03     5.06694E-03
            1868     887.517E-06     30.9803E-03    -17.3546E+06    -64.6766E+06    -16.8303E+06     453.778E+03    -14.0375E-03     28.0164E-03    -13.9789E-03     2.66746E-03    -14.0060E-03     27.7428E-03    -13.9441E-03     2.67289E-03
            1869     16.8383E-03     30.7687E-03    -5.39411E+06     150.225E+06     49.8648E+06     912.818E+03    -29.5719E-03     45.1618E-03    -15.5900E-03     264.999E-03    -37.5983E-03     53.5578E-03    -15.5506E-03     270.497E-03
            1870     15.9516E-03     30.5663E-03    -9.81792E+06     82.1790E+06    -13.0886E+06     1.22953E+06    -23.2898E-03     38.5611E-03    -15.2712E-03     161.930E-03    -25.0988E-03     40.6649E-03    -15.4416E-03     162.434E-03
            1871     15.0691E-03     30.4584E-03    -7.72498E+06     21.8374E+06    -16.4443E+06     1.30482E+06    -19.5167E-03     34.7299E-03    -15.2132E-03     91.3491E-03    -19.8054E-03     35.1165E-03    -15.3159E-03     91.3232E-03
            1872     14.1798E-03     30.3970E-03    -6.71671E+06    -21.1627E+06    -14.1323E+06     2.07474E+06    -17.5559E-03     32.7320E-03    -15.1761E-03     59.4935E-03    -17.6074E-03     32.7255E-03    -15.2063E-03     59.4757E-03
            1873     13.2991E-03     30.3449E-03    -5.71363E+06    -34.6731E+06    -8.95793E+06     2.44743E+06    -17.8468E-03     32.9543E-03    -15.1075E-03     54.3167E-03    -17.8522E-03     32.8422E-03    -15.0937E-03     54.3101E-03
            1874     12.4126E-03     30.2933E-03    -5.36758E+06    -39.5293E+06    -3.56093E+06     2.88938E+06    -17.5888E-03     32.5940E-03    -15.0052E-03     51.0553E-03    -17.5779E-03     32.4341E-03    -14.9579E-03     51.0639E-03
            1875     11.5279E-03     30.2479E-03    -5.39783E+06    -49.8101E+06    -5.03761E+06     3.20948E+06    -17.0327E-03     31.9123E-03    -14.8796E-03     44.2160E-03    -16.9942E-03     31.6924E-03    -14.8247E-03     44.2370E-03
            1876     10.6425E-03     30.2082E-03    -5.72322E+06    -59.3010E+06    -4.84563E+06     3.47967E+06    -16.6840E-03     31.4513E-03    -14.7673E-03     39.5474E-03    -16.6282E-03     31.1787E-03    -14.6973E-03     39.5774E-03
            1877     9.75673E-03     30.1719E-03    -6.05342E+06    -60.8696E+06    -983.013E+03     3.51371E+06    -16.3754E-03     31.0361E-03    -14.6607E-03     35.1316E-03    -16.3213E-03     30.7473E-03    -14.5686E-03     35.1662E-03
            1878     8.87098E-03     30.1401E-03    -6.54796E+06    -59.5881E+06    -835.961E+03     3.43441E+06    -16.0190E-03     30.5501E-03    -14.5311E-03     30.7693E-03    -15.9675E-03     30.2662E-03    -14.4394E-03     30.8057E-03
            1879     7.98487E-03     30.1118E-03    -7.37122E+06    -59.3795E+06    -1.52839E+06     3.45336E+06    -15.6143E-03     30.0195E-03    -14.4052E-03     26.5755E-03    -15.5650E-03     29.7376E-03    -14.3160E-03     26.6142E-03
            1880     7.09849E-03     30.0880E-03    -8.19718E+06    -58.6843E+06    -1.60788E+06     3.57644E+06    -15.3145E-03     29.6017E-03    -14.2872E-03     22.7854E-03    -15.2694E-03     29.3239E-03    -14.1983E-03     22.8271E-03
            1881     6.21194E-03     30.0667E-03    -9.33399E+06    -58.5879E+06    -2.78026E+06     3.14863E+06    -14.9092E-03     29.0848E-03    -14.1756E-03     19.1401E-03    -14.8678E-03     28.8103E-03    -14.0910E-03     19.1773E-03
            1882     5.32489E-03     30.0500E-03    -10.8602E+06    -59.3974E+06    -4.27166E+06     2.76100E+06    -14.6060E-03     28.6869E-03    -14.0809E-03     15.8830E-03    -14.5686E-03     28.4125E-03    -14.0004E-03     15.9160E-03
            1883     4.43781E-03     30.0351E-03    -12.2204E+06     -60.063E+06    -6.16868E+06     2.48292E+06    -14.3678E-03     28.3633E-03    -13.9956E-03     12.8382E-03    -14.3332E-03     28.0900E-03    -13.9216E-03     12.8682E-03
            1884     3.55047E-03     30.0241E-03    -13.9461E+06    -61.0606E+06    -9.11091E+06     1.89852E+06    -14.1410E-03     28.0605E-03    -13.9196E-03     9.99974E-03    -14.1092E-03     27.7889E-03    -13.8564E-03     10.0227E-03
            1885     2.66297E-03     30.0150E-03    -15.1681E+06    -61.9012E+06    -12.0710E+06     1.54899E+06    -13.9732E-03     27.8327E-03    -13.8595E-03     7.38024E-03    -13.9419E-03     27.5628E-03    -13.8081E-03     7.39914E-03
            1886     1.77536E-03     30.0092E-03    -16.3077E+06    -62.9986E+06    -14.9143E+06     1.03800E+06    -13.8583E-03     27.6761E-03    -13.8178E-03     4.90113E-03    -13.8269E-03     27.4065E-03    -13.7774E-03     4.91381E-03
            1887     887.695E-06     30.0051E-03    -17.4166E+06    -63.6513E+06    -16.5548E+06     398.294E+03    -13.8101E-03     27.5994E-03    -13.7893E-03     2.54794E-03    -13.7808E-03     27.3307E-03    -13.7546E-03     2.55267E-03
            1888     16.8357E-03     29.7857E-03    -3.12413E+06     151.162E+06     51.9102E+06     1.52743E+06    -30.8766E-03     46.4259E-03    -15.5493E-03     262.930E-03    -38.7107E-03     54.6351E-03    -15.5044E-03     268.206E-03
            1889     15.9540E-03     29.5883E-03    -5.07269E+06     81.8430E+06    -10.5667E+06     1.69666E+06    -22.8792E-03     38.0821E-03    -15.2030E-03     163.348E-03    -24.6870E-03     40.1931E-03    -15.3671E-03     163.861E-03
            1890     15.0662E-03     29.4780E-03    -5.96277E+06     20.9073E+06    -14.4662E+06     1.83141E+06    -19.3229E-03     34.4872E-03    -15.1643E-03     90.5205E-03    -19.5984E-03     34.8578E-03    -15.2583E-03     90.5024E-03
            1891     14.1867E-03     29.4181E-03    -5.39091E+06    -19.4602E+06    -12.6921E+06     1.69662E+06    -18.1662E-03     33.2690E-03    -15.1028E-03     58.7365E-03    -18.2163E-03     33.2677E-03    -15.1302E-03     58.7111E-03
            1892     13.2976E-03     29.3660E-03    -4.73969E+06    -35.6003E+06    -9.06397E+06     2.28256E+06    -17.6710E-03     32.6826E-03    -15.0116E-03     54.4482E-03    -17.6692E-03     32.5638E-03    -14.9984E-03     54.4404E-03
            1893     12.4145E-03     29.3142E-03    -5.14225E+06    -39.4810E+06    -3.40040E+06     2.96772E+06    -17.6361E-03     32.5439E-03    -14.9077E-03     50.5702E-03    -17.6240E-03     32.3831E-03    -14.8600E-03     50.5801E-03
            1894     11.5292E-03     29.2698E-03    -5.31041E+06    -49.8816E+06    -5.27940E+06     3.30926E+06    -17.1705E-03     31.9352E-03    -14.7647E-03     43.5616E-03    -17.1309E-03     31.7149E-03    -14.7110E-03     43.5839E-03
            1895     10.6437E-03     29.2304E-03    -5.24468E+06    -59.0423E+06    -4.25566E+06     3.55942E+06    -16.7494E-03     31.3861E-03    -14.6367E-03     39.0619E-03    -16.6921E-03     31.1130E-03    -14.5648E-03     39.0932E-03
            1896     9.75823E-03     29.1945E-03    -5.63445E+06    -60.3239E+06    -881.221E+03     3.59002E+06    -16.4453E-03     30.9536E-03    -14.5083E-03     34.5140E-03    -16.3900E-03     30.6666E-03    -14.4170E-03     34.5496E-03
            1897     8.87265E-03     29.1627E-03    -6.49620E+06    -59.3489E+06    -935.758E+03     3.58854E+06    -15.9700E-03     30.3316E-03    -14.3616E-03     30.0463E-03    -15.9183E-03     30.0488E-03    -14.2708E-03     30.0848E-03
            1898     7.98622E-03     29.1358E-03    -7.41867E+06    -58.8420E+06    -1.33709E+06     3.73113E+06    -15.5963E-03     29.8168E-03    -14.2205E-03     26.0658E-03    -15.5482E-03     29.5374E-03    -14.1311E-03     26.1083E-03
            1899     7.10001E-03     29.1110E-03    -8.19622E+06    -58.5066E+06    -1.84337E+06     3.56828E+06    -15.1603E-03     29.2483E-03    -14.0880E-03     22.1311E-03    -15.1151E-03     28.9717E-03    -14.0005E-03     22.1728E-03
            1900     6.21311E-03     29.0918E-03    -8.98307E+06    -57.5861E+06    -2.19833E+06     3.53450E+06    -14.7587E-03     28.7300E-03    -13.9713E-03     18.6364E-03    -14.7178E-03     28.4591E-03    -13.8857E-03     18.6788E-03
            1901     5.32606E-03     29.0740E-03    -10.4456E+06    -58.3169E+06    -3.80777E+06     3.19126E+06    -14.4630E-03     28.3281E-03    -13.8651E-03     15.4288E-03    -14.4257E-03     28.0577E-03    -13.7844E-03     15.4675E-03
            1902     4.43886E-03     29.0606E-03    -12.0530E+06    -59.1864E+06    -5.85250E+06     2.72748E+06    -14.1682E-03     27.9385E-03    -13.7703E-03     12.4121E-03    -14.1345E-03     27.6689E-03    -13.6962E-03     12.4453E-03
            1903     3.55125E-03     29.0490E-03    -13.3202E+06    -59.7634E+06    -8.71204E+06     2.33175E+06    -13.9249E-03     27.6135E-03    -13.6885E-03     9.68115E-03    -13.8924E-03     27.3468E-03    -13.6261E-03     9.70978E-03
            1904     2.66366E-03     29.0408E-03    -14.9014E+06    -60.9380E+06    -11.9635E+06     1.75462E+06    -13.7481E-03     27.3726E-03    -13.6245E-03     7.13902E-03    -13.7170E-03     27.1070E-03    -13.5743E-03     7.16062E-03
            1905     1.77579E-03     29.0346E-03    -15.8680E+06    -61.7299E+06    -14.5179E+06     1.20141E+06    -13.6255E-03     27.2064E-03    -13.5808E-03     4.75897E-03    -13.5944E-03     26.9418E-03    -13.5409E-03     4.77378E-03
            1906     887.922E-06     29.0311E-03    -16.7974E+06    -62.5468E+06    -16.3811E+06     654.265E+03    -13.5152E-03     27.1237E-03    -13.6085E-03     2.48125E-03    -13.4846E-03     26.8593E-03    -13.5754E-03     2.48931E-03
            1907     16.8404E-03     28.8052E-03    -3.56432E+06     149.883E+06     52.6375E+06     603.274E+03    -31.4477E-03     47.0097E-03    -15.5620E-03     261.308E-03    -39.1937E-03     55.1226E-03    -15.5110E-03     266.460E-03
            1908     15.9527E-03     28.6099E-03    -4.46544E+06     81.0313E+06    -11.3711E+06     2.50567E+06    -23.6286E-03     38.7913E-03    -15.1627E-03     161.702E-03    -25.3969E-03     40.8644E-03    -15.3306E-03     162.160E-03
            1909     15.0709E-03     28.4980E-03    -3.65974E+06     22.0562E+06    -13.3613E+06     3.23578E+06    -19.0844E-03     34.1938E-03    -15.1093E-03     91.2610E-03    -19.3463E-03     34.5597E-03    -15.2028E-03     91.2618E-03
            1910     14.1825E-03     28.4377E-03    -3.79408E+06    -18.8706E+06    -11.5888E+06     2.01433E+06    -18.3604E-03     33.4096E-03    -15.0491E-03     59.2364E-03    -18.4056E-03     33.4079E-03    -15.0742E-03     59.2145E-03
            1911     13.3017E-03     28.3887E-03    -4.39351E+06    -36.9014E+06    -9.84372E+06     2.27178E+06    -18.2090E-03     33.1344E-03    -14.9254E-03     54.2716E-03    -18.2026E-03     33.0100E-03    -14.9147E-03     54.2622E-03
            1912     12.4147E-03     28.3342E-03    -4.00856E+06    -40.2417E+06    -3.13689E+06     3.00265E+06    -17.6244E-03     32.4250E-03    -14.8006E-03     50.0032E-03    -17.6052E-03     32.2578E-03    -14.7521E-03     50.0140E-03
            1913     11.5308E-03     28.2921E-03    -4.56097E+06    -49.3858E+06    -5.12027E+06     3.50438E+06    -17.2912E-03     31.9336E-03    -14.6423E-03     42.8106E-03    -17.2485E-03     31.7141E-03    -14.5897E-03     42.8355E-03
            1914     10.6452E-03     28.2525E-03    -5.04065E+06    -58.8615E+06     -4.8631E+06     3.66374E+06    -16.9794E-03     31.4653E-03    -14.4859E-03     38.4811E-03    -16.9205E-03     31.1936E-03    -14.4175E-03     38.5136E-03
            1915     9.76026E-03     28.2166E-03    -5.63727E+06    -60.3456E+06    -902.360E+03     3.89912E+06    -16.3968E-03     30.7355E-03    -14.3387E-03     33.6852E-03    -16.3411E-03     30.4482E-03    -14.2475E-03     33.7250E-03
            1916     8.87379E-03     28.1868E-03    -6.21934E+06    -58.8812E+06    -929.900E+03     3.94194E+06    -15.9610E-03     30.1367E-03    -14.1756E-03     29.4468E-03    -15.9085E-03     29.8557E-03    -14.0859E-03     29.4902E-03
            1917     7.98818E-03     28.1583E-03    -6.98397E+06    -58.5324E+06    -1.24720E+06     3.78024E+06    -15.5013E-03     29.5208E-03    -14.0195E-03     25.3348E-03    -15.4515E-03     29.2421E-03    -13.9308E-03     25.3781E-03
            1918     7.10139E-03     28.1364E-03    -7.88758E+06    -57.7099E+06    -1.50540E+06     3.76021E+06    -14.9938E-03     28.8720E-03    -13.8782E-03     21.5254E-03    -14.9486E-03     28.5983E-03    -13.7906E-03     21.5698E-03
            1919     6.21444E-03     28.1155E-03    -9.18446E+06    -57.1886E+06    -2.21229E+06     3.67105E+06    -14.6400E-03     28.3901E-03    -13.7501E-03     18.1074E-03    -14.6006E-03     28.1215E-03    -13.6650E-03     18.1516E-03
            1920     5.32747E-03     28.0997E-03    -10.2026E+06    -57.1466E+06    -3.26156E+06     3.60988E+06    -14.2756E-03     27.9086E-03    -13.6330E-03     14.9063E-03    -14.2396E-03     27.6429E-03    -13.5516E-03     14.9504E-03
            1921     4.43977E-03     28.0855E-03    -11.5818E+06    -58.0481E+06    -5.60406E+06     3.03657E+06    -13.9522E-03     27.4818E-03    -13.5296E-03     11.9994E-03    -13.9181E-03     27.2168E-03    -13.4566E-03     12.0368E-03
            1922     3.55228E-03     28.0751E-03    -13.0870E+06    -58.6857E+06    -8.31207E+06     2.51974E+06    -13.7011E-03     27.1445E-03    -13.4435E-03     9.33770E-03    -13.6695E-03     26.8823E-03    -13.3810E-03     9.36882E-03
            1923     2.66417E-03     28.0665E-03    -14.2011E+06    -59.5192E+06    -11.3416E+06     2.04155E+06    -13.5168E-03     26.8897E-03    -13.3729E-03     6.88638E-03    -13.4852E-03     26.6292E-03    -13.3227E-03     6.91173E-03
            1924     1.77630E-03     28.0608E-03    -15.2631E+06    -60.4936E+06    -13.8707E+06     1.33415E+06    -13.3801E-03     26.7031E-03    -13.3230E-03     4.54873E-03    -13.3486E-03     26.4429E-03    -13.2825E-03     4.56528E-03
            1925     888.093E-06     28.0571E-03    -15.8454E+06    -60.9795E+06    -15.6787E+06     941.269E+03    -13.2381E-03     26.6016E-03    -13.3635E-03     2.44012E-03    -13.2060E-03     26.3427E-03    -13.3305E-03     2.45191E-03
            1926     16.8311E-03     27.8174E-03    -4.61997E+06     148.355E+06     51.7831E+06     911.310E+03    -31.5163E-03     47.1089E-03    -15.5926E-03     261.556E-03    -39.3620E-03     55.3148E-03    -15.5421E-03     266.760E-03
            1927     15.9567E-03     27.6287E-03    -5.06444E+06     79.3173E+06    -10.8919E+06     1.58069E+06    -24.4926E-03     39.6656E-03    -15.1729E-03     158.965E-03    -26.1789E-03     41.6470E-03    -15.3350E-03     159.346E-03
            1928     15.0683E-03     27.5213E-03    -3.14109E+06     21.6457E+06    -13.1748E+06     2.46967E+06    -19.4905E-03     34.5631E-03    -15.0725E-03     91.7477E-03    -19.7519E-03     34.9283E-03    -15.1652E-03     91.7366E-03
            1929     14.1859E-03     27.4571E-03    -3.25828E+06    -17.9846E+06    -11.1920E+06     2.82680E+06    -18.6974E-03     33.6837E-03    -14.9863E-03     58.5044E-03    -18.7402E-03     33.6835E-03    -15.0115E-03     58.4920E-03
            1930     13.3001E-03     27.4081E-03    -4.06979E+06    -37.4616E+06    -10.0841E+06     2.66400E+06    -18.5992E-03     33.4306E-03    -14.8314E-03     52.7146E-03    -18.5893E-03     33.3025E-03    -14.8216E-03     52.7095E-03
            1931     12.4181E-03     27.3566E-03    -3.99234E+06    -41.3144E+06    -3.92460E+06     3.20472E+06    -17.8290E-03     32.5044E-03    -14.6753E-03     49.1830E-03    -17.8062E-03     32.3321E-03    -14.6293E-03     49.1966E-03
            1932     11.5313E-03     27.3138E-03    -3.53650E+06    -49.2569E+06    -4.95753E+06     3.91526E+06    -17.4031E-03     31.8992E-03    -14.4961E-03     42.1828E-03    -17.3552E-03     31.6782E-03    -14.4443E-03     42.2133E-03
            1933     10.6477E-03     27.2737E-03    -4.35372E+06    -58.5961E+06    -4.97956E+06     4.25552E+06    -17.0035E-03     31.3233E-03    -14.3198E-03     37.4410E-03    -16.9411E-03     31.0518E-03    -14.2534E-03     37.4814E-03
            1934     9.76138E-03     27.2409E-03    -4.89387E+06    -59.4990E+06    -749.674E+03     4.23743E+06    -16.4255E-03     30.5799E-03    -14.1544E-03     33.0140E-03    -16.3674E-03     30.2954E-03    -14.0648E-03     33.0585E-03
            1935     8.87625E-03     27.2086E-03    -5.70075E+06    -58.4988E+06    -971.014E+03     4.19798E+06    -15.9056E-03     29.8793E-03    -13.9737E-03     28.6872E-03    -15.8509E-03     29.5995E-03    -13.8854E-03     28.7340E-03
            1936     7.98960E-03     27.1837E-03    -6.59930E+06    -57.9634E+06    -1.29315E+06     4.21809E+06    -15.3238E-03     29.1313E-03    -13.8075E-03     24.6274E-03    -15.2728E-03     28.8548E-03    -13.7203E-03     24.6765E-03
            1937     7.10290E-03     27.1598E-03    -7.68945E+06    -57.1510E+06    -1.25394E+06     4.03930E+06    -14.9194E-03     28.5754E-03    -13.6560E-03     20.9369E-03    -14.8743E-03     28.3038E-03    -13.5683E-03     20.9850E-03
            1938     6.21616E-03     27.1413E-03    -8.69266E+06    -56.3389E+06    -1.78382E+06     3.93531E+06    -14.4775E-03     27.9901E-03    -13.5126E-03     17.4640E-03    -14.4375E-03     27.7244E-03    -13.4272E-03     17.5118E-03
            1939     5.32848E-03     27.1245E-03    -9.87568E+06    -56.4787E+06    -3.02695E+06     3.61725E+06    -14.0585E-03     27.4450E-03    -13.3864E-03     14.3742E-03    -14.0221E-03     27.1818E-03    -13.3053E-03     14.4185E-03
            1940     4.44117E-03     27.1118E-03    -11.0956E+06    -56.7116E+06    -4.97861E+06     3.35225E+06    -13.7337E-03     27.0110E-03    -13.2773E-03     11.5521E-03    -13.7000E-03     26.7510E-03    -13.2039E-03     11.5935E-03
            1941     3.55292E-03     27.1009E-03    -12.5100E+06    -57.3754E+06    -7.88426E+06     2.70328E+06    -13.4828E-03     26.6634E-03    -13.1807E-03     8.97712E-03    -13.4509E-03     26.4063E-03    -13.1188E-03     9.01067E-03
            1942     2.66515E-03     27.0932E-03    -13.7625E+06    -58.1314E+06    -10.6914E+06     2.03434E+06    -13.2775E-03     26.3770E-03    -13.0995E-03     6.57501E-03    -13.2466E-03     26.1219E-03    -13.0488E-03     6.60031E-03
            1943     1.77669E-03     27.0872E-03    -14.4776E+06    -58.9208E+06    -13.1239E+06     1.51632E+06    -13.1102E-03     26.1502E-03    -13.0400E-03     4.33986E-03    -13.0782E-03     25.8956E-03    -12.9991E-03     4.35882E-03
            1944     888.474E-06     27.0840E-03    -15.3776E+06    -59.5200E+06    -14.8298E+06     952.241E+03    -12.9952E-03     26.0284E-03    -13.0332E-03     2.35729E-03    -12.9642E-03     25.7748E-03    -12.9987E-03     2.36924E-03
            1945     16.8397E-03     26.8298E-03    -4.00013E+06     148.285E+06     52.3418E+06     492.613E+03    -31.4327E-03     47.0405E-03    -15.6078E-03     262.680E-03    -39.4671E-03     55.4353E-03    -15.5553E-03     267.922E-03
            1946     15.9507E-03     26.6505E-03    -5.64389E+06     79.5821E+06    -11.1385E+06     878.667E+03    -24.6407E-03     39.8231E-03    -15.1824E-03     155.333E-03    -26.2589E-03     41.7360E-03    -15.3453E-03     155.703E-03
            1947     15.0713E-03     26.5384E-03    -6.09534E+06     20.3280E+06    -16.3990E+06     1.85724E+06    -21.0016E-03     36.0150E-03    -15.0134E-03     90.4815E-03    -21.2720E-03     36.3835E-03    -15.1160E-03     90.4521E-03
            1948     14.1867E-03     26.4791E-03    -4.57956E+06    -19.6480E+06    -12.9904E+06     3.10522E+06    -19.2011E-03     34.0654E-03    -14.8643E-03     57.4885E-03    -19.2441E-03     34.0600E-03    -14.8941E-03     57.4782E-03
            1949     13.3042E-03     26.4272E-03    -3.16926E+06    -37.0232E+06    -9.26630E+06     3.47966E+06    -18.3050E-03     33.0052E-03    -14.7001E-03     51.3325E-03    -18.2903E-03     32.8746E-03    -14.6882E-03     51.3395E-03
            1950     12.4176E-03     26.3792E-03    -3.65558E+06    -41.0904E+06    -3.82659E+06     3.43117E+06    -18.0539E-03     32.5858E-03    -14.5319E-03     48.2605E-03    -18.0293E-03     32.4135E-03    -14.4861E-03     48.2770E-03
            1951     11.5352E-03     26.3339E-03    -4.24166E+06    -50.1434E+06    -5.31309E+06     4.01006E+06    -17.4965E-03     31.8252E-03    -14.3288E-03     41.3759E-03    -17.4499E-03     31.6011E-03    -14.2765E-03     41.4078E-03
            1952     10.6486E-03     26.2980E-03    -3.54902E+06    -58.0136E+06    -4.19239E+06     4.68602E+06    -16.8864E-03     31.0263E-03    -14.1398E-03     36.6172E-03    -16.8215E-03     30.7550E-03    -14.0715E-03     36.6637E-03
            1953     9.76393E-03     26.2620E-03    -4.24028E+06    -59.1112E+06    -911.126E+03     4.80739E+06    -16.4344E-03     30.3917E-03    -13.9573E-03     32.2144E-03    -16.3732E-03     30.1083E-03    -13.8700E-03     32.2664E-03
            1954     8.87774E-03     26.2338E-03    -5.15111E+06    -58.0882E+06    -1.13517E+06     4.70110E+06    -15.7768E-03     29.5392E-03    -13.7624E-03     27.8436E-03    -15.7195E-03     29.2607E-03    -13.6764E-03     27.8972E-03
            1955     7.99131E-03     26.2070E-03    -5.92808E+06    -57.0477E+06    -858.543E+03     4.61151E+06    -15.2690E-03     28.8531E-03    -13.5840E-03     23.9220E-03    -15.2165E-03     28.5794E-03    -13.4970E-03     23.9764E-03
            1956     7.10485E-03     26.1854E-03    -6.97830E+06    -56.3839E+06    -838.311E+03     4.32919E+06    -14.7784E-03     28.1947E-03    -13.4163E-03     20.1702E-03    -14.7314E-03     27.9252E-03    -13.3286E-03     20.2222E-03
            1957     6.21742E-03     26.1661E-03    -8.06532E+06    -55.5031E+06    -1.10922E+06     4.05785E+06    -14.2839E-03     27.5471E-03    -13.2632E-03     16.8184E-03    -14.2429E-03     27.2836E-03    -13.1766E-03     16.8678E-03
            1958     5.33027E-03     26.1510E-03    -9.24785E+06    -55.3916E+06    -2.44819E+06     3.84963E+06    -13.8594E-03     26.9858E-03    -13.1264E-03     13.7936E-03    -13.8222E-03     26.7263E-03    -13.0449E-03     13.8410E-03
            1959     4.44196E-03     26.1377E-03    -10.6955E+06    -55.6366E+06    -4.71081E+06     3.36436E+06    -13.5054E-03     26.5116E-03    -13.0062E-03     11.0648E-03    -13.4717E-03     26.2560E-03    -12.9335E-03     11.1065E-03
            1960     3.55430E-03     26.1279E-03    -11.8688E+06    -55.7791E+06    -7.30203E+06     2.93232E+06    -13.2327E-03     26.1345E-03    -12.9017E-03     8.60039E-03    -13.2008E-03     25.8835E-03    -12.8401E-03     8.63696E-03
            1961     2.66564E-03     26.1198E-03    -13.0959E+06    -56.6718E+06    -10.1576E+06     2.21387E+06    -13.0046E-03     25.8193E-03    -12.8147E-03     6.29885E-03    -12.9733E-03     25.5698E-03    -12.7643E-03     6.32652E-03
            1962     1.77740E-03     26.1147E-03    -14.1501E+06    -57.4837E+06    -12.4683E+06     1.59596E+06    -12.8389E-03     25.5875E-03    -12.7486E-03     4.17295E-03    -12.8082E-03     25.3387E-03    -12.7071E-03     4.19296E-03
            1963     888.586E-06     26.1110E-03    -14.3472E+06    -57.8087E+06    -14.4901E+06     996.245E+03    -12.7493E-03     25.4328E-03    -12.6835E-03     2.26557E-03    -12.7160E-03     25.1858E-03    -12.6514E-03     2.27812E-03
            1964     16.8320E-03     25.8506E-03    -4.32868E+06     147.117E+06     52.0081E+06     327.407E+03    -31.5971E-03     47.1424E-03    -15.5453E-03     260.073E-03    -39.5096E-03     55.4110E-03    -15.4923E-03     265.164E-03
            1965     15.9558E-03     25.6646E-03    -5.91877E+06     80.2783E+06    -11.8570E+06     1.73760E+06    -24.4103E-03     39.5123E-03    -15.1020E-03     153.108E-03    -26.0024E-03     41.4025E-03    -15.2691E-03     153.509E-03
            1966     15.0710E-03     25.5601E-03    -6.65861E+06     19.6636E+06    -17.3863E+06     2.33902E+06    -21.4377E-03     36.3536E-03    -14.9159E-03     88.6635E-03    -21.7032E-03     36.7157E-03    -15.0217E-03     88.6358E-03
            1967     14.1900E-03     25.4950E-03    -5.85741E+06    -21.8981E+06    -13.9046E+06     2.45960E+06    -19.1579E-03     33.9073E-03    -14.7494E-03     56.6835E-03    -19.2012E-03     33.8924E-03    -14.7786E-03     56.6654E-03
            1968     13.3045E-03     25.4522E-03    -4.93404E+06    -36.4402E+06    -10.0774E+06     3.26408E+06    -18.5428E-03     33.1099E-03    -14.5671E-03     51.5721E-03    -18.5363E-03     32.9857E-03    -14.5575E-03     51.5762E-03
            1969     12.4216E-03     25.3970E-03    -4.36469E+06    -41.1894E+06    -4.40730E+06     3.66562E+06    -18.1750E-03     32.5521E-03    -14.3771E-03     47.8774E-03    -18.1527E-03     32.3809E-03    -14.3331E-03     47.8968E-03
            1970     11.5356E-03     25.3583E-03    -4.10148E+06    -50.2460E+06    -5.32774E+06     4.01822E+06    -17.5388E-03     31.6954E-03    -14.1566E-03     40.4786E-03    -17.4909E-03     31.4700E-03    -14.1044E-03     40.5109E-03
            1971     10.6515E-03     25.3187E-03    -4.26033E+06    -58.2757E+06    -4.94158E+06     4.67028E+06    -16.9748E-03     30.9190E-03    -13.9442E-03     35.9348E-03    -16.9117E-03     30.6483E-03    -13.8783E-03     35.9813E-03
            1972     9.76567E-03     25.2866E-03    -4.10801E+06    -59.3288E+06    -922.557E+03     5.11319E+06    -16.2704E-03     30.0195E-03    -13.7491E-03     31.2493E-03    -16.2080E-03     29.7346E-03    -13.6617E-03     31.3056E-03
            1973     8.87959E-03     25.2569E-03    -4.37566E+06    -57.1098E+06    -300.991E+03     5.11870E+06    -15.7521E-03     29.2949E-03    -13.5428E-03     27.0053E-03    -15.6934E-03     29.0188E-03    -13.4551E-03     27.0644E-03
            1974     7.99359E-03     25.2321E-03    -5.27704E+06    -56.3431E+06    -409.996E+03     4.84156E+06    -15.1943E-03     28.5372E-03    -13.3429E-03     23.0371E-03    -15.1401E-03     28.2655E-03    -13.2556E-03     23.0945E-03
            1975     7.10640E-03     25.2102E-03    -6.20179E+06    -55.3982E+06    -240.075E+03     4.72178E+06    -14.5710E-03     27.7333E-03    -13.1622E-03     19.4179E-03    -14.5224E-03     27.4667E-03    -13.0741E-03     19.4752E-03
            1976     6.21936E-03     25.1924E-03    -7.40966E+06    -54.6950E+06    -674.220E+03     4.31747E+06    -14.0830E-03     27.0837E-03    -13.0007E-03     16.1495E-03    -14.0404E-03     26.8226E-03    -12.9140E-03     16.2024E-03
            1977     5.33129E-03     25.1769E-03    -8.68632E+06    -54.2850E+06    -1.82033E+06     4.00683E+06    -13.6561E-03     26.5098E-03    -12.8537E-03     13.1927E-03    -13.6186E-03     26.2540E-03    -12.7715E-03     13.2423E-03
            1978     4.44376E-03     25.1649E-03    -9.86440E+06    -54.1707E+06    -4.20977E+06     3.64892E+06    -13.2714E-03     25.9919E-03    -12.7205E-03     10.5858E-03    -13.2363E-03     25.7417E-03    -12.6487E-03     10.6312E-03
            1979     3.55491E-03     25.1547E-03    -11.1816E+06    -54.4379E+06    -6.95323E+06     2.97366E+06    -12.9382E-03     25.5492E-03    -12.6110E-03     8.19922E-03    -12.9052E-03     25.3035E-03    -12.5506E-03     8.23640E-03
            1980     2.66670E-03     25.1476E-03    -12.2373E+06    -55.0806E+06    -9.48822E+06     2.40097E+06    -12.7104E-03     25.2370E-03    -12.5266E-03     6.01948E-03    -12.6780E-03     24.9931E-03    -12.4764E-03     6.04961E-03
            1981     1.77766E-03     25.1421E-03    -13.2329E+06    -55.8863E+06    -11.7867E+06     1.67344E+06    -12.5624E-03     25.0208E-03    -12.4583E-03     3.96453E-03    -12.5305E-03     24.7777E-03    -12.4171E-03     3.98557E-03
            1982     889.080E-06     25.1392E-03    -13.7073E+06    -55.9651E+06    -13.3140E+06     1.04937E+06    -12.4555E-03     24.8473E-03    -12.3919E-03     2.17110E-03    -12.4234E-03     24.6069E-03    -12.3574E-03     2.18435E-03
            1983     16.8459E-03     24.8700E-03    -4.36434E+06     146.066E+06     51.7475E+06     1.35879E+06    -32.5221E-03     47.9786E-03    -15.4564E-03     258.036E-03    -40.1567E-03     55.9663E-03    -15.4032E-03     262.875E-03
            1984     15.9545E-03     24.6864E-03    -7.08701E+06     78.5287E+06    -11.6783E+06     1.84087E+06    -24.4161E-03     39.4020E-03    -14.9859E-03     154.591E-03    -26.0176E-03     41.2908E-03    -15.1479E-03     154.976E-03
            1985     15.0751E-03     24.5740E-03    -5.66825E+06     19.6498E+06    -15.5614E+06     2.04318E+06    -20.8060E-03     35.6235E-03    -14.8175E-03     87.3565E-03    -21.0622E-03     35.9745E-03    -14.9156E-03     87.3269E-03
            1986     14.1892E-03     24.5207E-03    -4.32297E+06    -20.4067E+06    -12.4347E+06     2.52996E+06    -19.1232E-03     33.7812E-03    -14.6580E-03     56.1674E-03    -19.1609E-03     33.7672E-03    -14.6843E-03     56.1510E-03
            1987     13.3062E-03     24.4679E-03    -4.50014E+06    -36.9392E+06    -9.98077E+06     2.69355E+06    -19.0801E-03     33.5287E-03    -14.4486E-03     50.8001E-03    -19.0709E-03     33.4014E-03    -14.4384E-03     50.7955E-03
            1988     12.4224E-03     24.4215E-03    -4.23037E+06    -41.7160E+06    -4.23445E+06     3.47325E+06    -18.3859E-03     32.6088E-03    -14.2229E-03     46.6035E-03    -18.3617E-03     32.4338E-03    -14.1774E-03     46.6207E-03
            1989     11.5382E-03     24.3781E-03    -3.81695E+06    -50.6695E+06    -5.40059E+06     4.06417E+06    -17.6229E-03     31.5988E-03    -13.9759E-03     39.6129E-03    -17.5724E-03     31.3706E-03    -13.9239E-03     39.6462E-03
            1990     10.6535E-03     24.3425E-03    -3.84316E+06    -58.8422E+06    -4.87125E+06     4.58514E+06    -16.9596E-03     30.7048E-03    -13.7452E-03     34.8448E-03    -16.8934E-03     30.4302E-03    -13.6786E-03     34.8905E-03
            1991     9.76773E-03     24.3097E-03    -3.89833E+06    -58.5835E+06    -346.632E+03     5.03194E+06    -16.2861E-03     29.8174E-03    -13.5313E-03     30.4682E-03    -16.2243E-03     29.5348E-03    -13.4424E-03     30.5238E-03
            1992     8.88205E-03     24.2813E-03    -4.27318E+06    -56.8309E+06     -94.194E+03     5.14571E+06    -15.6792E-03     28.9829E-03    -13.3037E-03     26.0951E-03    -15.6206E-03     28.7077E-03    -13.2156E-03     26.1548E-03
            1993     7.99529E-03     24.2568E-03    -4.62716E+06    -55.4879E+06     204.314E+03     5.23003E+06    -15.0005E-03     28.0921E-03    -13.0916E-03     22.1675E-03    -14.9451E-03     27.8227E-03    -13.0034E-03     22.2301E-03
            1994     7.10854E-03     24.2362E-03    -5.57022E+06    -54.4667E+06     444.975E+03     4.97838E+06    -14.4184E-03     27.3185E-03    -12.9001E-03     18.6577E-03    -14.3689E-03     27.0546E-03    -12.8109E-03     18.7184E-03
            1995     6.22078E-03     24.2183E-03    -6.68342E+06    -53.5059E+06    -17.2752E+03     4.69045E+06    -13.8673E-03     26.5933E-03    -12.7260E-03     15.4317E-03    -13.8237E-03     26.3361E-03    -12.6388E-03     15.4895E-03
            1996     5.33326E-03     24.2040E-03    -8.02776E+06    -53.2225E+06    -1.71463E+06     4.22730E+06    -13.4046E-03     25.9738E-03    -12.5691E-03     12.6186E-03    -13.3655E-03     25.7222E-03    -12.4889E-03     12.6712E-03
            1997     4.44451E-03     24.1919E-03    -9.21864E+06    -52.8180E+06    -3.78352E+06     3.78627E+06    -13.0133E-03     25.4444E-03    -12.4311E-03     10.0795E-03    -12.9776E-03     25.1994E-03    -12.3601E-03     10.1268E-03
            1998     3.55645E-03     24.1828E-03    -10.2356E+06    -52.8467E+06    -6.35614E+06     3.20911E+06    -12.6702E-03     24.9853E-03    -12.3150E-03     7.80086E-03    -12.6357E-03     24.7452E-03    -12.2553E-03     7.84114E-03
            1999     2.66714E-03     24.1754E-03    -11.3669E+06    -53.5648E+06    -8.99163E+06     2.44631E+06    -12.4142E-03     24.6407E-03    -12.2265E-03     5.71862E-03    -12.3804E-03     24.4024E-03    -12.1773E-03     5.74939E-03
            2000     1.77848E-03     24.1705E-03    -12.1460E+06    -54.0594E+06    -10.9670E+06     1.67106E+06    -12.2549E-03     24.4166E-03    -12.1617E-03     3.76546E-03    -12.2213E-03     24.1798E-03    -12.1205E-03     3.78651E-03
            2001     889.060E-06     24.1674E-03    -12.7135E+06    -54.1255E+06    -12.0721E+06     895.657E+03    -12.1483E-03     24.2628E-03    -12.1146E-03     1.96675E-03    -12.1157E-03     24.0284E-03    -12.0780E-03     1.97802E-03
            2002     16.8337E-03     23.8915E-03    -4.45599E+06     145.253E+06     52.4482E+06     1.32329E+06    -33.7599E-03     49.2437E-03    -15.4838E-03     258.115E-03    -41.3239E-03     57.1557E-03    -15.4258E-03     262.921E-03
            2003     15.9601E-03     23.6992E-03    -4.10822E+06     77.4290E+06    -9.84342E+06     2.12248E+06    -25.9592E-03     40.9017E-03    -14.9425E-03     154.345E-03    -27.5235E-03     42.7549E-03    -15.0980E-03     154.648E-03
            2004     15.0740E-03     23.5991E-03    -3.90659E+06     20.2570E+06    -14.0522E+06     2.58356E+06    -21.0073E-03     35.7265E-03    -14.7192E-03     86.0695E-03    -21.2497E-03     36.0678E-03    -14.8132E-03     86.0464E-03
            2005     14.1914E-03     23.5365E-03    -5.35933E+06    -19.5552E+06    -12.2848E+06     2.05285E+06    -19.6722E-03     34.1955E-03    -14.5233E-03     54.4984E-03    -19.7147E-03     34.1852E-03    -14.5486E-03     54.4742E-03
            2006     13.3091E-03     23.4906E-03    -3.35717E+06    -37.6988E+06    -9.36891E+06     2.20281E+06    -18.9894E-03     33.2782E-03    -14.2888E-03     49.0611E-03    -18.9724E-03     33.1426E-03    -14.2761E-03     49.0511E-03
            2007     12.4247E-03     23.4409E-03    -2.86107E+06    -42.4874E+06    -3.63394E+06     3.36857E+06    -18.4055E-03     32.4569E-03    -14.0515E-03     45.4437E-03    -18.3733E-03     32.2744E-03    -14.0039E-03     45.4601E-03
            2008     11.5409E-03     23.4011E-03    -3.28753E+06    -51.4008E+06    -4.86780E+06     4.14444E+06    -17.6270E-03     31.4166E-03    -13.7896E-03     38.6031E-03    -17.5730E-03     31.1827E-03    -13.7347E-03     38.6378E-03
            2009     10.6552E-03     23.3652E-03    -3.08110E+06    -58.7396E+06    -4.24921E+06     4.68302E+06    -16.9593E-03     30.4999E-03    -13.5407E-03     34.0216E-03    -16.8900E-03     30.2235E-03    -13.4723E-03     34.0691E-03
            2010     9.77024E-03     23.3333E-03    -3.56957E+06    -58.3145E+06    -461.853E+03     5.01721E+06    -16.3463E-03     29.6470E-03    -13.3007E-03     29.4423E-03    -16.2829E-03     29.3653E-03    -13.2133E-03     29.4978E-03
            2011     8.88411E-03     23.3058E-03    -3.87523E+06    -56.2445E+06     85.1501E+03     5.16122E+06    -15.5071E-03     28.5631E-03    -13.0559E-03     25.1648E-03    -15.4475E-03     28.2898E-03    -12.9683E-03     25.2250E-03
            2012     7.99754E-03     23.2824E-03    -4.41953E+06    -55.0345E+06     400.247E+03     5.24154E+06    -14.8532E-03     27.6866E-03    -12.8334E-03     21.3408E-03    -14.7975E-03     27.4187E-03    -12.7452E-03     21.4038E-03
            2013     7.11024E-03     23.2619E-03    -4.94101E+06    -53.4217E+06     1.34494E+06     5.21965E+06    -14.2322E-03     26.8637E-03    -12.6316E-03     17.8101E-03    -14.1823E-03     26.6028E-03    -12.5402E-03     17.8740E-03
            2014     6.22290E-03     23.2454E-03    -6.00975E+06    -52.3413E+06     723.541E+03     4.99011E+06    -13.6415E-03     26.0879E-03    -12.4464E-03     14.7474E-03    -13.5972E-03     25.8344E-03    -12.3582E-03     14.8092E-03
            2015     5.33433E-03     23.2312E-03    -7.27085E+06    -51.8368E+06    -1.41355E+06     4.53837E+06    -13.1479E-03     25.4277E-03    -12.2799E-03     12.0228E-03    -13.1074E-03     25.1815E-03    -12.2012E-03     12.0794E-03
            2016     4.44633E-03     23.2200E-03    -8.43412E+06    -51.4920E+06    -3.70766E+06     3.84308E+06    -12.7292E-03     24.8664E-03    -12.1372E-03     9.55287E-03    -12.6915E-03     24.6268E-03    -12.0688E-03     9.60102E-03
            2017     3.55696E-03     23.2109E-03    -9.48786E+06    -51.3519E+06    -5.87508E+06     3.31826E+06    -12.3989E-03     24.4180E-03    -12.0191E-03     7.40397E-03    -12.3635E-03     24.1836E-03    -11.9602E-03     7.44573E-03
            2018     2.66842E-03     23.2041E-03    -10.2734E+06    -51.7157E+06    -8.09709E+06     2.66178E+06    -12.1335E-03     24.0586E-03    -11.9251E-03     5.44076E-03    -12.0982E-03     23.8268E-03    -11.8757E-03     5.47436E-03
            2019     1.77868E-03     23.1993E-03    -11.0815E+06    -52.1723E+06    -9.94769E+06     1.78496E+06    -11.9471E-03     23.8060E-03    -11.8589E-03     3.59133E-03    -11.9125E-03     23.5756E-03    -11.8169E-03     3.61388E-03
            2020     889.637E-06     23.1963E-03    -11.6410E+06    -52.2965E+06    -11.3501E+06     831.233E+03    -11.8415E-03     23.6589E-03    -11.8174E-03     1.81382E-03    -11.8073E-03     23.4310E-03    -11.7814E-03     1.82428E-03
            2021     16.8386E-03     22.8945E-03    -3.59561E+06     143.967E+06     51.6931E+06     1.15877E+06    -33.7388E-03     49.1873E-03    -15.4485E-03     253.107E-03    -41.1949E-03     56.9920E-03    -15.3936E-03     257.814E-03
            2022     15.9569E-03     22.7216E-03    -6.09574E+06     77.3388E+06    -12.7194E+06     2.97310E+06    -26.2302E-03     41.0969E-03    -14.8666E-03     148.826E-03    -27.7047E-03     42.8613E-03    -15.0335E-03     149.131E-03
            2023     15.0769E-03     22.6145E-03    -6.67054E+06     21.5190E+06    -15.5157E+06     2.12932E+06    -21.9023E-03     36.4988E-03    -14.5964E-03     84.7426E-03    -22.1546E-03     36.8488E-03    -14.6955E-03     84.7076E-03
            2024     14.1962E-03     22.5573E-03    -3.29106E+06    -19.3326E+06    -11.6565E+06     1.36175E+06    -19.6643E-03     34.0336E-03    -14.3694E-03     53.9981E-03    -19.6958E-03     34.0187E-03    -14.3949E-03     53.9660E-03
            2025     13.3106E-03     22.5115E-03    -2.73826E+06    -39.3771E+06    -10.0769E+06     2.17466E+06    -18.9539E-03     33.0786E-03    -14.1247E-03     49.3553E-03    -18.9295E-03     32.9339E-03    -14.1140E-03     49.3460E-03
            2026     12.4273E-03     22.4618E-03    -2.85309E+06    -43.7905E+06    -4.03380E+06     3.23969E+06    -18.3946E-03     32.2741E-03    -13.8795E-03     44.8319E-03    -18.3592E-03     32.0849E-03    -13.8321E-03     44.8471E-03
            2027     11.5422E-03     22.4239E-03    -2.70783E+06    -51.7721E+06    -4.59657E+06     4.35380E+06    -17.7306E-03     31.3317E-03    -13.6010E-03     37.6995E-03    -17.6732E-03     31.0941E-03    -13.5450E-03     37.7373E-03
            2028     10.6580E-03     22.3878E-03    -3.01183E+06    -58.9396E+06    -4.57421E+06     4.80338E+06    -17.1090E-03     30.4308E-03    -13.3218E-03     32.9258E-03    -17.0383E-03     30.1535E-03    -13.2548E-03     32.9748E-03
            2029     9.77254E-03     22.3573E-03    -3.01223E+06    -58.2268E+06    -621.002E+03     5.10447E+06    -16.1593E-03     29.2220E-03    -13.0627E-03     28.3215E-03    -16.0927E-03     28.9399E-03    -12.9770E-03     28.3786E-03
            2030     8.88627E-03     22.3309E-03    -3.48246E+06    -55.7668E+06     331.623E+03     5.29766E+06    -15.4253E-03     28.2333E-03    -12.8079E-03     24.2446E-03    -15.3646E-03     27.9613E-03    -12.7204E-03     24.3068E-03
            2031     7.99959E-03     22.3078E-03    -3.98922E+06    -54.2694E+06     826.327E+03     5.20158E+06    -14.6970E-03     27.2675E-03    -12.5705E-03     20.4299E-03    -14.6409E-03     27.0022E-03    -12.4819E-03     20.4926E-03
            2032     7.11246E-03     22.2887E-03    -4.70222E+06    -52.8968E+06     1.66801E+06     5.21792E+06    -13.9987E-03     26.3582E-03    -12.3595E-03     17.0252E-03    -13.9488E-03     26.0990E-03    -12.2676E-03     17.0893E-03
            2033     6.22421E-03     22.2725E-03    -5.41548E+06    -51.2638E+06     1.30490E+06     5.15523E+06    -13.4208E-03     25.5876E-03    -12.1669E-03     14.0398E-03    -13.3760E-03     25.3378E-03    -12.0781E-03     14.1039E-03
            2034     5.33641E-03     22.2591E-03    -6.43618E+06    -50.3222E+06    -938.868E+03     4.74485E+06    -12.8859E-03     24.8778E-03    -11.9920E-03     11.3999E-03    -12.8441E-03     24.6373E-03    -11.9144E-03     11.4593E-03
            2035     4.44710E-03     22.2484E-03    -7.53721E+06    -49.9178E+06    -3.39399E+06     4.13759E+06    -12.4513E-03     24.2960E-03    -11.8447E-03     9.09396E-03    -12.4119E-03     24.0625E-03    -11.7784E-03     9.14601E-03
            2036     3.55858E-03     22.2397E-03    -8.58817E+06    -49.7782E+06    -5.45266E+06     3.39804E+06    -12.1132E-03     23.8382E-03    -11.7250E-03     6.99884E-03    -12.0762E-03     23.6098E-03    -11.6676E-03     7.04169E-03
            2037     2.66866E-03     22.2334E-03    -9.45270E+06    -49.9125E+06    -7.33617E+06     2.74531E+06    -11.8517E-03     23.4810E-03    -11.6293E-03     5.13811E-03    -11.8160E-03     23.2558E-03    -11.5799E-03     5.17284E-03
            2038     1.77964E-03     22.2286E-03    -9.95463E+06    -50.1530E+06    -9.02121E+06     1.94396E+06    -11.6559E-03     23.2145E-03    -11.5586E-03     3.38751E-03    -11.6199E-03     22.9913E-03    -11.5166E-03     3.41215E-03
            2039     889.552E-06     22.2261E-03    -10.6736E+06    -50.3997E+06    -10.3053E+06     925.025E+03    -11.5394E-03     23.0557E-03    -11.5163E-03     1.74291E-03    -11.5046E-03     22.8344E-03    -11.4793E-03     1.75459E-03
            2040     16.8439E-03     21.9166E-03    -5.83612E+06     143.277E+06     54.1470E+06     1.68507E+06    -34.8293E-03     50.1840E-03    -15.3547E-03     252.545E-03    -42.1781E-03     57.8638E-03    -15.2832E-03     256.949E-03
            2041     15.9605E-03     21.7372E-03    -7.14861E+06     77.5799E+06    -8.27196E+06     1.20746E+06    -25.7004E-03     40.4578E-03    -14.7574E-03     147.177E-03    -27.1577E-03     42.1891E-03    -14.9009E-03     147.456E-03
            2042     15.0801E-03     21.6316E-03    -3.31659E+06     21.1230E+06    -13.8770E+06     661.165E+03    -21.2925E-03     35.7814E-03    -14.4889E-03     83.4834E-03    -21.5221E-03     36.1146E-03    -14.5841E-03     83.4326E-03
            2043     14.1939E-03     21.5801E-03    -2.11214E+06    -19.6155E+06    -11.0776E+06     1.89095E+06    -19.6716E-03     33.9414E-03    -14.2698E-03     54.1516E-03    -19.6965E-03     33.9213E-03    -14.2937E-03     54.1271E-03
            2044     13.3126E-03     21.5292E-03    -3.05092E+06    -39.8962E+06    -10.3889E+06     2.49522E+06    -19.5018E-03     33.4990E-03    -13.9972E-03     48.6766E-03    -19.4773E-03     33.3522E-03    -13.9869E-03     48.6705E-03
            2045     12.4289E-03     21.4856E-03    -3.25986E+06    -44.5498E+06    -4.22100E+06     3.18230E+06    -18.7130E-03     32.4247E-03    -13.7117E-03     43.4786E-03    -18.6773E-03     32.2316E-03    -13.6635E-03     43.4933E-03
            2046     11.5448E-03     21.4444E-03    -3.00838E+06    -52.3677E+06    -4.93720E+06     4.24977E+06    -17.9072E-03     31.3054E-03    -13.3982E-03     36.5850E-03    -17.8495E-03     31.0655E-03    -13.3426E-03     36.6216E-03
            2047     10.6607E-03     21.4116E-03    -2.77315E+06    -59.4423E+06    -4.47834E+06     4.92426E+06    -16.9852E-03     30.0852E-03    -13.1001E-03     31.6792E-03    -16.9123E-03     29.8046E-03    -13.0322E-03     31.7303E-03
            2048     9.77453E-03     21.3817E-03    -2.71691E+06    -57.6276E+06    -369.988E+03     5.27228E+06    -16.0969E-03     28.9236E-03    -12.8267E-03     27.3650E-03    -16.0299E-03     28.6434E-03    -12.7411E-03     27.4246E-03
            2049     8.88864E-03     21.3560E-03    -2.98995E+06    -55.6277E+06     243.192E+03     5.17602E+06    -15.2988E-03     27.8543E-03    -12.5555E-03     23.2102E-03    -15.2356E-03     27.5823E-03    -12.4692E-03     23.2711E-03
            2050     8.00185E-03     21.3341E-03    -3.33496E+06    -53.5278E+06     1.51652E+06     5.34023E+06    -14.4944E-03     26.8048E-03    -12.3104E-03     19.4897E-03    -14.4370E-03     26.5411E-03    -12.2203E-03     19.5544E-03
            2051     7.11401E-03     21.3159E-03    -4.15645E+06    -52.0946E+06     1.93291E+06     5.27299E+06    -13.7924E-03     25.8816E-03    -12.0892E-03     16.2291E-03    -13.7413E-03     25.6252E-03    -11.9980E-03     16.2941E-03
            2052     6.22645E-03     21.3000E-03    -5.21975E+06    -50.4184E+06     987.372E+03     5.09624E+06    -13.1622E-03     25.0505E-03    -11.8883E-03     13.3281E-03    -13.1171E-03     24.8050E-03    -11.8027E-03     13.3916E-03
            2053     5.33735E-03     21.2879E-03    -5.89041E+06    -48.8953E+06    -756.908E+03     4.84528E+06    -12.6286E-03     24.3395E-03    -11.7109E-03     10.8185E-03    -12.5864E-03     24.1050E-03    -11.6353E-03     10.8793E-03
            2054     4.44889E-03     21.2771E-03    -6.73877E+06    -48.2853E+06    -2.81375E+06     4.31939E+06    -12.1903E-03     23.7508E-03    -11.5606E-03     8.60232E-03    -12.1500E-03     23.5235E-03    -11.4949E-03     8.65679E-03
            2055     3.55904E-03     21.2694E-03    -7.56576E+06    -47.9611E+06    -4.71414E+06     3.59121E+06    -11.8394E-03     23.2763E-03    -11.4369E-03     6.61536E-03    -11.8009E-03     23.0544E-03    -11.3800E-03     6.66078E-03
            2056     2.67002E-03     21.2628E-03    -8.38037E+06    -48.0546E+06    -6.59204E+06     2.80876E+06    -11.5681E-03     22.9066E-03    -11.3384E-03     4.84119E-03    -11.5308E-03     22.6880E-03    -11.2896E-03     4.87678E-03
            2057     1.77972E-03     21.2589E-03     -8.9866E+06    -48.3146E+06    -8.16543E+06     1.95943E+06    -11.3641E-03     22.6320E-03    -11.2679E-03     3.17853E-03    -11.3272E-03     22.4153E-03    -11.2256E-03     3.20339E-03
            2058     890.179E-06     21.2559E-03    -9.17533E+06    -48.1705E+06    -8.99248E+06     1.09989E+06    -11.2719E-03     22.4780E-03    -11.2061E-03     1.66763E-03    -11.2347E-03     22.2637E-03    -11.1679E-03     1.68158E-03
            2059     16.8388E-03     20.9297E-03    -3.79409E+06     143.226E+06     55.0455E+06     947.898E+03    -36.1778E-03     51.5449E-03    -15.3671E-03     251.417E-03    -43.4211E-03     59.1237E-03    -15.2941E-03     255.674E-03
            2060     15.9645E-03     20.7519E-03    -1.03711E+06     77.0628E+06    -5.26982E+06    -429.663E+03    -26.6313E-03     41.3423E-03    -14.7110E-03     146.112E-03    -28.0395E-03     43.0358E-03    -14.8476E-03     146.303E-03
            2061     15.0782E-03     20.6561E-03    -744.510E+03     20.4292E+06    -11.7542E+06     1.93859E+06    -21.5267E-03     35.9322E-03    -14.4055E-03     82.5154E-03    -21.7388E-03     36.2482E-03    -14.4928E-03     82.4802E-03
            2062     14.1978E-03     20.5954E-03    -3.81224E+06    -20.0302E+06    -11.0945E+06     2.76672E+06    -20.3395E-03     34.4838E-03    -14.1443E-03     52.0375E-03    -20.3709E-03     34.4628E-03    -14.1652E-03     52.0217E-03
            2063     13.3145E-03     20.5523E-03    -3.88470E+06    -39.5259E+06    -9.47321E+06     2.26489E+06    -19.5707E-03     33.4080E-03    -13.8373E-03     46.3137E-03    -19.5506E-03     33.2613E-03    -13.8217E-03     46.3048E-03
            2064     12.4311E-03     20.5042E-03    -3.39741E+06    -44.8905E+06    -3.63329E+06     3.00031E+06    -18.8361E-03     32.3643E-03    -13.5283E-03     42.2744E-03    -18.8007E-03     32.1681E-03    -13.4764E-03     42.2871E-03
            2065     11.5483E-03     20.4684E-03    -3.33631E+06    -53.7259E+06    -4.46796E+06     3.97851E+06    -17.8527E-03     31.0500E-03    -13.1973E-03     35.3909E-03    -17.7948E-03     30.8025E-03    -13.1369E-03     35.4246E-03
            2066     10.6619E-03     20.4345E-03    -2.68125E+06    -59.1315E+06    -3.99569E+06     4.73717E+06    -16.8888E-03     29.7727E-03    -12.8838E-03     30.6619E-03    -16.8163E-03     29.4923E-03    -12.8142E-03     30.7111E-03
            2067     9.77742E-03     20.4065E-03    -2.62488E+06    -57.1127E+06     218.189E+03     5.05807E+06    -16.0643E-03     28.6593E-03    -12.5951E-03     26.2231E-03    -15.9982E-03     28.3806E-03    -12.5074E-03     26.2801E-03
            2068     8.89081E-03     20.3814E-03    -2.76989E+06    -55.0412E+06     583.846E+03     5.23027E+06    -15.1149E-03     27.4236E-03    -12.3087E-03     22.2140E-03    -15.0518E-03     27.1536E-03    -12.2219E-03     22.2759E-03
            2069     8.00363E-03     20.3610E-03    -3.24130E+06    -53.5181E+06     1.35232E+06     5.30752E+06    -14.3095E-03     26.3635E-03    -12.0540E-03     18.5864E-03    -14.2513E-03     26.0999E-03    -11.9649E-03     18.6508E-03
            2070     7.11638E-03     20.3428E-03    -3.81151E+06    -51.1232E+06     2.15124E+06     5.56840E+06    -13.5647E-03     25.3907E-03    -11.8261E-03     15.3952E-03    -13.5134E-03     25.1383E-03    -11.7356E-03     15.4641E-03
            2071     6.22757E-03     20.3289E-03    -4.64010E+06    -49.1492E+06     695.574E+03     5.13246E+06    -12.9086E-03     24.5267E-03    -11.6181E-03     12.6400E-03    -12.8620E-03     24.2872E-03    -11.5367E-03     12.7041E-03
            2072     5.33928E-03     20.3162E-03    -5.57231E+06    -47.7675E+06    -866.226E+03     4.67340E+06    -12.3848E-03     23.8236E-03    -11.4388E-03     10.2224E-03    -12.3425E-03     23.5944E-03    -11.3658E-03     10.2811E-03
            2073     4.44965E-03     20.3071E-03    -6.04898E+06    -46.6561E+06    -2.23891E+06     4.26536E+06    -11.9348E-03     23.2210E-03    -11.2862E-03     8.11074E-03    -11.8943E-03     22.9999E-03    -11.2210E-03     8.16459E-03
            2074     3.56055E-03     20.2988E-03    -6.68095E+06    -46.2047E+06    -3.99677E+06     3.65238E+06    -11.5659E-03     22.7263E-03    -11.1604E-03     6.24487E-03    -11.5266E-03     22.5108E-03    -11.1037E-03     6.29113E-03
            2075     2.67023E-03     20.2936E-03    -7.27536E+06    -46.1941E+06    -5.71082E+06     2.90656E+06    -11.2897E-03     22.3520E-03    -11.0623E-03     4.56539E-03    -11.2508E-03     22.1399E-03    -11.0133E-03     4.60229E-03
            2076     1.78063E-03     20.2890E-03    -7.71383E+06    -46.2553E+06    -6.94371E+06     1.98009E+06    -11.0888E-03     22.0826E-03    -10.9938E-03     2.99561E-03    -11.0502E-03     21.8725E-03    -10.9502E-03     3.02077E-03
            2077     890.090E-06     20.2871E-03    -7.88408E+06    -46.0035E+06    -7.66982E+06     1.23855E+06    -10.9889E-03     21.9308E-03    -10.9419E-03     1.65554E-03    -10.9503E-03     21.7236E-03    -10.9021E-03     1.67131E-03
            2078     16.8407E-03     19.9340E-03    -2.01587E+06     141.312E+06     52.3891E+06    -880.561E+03    -35.6258E-03     50.9849E-03    -15.3591E-03     247.394E-03    -42.8057E-03     58.5074E-03    -15.2991E-03     251.617E-03
            2079     15.9592E-03     19.7727E-03    -4.12864E+06     75.1317E+06    -12.9823E+06     2.25829E+06    -27.2086E-03     41.8740E-03    -14.6654E-03     140.214E-03    -28.5044E-03     43.4597E-03    -14.8333E-03     140.406E-03
            2080     15.0825E-03     19.6702E-03    -7.86029E+06     20.3944E+06    -16.7080E+06     3.22636E+06    -22.8429E-03     37.1487E-03    -14.3059E-03     81.4055E-03    -23.0796E-03     37.4784E-03    -14.4076E-03     81.3785E-03
            2081     14.2006E-03     19.6169E-03    -5.22702E+06    -19.0914E+06    -11.9966E+06     2.24293E+06    -20.6866E-03     34.6832E-03    -13.9967E-03     51.8305E-03    -20.7234E-03     34.6685E-03    -14.0214E-03     51.8076E-03
            2082     13.3176E-03     19.5715E-03    -3.14555E+06    -39.2442E+06    -9.69676E+06     2.30023E+06    -19.7423E-03     33.4065E-03    -13.6642E-03     46.3171E-03    -19.7176E-03     33.2594E-03    -13.6512E-03     46.3093E-03
            2083     12.4343E-03     19.5269E-03    -3.06979E+06    -46.6711E+06    -3.97561E+06     2.79307E+06    -18.7839E-03     32.1255E-03    -13.3417E-03     41.2531E-03    -18.7428E-03     31.9195E-03    -13.2894E-03     41.2639E-03
            2084     11.5487E-03     19.4900E-03    -2.79172E+06    -54.2496E+06    -3.79321E+06     3.81972E+06    -17.7861E-03     30.7886E-03    -13.0025E-03     34.1353E-03    -17.7250E-03     30.5360E-03    -12.9388E-03     34.1678E-03
            2085     10.6657E-03     19.4591E-03    -2.95530E+06    -59.0779E+06    -4.11062E+06     4.55149E+06    -16.9330E-03     29.6011E-03    -12.6680E-03     29.4568E-03    -16.8615E-03     29.3212E-03    -12.5986E-03     29.5040E-03
            2086     9.77900E-03     19.4305E-03    -2.81660E+06    -57.3448E+06    -62.9802E+03     4.70078E+06    -15.8593E-03     28.2247E-03    -12.3654E-03     25.0950E-03    -15.7932E-03     27.9453E-03    -12.2785E-03     25.1478E-03
            2087     8.89293E-03     19.4082E-03    -2.94010E+06    -54.5419E+06     1.16144E+06     5.21767E+06    -14.9775E-03     27.0524E-03    -12.0748E-03     21.1679E-03    -14.9167E-03     26.7841E-03    -11.9857E-03     21.2298E-03
            2088     8.00593E-03     19.3872E-03    -3.52515E+06    -53.0779E+06     1.31159E+06     5.40191E+06    -14.1047E-03     25.9136E-03    -11.8089E-03     17.6660E-03    -14.0484E-03     25.6525E-03    -11.7203E-03     17.7319E-03
            2089     7.11768E-03     19.3716E-03    -3.85981E+06    -50.4680E+06     1.84617E+06     5.27842E+06    -13.3373E-03     24.9117E-03    -11.5744E-03     14.5951E-03    -13.2868E-03     24.6630E-03    -11.4864E-03     14.6604E-03
            2090     6.22964E-03     19.3568E-03    -4.23130E+06    -47.7827E+06     928.647E+03     5.16333E+06    -12.6940E-03     24.0565E-03    -11.3626E-03     11.9317E-03    -12.6476E-03     23.8228E-03    -11.2825E-03     11.9963E-03
            2091     5.34027E-03     19.3464E-03    -4.85672E+06    -46.3801E+06    -745.769E+03     4.58101E+06    -12.1297E-03     23.3084E-03    -11.1787E-03     9.65274E-03    -12.0859E-03     23.0848E-03    -11.1081E-03     9.71036E-03
            2092     4.45118E-03     19.3363E-03    -5.55807E+06    -45.3143E+06    -2.10419E+06     4.04634E+06    -11.6733E-03     22.6998E-03    -11.0265E-03     7.64841E-03    -11.6325E-03     22.4845E-03    -10.9632E-03     7.69952E-03
            2093     3.56106E-03     19.3300E-03    -5.87740E+06    -44.5131E+06    -3.30269E+06     3.57339E+06    -11.3140E-03     22.2158E-03    -10.9019E-03     5.90118E-03    -11.2741E-03     22.0066E-03    -10.8453E-03     5.94648E-03
            2094     2.67135E-03     19.3238E-03    -6.27551E+06    -44.3385E+06    -4.71438E+06     2.80843E+06    -11.0302E-03     21.8342E-03    -10.8040E-03     4.27073E-03    -10.9905E-03     21.6285E-03    -10.7542E-03     4.30640E-03
            2095     1.78074E-03     19.3206E-03    -6.55338E+06    -44.1842E+06    -5.76750E+06     1.91706E+06    -10.8168E-03     21.5573E-03    -10.7406E-03     2.82009E-03    -10.7771E-03     21.3543E-03    -10.6958E-03     2.84447E-03
            2096     890.570E-06     19.3177E-03    -6.69936E+06    -43.8754E+06    -6.39720E+06     1.05222E+06    -10.7374E-03     21.4337E-03    -10.6964E-03     1.58804E-03    -10.6977E-03     21.2336E-03    -10.6550E-03     1.60141E-03
            2097     16.8411E-03     18.9490E-03    -5.86218E+06     139.626E+06     51.9474E+06     236.225E+03    -35.5327E-03     50.8146E-03    -15.2819E-03     245.099E-03    -42.5825E-03     58.1887E-03    -15.2161E-03     249.162E-03
            2098     15.9649E-03     18.7869E-03    -11.0029E+06     73.3790E+06    -12.2714E+06     2.32861E+06    -26.7581E-03     41.3584E-03    -14.6002E-03     136.938E-03    -28.0028E-03     42.8601E-03    -14.7520E-03     137.127E-03
            2099     15.0819E-03     18.6879E-03    -7.66043E+06     22.0969E+06    -16.2948E+06     1.87589E+06    -22.8442E-03     37.0675E-03    -14.2233E-03     79.4496E-03    -23.0751E-03     37.3970E-03    -14.3258E-03     79.4044E-03
            2100     14.1999E-03     18.6364E-03    -6.59190E+06    -18.8766E+06    -12.5709E+06     751.626E+03    -20.9019E-03     34.8002E-03    -13.8984E-03     50.8848E-03    -20.9423E-03     34.7867E-03    -13.9243E-03     50.8435E-03
            2101     13.3182E-03     18.5908E-03    -5.68080E+06    -41.2801E+06    -11.7911E+06     1.80631E+06    -20.2776E-03     33.8070E-03    -13.5295E-03     45.2144E-03    -20.2585E-03     33.6555E-03    -13.5203E-03     45.1998E-03
            2102     12.4358E-03     18.5485E-03    -3.90915E+06    -47.5491E+06    -4.30205E+06     2.75437E+06    -19.0489E-03     32.2208E-03    -13.1719E-03     39.6987E-03    -19.0092E-03     32.0110E-03    -13.1188E-03     39.7094E-03
            2103     11.5528E-03     18.5134E-03    -3.77906E+06    -54.4704E+06    -4.43962E+06     3.56201E+06    -17.8100E-03     30.6144E-03    -12.8044E-03     33.0525E-03    -17.7520E-03     30.3626E-03    -12.7422E-03     33.0821E-03
            2104     10.6666E-03     18.4819E-03    -2.76959E+06    -59.1841E+06    -4.10793E+06     4.35566E+06    -16.7945E-03     29.2529E-03    -12.4584E-03     28.1792E-03    -16.7215E-03     28.9719E-03    -12.3891E-03     28.2243E-03
            2105     9.78182E-03     18.4572E-03    -2.87873E+06    -57.2398E+06    -311.715E+03     4.71243E+06    -15.7574E-03     27.9023E-03    -12.1449E-03     23.9080E-03    -15.6912E-03     27.6236E-03    -12.0593E-03     23.9614E-03
            2106     8.89487E-03     18.4331E-03    -3.34797E+06    -54.7186E+06     1.00886E+06     5.05539E+06    -14.7573E-03     26.6061E-03    -11.8488E-03     20.1291E-03    -14.6979E-03     26.3377E-03    -11.7596E-03     20.1892E-03
            2107     8.00754E-03     18.4160E-03    -3.50076E+06    -52.0182E+06     2.10010E+06     5.23735E+06    -13.9284E-03     25.5091E-03    -11.5807E-03     16.6975E-03    -13.8745E-03     25.2520E-03    -11.4897E-03     16.7614E-03
            2108     7.11969E-03     18.3988E-03    -4.02524E+06    -49.7194E+06     1.55573E+06     4.88121E+06    -13.1382E-03     24.4733E-03    -11.3351E-03     13.7275E-03    -13.0891E-03     24.2289E-03    -11.2494E-03     13.7878E-03
            2109     6.23081E-03     18.3871E-03    -4.19711E+06    -46.8692E+06     855.152E+03     4.73816E+06    -12.4507E-03     23.5715E-03    -11.1208E-03     11.2308E-03    -12.4054E-03     23.3424E-03    -11.0425E-03     11.2900E-03
            2110     5.34183E-03     18.3753E-03    -4.49615E+06    -44.9447E+06    -467.332E+03     4.47961E+06    -11.8857E-03     22.8231E-03    -10.9374E-03     9.06704E-03    -11.8425E-03     22.6058E-03    -10.8680E-03     9.12345E-03
            2111     4.45199E-03     18.3677E-03    -4.83896E+06    -43.8589E+06    -1.85786E+06     3.87588E+06    -11.4234E-03     22.2089E-03    -10.7855E-03     7.20092E-03    -11.3814E-03     21.9994E-03    -10.7242E-03     7.24991E-03
            2112     3.56215E-03     18.3601E-03    -5.30908E+06    -43.0581E+06    -2.92119E+06     3.27799E+06    -11.0814E-03     21.7433E-03    -10.6619E-03     5.54135E-03    -11.0413E-03     21.5400E-03    -10.6064E-03     5.58290E-03
            2113     2.67174E-03     18.3557E-03    -5.44170E+06    -42.3684E+06    -3.85277E+06     2.53023E+06    -10.7943E-03     21.3579E-03    -10.5636E-03     3.98533E-03    -10.7545E-03     21.1595E-03    -10.5135E-03     4.01745E-03
            2114     1.78138E-03     18.3516E-03    -5.67527E+06    -42.2919E+06    -4.94907E+06     1.73279E+06    -10.5896E-03     21.0839E-03    -10.4943E-03     2.61962E-03    -10.5494E-03     20.8878E-03    -10.4495E-03     2.64164E-03
            2115     890.593E-06     18.3498E-03    -5.94275E+06    -42.1037E+06    -5.66863E+06     1.08764E+06    -10.5051E-03     20.9317E-03    -10.4266E-03     1.54347E-03    -10.4653E-03     20.7383E-03    -10.3853E-03     1.55732E-03
            2116     16.8457E-03     17.9658E-03    -5.07156E+06     139.746E+06     53.4390E+06     3.39068E+06    -37.1287E-03     52.3989E-03    -15.2702E-03     244.151E-03    -44.0277E-03     59.6212E-03    -15.1983E-03     248.023E-03
            2117     15.9626E-03     17.8006E-03    -7.52640E+06     75.1411E+06    -7.95657E+06     1.22257E+06    -27.2338E-03     41.7713E-03    -14.5375E-03     135.123E-03    -28.4310E-03     43.2317E-03    -14.6753E-03     135.258E-03
            2118     15.0845E-03     17.7076E-03    -6.28586E+06     23.1125E+06    -14.5600E+06    -684.603E+03    -22.9189E-03     37.0463E-03    -14.1275E-03     77.1509E-03    -23.1369E-03     37.3664E-03    -14.2246E-03     77.0727E-03
            2119     14.2028E-03     17.6540E-03    -5.70191E+06    -19.1522E+06    -11.8138E+06     612.902E+03    -21.4349E-03     35.2047E-03    -13.7698E-03     48.5909E-03    -21.4694E-03     35.1853E-03    -13.7928E-03     48.5463E-03
            2120     13.3213E-03     17.6111E-03    -5.29840E+06    -42.4283E+06    -10.4800E+06     1.11842E+06    -20.1812E-03     33.5607E-03    -13.3795E-03     42.5685E-03    -20.1584E-03     33.3990E-03    -13.3627E-03     42.5458E-03
            2121     12.4380E-03     17.5696E-03    -4.94012E+06    -48.6759E+06    -4.44259E+06     2.07656E+06    -19.0231E-03     32.0296E-03    -13.0065E-03     38.2032E-03    -18.9860E-03     31.8151E-03    -12.9510E-03     38.2057E-03
            2122     11.5538E-03     17.5359E-03    -4.33075E+06    -54.9471E+06    -3.43701E+06     3.12316E+06    -17.8971E-03     30.5226E-03    -12.6255E-03     31.5915E-03    -17.8422E-03     30.2672E-03    -12.5567E-03     31.6157E-03
            2123     10.6697E-03     17.5073E-03    -4.17741E+06    -59.9518E+06    -4.25753E+06     3.90492E+06    -16.6621E-03     28.9222E-03    -12.2601E-03     26.9667E-03    -16.5944E-03     28.6392E-03    -12.1884E-03     27.0066E-03
            2124     9.78333E-03     17.4811E-03    -3.52536E+06    -57.0798E+06    -234.482E+03     4.51731E+06    -15.6153E-03     27.5530E-03    -11.9377E-03     22.6314E-03    -15.5524E-03     27.2757E-03    -11.8510E-03     22.6825E-03
            2125     8.89696E-03     17.4618E-03    -3.66773E+06    -54.2688E+06     1.62249E+06     4.81161E+06    -14.6074E-03     26.2430E-03    -11.6356E-03     19.0221E-03    -14.5510E-03     25.9762E-03    -11.5434E-03     19.0793E-03
            2126     8.00928E-03     17.4420E-03    -3.76669E+06    -51.6254E+06     1.86703E+06     4.74760E+06    -13.7177E-03     25.0758E-03    -11.3580E-03     15.6928E-03    -13.6654E-03     24.8213E-03    -11.2684E-03     15.7506E-03
            2127     7.12128E-03     17.4291E-03    -4.03986E+06    -48.4661E+06     1.63866E+06     4.71703E+06    -12.9334E-03     24.0429E-03    -11.1096E-03     12.8298E-03    -12.8862E-03     23.8047E-03    -11.0252E-03     12.8881E-03
            2128     6.23230E-03     17.4155E-03    -4.61794E+06    -46.2189E+06     133.726E+03     4.27430E+06    -12.2212E-03     23.1120E-03    -10.8908E-03     10.5045E-03    -12.1778E-03     22.8878E-03    -10.8165E-03     10.5579E-03
            2129     5.34294E-03     17.4066E-03    -4.54576E+06    -43.7917E+06    -575.767E+03     3.97229E+06    -11.6506E-03     22.3600E-03    -10.7094E-03     8.43656E-03    -11.6092E-03     22.1487E-03    -10.6422E-03     8.48652E-03
            2130     4.45303E-03     17.3978E-03    -4.80876E+06    -42.4958E+06    -1.75741E+06     3.60891E+06    -11.2164E-03     21.7725E-03    -10.5561E-03     6.70532E-03    -11.1764E-03     21.5697E-03    -10.4963E-03     6.75094E-03
            2131     3.56290E-03     17.3920E-03    -4.89775E+06    -41.5003E+06    -2.80662E+06     2.86674E+06    -10.8387E-03     21.2696E-03    -10.4309E-03     5.09938E-03    -10.7990E-03     21.0733E-03    -10.3776E-03     5.13568E-03
            2132     2.67238E-03     17.3869E-03    -5.09500E+06    -40.8471E+06    -3.85244E+06     2.20373E+06    -10.5593E-03     20.8943E-03    -10.3350E-03     3.69364E-03    -10.5200E-03     20.7030E-03    -10.2876E-03     3.72160E-03
            2133     1.78175E-03     17.3839E-03    -5.21757E+06    -40.5847E+06    -4.61461E+06     1.62918E+06    -10.3883E-03     20.6486E-03    -10.2602E-03     2.45659E-03    -10.3489E-03     20.4599E-03    -10.2169E-03     2.47731E-03
            2134     890.983E-06     17.3818E-03    -5.27079E+06    -40.2051E+06    -5.11472E+06     1.11208E+06    -10.2729E-03     20.4492E-03    -10.1762E-03     1.40390E-03    -10.2333E-03     20.2635E-03    -10.1359E-03     1.41808E-03
            2135     16.8371E-03     16.9693E-03    -4.98189E+06     139.738E+06     57.7188E+06     1.24272E+06    -37.8712E-03     53.1704E-03    -15.2992E-03     238.461E-03    -44.5922E-03     60.2025E-03    -15.2060E-03     242.110E-03
            2136     15.9683E-03     16.8184E-03    -3.68531E+06     77.5275E+06    -5.55546E+06     885.234E+03    -28.1318E-03     42.6148E-03    -14.4830E-03     130.469E-03    -29.2505E-03     44.0119E-03    -14.6179E-03     130.563E-03
            2137     15.0847E-03     16.7244E-03    -5.42774E+06     22.6840E+06    -15.8645E+06     1.28625E+06    -23.8665E-03     37.8622E-03    -13.9957E-03     75.6513E-03    -24.0735E-03     38.1765E-03    -14.1001E-03     75.5922E-03
            2138     14.2058E-03     16.6712E-03    -5.18920E+06    -18.9167E+06    -11.4516E+06     460.516E+03    -21.3846E-03     34.9938E-03    -13.6092E-03     46.8765E-03    -21.4140E-03     34.9710E-03    -13.6316E-03     46.8310E-03
            2139     13.3233E-03     16.6327E-03    -4.16745E+06    -42.8104E+06    -10.4211E+06     942.055E+03    -20.0131E-03     33.2257E-03    -13.2126E-03     41.7284E-03    -19.9825E-03     33.0586E-03    -13.1966E-03     41.7051E-03
            2140     12.4399E-03     16.5908E-03    -4.02066E+06    -49.2750E+06    -3.89735E+06     1.98309E+06    -19.0054E-03     31.8415E-03    -12.8361E-03     36.7480E-03    -18.9627E-03     31.6210E-03    -12.7783E-03     36.7499E-03
            2141     11.5566E-03     16.5593E-03    -4.22691E+06    -56.2203E+06    -3.58948E+06     2.94448E+06    -17.7992E-03     30.2425E-03    -12.4432E-03     29.8181E-03    -17.7410E-03     29.9801E-03    -12.3735E-03     29.8408E-03
            2142     10.6712E-03     16.5311E-03    -4.49862E+06    -60.5818E+06    -3.89962E+06     3.60402E+06    -16.5992E-03     28.6687E-03    -12.0695E-03     25.4370E-03    -16.5324E-03     28.3822E-03    -11.9946E-03     25.4734E-03
            2143     9.78559E-03     16.5083E-03    -4.70169E+06    -57.0417E+06      77.658E+03     4.04654E+06    -15.4444E-03     27.1829E-03    -11.7385E-03     21.4229E-03    -15.3877E-03     26.9068E-03    -11.6486E-03     21.4684E-03
            2144     8.89860E-03     16.4873E-03    -4.50445E+06    -53.9776E+06     1.98808E+06     4.21876E+06    -14.5115E-03     25.9384E-03    -11.4268E-03     17.7001E-03    -14.4601E-03     25.6736E-03    -11.3321E-03     17.7498E-03
            2145     8.01133E-03     16.4718E-03    -4.70113E+06    -51.3096E+06     1.27427E+06     4.38962E+06    -13.5060E-03     24.6428E-03    -11.1369E-03     14.5494E-03    -13.4577E-03     24.3921E-03    -11.0493E-03     14.6029E-03
            2146     7.12242E-03     16.4569E-03    -4.66269E+06    -47.8010E+06     628.866E+03     4.15132E+06    -12.7170E-03     23.6004E-03    -10.8834E-03     11.8318E-03    -12.6724E-03     23.3678E-03    -10.8041E-03     11.8831E-03
            2147     6.23389E-03     16.4466E-03    -4.71718E+06    -44.6795E+06     133.270E+03     3.84963E+06    -12.0363E-03     22.6996E-03    -10.6634E-03     9.51754E-03    -11.9956E-03     22.4832E-03    -10.5911E-03     9.56556E-03
            2148     5.34390E-03     16.4367E-03    -5.21205E+06    -43.0318E+06    -1.37063E+06     3.38564E+06    -11.4498E-03     21.9232E-03    -10.4733E-03     7.69965E-03    -11.4117E-03     21.7177E-03    -10.4102E-03     7.74216E-03
            2149     4.45424E-03     16.4296E-03    -4.98887E+06    -41.1078E+06    -2.01193E+06     2.92509E+06    -10.9855E-03     21.3025E-03    -10.3170E-03     6.00522E-03    -10.9480E-03     21.1072E-03    -10.2602E-03     6.04209E-03
            2150     3.56360E-03     16.4236E-03    -4.98849E+06    -40.1864E+06    -3.26278E+06     2.46357E+06    -10.5841E-03     20.7758E-03    -10.1917E-03     4.59877E-03    -10.5461E-03     20.5868E-03    -10.1425E-03     4.62994E-03
            2151     2.67309E-03     16.4192E-03    -5.10656E+06    -39.6082E+06    -4.19953E+06     1.89628E+06    -10.3141E-03     20.4146E-03    -10.1004E-03     3.34574E-03    -10.2762E-03     20.2300E-03    -10.0566E-03     3.36978E-03
            2152     1.78199E-03     16.4162E-03    -5.17619E+06    -39.1176E+06    -4.65316E+06     1.40315E+06    -10.1495E-03     20.1809E-03    -10.0314E-03     2.23354E-03    -10.1119E-03     19.9996E-03    -9.99041E-03     2.25137E-03
            2153     891.131E-06     16.4141E-03    -5.00130E+06    -38.3353E+06    -4.58657E+06     929.876E+03    -10.0470E-03     19.9985E-03    -9.95156E-03     1.16100E-03    -10.0095E-03     19.8210E-03    -9.91165E-03     1.17285E-03
            2154     16.8492E-03     15.9804E-03    -5.56003E+06     138.127E+06     57.8103E+06     246.076E+03    -37.5903E-03     52.8354E-03    -15.2451E-03     233.656E-03    -44.0405E-03     59.5890E-03    -15.1483E-03     237.120E-03
            2155     15.9626E-03     15.8341E-03    -6.10769E+06     77.0409E+06    -5.67785E+06     1.75552E+06    -28.3266E-03     42.7390E-03    -14.4124E-03     127.916E-03    -29.3933E-03     44.0738E-03    -14.5436E-03     128.012E-03
            2156     15.0898E-03     15.7370E-03    -5.72501E+06     24.5003E+06    -14.5344E+06     2.15067E+06    -24.4928E-03     38.3836E-03    -13.8908E-03     73.1865E-03    -24.6978E-03     38.6975E-03    -13.9907E-03     73.1332E-03
            2157     14.2072E-03     15.6942E-03    -4.20867E+06    -19.2777E+06    -11.1544E+06     1.17152E+06    -21.2688E-03     34.7437E-03    -13.4748E-03     44.9698E-03    -21.2887E-03     34.7126E-03    -13.4966E-03     44.9360E-03
            2158     13.3242E-03     15.6505E-03    -5.05417E+06    -44.0949E+06    -11.1634E+06     1.09646E+06    -20.1590E-03     33.2236E-03    -13.0646E-03     40.5101E-03    -20.1282E-03     33.0507E-03    -13.0491E-03     40.4898E-03
            2159     12.4431E-03     15.6137E-03    -5.05278E+06    -50.3294E+06    -4.14819E+06     2.23833E+06    -19.1035E-03     31.7728E-03    -12.6693E-03     35.0952E-03    -19.0629E-03     31.5477E-03    -12.6097E-03     35.1013E-03
            2160     11.5580E-03     15.5820E-03    -4.95485E+06    -57.0967E+06    -3.76386E+06     3.07818E+06    -17.6890E-03     29.9508E-03    -12.2617E-03     28.3624E-03    -17.6322E-03     29.6847E-03    -12.1906E-03     28.3876E-03
            2161     10.6737E-03     15.5564E-03    -4.89328E+06    -60.5227E+06    -3.71171E+06     3.45404E+06    -16.5448E-03     28.4225E-03    -11.8777E-03     23.8544E-03    -16.4799E-03     28.1361E-03    -11.8014E-03     23.8894E-03
            2162     9.78727E-03     15.5341E-03    -5.14863E+06    -56.5697E+06     642.363E+03     3.75428E+06    -15.4655E-03     26.9954E-03    -11.5299E-03     19.8389E-03    -15.4123E-03     26.7212E-03    -11.4372E-03     19.8809E-03
            2163     8.90081E-03     15.5150E-03    -5.52772E+06    -53.9577E+06     1.27125E+06     3.73718E+06    -14.3321E-03     25.5307E-03    -11.1986E-03     16.0946E-03    -14.2846E-03     25.2683E-03    -11.1060E-03     16.1385E-03
            2164     8.01265E-03     15.5001E-03    -5.71217E+06     -50.562E+06     796.622E+03     3.68221E+06    -13.4151E-03     24.3115E-03    -10.8963E-03     13.0326E-03    -13.3722E-03     24.0665E-03    -10.8108E-03     13.0771E-03
            2165     7.12473E-03     15.4869E-03    -5.82447E+06    -46.9819E+06    -398.082E+03     3.44861E+06    -12.5199E-03     23.1468E-03    -10.6268E-03     10.4328E-03    -12.4808E-03     22.9213E-03    -10.5522E-03     10.4752E-03
            2166     6.23491E-03     15.4767E-03    -5.80056E+06    -43.9316E+06    -988.592E+03     3.09471E+06    -11.8167E-03     22.2150E-03    -10.3983E-03     8.31481E-03    -11.7808E-03     22.0054E-03    -10.3312E-03     8.35326E-03
            2167     5.34579E-03     15.4680E-03    -5.59617E+06    -41.5413E+06    -1.53475E+06     2.77630E+06    -11.2320E-03     21.4345E-03    -10.2025E-03     6.65696E-03    -11.1977E-03     21.2373E-03    -10.1418E-03     6.69172E-03
            2168     4.45508E-03     15.4613E-03    -5.78226E+06    -40.3764E+06    -3.42283E+06     2.27065E+06    -10.6818E-03     20.7212E-03    -10.0394E-03     5.18677E-03    -10.6473E-03     20.5328E-03    -9.98956E-03     5.21532E-03
            2169     3.56476E-03     15.4558E-03    -5.77519E+06    -39.0830E+06    -4.28919E+06     2.00418E+06    -10.3070E-03     20.2258E-03    -9.91873E-03     3.98169E-03    -10.2731E-03     20.0450E-03    -9.87513E-03     4.00702E-03
            2170     2.67353E-03     15.4520E-03    -5.76670E+06    -38.3788E+06    -4.79782E+06     1.61426E+06    -10.0539E-03     19.8813E-03    -9.82741E-03     2.90662E-03    -10.0201E-03     19.7047E-03    -9.78739E-03     2.92708E-03
            2171     1.78272E-03     15.4488E-03    -5.70626E+06    -37.8679E+06    -5.07331E+06     1.08890E+06    -9.86916E-03     19.6273E-03    -9.75819E-03     1.88459E-03    -9.83540E-03     19.4536E-03    -9.72038E-03     1.89841E-03
            2172     891.260E-06     15.4475E-03    -5.57447E+06    -37.1141E+06    -5.31715E+06     534.704E+03    -9.74969E-03     19.4531E-03    -9.70345E-03     950.112E-06    -9.71575E-03     19.2836E-03    -9.66814E-03     956.874E-06
            2173     16.8398E-03     14.9984E-03    -6.87439E+06     136.501E+06     57.2065E+06     957.093E+03    -38.4737E-03     53.6808E-03    -15.2072E-03     230.167E-03    -44.6513E-03     60.1530E-03    -15.1091E-03     233.491E-03
            2174     15.9704E-03     14.8422E-03    -6.29174E+06     76.1304E+06    -3.45138E+06     971.467E+03    -29.0982E-03     43.4253E-03    -14.3271E-03     124.423E-03    -30.1121E-03     44.6973E-03    -14.4456E-03     124.466E-03
            2175     15.0878E-03     14.7570E-03    -3.92039E+06     24.9314E+06    -13.3017E+06     983.860E+03    -23.9088E-03     37.6859E-03    -13.7771E-03     68.8310E-03    -24.0887E-03     37.9791E-03    -13.8741E-03     68.7678E-03
            2176     14.2085E-03     14.7101E-03    -4.91123E+06    -18.9524E+06    -10.9843E+06     1.97204E+06    -21.3823E-03     34.7425E-03    -13.3602E-03     43.2303E-03    -21.4031E-03     34.7106E-03    -13.3806E-03     43.2081E-03
            2177     13.3284E-03     14.6731E-03    -5.21960E+06    -44.3884E+06    -11.1081E+06     2.16378E+06    -20.4550E-03     33.3811E-03    -12.9261E-03     39.5299E-03    -20.4235E-03     33.2058E-03    -12.9097E-03     39.5236E-03
            2178     12.4431E-03     14.6340E-03    -5.58039E+06    -52.1690E+06    -4.21528E+06     2.42256E+06    -19.1842E-03     31.6923E-03    -12.5081E-03     33.1861E-03    -19.1423E-03     31.4577E-03    -12.4454E-03     33.1954E-03
            2179     11.5613E-03     14.6063E-03    -5.83195E+06    -56.8508E+06    -2.06783E+06     3.18396E+06    -17.8145E-03     29.8983E-03    -12.0838E-03     26.3663E-03    -17.7641E-03     29.6314E-03    -12.0032E-03     26.3936E-03
            2180     10.6749E-03     14.5814E-03    -6.15253E+06    -60.2748E+06    -3.03929E+06     3.30572E+06    -16.6868E-03     28.3525E-03    -11.6657E-03     21.9830E-03    -16.6290E-03     28.0677E-03    -11.5846E-03     22.0165E-03
            2181     9.79033E-03     14.5597E-03    -6.24943E+06    -56.5845E+06     786.431E+03     3.31216E+06    -15.4665E-03     26.7534E-03    -11.2869E-03     17.6861E-03    -15.4186E-03     26.4802E-03    -11.1919E-03     17.7228E-03
            2182     8.90272E-03     14.5438E-03    -6.56789E+06    -53.0866E+06     1.49637E+06     3.32566E+06    -14.3185E-03     25.2467E-03    -10.9282E-03     14.1668E-03    -14.2775E-03     24.9897E-03    -10.8342E-03     14.2057E-03
            2183     8.01550E-03     14.5280E-03    -6.98228E+06    -49.9516E+06    -667.747E+03     3.06923E+06    -13.2645E-03     23.8598E-03    -10.5952E-03     11.1246E-03    -13.2266E-03     23.6217E-03    -10.5160E-03     11.1614E-03
            2184     7.12641E-03     14.5178E-03    -7.29006E+06    -46.1422E+06    -1.40253E+06     2.79110E+06    -12.3271E-03     22.6375E-03    -10.3104E-03     8.77642E-03    -12.2949E-03     22.4197E-03    -10.2400E-03     8.81057E-03
            2185     6.23753E-03     14.5071E-03    -7.33558E+06    -43.1433E+06    -2.56961E+06     2.38085E+06    -11.5317E-03     21.5987E-03    -10.0671E-03     6.99416E-03    -11.5022E-03     21.3976E-03    -10.0067E-03     7.02360E-03
            2186     5.34702E-03     14.5001E-03    -7.28010E+06    -41.1263E+06    -3.82831E+06     1.97854E+06    -10.8745E-03     20.7409E-03    -9.86639E-03     5.47911E-03    -10.8458E-03     20.5514E-03    -9.81534E-03     5.50373E-03
            2187     4.45693E-03     14.4934E-03    -7.14517E+06    -39.4213E+06    -4.76927E+06     1.83031E+06    -10.3689E-03     20.0751E-03    -9.70625E-03     4.29650E-03    -10.3406E-03     19.8953E-03    -9.66257E-03     4.31949E-03
            2188     3.56559E-03     14.4890E-03    -7.13681E+06    -38.2608E+06    -5.57242E+06     1.48705E+06    -9.99660E-03     19.5766E-03    -9.58000E-03     3.25712E-03    -9.96875E-03     19.4037E-03    -9.54204E-03     3.27586E-03
            2189     2.67474E-03     14.4847E-03    -6.96554E+06    -37.3604E+06    -5.88321E+06     1.16653E+06    -9.71580E-03     19.2000E-03    -9.48418E-03     2.36118E-03    -9.68793E-03     19.0318E-03    -9.44933E-03     2.37593E-03
            2190     1.78305E-03     14.4827E-03    -6.87156E+06    -36.8593E+06    -6.31546E+06     759.611E+03    -9.50961E-03     18.9274E-03    -9.41781E-03     1.54317E-03    -9.48134E-03     18.7622E-03    -9.38597E-03     1.55277E-03
            2191     891.697E-06     14.4806E-03    -7.06655E+06    -36.3338E+06    -6.61651E+06     238.227E+03    -9.41318E-03     18.7817E-03    -9.36848E-03     787.060E-06    -9.38595E-03     18.6201E-03    -9.33863E-03     790.023E-06
            2192     16.8467E-03     13.9976E-03    -3.04283E+06     137.962E+06     58.7047E+06     1.04785E+06    -39.1163E-03     54.2406E-03    -15.1243E-03     222.466E-03    -44.8694E-03     60.3031E-03    -15.0264E-03     225.449E-03
            2193     15.9697E-03     13.8600E-03    -4.92905E+06     74.5426E+06    -5.13576E+06     3.12688E+03    -28.6318E-03     42.8364E-03    -14.2046E-03     120.418E-03    -29.5806E-03     44.0475E-03    -14.3312E-03     120.444E-03
            2194     15.0931E-03     13.7714E-03    -4.73877E+06     23.3290E+06    -14.4273E+06     1.68925E+06    -23.6327E-03     37.2997E-03    -13.6670E-03     66.5314E-03    -23.8000E-03     37.5750E-03    -13.7661E-03     66.4793E-03
            2195     14.2107E-03     13.7321E-03    -5.12169E+06    -18.2927E+06    -10.4932E+06     2.37075E+06    -21.6161E-03     34.8610E-03    -13.2449E-03     42.0898E-03    -21.6372E-03     34.8295E-03    -13.2635E-03     42.0731E-03
            2196     13.3267E-03     13.6907E-03    -6.46308E+06    -44.8880E+06    -10.7433E+06     2.51950E+06    -21.0194E-03     33.7955E-03    -12.7761E-03     37.0350E-03    -20.9925E-03     33.6176E-03    -12.7554E-03     37.0329E-03
            2197     12.4482E-03     13.6569E-03    -5.76761E+06    -52.2357E+06    -2.84938E+06     3.08571E+06    -19.4162E-03     31.7346E-03    -12.3184E-03     30.1995E-03    -19.3755E-03     31.4963E-03    -12.2485E-03     30.2183E-03
            2198     11.5616E-03     13.6298E-03    -6.53487E+06    -56.7298E+06    -789.275E+03     3.10603E+06    -18.0970E-03     29.9527E-03    -11.8557E-03     23.9731E-03    -18.0515E-03     29.6849E-03    -11.7679E-03     23.9999E-03
            2199     10.6796E-03     13.6054E-03    -7.10519E+06    -59.6120E+06    -1.56124E+06     3.16295E+06    -16.8256E-03     28.2237E-03    -11.3982E-03     19.2277E-03    -16.7751E-03     27.9411E-03    -11.3092E-03     19.2599E-03
            2200     9.79208E-03     13.5878E-03    -7.76495E+06    -56.4211E+06     964.029E+03     3.06648E+06    -15.4664E-03     26.4467E-03    -10.9802E-03     15.3297E-03    -15.4263E-03     26.1759E-03    -10.8823E-03     15.3637E-03
            2201     8.90641E-03     13.5700E-03    -8.49524E+06    -52.5437E+06     828.251E+03     2.94084E+06    -14.2760E-03     24.8618E-03    -10.5857E-03     11.8244E-03    -14.2443E-03     24.6110E-03    -10.4931E-03     11.8586E-03
            2202     8.01809E-03     13.5592E-03    -9.01009E+06    -49.2058E+06    -2.00112E+06     2.60881E+06    -13.0564E-03     23.2794E-03    -10.2230E-03     9.11309E-03    -13.0277E-03     23.0498E-03    -10.1486E-03     9.14429E-03
            2203     7.12952E-03     13.5469E-03    -8.94961E+06    -45.4081E+06    -3.31479E+06     2.09031E+06    -12.0404E-03     21.9581E-03    -9.91771E-03     7.04324E-03    -12.0147E-03     21.7491E-03    -9.85547E-03     7.06857E-03
            2204     6.23963E-03     13.5399E-03    -9.04352E+06    -42.4901E+06    -4.62219E+06     1.70903E+06    -11.1729E-03     20.8362E-03    -9.66327E-03     5.50276E-03    -11.1500E-03     20.6437E-03    -9.61166E-03     5.52369E-03
            2205     5.34952E-03     13.5318E-03    -9.11624E+06    -40.6667E+06    -6.03492E+06     1.33154E+06    -10.4786E-03     19.9362E-03    -9.45761E-03     4.27299E-03    -10.4565E-03     19.7549E-03    -9.41559E-03     4.28940E-03
            2206     4.45827E-03     13.5272E-03    -8.96624E+06    -38.8376E+06    -6.43378E+06     1.10846E+06    -9.99849E-03     19.2927E-03    -9.29420E-03     3.28949E-03    -9.97771E-03     19.1209E-03    -9.25706E-03     3.30325E-03
            2207     3.56746E-03     13.5219E-03    -8.76232E+06    -37.5620E+06    -6.92262E+06     926.198E+03    -9.61084E-03     18.7706E-03    -9.15980E-03     2.48582E-03    -9.59016E-03     18.6056E-03    -9.12724E-03     2.49739E-03
            2208     2.67560E-03     13.5193E-03    -8.49526E+06    -36.7377E+06    -7.55621E+06     619.922E+03    -9.28155E-03     18.3407E-03    -9.05914E-03     1.78134E-03    -9.25980E-03     18.1803E-03    -9.03133E-03     1.78908E-03
            2209     1.78398E-03     13.5162E-03    -8.42275E+06    -36.2109E+06    -8.05738E+06     457.416E+03    -9.07669E-03     18.0739E-03    -8.99723E-03     1.17611E-03    -9.05459E-03     17.9168E-03    -8.97280E-03     1.18185E-03
            2210     891.904E-06     13.5156E-03    -8.44176E+06    -35.8008E+06    -8.44129E+06     129.676E+03    -9.00474E-03     17.9488E-03    -8.94410E-03     611.987E-06    -8.98251E-03     17.7946E-03    -8.92216E-03     613.571E-06
            2211     16.8508E-03     13.0195E-03    -4.08422E+06     135.043E+06     55.2306E+06     605.078E+03    -39.4705E-03     54.5346E-03    -15.0641E-03     219.408E-03    -44.8394E-03     60.2090E-03    -14.9778E-03     222.083E-03
            2212     15.9703E-03     12.8674E-03    -3.78836E+06     73.1428E+06    -5.52337E+06     2.60394E+06    -28.6712E-03     42.8053E-03    -14.1341E-03     117.829E-03    -29.5738E-03     43.9703E-03    -14.2623E-03     117.855E-03
            2213     15.0913E-03     12.7921E-03    -6.41275E+06     23.5095E+06    -13.8084E+06     2.66737E+06    -24.2065E-03     37.7821E-03    -13.5756E-03     62.9267E-03    -24.3693E-03     38.0458E-03    -13.6694E-03     62.8868E-03
            2214     14.2105E-03     12.7489E-03    -8.30295E+06    -17.9601E+06    -12.0781E+06     2.86917E+06    -22.6474E-03     35.7294E-03    -13.0820E-03     40.0740E-03    -22.6802E-03     35.7041E-03    -13.1043E-03     40.0620E-03
            2215     13.3345E-03     12.7097E-03    -6.53594E+06    -44.2728E+06    -9.90674E+06     2.77953E+06    -21.2784E-03     33.8424E-03    -12.5640E-03     33.6392E-03    -21.2510E-03     33.6634E-03    -12.5398E-03     33.6418E-03
            2216     12.4479E-03     12.6803E-03    -7.39711E+06    -52.6952E+06    -2.72632E+06     3.34033E+06    -19.7548E-03     31.8206E-03    -12.0658E-03     27.6644E-03    -19.7203E-03     31.5807E-03    -11.9923E-03     27.6875E-03
            2217     11.5683E-03     12.6510E-03    -7.66693E+06    -56.0353E+06     99.6393E+03     3.38039E+06    -18.4301E-03     29.9859E-03    -11.5559E-03     21.2934E-03    -18.3917E-03     29.7212E-03    -11.4630E-03     21.3243E-03
            2218     10.6811E-03     12.6328E-03    -8.35158E+06    -58.6248E+06    -160.970E+03     3.11695E+06    -16.9092E-03     27.9643E-03    -11.0551E-03     16.3994E-03    -16.8679E-03     27.6858E-03    -10.9588E-03     16.4316E-03
            2219     9.79743E-03     12.6124E-03    -9.44031E+06    -55.9455E+06     450.190E+03     3.14072E+06    -15.4204E-03     26.0129E-03    -10.5925E-03     12.7207E-03    -15.3883E-03     25.7475E-03    -10.4955E-03     12.7560E-03
            2220     8.90951E-03     12.6006E-03    -10.2850E+06    -52.1338E+06    -922.219E+03     2.77608E+06    -14.0172E-03     24.1838E-03    -10.1666E-03     9.56105E-03    -13.9923E-03     23.9400E-03    -10.0807E-03     9.59350E-03
            2221     8.02186E-03     12.5872E-03    -10.6277E+06    -47.9895E+06    -2.91928E+06     1.98499E+06    -12.8284E-03     22.6138E-03    -9.78544E-03     7.03450E-03    -12.8080E-03     22.3939E-03    -9.71504E-03     7.05788E-03
            2222     7.13269E-03     12.5800E-03    -10.9761E+06    -44.9055E+06    -5.55495E+06     1.38757E+06    -11.6720E-03     21.1286E-03    -9.45660E-03     5.29488E-03    -11.6539E-03     20.9282E-03    -9.40335E-03     5.31131E-03
            2223     6.24267E-03     12.5709E-03    -10.9736E+06    -42.0661E+06    -6.76030E+06     1.04604E+06    -10.7737E-03     19.9647E-03    -9.19103E-03     4.03479E-03    -10.7579E-03     19.7802E-03    -9.14792E-03     4.04728E-03
            2224     5.35189E-03     12.5662E-03    -10.9489E+06    -39.8966E+06    -7.37496E+06     733.312E+03    -10.0993E-03     19.0733E-03    -8.97400E-03     3.04811E-03    -10.0855E-03     18.9004E-03    -8.93715E-03     3.05687E-03
            2225     4.46087E-03     12.5601E-03    -11.0617E+06    -38.5321E+06    -8.51624E+06     437.352E+03    -9.53771E-03     18.3323E-03    -8.79459E-03     2.30103E-03    -9.52482E-03     18.1680E-03    -8.76526E-03     2.30618E-03
            2226     3.56892E-03     12.5571E-03    -10.8489E+06    -37.2747E+06    -9.22105E+06     227.955E+03    -9.09980E-03     17.7557E-03    -8.65587E-03     1.67652E-03    -9.08664E-03     17.5984E-03    -8.63220E-03     1.67912E-03
            2227     2.67711E-03     12.5534E-03    -10.7339E+06    -36.5379E+06     -9.8937E+06     220.149E+03    -8.79271E-03     17.3461E-03    -8.55339E-03     1.21567E-03    -8.77906E-03     17.1933E-03    -8.53432E-03     1.21828E-03
            2228     1.78478E-03     12.5521E-03    -10.5111E+06    -35.8627E+06    -10.2592E+06     169.888E+03    -8.58219E-03     17.0666E-03    -8.48440E-03     814.176E-06    -8.56785E-03     16.9174E-03    -8.46845E-03     816.225E-06
            2229     892.454E-06     12.5499E-03    -10.4259E+06    -35.3746E+06    -10.4661E+06     26.0455E+03    -8.48983E-03     16.9156E-03    -8.42574E-03     416.576E-06    -8.47521E-03     16.7692E-03    -8.41166E-03     416.826E-06
            2230     16.8397E-03     12.0188E-03    -3.75678E+06     133.317E+06     54.1892E+06    -908.838E+03    -40.0021E-03     55.0972E-03    -15.0951E-03     213.179E-03    -45.0905E-03     60.4885E-03    -15.0120E-03     215.626E-03
            2231     15.9743E-03     11.8826E-03    -8.07204E+06     69.9737E+06    -8.19127E+06     2.89977E+06    -30.1634E-03     44.2578E-03    -14.0944E-03     111.381E-03    -30.9816E-03     45.3198E-03    -14.2251E-03     111.351E-03
            2232     15.0941E-03     11.8095E-03    -7.52983E+06     24.3989E+06    -14.2109E+06     5.20373E+06    -25.5323E-03     38.9731E-03    -13.4408E-03     61.0689E-03    -25.6921E-03     39.2340E-03    -13.5363E-03     61.0584E-03
            2233     14.2183E-03     11.7627E-03    -6.35187E+06    -15.7832E+06    -10.0024E+06     3.28245E+06    -23.4919E-03     36.3669E-03    -12.8750E-03     36.8033E-03    -23.5177E-03     36.3434E-03    -12.8929E-03     36.7958E-03
            2234     13.3327E-03     11.7337E-03    -7.03070E+06    -44.4331E+06    -9.62866E+06     3.05486E+06    -21.4614E-03     33.7657E-03    -12.3044E-03     31.2537E-03    -21.4340E-03     33.5837E-03    -12.2779E-03     31.2619E-03
            2235     12.4554E-03     11.6977E-03    -8.22182E+06    -52.5166E+06    -2.05310E+06     3.26380E+06    -20.2905E-03     32.0512E-03    -11.7607E-03     25.1835E-03    -20.2606E-03     31.8117E-03    -11.6829E-03     25.2057E-03
            2236     11.5694E-03     11.6780E-03    -9.30290E+06    -55.5671E+06     1.07553E+06     3.78357E+06    -18.6487E-03     29.8464E-03    -11.1977E-03     18.2855E-03    -18.6198E-03     29.5843E-03    -11.0983E-03     18.3223E-03
            2237     10.6879E-03     11.6548E-03    -10.2989E+06    -58.2526E+06     268.904E+03     3.44464E+06    -16.9391E-03     27.5905E-03    -10.6513E-03     13.8435E-03    -16.9084E-03     27.3156E-03    -10.5506E-03     13.8805E-03
            2238     9.80069E-03     11.6428E-03    -11.1604E+06    -55.2904E+06      385.49E+03     2.88587E+06    -15.3026E-03     25.4528E-03    -10.1502E-03     10.2234E-03    -15.2798E-03     25.1930E-03    -10.0519E-03     10.2559E-03
            2239     8.91411E-03     11.6275E-03    -11.6089E+06    -50.9690E+06    -2.00030E+06     2.45404E+06    -13.7522E-03     23.4430E-03    -9.69079E-03     7.26872E-03    -13.7339E-03     23.2084E-03    -9.61005E-03     7.29728E-03
            2240     8.02576E-03     11.6198E-03    -12.1990E+06    -47.5390E+06    -5.29933E+06     1.46291E+06    -12.3701E-03     21.6613E-03    -9.29121E-03     5.08307E-03    -12.3547E-03     21.4492E-03    -9.23108E-03     5.09990E-03
            2241     7.13623E-03     11.6106E-03    -12.6269E+06    -44.0852E+06    -6.71517E+06     856.018E+03    -11.2902E-03     20.2484E-03    -8.95816E-03     3.76648E-03    -11.2798E-03     20.0562E-03    -8.90951E-03     3.77613E-03
            2242     6.24600E-03     11.6056E-03    -12.9073E+06    -41.4158E+06    -8.03328E+06     488.448E+03    -10.3840E-03     19.0595E-03    -8.67546E-03     2.80874E-03    -10.3770E-03     18.8829E-03    -8.63686E-03     2.81408E-03
            2243     5.35489E-03     11.5991E-03    -13.2223E+06    -39.6438E+06    -9.45880E+06     189.632E+03    -9.64933E-03     18.0879E-03    -8.43861E-03     2.05989E-03    -9.64428E-03     17.9226E-03    -8.40925E-03     2.06165E-03
            2244     4.46323E-03     11.5960E-03    -13.2082E+06    -38.1040E+06    -10.6918E+06    -77.2416E+03    -9.04390E-03     17.2892E-03    -8.24531E-03     1.49987E-03    -9.03921E-03     17.1334E-03    -8.22436E-03     1.49838E-03
            2245     3.57115E-03     11.5918E-03    -13.3323E+06    -37.3594E+06    -11.9523E+06    -223.752E+03    -8.57206E-03     16.6675E-03    -8.09545E-03     1.06718E-03    -8.56723E-03     16.5174E-03    -8.08171E-03     1.06395E-03
            2246     2.67855E-03     11.5900E-03    -13.3096E+06    -36.5326E+06    -12.5062E+06    -188.945E+03    -8.25023E-03     16.2355E-03    -7.98529E-03     730.732E-06    -8.24567E-03     16.0903E-03    -7.97555E-03     728.058E-06
            2247     1.78585E-03     11.5874E-03    -13.2349E+06    -35.8321E+06    -12.8429E+06    -153.149E+03    -8.03056E-03     15.9357E-03    -7.90512E-03     490.010E-06    -8.02614E-03     15.7943E-03    -7.89818E-03     487.885E-06
            2248     892.994E-06     11.5870E-03    -13.1964E+06    -35.3117E+06    -12.9414E+06    -25.0272E+03    -7.92086E-03     15.7418E-03    -7.82092E-03     271.072E-06    -7.91659E-03     15.6034E-03    -7.81529E-03     270.658E-06
            2249     16.8511E-03     11.0148E-03    -2.11648E+06     132.780E+06     55.8386E+06     2.34817E+06    -40.3350E-03     55.3885E-03    -15.0535E-03     206.401E-03    -45.1419E-03     60.4981E-03    -14.9638E-03     208.579E-03
            2250     15.9705E-03     10.9036E-03    -7.37508E+06     70.1638E+06    -7.17901E+06     3.52767E+06    -30.8722E-03     44.8718E-03    -13.9996E-03     104.790E-03    -31.5869E-03     45.8305E-03    -14.1266E-03     104.761E-03
            2251     15.0967E-03     10.8150E-03    -9.58180E+06     23.4595E+06    -15.6498E+06     3.33735E+06    -26.7676E-03     40.0310E-03    -13.2634E-03     57.4686E-03    -26.9303E-03     40.2888E-03    -13.3618E-03     57.4247E-03
            2252     14.2173E-03     10.7867E-03    -7.64456E+06    -14.6620E+06    -10.6952E+06     3.64853E+06    -23.6375E-03     36.2776E-03    -12.6401E-03     33.5402E-03    -23.6664E-03     36.2585E-03    -12.6612E-03     33.5395E-03
            2253     13.3413E-03     10.7481E-03    -8.69158E+06    -43.6119E+06    -10.2745E+06     3.71649E+06    -22.5241E-03     34.5349E-03    -12.0108E-03     29.1142E-03    -22.5044E-03     34.3595E-03    -11.9864E-03     29.1298E-03
            2254     12.4567E-03     10.7233E-03    -9.17225E+06    -53.2555E+06    -1.97782E+06     3.79384E+06    -20.8213E-03     32.2136E-03    -11.3922E-03     21.6142E-03    -20.7940E-03     31.9705E-03    -11.3116E-03     21.6438E-03
            2255     11.5772E-03     10.6975E-03    -10.1617E+06    -55.4382E+06     1.58495E+06     3.93107E+06    -18.5914E-03     29.3725E-03    -10.7811E-03     15.0139E-03    -18.5671E-03     29.1108E-03    -10.6781E-03     15.0536E-03
            2256     10.6907E-03     10.6845E-03    -11.6230E+06    -57.4622E+06     1.00804E+06     3.33731E+06    -16.7926E-03     26.9993E-03    -10.2066E-03     11.1643E-03    -16.7704E-03     26.7289E-03    -10.1014E-03     11.2004E-03
            2257     9.80603E-03     10.6675E-03    -12.4113E+06    -53.8140E+06     686.807E+03     2.67857E+06    -15.1015E-03     24.7765E-03    -9.67504E-03     7.68122E-03    -15.0873E-03     24.5253E-03    -9.57558E-03     7.71122E-03
            2258     8.91900E-03     10.6598E-03    -13.2504E+06    -50.2408E+06     -3.4626E+06     1.81577E+06    -13.2826E-03     22.4759E-03    -9.19327E-03     5.19507E-03    -13.2714E-03     22.2494E-03    -9.11852E-03     5.21555E-03
            2259     8.02965E-03     10.6500E-03    -13.6284E+06    -46.7610E+06    -6.53929E+06     1.17011E+06    -11.8289E-03     20.6238E-03    -8.79492E-03     3.75579E-03    -11.8200E-03     20.4195E-03    -8.74005E-03     3.76893E-03
            2260     7.13999E-03     10.6449E-03    -14.1396E+06    -43.4230E+06    -7.93778E+06     513.368E+03    -10.8239E-03     19.2864E-03    -8.46253E-03     2.72941E-03    -10.8202E-03     19.1014E-03    -8.41876E-03     2.73466E-03
            2261     6.24913E-03     10.6386E-03    -14.6693E+06    -41.0188E+06    -9.29597E+06     17.2076E+03    -9.96665E-03     18.1387E-03    -8.17200E-03     2.00511E-03    -9.96712E-03     17.9684E-03    -8.13773E-03     2.00434E-03
            2262     5.35785E-03     10.6353E-03    -14.8615E+06    -39.2913E+06    -11.1080E+06    -248.567E+03    -9.17958E-03     17.1025E-03    -7.92295E-03     1.48471E-03    -9.18086E-03     16.9438E-03    -7.89997E-03     1.48079E-03
            2263     4.46561E-03     10.6310E-03    -15.3310E+06    -38.2482E+06    -12.9441E+06    -424.489E+03    -8.57238E-03     16.2913E-03    -7.71891E-03     1.06732E-03    -8.57484E-03     16.1411E-03    -7.70594E-03     1.06132E-03
            2264     3.57310E-03     10.6290E-03    -15.5357E+06    -37.3036E+06    -13.9587E+06    -419.308E+03    -8.10939E-03     15.6643E-03    -7.55489E-03     759.805E-06    -8.11274E-03     15.5205E-03    -7.54807E-03     754.014E-06
            2265     2.68015E-03     10.6262E-03    -15.7642E+06    -36.6514E+06    -14.8906E+06    -395.432E+03    -7.74320E-03     15.1678E-03    -7.42464E-03     505.237E-06    -7.74728E-03     15.0290E-03    -7.42309E-03     499.866E-06
            2266     1.78697E-03     10.6253E-03    -15.9959E+06    -36.1547E+06    -15.5315E+06    -239.825E+03    -7.47828E-03     14.8068E-03    -7.32853E-03     310.433E-06    -7.48329E-03     14.6717E-03    -7.33057E-03     307.163E-06
            2267     893.487E-06     10.6237E-03    -16.0690E+06    -35.5512E+06    -16.0171E+06    -170.947E+03    -7.33650E-03     14.5738E-03    -7.23732E-03     171.329E-06    -7.34177E-03     14.4428E-03    -7.24256E-03     169.019E-06
            2268     16.8461E-03     10.0395E-03    -6.55846E+06     130.110E+06     59.4727E+06     3.97627E+06    -42.7528E-03     57.7952E-03    -15.0423E-03     201.106E-03    -47.2114E-03     62.5208E-03    -14.9241E-03     202.959E-03
            2269     15.9762E-03     9.89966E-03    -6.88264E+06     71.2763E+06     195.679E+03     4.28307E+06    -32.6153E-03     46.4778E-03    -13.8625E-03     100.567E-03    -33.2918E-03     47.3828E-03    -13.9549E-03     100.497E-03
            2270     15.1029E-03     9.83907E-03    -4.57108E+06     24.5434E+06    -12.3329E+06     3.01067E+06    -26.9345E-03     39.9611E-03    -13.0266E-03     50.4931E-03    -27.0637E-03     40.1975E-03    -13.1172E-03     50.4452E-03
            2271     14.2228E-03     9.79781E-03    -8.41872E+06    -16.9157E+06    -11.1648E+06     4.50506E+06    -24.1591E-03     36.5119E-03    -12.3528E-03     30.7585E-03    -24.1841E-03     36.4794E-03    -12.3719E-03     30.7704E-03
            2272     13.3416E-03     9.77095E-03    -9.55147E+06    -42.7988E+06    -8.97925E+06     4.68284E+06    -23.5164E-03     35.1710E-03    -11.6545E-03     25.2488E-03    -23.5028E-03     34.9977E-03    -11.6235E-03     25.2758E-03
            2273     12.4657E-03     9.73962E-03    -10.1094E+06    -52.8952E+06    -931.372E+03     4.58043E+06    -20.9153E-03     31.8835E-03    -10.9683E-03     17.4161E-03    -20.8933E-03     31.6408E-03    -10.8816E-03     17.4570E-03
            2274     11.5803E-03     9.72644E-03    -11.6271E+06    -54.7019E+06     3.32194E+06     4.06241E+06    -18.3921E-03     28.7212E-03    -10.3291E-03     12.1023E-03    -18.3781E-03     28.4622E-03    -10.2164E-03     12.1444E-03
            2275     10.6974E-03     9.70715E-03    -12.6785E+06    -55.4713E+06     2.06944E+06     3.40463E+06    -16.4125E-03     26.1451E-03    -9.73254E-03     8.44571E-03    -16.3997E-03     25.8845E-03    -9.62338E-03     8.48295E-03
            2276     9.81108E-03     9.69895E-03    -13.9263E+06    -53.5228E+06    -1.84435E+06     2.32844E+06    -14.2757E-03     23.4725E-03    -9.19684E-03     5.63068E-03    -14.2657E-03     23.2285E-03    -9.10826E-03     5.65650E-03
            2277     8.92230E-03     9.68894E-03    -14.3977E+06    -49.2490E+06    -4.61999E+06     1.23079E+06    -12.6076E-03     21.3552E-03    -8.74760E-03     4.06522E-03    -12.6018E-03     21.1369E-03    -8.67841E-03     4.07827E-03
            2278     8.03373E-03     9.68433E-03    -14.7940E+06    -45.5189E+06    -6.66894E+06     721.168E+03    -11.3475E-03     19.7158E-03    -8.36827E-03     3.09427E-03    -11.3461E-03     19.5196E-03    -8.31416E-03     3.10163E-03
            2279     7.14283E-03     9.67772E-03    -15.3379E+06    -42.8382E+06    -9.03738E+06     224.831E+03    -10.3056E-03     18.3465E-03    -8.04092E-03     2.40744E-03    -10.3072E-03     18.1678E-03    -8.00176E-03     2.40894E-03
            2280     6.25203E-03     9.67457E-03    -15.7819E+06    -40.6974E+06    -10.9216E+06    -348.892E+03    -9.47846E-03     17.2384E-03    -7.75995E-03     1.80860E-03    -9.48261E-03     17.0737E-03    -7.73267E-03     1.80305E-03
            2281     5.35990E-03     9.67057E-03    -16.3972E+06    -39.3550E+06    -12.7375E+06    -492.619E+03    -8.78220E-03     16.2996E-03    -7.51739E-03     1.45425E-03    -8.78871E-03     16.1451E-03    -7.50024E-03     1.44712E-03
            2282     4.46768E-03     9.66850E-03    -16.7968E+06    -38.1975E+06    -14.2726E+06    -479.834E+03    -8.19591E-03     15.5069E-03    -7.31104E-03     1.14239E-03    -8.20384E-03     15.3610E-03    -7.30266E-03     1.13562E-03
            2283     3.57462E-03     9.66579E-03    -17.4309E+06    -37.4855E+06    -15.8113E+06    -465.203E+03    -7.72865E-03     14.8665E-03    -7.13784E-03     855.223E-06    -7.73854E-03     14.7273E-03    -7.13727E-03     848.787E-06
            2284     2.68144E-03     9.66465E-03    -17.8793E+06    -36.9240E+06    -16.9168E+06    -367.316E+03    -7.35027E-03     14.3472E-03    -6.99696E-03     618.107E-06    -7.36160E-03     14.2131E-03    -7.00208E-03     613.059E-06
            2285     1.78776E-03     9.66303E-03    -18.1434E+06    -36.5308E+06    -17.7957E+06    -245.109E+03    -7.05421E-03     13.9452E-03    -6.89100E-03     412.751E-06    -7.06613E-03     13.8147E-03    -6.90071E-03     409.383E-06
            2286     894.016E-06     9.66280E-03    -18.4603E+06    -35.6409E+06    -18.1924E+06    -20.5866E+03    -6.90022E-03     13.6921E-03    -6.79190E-03     227.277E-06    -6.91414E-03     13.5673E-03    -6.80441E-03     226.900E-06
            2287     16.8479E-03     9.03142E-03    -5.12201E+06     128.735E+06     61.6518E+06     2.56271E+06    -46.1903E-03     61.2228E-03    -15.0325E-03     192.707E-03    -50.2916E-03     65.5845E-03    -14.9035E-03     194.175E-03
            2288     15.9808E-03     8.91469E-03    -5.23751E+06     69.1702E+06     1.26592E+06     3.97916E+06    -34.9333E-03     48.5998E-03    -13.6665E-03     92.2581E-03    -35.5283E-03     49.4191E-03    -13.7529E-03     92.1153E-03
            2289     15.1038E-03     8.84759E-03    -5.19298E+06     24.3941E+06    -10.8515E+06     5.23793E+06    -27.5624E-03     40.2867E-03    -12.7242E-03     45.0638E-03    -27.6772E-03     40.5013E-03    -12.8063E-03     45.0492E-03
            2290     14.2277E-03     8.82119E-03    -7.22297E+06    -14.9973E+06    -9.12376E+06     6.74962E+06    -25.6322E-03     37.5884E-03    -11.9562E-03     27.6283E-03    -25.6549E-03     37.5588E-03    -11.9696E-03     27.6670E-03
            2291     13.3523E-03     8.78179E-03    -8.96349E+06    -43.2665E+06    -6.96236E+06     6.33718E+06    -23.2029E-03     34.3983E-03    -11.1954E-03     20.0121E-03    -23.1857E-03     34.2162E-03    -11.1545E-03     20.0631E-03
            2292     12.4687E-03     8.76781E-03    -11.7977E+06    -51.2757E+06     1.97007E+06     5.24072E+06    -20.1551E-03     30.6702E-03    -10.5151E-03     13.4535E-03    -20.1470E-03     30.4326E-03    -10.4138E-03     13.5047E-03
            2293     11.5873E-03     8.74647E-03    -13.1704E+06    -52.3047E+06     6.02139E+06     4.27742E+06    -17.8431E-03     27.7278E-03    -9.88464E-03     9.79347E-03    -17.8440E-03     27.4788E-03    -9.75959E-03     9.83902E-03
            2294     10.7024E-03     8.73785E-03    -14.4057E+06    -55.2326E+06     1.11463E+06     3.24283E+06    -15.3408E-03     24.6428E-03    -9.30199E-03     6.64004E-03    -15.3354E-03     24.3871E-03    -9.19544E-03     6.67587E-03
            2295     9.81411E-03     8.72742E-03    -14.4539E+06    -52.4316E+06    -3.13400E+06     1.76379E+06    -13.2425E-03     22.0603E-03    -8.81788E-03     4.91115E-03    -13.2348E-03     21.8244E-03    -8.73656E-03     4.93006E-03
            2296     8.92616E-03     8.72262E-03    -15.1203E+06    -48.1557E+06    -5.66673E+06     662.575E+03    -11.8622E-03     20.2834E-03    -8.42126E-03     3.74484E-03    -11.8601E-03     20.0732E-03    -8.35784E-03     3.75066E-03
            2297     8.03539E-03     8.71652E-03    -15.7778E+06    -44.7310E+06    -7.63742E+06     197.742E+03    -10.7743E-03     18.8545E-03    -8.08027E-03     3.18865E-03    -10.7775E-03     18.6651E-03    -8.03072E-03     3.18925E-03
            2298     7.14537E-03     8.71359E-03    -16.0642E+06    -42.3234E+06    -9.96444E+06    -263.084E+03    -9.82076E-03     17.6044E-03    -7.78362E-03     2.74886E-03    -9.82543E-03     17.4307E-03    -7.74878E-03     2.74403E-03
            2299     6.25314E-03     8.70969E-03    -16.6478E+06    -40.6678E+06    -12.4472E+06    -436.881E+03    -9.03699E-03     16.5677E-03    -7.53067E-03     2.36682E-03    -9.04333E-03     16.4066E-03    -7.50980E-03     2.36010E-03
            2300     5.36133E-03     8.70781E-03    -17.1467E+06    -39.2538E+06    -13.7996E+06    -517.901E+03    -8.45665E-03     15.7731E-03    -7.31648E-03     2.01717E-03    -8.46554E-03     15.6218E-03    -7.30369E-03     2.00966E-03
            2301     4.46838E-03     8.70540E-03    -17.8707E+06    -38.4704E+06    -15.4048E+06    -432.019E+03    -7.94374E-03     15.0724E-03    -7.12864E-03     1.76346E-03    -7.95502E-03     14.9283E-03    -7.12397E-03     1.75726E-03
            2302     3.57547E-03     8.70424E-03    -18.3566E+06    -37.5868E+06    -16.8655E+06    -299.318E+03    -7.50236E-03     14.4724E-03    -6.97007E-03     1.45591E-03    -7.51520E-03     14.3356E-03    -6.97327E-03     1.45159E-03
            2303     2.68181E-03     8.70276E-03    -18.8806E+06    -37.1991E+06    -18.0591E+06    -259.558E+03    -7.14792E-03     13.9933E-03    -6.84535E-03     1.13380E-03    -7.16220E-03     13.8608E-03    -6.85433E-03     1.13012E-03
            2304     1.78814E-03     8.70231E-03    -19.2452E+06    -36.7612E+06    -18.7715E+06    -176.458E+03    -6.90135E-03     13.6538E-03    -6.75245E-03     799.996E-06    -6.91703E-03     13.5251E-03    -6.76510E-03     797.502E-06
            2305     894.029E-06     8.70150E-03    -19.4925E+06    -35.8106E+06    -19.1484E+06     20.1496E+03    -6.74841E-03     13.4213E-03    -6.67293E-03     457.101E-06    -6.76586E-03     13.2986E-03    -6.68848E-03     457.247E-06
            2306     16.8469E-03     8.02660E-03    -3.44034E+06     127.183E+06     62.8183E+06     1.62269E+06    -48.1338E-03     63.0081E-03    -14.8743E-03     183.466E-03    -51.8852E-03     67.0172E-03    -14.7396E-03     184.461E-03
            2307     15.9846E-03     7.91738E-03    -6.91401E+06     64.7220E+06     1.27929E+06     4.07453E+06    -35.6176E-03     49.0268E-03    -13.4091E-03     79.7253E-03    -36.1130E-03     49.7245E-03    -13.4866E-03     79.5696E-03
            2308     15.1119E-03     7.86889E-03    -10.6629E+06     23.0521E+06    -12.5236E+06     8.21444E+06    -29.2082E-03     41.5641E-03    -12.3559E-03     40.4226E-03    -29.3329E-03     41.7694E-03    -12.4365E-03     40.4454E-03
            2309     14.2367E-03     7.82740E-03    -12.3623E+06    -11.3688E+06    -9.76387E+06     8.15381E+06    -25.9268E-03     37.4244E-03    -11.4976E-03     24.2044E-03    -25.9768E-03     37.4188E-03    -11.5120E-03     24.2628E-03
            2310     13.3574E-03     7.80878E-03    -12.3695E+06    -41.3089E+06    -6.53795E+06     7.11577E+06    -22.2035E-03     32.9365E-03    -10.7330E-03     16.9732E-03    -22.2045E-03     32.7663E-03    -10.6879E-03     17.0385E-03
            2311     12.4761E-03     7.78659E-03    -12.3886E+06    -49.3421E+06     3.85220E+06      6.0564E+06    -19.0806E-03     29.1753E-03    -10.0946E-03     11.8433E-03    -19.0804E-03     28.9449E-03    -9.98586E-03     11.9072E-03
            2312     11.5920E-03     7.77540E-03    -13.9933E+06    -51.1350E+06     7.20751E+06     4.09644E+06    -16.3425E-03     25.8704E-03    -9.52787E-03     8.30638E-03    -16.3506E-03     25.6265E-03    -9.39740E-03     8.35096E-03
            2313     10.7044E-03     7.76560E-03    -14.4390E+06    -53.2967E+06     1.82240E+06     2.28694E+06    -14.0002E-03     23.0282E-03    -9.02794E-03     6.07294E-03    -13.9988E-03     22.7810E-03    -8.92061E-03     6.09725E-03
            2314     9.81722E-03     7.76016E-03    -15.1816E+06    -51.0477E+06    -3.40561E+06     1.01866E+06    -12.3147E-03     20.9326E-03    -8.61793E-03     4.97148E-03    -12.3123E-03     20.7050E-03    -8.53893E-03     4.98101E-03
            2315     8.92653E-03     7.75480E-03    -15.5029E+06    -47.1515E+06    -6.09046E+06     286.792E+03    -11.0552E-03     19.3425E-03    -8.28737E-03     4.56625E-03    -11.0559E-03     19.1386E-03    -8.22698E-03     4.56738E-03
            2316     8.03691E-03     7.75157E-03    -15.9645E+06    -44.4045E+06    -8.84166E+06    -333.980E+03    -10.1591E-03     18.1667E-03    -8.00752E-03     4.08025E-03    -10.1621E-03     17.9809E-03    -7.96419E-03     4.07401E-03
            2317     7.14476E-03     7.74838E-03    -16.4901E+06    -42.3506E+06    -11.1126E+06    -626.744E+03    -9.37580E-03     17.1457E-03    -7.76988E-03     3.79999E-03    -9.38095E-03     16.9742E-03    -7.74013E-03     3.79046E-03
            2318     6.25350E-03     7.74653E-03    -16.6694E+06    -40.4488E+06    -12.5522E+06    -526.313E+03    -8.76009E-03     16.3313E-03    -7.57126E-03     3.51772E-03    -8.76673E-03     16.1716E-03    -7.55120E-03     3.50983E-03
            2319     5.36058E-03     7.74439E-03    -17.3107E+06    -39.5660E+06    -14.5391E+06    -417.953E+03    -8.24269E-03     15.6457E-03    -7.40300E-03     3.17736E-03    -8.25089E-03     15.4941E-03    -7.39322E-03     3.17113E-03
            2320     4.46805E-03     7.74335E-03    -17.6859E+06    -38.6023E+06    -15.6834E+06    -325.594E+03    -7.85348E-03     15.1185E-03    -7.26502E-03     2.83358E-03    -7.86326E-03     14.9739E-03    -7.26182E-03     2.82874E-03
            2321     3.57463E-03     7.74207E-03    -18.1770E+06    -37.8447E+06    -16.9411E+06    -236.771E+03    -7.51262E-03     14.6649E-03    -7.15230E-03     2.39905E-03    -7.52409E-03     14.5266E-03    -7.15577E-03     2.39553E-03
            2322     2.68134E-03     7.74160E-03    -18.4410E+06    -37.2193E+06    -17.7060E+06    -120.413E+03    -7.27047E-03     14.3378E-03    -7.06733E-03     1.92705E-03    -7.28304E-03     14.2041E-03    -7.07515E-03     1.92517E-03
            2323     1.78752E-03     7.74085E-03    -18.7528E+06    -36.8236E+06    -18.1542E+06    -155.173E+03    -7.10381E-03     14.1084E-03    -7.00459E-03     1.32488E-03    -7.11783E-03     13.9778E-03    -7.01477E-03     1.32267E-03
            2324     893.953E-06     7.74077E-03    -18.8181E+06    -36.2182E+06    -18.5965E+06    -98.2179E+03    -6.97143E-03     13.9506E-03    -6.97912E-03     736.298E-06    -6.98574E-03     13.8240E-03    -6.99230E-03     734.926E-06
            2325     16.8608E-03     7.02173E-03    -1.25143E+06     122.863E+06     61.9257E+06     3.54817E+06    -49.9140E-03     64.5469E-03    -14.6328E-03     172.438E-03    -53.1257E-03     68.0129E-03    -14.4995E-03     172.919E-03
            2326     15.9882E-03     6.92886E-03    -9.29644E+06     62.7372E+06     3.94755E+06     8.52758E+06    -35.5487E-03     48.6566E-03    -13.1079E-03     72.3977E-03    -35.9699E-03     49.2564E-03    -13.1656E-03     72.3199E-03
            2327     15.1173E-03     6.87488E-03    -15.2858E+06     23.5585E+06    -9.45134E+06     9.93608E+06    -29.9138E-03     41.9219E-03    -12.0081E-03     36.2044E-03    -30.0589E-03     42.1243E-03    -12.0673E-03     36.2502E-03
            2328     14.2421E-03     6.84868E-03    -13.6966E+06    -10.6128E+06    -6.93003E+06     8.95212E+06    -24.7926E-03     35.9246E-03    -11.1321E-03     21.4313E-03    -24.8508E-03     35.9171E-03    -11.1315E-03     21.5065E-03
            2329     13.3615E-03     6.82707E-03    -14.3390E+06    -37.7745E+06    -2.58178E+06     6.81809E+06    -21.1309E-03     31.5467E-03    -10.4158E-03     14.8595E-03    -21.1513E-03     31.3897E-03    -10.3531E-03     14.9246E-03
            2330     12.4798E-03     6.81259E-03    -14.5687E+06    -46.7699E+06     6.17927E+06     5.00073E+06    -17.5786E-03     27.4162E-03    -9.83763E-03     10.7385E-03    -17.5957E-03     27.1979E-03    -9.71779E-03     10.7910E-03
            2331     11.5932E-03     6.80363E-03    -14.7147E+06    -49.2090E+06     9.57611E+06     3.36078E+06    -14.5794E-03     23.9535E-03    -9.37412E-03     8.24518E-03    -14.5971E-03     23.7166E-03    -9.23355E-03     8.28174E-03
            2332     10.7063E-03     6.79621E-03    -15.7167E+06    -51.1867E+06     2.29842E+06     1.32483E+06    -12.6863E-03     21.6647E-03    -8.97834E-03     6.82415E-03    -12.6951E-03     21.4293E-03    -8.86984E-03     6.83661E-03
            2333     9.81593E-03     6.79283E-03    -15.6559E+06    -49.8925E+06    -3.72877E+06    -44.4329E+03    -11.3956E-03     20.0559E-03    -8.66028E-03     6.33484E-03    -11.3968E-03     19.8353E-03    -8.58388E-03     6.33094E-03
            2334     8.92632E-03     6.78874E-03    -15.6626E+06    -46.5312E+06    -6.57523E+06    -589.729E+03    -10.4028E-03     18.8145E-03    -8.41171E-03     5.97756E-03    -10.4046E-03     18.6146E-03    -8.35440E-03     5.96750E-03
            2335     8.03441E-03     6.78620E-03    -15.8252E+06    -44.3576E+06    -9.88543E+06    -886.262E+03    -9.59965E-03     17.8107E-03    -8.21104E-03     5.67282E-03    -9.60047E-03     17.6266E-03    -8.17320E-03     5.65957E-03
            2336     7.14341E-03     6.78435E-03    -15.8301E+06    -42.1210E+06    -11.2068E+06    -875.248E+03    -9.09874E-03     17.1539E-03    -8.05515E-03     5.40154E-03    -9.10081E-03     16.9827E-03    -8.02715E-03     5.38885E-03
            2337     6.25070E-03     6.78247E-03    -16.3250E+06    -40.9083E+06    -12.7784E+06    -780.359E+03    -8.64444E-03     16.5708E-03    -7.92635E-03     5.02974E-03    -8.64839E-03     16.4086E-03    -7.90726E-03     5.01861E-03
            2338     5.35865E-03     6.78167E-03    -16.3206E+06    -39.6631E+06    -13.9013E+06    -527.887E+03    -8.30181E-03     16.1268E-03    -7.82494E-03     4.59751E-03    -8.30586E-03     15.9724E-03    -7.81327E-03     4.58991E-03
            2339     4.46550E-03     6.78029E-03    -16.4918E+06    -38.8593E+06    -15.0865E+06    -385.062E+03    -8.02526E-03     15.7736E-03    -7.74834E-03     4.02172E-03    -8.02957E-03     15.6252E-03    -7.74352E-03     4.01617E-03
            2340     3.57280E-03     6.78000E-03    -16.4809E+06    -38.0415E+06    -15.4739E+06    -327.996E+03    -7.85526E-03     15.5509E-03    -7.69566E-03     3.37649E-03    -7.86011E-03     15.4071E-03    -7.69398E-03     3.37183E-03
            2341     2.67947E-03     6.77919E-03    -16.5255E+06    -37.3039E+06    -15.7607E+06    -263.647E+03    -7.74392E-03     15.4009E-03    -7.65696E-03     2.66571E-03    -7.74963E-03     15.2612E-03    -7.65771E-03     2.66202E-03
            2342     1.78658E-03     6.77900E-03    -16.3794E+06    -36.9420E+06    -16.1170E+06    -229.382E+03    -7.65923E-03     15.2909E-03    -7.63163E-03     1.82676E-03    -7.66419E-03     15.1532E-03    -7.63490E-03     1.82362E-03
            2343     893.083E-06     6.77878E-03    -16.2903E+06    -36.5374E+06    -16.2737E+06    -256.676E+03    -7.62497E-03     15.2455E-03    -7.62052E-03     1.00689E-03    -7.62958E-03     15.1102E-03    -7.62529E-03     1.00348E-03
            2344     16.8577E-03     6.02668E-03    -4.24163E+06     117.310E+06     64.6996E+06     6.10783E+06    -53.2502E-03     67.7436E-03    -14.4934E-03     156.207E-03    -55.8618E-03     70.5720E-03    -14.3339E-03     156.303E-03
            2345     15.9938E-03     5.93104E-03    -8.39148E+06     61.9187E+06     12.5711E+06     10.6086E+06    -36.5018E-03     49.3277E-03    -12.8259E-03     64.4826E-03    -36.8704E-03     49.8509E-03    -12.8407E-03     64.4290E-03
            2346     15.1235E-03     5.88811E-03    -12.8177E+06     24.9762E+06    -2.62795E+06     11.0125E+06    -28.4696E-03     40.1697E-03    -11.7002E-03     28.8947E-03    -28.6026E-03     40.3540E-03    -11.7309E-03     28.9652E-03
            2347     14.2444E-03     5.86763E-03    -16.6139E+06    -8.27916E+06    -3.31732E+06     9.19125E+06    -23.1590E-03     34.0425E-03    -10.8834E-03     17.4022E-03    -23.2369E-03     34.0419E-03    -10.8639E-03     17.4874E-03
            2348     13.3655E-03     5.84755E-03    -17.1585E+06    -34.1154E+06     1.00453E+06     6.65448E+06    -18.9128E-03     29.1850E-03    -10.2722E-03     13.1566E-03    -18.9563E-03     29.0438E-03    -10.1928E-03     13.2241E-03
            2349     12.4798E-03     5.84186E-03    -17.3206E+06    -43.7831E+06     10.2640E+06     2.81931E+06    -15.4686E-03     25.3061E-03    -9.83748E-03     10.6688E-03    -15.5094E-03     25.1003E-03    -9.69756E-03     10.6955E-03
            2350     11.5930E-03     5.83138E-03    -16.9780E+06    -47.7344E+06     9.73063E+06     677.988E+03    -13.0095E-03     22.5025E-03    -9.49297E-03     9.58149E-03    -13.0409E-03     22.2760E-03    -9.35049E-03     9.58442E-03
            2351     10.7028E-03     5.83040E-03    -15.8308E+06    -49.6214E+06     2.29542E+06    -412.712E+03    -11.4984E-03     20.7147E-03    -9.21633E-03     8.93123E-03    -11.5100E-03     20.4874E-03    -9.10995E-03     8.92187E-03
            2352     9.81295E-03     5.82420E-03    -15.8018E+06    -48.3649E+06    -3.24022E+06    -1.22735E+06    -10.7267E-03     19.7323E-03    -9.00562E-03     8.59456E-03    -10.7316E-03     19.5189E-03    -8.92878E-03     8.57571E-03
            2353     8.92218E-03     5.82379E-03    -15.7285E+06    -46.6009E+06    -7.51488E+06    -1.82448E+06    -9.99595E-03     18.8354E-03    -8.83942E-03     7.94099E-03    -9.99662E-03     18.6366E-03    -8.78661E-03     7.91522E-03
            2354     8.03079E-03     5.82087E-03    -15.1294E+06    -44.1262E+06    -9.34536E+06    -1.68544E+06    -9.42293E-03     18.1473E-03    -8.72434E-03     7.74462E-03    -9.42141E-03     17.9625E-03    -8.68514E-03     7.72121E-03
            2355     7.13854E-03     5.81971E-03    -14.9483E+06    -42.7117E+06    -11.3119E+06    -1.49212E+06    -9.08731E-03     17.7290E-03    -8.64172E-03     7.07590E-03    -9.08396E-03     17.5538E-03    -8.61467E-03     7.05539E-03
            2356     6.24685E-03     5.81847E-03    -14.5449E+06    -41.1851E+06    -12.0065E+06    -1.26228E+06    -8.86268E-03     17.4473E-03    -8.58467E-03     6.48889E-03    -8.85845E-03     17.2801E-03    -8.56389E-03     6.47166E-03
            2357     5.35424E-03     5.81749E-03    -14.3497E+06    -40.1326E+06    -12.4916E+06    -1.09753E+06    -8.69536E-03     17.2408E-03    -8.54539E-03     5.75532E-03    -8.69093E-03     17.0791E-03    -8.52885E-03     5.74045E-03
            2358     4.46225E-03     5.81687E-03    -13.8728E+06    -39.0790E+06    -12.7249E+06    -839.968E+03    -8.58184E-03     17.1030E-03    -8.52115E-03     4.92828E-03    -8.57617E-03     16.9462E-03    -8.50800E-03     4.91692E-03
            2359     3.56948E-03     5.81625E-03    -13.5710E+06    -38.3087E+06    -12.7665E+06    -725.117E+03    -8.52978E-03     17.0386E-03    -8.50882E-03     4.05645E-03    -8.52363E-03     16.8852E-03    -8.49742E-03     4.04672E-03
            2360     2.67740E-03     5.81571E-03    -13.1844E+06    -37.5747E+06    -12.8026E+06    -624.823E+03    -8.49726E-03     17.0013E-03    -8.50404E-03     3.09061E-03    -8.49017E-03     16.8511E-03    -8.49446E-03     3.08229E-03
            2361     1.78461E-03     5.81561E-03    -13.0599E+06    -37.3364E+06    -13.0923E+06    -417.284E+03    -8.49600E-03     17.0007E-03    -8.50468E-03     2.11940E-03    -8.48819E-03     16.8519E-03    -8.49707E-03     2.11385E-03
            2362     892.533E-06     5.81511E-03    -12.8463E+06    -36.8426E+06    -12.9262E+06    -321.305E+03    -8.49309E-03     17.0137E-03    -8.52063E-03     1.15768E-03    -8.48493E-03     16.8671E-03    -8.51321E-03     1.15344E-03
            2363     16.8628E-03     5.01415E-03    -7.59206E+06     113.234E+06     74.2438E+06     7.65332E+06    -55.2801E-03     69.6566E-03    -14.3764E-03     132.543E-03    -57.2444E-03     71.7842E-03    -14.1584E-03     132.375E-03
            2364     16.0037E-03     4.93693E-03    -12.8389E+06     58.4075E+06     24.2550E+06     11.6424E+06    -36.3286E-03     48.9411E-03    -12.6125E-03     54.1191E-03    -36.6728E-03     49.3782E-03    -12.5573E-03     54.0920E-03
            2365     15.1264E-03     4.90569E-03    -13.8994E+06     25.0045E+06     2.19335E+06     14.5413E+06    -26.0780E-03     37.5688E-03    -11.4908E-03     24.3376E-03    -26.2115E-03     37.7358E-03    -11.4959E-03     24.4704E-03
            2366     14.2498E-03     4.88408E-03    -17.6250E+06    -2.64438E+06     2.46714E+06     12.2213E+06    -19.7247E-03     30.5587E-03    -10.8340E-03     16.4718E-03    -19.8211E-03     30.5763E-03    -10.7923E-03     16.6057E-03
            2367     13.3631E-03     4.87796E-03    -21.6139E+06    -26.8711E+06     6.23974E+06     4.74530E+06    -15.8736E-03     26.3028E-03    -10.4292E-03     14.7951E-03    -15.9567E-03     26.1958E-03    -10.3277E-03     14.8429E-03
            2368     12.4761E-03     4.86636E-03    -19.9524E+06    -41.2532E+06     10.7928E+06    -1.14303E+06    -13.4789E-03     23.6387E-03    -10.1598E-03     13.0918E-03    -13.5371E-03     23.4485E-03    -10.0171E-03     13.0694E-03
            2369     11.5871E-03     4.86644E-03    -17.3440E+06    -47.3890E+06     9.95838E+06    -2.85917E+06    -11.8666E-03     21.8225E-03    -9.95589E-03     12.2372E-03    -11.9006E-03     21.5979E-03    -9.81224E-03     12.1954E-03
            2370     10.6969E-03     4.85986E-03    -16.6054E+06    -48.3283E+06     2.29313E+06    -2.62245E+06    -11.0340E-03     20.8145E-03    -9.78049E-03     11.7798E-03    -11.0514E-03     20.5947E-03    -9.67488E-03     11.7425E-03
            2371     9.80669E-03     4.85948E-03    -15.8956E+06    -48.6503E+06    -4.64715E+06    -3.20122E+06    -10.3854E-03     20.0363E-03    -9.65096E-03     10.8060E-03    -10.3883E-03     19.8236E-03    -9.58060E-03     10.7621E-03
            2372     8.91491E-03     4.85601E-03    -14.8866E+06    -46.5378E+06    -7.18468E+06    -3.31245E+06    -10.0213E-03     19.5927E-03    -9.57137E-03     10.0965E-03    -10.0183E-03     19.3924E-03    -9.51823E-03     10.0519E-03
            2373     8.02415E-03     4.85604E-03    -13.9198E+06    -44.8784E+06    -8.80379E+06    -3.15947E+06    -9.81140E-03     19.3267E-03    -9.51529E-03     9.33638E-03    -9.80349E-03     19.1355E-03    -9.47405E-03     9.29417E-03
            2374     7.13264E-03     4.85363E-03    -12.7219E+06    -43.1743E+06    -9.99698E+06    -2.63951E+06    -9.56274E-03     19.0423E-03    -9.47958E-03     8.46875E-03    -9.54948E-03     18.8596E-03    -9.44851E-03     8.43363E-03
            2375     6.24087E-03     4.85346E-03    -11.8045E+06    -41.9554E+06    -10.4261E+06    -2.24732E+06    -9.49880E-03     18.9628E-03    -9.46399E-03     7.40649E-03    -9.48203E-03     18.7853E-03    -9.43816E-03     7.37668E-03
            2376     5.34952E-03     4.85191E-03    -10.9151E+06    -40.6366E+06    -10.0496E+06    -1.82824E+06    -9.44948E-03     18.9085E-03    -9.45899E-03     6.40557E-03    -9.43068E-03     18.7357E-03    -9.43449E-03     6.38136E-03
            2377     4.45760E-03     4.85189E-03    -10.5193E+06    -39.6983E+06    -9.78062E+06    -1.55312E+06    -9.45460E-03     18.9124E-03    -9.45779E-03     5.33767E-03    -9.43554E-03     18.7433E-03    -9.43388E-03     5.31716E-03
            2378     3.56639E-03     4.85066E-03    -9.90090E+06    -38.6573E+06    -9.54899E+06    -1.23741E+06    -9.43779E-03     18.8958E-03    -9.45798E-03     4.30009E-03    -9.41746E-03     18.7307E-03    -9.43531E-03     4.28378E-03
            2379     2.67444E-03     4.85086E-03    -9.69022E+06    -38.2505E+06    -9.73454E+06    -928.259E+03    -9.44192E-03     18.9031E-03    -9.46114E-03     3.22340E-03    -9.42083E-03     18.7399E-03    -9.44030E-03     3.21118E-03
            2380     1.78323E-03     4.84984E-03    -9.41426E+06    -37.8513E+06    -9.48863E+06    -631.409E+03    -9.45782E-03     18.9244E-03    -9.46661E-03     2.17699E-03    -9.43626E-03     18.7626E-03    -9.44552E-03     2.16868E-03
            2381     891.426E-06     4.85031E-03    -9.28099E+06    -37.4376E+06    -9.51090E+06    -210.783E+03    -9.45279E-03     18.9373E-03    -9.48451E-03     1.18294E-03    -9.43090E-03     18.7776E-03    -9.46432E-03     1.18014E-03
            2382     16.8703E-03     4.00748E-03    -6.81501E+06     104.963E+06     75.3521E+06     8.76946E+06    -54.0731E-03     68.3418E-03    -14.2687E-03     113.066E-03    -55.4357E-03     69.8384E-03    -14.0343E-03     112.778E-03
            2383     15.9994E-03     3.94423E-03    -11.8714E+06     55.8348E+06     38.5641E+06     15.2807E+06    -33.6207E-03     46.2525E-03    -12.6318E-03     45.8333E-03    -33.9222E-03     46.5998E-03    -12.5027E-03     45.8934E-03
            2384     15.1301E-03     3.92055E-03    -17.2537E+06     23.8583E+06     14.7986E+06     18.6517E+06    -22.0315E-03     33.7235E-03    -11.6919E-03     23.4393E-03    -22.1897E-03     33.8629E-03    -11.6275E-03     23.6436E-03
            2385     14.2416E-03     3.91375E-03    -19.9252E+06     7.54820E+06     10.7274E+06     13.4605E+06    -16.2380E-03     27.4712E-03    -11.2331E-03     20.7340E-03    -16.3713E-03     27.5295E-03    -11.1616E-03     20.8920E-03
            2386     13.3556E-03     3.90179E-03    -18.1001E+06    -15.0953E+06     13.7502E+06     1.25650E+06    -14.0010E-03     25.0131E-03    -11.0121E-03     18.8928E-03    -14.0938E-03     24.9483E-03    -10.8952E-03     18.8992E-03
            2387     12.4672E-03     3.89982E-03    -17.4651E+06    -40.2251E+06     12.1789E+06    -5.59687E+06    -12.5186E-03     23.3867E-03    -10.8682E-03     16.2196E-03    -12.5674E-03     23.1955E-03    -10.7236E-03     16.1414E-03
            2388     11.5768E-03     3.89498E-03    -17.1056E+06    -47.3711E+06     8.90288E+06    -5.75048E+06    -11.7559E-03     22.5060E-03    -10.7500E-03     15.1633E-03    -11.7870E-03     22.2823E-03    -10.6120E-03     15.0851E-03
            2389     10.6879E-03     3.89324E-03    -15.7526E+06    -48.5497E+06     1.28331E+06    -5.55761E+06    -11.2805E-03     21.9145E-03    -10.6339E-03     14.0059E-03    -11.2916E-03     21.6935E-03    -10.5343E-03     13.9314E-03
            2390     9.79671E-03     3.89068E-03    -13.9244E+06    -48.9989E+06    -5.06898E+06    -5.72251E+06    -10.8786E-03     21.4283E-03    -10.5498E-03     12.4859E-03    -10.8704E-03     21.2113E-03    -10.4839E-03     12.4100E-03
            2391     8.90691E-03     3.88976E-03    -12.1016E+06    -47.3996E+06    -7.20233E+06    -5.33556E+06    -10.6999E-03     21.2037E-03    -10.5037E-03     11.2502E-03    -10.6817E-03     20.9950E-03    -10.4535E-03     11.1798E-03
            2392     8.01578E-03     3.88753E-03    -10.6841E+06    -45.8958E+06    -8.42666E+06    -4.82075E+06    -10.6171E-03     21.0888E-03    -10.4717E-03     9.92138E-03    -10.5920E-03     20.8872E-03    -10.4318E-03     9.85801E-03
            2393     7.12539E-03     3.88753E-03    -9.42856E+06    -44.3890E+06    -8.71422E+06    -4.12706E+06    -10.5537E-03     21.0030E-03    -10.4493E-03     8.80426E-03    -10.5240E-03     20.8075E-03    -10.4149E-03     8.75011E-03
            2394     6.23475E-03     3.88540E-03    -8.20819E+06    -42.8910E+06    -8.50855E+06    -3.30232E+06    -10.4711E-03     20.9073E-03    -10.4361E-03     7.54705E-03    -10.4378E-03     20.7171E-03    -10.4046E-03     7.50375E-03
            2395     5.34393E-03     3.88565E-03    -7.47403E+06    -41.7192E+06    -7.78434E+06    -2.62212E+06    -10.4743E-03     20.9045E-03    -10.4302E-03     6.33603E-03    -10.4400E-03     20.7181E-03    -10.3978E-03     6.30166E-03
            2396     4.45352E-03     3.88386E-03    -6.73535E+06    -40.3883E+06    -7.04375E+06    -2.08217E+06    -10.4473E-03     20.8718E-03    -10.4246E-03     5.20371E-03    -10.4122E-03     20.6899E-03    -10.3915E-03     5.17643E-03
            2397     3.56258E-03     3.88433E-03    -6.47745E+06    -39.5833E+06    -6.68099E+06    -1.57989E+06    -10.4439E-03     20.8632E-03    -10.4193E-03     4.12013E-03    -10.4093E-03     20.6844E-03    -10.3859E-03     4.09944E-03
            2398     2.67217E-03     3.88289E-03    -6.19441E+06    -38.9520E+06    -6.31283E+06    -1.12296E+06    -10.4308E-03     20.8445E-03    -10.4137E-03     3.08374E-03    -10.3961E-03     20.6678E-03    -10.3798E-03     3.06904E-03
            2399     1.78129E-03     3.88344E-03    -6.10337E+06    -38.7059E+06    -6.27022E+06    -625.907E+03    -10.4108E-03     20.8214E-03    -10.4107E-03     2.06683E-03    -10.3761E-03     20.6458E-03    -10.3770E-03     2.05861E-03
            2400     890.703E-06     3.88234E-03    -6.25051E+06    -38.0736E+06    -6.00662E+06    -301.340E+03    -10.4196E-03     20.8213E-03    -10.4017E-03     1.12872E-03    -10.3867E-03     20.6489E-03    -10.3675E-03     1.12476E-03
            2401     16.8609E-03     2.99681E-03    -3.74184E+06     95.4286E+06     72.9290E+06     10.3980E+06    -50.2735E-03     64.6660E-03    -14.3926E-03     90.7145E-03    -51.1576E-03     65.6688E-03    -14.1609E-03     90.4654E-03
            2402     16.0033E-03     2.95334E-03    -10.9006E+06     48.7577E+06     44.4438E+06     17.0788E+06    -27.6150E-03     40.6574E-03    -13.0424E-03     37.9404E-03    -27.8631E-03     40.9127E-03    -12.8751E-03     38.0713E-03
            2403     15.1131E-03     2.94736E-03    -12.0610E+06     28.5218E+06     33.0967E+06     19.0590E+06    -17.9586E-03     30.4036E-03    -12.4449E-03     25.7508E-03    -18.1194E-03     30.5269E-03    -12.3033E-03     25.9754E-03
            2404     14.2299E-03     2.93737E-03    -9.47346E+06     22.6741E+06     25.2110E+06     9.62278E+06    -15.3450E-03     27.4793E-03    -12.1344E-03     24.5510E-03    -15.4673E-03     27.5754E-03    -12.0275E-03     24.6635E-03
            2405     13.3419E-03     2.93150E-03    -9.28338E+06    -6.05120E+06     14.4518E+06    -1.47540E+06    -13.9116E-03     25.8559E-03    -11.9444E-03     21.3878E-03    -13.9731E-03     25.8210E-03    -11.8499E-03     21.3616E-03
            2406     12.4528E-03     2.92777E-03    -11.0235E+06    -38.6994E+06     9.40923E+06    -7.07275E+06    -13.1773E-03     25.0221E-03    -11.8449E-03     18.0470E-03    -13.1915E-03     24.8324E-03    -11.7257E-03     17.9512E-03
            2407     11.5655E-03     2.92547E-03    -11.0563E+06    -48.0860E+06     4.36858E+06    -8.68307E+06    -12.7526E-03     24.4889E-03    -11.7363E-03     16.2557E-03    -12.7455E-03     24.2590E-03    -11.6287E-03     16.1406E-03
            2408     10.6752E-03     2.92286E-03    -9.35567E+06    -49.4415E+06    -2.18622E+06    -8.55081E+06    -12.3377E-03     23.9645E-03    -11.6268E-03     14.0559E-03    -12.3103E-03     23.7345E-03    -11.5524E-03     13.9434E-03
            2409     9.78699E-03     2.92156E-03    -7.88018E+06    -49.6952E+06    -6.90405E+06    -7.78075E+06    -12.1170E-03     23.6587E-03    -11.5417E-03     12.3675E-03    -12.0747E-03     23.4319E-03    -11.4927E-03     12.2655E-03
            2410     8.89712E-03     2.91974E-03    -6.57869E+06    -48.8886E+06    -8.89074E+06    -6.89530E+06    -11.9544E-03     23.4321E-03    -11.4776E-03     10.7371E-03    -11.9038E-03     23.2102E-03    -11.4417E-03     10.6469E-03
            2411     8.00799E-03     2.91912E-03    -5.53875E+06    -47.3995E+06    -8.80039E+06    -5.82196E+06    -11.7941E-03     23.2252E-03    -11.4310E-03     9.23929E-03    -11.7405E-03     23.0091E-03    -11.3983E-03     9.16324E-03
            2412     7.11836E-03     2.91723E-03    -4.94646E+06    -46.0405E+06    -8.35067E+06    -4.86148E+06    -11.7108E-03     23.1026E-03    -11.3918E-03     7.87369E-03    -11.6568E-03     22.8917E-03    -11.3597E-03     7.81023E-03
            2413     6.22876E-03     2.91735E-03    -4.44127E+06    -44.3806E+06    -7.31741E+06    -3.83649E+06    -11.6134E-03     22.9709E-03    -11.3575E-03     6.69606E-03    -11.5608E-03     22.7661E-03    -11.3233E-03     6.64599E-03
            2414     5.33922E-03     2.91541E-03    -3.85189E+06    -42.9247E+06    -6.07288E+06    -3.01102E+06    -11.5064E-03     22.8359E-03    -11.3296E-03     5.54505E-03    -11.4546E-03     22.6357E-03    -11.2921E-03     5.50575E-03
            2415     4.44931E-03     2.91591E-03    -3.49257E+06    -41.5170E+06    -4.99059E+06    -2.28079E+06    -11.4396E-03     22.7455E-03    -11.3059E-03     4.49910E-03    -11.3896E-03     22.5502E-03    -11.2656E-03     4.46932E-03
            2416     3.55965E-03     2.91427E-03    -3.24912E+06    -40.5601E+06    -4.09128E+06    -1.74581E+06    -11.3757E-03     22.6610E-03    -11.2852E-03     3.52785E-03    -11.3273E-03     22.4688E-03    -11.2422E-03     3.50506E-03
            2417     2.66972E-03     2.91484E-03    -3.09924E+06    -39.9750E+06    -3.49806E+06    -1.12790E+06    -11.3202E-03     22.5881E-03    -11.2679E-03     2.62251E-03    -11.2727E-03     22.3978E-03    -11.2230E-03     2.60778E-03
            2418     1.77985E-03     2.91364E-03    -3.17057E+06    -39.4798E+06    -3.12607E+06    -615.690E+03    -11.2857E-03     22.5379E-03    -11.2522E-03     1.75516E-03    -11.2397E-03     22.3496E-03    -11.2060E-03     1.74710E-03
            2419     890.011E-06     2.91427E-03    -3.11542E+06    -38.7497E+06    -3.11468E+06    -376.297E+03    -11.2511E-03     22.4854E-03    -11.2343E-03     975.137E-06    -11.2058E-03     22.3009E-03    -11.1892E-03     970.185E-06
            2420     16.8672E-03     1.98984E-03    -1.89818E+06     84.3126E+06     69.6508E+06     12.2530E+06    -43.4787E-03     58.5253E-03    -15.0466E-03     75.1801E-03    -44.0312E-03     59.1731E-03    -14.8179E-03     75.0527E-03
            2421     15.9778E-03     1.97885E-03    -2.99613E+06     49.0218E+06     53.7300E+06     17.9621E+06    -23.8805E-03     37.9030E-03    -14.0225E-03     35.3427E-03    -24.0767E-03     38.1064E-03    -13.8206E-03     35.5264E-03
            2422     15.0981E-03     1.96743E-03    -1.68206E+06     36.7605E+06     44.6464E+06     10.6093E+06    -18.0015E-03     31.5741E-03    -13.5726E-03     27.2625E-03    -18.1347E-03     31.7022E-03    -13.4002E-03     27.3851E-03
            2423     14.2115E-03     1.96331E-03     2.80160E+06     30.4995E+06     28.9552E+06     4.08510E+06    -16.6399E-03     29.8861E-03    -13.2463E-03     24.2537E-03    -16.7152E-03     29.9955E-03    -13.1498E-03     24.2982E-03
            2424     13.3254E-03     1.95667E-03     2.16131E+06     1.18555E+06     9.85528E+06     142.893E+03    -15.6613E-03     28.6529E-03    -12.9916E-03     19.5847E-03    -15.6681E-03     28.6427E-03    -12.9471E-03     19.5817E-03
            2425     12.4398E-03     1.95517E-03     394.606E+03    -33.9728E+06    -1.98700E+06    -6.47259E+06    -14.9683E-03     27.7858E-03    -12.8175E-03     15.9939E-03    -14.9150E-03     27.6190E-03    -12.7788E-03     15.9072E-03
            2426     11.5515E-03     1.95189E-03    -123.620E+03    -48.5352E+06    -8.11718E+06    -9.59215E+06    -14.4714E-03     27.1348E-03    -12.6634E-03     13.5989E-03    -14.3904E-03     26.9045E-03    -12.6335E-03     13.4729E-03
            2427     10.6657E-03     1.95114E-03    -429.916E+03    -51.4220E+06    -11.4188E+06    -9.23843E+06    -13.9609E-03     26.4867E-03    -12.5258E-03     11.5221E-03    -13.8723E-03     26.2470E-03    -12.5077E-03     11.4013E-03
            2428     9.77688E-03     1.94922E-03    -55.7643E+03    -51.5442E+06    -13.0396E+06    -7.82687E+06    -13.5891E-03     25.9986E-03    -12.4095E-03     9.83318E-03    -13.4960E-03     25.7600E-03    -12.3999E-03     9.73104E-03
            2429     8.88945E-03     1.94845E-03    -499.357E+03    -50.9510E+06    -13.0066E+06    -6.65335E+06    -13.2935E-03     25.6073E-03    -12.3138E-03     8.32014E-03    -13.2034E-03     25.3722E-03    -12.3042E-03     8.23341E-03
            2430     8.00112E-03     1.94707E-03    -742.372E+03    -49.3910E+06    -11.1919E+06    -5.34221E+06    -13.0395E-03     25.2737E-03    -12.2342E-03     7.08476E-03    -12.9555E-03     25.0441E-03    -12.2175E-03     7.01515E-03
            2431     7.11259E-03     1.94682E-03    -813.210E+03    -47.5793E+06    -9.09023E+06    -4.22595E+06    -12.7904E-03     24.9553E-03    -12.1649E-03     5.96699E-03    -12.7124E-03     24.7318E-03    -12.1402E-03     5.91194E-03
            2432     6.22410E-03     1.94529E-03    -820.895E+03    -45.9723E+06    -7.38295E+06    -3.47483E+06    -12.5930E-03     24.6960E-03    -12.1029E-03     4.98622E-03    -12.5198E-03     24.4780E-03    -12.0720E-03     4.94097E-03
            2433     5.33513E-03     1.94560E-03    -733.300E+03    -44.2040E+06    -5.30072E+06    -2.64382E+06    -12.4085E-03     24.4595E-03    -12.0509E-03     4.12073E-03    -12.3405E-03     24.2472E-03    -12.0123E-03     4.08630E-03
            2434     4.44625E-03     1.94413E-03    -639.838E+03    -42.6422E+06    -3.68183E+06    -2.05435E+06    -12.2572E-03     24.2630E-03    -12.0058E-03     3.31409E-03    -12.1932E-03     24.0561E-03    -11.9615E-03     3.28732E-03
            2435     3.55718E-03     1.94460E-03    -532.710E+03    -41.6071E+06    -2.26475E+06    -1.43838E+06    -12.1295E-03     24.0988E-03    -11.9692E-03     2.58561E-03    -12.0686E-03     23.8948E-03    -11.9194E-03     2.56686E-03
            2436     2.66787E-03     1.94349E-03    -671.235E+03    -40.9303E+06    -1.40612E+06    -927.722E+03    -12.0346E-03     23.9734E-03    -11.9388E-03     1.90653E-03    -11.9766E-03     23.7717E-03    -11.8855E-03     1.89443E-03
            2437     1.77877E-03     1.94392E-03    -657.273E+03    -40.1543E+06    -941.793E+03    -521.507E+03    -11.9591E-03     23.8729E-03    -11.9138E-03     1.27846E-03    -11.9028E-03     23.6744E-03    -11.8593E-03     1.27165E-03
            2438     889.249E-06     1.94313E-03    -582.359E+03    -39.3739E+06    -889.572E+03    -180.773E+03    -11.9122E-03     23.8059E-03    -11.8938E-03     698.430E-06    -11.8564E-03     23.6115E-03    -11.8403E-03     696.036E-06
            2439     16.8208E-03     999.252E-06     44.0214E+03     75.2502E+06     70.2464E+06     9.26587E+06    -41.1973E-03     57.5357E-03    -16.3384E-03     55.3209E-03    -41.5603E-03     57.9650E-03    -16.0963E-03     55.2397E-03
            2440     15.9598E-03     988.912E-06     4.87040E+06     53.5895E+06     62.7240E+06     9.72690E+06    -26.7079E-03     42.0641E-03    -15.3562E-03     28.0997E-03    -26.8662E-03     42.2472E-03    -15.1273E-03     28.1989E-03
            2441     15.0775E-03     991.717E-06     8.26155E+06     44.6009E+06     46.8716E+06     3.75832E+06    -22.6567E-03     37.3753E-03    -14.7186E-03     21.8335E-03    -22.7505E-03     37.5204E-03    -14.5608E-03     21.8744E-03
            2442     14.1954E-03     981.374E-06     7.91886E+06     30.8934E+06     20.5152E+06     1.41296E+06    -19.9150E-03     34.1002E-03    -14.1852E-03     16.7336E-03    -19.9510E-03     34.2143E-03    -14.1389E-03     16.7480E-03
            2443     13.3135E-03     981.002E-06     11.3194E+06     6.62906E+06     608.204E+03     95.5503E+03    -18.0252E-03     31.8211E-03    -13.7960E-03     11.5385E-03    -17.9795E-03     31.8374E-03    -13.8190E-03     11.5371E-03
            2444     12.4278E-03     977.489E-06     11.3674E+06    -27.9978E+06    -15.2039E+06    -3.26852E+06    -16.8122E-03     30.3288E-03    -13.5165E-03     9.40575E-03    -16.6930E-03     30.1945E-03    -13.5684E-03     9.36178E-03
            2445     11.5444E-03     977.443E-06     8.91762E+06    -48.8156E+06    -23.3112E+06    -6.55363E+06    -15.9963E-03     29.2985E-03    -13.3022E-03     7.61123E-03    -15.8473E-03     29.0754E-03    -13.3609E-03     7.52545E-03
            2446     10.6566E-03     975.810E-06     6.87103E+06    -53.5332E+06    -23.2335E+06    -6.34358E+06    -15.3304E-03     28.4634E-03    -13.1329E-03     6.48960E-03    -15.1849E-03     28.2195E-03    -13.1814E-03     6.40689E-03
            2447     9.77149E-03     975.501E-06     4.76053E+06    -53.7687E+06    -20.3962E+06    -4.92072E+06    -14.7885E-03     27.7810E-03    -12.9925E-03     5.41876E-03    -14.6572E-03     27.5348E-03    -13.0234E-03     5.35465E-03
            2448     8.88385E-03     974.577E-06     3.61819E+06    -52.5265E+06    -17.5258E+06    -3.64637E+06    -14.2906E-03     27.1584E-03    -12.8679E-03     4.58337E-03    -14.1709E-03     26.9160E-03    -12.8846E-03     4.53586E-03
            2449     7.99652E-03     974.241E-06     2.40182E+06    -50.8399E+06    -14.2530E+06    -3.16908E+06    -13.9079E-03     26.6692E-03    -12.7613E-03     3.81641E-03    -13.8015E-03     26.4322E-03    -12.7624E-03     3.77516E-03
            2450     7.10905E-03     973.482E-06     1.84434E+06    -48.9204E+06    -10.6746E+06    -2.63078E+06    -13.5604E-03     26.2290E-03    -12.6687E-03     3.21487E-03    -13.4647E-03     25.9972E-03    -12.6538E-03     3.18064E-03
            2451     6.22077E-03     973.502E-06     1.44227E+06    -47.0487E+06    -8.00217E+06    -1.97034E+06    -13.2524E-03     25.8382E-03    -12.5859E-03     2.67521E-03    -13.1653E-03     25.6125E-03    -12.5597E-03     2.64957E-03
            2452     5.33271E-03     972.634E-06     1.10149E+06    -45.2164E+06      -5.564E+06    -1.64346E+06    -13.0139E-03     25.5284E-03    -12.5145E-03     2.18712E-03    -12.9348E-03     25.3088E-03    -12.4783E-03     2.16574E-03
            2453     4.44422E-03     972.893E-06     1.02592E+06    -43.5032E+06    -3.44984E+06    -1.19186E+06    -12.7884E-03     25.2424E-03    -12.4540E-03     1.76096E-03    -12.7151E-03     25.0284E-03    -12.4097E-03     1.74545E-03
            2454     3.55545E-03     972.163E-06     859.147E+03    -42.4642E+06    -1.79370E+06    -791.733E+03    -12.6248E-03     25.0299E-03    -12.4051E-03     1.36875E-03    -12.5563E-03     24.8189E-03    -12.3538E-03     1.35843E-03
            2455     2.66695E-03     972.403E-06     845.013E+03    -41.5353E+06    -440.961E+03    -482.989E+03    -12.4917E-03     24.8573E-03    -12.3656E-03     1.00747E-03    -12.4266E-03     24.6490E-03    -12.3088E-03     1.00116E-03
            2456     1.77778E-03     971.928E-06     859.100E+03    -40.6579E+06     222.975E+03    -283.189E+03    -12.3890E-03     24.7246E-03    -12.3356E-03     669.081E-06    -12.3260E-03     24.5197E-03    -12.2768E-03     665.376E-06
            2457     889.104E-06     972.177E-06     679.200E+03    -39.7458E+06     758.646E+03    -110.083E+03    -12.3391E-03     24.6498E-03    -12.3107E-03     361.713E-06    -12.2787E-03     24.4493E-03    -12.2502E-03     360.370E-06


