********************************************************************************
Field Output Report, written Mon Aug 12 20:56:58 2024

Source 1
---------

   ODB: G:/Abaqus_calc_2019/1740/Vel_40/odb/zeides_2a_16_red_500_cal_30_vel_40_fric_0100.odb
   Step: Step-1
   Frame: Increment   1847232: Step Time =   0.2320

Loc 1 : Nodal values from source 1

Output sorted by column "Nodal Label".

Field Output reported at nodes for region: DIE_2A_16_D0_36-1.Region_1
   Computation algorithm: EXTRAPOLATE_COMPUTE_AVERAGE
   Averaged at nodes
   Averaging regions: ODB_REGIONS

      Node Label     COORD.COOR1     COORD.COOR2
                          @Loc 1          @Loc 1
-------------------------------------------------
               1     19.4799E-03     125.960E-03


Field Output reported at nodes for region: DIE_2A_16_D0_36-1.Region_2
   Computation algorithm: EXTRAPOLATE_COMPUTE_AVERAGE
   Averaged at nodes
   Averaging regions: ODB_REGIONS

      Node Label     COORD.COOR1     COORD.COOR2
                          @Loc 1          @Loc 1
-------------------------------------------------
               1     19.4799E-03     125.960E-03


Field Output reported at nodes for part: WIRE-1
   Computation algorithm: EXTRAPOLATE_COMPUTE_AVERAGE
   Averaged at nodes
   Averaging regions: ODB_REGIONS

      Node Label     COORD.COOR1     COORD.COOR2           S.S11           S.S22           S.S33           S.S12         PE.PE11         PE.PE22         PE.PE33         PE.PE12         LE.LE11         LE.LE22         LE.LE33         LE.LE12
                          @Loc 1          @Loc 1          @Loc 1          @Loc 1          @Loc 1          @Loc 1          @Loc 1          @Loc 1          @Loc 1          @Loc 1          @Loc 1          @Loc 1          @Loc 1          @Loc 1
-------------------------------------------------------------------------------------------------------------------------------------------------------------------------------------------------------------------------------------------------
               1    -272.583E-09     60.4672E-03    -64.8163E+06    -173.209E+06    -64.7332E+06     90.7946E+03    -53.3427E-03     106.621E-03    -53.2788E-03     5.54535E-03    -53.3221E-03     105.944E-03    -53.2573E-03     5.52583E-03
               2     17.0713E-03     61.7839E-03    -2.05779E+06     123.033E+06     84.6819E+06     183.227E+03    -52.2056E-03     105.413E-03    -53.2073E-03     48.1991E-03    -52.8391E-03     106.230E-03    -52.9593E-03     47.7729E-03
               3     16.8744E-03     123.540E-03     6.71578E+06     33.6372E+06     58.0450E+06    -7.17367E+06     30.5428E-03     28.8952E-03    -59.4380E-03     2.70864E-03     30.4407E-03     28.9666E-03    -59.2063E-03     2.61615E-03
               4    -1.84560E-06     121.044E-03     47.6331E+06    -5.16422E+06     46.0508E+06    -1.97683E+06    -51.6690E-03     104.334E-03    -52.6652E-03    -2.70251E-03    -51.4960E-03     104.167E-03    -52.4965E-03    -2.73287E-03
               5    -315.146E-09     41.6334E-18    -33.2649E+06    -136.788E+06    -33.3906E+06    -238.420E+03    -52.2928E-03     104.605E-03    -52.3122E-03     267.648E-06    -52.2122E-03     104.018E-03    -52.2326E-03     263.567E-06
               6     16.8697E-03     41.6334E-18     9.83993E+06     106.531E+06     89.6890E+06    -144.644E+03    -85.9063E-03     147.879E-03    -61.9730E-03     81.2411E-03    -86.3477E-03     148.460E-03    -61.6933E-03     80.4984E-03
               7     853.332E-06     60.4727E-03    -64.1741E+06    -172.028E+06    -62.8348E+06     109.928E+03    -53.3348E-03     106.631E-03    -53.2961E-03     9.28393E-03    -53.3166E-03     105.957E-03    -53.2678E-03     9.25087E-03
               8     1.70664E-03     60.4858E-03    -62.3096E+06    -168.694E+06    -57.4479E+06     51.1242E+03    -53.3678E-03     106.692E-03    -53.3246E-03     17.0721E-03    -53.3562E-03     106.027E-03    -53.2769E-03     17.0081E-03
               9     2.55987E-03     60.5069E-03    -59.3888E+06    -162.937E+06    -49.5965E+06     171.446E+03    -53.4324E-03     106.779E-03    -53.3466E-03     25.1082E-03    -53.4317E-03     106.133E-03    -53.2722E-03     25.0112E-03
              10     3.41333E-03     60.5360E-03    -55.8018E+06    -156.071E+06    -40.3831E+06     347.507E+03    -53.4981E-03     106.865E-03    -53.3673E-03     33.0000E-03    -53.5115E-03     106.244E-03    -53.2620E-03     32.8664E-03
              11     4.26658E-03     60.5730E-03    -51.9462E+06    -148.779E+06    -31.2778E+06     328.986E+03    -53.6163E-03     107.000E-03    -53.3834E-03     40.6676E-03    -53.6466E-03     106.408E-03    -53.2487E-03     40.4898E-03
              12     5.12013E-03     60.6174E-03    -47.9519E+06    -140.679E+06    -23.2239E+06     239.816E+03    -53.7746E-03     107.170E-03    -53.3953E-03     48.0524E-03    -53.8255E-03     106.618E-03    -53.2379E-03     47.8231E-03
              13     5.97339E-03     60.6692E-03    -43.9704E+06    -132.026E+06    -15.7168E+06     300.485E+03    -53.9240E-03     107.329E-03    -53.4051E-03     55.1130E-03    -54.0010E-03     106.827E-03    -53.2284E-03     54.8276E-03
              14     6.82677E-03     60.7278E-03    -40.0464E+06    -123.452E+06    -9.20319E+06     348.966E+03    -54.0708E-03     107.479E-03    -53.4087E-03     61.8042E-03    -54.1797E-03     107.035E-03    -53.2176E-03     61.4550E-03
              15     7.68040E-03     60.7928E-03    -36.2350E+06    -113.104E+06    -4.40248E+06     361.491E+03    -54.2355E-03     107.636E-03    -53.4006E-03     68.1283E-03    -54.3860E-03     107.269E-03    -53.2060E-03     67.7058E-03
              16     8.53361E-03     60.8641E-03    -32.9484E+06    -99.4722E+06    -2.09827E+06     396.952E+03    -54.4014E-03     107.778E-03    -53.3770E-03     74.0358E-03    -54.6084E-03     107.521E-03    -53.1955E-03     73.5313E-03
              17     9.38735E-03     60.9408E-03    -30.1007E+06    -83.7756E+06    -231.700E+03     296.597E+03    -54.5312E-03     107.881E-03    -53.3495E-03     79.4768E-03    -54.8129E-03     107.759E-03    -53.1855E-03     78.8792E-03
              18     10.2406E-03     61.0228E-03    -27.5696E+06    -64.9481E+06     1.32408E+06     220.768E+03    -54.5849E-03     107.899E-03    -53.3144E-03     84.3477E-03    -54.9640E-03     107.946E-03    -53.1736E-03     83.6493E-03
              19     11.0941E-03     61.1093E-03    -25.5961E+06    -39.1493E+06     2.99814E+06    -177.101E+03    -54.5906E-03     107.857E-03    -53.2668E-03     89.1698E-03    -55.1070E-03     108.135E-03    -53.1579E-03     88.3552E-03
              20     11.9480E-03     61.2004E-03    -23.8413E+06    -4.27289E+06     6.14932E+06    -363.845E+03    -54.6123E-03     107.821E-03    -53.2090E-03     95.7314E-03    -55.3299E-03     108.421E-03    -53.1375E-03     94.7904E-03
              21     12.8016E-03     61.3000E-03    -22.1780E+06     51.9055E+06     9.48286E+06     244.487E+03    -54.6353E-03     107.750E-03    -53.1144E-03     105.151E-03    -55.6634E-03     108.856E-03    -53.1101E-03     104.085E-03
              22     13.6558E-03     61.4096E-03    -20.0399E+06     99.4841E+06     31.9304E+06      898.55E+03    -54.6430E-03     107.762E-03    -53.1195E-03     113.767E-03    -56.0131E-03     109.322E-03    -53.0750E-03     112.640E-03
              23     14.5096E-03     61.5265E-03    -15.8020E+06     115.196E+06     63.8061E+06     526.349E+03    -54.2333E-03     107.445E-03    -53.2119E-03     110.370E-03    -55.7387E-03     109.118E-03    -53.0370E-03     109.309E-03
              24     15.3637E-03     61.6301E-03    -10.0371E+06     125.719E+06     83.1663E+06    -395.269E+03    -53.8967E-03     107.148E-03    -53.2516E-03     103.998E-03    -55.4513E-03     108.872E-03    -53.0035E-03     103.065E-03
              25     16.2179E-03     61.7337E-03    -4.59192E+06     127.222E+06     87.9611E+06    -281.089E+03    -53.0904E-03     106.327E-03    -53.2362E-03     76.2134E-03    -54.2162E-03     107.633E-03    -52.9742E-03     75.5637E-03
              26     17.0729E-03     62.8343E-03    -1.41277E+06     123.408E+06     85.4333E+06    -694.022E+03    -52.1197E-03     105.321E-03    -53.2011E-03     47.9883E-03    -52.7517E-03     106.138E-03    -52.9509E-03     47.5497E-03
              27     17.0710E-03     63.8914E-03    -2.83451E+06     122.393E+06     84.6832E+06    -237.394E+03    -52.8081E-03     106.017E-03    -53.2085E-03     47.5496E-03    -53.4440E-03     106.831E-03    -52.9585E-03     47.1117E-03
              28     17.0715E-03     64.9449E-03    -4.02848E+06     121.220E+06     83.4132E+06     1.23833E+06    -52.7667E-03     105.996E-03    -53.2290E-03     48.0166E-03    -53.4051E-03     106.808E-03    -52.9818E-03     47.6005E-03
              29     17.0709E-03     65.9987E-03    -2.98722E+06     121.938E+06     83.9847E+06     1.04798E+06    -52.4299E-03     105.655E-03    -53.2246E-03     48.2370E-03    -53.0635E-03     106.467E-03    -52.9771E-03     47.8191E-03
              30     17.0725E-03     67.0544E-03    -1.38692E+06     123.634E+06     85.7200E+06    -258.567E+03    -51.8700E-03     105.089E-03    -53.2192E-03     48.3272E-03    -52.5018E-03     105.906E-03    -52.9678E-03     47.8980E-03
              31     17.0715E-03     68.1053E-03    -1.19141E+06     124.109E+06     86.4288E+06    -952.594E+03    -52.0194E-03     105.228E-03    -53.2090E-03     47.7811E-03    -52.6512E-03     106.046E-03    -52.9551E-03     47.3419E-03
              32     17.0724E-03     69.1604E-03    -2.04665E+06     123.343E+06     85.8927E+06    -318.603E+03    -52.8843E-03     106.089E-03    -53.2044E-03     47.3301E-03    -53.5163E-03     106.902E-03    -52.9508E-03     46.8894E-03
              33     17.0704E-03     70.2166E-03    -3.60918E+06     121.844E+06     84.2446E+06     955.760E+03    -52.8260E-03     106.053E-03    -53.2265E-03     47.5621E-03    -53.4619E-03     106.864E-03    -52.9768E-03     47.1409E-03
              34     17.0720E-03     71.2686E-03    -2.61989E+06     122.428E+06     84.6830E+06     749.513E+03    -52.1523E-03     105.375E-03    -53.2230E-03     48.2003E-03    -52.7855E-03     106.188E-03    -52.9733E-03     47.7813E-03
              35     17.0722E-03     72.3235E-03    -471.486E+03     124.377E+06     86.8218E+06    -890.608E+03    -52.0027E-03     105.205E-03    -53.2022E-03     47.9425E-03    -52.6310E-03     106.021E-03    -52.9477E-03     47.5020E-03
              36     17.0721E-03     73.3774E-03    -1.53727E+06     124.112E+06     86.4987E+06    -316.986E+03    -52.3623E-03     105.570E-03    -53.2076E-03     47.9017E-03    -52.9981E-03     106.390E-03    -52.9529E-03     47.4664E-03
              37     17.0712E-03     74.4311E-03    -2.61626E+06     123.444E+06     85.6062E+06     597.240E+03    -52.4728E-03     105.686E-03    -53.2128E-03     47.9420E-03    -53.1086E-03     106.502E-03    -52.9600E-03     47.5188E-03
              38     17.0725E-03     75.4857E-03    -2.26280E+06     123.413E+06     85.7250E+06     30.9381E+03    -52.2513E-03     105.465E-03    -53.2141E-03     47.6167E-03    -52.8842E-03     106.280E-03    -52.9612E-03     47.1873E-03
              39     17.0711E-03     76.5388E-03    -2.82437E+06     122.929E+06     85.3201E+06     90.3710E+03    -52.7537E-03     105.963E-03    -53.2092E-03     47.9874E-03    -53.3906E-03     106.779E-03    -52.9567E-03     47.5519E-03
              40     17.0720E-03     77.5947E-03    -1.99236E+06     123.336E+06     85.8417E+06     112.410E+03    -52.4639E-03     105.669E-03    -53.2050E-03     47.3809E-03    -53.0939E-03     106.481E-03    -52.9518E-03     46.9488E-03
              41     17.0723E-03     78.6465E-03    -1.58743E+06     124.362E+06     86.8041E+06    -262.718E+03    -52.4238E-03     105.636E-03    -53.2120E-03     47.1957E-03    -53.0553E-03     106.451E-03    -52.9560E-03     46.7607E-03
              42     17.0705E-03     79.7032E-03    -4.06852E+06     123.267E+06     85.2503E+06     851.923E+03    -53.1576E-03     106.378E-03    -53.2199E-03     47.3665E-03    -53.7990E-03     107.195E-03    -52.9665E-03     46.9379E-03
              43     17.0719E-03     80.7572E-03    -2.62146E+06     124.507E+06     86.1870E+06     959.886E+03    -52.3392E-03     105.560E-03    -53.2209E-03     48.2360E-03    -52.9783E-03     106.382E-03    -52.9667E-03     47.8153E-03
              44     17.0724E-03     81.8109E-03    -504.691E+03     126.427E+06     88.1170E+06    -932.336E+03    -51.8722E-03     105.079E-03    -53.2064E-03     48.2119E-03    -52.5077E-03     105.906E-03    -52.9484E-03     47.7713E-03
              45     17.0720E-03     82.8646E-03    -1.39202E+06     125.966E+06     87.7680E+06    -1.18714E+06    -52.4832E-03     105.685E-03    -53.2018E-03     47.7487E-03    -53.1227E-03     106.512E-03    -52.9436E-03     47.2987E-03
              46     17.0716E-03     83.9191E-03    -2.77919E+06     124.895E+06     86.3604E+06     669.610E+03    -52.9139E-03     106.125E-03    -53.2110E-03     47.7050E-03    -53.5535E-03     106.948E-03    -52.9563E-03     47.2767E-03
              47     17.0713E-03     84.9742E-03    -3.78235E+06     124.541E+06     85.1651E+06     1.41581E+06    -52.7952E-03     106.016E-03    -53.2204E-03     47.6573E-03    -53.4364E-03     106.838E-03    -52.9697E-03     47.2387E-03
              48     17.0716E-03     86.0275E-03    -2.92913E+06     126.329E+06     86.2957E+06     499.409E+03    -52.3609E-03     105.584E-03    -53.2235E-03     47.6529E-03    -53.0034E-03     106.415E-03    -52.9710E-03     47.2257E-03
              49     17.0719E-03     87.0824E-03    -2.09116E+06     127.718E+06     87.3074E+06     92.6866E+03    -52.3798E-03     105.598E-03    -53.2182E-03     48.1920E-03    -53.0249E-03     106.436E-03    -52.9638E-03     47.7597E-03
              50     17.0714E-03     88.1369E-03    -1.88488E+06     128.034E+06     87.3433E+06    -57.2909E+03    -52.4323E-03     105.632E-03    -53.1997E-03     48.6895E-03    -53.0785E-03     106.473E-03    -52.9459E-03     48.2501E-03
              51     17.0732E-03     89.1896E-03    -428.457E+03     129.325E+06     88.6246E+06    -931.267E+03    -52.3574E-03     105.541E-03    -53.1840E-03     48.0138E-03    -52.9967E-03     106.381E-03    -52.9278E-03     47.5643E-03
              52     17.0715E-03     90.2455E-03    -891.787E+03     129.369E+06     88.6697E+06    -439.166E+03    -52.4921E-03     105.678E-03    -53.1861E-03     48.0738E-03    -53.1357E-03     106.521E-03    -52.9291E-03     47.6320E-03
              53     17.0728E-03     91.2983E-03    -2.65645E+06     128.692E+06     87.4247E+06     702.141E+03    -52.9952E-03     106.182E-03    -53.1868E-03     48.6921E-03    -53.6474E-03     107.028E-03    -52.9324E-03     48.2580E-03
              54     17.0708E-03     92.3556E-03    -3.00426E+06     128.585E+06     86.6247E+06     928.418E+03    -52.6459E-03     105.831E-03    -53.1856E-03     48.6164E-03    -53.2964E-03     106.677E-03    -52.9346E-03     48.1888E-03
              55     17.0740E-03     93.4065E-03    -1.37443E+06     129.945E+06     88.0948E+06    -166.140E+03    -51.9472E-03     105.121E-03    -53.1737E-03     48.4444E-03    -52.5922E-03     105.967E-03    -52.9196E-03     48.0114E-03
              56     17.0718E-03     94.4613E-03    -2.89579E+06     129.286E+06     87.5863E+06    -159.865E+03    -52.8791E-03     106.031E-03    -53.1520E-03     48.1110E-03    -53.5309E-03     106.878E-03    -52.8973E-03     47.6672E-03
              57     17.0728E-03     95.5177E-03    -3.71027E+06     128.001E+06     86.6175E+06     1.29491E+06    -52.7036E-03     105.848E-03    -53.1441E-03     48.6457E-03    -53.3574E-03     106.692E-03    -52.8913E-03     48.2220E-03
              58     17.0737E-03     96.5692E-03    -2.28927E+06     129.310E+06     88.4897E+06     378.302E+03    -52.1055E-03     105.213E-03    -53.1075E-03     48.6092E-03    -52.7560E-03     106.058E-03    -52.8493E-03     48.1769E-03
              59     17.0748E-03     97.6232E-03    -2.29928E+06     129.395E+06     89.5037E+06    -567.210E+03    -53.0661E-03     106.091E-03    -53.0253E-03     48.7099E-03    -53.7206E-03     106.938E-03    -52.7621E-03     48.2476E-03
              60     17.0759E-03     98.6803E-03    -861.876E+03     130.335E+06     91.5554E+06    -349.691E+03    -52.6907E-03     105.653E-03    -52.9624E-03     49.2619E-03    -53.3455E-03     106.502E-03    -52.6923E-03     48.8064E-03
              61     17.0779E-03     99.7327E-03    -487.598E+03     130.630E+06     92.3975E+06    -242.449E+03    -52.2749E-03     105.166E-03    -52.8907E-03     49.7168E-03    -52.9327E-03     106.018E-03    -52.6175E-03     49.2681E-03
              62     17.0785E-03     100.785E-03     -3.2377E+06     127.909E+06     90.5200E+06     59.9160E+03    -53.5291E-03     106.299E-03    -52.7696E-03     49.2695E-03    -54.1922E-03     107.142E-03    -52.4978E-03     48.8059E-03
              63     17.0811E-03     101.843E-03    -4.34915E+06     125.595E+06     90.2138E+06     290.513E+03    -54.0847E-03     106.717E-03    -52.6322E-03     49.2864E-03    -54.7532E-03     107.554E-03    -52.3569E-03     48.8101E-03
              64     17.0837E-03     102.895E-03    -4.48289E+06     123.087E+06     90.8056E+06    -1.20841E+06    -54.6291E-03     107.064E-03    -52.4351E-03     49.0910E-03    -55.3010E-03     107.894E-03    -52.1530E-03     48.5756E-03
              65     17.0885E-03     103.951E-03     597.452E+03     124.617E+06     96.2947E+06    -1.97624E+06    -56.2881E-03     108.476E-03    -52.1875E-03     51.3452E-03    -56.9535E-03     109.306E-03    -51.8875E-03     50.7951E-03
              66     17.0913E-03     105.018E-03    -512.988E+03     121.762E+06     95.6818E+06    -1.54440E+06    -60.5422E-03     112.461E-03    -51.9187E-03     57.4678E-03    -61.2478E-03     113.320E-03    -51.6161E-03     56.8393E-03
              67     17.0920E-03     106.078E-03    -5.83952E+06     113.966E+06     90.3955E+06     554.585E+03    -64.8644E-03     116.547E-03    -51.6829E-03     56.3725E-03    -65.5814E-03     117.386E-03    -51.3877E-03     55.6998E-03
              68     17.0956E-03     107.146E-03    -2.25774E+06     112.646E+06     93.0812E+06     921.935E+03    -65.8702E-03     117.395E-03    -51.5246E-03     55.7569E-03    -66.5704E-03     118.217E-03    -51.2193E-03     55.0793E-03
              69     17.0972E-03     108.215E-03    -1.34971E+06     109.312E+06     92.7329E+06    -1.84840E+06    -69.6212E-03     120.931E-03    -51.3094E-03     59.4195E-03    -70.3449E-03     121.769E-03    -51.0023E-03     58.6196E-03
              70     17.0987E-03     109.286E-03    -2.94321E+06     104.130E+06     90.5213E+06    -2.77921E+06    -76.7013E-03     127.754E-03    -51.0526E-03     60.0279E-03    -77.4344E-03     128.584E-03    -50.7467E-03     59.0778E-03
              71     17.0994E-03     110.374E-03    -2.11380E+06     99.3491E+06     90.5890E+06    -1.60311E+06    -82.0353E-03     132.897E-03    -50.8615E-03     63.4544E-03    -82.7872E-03     133.732E-03    -50.5495E-03     62.3940E-03
              72     17.1010E-03     111.458E-03    -2.53402E+06     94.0836E+06     90.8368E+06    -2.38391E+06    -86.9007E-03     137.584E-03    -50.6835E-03     67.5129E-03    -87.6837E-03     138.429E-03    -50.3621E-03     66.3109E-03
              73     17.1017E-03     112.551E-03    -2.13041E+06     86.1957E+06     89.4057E+06    -3.86439E+06    -93.3343E-03     143.808E-03    -50.4739E-03     70.5237E-03    -94.1392E-03     144.653E-03    -50.1488E-03     69.1220E-03
              74     17.1025E-03     113.653E-03    -1.27706E+06     77.4736E+06     88.2151E+06    -2.48567E+06    -100.180E-03     150.452E-03    -50.2716E-03     75.7840E-03    -101.022E-03     151.309E-03    -49.9410E-03     74.1783E-03
              75     17.1032E-03     114.761E-03    -3.46337E+06     70.4464E+06     88.3133E+06    -2.39934E+06    -106.795E-03     156.877E-03    -50.0817E-03     80.9522E-03    -107.690E-03     157.754E-03    -49.7373E-03     79.1217E-03
              76     17.1042E-03     115.874E-03    -1.91993E+06     61.7863E+06     89.5123E+06    -4.41239E+06    -114.985E-03     164.840E-03    -49.8552E-03     88.7881E-03    -115.920E-03     165.731E-03    -49.4945E-03     86.6795E-03
              77     17.1051E-03     117.005E-03    -2.53262E+06     50.2342E+06     90.6098E+06    -4.44128E+06    -122.765E-03     172.412E-03    -49.6472E-03     99.2735E-03    -123.765E-03     173.324E-03    -49.2634E-03     96.9024E-03
              78     17.1061E-03     118.141E-03    -2.09250E+06     43.2695E+06     95.5495E+06    -1.64860E+06    -127.587E-03     177.099E-03    -49.5119E-03     108.698E-03    -128.713E-03     178.095E-03    -49.0939E-03     106.041E-03
              79     17.1076E-03     119.269E-03     3.26628E+06     48.5751E+06     103.678E+06     5.15108E+06    -132.768E-03     182.125E-03    -49.3570E-03     119.526E-03    -134.016E-03     183.262E-03    -48.9138E-03     116.616E-03
              80     17.1084E-03     120.428E-03    -12.4808E+06     43.9252E+06     83.4315E+06    -3.89835E+06    -127.279E-03     176.644E-03    -49.3653E-03     138.301E-03    -128.769E-03     178.017E-03    -48.9938E-03     135.157E-03
              81     17.1105E-03     121.564E-03    -8.45371E+06     17.3748E+06     46.0807E+06    -12.8739E+06    -85.0884E-03     135.342E-03    -50.2539E-03     166.323E-03    -86.1767E-03     136.345E-03    -50.0365E-03     164.307E-03
              82     17.1088E-03     122.622E-03     10.5256E+06     17.4273E+06     45.2139E+06    -7.40184E+06    -10.5688E-03     65.8056E-03    -55.2369E-03     92.2691E-03    -10.8635E-03     66.0757E-03    -55.0513E-03     91.8562E-03
              83     15.9746E-03     123.347E-03     1.22133E+06    -5.02143E+06     47.1199E+06    -3.91316E+06     12.2537E-03     48.3337E-03    -60.5875E-03     8.20476E-03     12.1929E-03     48.2422E-03    -60.3464E-03     8.13884E-03
              84     15.1070E-03     123.098E-03     2.16377E+06    -17.4204E+06     51.6510E+06    -2.86063E+06    -14.9416E-03     77.0699E-03    -62.1283E-03     13.7444E-03    -14.9835E-03     76.9244E-03    -61.8479E-03     13.6546E-03
              85     14.2467E-03     122.836E-03     17.2093E+06     1.53326E+06     76.9250E+06    -2.87307E+06    -25.8892E-03     88.4460E-03    -62.5568E-03     2.48591E-03    -25.9315E-03     88.3241E-03    -62.1994E-03     2.35372E-03
              86     13.4178E-03     122.582E-03     27.1137E+06     3.86918E+06     91.4816E+06     2.88924E+06    -30.0216E-03     92.5580E-03    -62.5364E-03    -10.8383E-03    -30.0458E-03     92.3964E-03    -62.1240E-03    -10.9151E-03
              87     12.5753E-03     122.359E-03     27.9480E+06     2.44401E+06     92.8726E+06     5.45840E+06    -38.0905E-03     100.350E-03    -62.2590E-03    -19.8544E-03    -38.1027E-03     100.173E-03    -61.8387E-03    -19.9169E-03
              88     11.7492E-03     122.154E-03     29.2683E+06    -3.26585E+06     90.7848E+06     2.73457E+06    -46.8957E-03     108.509E-03    -61.6131E-03    -28.9386E-03    -46.8907E-03     108.293E-03    -61.1968E-03    -29.0570E-03
              89     10.9238E-03     121.973E-03     31.0222E+06    -1.28377E+06     89.6831E+06     2.54663E+06    -51.7124E-03     112.418E-03    -60.7055E-03    -31.6283E-03    -51.6962E-03     112.211E-03    -60.3002E-03    -31.7444E-03
              90     10.0967E-03     121.814E-03     31.4498E+06    -342.254E+03     87.5369E+06     2.09114E+06    -55.0932E-03     114.801E-03    -59.7080E-03    -31.7835E-03    -55.0707E-03     114.603E-03    -59.3154E-03    -31.8920E-03
              91     9.26811E-03     121.675E-03     33.0779E+06     339.178E+03     85.8905E+06     562.937E+03    -57.0683E-03     115.731E-03    -58.6630E-03    -30.0606E-03    -57.0356E-03     115.539E-03    -58.2820E-03    -30.1730E-03
              92     8.43722E-03     121.553E-03     34.7533E+06    -689.644E+03     82.9493E+06     1.16755E+06    -57.6907E-03     115.312E-03    -57.6215E-03    -27.2472E-03    -57.6434E-03     115.120E-03    -57.2561E-03    -27.3356E-03
              93     7.60319E-03     121.448E-03     35.0749E+06     803.641E+03     79.3517E+06     1.11216E+06    -57.5702E-03     114.200E-03    -56.6298E-03    -24.1245E-03    -57.5178E-03     114.023E-03    -56.2851E-03    -24.1976E-03
              94     6.76614E-03     121.358E-03     35.1575E+06     937.714E+03     74.6130E+06    -97.2384E+03    -57.0943E-03     112.797E-03    -55.7028E-03    -21.0631E-03    -57.0344E-03     112.630E-03    -55.3821E-03    -21.1380E-03
              95     5.92651E-03     121.281E-03     36.2637E+06    -70.4643E+03     68.8739E+06    -1.00091E+06    -56.2669E-03     111.118E-03    -54.8507E-03    -18.0895E-03    -56.1916E-03     110.954E-03    -54.5588E-03    -18.1637E-03
              96     5.08462E-03     121.217E-03     37.6759E+06    -103.296E+03     63.0096E+06    -904.699E+03    -55.2514E-03     109.351E-03    -54.0995E-03    -15.2077E-03    -55.1603E-03     109.195E-03    -53.8389E-03    -15.2693E-03
              97     4.24011E-03     121.164E-03     38.8765E+06     554.644E+03     57.8892E+06    -1.27551E+06    -54.2977E-03     107.764E-03    -53.4659E-03    -12.6266E-03    -54.1938E-03     107.618E-03    -53.2337E-03    -12.6831E-03
              98     3.39393E-03     121.121E-03     40.6879E+06     330.922E+03     53.3355E+06    -2.02328E+06    -53.4601E-03     106.411E-03    -52.9513E-03    -10.2000E-03    -53.3404E-03     106.269E-03    -52.7441E-03    -10.2574E-03
              99     2.54648E-03     121.088E-03     43.0191E+06    -1.22429E+06     50.5834E+06    -1.91409E+06    -52.7541E-03     105.330E-03    -52.5761E-03    -7.70702E-03    -52.6167E-03     105.181E-03    -52.3838E-03    -7.75467E-03
             100     1.69817E-03     121.064E-03     45.1453E+06    -154.653E+03     47.5893E+06    -1.04806E+06    -52.3267E-03     104.662E-03    -52.3348E-03    -5.30322E-03    -52.1759E-03     104.520E-03    -52.1620E-03    -5.33185E-03
             101     848.981E-06     121.050E-03     46.8770E+06    -676.629E+03     45.8097E+06    -1.33005E+06    -51.9428E-03     104.396E-03    -52.4528E-03    -3.43397E-03    -51.7797E-03     104.252E-03    -52.2908E-03    -3.45932E-03
             102     1.02408E-06     119.992E-03     40.6859E+06    -5.12239E+06     41.0591E+06    -1.16525E+06    -46.6206E-03     93.4216E-03    -46.8009E-03    -922.767E-06    -46.4738E-03     93.2729E-03    -46.6472E-03    -943.699E-06
             103    -447.740E-09     118.962E-03     22.6376E+06    -9.83567E+06     23.3125E+06    -1.92504E+06    -37.3066E-03     74.5010E-03    -37.1944E-03     1.27304E-03    -37.2154E-03     74.3829E-03    -37.0964E-03     1.24182E-03
             104     93.9463E-09     117.949E-03    -1.01399E+06    -19.0465E+06    -1.36951E+06    -2.86218E+06    -30.4809E-03     61.1236E-03    -30.6427E-03     2.58180E-03    -30.4576E-03     61.0309E-03    -30.6204E-03     2.54026E-03
             105    -15.4943E-09     116.947E-03    -27.5204E+06    -29.6890E+06    -26.6755E+06    -3.39767E+06    -26.3577E-03     52.7357E-03    -26.3780E-03     3.93924E-03    -26.4139E-03     52.6657E-03    -26.4284E-03     3.89271E-03
             106    -92.4872E-09     115.950E-03    -56.6510E+06    -43.3163E+06    -56.3426E+06    -4.42350E+06    -24.2289E-03     48.5579E-03    -24.3290E-03     4.91328E-03    -24.3677E-03     48.5053E-03    -24.4657E-03     4.85491E-03
             107     18.0056E-09     114.956E-03    -90.1836E+06    -57.8530E+06    -89.9339E+06    -4.24083E+06    -23.9285E-03     47.9188E-03    -23.9903E-03     5.74716E-03    -24.1651E-03     47.8908E-03    -24.2253E-03     5.69226E-03
             108    -63.9646E-09     113.961E-03    -123.437E+06    -70.0507E+06    -123.683E+06    -3.17211E+06    -25.2073E-03     50.4130E-03    -25.2057E-03     6.33071E-03    -25.5437E-03     50.4210E-03    -25.5436E-03     6.29024E-03
             109     93.3099E-09     112.962E-03    -131.857E+06    -75.5983E+06    -132.965E+06    -55.7276E+03    -27.7796E-03     55.5154E-03    -27.7358E-03     6.70539E-03    -28.1368E-03     55.5211E-03    -28.0998E-03     6.70525E-03
             110    -75.3684E-09     111.956E-03    -99.6881E+06    -70.7754E+06    -100.019E+06     2.91086E+06    -31.2508E-03     62.4662E-03    -31.2153E-03     6.87968E-03    -31.5021E-03     62.4015E-03    -31.4683E-03     6.91715E-03
             111     98.8982E-09     110.943E-03    -64.5529E+06    -62.1189E+06    -63.6883E+06     1.93847E+06    -35.0124E-03     70.0385E-03    -35.0261E-03     6.98396E-03    -35.1533E-03     69.9135E-03    -35.1609E-03     7.00736E-03
             112    -153.532E-09     109.922E-03    -50.1458E+06    -60.8772E+06    -49.5711E+06    -1.15548E+06    -38.5587E-03     77.0978E-03    -38.5391E-03     6.79847E-03    -38.6498E-03     76.9378E-03    -38.6260E-03     6.77999E-03
             113     231.328E-09     108.895E-03    -44.5517E+06    -66.9511E+06    -44.6324E+06    -2.65818E+06    -41.7753E-03     83.4709E-03    -41.6956E-03     6.52047E-03    -41.8368E-03     83.2654E-03    -41.7571E-03     6.47986E-03
             114    -187.956E-09     107.861E-03    -43.0914E+06    -75.4384E+06    -42.8426E+06    -2.89895E+06    -44.6213E-03     89.1286E-03    -44.5072E-03     6.29904E-03    -44.6657E-03     88.8760E-03    -44.5496E-03     6.25259E-03
             115     328.353E-09     106.821E-03    -44.5726E+06    -85.4313E+06    -44.7915E+06    -2.79612E+06    -46.8501E-03     93.6215E-03    -46.7713E-03     6.35973E-03    -46.8845E-03     93.3241E-03    -46.8068E-03     6.31307E-03
             116    -352.560E-09     105.779E-03    -47.5471E+06    -95.5145E+06    -47.7985E+06    -2.71389E+06    -48.5284E-03     97.1012E-03    -48.5728E-03     6.31451E-03    -48.5587E-03     96.7623E-03    -48.6044E-03     6.26657E-03
             117     280.730E-09     104.732E-03    -50.4016E+06    -105.858E+06    -50.5235E+06    -2.87128E+06    -49.9849E-03     99.8821E-03    -49.8972E-03     5.97438E-03    -50.0105E-03     99.4996E-03    -49.9232E-03     5.92230E-03
             118    -75.8060E-09     103.684E-03    -53.6496E+06    -115.681E+06    -53.6086E+06    -2.57733E+06    -51.0746E-03     101.996E-03    -50.9217E-03     5.88988E-03    -51.0978E-03     101.574E-03    -50.9442E-03     5.84018E-03
             119     117.777E-09     102.633E-03    -56.6900E+06    -124.845E+06    -57.0256E+06    -2.38769E+06    -51.8187E-03     103.556E-03    -51.7371E-03     5.93452E-03    -51.8389E-03     103.097E-03    -51.7590E-03     5.88622E-03
             120    -39.5256E-09     101.581E-03    -59.8638E+06    -133.226E+06    -59.8036E+06    -1.97324E+06    -52.3170E-03     104.610E-03    -52.2935E-03     5.92170E-03    -52.3368E-03     104.118E-03    -52.3125E-03     5.87817E-03
             121    -13.5969E-09     100.528E-03    -63.2513E+06    -140.653E+06    -63.1042E+06    -1.87393E+06    -52.7340E-03     105.339E-03    -52.6050E-03     5.63887E-03    -52.7552E-03     104.819E-03    -52.6248E-03     5.59540E-03
             122     274.444E-09     99.4751E-03    -65.7948E+06    -147.641E+06    -66.3838E+06    -1.93893E+06    -53.0129E-03     105.881E-03    -52.8683E-03     5.55845E-03    -53.0319E-03     105.335E-03    -52.8907E-03     5.51325E-03
             123    -308.691E-09     98.4211E-03    -68.2328E+06    -153.349E+06    -67.9844E+06    -1.62570E+06    -53.0656E-03     106.191E-03    -53.1257E-03     5.50540E-03    -53.0862E-03     105.623E-03    -53.1444E-03     5.46404E-03
             124     229.529E-09     97.3670E-03    -70.0918E+06    -158.772E+06    -70.7446E+06    -1.17521E+06    -53.2262E-03     106.369E-03    -53.1430E-03     5.59094E-03    -53.2443E-03     105.780E-03    -53.1649E-03     5.55589E-03
             125    -29.5039E-09     96.3128E-03    -70.5510E+06    -162.262E+06    -70.0474E+06    -906.268E+03    -53.3397E-03     106.535E-03    -53.1949E-03     5.60554E-03    -53.3560E-03     105.928E-03    -53.2075E-03     5.57329E-03
             126     68.0988E-09     95.2588E-03    -70.7424E+06    -165.536E+06    -70.8871E+06    -1.01290E+06    -53.2845E-03     106.548E-03    -53.2632E-03     5.41661E-03    -53.2958E-03     105.926E-03    -53.2750E-03     5.38279E-03
             127    -84.9640E-09     94.2043E-03    -71.1374E+06    -168.771E+06    -71.1323E+06    -767.495E+03    -53.3332E-03     106.592E-03    -53.2589E-03     5.54721E-03    -53.3414E-03     105.955E-03    -53.2667E-03     5.51680E-03
             128     214.927E-09     93.1501E-03    -73.0267E+06    -172.869E+06    -72.7859E+06    -1.66293E+06    -53.4316E-03     106.692E-03    -53.2605E-03     5.53688E-03    -53.4410E-03     106.040E-03    -53.2679E-03     5.49457E-03
             129    -63.9087E-09     92.0958E-03    -75.3988E+06    -175.947E+06    -76.2956E+06     -23.278E+03    -53.3729E-03     106.675E-03    -53.3025E-03     5.59746E-03    -53.3845E-03     106.016E-03    -53.3195E-03     5.57698E-03
             130     9.02594E-09     91.0411E-03    -74.0171E+06    -173.702E+06    -73.4739E+06     991.861E+03    -53.3615E-03     106.692E-03    -53.3301E-03     5.62663E-03    -53.3736E-03     106.038E-03    -53.3383E-03     5.61921E-03
             131     91.1375E-09     89.9872E-03    -71.4485E+06    -172.109E+06    -71.7181E+06    -86.5489E+03    -53.3477E-03     106.642E-03    -53.2938E-03     5.59638E-03    -53.3518E-03     105.989E-03    -53.2993E-03     5.57492E-03
             132    -116.453E-09     88.9326E-03    -73.0006E+06    -173.431E+06    -72.5858E+06    -577.967E+03    -53.2777E-03     106.575E-03    -53.2973E-03     5.62945E-03    -53.2864E-03     105.920E-03    -53.3029E-03     5.60172E-03
             133     98.6794E-09     87.8787E-03    -70.1302E+06    -177.285E+06    -69.8727E+06    -1.43603E+06    -53.4059E-03     106.674E-03    -53.2684E-03     5.57701E-03    -53.3986E-03     105.991E-03    -53.2590E-03     5.53785E-03
             134     142.746E-09     86.8241E-03    -66.7942E+06    -181.483E+06    -67.2823E+06    -712.332E+03    -53.4722E-03     106.749E-03    -53.2772E-03     5.57936E-03    -53.4459E-03     106.037E-03    -53.2536E-03     5.54962E-03
             135    -70.7541E-09     85.7700E-03    -67.4119E+06    -182.084E+06    -67.5820E+06     220.211E+03    -53.3564E-03     106.741E-03    -53.3847E-03     5.49720E-03    -53.3318E-03     106.027E-03    -53.3609E-03     5.47933E-03
             136    -65.1002E-09     84.7158E-03    -67.7597E+06    -182.159E+06    -67.6878E+06    -163.941E+03    -53.3540E-03     106.754E-03    -53.3997E-03     5.56033E-03    -53.3309E-03     106.040E-03    -53.3758E-03     5.53769E-03
             137     109.893E-09     83.6606E-03    -67.7131E+06    -182.398E+06    -68.0664E+06     246.514E+03    -53.3802E-03     106.649E-03    -53.2684E-03     5.58576E-03    -53.3560E-03     105.934E-03    -53.2461E-03     5.56908E-03
             138     18.1203E-09     82.6077E-03    -67.7491E+06    -181.794E+06    -67.2479E+06     248.176E+03    -53.3196E-03     106.569E-03    -53.2495E-03     5.54213E-03    -53.2976E-03     105.856E-03    -53.2239E-03     5.52498E-03
             139    -34.7728E-09     81.5524E-03    -66.5815E+06    -180.721E+06    -66.8439E+06     14.0247E+03    -53.3928E-03     106.684E-03    -53.2915E-03     5.60362E-03    -53.3671E-03     105.975E-03    -53.2672E-03     5.58327E-03
             140     207.184E-09     80.4988E-03    -66.3160E+06    -180.161E+06    -66.2379E+06     354.548E+03    -53.4120E-03     106.750E-03    -53.3378E-03     5.68262E-03    -53.3867E-03     106.042E-03    -53.3116E-03     5.66686E-03
             141    -266.734E-09     79.4439E-03    -65.6312E+06    -179.343E+06    -65.7428E+06     69.7182E+03    -53.3851E-03     106.680E-03    -53.2950E-03     5.49865E-03    -53.3582E-03     105.974E-03    -53.2685E-03     5.47916E-03
             142     465.211E-09     78.3902E-03    -65.4970E+06    -178.887E+06    -65.6755E+06     260.029E+03    -53.3335E-03     106.539E-03    -53.2053E-03     5.55341E-03    -53.3067E-03     105.835E-03    -53.1793E-03     5.53683E-03
             143    -460.797E-09     77.3356E-03    -65.2096E+06    -178.149E+06    -65.0063E+06     250.268E+03    -53.3037E-03     106.616E-03    -53.3126E-03     5.72803E-03    -53.2776E-03     105.915E-03    -53.2848E-03     5.71113E-03
             144     428.681E-09     76.2817E-03    -64.5158E+06    -177.329E+06    -64.6205E+06     37.0094E+03    -53.4523E-03     106.767E-03    -53.3147E-03     5.52539E-03    -53.4244E-03     106.068E-03    -53.2871E-03     5.50499E-03
             145    -176.654E-09     75.2271E-03    -65.2808E+06    -177.400E+06    -64.9000E+06    -120.328E+03    -53.3933E-03     106.647E-03    -53.2535E-03     5.58779E-03    -53.3688E-03     105.949E-03    -53.2261E-03     5.56568E-03
             146     153.323E-09     74.1729E-03    -64.7091E+06    -176.877E+06    -64.8238E+06     174.862E+03    -53.3993E-03     106.715E-03    -53.3158E-03     5.67133E-03    -53.3728E-03     106.019E-03    -53.2896E-03     5.65325E-03
             147    -3.10726E-09     73.1188E-03    -64.6318E+06    -176.402E+06    -64.3968E+06    -86.7844E+03    -53.4307E-03     106.793E-03    -53.3628E-03     5.51048E-03    -53.4051E-03     106.099E-03    -53.3352E-03     5.48865E-03
             148    -42.2446E-09     72.0639E-03    -65.0970E+06    -176.589E+06    -65.4341E+06     36.3592E+03    -53.3312E-03     106.684E-03    -53.3531E-03     5.54844E-03    -53.3062E-03     105.991E-03    -53.3299E-03     5.52852E-03
             149     32.7227E-09     71.0102E-03    -64.6858E+06    -175.537E+06    -64.4968E+06     331.516E+03    -53.4028E-03     106.757E-03    -53.3540E-03     5.65281E-03    -53.3787E-03     106.067E-03    -53.3282E-03     5.63664E-03
             150     47.8597E-09     69.9549E-03    -64.2816E+06    -175.116E+06    -64.3314E+06    -15.8383E+03    -53.3865E-03     106.724E-03    -53.3374E-03     5.67208E-03    -53.3611E-03     106.035E-03    -53.3119E-03     5.65164E-03
             151    -59.6751E-09     68.9015E-03    -64.3509E+06    -175.123E+06    -64.5178E+06     94.2557E+03    -53.3063E-03     106.577E-03    -53.2703E-03     5.54704E-03    -53.2810E-03     105.889E-03    -53.2457E-03     5.52776E-03
             152     117.267E-09     67.8470E-03    -64.4144E+06    -174.719E+06    -64.3530E+06    -9.39690E+03    -53.3185E-03     106.616E-03    -53.2980E-03     5.55416E-03    -53.2943E-03     105.930E-03    -53.2730E-03     5.53327E-03
             153    -153.020E-09     66.7929E-03    -64.3336E+06    -174.241E+06    -64.4507E+06    -15.9054E+03    -53.3677E-03     106.726E-03    -53.3578E-03     5.56664E-03    -53.3437E-03     106.042E-03    -53.3341E-03     5.54599E-03
             154     190.540E-09     65.7383E-03    -64.7482E+06    -174.262E+06    -64.6677E+06     61.0947E+03    -53.3725E-03     106.667E-03    -53.2950E-03     5.52426E-03    -53.3502E-03     105.984E-03    -53.2717E-03     5.50457E-03
             155    -108.575E-09     64.6842E-03    -64.7876E+06    -174.107E+06    -64.7892E+06     10.0317E+03    -53.3483E-03     106.615E-03    -53.2664E-03     5.56655E-03    -53.3262E-03     105.933E-03    -53.2439E-03     5.54604E-03
             156     152.484E-09     63.6301E-03    -64.5262E+06    -173.623E+06    -64.5276E+06    -72.6398E+03    -53.3407E-03     106.667E-03    -53.3262E-03     5.54965E-03    -53.3184E-03     105.986E-03    -53.3035E-03     5.52774E-03
             157    -185.387E-09     62.5754E-03    -64.8794E+06    -173.773E+06    -64.8607E+06     16.0254E+03    -53.3534E-03     106.639E-03    -53.2855E-03     5.59269E-03    -53.3322E-03     105.959E-03    -53.2638E-03     5.57257E-03
             158     320.294E-09     61.5215E-03    -64.8165E+06    -173.543E+06    -64.8186E+06     115.697E+03    -53.3600E-03     106.605E-03    -53.2448E-03     5.56596E-03    -53.3388E-03     105.926E-03    -53.2232E-03     5.54717E-03
             159     320.967E-09     59.4127E-03    -64.8190E+06    -172.921E+06    -64.7494E+06     2.52779E+03    -53.3465E-03     106.631E-03    -53.2850E-03     5.58942E-03    -53.3263E-03     105.955E-03    -53.2640E-03     5.56920E-03
             160    -277.762E-09     58.3589E-03    -64.9142E+06    -172.962E+06    -64.9628E+06    -12.3875E+03    -53.3532E-03     106.657E-03    -53.3035E-03     5.59396E-03    -53.3331E-03     105.981E-03    -53.2833E-03     5.57356E-03
             161     304.788E-09     57.3040E-03    -64.9536E+06    -172.929E+06    -64.9939E+06     123.525E+03    -53.3524E-03     106.649E-03    -53.2967E-03     5.59454E-03    -53.3326E-03     105.973E-03    -53.2767E-03     5.57585E-03
             162    -251.243E-09     56.2503E-03    -64.9045E+06    -172.736E+06    -64.9083E+06     66.4142E+03    -53.3456E-03     106.615E-03    -53.2696E-03     5.61018E-03    -53.3260E-03     105.940E-03    -53.2496E-03     5.59060E-03
             163     313.161E-09     55.1956E-03    -64.8291E+06    -172.365E+06    -64.7995E+06     98.6316E+03    -53.3683E-03     106.619E-03    -53.2509E-03     5.62780E-03    -53.3489E-03     105.946E-03    -53.2310E-03     5.60872E-03
             164    -188.768E-09     54.1416E-03    -64.9034E+06    -172.103E+06    -64.8384E+06     70.9954E+03    -53.3051E-03     106.573E-03    -53.2676E-03     5.60778E-03    -53.2865E-03     105.901E-03    -53.2481E-03     5.58851E-03
             165     114.939E-09     53.0875E-03    -64.7566E+06    -172.108E+06    -64.9765E+06    -132.869E+03    -53.2626E-03     106.584E-03    -53.3211E-03     5.49160E-03    -53.2430E-03     105.912E-03    -53.3025E-03     5.46934E-03
             166    -156.809E-09     52.0333E-03    -64.5936E+06    -171.856E+06    -64.6943E+06     242.813E+03    -53.3123E-03     106.623E-03    -53.3111E-03     5.60203E-03    -53.2927E-03     105.952E-03    -53.2917E-03     5.58502E-03
             167     185.576E-09     50.9784E-03    -65.0885E+06    -171.914E+06    -64.7730E+06     216.088E+03    -53.3431E-03     106.565E-03    -53.2217E-03     5.81992E-03    -53.3257E-03     105.894E-03    -53.2019E-03     5.80313E-03
             168    -19.0303E-09     49.9249E-03    -64.9994E+06    -171.760E+06    -65.0531E+06     231.369E+03    -53.3219E-03     106.495E-03    -53.1732E-03     5.78186E-03    -53.3039E-03     105.825E-03    -53.1551E-03     5.76525E-03
             169     90.6064E-09     48.8705E-03    -64.5025E+06    -171.280E+06    -64.6347E+06     215.014E+03    -53.2589E-03     106.472E-03    -53.2135E-03     5.65842E-03    -53.2397E-03     105.804E-03    -53.1948E-03     5.64125E-03
             170    -100.596E-09     47.8168E-03    -63.3305E+06    -170.401E+06    -63.4981E+06     482.335E+03    -53.2311E-03     106.439E-03    -53.2077E-03     5.53451E-03    -53.2091E-03     105.771E-03    -53.1863E-03     5.52042E-03
             171     134.932E-09     46.7625E-03    -65.9676E+06    -168.699E+06    -65.8946E+06     349.257E+03    -53.1360E-03     106.304E-03    -53.1681E-03     5.51686E-03    -53.1261E-03     105.652E-03    -53.1573E-03     5.50093E-03
             172    -236.959E-09     45.7089E-03    -65.0694E+06    -167.765E+06    -65.0475E+06    -245.281E+03    -53.1368E-03     106.281E-03    -53.1438E-03     5.58040E-03    -53.1250E-03     105.631E-03    -53.1314E-03     5.55641E-03
             173     313.359E-09     44.6545E-03    -64.6279E+06    -167.858E+06    -64.7486E+06    -66.5838E+03    -53.1415E-03     106.215E-03    -53.0739E-03     5.63049E-03    -53.1278E-03     105.564E-03    -53.0606E-03     5.60944E-03
             174    -290.000E-09     43.6011E-03    -64.9354E+06    -168.002E+06    -64.9061E+06     78.9913E+03    -53.0825E-03     106.104E-03    -53.0214E-03     5.50155E-03    -53.0699E-03     105.453E-03    -53.0081E-03     5.48247E-03
             175     357.743E-09     42.5477E-03    -64.9605E+06    -167.331E+06    -64.7733E+06    -155.404E+03    -53.0390E-03     106.017E-03    -52.9778E-03     5.36194E-03    -53.0276E-03     105.369E-03    -52.9649E-03     5.33903E-03
             176    -331.924E-09     41.4934E-03    -65.1325E+06    -167.376E+06    -65.3108E+06    -45.3922E+03    -52.8454E-03     105.699E-03    -52.8533E-03     5.52878E-03    -52.8341E-03     105.052E-03    -52.8427E-03     5.50836E-03
             177     276.947E-09     40.4407E-03    -65.0806E+06    -167.448E+06    -64.9619E+06     69.7876E+03    -52.7543E-03     105.423E-03    -52.6682E-03     5.52983E-03    -52.7431E-03     104.774E-03    -52.6559E-03     5.51131E-03
             178    -87.3836E-09     39.3879E-03    -65.4500E+06    -167.575E+06    -65.5080E+06     47.1833E+03    -52.6331E-03     105.185E-03    -52.5520E-03     5.40076E-03    -52.6227E-03     104.538E-03    -52.5417E-03     5.38184E-03
             179     22.4210E-09     38.3350E-03    -65.1954E+06    -167.201E+06    -65.2476E+06     153.128E+03    -52.4310E-03     104.876E-03    -52.4449E-03     5.31894E-03    -52.4204E-03     104.230E-03    -52.4342E-03     5.30137E-03
             180     5.60169E-09     37.2833E-03    -65.8266E+06    -167.341E+06    -65.6795E+06    -539.429E+03    -52.2542E-03     104.541E-03    -52.2872E-03     5.18355E-03    -52.2458E-03     103.896E-03    -52.2775E-03     5.15665E-03
             181    -100.470E-09     36.2309E-03    -63.7433E+06    -168.777E+06    -64.1316E+06    -349.410E+03    -52.0726E-03     104.171E-03    -52.0983E-03     5.25371E-03    -52.0539E-03     103.513E-03    -52.0818E-03     5.23014E-03
             182     134.761E-09     35.1797E-03    -63.5283E+06    -168.508E+06    -63.7179E+06     386.932E+03    -51.9188E-03     103.783E-03    -51.8641E-03     5.30282E-03    -51.9001E-03     103.125E-03    -51.8462E-03     5.28911E-03
             183    -90.2658E-09     34.1285E-03    -66.5017E+06    -167.402E+06    -66.5538E+06     329.173E+03    -51.5961E-03     103.242E-03    -51.6457E-03     5.21981E-03    -51.5897E-03     102.598E-03    -51.6393E-03     5.20545E-03
             184    -51.8003E-09     33.0782E-03    -66.6545E+06    -167.064E+06    -66.5532E+06    -115.421E+03    -51.3311E-03     102.606E-03    -51.2750E-03     5.14454E-03    -51.3260E-03     101.964E-03    -51.2689E-03     5.12499E-03
             185     279.181E-09     32.0283E-03    -64.3635E+06    -168.497E+06    -64.2150E+06    -167.088E+03    -51.0466E-03     101.993E-03    -50.9463E-03     5.25215E-03    -51.0314E-03     101.337E-03    -50.9297E-03     5.23222E-03
             186    -345.606E-09     30.9796E-03    -64.4047E+06    -168.676E+06    -64.5807E+06     31.3847E+03    -50.6790E-03     101.304E-03    -50.6254E-03     4.95597E-03    -50.6631E-03     100.649E-03    -50.6103E-03     4.93850E-03
             187     490.990E-09     29.9311E-03    -64.8033E+06    -168.603E+06    -64.6979E+06     114.451E+03    -50.2584E-03     100.439E-03    -50.1808E-03     4.87740E-03    -50.2444E-03     99.7844E-03    -50.1658E-03     4.86168E-03
             188    -512.944E-09     28.8841E-03    -64.9460E+06    -168.487E+06    -64.9446E+06    -255.155E+03    -49.7883E-03     99.5584E-03    -49.7701E-03     4.80272E-03    -49.7748E-03     98.9048E-03    -49.7564E-03     4.78238E-03
             189     555.687E-09     27.8377E-03    -64.7423E+06    -168.158E+06    -64.9038E+06     48.0666E+03    -49.3897E-03     98.6803E-03    -49.2905E-03     4.58134E-03    -49.3758E-03     98.0280E-03    -49.2773E-03     4.56493E-03
             190    -439.428E-09     26.7924E-03    -63.7828E+06    -166.762E+06    -63.7615E+06     519.250E+03    -48.9318E-03     97.7359E-03    -48.8041E-03     4.57220E-03    -48.9167E-03     97.0876E-03    -48.7886E-03     4.56252E-03
             191     533.078E-09     25.7477E-03    -66.3160E+06    -165.004E+06    -66.0096E+06     361.578E+03    -48.4680E-03     96.7084E-03    -48.2404E-03     4.51642E-03    -48.4649E-03     96.0758E-03    -48.2350E-03     4.50522E-03
             192    -241.826E-09     24.7047E-03    -65.4406E+06    -163.939E+06    -65.2768E+06     250.134E+03    -47.9170E-03     95.6372E-03    -47.7203E-03     4.19778E-03    -47.9121E-03     95.0076E-03    -47.7140E-03     4.18556E-03
             193     282.005E-09     23.6631E-03    -63.7525E+06    -162.231E+06    -63.8629E+06     192.676E+03    -47.3881E-03     94.7302E-03    -47.3421E-03     3.96310E-03    -47.3793E-03     94.1046E-03    -47.3337E-03     3.95010E-03
             194    -251.251E-09     22.6208E-03    -65.3227E+06    -159.958E+06    -65.5393E+06     638.041E+03    -46.9607E-03     93.9032E-03    -46.9425E-03     4.21527E-03    -46.9606E-03     93.2936E-03    -46.9436E-03     4.20904E-03
             195     241.536E-09     21.5806E-03    -64.6503E+06    -157.802E+06    -64.7892E+06     914.303E+03    -46.5603E-03     92.9160E-03    -46.3557E-03     4.00413E-03    -46.5610E-03     92.3151E-03    -46.3571E-03     4.00230E-03
             196     111.275E-09     20.5415E-03    -64.5504E+06    -155.996E+06    -64.2554E+06     564.292E+03    -46.1018E-03     92.0409E-03    -45.9391E-03     3.92621E-03    -46.1054E-03     91.4481E-03    -45.9406E-03     3.92004E-03
             197    -188.026E-09     19.5028E-03    -62.9130E+06    -153.561E+06    -63.2076E+06     610.798E+03    -45.6488E-03     91.2757E-03    -45.6269E-03     3.64226E-03    -45.6493E-03     90.6912E-03    -45.6290E-03     3.63725E-03
             198     293.511E-09     18.4648E-03    -62.8334E+06    -151.806E+06    -62.7926E+06     785.881E+03    -45.1896E-03     90.1986E-03    -45.0090E-03     3.45926E-03    -45.1928E-03     89.6221E-03    -45.0117E-03     3.45698E-03
             199    -92.9192E-09     17.4288E-03    -61.5525E+06    -149.500E+06    -61.5564E+06     632.716E+03    -44.4934E-03     88.8475E-03    -44.3541E-03     3.09392E-03    -44.4953E-03     88.2789E-03    -44.3559E-03     3.09042E-03
             200     128.017E-09     16.3938E-03    -60.0019E+06    -146.848E+06    -60.0490E+06     611.387E+03    -43.5451E-03     86.9637E-03    -43.4186E-03     2.50296E-03    -43.5453E-03     86.4037E-03    -43.4189E-03     2.50029E-03
             201     52.2867E-09     15.3612E-03    -57.9921E+06    -143.846E+06    -58.0231E+06     741.730E+03    -42.1140E-03     84.1178E-03    -42.0038E-03     2.15482E-03    -42.1115E-03     83.5670E-03    -42.0012E-03     2.15499E-03
             202    -43.6597E-09     14.3320E-03    -55.3843E+06    -140.554E+06    -55.5228E+06     823.155E+03    -40.1993E-03     80.3822E-03    -40.1829E-03     1.68302E-03    -40.1922E-03     79.8403E-03    -40.1764E-03     1.68601E-03
             203     62.3854E-09     13.3075E-03    -52.6699E+06    -137.548E+06    -52.8892E+06     701.851E+03    -37.9693E-03     75.8586E-03    -37.8894E-03     1.04142E-03    -37.9568E-03     75.3239E-03    -37.8780E-03     1.04429E-03
             204     57.2459E-09     12.2876E-03    -51.0194E+06    -135.112E+06    -50.9935E+06     775.332E+03    -35.4309E-03     70.7341E-03    -35.3032E-03     668.424E-06    -35.4164E-03     70.2064E-03    -35.2883E-03     673.109E-06
             205     47.9572E-09     11.2733E-03    -49.0236E+06    -132.834E+06    -48.9940E+06     548.730E+03    -32.9173E-03     65.7808E-03    -32.8635E-03     639.698E-06    -32.8990E-03     65.2587E-03    -32.8448E-03     641.864E-06
             206    -57.3328E-09     10.2635E-03    -47.8167E+06    -131.711E+06    -47.8722E+06     305.148E+03    -30.9069E-03     61.8984E-03    -30.9915E-03     816.846E-06    -30.8857E-03     61.3787E-03    -30.9705E-03     815.959E-06
             207    -80.7455E-09     9.25711E-03    -48.2971E+06    -131.151E+06    -47.8891E+06    -25.1466E+03    -30.0403E-03     60.0782E-03    -30.0379E-03     1.20757E-03    -30.0223E-03     59.5621E-03    -30.0172E-03     1.20256E-03
             208     227.230E-09     8.25115E-03    -48.9788E+06    -131.929E+06    -48.6007E+06    -449.528E+03    -30.4605E-03     60.9046E-03    -30.4441E-03     1.82736E-03    -30.4437E-03     60.3866E-03    -30.4248E-03     1.81714E-03
             209    -341.359E-09     7.24272E-03    -48.6932E+06    -133.537E+06    -48.6766E+06    -466.303E+03    -32.1123E-03     64.3829E-03    -32.2707E-03     2.49677E-03    -32.0918E-03     63.8564E-03    -32.2498E-03     2.48682E-03
             210     179.355E-09     6.22965E-03    -47.5237E+06    -135.340E+06    -47.4906E+06    -402.546E+03    -35.0665E-03     70.1875E-03    -35.1210E-03     2.85155E-03    -35.0395E-03     69.6483E-03    -35.0933E-03     2.84281E-03
             211    -111.020E-09     5.20979E-03    -45.8255E+06    -137.029E+06    -45.5995E+06    -373.217E+03    -38.7874E-03     77.5739E-03    -38.7865E-03     3.06524E-03    -38.7524E-03     77.0208E-03    -38.7493E-03     3.05710E-03
             212     49.4906E-09     4.18135E-03    -42.7893E+06    -137.755E+06    -42.8481E+06    -57.2466E+03    -42.7889E-03     85.5350E-03    -42.7461E-03     3.00516E-03    -42.7416E-03     84.9700E-03    -42.6986E-03     3.00145E-03
             213     86.9489E-09     3.14484E-03    -39.1387E+06    -137.417E+06    -39.2243E+06     234.558E+03    -46.4911E-03     92.9030E-03    -46.4119E-03     2.69074E-03    -46.4312E-03     92.3292E-03    -46.3520E-03     2.69138E-03
             214    -86.5095E-09     2.10153E-03    -36.2023E+06    -137.088E+06    -36.1189E+06     145.702E+03    -49.6365E-03     99.1505E-03    -49.5139E-03     2.07215E-03    -49.5666E-03     98.5697E-03    -49.4433E-03     2.07209E-03
             215     297.711E-09     1.05218E-03    -34.1503E+06    -136.932E+06    -34.1341E+06     4.69592E+03    -51.7084E-03     103.304E-03    -51.5954E-03     965.874E-06    -51.6311E-03     102.718E-03    -51.5180E-03     964.505E-06
             216     854.203E-06     41.6334E-18    -33.2039E+06    -136.864E+06    -33.2471E+06    -151.120E+03    -52.4215E-03     104.770E-03    -52.3490E-03     668.349E-06    -52.3407E-03     104.183E-03    -52.2687E-03     665.160E-06
             217     1.70757E-03     41.6334E-18    -33.1733E+06    -137.160E+06    -33.1737E+06     60.5800E+03    -52.7133E-03     105.165E-03    -52.4514E-03     1.65289E-03    -52.6322E-03     104.575E-03    -52.3703E-03     1.65181E-03
             218     2.56075E-03     41.6334E-18    -33.2779E+06    -137.429E+06    -33.5269E+06     36.8328E+03    -53.1166E-03     105.718E-03    -52.6014E-03     2.58677E-03    -53.0352E-03     105.128E-03    -52.5215E-03     2.58434E-03
             219     3.41416E-03     41.6334E-18    -33.3301E+06    -137.698E+06    -34.2862E+06    -109.786E+03    -53.6910E-03     106.486E-03    -52.7951E-03     3.38184E-03    -53.6084E-03     105.896E-03    -52.7185E-03     3.37614E-03
             220     4.26603E-03     41.6334E-18    -33.0149E+06    -138.147E+06    -35.9393E+06    -662.191E+03    -54.3514E-03     107.380E-03    -53.0288E-03     4.28777E-03    -54.2641E-03     106.790E-03    -52.9604E-03     4.27291E-03
             221     5.11825E-03     41.6334E-18    -32.0255E+06    -138.452E+06    -38.6643E+06    -1.55850E+06    -55.1125E-03     108.405E-03    -53.2929E-03     5.22501E-03    -55.0160E-03     107.816E-03    -53.2391E-03     5.19655E-03
             222     5.96906E-03     41.6334E-18    -29.9949E+06    -137.403E+06    -42.6455E+06    -2.70912E+06    -56.0158E-03     109.601E-03    -53.5847E-03     6.18276E-03    -55.9049E-03     109.019E-03    -53.5552E-03     6.13711E-03
             223     6.81941E-03     41.6334E-18    -26.5552E+06    -131.914E+06    -48.2970E+06    -4.53339E+06    -57.0382E-03     110.937E-03    -53.8990E-03     7.20043E-03    -56.9100E-03     110.387E-03    -53.9107E-03     7.12738E-03
             224     7.66885E-03     41.6334E-18    -22.0458E+06    -119.849E+06    -54.6491E+06    -5.44945E+06    -58.2214E-03     112.462E-03    -54.2404E-03     8.42157E-03    -58.0792E-03     111.974E-03    -54.3079E-03     8.33316E-03
             225     8.51652E-03     41.6334E-18    -16.2349E+06    -100.372E+06    -59.4818E+06    -6.55600E+06    -59.4655E-03     114.083E-03    -54.6177E-03     9.79643E-03    -59.3157E-03     113.692E-03    -54.7460E-03     9.68777E-03
             226     9.36409E-03     41.6334E-18    -10.2472E+06    -73.9314E+06    -61.3705E+06    -6.47377E+06    -60.6879E-03     115.720E-03    -55.0321E-03     11.2262E-03    -60.5440E-03     115.455E-03    -55.2169E-03     11.1123E-03
             227     10.2093E-03     41.6334E-18    -5.50174E+06    -40.2661E+06    -58.2095E+06    -5.12389E+06    -62.1141E-03     117.610E-03    -55.4963E-03     13.4855E-03    -62.0008E-03     117.503E-03    -55.7210E-03     13.3774E-03
             228     11.0537E-03     41.6334E-18    -2.88797E+06     5.21654E+06    -48.1989E+06    -2.85846E+06    -63.5955E-03     119.615E-03    -56.0190E-03     15.1799E-03    -63.5503E-03     119.717E-03    -56.2634E-03     15.0897E-03
             229     11.8974E-03     41.6334E-18    -4.28677E+06     47.1767E+06    -25.5138E+06     752.577E+03    -65.2891E-03     121.947E-03    -56.6580E-03     18.1513E-03    -65.3467E-03     122.231E-03    -56.8478E-03     18.0852E-03
             230     12.7363E-03     41.6334E-18    -6.44729E+06     72.1426E+06     9.16164E+06     2.06336E+06    -67.2492E-03     124.683E-03    -57.4337E-03     21.6060E-03    -67.4061E-03     125.046E-03    -57.4831E-03     21.5341E-03
             231     13.5771E-03     41.6334E-18    -5.65892E+06     87.4483E+06     45.9364E+06     362.897E+03    -69.8755E-03     128.175E-03    -58.2991E-03     27.2151E-03    -70.1104E-03     128.566E-03    -58.1880E-03     27.0759E-03
             232     14.4089E-03     41.6334E-18    -3.82312E+06     96.5020E+06     74.7682E+06     1.03143E+06    -73.6414E-03     132.883E-03    -59.2420E-03     35.5900E-03    -73.9317E-03     133.285E-03    -59.0026E-03     35.3962E-03
             233     15.2402E-03     41.6334E-18    -3.49610E+06     100.582E+06     84.5570E+06     4.14400E+06    -78.1402E-03     138.384E-03    -60.2440E-03     46.8145E-03    -78.4751E-03     138.816E-03    -59.9620E-03     46.5413E-03
             234     16.0622E-03     41.6334E-18     2.96787E+06     103.979E+06     86.6637E+06     2.41944E+06    -83.2384E-03     144.603E-03    -61.3650E-03     67.9280E-03    -83.6389E-03     145.124E-03    -61.0868E-03     67.3754E-03
             235     16.9549E-03     1.10447E-03    -1.34592E+06     102.886E+06     80.9370E+06     3.24722E+06    -81.9216E-03     141.824E-03    -59.9025E-03     85.6572E-03    -82.4672E-03     142.494E-03    -59.6450E-03     84.9041E-03
             236     17.0121E-03     2.20098E-03    -9.36513E+06     99.8713E+06     72.1724E+06     6.41105E+06    -85.1806E-03     141.544E-03    -56.3630E-03     73.1308E-03    -85.7602E-03     142.241E-03    -56.1334E-03     72.2906E-03
             237     17.0409E-03     3.30187E-03    -3.65847E+06     103.322E+06     74.5181E+06     4.35461E+06    -94.0179E-03     148.234E-03    -54.2157E-03     50.3919E-03    -94.5258E-03     148.880E-03    -53.9876E-03     49.3877E-03
             238     17.0549E-03     4.40708E-03    -577.073E+03     109.473E+06     79.4712E+06     2.25018E+06    -96.3817E-03     149.600E-03    -53.2183E-03     42.1614E-03    -96.8922E-03     150.268E-03    -52.9789E-03     41.0413E-03
             239     17.0614E-03     5.51223E-03    -1.30408E+06     113.481E+06     82.3448E+06     903.489E+03    -96.7219E-03     149.537E-03    -52.8154E-03     38.0807E-03    -97.2394E-03     150.215E-03    -52.5663E-03     36.9279E-03
             240     17.0613E-03     6.61456E-03    -2.78470E+06     113.364E+06     81.6652E+06     1.34847E+06    -93.5233E-03     146.276E-03    -52.7523E-03     34.8128E-03    -94.0312E-03     146.939E-03    -52.5044E-03     33.7384E-03
             241     17.0643E-03     7.70590E-03    -1.82695E+06     113.916E+06     81.5338E+06     1.57437E+06    -88.0644E-03     140.885E-03    -52.8207E-03     31.6747E-03    -88.5498E-03     141.532E-03    -52.5756E-03     30.7109E-03
             242     17.0626E-03     8.79605E-03    -868.045E+03     115.058E+06     81.8580E+06     636.160E+03    -82.9185E-03     135.866E-03    -52.9478E-03     28.5298E-03    -83.3875E-03     136.503E-03    -52.7041E-03     27.6491E-03
             243     17.0629E-03     9.87784E-03    -1.09359E+06     115.124E+06     81.2261E+06    -88.8003E+03    -77.9810E-03     131.042E-03    -53.0609E-03     27.4255E-03    -78.4461E-03     131.676E-03    -52.8201E-03     26.6155E-03
             244     17.0645E-03     10.9542E-03    -211.691E+03     116.196E+06     81.8280E+06    -1.29334E+06    -74.8103E-03     127.898E-03    -53.0874E-03     28.3630E-03    -75.2793E-03     128.541E-03    -52.8465E-03     27.5754E-03
             245     17.0646E-03     12.0374E-03    -593.261E+03     116.967E+06     82.0617E+06    -887.189E+03    -72.5768E-03     125.682E-03    -53.1050E-03     30.9820E-03    -73.0634E-03     126.344E-03    -52.8635E-03     30.2223E-03
             246     17.0654E-03     13.1100E-03    -2.89969E+06     116.619E+06     80.9567E+06     325.626E+03    -70.2407E-03     123.387E-03    -53.1465E-03     33.4308E-03    -70.7505E-03     124.066E-03    -52.9066E-03     32.7176E-03
             247     17.0647E-03     14.1837E-03    -4.31357E+06     115.770E+06     79.5210E+06     1.29867E+06    -68.5897E-03     121.737E-03    -53.1469E-03     35.4714E-03    -69.1136E-03     122.426E-03    -52.9109E-03     34.7933E-03
             248     17.0678E-03     15.2546E-03    -1.90848E+06     117.783E+06     81.3793E+06     605.159E+03    -66.5712E-03     119.686E-03    -53.1151E-03     37.8443E-03    -67.1022E-03     120.393E-03    -52.8762E-03     37.1750E-03
             249     17.0680E-03     16.3245E-03    -402.556E+03     119.779E+06     83.3062E+06     151.281E+03    -65.3829E-03     118.466E-03    -53.0831E-03     39.8004E-03    -65.9272E-03     119.193E-03    -52.8397E-03     39.1346E-03
             250     17.0690E-03     17.3922E-03    -1.62809E+06     119.560E+06     82.8427E+06    -65.1088E+03    -64.9893E-03     118.045E-03    -53.0559E-03     40.5429E-03    -65.5488E-03     118.783E-03    -52.8127E-03     39.8762E-03
             251     17.0694E-03     18.4593E-03    -2.95443E+06     119.332E+06     82.2310E+06     152.197E+03    -64.9696E-03     118.012E-03    -53.0422E-03     41.2592E-03    -65.5432E-03     118.760E-03    -52.7997E-03     40.5980E-03
             252     17.0685E-03     19.5291E-03    -3.75894E+06     119.003E+06     81.3883E+06     1.40745E+06    -63.9961E-03     117.035E-03    -53.0388E-03     42.7804E-03    -64.5807E-03     117.793E-03    -52.7990E-03     42.1496E-03
             253     17.0715E-03     20.5929E-03    -1.49737E+06     121.036E+06     83.2808E+06    -222.388E+03    -62.1754E-03     115.208E-03    -53.0321E-03     43.7234E-03    -62.7633E-03     115.978E-03    -52.7891E-03     43.0913E-03
             254     17.0701E-03     21.6576E-03    -349.774E+03     122.658E+06     85.0015E+06    -805.589E+03    -61.7498E-03     114.769E-03    -53.0194E-03     44.8877E-03    -62.3465E-03     115.554E-03    -52.7717E-03     44.2557E-03
             255     17.0718E-03     22.7234E-03    -1.75502E+06     121.957E+06     84.2562E+06     230.861E+03    -61.1962E-03     114.236E-03    -53.0398E-03     45.8793E-03    -61.8044E-03     115.027E-03    -52.7928E-03     45.2764E-03
             256     17.0694E-03     23.7857E-03    -3.81201E+06     120.480E+06     82.4246E+06     1.01398E+06    -59.9538E-03     113.042E-03    -53.0878E-03     45.9501E-03    -60.5700E-03     113.833E-03    -52.8449E-03     45.3835E-03
             257     17.0712E-03     24.8455E-03    -3.34641E+06     120.343E+06     82.0857E+06     1.20850E+06    -59.0327E-03     112.121E-03    -53.0883E-03     46.9066E-03    -59.6493E-03     112.915E-03    -52.8475E-03     46.3570E-03
             258     17.0714E-03     25.9080E-03    -550.575E+03     122.931E+06     84.7925E+06    -653.943E+03    -57.7303E-03     110.810E-03    -53.0798E-03     46.2844E-03    -58.3409E-03     111.609E-03    -52.8333E-03     45.7285E-03
             259     17.0723E-03     26.9653E-03    -2.60934E+06     122.426E+06     84.0605E+06    -854.045E+03    -57.8735E-03     110.968E-03    -53.0943E-03     46.3894E-03    -58.4992E-03     111.775E-03    -52.8478E-03     45.8376E-03
             260     17.0691E-03     28.0272E-03    -3.31642E+06     121.837E+06     83.1797E+06     1.21661E+06    -57.5742E-03     110.685E-03    -53.1111E-03     47.1294E-03    -58.2025E-03     111.493E-03    -52.8670E-03     46.6142E-03
             261     17.0739E-03     29.0865E-03    -1.00815E+06     123.752E+06     85.0902E+06     -57.647E+03    -55.2185E-03     108.358E-03    -53.1399E-03     47.8774E-03    -55.8442E-03     109.173E-03    -52.8924E-03     47.3771E-03
             262     17.0699E-03     30.1401E-03    -2.71381E+06     122.841E+06     84.1488E+06    -393.425E+03    -55.5367E-03     108.687E-03    -53.1504E-03     47.5563E-03    -56.1704E-03     109.503E-03    -52.9038E-03     47.0565E-03
             263     17.0717E-03     31.2007E-03    -3.19071E+06     122.169E+06     83.4065E+06     1.02420E+06    -55.3553E-03     108.509E-03    -53.1539E-03     47.1327E-03    -55.9850E-03     109.319E-03    -52.9094E-03     46.6572E-03
             264     17.0720E-03     32.2548E-03    -1.53239E+06     123.240E+06     84.5965E+06    -559.591E+03    -54.4178E-03     107.563E-03    -53.1447E-03     48.5044E-03    -55.0498E-03     108.381E-03    -52.8982E-03     48.0151E-03
             265     17.0721E-03     33.3135E-03    -720.789E+03     124.509E+06     85.9955E+06    -968.342E+03    -54.5396E-03     107.677E-03    -53.1370E-03     48.1253E-03    -55.1714E-03     108.498E-03    -52.8866E-03     47.6338E-03
             266     17.0722E-03     34.3679E-03     -2.5282E+06     123.483E+06     84.7996E+06    -328.049E+03    -54.5283E-03     107.685E-03    -53.1564E-03     48.3033E-03    -55.1679E-03     108.508E-03    -52.9078E-03     47.8262E-03
             267     17.0705E-03     35.4265E-03    -3.79377E+06     122.285E+06     83.3755E+06     1.41127E+06    -53.9267E-03     107.122E-03    -53.1952E-03     48.1908E-03    -54.5671E-03     107.941E-03    -52.9501E-03     47.7509E-03
             268     17.0720E-03     36.4794E-03    -1.99361E+06     123.159E+06     84.3038E+06     821.568E+03    -52.4890E-03     105.697E-03    -53.2081E-03     48.4781E-03    -53.1217E-03     106.515E-03    -52.9623E-03     48.0491E-03
             269     17.0723E-03     37.5320E-03    -1.70194E+06     123.621E+06     84.9332E+06    -1.23044E+06    -53.2088E-03     106.384E-03    -53.1752E-03     48.1094E-03    -53.8424E-03     107.204E-03    -52.9274E-03     47.6422E-03
             270     17.0712E-03     38.5911E-03    -2.97428E+06     123.128E+06     84.3217E+06     24.3383E+03    -53.9475E-03     107.130E-03    -53.1829E-03     47.3655E-03    -54.5848E-03     107.950E-03    -52.9355E-03     46.9097E-03
             271     17.0713E-03     39.6435E-03    -3.68686E+06     122.159E+06     83.1525E+06     993.856E+03    -53.4823E-03     106.690E-03    -53.2075E-03     48.0781E-03    -54.1218E-03     107.509E-03    -52.9636E-03     47.6422E-03
             272     17.0712E-03     40.7008E-03    -1.70046E+06     123.994E+06     84.9482E+06     466.225E+03    -52.4999E-03     105.712E-03    -53.2118E-03     48.6382E-03    -53.1358E-03     106.535E-03    -52.9644E-03     48.2052E-03
             273     17.0729E-03     41.7538E-03    -1.69618E+06     124.368E+06     85.2152E+06    -282.472E+03    -52.4782E-03     105.687E-03    -53.2083E-03     49.3905E-03    -53.1196E-03     106.516E-03    -52.9601E-03     48.9510E-03
             274     17.0699E-03     42.8084E-03    -3.27937E+06     122.799E+06     83.5883E+06     13.8164E+03    -52.9351E-03     106.143E-03    -53.2075E-03     48.1460E-03    -53.5748E-03     106.964E-03    -52.9628E-03     47.7071E-03
             275     17.0732E-03     43.8622E-03    -1.97386E+06     123.793E+06     84.7907E+06    -254.573E+03    -52.2713E-03     105.486E-03    -53.2151E-03     47.8657E-03    -52.9066E-03     106.308E-03    -52.9678E-03     47.4313E-03
             276     17.0704E-03     44.9158E-03    -1.47569E+06     124.355E+06     85.3331E+06     125.564E+03    -52.3552E-03     105.573E-03    -53.2182E-03     48.2521E-03    -52.9911E-03     106.398E-03    -52.9697E-03     47.8239E-03
             277     17.0724E-03     45.9722E-03    -745.628E+03     124.652E+06     85.4573E+06     221.887E+03    -51.5511E-03     104.768E-03    -53.2174E-03     48.7185E-03    -52.1839E-03     105.594E-03    -52.9698E-03     48.2982E-03
             278     17.0726E-03     47.0205E-03    -635.936E+03     124.768E+06     85.7460E+06    -1.49662E+06    -52.0813E-03     105.264E-03    -53.1824E-03     48.4472E-03    -52.7140E-03     106.089E-03    -52.9337E-03     47.9956E-03
             279     17.0717E-03     48.0790E-03    -2.87075E+06     123.080E+06     84.2730E+06    -364.858E+03    -53.8850E-03     107.062E-03    -53.1775E-03     47.1324E-03    -54.5206E-03     107.880E-03    -52.9304E-03     46.6765E-03
             280     17.0704E-03     49.1345E-03    -4.07125E+06     121.444E+06     82.6552E+06     1.29648E+06    -53.0490E-03     106.268E-03    -53.2189E-03     47.8588E-03    -53.6870E-03     107.083E-03    -52.9758E-03     47.4360E-03
             281     17.0724E-03     50.1864E-03    -3.28480E+06     122.006E+06     83.2421E+06     443.153E+03    -52.5506E-03     105.773E-03    -53.2227E-03     48.2032E-03    -53.1867E-03     106.590E-03    -52.9787E-03     47.7754E-03
             282     17.0704E-03     51.2436E-03    -2.18579E+06     123.106E+06     84.3893E+06     294.720E+03    -52.4677E-03     105.683E-03    -53.2157E-03     48.3920E-03    -53.1024E-03     106.503E-03    -52.9691E-03     47.9625E-03
             283     17.0732E-03     52.2959E-03    -658.342E+03     124.465E+06     85.9061E+06    -864.118E+03    -51.3818E-03     104.595E-03    -53.2134E-03     48.1061E-03    -52.0114E-03     105.415E-03    -52.9634E-03     47.6753E-03
             284     17.0718E-03     53.3467E-03    -1.57229E+06     123.963E+06     85.6286E+06    -1.22763E+06    -52.7345E-03     105.934E-03    -53.1994E-03     47.3453E-03    -53.3673E-03     106.753E-03    -52.9488E-03     46.8957E-03
             285     17.0704E-03     54.4069E-03    -2.55745E+06     122.841E+06     84.5525E+06     1.13047E+06    -52.7993E-03     106.010E-03    -53.2103E-03     47.8852E-03    -53.4338E-03     106.826E-03    -52.9619E-03     47.4641E-03
             286     17.0737E-03     55.4563E-03    -1.04459E+06     124.026E+06     85.7352E+06    -460.693E+03    -51.4663E-03     104.675E-03    -53.2090E-03     48.6636E-03    -52.0994E-03     105.496E-03    -52.9586E-03     48.2358E-03
             287     17.0710E-03     56.5112E-03    -1.94458E+06     123.413E+06     85.3469E+06    -1.14399E+06    -52.8328E-03     106.026E-03    -53.1935E-03     47.6793E-03    -53.4682E-03     106.845E-03    -52.9429E-03     47.2274E-03
             288     17.0717E-03     57.5674E-03    -3.23798E+06     122.089E+06     84.1081E+06     860.252E+03    -52.9186E-03     106.134E-03    -53.2150E-03     48.0133E-03    -53.5559E-03     106.949E-03    -52.9668E-03     47.5877E-03
             289     17.0713E-03     58.6202E-03    -2.54334E+06     122.428E+06     84.2044E+06     835.332E+03    -52.0821E-03     105.304E-03    -53.2222E-03     48.4128E-03    -52.7157E-03     106.119E-03    -52.9750E-03     47.9967E-03
             290     17.0723E-03     59.6738E-03    -1.43148E+06     123.650E+06     85.2984E+06    -269.503E+03    -52.1881E-03     105.391E-03    -53.2030E-03     47.8796E-03    -52.8176E-03     106.207E-03    -52.9538E-03     47.4454E-03
             291     17.0719E-03     60.7280E-03    -1.83368E+06     123.661E+06     85.2332E+06    -316.938E+03    -52.5838E-03     105.783E-03    -53.1991E-03     48.0213E-03    -53.2169E-03     106.601E-03    -52.9496E-03     47.5834E-03
             292     853.278E-06     61.5269E-03    -64.1432E+06    -172.300E+06    -62.8781E+06     127.177E+03    -53.3600E-03     106.642E-03    -53.2817E-03     9.29950E-03    -53.3412E-03     105.966E-03    -53.2533E-03     9.26675E-03
             293     1.70657E-03     61.5401E-03    -62.2716E+06    -168.779E+06    -57.2631E+06     175.987E+03    -53.3667E-03     106.696E-03    -53.3293E-03     17.0751E-03    -53.3550E-03     106.030E-03    -53.2806E-03     17.0127E-03
             294     2.55997E-03     61.5612E-03    -59.4775E+06    -163.240E+06    -49.5462E+06     145.188E+03    -53.4154E-03     106.763E-03    -53.3471E-03     25.1070E-03    -53.4148E-03     106.115E-03    -53.2719E-03     25.0096E-03
             295     3.41323E-03     61.5903E-03    -55.9230E+06    -156.511E+06    -40.7431E+06     301.832E+03    -53.5130E-03     106.878E-03    -53.3652E-03     32.9947E-03    -53.5258E-03     106.255E-03    -53.2609E-03     32.8605E-03
             296     4.26671E-03     61.6272E-03    -51.9464E+06    -148.825E+06    -31.4811E+06     448.512E+03    -53.6401E-03     107.025E-03    -53.3853E-03     40.6829E-03    -53.6700E-03     106.434E-03    -53.2515E-03     40.5065E-03
             297     5.11992E-03     61.6718E-03    -47.9052E+06    -140.665E+06    -23.1034E+06     370.492E+03    -53.7867E-03     107.188E-03    -53.4011E-03     48.0773E-03    -53.8375E-03     106.636E-03    -53.2432E-03     47.8498E-03
             298     5.97338E-03     61.7235E-03    -43.8424E+06    -132.267E+06    -15.6557E+06     355.243E+03    -53.9233E-03     107.334E-03    -53.4109E-03     55.1272E-03    -53.9995E-03     106.831E-03    -53.2338E-03     54.8425E-03
             299     6.82690E-03     61.7820E-03    -39.8491E+06    -123.370E+06    -9.00852E+06     324.341E+03    -54.0658E-03     107.479E-03    -53.4134E-03     61.8231E-03    -54.1742E-03     107.034E-03    -53.2218E-03     61.4736E-03
             300     7.68017E-03     61.8472E-03    -36.2082E+06    -113.413E+06    -4.38700E+06     328.110E+03    -54.2245E-03     107.628E-03    -53.4038E-03     68.1350E-03    -54.3744E-03     107.260E-03    -53.2088E-03     67.7124E-03
             301     8.53389E-03     61.9183E-03    -32.8762E+06    -99.6089E+06    -2.14244E+06     406.010E+03    -54.3835E-03     107.761E-03    -53.3777E-03     74.0688E-03    -54.5896E-03     107.503E-03    -53.1963E-03     73.5647E-03
             302     9.38708E-03     61.9952E-03    -30.0194E+06    -83.6702E+06    -123.543E+03     407.982E+03    -54.5089E-03     107.857E-03    -53.3485E-03     79.5404E-03    -54.7904E-03     107.736E-03    -53.1842E-03     78.9448E-03
             303     10.2407E-03     62.0771E-03    -27.7079E+06    -65.1235E+06     1.20537E+06     438.510E+03    -54.5379E-03     107.848E-03    -53.3100E-03     84.4024E-03    -54.9172E-03     107.894E-03    -53.1694E-03     83.7076E-03
             304     11.0945E-03     62.1634E-03    -25.8626E+06    -38.7349E+06     3.03090E+06     569.634E+03    -54.5371E-03     107.796E-03    -53.2587E-03     89.2585E-03    -55.0553E-03     108.076E-03    -53.1499E-03     88.4548E-03
             305     11.9479E-03     62.2549E-03    -24.4521E+06    -4.11732E+06     5.96835E+06     267.861E+03    -54.5759E-03     107.774E-03    -53.1981E-03     95.7079E-03    -55.2964E-03     108.376E-03    -53.1269E-03     94.7758E-03
             306     12.8020E-03     62.3537E-03    -22.5518E+06     50.9356E+06     8.98627E+06     368.055E+03    -54.6403E-03     107.743E-03    -53.1031E-03     105.024E-03    -55.6671E-03     108.845E-03    -53.0994E-03     103.961E-03
             307     13.6556E-03     62.4641E-03    -19.1417E+06     99.1099E+06     31.9999E+06     560.069E+03    -54.7322E-03     107.844E-03    -53.1118E-03     113.859E-03    -56.0995E-03     109.402E-03    -53.0678E-03     112.724E-03
             308     14.5096E-03     62.5805E-03    -14.4646E+06     116.472E+06     65.0385E+06    -43.8171E+03    -54.3996E-03     107.614E-03    -53.2145E-03     110.426E-03    -55.9056E-03     109.294E-03    -53.0372E-03     109.353E-03
             309     15.3639E-03     62.6839E-03    -10.1828E+06     125.675E+06     83.4800E+06    -176.069E+03    -53.8586E-03     107.116E-03    -53.2569E-03     104.271E-03    -55.4133E-03     108.838E-03    -53.0070E-03     103.345E-03
             310     16.2167E-03     62.7896E-03    -4.90820E+06     126.583E+06     87.7165E+06    -326.213E+03    -52.9109E-03     106.144E-03    -53.2331E-03     76.4558E-03    -54.0356E-03     107.446E-03    -52.9709E-03     75.8104E-03
             311     853.336E-06     62.5813E-03    -64.1402E+06    -172.562E+06    -62.8740E+06     26.5209E+03    -53.3471E-03     106.652E-03    -53.3047E-03     9.30898E-03    -53.3279E-03     105.975E-03    -53.2759E-03     9.27495E-03
             312     1.70660E-03     62.5942E-03    -62.1926E+06    -169.118E+06    -57.5282E+06     152.766E+03    -53.3615E-03     106.692E-03    -53.3309E-03     17.0655E-03    -53.3486E-03     106.025E-03    -53.2831E-03     17.0028E-03
             313     2.55990E-03     62.6154E-03    -59.4882E+06    -163.445E+06    -49.8509E+06     320.092E+03    -53.4197E-03     106.766E-03    -53.3467E-03     25.1019E-03    -53.4184E-03     106.118E-03    -53.2727E-03     25.0068E-03
             314     3.41333E-03     62.6445E-03    -56.1121E+06    -156.780E+06    -40.8298E+06     277.509E+03    -53.5251E-03     106.893E-03    -53.3679E-03     33.0036E-03    -53.5383E-03     106.269E-03    -53.2634E-03     32.8691E-03
             315     4.26655E-03     62.6815E-03    -52.0929E+06    -149.234E+06    -31.7264E+06     331.274E+03    -53.6499E-03     107.039E-03    -53.3890E-03     40.7005E-03    -53.6797E-03     106.446E-03    -53.2557E-03     40.5227E-03
             316     5.12005E-03     62.7261E-03    -47.9238E+06    -140.563E+06    -23.3478E+06     425.288E+03    -53.7709E-03     107.174E-03    -53.4029E-03     48.1045E-03    -53.8215E-03     106.623E-03    -53.2463E-03     47.8780E-03
             317     5.97340E-03     62.7778E-03    -43.7947E+06    -132.285E+06    -15.6594E+06     261.472E+03    -53.9213E-03     107.333E-03    -53.4119E-03     55.1471E-03    -53.9971E-03     106.829E-03    -53.2349E-03     54.8613E-03
             318     6.82672E-03     62.8364E-03    -39.8030E+06    -123.609E+06    -8.98662E+06     336.036E+03    -54.0748E-03     107.490E-03    -53.4150E-03     61.8360E-03    -54.1827E-03     107.044E-03    -53.2230E-03     61.4866E-03
             319     7.68034E-03     62.9015E-03    -36.0810E+06    -113.454E+06    -4.20826E+06     390.537E+03    -54.2156E-03     107.621E-03    -53.4056E-03     68.1617E-03    -54.3649E-03     107.252E-03    -53.2098E-03     67.7401E-03
             320     8.53360E-03     62.9726E-03    -32.8159E+06    -99.9086E+06    -2.15269E+06     392.539E+03    -54.3467E-03     107.723E-03    -53.3765E-03     74.1161E-03    -54.5521E-03     107.464E-03    -53.1948E-03     73.6124E-03
             321     9.38739E-03     63.0495E-03    -30.0164E+06    -83.7231E+06    -20.4098E+03     542.092E+03    -54.4393E-03     107.782E-03    -53.3428E-03     79.5546E-03    -54.7205E-03     107.660E-03    -53.1779E-03     78.9620E-03
             322     10.2409E-03     63.1313E-03    -27.3907E+06    -65.3830E+06     1.41831E+06     609.694E+03    -54.5167E-03     107.818E-03    -53.3013E-03     84.3574E-03    -54.8943E-03     107.862E-03    -53.1597E-03     83.6649E-03
             323     11.0943E-03     63.2176E-03    -24.9668E+06    -39.1259E+06     3.24696E+06     958.528E+03    -54.5304E-03     107.779E-03    -53.2490E-03     89.1627E-03    -55.0436E-03     108.056E-03    -53.1398E-03     88.3641E-03
             324     11.9484E-03     63.3089E-03    -22.5569E+06    -3.34339E+06     7.09280E+06     817.245E+03    -54.5776E-03     107.768E-03    -53.1902E-03     95.6338E-03    -55.2911E-03     108.369E-03    -53.1172E-03     94.7090E-03
             325     12.8018E-03     63.4081E-03    -20.1650E+06     50.5206E+06     11.4724E+06     276.384E+03    -54.6977E-03     107.803E-03    -53.1054E-03     104.940E-03    -55.7159E-03     108.896E-03    -53.0920E-03     103.874E-03
             326     13.6560E-03     63.5179E-03    -17.5289E+06     98.9291E+06     34.8329E+06     241.197E+03    -54.7579E-03     107.877E-03    -53.1196E-03     113.795E-03    -56.1209E-03     109.428E-03    -53.0634E-03     112.655E-03
             327     14.5100E-03     63.6351E-03    -14.2045E+06     116.909E+06     65.2768E+06     458.229E+03    -54.3828E-03     107.593E-03    -53.2106E-03     110.582E-03    -55.8891E-03     109.275E-03    -53.0332E-03     109.516E-03
             328     15.3628E-03     63.7386E-03    -9.30470E+06     125.980E+06     83.7174E+06    -26.5866E+03    -53.7824E-03     107.032E-03    -53.2499E-03     104.092E-03    -55.3316E-03     108.753E-03    -53.0005E-03     103.167E-03
             329     16.2197E-03     63.8415E-03    -4.53570E+06     126.914E+06     88.4706E+06    -450.125E+03    -53.1907E-03     106.426E-03    -53.2355E-03     75.9159E-03    -54.3121E-03     107.726E-03    -52.9706E-03     75.2655E-03
             330     853.215E-06     63.6354E-03    -64.0059E+06    -172.665E+06    -62.7803E+06     7.87111E+03    -53.3320E-03     106.658E-03    -53.3264E-03     9.29132E-03    -53.3121E-03     105.980E-03    -53.2971E-03     9.25679E-03
             331     1.70663E-03     63.6486E-03    -62.2810E+06    -169.420E+06    -57.6803E+06     111.203E+03    -53.3633E-03     106.696E-03    -53.3331E-03     17.0666E-03    -53.3501E-03     106.028E-03    -53.2856E-03     17.0034E-03
             332     2.55993E-03     63.6696E-03    -59.4392E+06    -163.807E+06    -50.0633E+06     293.920E+03    -53.4419E-03     106.793E-03    -53.3510E-03     25.0945E-03    -53.4395E-03     106.143E-03    -53.2776E-03     24.9990E-03
             333     3.41321E-03     63.6988E-03    -56.0123E+06    -156.812E+06    -40.9278E+06     400.334E+03    -53.5260E-03     106.900E-03    -53.3741E-03     33.0130E-03    -53.5386E-03     106.276E-03    -53.2702E-03     32.8801E-03
             334     4.26664E-03     63.7358E-03    -52.2365E+06    -149.426E+06    -31.8859E+06     262.469E+03    -53.6299E-03     107.022E-03    -53.3923E-03     40.7085E-03    -53.6598E-03     106.429E-03    -53.2593E-03     40.5299E-03
             335     5.11993E-03     63.7803E-03    -48.0925E+06    -140.785E+06    -23.8256E+06     266.676E+03    -53.7581E-03     107.159E-03    -53.4012E-03     48.1134E-03    -53.8085E-03     106.608E-03    -53.2464E-03     47.8849E-03
             336     5.97339E-03     63.8321E-03     -44.022E+06    -132.176E+06    -15.8282E+06     258.983E+03    -53.9089E-03     107.318E-03    -53.4095E-03     55.1828E-03    -53.9858E-03     106.816E-03    -53.2332E-03     54.8972E-03
             337     6.82689E-03     63.8907E-03    -40.0277E+06    -123.954E+06    -8.98233E+06     210.638E+03    -54.0690E-03     107.482E-03    -53.4132E-03     61.8634E-03    -54.1775E-03     107.035E-03    -53.2203E-03     61.5123E-03
             338     7.68020E-03     63.9557E-03    -36.2153E+06    -113.572E+06    -4.19621E+06     400.628E+03    -54.2113E-03     107.614E-03    -53.4030E-03     68.1759E-03    -54.3613E-03     107.245E-03    -53.2068E-03     67.7542E-03
             339     8.53391E-03     64.0269E-03    -32.9006E+06    -100.031E+06    -1.91274E+06     438.439E+03    -54.3314E-03     107.706E-03    -53.3745E-03     74.0837E-03    -54.5374E-03     107.446E-03    -53.1913E-03     73.5806E-03
             340     9.38727E-03     64.1036E-03    -29.8249E+06    -84.0457E+06     121.426E+03     430.242E+03    -54.4351E-03     107.775E-03    -53.3398E-03     79.4455E-03    -54.7149E-03     107.650E-03    -53.1741E-03     78.8512E-03
             341     10.2409E-03     64.1856E-03    -27.1168E+06    -65.5150E+06     1.66091E+06     541.735E+03    -54.5261E-03     107.825E-03    -53.2993E-03     84.2275E-03    -54.9024E-03     107.868E-03    -53.1567E-03     83.5338E-03
             342     11.0947E-03     64.2718E-03    -24.5285E+06    -39.5997E+06     3.44661E+06     535.305E+03    -54.5678E-03     107.817E-03    -53.2496E-03     88.9283E-03    -55.0785E-03     108.090E-03    -53.1394E-03     88.1226E-03
             343     11.9480E-03     64.3630E-03    -21.9973E+06    -3.12952E+06     7.57200E+06     519.825E+03    -54.5866E-03     107.780E-03    -53.1935E-03     95.3908E-03    -55.2976E-03     108.380E-03    -53.1192E-03     94.4615E-03
             344     12.8022E-03     64.4624E-03    -20.2317E+06     50.9784E+06     12.0981E+06     796.572E+03    -54.7298E-03     107.842E-03    -53.1120E-03     104.713E-03    -55.7500E-03     108.936E-03    -53.0960E-03     103.651E-03
             345     13.6556E-03     64.5721E-03    -18.3341E+06     98.5492E+06     34.2507E+06     711.071E+03    -54.8359E-03     107.963E-03    -53.1266E-03     113.518E-03    -56.2017E-03     109.514E-03    -53.0717E-03     112.380E-03
             346     14.5093E-03     64.6893E-03    -14.0024E+06     117.066E+06     65.0617E+06     121.678E+03    -54.2192E-03     107.435E-03    -53.2160E-03     110.006E-03    -55.7212E-03     109.114E-03    -53.0401E-03     108.936E-03
             347     15.3652E-03     64.7922E-03    -8.25174E+06     126.893E+06     84.6634E+06    -538.251E+03    -53.8953E-03     107.153E-03    -53.2581E-03     103.719E-03    -55.4438E-03     108.878E-03    -53.0068E-03     102.781E-03
             348     16.2155E-03     64.8970E-03    -4.78506E+06     126.842E+06     88.2870E+06     136.847E+03    -53.4695E-03     106.721E-03    -53.2517E-03     76.2326E-03    -54.5963E-03     108.025E-03    -52.9872E-03     75.5829E-03
             349     853.354E-06     64.6898E-03    -64.1252E+06    -172.894E+06    -62.7988E+06     64.2031E+03    -53.3633E-03     106.661E-03    -53.2976E-03     9.30510E-03    -53.3437E-03     105.982E-03    -53.2679E-03     9.27144E-03
             350     1.70656E-03     64.7027E-03    -62.2441E+06    -169.481E+06    -57.3873E+06     87.5506E+03    -53.3889E-03     106.730E-03    -53.3407E-03     17.0633E-03    -53.3759E-03     106.060E-03    -53.2917E-03     16.9997E-03
             351     2.55989E-03     64.7240E-03    -59.4303E+06    -164.283E+06    -49.8312E+06     162.013E+03    -53.4356E-03     106.797E-03    -53.3613E-03     25.1043E-03    -53.4327E-03     106.144E-03    -53.2861E-03     25.0071E-03
             352     3.41322E-03     64.7531E-03    -55.8906E+06    -157.107E+06    -41.2673E+06     382.210E+03    -53.5126E-03     106.889E-03    -53.3762E-03     33.0427E-03    -53.5237E-03     106.263E-03    -53.2737E-03     32.9096E-03
             353     4.26656E-03     64.7901E-03    -51.9964E+06    -149.255E+06    -31.9669E+06     352.145E+03    -53.6209E-03     107.012E-03    -53.3914E-03     40.7353E-03    -53.6497E-03     106.419E-03    -53.2594E-03     40.5579E-03
             354     5.12004E-03     64.8346E-03    -48.0429E+06    -141.080E+06    -23.4159E+06     239.444E+03    -53.7580E-03     107.161E-03    -53.4027E-03     48.1183E-03    -53.8084E-03     106.608E-03    -53.2455E-03     47.8894E-03
             355     5.97342E-03     64.8864E-03    -43.9469E+06    -132.320E+06    -15.6824E+06     267.154E+03    -53.8999E-03     107.309E-03    -53.4089E-03     55.1631E-03    -53.9763E-03     106.805E-03    -53.2318E-03     54.8777E-03
             356     6.82682E-03     64.9450E-03    -40.0251E+06    -123.881E+06    -8.75260E+06     235.540E+03    -54.0620E-03     107.474E-03    -53.4121E-03     61.8291E-03    -54.1709E-03     107.027E-03    -53.2182E-03     61.4783E-03
             357     7.68039E-03     65.0100E-03    -36.3475E+06    -113.972E+06    -4.13501E+06     300.244E+03    -54.2249E-03     107.628E-03    -53.4028E-03     68.0937E-03    -54.3751E-03     107.256E-03    -53.2055E-03     67.6701E-03
             358     8.53370E-03     65.0811E-03    -32.8846E+06    -100.031E+06    -1.82243E+06     391.099E+03    -54.3636E-03     107.740E-03    -53.3764E-03     73.9696E-03    -54.5697E-03     107.480E-03    -53.1928E-03     73.4652E-03
             359     9.38737E-03     65.1580E-03    -29.9633E+06    -84.2127E+06     154.166E+03     346.008E+03    -54.4810E-03     107.827E-03    -53.3458E-03     79.3275E-03    -54.7616E-03     107.702E-03    -53.1794E-03     78.7309E-03
             360     10.2409E-03     65.2397E-03    -27.3747E+06    -65.7091E+06     1.53928E+06     347.531E+03    -54.5813E-03     107.890E-03    -53.3090E-03     84.1088E-03    -54.9586E-03     107.933E-03    -53.1663E-03     83.4111E-03
             361     11.0942E-03     65.3262E-03    -25.0925E+06    -39.6506E+06     3.34115E+06     258.211E+03    -54.6086E-03     107.872E-03    -53.2633E-03     88.7362E-03    -55.1220E-03     108.146E-03    -53.1527E-03     87.9256E-03
             362     11.9481E-03     65.4173E-03    -23.4312E+06    -3.94862E+06     6.86078E+06     783.665E+03    -54.6565E-03     107.867E-03    -53.2105E-03     95.1889E-03    -55.3725E-03     108.466E-03    -53.1365E-03     94.2609E-03
             363     12.8015E-03     65.5164E-03    -21.6760E+06     50.8888E+06     10.1264E+06     1.22250E+06    -54.7859E-03     107.912E-03    -53.1256E-03     104.565E-03    -55.8112E-03     109.011E-03    -53.1174E-03     103.507E-03
             364     13.6555E-03     65.6268E-03    -18.4240E+06     99.4932E+06     33.0974E+06     228.102E+03    -54.7898E-03     107.931E-03    -53.1408E-03     113.317E-03    -56.1545E-03     109.487E-03    -53.0929E-03     112.174E-03
             365     14.5095E-03     65.7432E-03    -13.8655E+06     117.654E+06     65.9407E+06    -693.858E+03    -54.3475E-03     107.590E-03    -53.2424E-03     109.772E-03    -55.8513E-03     109.271E-03    -53.0632E-03     108.689E-03
             366     15.3620E-03     65.8460E-03    -9.33383E+06     126.240E+06     84.4378E+06    -63.5585E+03    -53.8016E-03     107.084E-03    -53.2827E-03     103.860E-03    -55.3520E-03     108.805E-03    -53.0300E-03     102.934E-03
             367     16.2193E-03     65.9522E-03    -5.09468E+06     126.457E+06     87.7395E+06      881.97E+03    -53.0360E-03     106.293E-03    -53.2575E-03     76.5973E-03    -54.1574E-03     107.591E-03    -52.9947E-03     75.9696E-03
             368     853.286E-06     65.7440E-03    -64.0291E+06    -173.045E+06    -62.6590E+06     68.4721E+03    -53.3690E-03     106.688E-03    -53.3187E-03     9.28275E-03    -53.3489E-03     106.008E-03    -53.2882E-03     9.24917E-03
             369     1.70656E-03     65.7572E-03    -62.1628E+06    -169.706E+06    -57.3017E+06     137.612E+03    -53.3800E-03     106.730E-03    -53.3497E-03     17.0605E-03    -53.3664E-03     106.059E-03    -53.3000E-03     16.9974E-03
             370     2.55985E-03     65.7781E-03    -59.4326E+06    -164.599E+06    -49.6499E+06     223.985E+03    -53.4183E-03     106.782E-03    -53.3635E-03     25.1266E-03    -53.4153E-03     106.127E-03    -53.2869E-03     25.0302E-03
             371     3.41326E-03     65.8074E-03    -55.9056E+06    -157.262E+06    -41.0507E+06     198.049E+03    -53.5085E-03     106.883E-03    -53.3750E-03     33.0645E-03    -53.5197E-03     106.257E-03    -53.2712E-03     32.9290E-03
             372     4.26665E-03     65.8443E-03    -51.8463E+06    -149.421E+06    -31.9065E+06     272.303E+03    -53.6405E-03     107.031E-03    -53.3909E-03     40.7295E-03    -53.6685E-03     106.437E-03    -53.2586E-03     40.5509E-03
             373     5.11995E-03     65.8889E-03    -47.7473E+06    -141.166E+06    -23.0933E+06     367.529E+03    -53.7718E-03     107.178E-03    -53.4061E-03     48.0791E-03    -53.8211E-03     106.624E-03    -53.2476E-03     47.8515E-03
             374     5.97339E-03     65.9406E-03    -43.8102E+06    -132.393E+06    -15.4073E+06     304.823E+03    -53.9087E-03     107.323E-03    -53.4138E-03     55.1077E-03    -53.9848E-03     106.818E-03    -53.2353E-03     54.8223E-03
             375     6.82687E-03     65.9993E-03    -39.8734E+06    -124.145E+06    -8.64068E+06     383.883E+03    -54.0689E-03     107.486E-03    -53.4170E-03     61.7960E-03    -54.1769E-03     107.037E-03    -53.2224E-03     61.4468E-03
             376     7.68020E-03     66.0643E-03    -36.2149E+06       -114.E+06    -4.01770E+06     381.406E+03    -54.2604E-03     107.670E-03    -53.4093E-03     68.0507E-03    -54.4102E-03     107.298E-03    -53.2116E-03     67.6277E-03
             377     8.53378E-03     66.1355E-03    -33.0238E+06    -100.320E+06    -2.03411E+06     377.024E+03    -54.4128E-03     107.799E-03    -53.3859E-03     73.8772E-03    -54.6190E-03     107.537E-03    -53.2027E-03     73.3715E-03
             378     9.38709E-03     66.2122E-03    -30.1879E+06    -84.1488E+06     98.4104E+03     438.028E+03    -54.5265E-03     107.886E-03    -53.3594E-03     79.2653E-03    -54.8084E-03     107.762E-03    -53.1931E-03     78.6689E-03
             379     10.2406E-03     66.2941E-03    -27.6997E+06    -65.8584E+06     1.37880E+06     313.429E+03    -54.6186E-03     107.944E-03    -53.3252E-03     84.1104E-03    -54.9972E-03     107.986E-03    -53.1826E-03     83.4117E-03
             380     11.0942E-03     66.3805E-03    -25.6887E+06    -39.9951E+06     2.94321E+06     598.088E+03    -54.6428E-03     107.923E-03    -53.2805E-03     88.7425E-03    -55.1578E-03     108.197E-03    -53.1706E-03     87.9361E-03
             381     11.9476E-03     66.4714E-03    -23.6876E+06    -4.98114E+06     6.39184E+06     1.26043E+06    -54.7331E-03     107.963E-03    -53.2303E-03     95.3063E-03    -55.4492E-03     108.559E-03    -53.1568E-03     94.3831E-03
             382     12.8013E-03     66.5711E-03    -21.2033E+06     51.2354E+06     9.55944E+06     773.413E+03    -54.7660E-03     107.908E-03    -53.1419E-03     104.732E-03    -55.7882E-03     109.009E-03    -53.1377E-03     103.669E-03
             383     13.6549E-03     66.6805E-03    -18.2666E+06     101.173E+06     33.4106E+06    -333.079E+03    -54.6923E-03     107.847E-03    -53.1542E-03     113.590E-03    -56.0569E-03     109.409E-03    -53.1074E-03     112.445E-03
             384     14.5089E-03     66.7976E-03    -14.7930E+06     117.167E+06     66.0763E+06    -143.577E+03    -54.3119E-03     107.565E-03    -53.2532E-03     110.438E-03    -55.8193E-03     109.244E-03    -53.0713E-03     109.367E-03
             385     15.3638E-03     66.9009E-03    -10.6450E+06     124.898E+06     83.4191E+06     836.496E+03    -53.8068E-03     107.093E-03    -53.2866E-03     104.213E-03    -55.3564E-03     108.807E-03    -53.0352E-03     103.302E-03
             386     16.2157E-03     67.0042E-03    -4.87304E+06     126.517E+06     87.9690E+06     525.695E+03    -52.7699E-03     106.026E-03    -53.2558E-03     76.5483E-03    -53.8873E-03     107.320E-03    -52.9924E-03     75.9180E-03
             387     853.195E-06     66.7983E-03    -63.7591E+06    -173.218E+06    -62.5596E+06     46.6822E+03    -53.3444E-03     106.696E-03    -53.3519E-03     9.30632E-03    -53.3228E-03     106.015E-03    -53.3211E-03     9.27241E-03
             388     1.70658E-03     66.8114E-03    -62.0512E+06    -170.028E+06    -57.2749E+06     164.595E+03    -53.3527E-03     106.700E-03    -53.3472E-03     17.0803E-03    -53.3381E-03     106.028E-03    -53.2970E-03     17.0176E-03
             389     2.55995E-03     66.8325E-03    -59.1462E+06    -164.718E+06    -49.3000E+06     246.829E+03    -53.4406E-03     106.801E-03    -53.3600E-03     25.1149E-03    -53.4366E-03     106.145E-03    -53.2819E-03     25.0186E-03
             390     3.41324E-03     66.8616E-03    -55.5947E+06    -157.321E+06    -40.2739E+06     280.929E+03    -53.5381E-03     106.919E-03    -53.3814E-03     33.0231E-03    -53.5489E-03     106.291E-03    -53.2740E-03     32.8884E-03
             391     4.26656E-03     66.8987E-03    -51.8316E+06    -149.704E+06    -31.5038E+06     224.577E+03    -53.6465E-03     107.046E-03    -53.3996E-03     40.6980E-03    -53.6747E-03     106.450E-03    -53.2649E-03     40.5185E-03
             392     5.11997E-03     66.9432E-03    -47.7148E+06    -141.354E+06    -23.3074E+06     360.538E+03    -53.7811E-03     107.193E-03    -53.4118E-03     48.0675E-03    -53.8297E-03     106.638E-03    -53.2542E-03     47.8396E-03
             393     5.97334E-03     66.9950E-03    -43.6740E+06    -132.526E+06    -15.4697E+06     507.122E+03    -53.9317E-03     107.353E-03    -53.4213E-03     55.0944E-03    -54.0069E-03     106.848E-03    -53.2431E-03     54.8113E-03
             394     6.82672E-03     67.0535E-03    -39.9128E+06    -124.409E+06    -8.77709E+06     454.047E+03    -54.1041E-03     107.531E-03    -53.4272E-03     61.7659E-03    -54.2118E-03     107.081E-03    -53.2328E-03     61.4171E-03
             395     7.68026E-03     67.1187E-03    -36.3158E+06    -114.158E+06    -4.23689E+06     563.539E+03    -54.2690E-03     107.689E-03    -53.4204E-03     68.0469E-03    -54.4187E-03     107.317E-03    -53.2234E-03     67.6263E-03
             396     8.53346E-03     67.1898E-03    -33.1144E+06    -100.429E+06    -2.08531E+06     563.799E+03    -54.4264E-03     107.824E-03    -53.3976E-03     73.9093E-03    -54.6328E-03     107.562E-03    -53.2144E-03     73.4061E-03
             397     9.38705E-03     67.2665E-03    -30.3232E+06    -84.3355E+06    -162.972E+03     544.137E+03    -54.5529E-03     107.924E-03    -53.3707E-03     79.3676E-03    -54.8351E-03     107.799E-03    -53.2053E-03     78.7724E-03
             398     10.2405E-03     67.3485E-03    -27.9904E+06    -65.7692E+06     1.31592E+06     649.662E+03    -54.6036E-03     107.940E-03    -53.3365E-03     84.1982E-03    -54.9833E-03     107.983E-03    -53.1940E-03     83.5048E-03
             399     11.0940E-03     67.4347E-03    -25.7942E+06    -40.7054E+06     2.63734E+06     767.030E+03    -54.6553E-03     107.945E-03    -53.2900E-03     88.9226E-03    -55.1693E-03     108.216E-03    -53.1804E-03     88.1190E-03
             400     11.9476E-03     67.5261E-03    -23.1650E+06    -5.66633E+06     6.13685E+06     675.464E+03    -54.6704E-03     107.906E-03    -53.2357E-03     95.5513E-03    -55.3818E-03     108.497E-03    -53.1632E-03     94.6229E-03
             401     12.8012E-03     67.6251E-03    -20.6028E+06     52.4070E+06     10.6436E+06     397.715E+03    -54.6165E-03     107.759E-03    -53.1427E-03     104.979E-03    -55.6367E-03     108.861E-03    -53.1356E-03     103.918E-03
             402     13.6555E-03     67.7348E-03    -18.4141E+06     101.543E+06     33.8504E+06     519.358E+03    -54.6327E-03     107.779E-03    -53.1463E-03     113.970E-03    -55.9984E-03     109.342E-03    -53.0976E-03     112.838E-03
             403     14.5095E-03     67.8517E-03    -15.4833E+06     116.090E+06     64.9817E+06     910.134E+03    -54.1885E-03     107.423E-03    -53.2346E-03     110.630E-03    -55.6930E-03     109.096E-03    -53.0556E-03     109.577E-03
             404     15.3631E-03     67.9546E-03    -10.6278E+06     124.777E+06     83.2824E+06     843.014E+03    -53.7585E-03     107.024E-03    -53.2657E-03     104.424E-03    -55.3116E-03     108.741E-03    -53.0148E-03     103.512E-03
             405     16.2187E-03     68.0598E-03    -4.41751E+06     127.147E+06     88.8262E+06    -180.608E+03    -52.9157E-03     106.157E-03    -53.2415E-03     76.5028E-03    -54.0401E-03     107.460E-03    -52.9753E-03     75.8581E-03
             406     853.349E-06     67.8527E-03    -63.7985E+06    -173.605E+06    -62.5185E+06     72.5037E+03    -53.3359E-03     106.645E-03    -53.3090E-03     9.29483E-03    -53.3140E-03     105.962E-03    -53.2774E-03     9.26119E-03
             407     1.70661E-03     67.8655E-03    -61.8386E+06    -170.189E+06    -57.0447E+06     135.142E+03    -53.3943E-03     106.730E-03    -53.3353E-03     17.0830E-03    -53.3787E-03     106.056E-03    -53.2841E-03     17.0199E-03
             408     2.55989E-03     67.8868E-03    -58.9552E+06    -165.020E+06    -49.0576E+06     246.167E+03    -53.4729E-03     106.839E-03    -53.3663E-03     25.1091E-03    -53.4677E-03     106.181E-03    -53.2868E-03     25.0127E-03
             409     3.41316E-03     67.9160E-03    -55.4939E+06    -157.646E+06    -40.1608E+06     416.276E+03    -53.5574E-03     106.950E-03    -53.3925E-03     33.0200E-03    -53.5673E-03     106.320E-03    -53.2843E-03     32.8869E-03
             410     4.26654E-03     67.9529E-03    -51.6391E+06    -149.650E+06    -31.1479E+06     432.379E+03    -53.6504E-03     107.062E-03    -53.4117E-03     40.6919E-03    -53.6782E-03     106.466E-03    -53.2755E-03     40.5150E-03
             411     5.11989E-03     67.9975E-03    -47.7518E+06    -141.605E+06    -23.2824E+06     415.221E+03    -53.7772E-03     107.198E-03    -53.4212E-03     48.0646E-03    -53.8256E-03     106.642E-03    -53.2630E-03     47.8374E-03
             412     5.97330E-03     68.0492E-03    -43.7591E+06    -132.972E+06    -15.8549E+06     570.101E+03    -53.9591E-03     107.388E-03    -53.4291E-03     55.1253E-03    -54.0335E-03     106.881E-03    -53.2521E-03     54.8430E-03
             413     6.82668E-03     68.1080E-03    -39.8899E+06    -124.436E+06    -8.87040E+06     670.258E+03    -54.1341E-03     107.572E-03    -53.4379E-03     61.8007E-03    -54.2415E-03     107.122E-03    -53.2440E-03     61.4546E-03
             414     7.67992E-03     68.1730E-03    -36.3077E+06    -114.473E+06    -4.22472E+06     662.470E+03    -54.2525E-03     107.684E-03    -53.4316E-03     68.0685E-03    -54.4016E-03     107.310E-03    -53.2341E-03     67.6495E-03
             415     8.53367E-03     68.2442E-03    -33.0913E+06    -100.545E+06     -2.1567E+06     769.588E+03    -54.3870E-03     107.791E-03    -53.4040E-03     74.0092E-03    -54.5928E-03     107.529E-03    -53.2210E-03     73.5098E-03
             416     9.38692E-03     68.3210E-03    -30.3991E+06    -84.5055E+06    -145.125E+03     806.498E+03    -54.5300E-03     107.904E-03    -53.3738E-03     79.4637E-03    -54.8121E-03     107.778E-03    -53.2080E-03     78.8727E-03
             417     10.2405E-03     68.4028E-03    -27.9663E+06    -66.0465E+06     1.22642E+06     887.386E+03    -54.5879E-03     107.925E-03    -53.3369E-03     84.2694E-03    -54.9667E-03     107.966E-03    -53.1944E-03     83.5798E-03
             418     11.0941E-03     68.4891E-03    -25.6422E+06    -40.4856E+06     2.87243E+06     690.862E+03    -54.5608E-03     107.847E-03    -53.2864E-03     89.1247E-03    -55.0745E-03     108.118E-03    -53.1761E-03     88.3222E-03
             419     11.9476E-03     68.5803E-03    -23.5286E+06    -5.60503E+06     6.04840E+06     188.382E+03    -54.5299E-03     107.753E-03    -53.2229E-03     95.6683E-03    -55.2420E-03     108.344E-03    -53.1504E-03     94.7371E-03
             420     12.8017E-03     68.6791E-03    -21.5907E+06     52.0433E+06     10.0706E+06     381.970E+03    -54.5525E-03     107.675E-03    -53.1228E-03     104.984E-03    -55.5759E-03     108.778E-03    -53.1166E-03     103.924E-03
             421     13.6555E-03     68.7889E-03    -19.2231E+06     100.838E+06     33.0455E+06     1.29015E+06    -54.5631E-03     107.686E-03    -53.1228E-03     113.917E-03    -55.9308E-03     109.247E-03    -53.0759E-03     112.797E-03
             422     14.5096E-03     68.9058E-03    -15.1722E+06     116.377E+06     64.5198E+06     1.26979E+06    -54.1987E-03     107.408E-03    -53.2093E-03     110.627E-03    -55.7034E-03     109.085E-03    -53.0335E-03     109.577E-03
             423     15.3643E-03     69.0088E-03    -9.74072E+06     125.909E+06     83.9989E+06     27.9515E+03    -53.7043E-03     106.949E-03    -53.2447E-03     104.251E-03    -55.2585E-03     108.672E-03    -52.9931E-03     103.330E-03
             424     16.2174E-03     69.1131E-03    -4.49090E+06     127.278E+06     89.0600E+06    -496.386E+03    -53.2238E-03     106.453E-03    -53.2293E-03     76.0361E-03    -54.3482E-03     107.755E-03    -52.9620E-03     75.3868E-03
             425     853.320E-06     68.9067E-03    -63.7392E+06    -173.858E+06    -62.4706E+06     91.9519E+03    -53.3552E-03     106.653E-03    -53.2976E-03     9.28248E-03    -53.3327E-03     105.968E-03    -53.2655E-03     9.24916E-03
             426     1.70661E-03     68.9200E-03    -61.9564E+06    -170.495E+06    -57.0656E+06     200.329E+03    -53.4245E-03     106.769E-03    -53.3447E-03     17.0653E-03    -53.4091E-03     106.094E-03    -53.2930E-03     17.0030E-03
             427     2.55981E-03     68.9411E-03    -59.2111E+06    -165.487E+06    -49.4048E+06     358.427E+03    -53.4749E-03     106.853E-03    -53.3781E-03     25.1135E-03    -53.4699E-03     106.194E-03    -53.2993E-03     25.0186E-03
             428     3.41321E-03     68.9703E-03    -55.7816E+06    -157.945E+06    -40.7637E+06     427.283E+03    -53.5524E-03     106.952E-03    -53.3994E-03     33.0412E-03    -53.5625E-03     106.321E-03    -53.2933E-03     32.9083E-03
             429     4.26645E-03     69.0073E-03    -51.8517E+06    -149.828E+06    -31.5942E+06     528.302E+03    -53.6615E-03     107.079E-03    -53.4176E-03     40.7000E-03    -53.6894E-03     106.483E-03    -53.2831E-03     40.5245E-03
             430     5.11987E-03     69.0517E-03    -47.7865E+06    -141.775E+06    -23.2234E+06     502.498E+03    -53.7957E-03     107.226E-03    -53.4304E-03     48.0861E-03    -53.8442E-03     106.669E-03    -53.2717E-03     47.8599E-03
             431     5.97323E-03     69.1037E-03    -43.7918E+06    -133.256E+06    -15.7073E+06     596.928E+03    -53.9525E-03     107.391E-03    -53.4385E-03     55.1804E-03    -54.0269E-03     106.882E-03    -53.2603E-03     54.8987E-03
             432     6.82658E-03     69.1623E-03    -39.8567E+06    -124.832E+06    -8.82660E+06     819.061E+03    -54.1091E-03     107.553E-03    -53.4437E-03     61.8581E-03    -54.2158E-03     107.100E-03    -53.2491E-03     61.5144E-03
             433     7.68015E-03     69.2274E-03    -36.2277E+06    -114.530E+06    -4.09814E+06     817.937E+03    -54.2504E-03     107.685E-03    -53.4348E-03     68.1086E-03    -54.3993E-03     107.311E-03    -53.2367E-03     67.6916E-03
             434     8.53336E-03     69.2983E-03    -33.0486E+06    -100.918E+06    -2.04428E+06     885.503E+03    -54.3686E-03     107.775E-03    -53.4062E-03     74.0427E-03    -54.5738E-03     107.510E-03    -53.2221E-03     73.5450E-03
             435     9.38714E-03     69.3754E-03    -30.1818E+06    -84.6877E+06     90.6982E+03     1.03022E+06    -54.4587E-03     107.831E-03    -53.3718E-03     79.4881E-03    -54.7393E-03     107.703E-03    -53.2048E-03     78.9015E-03
             436     10.2405E-03     69.4571E-03    -27.6650E+06    -66.2891E+06     1.50440E+06     992.494E+03    -54.5310E-03     107.861E-03    -53.3297E-03     84.3201E-03    -54.9086E-03     107.900E-03    -53.1859E-03     83.6324E-03
             437     11.0941E-03     69.5433E-03    -25.6235E+06    -40.1679E+06     3.15679E+06     959.669E+03    -54.4759E-03     107.750E-03    -53.2741E-03     89.0107E-03    -54.9898E-03     108.021E-03    -53.1629E-03     88.2130E-03
             438     11.9482E-03     69.6343E-03    -24.0539E+06    -4.98857E+06     6.46146E+06     715.043E+03    -54.4959E-03     107.705E-03    -53.2089E-03     95.4952E-03    -55.2121E-03     108.299E-03    -53.1345E-03     94.5708E-03
             439     12.8018E-03     69.7334E-03    -22.5106E+06     50.7336E+06     9.06366E+06     646.319E+03    -54.6132E-03     107.721E-03    -53.1081E-03     104.664E-03    -55.6380E-03     108.820E-03    -53.1037E-03     103.603E-03
             440     13.6559E-03     69.8428E-03    -19.4444E+06     100.307E+06     32.2512E+06     777.824E+03    -54.6248E-03     107.738E-03    -53.1132E-03     113.423E-03    -55.9930E-03     109.300E-03    -53.0692E-03     112.292E-03
             441     14.5103E-03     69.9597E-03    -14.3050E+06     117.599E+06     65.4272E+06     322.205E+03    -54.2093E-03     107.418E-03    -53.2086E-03     110.080E-03    -55.7133E-03     109.099E-03    -53.0313E-03     109.014E-03
             442     15.3636E-03     70.0632E-03    -8.64516E+06     127.150E+06     85.0388E+06    -555.637E+03    -53.9400E-03     107.193E-03    -53.2530E-03     103.533E-03    -55.4883E-03     108.915E-03    -52.9996E-03     102.596E-03
             443     16.2188E-03     70.1668E-03    -4.77602E+06     127.057E+06     88.7324E+06    -62.5579E+03    -53.4567E-03     106.705E-03    -53.2483E-03     75.7920E-03    -54.5803E-03     108.005E-03    -52.9819E-03     75.1412E-03
             444     853.294E-06     69.9613E-03    -63.7716E+06    -174.128E+06    -62.5755E+06     137.136E+03    -53.3799E-03     106.730E-03    -53.3497E-03     9.35150E-03    -53.3570E-03     106.044E-03    -53.3176E-03     9.31888E-03
             445     1.70647E-03     69.9742E-03    -62.2227E+06    -170.973E+06    -57.4385E+06     333.102E+03    -53.3957E-03     106.764E-03    -53.3686E-03     17.0876E-03    -53.3803E-03     106.088E-03    -53.3177E-03     17.0271E-03
             446     2.55989E-03     69.9955E-03    -59.4409E+06    -165.847E+06    -49.6153E+06     393.361E+03    -53.4713E-03     106.858E-03    -53.3870E-03     25.1474E-03    -53.4666E-03     106.198E-03    -53.3084E-03     25.0531E-03
             447     3.41306E-03     70.0246E-03    -55.8716E+06    -158.255E+06    -41.0001E+06     470.209E+03    -53.5506E-03     106.955E-03    -53.4047E-03     33.0329E-03    -53.5603E-03     106.324E-03    -53.2993E-03     32.9007E-03
             448     4.26655E-03     70.0616E-03    -52.0575E+06    -150.056E+06    -32.0692E+06     546.567E+03    -53.6583E-03     107.078E-03    -53.4200E-03     40.7325E-03    -53.6862E-03     106.482E-03    -53.2873E-03     40.5573E-03
             449     5.11979E-03     70.1062E-03    -48.0260E+06    -141.919E+06    -23.4269E+06     510.277E+03    -53.8178E-03     107.253E-03    -53.4347E-03     48.1331E-03    -53.8670E-03     106.695E-03    -53.2764E-03     47.9071E-03
             450     5.97318E-03     70.1579E-03    -43.9659E+06    -133.677E+06    -15.6575E+06     628.737E+03    -53.9352E-03     107.379E-03    -53.4442E-03     55.1822E-03    -54.0100E-03     106.869E-03    -53.2649E-03     54.9008E-03
             451     6.82669E-03     70.2167E-03    -40.0518E+06    -125.250E+06    -8.89184E+06     834.140E+03    -54.0570E-03     107.501E-03    -53.4441E-03     61.8767E-03    -54.1638E-03     107.047E-03    -53.2489E-03     61.5338E-03
             452     7.67999E-03     70.2817E-03    -36.3420E+06    -114.706E+06    -4.10106E+06     905.455E+03    -54.2364E-03     107.668E-03    -53.4311E-03     68.1555E-03    -54.3856E-03     107.292E-03    -53.2326E-03     67.7399E-03
             453     8.53366E-03     70.3529E-03    -32.9695E+06    -101.115E+06    -1.85242E+06     983.065E+03    -54.3747E-03     107.778E-03    -53.4030E-03     74.0491E-03    -54.5796E-03     107.512E-03    -53.2179E-03     73.5523E-03
             454     9.38693E-03     70.4295E-03    -30.0896E+06    -85.1048E+06     52.1763E+03     1.06648E+06    -54.4338E-03     107.801E-03    -53.3675E-03     79.4475E-03    -54.7134E-03     107.672E-03    -53.2002E-03     78.8613E-03
             455     10.2408E-03     70.5114E-03    -27.5813E+06    -66.2827E+06     1.69766E+06     1.18117E+06    -54.4742E-03     107.797E-03    -53.3231E-03     84.2061E-03    -54.8512E-03     107.836E-03    -53.1785E-03     83.5216E-03
             456     11.0944E-03     70.5976E-03    -25.3470E+06    -40.6664E+06     3.24437E+06     1.31238E+06    -54.5186E-03     107.787E-03    -53.2680E-03     88.7408E-03    -55.0306E-03     108.055E-03    -53.1560E-03     87.9463E-03
             457     11.9479E-03     70.6882E-03    -23.3175E+06    -4.54556E+06     6.91060E+06     1.39713E+06    -54.5842E-03     107.793E-03    -53.2084E-03     95.2580E-03    -55.2981E-03     108.388E-03    -53.1334E-03     94.3401E-03
             458     12.8018E-03     70.7879E-03    -21.2443E+06     51.4481E+06     11.0984E+06     996.387E+03    -54.6934E-03     107.814E-03    -53.1208E-03     104.396E-03    -55.7157E-03     108.911E-03    -53.1091E-03     103.338E-03
             459     13.6554E-03     70.8966E-03    -18.2460E+06     100.291E+06     34.0905E+06    -28.9314E+03    -54.8202E-03     107.955E-03    -53.1350E-03     113.197E-03    -56.1863E-03     109.514E-03    -53.0836E-03     112.050E-03
             460     14.5089E-03     71.0142E-03    -13.8670E+06     118.121E+06     66.2528E+06    -705.665E+03    -54.3747E-03     107.611E-03    -53.2364E-03     109.763E-03    -55.8789E-03     109.293E-03    -53.0563E-03     108.679E-03
             461     15.3638E-03     71.1165E-03    -9.16172E+06     126.549E+06     84.7349E+06    -39.3804E+03    -53.8649E-03     107.144E-03    -53.2795E-03     103.855E-03    -55.4138E-03     108.864E-03    -53.0260E-03     102.927E-03
             462     16.2154E-03     71.2231E-03    -4.77319E+06     126.773E+06     88.3705E+06     726.788E+03    -53.0071E-03     106.264E-03    -53.2567E-03     76.7165E-03    -54.1299E-03     107.563E-03    -52.9917E-03     76.0827E-03
             463     853.127E-06     71.0153E-03    -64.1996E+06    -174.672E+06    -62.7672E+06     304.403E+03    -53.3816E-03     106.743E-03    -53.3619E-03     9.37142E-03    -53.3598E-03     106.056E-03    -53.3293E-03     9.34094E-03
             464     1.70661E-03     71.0286E-03    -62.3221E+06    -171.338E+06     -57.511E+06     360.711E+03    -53.4035E-03     106.780E-03    -53.3761E-03     17.1335E-03    -53.3881E-03     106.101E-03    -53.3249E-03     17.0735E-03
             465     2.55977E-03     71.0497E-03    -59.4040E+06    -166.138E+06    -49.6281E+06     417.758E+03    -53.4680E-03     106.861E-03    -53.3929E-03     25.1541E-03    -53.4626E-03     106.199E-03    -53.3141E-03     25.0601E-03
             466     3.41319E-03     71.0790E-03    -55.9384E+06    -158.594E+06    -40.8840E+06     454.612E+03    -53.5453E-03     106.954E-03    -53.4089E-03     33.0382E-03    -53.5550E-03     106.321E-03    -53.3022E-03     32.9058E-03
             467     4.26641E-03     71.1158E-03    -52.0249E+06    -150.242E+06    -32.0441E+06     493.606E+03    -53.6700E-03     107.093E-03    -53.4230E-03     40.7610E-03    -53.6976E-03     106.496E-03    -53.2900E-03     40.5850E-03
             468     5.11988E-03     71.1607E-03    -47.9917E+06    -142.248E+06    -23.4931E+06     626.832E+03    -53.7905E-03     107.226E-03    -53.4359E-03     48.1472E-03    -53.8389E-03     106.668E-03    -53.2775E-03     47.9230E-03
             469     5.97317E-03     71.2123E-03    -44.0384E+06    -134.028E+06    -15.6237E+06     717.495E+03    -53.9168E-03     107.359E-03    -53.4424E-03     55.1988E-03    -53.9914E-03     106.847E-03    -53.2624E-03     54.9187E-03
             470     6.82660E-03     71.2709E-03    -40.0797E+06    -125.513E+06     -8.8527E+06     794.213E+03    -54.0608E-03     107.502E-03    -53.4413E-03     61.8945E-03    -54.1675E-03     107.047E-03    -53.2455E-03     61.5510E-03
             471     7.68025E-03     71.3361E-03      -36.32E+06    -115.072E+06    -4.13622E+06     925.338E+03    -54.2075E-03     107.635E-03    -53.4271E-03     68.1516E-03    -54.3559E-03     107.258E-03    -53.2283E-03     67.7366E-03
             472     8.53350E-03     71.4071E-03    -33.0506E+06    -101.403E+06    -1.98409E+06     1.01461E+06    -54.3599E-03     107.757E-03    -53.3968E-03     74.0014E-03    -54.5645E-03     107.490E-03    -53.2118E-03     73.5053E-03
             473     9.38727E-03     71.4838E-03    -30.1393E+06    -85.3455E+06     11.2444E+03     1.12611E+06    -54.4766E-03     107.840E-03    -53.3635E-03     79.3718E-03    -54.7562E-03     107.710E-03    -53.1960E-03     78.7854E-03
             474     10.2405E-03     71.5656E-03    -27.4759E+06    -66.5202E+06     1.66288E+06     1.19211E+06    -54.5097E-03     107.833E-03    -53.3229E-03     84.0870E-03    -54.8855E-03     107.870E-03    -53.1783E-03     83.4024E-03
             475     11.0943E-03     71.6516E-03    -24.9615E+06    -41.1022E+06     3.31802E+06     1.25247E+06    -54.5654E-03     107.837E-03    -53.2715E-03     88.7398E-03    -55.0751E-03     108.102E-03    -53.1591E-03     87.9439E-03
             476     11.9479E-03     71.7428E-03    -22.4346E+06    -4.46849E+06     7.16933E+06     1.27515E+06    -54.6412E-03     107.856E-03    -53.2146E-03     95.2516E-03    -55.3508E-03     108.449E-03    -53.1397E-03     94.3319E-03
             477     12.8015E-03     71.8415E-03    -19.7316E+06     52.5215E+06     12.4833E+06     794.789E+03    -54.7235E-03     107.856E-03    -53.1320E-03     104.637E-03    -55.7420E-03     108.954E-03    -53.1172E-03     103.578E-03
             478     13.6553E-03     71.9516E-03    -17.0637E+06     101.187E+06     35.7959E+06     174.816E+03    -54.8278E-03     107.975E-03    -53.1477E-03     113.699E-03    -56.1912E-03     109.534E-03    -53.0907E-03     112.557E-03
             479     14.5094E-03     72.0681E-03    -14.2287E+06     117.696E+06     66.3908E+06     283.220E+03    -54.4104E-03     107.654E-03    -53.2439E-03     110.515E-03    -55.9157E-03     109.334E-03    -53.0620E-03     109.447E-03
             480     15.3622E-03     72.1713E-03    -10.5160E+06     125.024E+06     83.5097E+06     1.21626E+06    -53.6468E-03     106.923E-03    -53.2759E-03     104.401E-03    -55.1947E-03     108.635E-03    -53.0243E-03     103.499E-03
             481     16.2198E-03     72.2754E-03    -4.40327E+06     126.929E+06     88.5714E+06     514.587E+03    -52.6687E-03     105.908E-03    -53.2398E-03     76.5511E-03    -53.7844E-03     107.202E-03    -52.9746E-03     75.9234E-03
             482     853.429E-06     72.0699E-03    -64.2206E+06    -175.233E+06    -63.0252E+06     160.021E+03    -53.3768E-03     106.737E-03    -53.3606E-03     9.31646E-03    -53.3540E-03     106.047E-03    -53.3286E-03     9.28412E-03
             483     1.70645E-03     72.0828E-03    -62.1944E+06    -171.637E+06    -57.3383E+06     282.906E+03    -53.4235E-03     106.802E-03    -53.3785E-03     17.1201E-03    -53.4072E-03     106.122E-03    -53.3261E-03     17.0590E-03
             484     2.55982E-03     72.1042E-03    -59.3591E+06    -166.508E+06     -49.522E+06     422.336E+03    -53.4536E-03     106.850E-03    -53.3968E-03     25.1450E-03    -53.4476E-03     106.186E-03    -53.3169E-03     25.0511E-03
             485     3.41310E-03     72.1331E-03    -55.9093E+06    -158.827E+06    -40.8220E+06     497.004E+03    -53.5528E-03     106.963E-03    -53.4101E-03     33.0718E-03    -53.5622E-03     106.328E-03    -53.3028E-03     32.9399E-03
             486     4.26652E-03     72.1705E-03    -52.0561E+06    -150.475E+06    -31.9617E+06     447.554E+03    -53.6579E-03     107.082E-03    -53.4239E-03     40.7727E-03    -53.6854E-03     106.483E-03    -53.2901E-03     40.5962E-03
             487     5.11972E-03     72.2148E-03    -47.9599E+06    -142.820E+06    -23.3659E+06     649.530E+03    -53.7551E-03     107.189E-03    -53.4334E-03     48.1615E-03    -53.8027E-03     106.627E-03    -53.2736E-03     47.9377E-03
             488     5.97337E-03     72.2666E-03    -43.8681E+06    -134.214E+06    -15.4623E+06     843.588E+03    -53.9101E-03     107.347E-03    -53.4366E-03     55.2029E-03    -53.9838E-03     106.833E-03    -53.2557E-03     54.9246E-03
             489     6.82673E-03     72.3253E-03    -39.9982E+06    -125.792E+06    -8.83021E+06     832.320E+03    -54.0770E-03     107.513E-03    -53.4363E-03     61.8764E-03    -54.1830E-03     107.056E-03    -53.2401E-03     61.5331E-03
             490     7.67999E-03     72.3903E-03    -36.3646E+06    -115.475E+06    -4.27099E+06     1.00108E+06    -54.2095E-03     107.633E-03    -53.4233E-03     68.1469E-03    -54.3573E-03     107.254E-03    -53.2245E-03     67.7330E-03
             491     8.53379E-03     72.4614E-03    -33.0554E+06    -101.609E+06    -1.95843E+06     1.05980E+06    -54.3511E-03     107.745E-03    -53.3935E-03     74.0041E-03    -54.5553E-03     107.476E-03    -53.2080E-03     73.5089E-03
             492     9.38699E-03     72.5381E-03    -30.0914E+06    -85.6701E+06     56.4863E+03     1.04550E+06    -54.4764E-03     107.837E-03    -53.3603E-03     79.3706E-03    -54.7552E-03     107.704E-03    -53.1921E-03     78.7839E-03
             493     10.2408E-03     72.6198E-03    -27.4543E+06    -66.7858E+06     1.62793E+06     1.13609E+06    -54.5538E-03     107.875E-03    -53.3211E-03     84.1473E-03    -54.9291E-03     107.911E-03    -53.1763E-03     83.4617E-03
             494     11.0942E-03     72.7059E-03    -25.0928E+06    -40.9458E+06     3.43664E+06     919.419E+03    -54.5646E-03     107.836E-03    -53.2715E-03     88.9153E-03    -55.0748E-03     108.102E-03    -53.1586E-03     88.1163E-03
             495     11.9479E-03     72.7970E-03    -22.9674E+06    -5.15509E+06     6.85077E+06     1.11569E+06    -54.5831E-03     107.795E-03    -53.2117E-03     95.4240E-03    -55.2934E-03     108.385E-03    -53.1367E-03     94.5045E-03
             496     12.8017E-03     72.8959E-03    -21.6056E+06     53.1799E+06     10.4614E+06     864.460E+03    -54.6752E-03     107.792E-03    -53.1167E-03     104.916E-03    -55.7008E-03     108.899E-03    -53.1101E-03     103.860E-03
             497     13.6556E-03     73.0056E-03    -19.4656E+06     101.975E+06     33.5103E+06     405.490E+03    -54.7116E-03     107.838E-03    -53.1266E-03     113.856E-03    -56.0831E-03     109.405E-03    -53.0787E-03     112.720E-03
             498     14.5095E-03     73.1225E-03    -15.6056E+06     116.196E+06     64.8913E+06     1.24706E+06    -54.2260E-03     107.447E-03    -53.2206E-03     110.399E-03    -55.7292E-03     109.119E-03    -53.0420E-03     109.349E-03
             499     15.3649E-03     73.2254E-03    -9.99592E+06     125.535E+06     83.7612E+06     926.027E+03    -53.7419E-03     106.997E-03    -53.2549E-03     103.917E-03    -55.2893E-03     108.711E-03    -53.0036E-03     103.006E-03
             500     16.2159E-03     73.3289E-03    -4.05346E+06     127.792E+06     89.3641E+06    -186.473E+03    -53.0464E-03     106.283E-03    -53.2363E-03     76.1176E-03    -54.1695E-03     107.586E-03    -52.9689E-03     75.4704E-03
             501     853.112E-06     73.1240E-03    -64.0129E+06    -175.409E+06    -62.7542E+06     30.9808E+03    -53.3996E-03     106.772E-03    -53.3728E-03     9.31077E-03    -53.3758E-03     106.081E-03    -53.3394E-03     9.27665E-03
             502     1.70654E-03     73.1375E-03    -62.1981E+06    -172.101E+06    -57.5674E+06     225.110E+03    -53.3849E-03     106.768E-03    -53.3832E-03     17.1130E-03    -53.3676E-03     106.086E-03    -53.3313E-03     17.0511E-03
             503     2.55982E-03     73.1582E-03    -59.4282E+06    -166.986E+06    -49.6021E+06     421.591E+03    -53.4611E-03     106.854E-03    -53.3930E-03     25.1697E-03    -53.4547E-03     106.188E-03    -53.3127E-03     25.0758E-03
             504     3.41317E-03     73.1878E-03    -55.8908E+06    -159.041E+06    -40.8747E+06     549.631E+03    -53.5464E-03     106.954E-03    -53.4072E-03     33.1096E-03    -53.5553E-03     106.318E-03    -53.2999E-03     32.9786E-03
             505     4.26638E-03     73.2246E-03    -52.0926E+06    -150.728E+06    -32.0304E+06     572.827E+03    -53.6239E-03     107.042E-03    -53.4177E-03     40.7678E-03    -53.6511E-03     106.442E-03    -53.2838E-03     40.5931E-03
             506     5.12005E-03     73.2692E-03    -48.1288E+06    -143.240E+06    -23.4243E+06     587.467E+03    -53.7612E-03     107.187E-03    -53.4261E-03     48.1651E-03    -53.8089E-03     106.624E-03    -53.2657E-03     47.9405E-03
             507     5.97318E-03     73.3209E-03    -44.0127E+06    -134.806E+06    -15.6980E+06     786.835E+03    -53.9181E-03     107.349E-03    -53.4306E-03     55.2132E-03    -53.9913E-03     106.833E-03    -53.2498E-03     54.9343E-03
             508     6.82670E-03     73.3795E-03    -40.1035E+06    -125.904E+06    -8.87420E+06     1.04389E+06    -54.0581E-03     107.489E-03    -53.4307E-03     61.8610E-03    -54.1642E-03     107.031E-03    -53.2344E-03     61.5209E-03
             509     7.68034E-03     73.4446E-03    -36.4048E+06    -115.730E+06    -4.17806E+06     1.00503E+06    -54.2089E-03     107.627E-03    -53.4180E-03     68.1558E-03    -54.3566E-03     107.247E-03    -53.2183E-03     67.7421E-03
             510     8.53352E-03     73.5156E-03    -33.0408E+06    -101.861E+06    -1.97926E+06     1.07004E+06    -54.3425E-03     107.730E-03    -53.3876E-03     74.0647E-03    -54.5462E-03     107.461E-03    -53.2019E-03     73.5702E-03
             511     9.38735E-03     73.5924E-03    -30.2226E+06    -85.8658E+06     37.8049E+03     1.08525E+06    -54.4396E-03     107.792E-03    -53.3528E-03     79.4268E-03    -54.7183E-03     107.659E-03    -53.1842E-03     78.8418E-03
             512     10.2407E-03     73.6740E-03    -27.7157E+06    -67.1736E+06     1.40964E+06     1.05502E+06    -54.5289E-03     107.840E-03    -53.3108E-03     84.2523E-03    -54.9046E-03     107.874E-03    -53.1662E-03     83.5664E-03
             513     11.0944E-03     73.7603E-03    -25.6397E+06    -40.6993E+06     3.32753E+06     1.11816E+06    -54.5397E-03     107.800E-03    -53.2600E-03     88.9560E-03    -55.0523E-03     108.067E-03    -53.1471E-03     88.1606E-03
             514     11.9481E-03     73.8510E-03    -23.7374E+06    -5.92829E+06     6.41362E+06     1.18623E+06    -54.5645E-03     107.764E-03    -53.1996E-03     95.4449E-03    -55.2768E-03     108.352E-03    -53.1245E-03     94.5264E-03
             515     12.8020E-03     73.9502E-03    -21.4309E+06     53.2345E+06     10.1365E+06     1.46786E+06    -54.6741E-03     107.777E-03    -53.1029E-03     104.825E-03    -55.6983E-03     108.885E-03    -53.0983E-03     103.775E-03
             516     13.6557E-03     74.0599E-03    -19.3885E+06     102.436E+06     33.1877E+06     1.46762E+06    -54.7237E-03     107.838E-03    -53.1140E-03     113.591E-03    -56.0940E-03     109.407E-03    -53.0685E-03     112.468E-03
             517     14.5100E-03     74.1765E-03    -15.5712E+06     116.289E+06     64.5835E+06     537.025E+03    -54.2751E-03     107.487E-03    -53.2123E-03     109.924E-03    -55.7795E-03     109.162E-03    -53.0355E-03     108.860E-03
             518     15.3629E-03     74.2791E-03    -9.71817E+06     126.431E+06     84.2500E+06    -462.675E+03    -53.8223E-03     107.077E-03    -53.2546E-03     103.532E-03    -55.3738E-03     108.798E-03    -53.0026E-03     102.598E-03
             519     16.2197E-03     74.3841E-03    -4.72998E+06     127.838E+06     89.3232E+06    -48.0056E+03    -53.1442E-03     106.386E-03    -53.2415E-03     76.1100E-03    -54.2704E-03     107.690E-03    -52.9734E-03     75.4637E-03
             520     853.266E-06     74.1787E-03    -64.1602E+06    -175.675E+06    -62.8231E+06     127.379E+03    -53.3888E-03     106.728E-03    -53.3391E-03     9.38032E-03    -53.3653E-03     106.035E-03    -53.3054E-03     9.34755E-03
             521     1.70653E-03     74.1914E-03    -62.3768E+06    -172.435E+06    -57.5684E+06     169.967E+03    -53.4101E-03     106.781E-03    -53.3712E-03     17.1172E-03    -53.3932E-03     106.098E-03    -53.3185E-03     17.0546E-03
             522     2.55986E-03     74.2129E-03    -59.4357E+06    -167.438E+06    -49.8543E+06     362.405E+03    -53.4573E-03     106.846E-03    -53.3890E-03     25.1551E-03    -53.4499E-03     106.178E-03    -53.3093E-03     25.0605E-03
             523     3.41308E-03     74.2419E-03    -56.0158E+06    -159.508E+06    -41.2499E+06     568.503E+03    -53.5048E-03     106.903E-03    -53.3983E-03     33.0857E-03    -53.5131E-03     106.266E-03    -53.2921E-03     32.9551E-03
             524     4.26669E-03     74.2789E-03    -52.2028E+06    -150.945E+06    -32.2452E+06     666.442E+03    -53.6220E-03     107.028E-03    -53.4059E-03     40.7817E-03    -53.6491E-03     106.427E-03    -53.2726E-03     40.6083E-03
             525     5.11975E-03     74.3234E-03    -48.2349E+06    -143.517E+06    -23.5022E+06     710.139E+03    -53.7732E-03     107.191E-03    -53.4176E-03     48.1796E-03    -53.8210E-03     106.626E-03    -53.2571E-03     47.9567E-03
             526     5.97346E-03     74.3752E-03    -44.3562E+06    -135.254E+06    -15.7290E+06      855.85E+03    -53.9042E-03     107.328E-03    -53.4243E-03     55.2231E-03    -53.9784E-03     106.811E-03    -53.2425E-03     54.9452E-03
             527     6.82678E-03     74.4338E-03    -40.2436E+06    -126.235E+06    -8.92877E+06     974.511E+03    -54.0427E-03     107.466E-03    -53.4229E-03     61.8810E-03    -54.1490E-03     107.007E-03    -53.2262E-03     61.5403E-03
             528     7.68013E-03     74.4988E-03    -36.4420E+06    -115.923E+06    -4.17615E+06     1.00356E+06    -54.1899E-03     107.599E-03    -53.4090E-03     68.1823E-03    -54.3375E-03     107.218E-03    -53.2090E-03     67.7689E-03
             529     8.53393E-03     74.5700E-03    -33.1877E+06    -102.293E+06    -2.12056E+06     1.06094E+06    -54.3120E-03     107.689E-03    -53.3768E-03     74.0569E-03    -54.5153E-03     107.417E-03    -53.1910E-03     73.5629E-03
             530     9.38721E-03     74.6465E-03    -30.2627E+06    -85.9025E+06     46.7654E+03     1.21151E+06    -54.4225E-03     107.763E-03    -53.3408E-03     79.4467E-03    -54.7012E-03     107.629E-03    -53.1721E-03     78.8637E-03
             531     10.2411E-03     74.7284E-03    -27.8268E+06    -67.4275E+06     1.40497E+06     1.21113E+06    -54.4966E-03     107.795E-03    -53.2982E-03     84.2308E-03    -54.8723E-03     107.828E-03    -53.1530E-03     83.5474E-03
             532     11.0946E-03     74.8144E-03    -25.7208E+06    -41.2451E+06     3.04269E+06     1.52094E+06    -54.5342E-03     107.780E-03    -53.2460E-03     88.8704E-03    -55.0461E-03     108.046E-03    -53.1337E-03     88.0799E-03
             533     11.9482E-03     74.9053E-03    -23.8029E+06    -5.66253E+06     6.58720E+06     1.50385E+06    -54.6340E-03     107.824E-03    -53.1902E-03     95.3541E-03    -55.3476E-03     108.414E-03    -53.1145E-03     94.4376E-03
             534     12.8018E-03     75.0044E-03    -22.1062E+06     52.4393E+06     9.31742E+06     1.40684E+06    -54.7410E-03     107.838E-03    -53.0966E-03     104.726E-03    -55.7670E-03     108.944E-03    -53.0940E-03     103.673E-03
             535     13.6558E-03     75.1140E-03    -18.6602E+06     102.725E+06     32.8374E+06     1.26441E+06    -54.7514E-03     107.862E-03    -53.1101E-03     113.452E-03    -56.1192E-03     109.433E-03    -53.0679E-03     112.325E-03
             536     14.5094E-03     75.2308E-03    -13.7743E+06     118.003E+06     66.4148E+06     277.071E+03    -54.3376E-03     107.556E-03    -53.2184E-03     110.056E-03    -55.8392E-03     109.235E-03    -53.0374E-03     108.988E-03
             537     15.3642E-03     75.3336E-03    -9.62944E+06     126.541E+06     84.9248E+06    -24.6925E+03    -53.8966E-03     107.159E-03    -53.2627E-03     103.803E-03    -55.4475E-03     108.879E-03    -53.0076E-03     102.876E-03
             538     16.2158E-03     75.4374E-03    -5.00318E+06     127.398E+06     88.8413E+06     109.660E+03    -53.0493E-03     106.293E-03    -53.2439E-03     75.9832E-03    -54.1730E-03     107.594E-03    -52.9772E-03     75.3416E-03
             539     853.408E-06     75.2328E-03    -64.3269E+06    -176.059E+06    -62.9307E+06     47.4347E+03    -53.4036E-03     106.706E-03    -53.3021E-03     9.31008E-03    -53.3802E-03     106.011E-03    -53.2682E-03     9.27627E-03
             540     1.70656E-03     75.2460E-03    -62.2625E+06    -172.674E+06    -57.4859E+06     228.133E+03    -53.4162E-03     106.780E-03    -53.3641E-03     17.0824E-03    -53.3985E-03     106.095E-03    -53.3108E-03     17.0205E-03
             541     2.55974E-03     75.2670E-03    -59.6024E+06    -167.921E+06    -49.8927E+06     308.771E+03    -53.4229E-03     106.804E-03    -53.3811E-03     25.1484E-03    -53.4156E-03     106.134E-03    -53.3007E-03     25.0532E-03
             542     3.41331E-03     75.2961E-03    -56.0867E+06    -159.999E+06    -41.5013E+06     535.410E+03    -53.4964E-03     106.882E-03    -53.3854E-03     33.1043E-03    -53.5039E-03     106.243E-03    -53.2795E-03     32.9734E-03
             543     4.26646E-03     75.3332E-03    -52.3223E+06    -151.273E+06    -32.4897E+06     737.772E+03    -53.6277E-03     107.022E-03    -53.3948E-03     40.7956E-03    -53.6546E-03     106.421E-03    -53.2620E-03     40.6233E-03
             544     5.12016E-03     75.3777E-03    -48.4311E+06    -143.801E+06    -23.4490E+06     894.077E+03    -53.7608E-03     107.170E-03    -53.4094E-03     48.1773E-03    -53.8091E-03     106.604E-03    -53.2479E-03     47.9569E-03
             545     5.97325E-03     75.4295E-03    -44.2437E+06    -135.343E+06    -15.5019E+06     931.345E+03    -53.8834E-03     107.299E-03    -53.4152E-03     55.2027E-03    -53.9573E-03     106.780E-03    -53.2323E-03     54.9260E-03
             546     6.82689E-03     75.4880E-03    -40.2883E+06    -126.740E+06    -9.09536E+06     838.229E+03    -54.0192E-03     107.430E-03    -53.4111E-03     61.8952E-03    -54.1247E-03     106.969E-03    -53.2144E-03     61.5528E-03
             547     7.68047E-03     75.5531E-03    -36.5304E+06    -116.258E+06    -4.30587E+06     1.00106E+06    -54.1805E-03     107.577E-03    -53.3966E-03     68.2050E-03    -54.3278E-03     107.194E-03    -53.1966E-03     67.7921E-03
             548     8.53374E-03     75.6241E-03    -33.1195E+06    -102.484E+06    -2.01831E+06     1.11758E+06    -54.3166E-03     107.683E-03    -53.3661E-03     74.0024E-03    -54.5196E-03     107.410E-03    -53.1795E-03     73.5087E-03
             549     9.38761E-03     75.7008E-03    -30.2578E+06    -86.4269E+06    -81.3753E+03     1.21732E+06    -54.4154E-03     107.746E-03    -53.3306E-03     79.3873E-03    -54.6931E-03     107.610E-03    -53.1618E-03     78.8041E-03
             550     10.2409E-03     75.7826E-03    -27.7158E+06    -67.5238E+06     1.57235E+06     1.47041E+06    -54.4980E-03     107.787E-03    -53.2895E-03     84.1497E-03    -54.8730E-03     107.820E-03    -53.1435E-03     83.4697E-03
             551     11.0947E-03     75.8685E-03    -25.3828E+06    -41.8615E+06     3.15019E+06     1.54022E+06    -54.5741E-03     107.814E-03    -53.2398E-03     88.8193E-03    -55.0840E-03     108.076E-03    -53.1266E-03     88.0278E-03
             552     11.9483E-03     75.9597E-03    -23.3375E+06    -6.54948E+06     6.55064E+06     1.98500E+06    -54.6621E-03     107.849E-03    -53.1864E-03     95.3137E-03    -55.3725E-03     108.434E-03    -53.1103E-03     94.4024E-03
             553     12.8020E-03     76.0585E-03     -21.246E+06     53.5070E+06     10.1169E+06     1.66514E+06    -54.7056E-03     107.799E-03    -53.0935E-03     104.780E-03    -55.7296E-03     108.908E-03    -53.0897E-03     103.732E-03
             554     13.6556E-03     76.1685E-03    -18.4703E+06     103.682E+06     33.6856E+06     62.3955E+03    -54.7399E-03     107.846E-03    -53.1066E-03     113.738E-03    -56.1121E-03     109.424E-03    -53.0618E-03     112.595E-03
             555     14.5100E-03     76.2847E-03    -14.3908E+06     117.440E+06     66.2717E+06     275.746E+03    -54.3118E-03     107.524E-03    -53.2120E-03     110.208E-03    -55.8169E-03     109.202E-03    -53.0300E-03     109.140E-03
             556     15.3632E-03     76.3880E-03    -9.35012E+06     126.980E+06     85.0573E+06     728.740E+03    -53.7902E-03     107.041E-03    -53.2511E-03     104.079E-03    -55.3405E-03     108.762E-03    -52.9963E-03     103.165E-03
             557     16.2193E-03     76.4921E-03    -4.81131E+06     127.850E+06     89.1895E+06     120.188E+03    -53.2479E-03     106.483E-03    -53.2354E-03     76.4738E-03    -54.3747E-03     107.788E-03    -52.9678E-03     75.8293E-03
             558     853.085E-06     76.2870E-03    -64.0893E+06    -176.303E+06     -62.834E+06     146.744E+03    -53.3857E-03     106.722E-03    -53.3368E-03     9.31152E-03    -53.3609E-03     106.027E-03    -53.3024E-03     9.27885E-03
             559     1.70651E-03     76.3003E-03    -62.4927E+06    -173.235E+06    -57.7387E+06     313.568E+03    -53.3383E-03     106.693E-03    -53.3542E-03     17.1154E-03    -53.3206E-03     106.005E-03    -53.3011E-03     17.0549E-03
             560     2.56002E-03     76.3212E-03    -59.6627E+06    -168.217E+06    -49.8325E+06     392.835E+03    -53.4259E-03     106.785E-03    -53.3594E-03     25.1520E-03    -53.4185E-03     106.113E-03    -53.2781E-03     25.0579E-03
             561     3.41318E-03     76.3505E-03    -56.2011E+06    -160.475E+06    -41.1355E+06     516.446E+03    -53.5303E-03     106.906E-03    -53.3756E-03     33.0908E-03    -53.5382E-03     106.264E-03    -53.2671E-03     32.9596E-03
             562     4.26676E-03     76.3874E-03    -52.3264E+06    -151.766E+06    -32.2119E+06      799.28E+03    -53.6261E-03     107.017E-03    -53.3908E-03     40.7691E-03    -53.6527E-03     106.412E-03    -53.2559E-03     40.5976E-03
             563     5.11984E-03     76.4320E-03    -48.1956E+06    -143.963E+06    -23.2757E+06     951.978E+03    -53.7263E-03     107.129E-03    -53.4023E-03     48.1321E-03    -53.7734E-03     106.561E-03    -53.2400E-03     47.9128E-03
             564     5.97361E-03     76.4838E-03    -44.1677E+06    -135.732E+06    -15.6132E+06     883.898E+03    -53.8565E-03     107.260E-03    -53.4039E-03     55.1935E-03    -53.9292E-03     106.740E-03    -53.2211E-03     54.9163E-03
             565     6.82693E-03     76.5422E-03    -40.2020E+06    -126.896E+06    -9.03726E+06     878.364E+03    -54.0301E-03     107.431E-03    -53.4005E-03     61.8660E-03    -54.1350E-03     106.969E-03    -53.2034E-03     61.5240E-03
             566     7.68039E-03     76.6073E-03    -36.4839E+06    -116.663E+06    -4.37376E+06     994.312E+03    -54.1761E-03     107.564E-03    -53.3875E-03     68.1133E-03    -54.3224E-03     107.179E-03    -53.1873E-03     67.7002E-03
             567     8.53412E-03     76.6784E-03    -33.2051E+06    -102.836E+06    -2.20091E+06     1.14503E+06    -54.3159E-03     107.673E-03    -53.3574E-03     73.9627E-03    -54.5184E-03     107.399E-03    -53.1712E-03     73.4695E-03
             568     9.38730E-03     76.7549E-03    -30.2766E+06    -86.7912E+06    -185.380E+03     1.24276E+06    -54.4347E-03     107.759E-03    -53.3239E-03     79.3387E-03    -54.7121E-03     107.621E-03    -53.1551E-03     78.7553E-03
             569     10.2413E-03     76.8367E-03    -27.6352E+06    -67.9355E+06     1.39255E+06     1.39075E+06    -54.5180E-03     107.803E-03    -53.2847E-03     84.1262E-03    -54.8918E-03     107.833E-03    -53.1391E-03     83.4448E-03
             570     11.0946E-03     76.9229E-03    -25.2852E+06    -42.2807E+06     3.12040E+06     1.54778E+06    -54.5749E-03     107.812E-03    -53.2368E-03     88.8541E-03    -55.0840E-03     108.072E-03    -53.1232E-03     88.0625E-03
             571     11.9483E-03     77.0138E-03    -22.6637E+06    -7.12858E+06     6.60564E+06     1.58500E+06    -54.6156E-03     107.797E-03    -53.1815E-03     95.3904E-03    -55.3218E-03     108.378E-03    -53.1053E-03     94.4754E-03
             572     12.8019E-03     77.1129E-03    -19.8715E+06     54.5261E+06     11.3517E+06     1.48476E+06    -54.6114E-03     107.698E-03    -53.0865E-03     104.736E-03    -55.6310E-03     108.808E-03    -53.0800E-03     103.688E-03
             573     13.6564E-03     77.2221E-03    -17.8012E+06     104.673E+06     35.1209E+06     1.19790E+06    -54.7162E-03     107.815E-03    -53.0983E-03     113.823E-03    -56.0874E-03     109.392E-03    -53.0487E-03     112.697E-03
             574     14.5096E-03     77.3397E-03    -14.9663E+06     116.973E+06     66.0342E+06     469.458E+03    -54.3730E-03     107.574E-03    -53.2010E-03     110.065E-03    -55.8798E-03     109.251E-03    -53.0187E-03     108.999E-03
             575     15.3646E-03     77.4412E-03    -9.86949E+06     126.775E+06     84.6669E+06     356.124E+03    -53.8865E-03     107.131E-03    -53.2448E-03     103.555E-03    -55.4354E-03     108.850E-03    -52.9910E-03     102.630E-03
             576     16.2173E-03     77.5462E-03    -4.39058E+06     128.236E+06     89.5529E+06     448.037E+03    -53.1707E-03     106.403E-03    -53.2327E-03     75.9815E-03    -54.2905E-03     107.703E-03    -52.9645E-03     75.3394E-03
             577     853.390E-06     77.3416E-03    -64.5109E+06    -176.960E+06    -63.1194E+06     298.440E+03    -53.3165E-03     106.629E-03    -53.3125E-03     9.36789E-03    -53.2924E-03     105.931E-03    -53.2780E-03     9.33746E-03
             578     1.70670E-03     77.3542E-03    -62.6294E+06    -173.575E+06    -57.7334E+06     401.995E+03    -53.3653E-03     106.689E-03    -53.3233E-03     17.0765E-03    -53.3477E-03     106.000E-03    -53.2695E-03     17.0171E-03
             579     2.55992E-03     77.3757E-03    -59.8716E+06    -168.495E+06    -49.7967E+06     481.572E+03    -53.4539E-03     106.804E-03    -53.3499E-03     25.1224E-03    -53.4472E-03     106.131E-03    -53.2678E-03     25.0294E-03
             580     3.41332E-03     77.4046E-03    -56.4165E+06    -160.899E+06    -40.8366E+06     639.956E+03    -53.5360E-03     106.912E-03    -53.3755E-03     33.0223E-03    -53.5448E-03     106.267E-03    -53.2646E-03     32.8924E-03
             581     4.26649E-03     77.4417E-03    -52.5406E+06    -152.224E+06    -32.1582E+06     850.115E+03    -53.5957E-03     106.984E-03    -53.3883E-03     40.7462E-03    -53.6227E-03     106.377E-03    -53.2522E-03     40.5755E-03
             582     5.12019E-03     77.4862E-03    -48.4480E+06    -144.292E+06    -23.8877E+06     877.806E+03    -53.7039E-03     107.096E-03    -53.3925E-03     48.1188E-03    -53.7509E-03     106.528E-03    -53.2325E-03     47.8985E-03
             583     5.97344E-03     77.5378E-03    -44.2901E+06    -135.964E+06    -15.9262E+06     853.370E+03    -53.8681E-03     107.264E-03    -53.3955E-03     55.1555E-03    -53.9406E-03     106.742E-03    -53.2138E-03     54.8778E-03
             584     6.82704E-03     77.5966E-03    -40.3523E+06    -127.140E+06    -9.27422E+06     924.623E+03    -54.0405E-03     107.436E-03    -53.3951E-03     61.8166E-03    -54.1455E-03     106.973E-03    -53.1986E-03     61.4752E-03
             585     7.68047E-03     77.6615E-03    -36.6622E+06    -117.069E+06    -4.62720E+06     996.598E+03    -54.1718E-03     107.555E-03    -53.3834E-03     68.0478E-03    -54.3180E-03     107.169E-03    -53.1837E-03     67.6345E-03
             586     8.53387E-03     77.7325E-03    -33.2631E+06    -103.177E+06    -2.41245E+06     1.10391E+06    -54.2922E-03     107.645E-03    -53.3524E-03     73.9472E-03    -54.4941E-03     107.369E-03    -53.1666E-03     73.4540E-03
             587     9.38778E-03     77.8092E-03    -30.2939E+06    -86.9648E+06    -294.888E+03     1.21238E+06    -54.4512E-03     107.770E-03    -53.3191E-03     79.3371E-03    -54.7282E-03     107.632E-03    -53.1506E-03     78.7533E-03
             588     10.2409E-03     77.8909E-03    -27.7209E+06    -68.4450E+06     1.10268E+06     1.26715E+06    -54.5367E-03     107.818E-03    -53.2814E-03     84.1152E-03    -54.9099E-03     107.847E-03    -53.1364E-03     83.4318E-03
             589     11.0948E-03     77.9770E-03    -25.1744E+06    -42.5486E+06     2.98666E+06     1.36394E+06    -54.5180E-03     107.750E-03    -53.2324E-03     88.8560E-03    -55.0252E-03     108.009E-03    -53.1193E-03     88.0637E-03
             590     11.9484E-03     78.0681E-03    -23.0000E+06     -6.6284E+06      6.6335E+06     1.19770E+06    -54.5468E-03     107.720E-03    -53.1733E-03     95.3701E-03    -55.2544E-03     108.303E-03    -53.0972E-03     94.4525E-03
             591     12.8024E-03     78.1668E-03    -21.3001E+06     54.0499E+06     10.1003E+06     1.24277E+06    -54.6865E-03     107.762E-03    -53.0760E-03     104.609E-03    -55.7101E-03     108.873E-03    -53.0730E-03     103.556E-03
             592     13.6558E-03     78.2764E-03    -18.4102E+06     104.414E+06     33.6610E+06     1.57731E+06    -54.7008E-03     107.789E-03    -53.0884E-03     113.577E-03    -56.0686E-03     109.365E-03    -53.0448E-03     112.457E-03
             593     14.5104E-03     78.3938E-03    -14.2014E+06     117.882E+06     66.5588E+06     1.27570E+06    -54.3091E-03     107.504E-03    -53.1954E-03     110.057E-03    -55.8078E-03     109.178E-03    -53.0129E-03     109.006E-03
             594     15.3632E-03     78.4957E-03    -9.96333E+06     126.638E+06     85.0461E+06     763.514E+03    -54.0497E-03     107.293E-03    -53.2432E-03     104.057E-03    -55.6016E-03     109.012E-03    -52.9872E-03     103.135E-03
             595     16.2177E-03     78.6011E-03    -4.75710E+06     128.295E+06     89.4747E+06     172.850E+03    -53.2650E-03     106.500E-03    -53.2349E-03     76.2635E-03    -54.3915E-03     107.805E-03    -52.9666E-03     75.6160E-03
             596     853.358E-06     78.3954E-03    -64.8274E+06    -177.623E+06    -63.5847E+06     277.801E+03    -53.3542E-03     106.608E-03    -53.2540E-03     9.26275E-03    -53.3300E-03     105.908E-03    -53.2204E-03     9.23218E-03
             597     1.70660E-03     78.4088E-03    -62.9225E+06    -174.104E+06    -57.9766E+06     446.893E+03    -53.4076E-03     106.732E-03    -53.3241E-03     17.0240E-03    -53.3904E-03     106.041E-03    -53.2703E-03     16.9650E-03
             598     2.55991E-03     78.4297E-03    -60.1033E+06    -168.832E+06    -49.8871E+06     662.378E+03    -53.4472E-03     106.806E-03    -53.3592E-03     25.1043E-03    -53.4410E-03     106.132E-03    -53.2767E-03     25.0136E-03
             599     3.41318E-03     78.4591E-03    -56.5716E+06    -161.390E+06    -40.8637E+06     774.562E+03    -53.4924E-03     106.870E-03    -53.3772E-03     33.0295E-03    -53.5012E-03     106.223E-03    -53.2655E-03     32.9017E-03
             600     4.26674E-03     78.4958E-03    -52.6284E+06    -152.701E+06    -32.1480E+06     905.761E+03    -53.5820E-03     106.966E-03    -53.3837E-03     40.7015E-03    -53.6088E-03     106.357E-03    -53.2467E-03     40.5315E-03
             601     5.12003E-03     78.5404E-03    -48.6351E+06    -144.455E+06    -24.0524E+06     904.387E+03    -53.7201E-03     107.108E-03    -53.3878E-03     48.0855E-03    -53.7676E-03     106.540E-03    -53.2281E-03     47.8653E-03
             602     5.97359E-03     78.5922E-03    -44.6416E+06    -136.279E+06    -16.4741E+06     804.749E+03    -53.8822E-03     107.275E-03    -53.3923E-03     55.1429E-03    -53.9552E-03     106.753E-03    -53.2124E-03     54.8645E-03
             603     6.82692E-03     78.6506E-03    -40.6387E+06    -127.427E+06    -9.65493E+06     926.922E+03    -54.0178E-03     107.410E-03    -53.3925E-03     61.8211E-03    -54.1231E-03     106.947E-03    -53.1970E-03     61.4801E-03
             604     7.68047E-03     78.7158E-03    -36.8402E+06    -117.196E+06    -4.76894E+06     952.069E+03    -54.1690E-03     107.549E-03    -53.3804E-03     68.0303E-03    -54.3157E-03     107.163E-03    -53.1809E-03     67.6164E-03
             605     8.53413E-03     78.7866E-03    -33.4911E+06    -103.523E+06    -2.62730E+06     1.00370E+06    -54.3221E-03     107.673E-03    -53.3511E-03     73.9022E-03    -54.5244E-03     107.397E-03    -53.1656E-03     73.4071E-03
             606     9.38738E-03     78.8635E-03    -30.5363E+06    -87.2751E+06    -498.681E+03     1.10445E+06    -54.4294E-03     107.748E-03    -53.3186E-03     79.3100E-03    -54.7065E-03     107.608E-03    -53.1503E-03     78.7255E-03
             607     10.2413E-03     78.9451E-03    -27.8308E+06    -68.8049E+06     1.04067E+06     1.14609E+06    -54.5108E-03     107.790E-03    -53.2796E-03     84.0724E-03    -54.8839E-03     107.817E-03    -53.1343E-03     83.3878E-03
             608     11.0946E-03     79.0312E-03    -25.5715E+06    -42.5936E+06     2.83833E+06     1.15757E+06    -54.5230E-03     107.753E-03    -53.2298E-03     88.7428E-03    -55.0314E-03     108.011E-03    -53.1168E-03     87.9480E-03
             609     11.9486E-03     79.1220E-03    -23.5034E+06    -7.04875E+06     6.38558E+06     1.35177E+06    -54.5960E-03     107.770E-03    -53.1737E-03     95.1768E-03    -55.3046E-03     108.351E-03    -53.0974E-03     94.2599E-03
             610     12.8021E-03     79.2212E-03    -21.3066E+06     53.3677E+06     9.81526E+06     1.46788E+06    -54.7479E-03     107.828E-03    -53.0800E-03     104.497E-03    -55.7702E-03     108.936E-03    -53.0774E-03     103.445E-03
             611     13.6560E-03     79.3308E-03    -18.7859E+06     104.668E+06     33.5943E+06     1.24012E+06    -54.7410E-03     107.837E-03    -53.0964E-03     113.251E-03    -56.1099E-03     109.414E-03    -53.0530E-03     112.125E-03
             612     14.5098E-03     79.4470E-03    -14.8465E+06     117.854E+06     65.6402E+06     1.24196E+06    -54.2245E-03     107.424E-03    -53.1995E-03     109.840E-03    -55.7263E-03     109.101E-03    -53.0206E-03     108.786E-03
             613     15.3649E-03     79.5510E-03    -9.11896E+06     127.774E+06     85.5041E+06     494.350E+03    -53.8402E-03     107.083E-03    -53.2429E-03     103.724E-03    -55.3921E-03     108.808E-03    -52.9875E-03     102.803E-03
             614     16.2185E-03     79.6544E-03    -4.97930E+06     129.157E+06     90.2049E+06     270.154E+03    -53.5342E-03     106.775E-03    -53.2404E-03     75.9152E-03    -54.6650E-03     108.085E-03    -52.9694E-03     75.2690E-03
             615     853.246E-06     79.4499E-03    -65.1249E+06    -178.210E+06    -63.8568E+06     268.972E+03    -53.3729E-03     106.693E-03    -53.3196E-03     9.28780E-03    -53.3490E-03     105.990E-03    -53.2860E-03     9.25696E-03
             616     1.70659E-03     79.4628E-03    -63.4029E+06    -174.778E+06    -58.4397E+06     485.694E+03    -53.3717E-03     106.722E-03    -53.3501E-03     17.0701E-03    -53.3553E-03     106.029E-03    -53.2969E-03     17.0117E-03
             617     2.55986E-03     79.4842E-03    -60.4901E+06    -169.529E+06    -50.4834E+06     772.065E+03    -53.4081E-03     106.770E-03    -53.3617E-03     25.1061E-03    -53.4020E-03     106.094E-03    -53.2806E-03     25.0171E-03
             618     3.41333E-03     79.5131E-03    -57.0660E+06    -161.761E+06    -41.7894E+06      944.39E+03    -53.4819E-03     106.852E-03    -53.3699E-03     33.0184E-03    -53.4912E-03     106.205E-03    -53.2615E-03     32.8929E-03
             619     4.26664E-03     79.5502E-03    -53.1645E+06    -152.974E+06    -32.8241E+06     882.863E+03    -53.6032E-03     106.983E-03    -53.3793E-03     40.6616E-03    -53.6313E-03     106.374E-03    -53.2446E-03     40.4911E-03
             620     5.12010E-03     79.5946E-03    -48.9908E+06    -144.645E+06    -24.3321E+06     903.311E+03    -53.7364E-03     107.125E-03    -53.3890E-03     48.0693E-03    -53.7850E-03     106.557E-03    -53.2299E-03     47.8491E-03
             621     5.97347E-03     79.6463E-03    -44.9282E+06    -136.337E+06    -16.5685E+06     823.222E+03    -53.8628E-03     107.257E-03    -53.3941E-03     55.1158E-03    -53.9370E-03     106.736E-03    -53.2141E-03     54.8377E-03
             622     6.82705E-03     79.7050E-03    -40.8627E+06    -127.875E+06    -9.76562E+06     808.885E+03    -54.0055E-03     107.398E-03    -53.3926E-03     61.7638E-03    -54.1111E-03     106.933E-03    -53.1968E-03     61.4212E-03
             623     7.68056E-03     79.7698E-03    -37.1587E+06    -117.334E+06    -5.02393E+06     948.864E+03    -54.1862E-03     107.566E-03    -53.3799E-03     68.0219E-03    -54.3339E-03     107.180E-03    -53.1810E-03     67.6080E-03
             624     8.53386E-03     79.8410E-03    -33.8234E+06    -103.764E+06    -2.83576E+06     875.884E+03    -54.3370E-03     107.690E-03    -53.3529E-03     73.8511E-03    -54.5404E-03     107.413E-03    -53.1676E-03     73.3538E-03
             625     9.38765E-03     79.9175E-03    -30.7833E+06    -87.7076E+06    -798.774E+03     956.723E+03    -54.4181E-03     107.738E-03    -53.3203E-03     79.2939E-03    -54.6955E-03     107.597E-03    -53.1525E-03     78.7073E-03
             626     10.2409E-03     79.9993E-03    -28.2038E+06    -68.9489E+06     824.158E+03     1.07042E+06    -54.5122E-03     107.793E-03    -53.2810E-03     84.0428E-03    -54.8865E-03     107.820E-03    -53.1361E-03     83.3573E-03
             627     11.0949E-03     80.0853E-03    -25.9762E+06    -43.0240E+06     2.45417E+06     1.23224E+06    -54.6033E-03     107.838E-03    -53.2342E-03     88.5925E-03    -55.1129E-03     108.095E-03    -53.1219E-03     87.7966E-03
             628     11.9482E-03     80.1763E-03    -23.9117E+06    -7.45938E+06     6.00917E+06     1.36230E+06    -54.6966E-03     107.881E-03    -53.1846E-03     95.1323E-03    -55.4070E-03     108.463E-03    -53.1090E-03     94.2126E-03
             629     12.8019E-03     80.2754E-03    -21.9926E+06     53.3029E+06     9.43427E+06     1.47449E+06    -54.7125E-03     107.805E-03    -53.0927E-03     104.405E-03    -55.7378E-03     108.914E-03    -53.0910E-03     103.353E-03
             630     13.6558E-03     80.3849E-03    -19.4627E+06     104.679E+06     32.8811E+06     1.50249E+06    -54.7789E-03     107.886E-03    -53.1069E-03     113.242E-03    -56.1522E-03     109.466E-03    -53.0661E-03     112.118E-03
             631     14.5096E-03     80.5018E-03    -15.0712E+06     118.657E+06     65.9830E+06     439.501E+03    -54.4229E-03     107.643E-03    -53.2201E-03     109.660E-03    -55.9319E-03     109.328E-03    -53.0404E-03     108.589E-03
             632     15.3630E-03     80.6038E-03    -9.79372E+06     127.695E+06     85.3698E+06     81.3381E+03    -53.8713E-03     107.141E-03    -53.2694E-03     103.462E-03    -55.4232E-03     108.864E-03    -53.0135E-03     102.535E-03
             633     16.2170E-03     80.7101E-03    -4.95457E+06     128.881E+06     89.8279E+06     750.569E+03    -53.0636E-03     106.316E-03    -53.2522E-03     76.3748E-03    -54.1889E-03     107.621E-03    -52.9828E-03     75.7410E-03
             634     853.262E-06     80.5040E-03    -65.6128E+06    -178.849E+06    -64.2408E+06     326.372E+03    -53.3742E-03     106.723E-03    -53.3488E-03     9.34399E-03    -53.3512E-03     106.019E-03    -53.3155E-03     9.31383E-03
             635     1.70651E-03     80.5173E-03    -63.7332E+06    -175.391E+06    -58.9134E+06     542.588E+03    -53.3411E-03     106.697E-03    -53.3556E-03     17.0542E-03    -53.3248E-03     106.002E-03    -53.3035E-03     16.9967E-03
             636     2.55997E-03     80.5381E-03    -61.0022E+06    -170.365E+06    -51.1538E+06     807.371E+03    -53.4019E-03     106.759E-03    -53.3572E-03     25.0932E-03    -53.3961E-03     106.080E-03    -53.2775E-03     25.0046E-03
             637     3.41326E-03     80.5675E-03    -57.3774E+06    -162.138E+06    -42.2906E+06     954.390E+03    -53.5068E-03     106.875E-03    -53.3681E-03     32.9877E-03    -53.5164E-03     106.228E-03    -53.2612E-03     32.8622E-03
             638     4.26666E-03     80.6043E-03    -53.4447E+06    -153.116E+06    -33.3329E+06     887.612E+03    -53.6142E-03     106.995E-03    -53.3811E-03     40.6585E-03    -53.6427E-03     106.387E-03    -53.2483E-03     40.4880E-03
             639     5.12004E-03     80.6489E-03    -49.3125E+06    -144.965E+06    -24.6983E+06     716.432E+03    -53.7340E-03     107.126E-03    -53.3922E-03     48.0458E-03    -53.7832E-03     106.557E-03    -53.2340E-03     47.8232E-03
             640     5.97351E-03     80.7006E-03    -45.0669E+06    -136.459E+06    -16.6556E+06     788.825E+03    -53.8659E-03     107.264E-03    -53.3978E-03     55.0858E-03    -53.9405E-03     106.742E-03    -53.2178E-03     54.8073E-03
             641     6.82694E-03     80.7590E-03    -41.1854E+06    -128.051E+06    -9.91590E+06     826.294E+03    -54.0216E-03     107.419E-03    -53.3973E-03     61.7191E-03    -54.1284E-03     106.954E-03    -53.2014E-03     61.3765E-03
             642     7.68040E-03     80.8241E-03    -37.3360E+06    -117.621E+06    -5.33277E+06     818.678E+03    -54.1728E-03     107.556E-03    -53.3836E-03     68.0210E-03    -54.3205E-03     107.169E-03    -53.1856E-03     67.6055E-03
             643     8.53405E-03     80.8952E-03    -33.9185E+06    -103.833E+06    -3.10723E+06     853.417E+03    -54.3204E-03     107.675E-03    -53.3543E-03     73.8584E-03    -54.5237E-03     107.398E-03    -53.1701E-03     73.3612E-03
             644     9.38740E-03     80.9716E-03    -31.0446E+06    -88.1348E+06    -1.22565E+06     867.083E+03    -54.4589E-03     107.782E-03    -53.3226E-03     79.2319E-03    -54.7366E-03     107.640E-03    -53.1559E-03     78.6432E-03
             645     10.2413E-03     81.0536E-03    -28.4731E+06    -69.1985E+06     319.214E+03     1.07355E+06    -54.5466E-03     107.832E-03    -53.2857E-03     84.0373E-03    -54.9209E-03     107.859E-03    -53.1425E-03     83.3517E-03
             646     11.0944E-03     81.1396E-03    -26.1700E+06    -43.6685E+06     1.97861E+06     1.23528E+06    -54.6421E-03     107.884E-03    -53.2416E-03     88.7276E-03    -55.1517E-03     108.140E-03    -53.1304E-03     87.9309E-03
             647     11.9482E-03     81.2306E-03    -24.1031E+06    -7.71881E+06     5.54365E+06     1.50894E+06    -54.6890E-03     107.881E-03    -53.1915E-03     95.2414E-03    -55.3994E-03     108.462E-03    -53.1177E-03     94.3243E-03
             648     12.8017E-03     81.3297E-03    -22.0928E+06     53.6124E+06     9.33131E+06     1.53178E+06    -54.7070E-03     107.806E-03    -53.0990E-03     104.578E-03    -55.7333E-03     108.917E-03    -53.0981E-03     103.528E-03
             649     13.6556E-03     81.4389E-03    -18.8691E+06     104.802E+06     33.1325E+06     1.00279E+06    -54.7880E-03     107.901E-03    -53.1129E-03     113.610E-03    -56.1596E-03     109.481E-03    -53.0718E-03     112.479E-03
             650     14.5095E-03     81.5563E-03    -14.9307E+06     119.323E+06     66.6986E+06     855.224E+03    -54.4350E-03     107.662E-03    -53.2267E-03     110.259E-03    -55.9424E-03     109.346E-03    -53.0446E-03     109.198E-03
             651     15.3632E-03     81.6588E-03    -11.1023E+06     126.879E+06     84.7558E+06     1.15343E+06    -53.8405E-03     107.111E-03    -53.2705E-03     104.343E-03    -55.3945E-03     108.830E-03    -53.0146E-03     103.434E-03
             652     16.2178E-03     81.7629E-03    -4.78428E+06     128.797E+06     89.6984E+06     224.703E+03    -52.7582E-03     106.000E-03    -53.2417E-03     76.8449E-03    -53.8831E-03     107.305E-03    -52.9731E-03     76.2080E-03
             653     853.222E-06     81.5587E-03    -66.0311E+06    -179.591E+06    -64.9392E+06     261.300E+03    -53.3583E-03     106.670E-03    -53.3121E-03     9.28474E-03    -53.3353E-03     105.964E-03    -53.2807E-03     9.25370E-03
             654     1.70663E-03     81.5711E-03    -64.3121E+06    -176.217E+06    -59.5026E+06     596.135E+03    -53.3662E-03     106.706E-03    -53.3397E-03     17.0512E-03    -53.3506E-03     106.009E-03    -53.2885E-03     16.9944E-03
             655     2.55989E-03     81.5926E-03    -61.3442E+06    -170.840E+06    -51.3915E+06     751.949E+03    -53.4406E-03     106.799E-03    -53.3588E-03     25.0880E-03    -53.4356E-03     106.119E-03    -53.2790E-03     24.9986E-03
             656     3.41325E-03     81.6215E-03    -57.6948E+06    -162.604E+06    -42.6507E+06     769.328E+03    -53.5114E-03     106.886E-03    -53.3750E-03     32.9663E-03    -53.5215E-03     106.238E-03    -53.2688E-03     32.8383E-03
             657     4.26663E-03     81.6587E-03    -53.5999E+06    -153.348E+06    -33.7404E+06     705.557E+03    -53.6103E-03     106.996E-03    -53.3860E-03     40.6516E-03    -53.6386E-03     106.388E-03    -53.2546E-03     40.4788E-03
             658     5.12000E-03     81.7030E-03    -49.4989E+06    -145.031E+06    -25.1421E+06     681.417E+03    -53.7333E-03     107.129E-03    -53.3952E-03     48.0255E-03    -53.7827E-03     106.560E-03    -53.2389E-03     47.8023E-03
             659     5.97347E-03     81.7548E-03    -45.5079E+06    -136.784E+06    -17.2763E+06     684.924E+03    -53.8735E-03     107.274E-03    -53.4005E-03     55.0764E-03    -53.9489E-03     106.752E-03    -53.2226E-03     54.7965E-03
             660     6.82691E-03     81.8133E-03    -41.3193E+06    -128.094E+06    -10.3342E+06     669.696E+03    -54.0322E-03     107.433E-03    -53.4007E-03     61.7586E-03    -54.1389E-03     106.968E-03    -53.2067E-03     61.4139E-03
             661     7.68042E-03     81.8783E-03    -37.4725E+06    -117.838E+06    -5.76899E+06     663.134E+03    -54.1627E-03     107.549E-03    -53.3867E-03     67.9977E-03    -54.3101E-03     107.162E-03    -53.1904E-03     67.5802E-03
             662     8.53393E-03     81.9493E-03    -34.0734E+06    -104.146E+06    -3.57708E+06     768.898E+03    -54.3200E-03     107.676E-03    -53.3564E-03     73.8784E-03    -54.5228E-03     107.399E-03    -53.1739E-03     73.3805E-03
             663     9.38753E-03     82.0261E-03    -31.1019E+06    -88.2383E+06    -1.52535E+06     798.150E+03    -54.4869E-03     107.813E-03    -53.3258E-03     79.2605E-03    -54.7643E-03     107.671E-03    -53.1604E-03     78.6707E-03
             664     10.2407E-03     82.1076E-03    -28.4091E+06    -69.8650E+06    -111.514E+03     939.287E+03    -54.5519E-03     107.842E-03    -53.2897E-03     84.0770E-03    -54.9244E-03     107.866E-03    -53.1478E-03     83.3896E-03
             665     11.0948E-03     82.1939E-03    -26.0110E+06    -43.8423E+06     1.75625E+06     1.19172E+06    -54.5597E-03     107.802E-03    -53.2420E-03     88.9191E-03    -55.0675E-03     108.056E-03    -53.1319E-03     88.1245E-03
             666     11.9480E-03     82.2851E-03    -23.6639E+06    -8.33985E+06     5.30525E+06     1.44788E+06    -54.5769E-03     107.761E-03    -53.1842E-03     95.3977E-03    -55.2829E-03     108.338E-03    -53.1113E-03     94.4833E-03
             667     12.8021E-03     82.3836E-03    -21.0706E+06     53.4731E+06     9.42497E+06     1.23899E+06    -54.7197E-03     107.807E-03    -53.0875E-03     104.944E-03    -55.7414E-03     108.917E-03    -53.0874E-03     103.891E-03
             668     13.6558E-03     82.4937E-03    -18.7052E+06     105.365E+06     33.7101E+06     1.20110E+06    -54.7594E-03     107.862E-03    -53.1029E-03     113.834E-03    -56.1306E-03     109.443E-03    -53.0601E-03     112.708E-03
             669     14.5097E-03     82.6101E-03    -15.5658E+06     118.636E+06     65.7396E+06     1.73760E+06    -54.1837E-03     107.388E-03    -53.2040E-03     110.430E-03    -55.6899E-03     109.069E-03    -53.0248E-03     109.387E-03
             670     15.3644E-03     82.7130E-03    -10.1692E+06     127.696E+06     84.7980E+06     1.19785E+06    -53.7663E-03     107.007E-03    -53.2403E-03     104.111E-03    -55.3188E-03     108.730E-03    -52.9867E-03     103.202E-03
             671     16.2181E-03     82.8170E-03    -4.12777E+06     129.759E+06     90.6781E+06    -348.289E+03    -53.1602E-03     106.388E-03    -53.2274E-03     76.1241E-03    -54.2865E-03     107.697E-03    -52.9562E-03     75.4716E-03
             672     853.395E-06     82.6123E-03    -66.8842E+06    -180.472E+06    -65.3435E+06     293.046E+03    -53.3521E-03     106.635E-03    -53.2825E-03     9.25660E-03    -53.3316E-03     105.926E-03    -53.2506E-03     9.22609E-03
             673     1.70662E-03     82.6258E-03    -64.7305E+06    -176.774E+06    -59.8467E+06     487.402E+03    -53.4074E-03     106.742E-03    -53.3344E-03     17.0246E-03    -53.3926E-03     106.043E-03    -53.2834E-03     16.9663E-03
             674     2.55988E-03     82.6467E-03    -61.8226E+06    -171.423E+06    -51.8201E+06     665.599E+03    -53.4529E-03     106.819E-03    -53.3659E-03     25.0693E-03    -53.4488E-03     106.137E-03    -53.2868E-03     24.9787E-03
             675     3.41321E-03     82.6759E-03    -58.1973E+06    -162.639E+06    -43.3931E+06     595.321E+03    -53.5140E-03     106.894E-03    -53.3802E-03     32.9724E-03    -53.5254E-03     106.248E-03    -53.2770E-03     32.8422E-03
             676     4.26656E-03     82.7128E-03    -54.3045E+06    -153.499E+06    -34.8856E+06     422.731E+03    -53.6043E-03     106.992E-03    -53.3881E-03     40.6495E-03    -53.6343E-03     106.386E-03    -53.2612E-03     40.4731E-03
             677     5.12004E-03     82.7573E-03    -50.1050E+06    -145.309E+06    -26.2405E+06     435.286E+03    -53.7303E-03     107.126E-03    -53.3959E-03     48.0281E-03    -53.7807E-03     106.559E-03    -53.2437E-03     47.8019E-03
             678     5.97340E-03     82.8090E-03    -45.6642E+06    -136.810E+06    -17.9892E+06     383.969E+03    -53.8763E-03     107.278E-03    -53.4014E-03     55.0848E-03    -53.9514E-03     106.757E-03    -53.2268E-03     54.8011E-03
             679     6.82692E-03     82.8675E-03    -41.5259E+06    -128.375E+06    -10.9725E+06     362.967E+03    -54.0166E-03     107.418E-03    -53.4011E-03     61.7584E-03    -54.1230E-03     106.953E-03    -53.2096E-03     61.4101E-03
             680     7.68038E-03     82.9325E-03    -37.6287E+06    -117.976E+06    -6.18112E+06     435.199E+03    -54.1792E-03     107.567E-03    -53.3876E-03     68.0057E-03    -54.3266E-03     107.180E-03    -53.1928E-03     67.5852E-03
             681     8.53390E-03     83.0034E-03    -34.0596E+06    -104.448E+06    -3.93856E+06     450.228E+03    -54.3255E-03     107.684E-03    -53.3582E-03     73.9411E-03    -54.5274E-03     107.405E-03    -53.1771E-03     73.4389E-03
             682     9.38736E-03     83.0803E-03    -30.9411E+06    -88.4597E+06    -1.75291E+06     623.504E+03    -54.4293E-03     107.754E-03    -53.3250E-03     79.3601E-03    -54.7049E-03     107.611E-03    -53.1606E-03     78.7695E-03
             683     10.2412E-03     83.1619E-03    -28.2595E+06    -70.3042E+06    -326.412E+03     688.079E+03    -54.5185E-03     107.803E-03    -53.2849E-03     84.2051E-03    -54.8898E-03     107.826E-03    -53.1436E-03     83.5147E-03
             684     11.0943E-03     83.2481E-03    -25.7361E+06    -44.2349E+06     1.52260E+06     971.913E+03    -54.4763E-03     107.708E-03    -53.2322E-03     88.9656E-03    -54.9809E-03     107.960E-03    -53.1231E-03     88.1703E-03
             685     11.9487E-03     83.3390E-03    -23.2367E+06    -8.67829E+06     5.30979E+06     981.597E+03    -54.5316E-03     107.703E-03    -53.1711E-03     95.3900E-03    -55.2350E-03     108.277E-03    -53.0983E-03     94.4701E-03
             686     12.8022E-03     83.4379E-03    -21.4511E+06     52.7385E+06     8.78081E+06     1.29983E+06    -54.6853E-03     107.756E-03    -53.0711E-03     104.887E-03    -55.7065E-03     108.863E-03    -53.0726E-03     103.835E-03
             687     13.6561E-03     83.5480E-03    -19.5195E+06     104.944E+06     32.3829E+06     2.14072E+06    -54.6522E-03     107.733E-03    -53.0805E-03     113.592E-03    -56.0238E-03     109.314E-03    -53.0424E-03     112.481E-03
             688     14.5104E-03     83.6638E-03    -15.0668E+06     119.441E+06     65.5056E+06     1.34756E+06    -54.2667E-03     107.451E-03    -53.1846E-03     110.101E-03    -55.7756E-03     109.141E-03    -53.0084E-03     109.048E-03
             689     15.3641E-03     83.7672E-03    -8.99355E+06     129.256E+06     85.8153E+06    -260.846E+03    -53.9358E-03     107.170E-03    -53.2342E-03     103.765E-03    -55.4916E-03     108.904E-03    -52.9795E-03     102.829E-03
             690     16.2180E-03     83.8714E-03    -4.39249E+06     129.918E+06     90.5101E+06    -103.698E+03    -53.4261E-03     106.658E-03    -53.2323E-03     75.9213E-03    -54.5542E-03     107.970E-03    -52.9618E-03     75.2685E-03
             691     853.280E-06     83.6670E-03    -67.0440E+06    -180.947E+06    -65.7923E+06     222.203E+03    -53.3835E-03     106.690E-03    -53.3063E-03     9.28157E-03    -53.3624E-03     105.979E-03    -53.2757E-03     9.25028E-03
             692     1.70650E-03     83.6798E-03    -65.1014E+06    -177.295E+06    -60.2356E+06     251.404E+03    -53.3980E-03     106.752E-03    -53.3543E-03     17.0181E-03    -53.3838E-03     106.052E-03    -53.3040E-03     16.9566E-03
             693     2.55989E-03     83.7011E-03    -61.9118E+06    -171.845E+06    -52.2330E+06     386.946E+03    -53.4436E-03     106.818E-03    -53.3745E-03     25.0603E-03    -53.4387E-03     106.135E-03    -53.2967E-03     24.9661E-03
             694     3.41319E-03     83.7301E-03    -58.1086E+06    -162.692E+06    -43.5556E+06     373.421E+03    -53.5111E-03     106.896E-03    -53.3849E-03     32.9613E-03    -53.5218E-03     106.249E-03    -53.2825E-03     32.8282E-03
             695     4.26660E-03     83.7671E-03    -54.0969E+06    -153.266E+06    -34.7769E+06     213.199E+03    -53.6064E-03     106.999E-03    -53.3921E-03     40.6531E-03    -53.6358E-03     106.393E-03    -53.2653E-03     40.4741E-03
             696     5.11993E-03     83.8115E-03    -49.9205E+06    -145.468E+06    -26.4361E+06    -26.4130E+03    -53.7288E-03     107.127E-03    -53.3982E-03     48.0402E-03    -53.7777E-03     106.559E-03    -53.2471E-03     47.8081E-03
             697     5.97347E-03     83.8632E-03    -45.7842E+06    -137.001E+06    -18.6542E+06     5.73361E+03    -53.8632E-03     107.263E-03    -53.4002E-03     55.1036E-03    -53.9376E-03     106.743E-03    -53.2284E-03     54.8153E-03
             698     6.82684E-03     83.9217E-03    -41.6591E+06    -128.420E+06    -11.4818E+06     32.1097E+03    -54.0120E-03     107.411E-03    -53.3990E-03     61.7785E-03    -54.1183E-03     106.947E-03    -53.2098E-03     61.4260E-03
             699     7.68044E-03     83.9867E-03    -37.6930E+06    -118.212E+06    -6.65433E+06    -25.9077E+03    -54.1687E-03     107.554E-03    -53.3848E-03     68.0707E-03    -54.3154E-03     107.166E-03    -53.1920E-03     67.6444E-03
             700     8.53387E-03     84.0578E-03    -34.1528E+06    -104.662E+06    -4.31684E+06     115.677E+03    -54.3119E-03     107.666E-03    -53.3545E-03     73.9769E-03    -54.5134E-03     107.388E-03    -53.1748E-03     73.4705E-03
             701     9.38756E-03     84.1343E-03    -30.9435E+06    -88.8380E+06    -2.13537E+06     181.941E+03    -54.3953E-03     107.715E-03    -53.3194E-03     79.3535E-03    -54.6698E-03     107.570E-03    -53.1564E-03     78.7575E-03
             702     10.2410E-03     84.2162E-03    -28.1091E+06    -70.5394E+06    -557.302E+03     389.546E+03    -54.4407E-03     107.716E-03    -53.2754E-03     84.1565E-03    -54.8102E-03     107.737E-03    -53.1352E-03     83.4635E-03
             703     11.0951E-03     84.3022E-03    -25.7120E+06    -44.8265E+06     1.15527E+06     584.739E+03    -54.5002E-03     107.722E-03    -53.2215E-03     88.8014E-03    -55.0037E-03     107.971E-03    -53.1134E-03     87.9995E-03
             704     11.9484E-03     84.3929E-03    -23.7318E+06    -9.40948E+06     4.70472E+06     819.968E+03    -54.6320E-03     107.798E-03    -53.1656E-03     95.3273E-03    -55.3375E-03     108.372E-03    -53.0940E-03     94.4016E-03
             705     12.8021E-03     84.4924E-03    -21.7898E+06     51.6405E+06     8.07633E+06     1.68544E+06    -54.6585E-03     107.728E-03    -53.0692E-03     104.524E-03    -55.6779E-03     108.830E-03    -53.0721E-03     103.477E-03
             706     13.6563E-03     84.6014E-03    -18.3915E+06     105.027E+06     32.1959E+06     1.68639E+06    -54.6742E-03     107.753E-03    -53.0783E-03     113.165E-03    -56.0397E-03     109.332E-03    -53.0430E-03     112.046E-03
             707     14.5100E-03     84.7185E-03    -13.4710E+06     121.340E+06      66.787E+06     444.955E+03    -54.3687E-03     107.560E-03    -53.1910E-03     109.842E-03    -55.8741E-03     109.254E-03    -53.0135E-03     108.773E-03
             708     15.3638E-03     84.8213E-03    -8.74218E+06     129.949E+06     86.4744E+06    -180.685E+03    -54.0424E-03     107.289E-03    -53.2470E-03     103.819E-03    -55.5991E-03     109.026E-03    -52.9904E-03     102.885E-03
             709     16.2178E-03     84.9258E-03    -5.21854E+06     129.517E+06     89.5686E+06     593.334E+03    -53.4507E-03     106.694E-03    -53.2428E-03     76.1741E-03    -54.5823E-03     108.007E-03    -52.9752E-03     75.5313E-03
             710     853.199E-06     84.7210E-03    -67.0634E+06    -181.064E+06    -65.9434E+06    -86.6010E+03    -53.3536E-03     106.736E-03    -53.3820E-03     9.31378E-03    -53.3322E-03     106.025E-03    -53.3519E-03     9.27835E-03
             711     1.70660E-03     84.7343E-03    -64.9552E+06    -177.461E+06    -60.4427E+06    -67.1807E+03    -53.3882E-03     106.758E-03    -53.3694E-03     17.0548E-03    -53.3728E-03     106.057E-03    -53.3201E-03     16.9893E-03
             712     2.55980E-03     84.7552E-03    -61.8950E+06    -172.108E+06    -52.4906E+06    -113.381E+03    -53.4410E-03     106.822E-03    -53.3810E-03     25.0541E-03    -53.4353E-03     106.138E-03    -53.3042E-03     24.9535E-03
             713     3.41319E-03     84.7845E-03    -58.1670E+06    -162.770E+06    -44.0436E+06    -68.5622E+03    -53.5019E-03     106.889E-03    -53.3866E-03     32.9640E-03    -53.5120E-03     106.242E-03    -53.2865E-03     32.8252E-03
             714     4.26654E-03     84.8212E-03    -53.9977E+06    -152.995E+06    -35.1980E+06    -239.198E+03    -53.6042E-03     106.995E-03    -53.3912E-03     40.6575E-03    -53.6329E-03     106.391E-03    -53.2671E-03     40.4727E-03
             715     5.12003E-03     84.8658E-03    -49.8362E+06    -145.388E+06    -26.7617E+06    -352.265E+03    -53.7253E-03     107.123E-03    -53.3973E-03     48.0348E-03    -53.7735E-03     106.555E-03    -53.2480E-03     47.7986E-03
             716     5.97336E-03     84.9173E-03    -45.7338E+06    -137.010E+06    -19.0409E+06    -318.662E+03    -53.8494E-03     107.247E-03    -53.3978E-03     55.0903E-03    -53.9230E-03     106.727E-03    -53.2280E-03     54.7977E-03
             717     6.82701E-03     84.9760E-03    -41.6857E+06    -128.368E+06    -12.1172E+06    -395.375E+03    -54.0013E-03     107.395E-03    -53.3938E-03     61.7876E-03    -54.1068E-03     106.932E-03    -53.2078E-03     61.4297E-03
             718     7.68036E-03     85.0409E-03    -37.8374E+06    -118.417E+06    -7.27004E+06    -454.516E+03    -54.1616E-03     107.541E-03    -53.3793E-03     68.0645E-03    -54.3079E-03     107.154E-03    -53.1891E-03     67.6325E-03
             719     8.53405E-03     85.1119E-03    -34.2290E+06    -104.868E+06    -4.90155E+06    -411.908E+03    -54.2891E-03     107.637E-03    -53.3480E-03     73.9389E-03    -54.4898E-03     107.358E-03    -53.1709E-03     73.4258E-03
             720     9.38744E-03     85.1886E-03    -31.0629E+06    -89.0634E+06    -2.70969E+06    -280.613E+03    -54.3987E-03     107.711E-03    -53.3126E-03     79.3099E-03    -54.6730E-03     107.567E-03    -53.1520E-03     78.7073E-03
             721     10.2413E-03     85.2701E-03    -28.2620E+06    -70.9465E+06    -1.12913E+06    -66.0609E+03    -54.4904E-03     107.762E-03    -53.2717E-03     84.0389E-03    -54.8593E-03     107.782E-03    -53.1335E-03     83.3389E-03
             722     11.0946E-03     85.3562E-03    -25.7977E+06    -45.4280E+06     633.420E+03     302.303E+03    -54.5756E-03     107.799E-03    -53.2236E-03     88.6411E-03    -55.0787E-03     108.048E-03    -53.1172E-03     87.8331E-03
             723     11.9485E-03     85.4474E-03    -23.6462E+06    -10.3277E+06     4.15409E+06      937.36E+03    -54.6522E-03     107.824E-03    -53.1714E-03     95.2059E-03    -55.3548E-03     108.394E-03    -53.1014E-03     94.2815E-03
             724     12.8021E-03     85.5463E-03    -21.0856E+06     51.4138E+06     8.15200E+06     1.11476E+06    -54.7450E-03     107.824E-03    -53.0795E-03     104.415E-03    -55.7614E-03     108.925E-03    -53.0827E-03     103.358E-03
             725     13.6557E-03     85.6557E-03    -17.6356E+06     105.526E+06     32.9991E+06     382.893E+03    -54.7941E-03     107.891E-03    -53.0970E-03     113.173E-03    -56.1597E-03     109.473E-03    -53.0595E-03     112.032E-03
             726     14.5096E-03     85.7728E-03    -13.6880E+06     121.633E+06     67.1624E+06     403.525E+03    -54.3822E-03     107.595E-03    -53.2123E-03     109.834E-03    -55.8881E-03     109.289E-03    -53.0331E-03     108.765E-03
             727     15.3640E-03     85.8753E-03    -9.85721E+06     129.142E+06     85.5306E+06     1.26140E+06    -53.9995E-03     107.262E-03    -53.2627E-03     103.791E-03    -55.5529E-03     108.991E-03    -53.0080E-03     102.880E-03
             728     16.2173E-03     85.9812E-03    -5.45677E+06     129.662E+06     89.2969E+06     1.06042E+06    -53.1882E-03     106.438E-03    -53.2502E-03     76.2153E-03    -54.3164E-03     107.749E-03    -52.9838E-03     75.5845E-03
             729     853.297E-06     85.7754E-03    -66.8120E+06    -180.711E+06    -65.4550E+06    -123.995E+03    -53.3694E-03     106.748E-03    -53.3789E-03     9.27883E-03    -53.3479E-03     106.038E-03    -53.3473E-03     9.24278E-03
             730     1.70647E-03     85.7885E-03    -64.9148E+06    -177.269E+06    -60.1910E+06    -503.031E+03    -53.3918E-03     106.767E-03    -53.3756E-03     17.0522E-03    -53.3768E-03     106.067E-03    -53.3254E-03     16.9811E-03
             731     2.55986E-03     85.8096E-03    -61.8195E+06    -172.062E+06    -52.4278E+06    -524.698E+03    -53.4353E-03     106.820E-03    -53.3847E-03     25.0425E-03    -53.4294E-03     106.136E-03    -53.3077E-03     24.9365E-03
             732     3.41317E-03     85.8386E-03    -58.1780E+06    -162.647E+06    -44.4725E+06    -649.183E+03    -53.5077E-03     106.894E-03    -53.3867E-03     32.9608E-03    -53.5175E-03     106.249E-03    -53.2888E-03     32.8145E-03
             733     4.26659E-03     85.8756E-03    -54.3251E+06    -152.908E+06    -36.2333E+06    -719.860E+03    -53.5977E-03     106.986E-03    -53.3884E-03     40.6379E-03    -53.6267E-03     106.385E-03    -53.2691E-03     40.4469E-03
             734     5.11992E-03     85.9199E-03    -50.2364E+06    -145.270E+06    -27.3381E+06    -807.764E+03    -53.7134E-03     107.109E-03    -53.3952E-03     48.0143E-03    -53.7629E-03     106.543E-03    -53.2484E-03     47.7721E-03
             735     5.97350E-03     85.9716E-03    -45.9972E+06    -136.999E+06    -19.5732E+06    -849.576E+03    -53.8544E-03     107.250E-03    -53.3955E-03     55.0629E-03    -53.9286E-03     106.731E-03    -53.2280E-03     54.7633E-03
             736     6.82683E-03     86.0300E-03    -41.8659E+06    -128.272E+06    -12.8329E+06    -776.345E+03    -53.9974E-03     107.388E-03    -53.3906E-03     61.7484E-03    -54.1030E-03     106.927E-03    -53.2081E-03     61.3853E-03
             737     7.68053E-03     86.0951E-03    -37.9702E+06    -118.195E+06    -7.91328E+06    -954.020E+03    -54.1480E-03     107.523E-03    -53.3755E-03     68.0326E-03    -54.2943E-03     107.138E-03    -53.1886E-03     67.5941E-03
             738     8.53385E-03     86.1660E-03    -34.4247E+06    -105.074E+06    -5.70092E+06    -1.05425E+06    -54.2883E-03     107.632E-03    -53.3436E-03     73.8852E-03    -54.4887E-03     107.354E-03    -53.1699E-03     73.3634E-03
             739     9.38769E-03     86.2427E-03    -31.2084E+06    -89.2835E+06    -3.40465E+06    -866.301E+03    -54.4323E-03     107.743E-03    -53.3104E-03     79.2533E-03    -54.7060E-03     107.598E-03    -53.1527E-03     78.6425E-03
             740     10.2410E-03     86.3244E-03    -28.3371E+06    -71.4655E+06    -1.76031E+06    -628.849E+03    -54.5796E-03     107.855E-03    -53.2753E-03     84.0098E-03    -54.9478E-03     107.874E-03    -53.1394E-03     83.3006E-03
             741     11.0946E-03     86.4105E-03    -25.7259E+06    -46.1876E+06    -45.0057E+03    -152.039E+03    -54.6067E-03     107.838E-03    -53.2311E-03     88.7232E-03    -55.1078E-03     108.084E-03    -53.1271E-03     87.9088E-03
             742     11.9481E-03     86.5014E-03    -23.0305E+06    -11.1427E+06     3.81641E+06     411.960E+03    -54.6317E-03     107.811E-03    -53.1792E-03     95.2734E-03    -55.3295E-03     108.376E-03    -53.1106E-03     94.3431E-03
             743     12.8019E-03     86.6006E-03    -20.5536E+06     51.5979E+06     7.94091E+06     391.393E+03    -54.7614E-03     107.846E-03    -53.0849E-03     104.684E-03    -55.7757E-03     108.948E-03    -53.0902E-03     103.619E-03
             744     13.6557E-03     86.7103E-03    -18.3866E+06     105.870E+06     32.8031E+06     401.582E+03    -54.8525E-03     107.958E-03    -53.1051E-03     113.437E-03    -56.2228E-03     109.543E-03    -53.0679E-03     112.297E-03
             745     14.5096E-03     86.8265E-03    -15.3564E+06     120.243E+06     65.8196E+06     1.24842E+06    -54.4727E-03     107.694E-03    -53.2216E-03     110.190E-03    -55.9865E-03     109.390E-03    -53.0446E-03     109.130E-03
             746     15.3628E-03     86.9305E-03    -10.3994E+06     128.665E+06     84.5008E+06     1.68719E+06    -53.8407E-03     107.108E-03    -53.2674E-03     104.110E-03    -55.3950E-03     108.837E-03    -53.0164E-03     103.206E-03
             747     16.2177E-03     87.0341E-03    -4.75676E+06     130.717E+06      89.979E+06     788.422E+03    -52.9934E-03     106.242E-03    -53.2491E-03     76.4311E-03    -54.1194E-03     107.555E-03    -52.9818E-03     75.7994E-03
             748     853.206E-06     86.8298E-03    -66.2014E+06    -180.294E+06    -65.3498E+06    -431.298E+03    -53.4273E-03     106.752E-03    -53.3251E-03     9.28282E-03    -53.4036E-03     106.043E-03    -53.2944E-03     9.24280E-03
             749     1.70655E-03     86.8428E-03    -64.5833E+06    -176.755E+06    -59.6003E+06    -378.311E+03    -53.3875E-03     106.765E-03    -53.3777E-03     17.0217E-03    -53.3724E-03     106.066E-03    -53.3257E-03     16.9522E-03
             750     2.55982E-03     86.8638E-03    -61.9395E+06    -171.780E+06    -51.8795E+06    -704.470E+03    -53.4400E-03     106.827E-03    -53.3874E-03     25.0502E-03    -53.4359E-03     106.144E-03    -53.3079E-03     24.9418E-03
             751     3.41317E-03     86.8929E-03    -58.5869E+06    -162.190E+06    -44.6096E+06    -849.994E+03    -53.5168E-03     106.905E-03    -53.3884E-03     32.9390E-03    -53.5291E-03     106.263E-03    -53.2913E-03     32.7900E-03
             752     4.26650E-03     86.9297E-03    -54.7963E+06    -152.315E+06    -36.6939E+06    -1.24061E+06    -53.5936E-03     106.983E-03    -53.3892E-03     40.6072E-03    -53.6251E-03     106.385E-03    -53.2724E-03     40.4093E-03
             753     5.12003E-03     86.9742E-03    -50.5785E+06    -145.220E+06    -27.8570E+06    -1.40943E+06    -53.7168E-03     107.113E-03    -53.3961E-03     47.9899E-03    -53.7673E-03     106.549E-03    -53.2514E-03     47.7399E-03
             754     5.97337E-03     87.0258E-03    -46.4070E+06    -136.963E+06    -19.8290E+06    -1.32606E+06    -53.8593E-03     107.258E-03    -53.3983E-03     55.0201E-03    -53.9352E-03     106.740E-03    -53.2315E-03     54.7142E-03
             755     6.82696E-03     87.0843E-03    -42.2918E+06    -128.228E+06    -13.5388E+06    -1.40584E+06    -53.9956E-03     107.387E-03    -53.3914E-03     61.7083E-03    -54.1024E-03     106.928E-03    -53.2118E-03     61.3367E-03
             756     7.68030E-03     87.1492E-03    -38.3515E+06    -117.783E+06    -8.89210E+06    -1.54459E+06    -54.1355E-03     107.509E-03    -53.3734E-03     68.0159E-03    -54.2829E-03     107.128E-03    -53.1915E-03     67.5701E-03
             757     8.53410E-03     87.2203E-03    -34.7193E+06    -104.927E+06    -6.46583E+06    -1.80157E+06    -54.3062E-03     107.649E-03    -53.3429E-03     73.8610E-03    -54.5072E-03     107.373E-03    -53.1728E-03     73.3294E-03
             758     9.38733E-03     87.2968E-03    -31.4379E+06    -89.7445E+06    -4.40207E+06    -1.70650E+06    -54.4679E-03     107.779E-03    -53.3114E-03     79.3096E-03    -54.7408E-03     107.635E-03    -53.1577E-03     78.6876E-03
             759     10.2410E-03     87.3788E-03    -28.4168E+06    -71.8211E+06    -2.56067E+06    -1.34906E+06    -54.5561E-03     107.833E-03    -53.2767E-03     84.1382E-03    -54.9231E-03     107.851E-03    -53.1442E-03     83.4205E-03
             760     11.0945E-03     87.4646E-03    -25.6889E+06    -47.0835E+06    -877.753E+03    -877.585E+03    -54.5706E-03     107.801E-03    -53.2299E-03     88.8016E-03    -55.0688E-03     108.043E-03    -53.1288E-03     87.9789E-03
             761     11.9483E-03     87.5557E-03    -23.2662E+06    -11.6754E+06     2.94712E+06    -488.705E+03    -54.6244E-03     107.800E-03    -53.1753E-03     95.4679E-03    -55.3215E-03     108.364E-03    -53.1099E-03     94.5266E-03
             762     12.8019E-03     87.6547E-03    -21.2541E+06     51.1418E+06     7.27915E+06     254.928E+03    -54.6971E-03     107.777E-03    -53.0796E-03     104.910E-03    -55.7134E-03     108.878E-03    -53.0866E-03     103.845E-03
             763     13.6560E-03     87.7645E-03    -19.2681E+06     104.732E+06     31.4132E+06     1.50051E+06    -54.8480E-03     107.942E-03    -53.0945E-03     113.763E-03    -56.2200E-03     109.527E-03    -53.0613E-03     112.638E-03
             764     14.5093E-03     87.8814E-03    -15.8011E+06     119.816E+06     64.4834E+06     1.77056E+06    -54.3759E-03     107.582E-03    -53.2061E-03     110.388E-03    -55.8880E-03     109.276E-03    -53.0345E-03     109.338E-03
             765     15.3642E-03     87.9842E-03    -10.3006E+06     129.300E+06     84.3881E+06     1.13645E+06    -53.6995E-03     106.948E-03    -53.2490E-03     104.286E-03    -55.2569E-03     108.684E-03    -52.9996E-03     103.378E-03
             766     16.2179E-03     88.0882E-03    -4.47342E+06     131.496E+06     90.3082E+06     374.858E+03    -53.0358E-03     106.266E-03    -53.2300E-03     76.9243E-03    -54.1681E-03     107.587E-03    -52.9626E-03     76.2835E-03
             767     853.279E-06     87.8841E-03    -69.2580E+06    -179.470E+06    -67.7082E+06    -962.010E+03    -53.3860E-03     106.697E-03    -53.3107E-03     9.26938E-03    -53.3754E-03     106.000E-03    -53.2886E-03     9.22242E-03
             768     1.70651E-03     87.8971E-03    -67.0917E+06    -176.826E+06    -62.4862E+06    -311.820E+03    -53.3945E-03     106.751E-03    -53.3565E-03     17.0217E-03    -53.3877E-03     106.059E-03    -53.3152E-03     16.9530E-03
             769     2.55986E-03     87.9181E-03    -63.9790E+06    -170.580E+06    -53.5633E+06    -749.435E+03    -53.4497E-03     106.829E-03    -53.3795E-03     25.0464E-03    -53.4551E-03     106.157E-03    -53.3072E-03     24.9374E-03
             770     3.41315E-03     87.9472E-03    -59.6968E+06    -161.583E+06    -44.4475E+06    -1.49264E+06    -53.5098E-03     106.902E-03    -53.3923E-03     32.9271E-03    -53.5288E-03     106.264E-03    -53.2936E-03     32.7697E-03
             771     4.26656E-03     87.9840E-03    -55.2817E+06    -151.473E+06    -36.7535E+06    -1.78663E+06    -53.6131E-03     107.005E-03    -53.3924E-03     40.5892E-03    -53.6482E-03     106.413E-03    -53.2764E-03     40.3839E-03
             772     5.11988E-03     88.0284E-03    -51.2736E+06    -145.063E+06    -28.2367E+06    -1.87774E+06    -53.7274E-03     107.129E-03    -53.4016E-03     47.9505E-03    -53.7811E-03     106.568E-03    -53.2581E-03     47.6942E-03
             773     5.97339E-03     88.0801E-03    -47.0610E+06    -136.959E+06    -20.1571E+06    -1.82149E+06    -53.8461E-03     107.250E-03    -53.4038E-03     55.0105E-03    -53.9248E-03     106.734E-03    -53.2378E-03     54.6983E-03
             774     6.82678E-03     88.1384E-03    -42.8888E+06    -127.693E+06    -13.9616E+06    -2.09385E+06    -53.9943E-03     107.389E-03    -53.3943E-03     61.6881E-03    -54.1042E-03     106.933E-03    -53.2168E-03     61.3077E-03
             775     7.68048E-03     88.2034E-03    -38.7389E+06    -117.278E+06    -9.92138E+06    -2.48299E+06    -54.1374E-03     107.510E-03    -53.3728E-03     67.9893E-03    -54.2859E-03     107.134E-03    -53.1962E-03     67.5312E-03
             776     8.53377E-03     88.2743E-03    -34.8983E+06    -104.581E+06    -7.46039E+06    -2.69896E+06    -54.2909E-03     107.632E-03    -53.3414E-03     73.9439E-03    -54.4917E-03     107.360E-03    -53.1764E-03     73.4014E-03
             777     9.38756E-03     88.3512E-03    -31.5144E+06    -89.9830E+06    -5.36950E+06    -2.66768E+06    -54.4160E-03     107.723E-03    -53.3070E-03     79.4242E-03    -54.6874E-03     107.579E-03    -53.1576E-03     78.7908E-03
             778     10.2410E-03     88.4327E-03    -28.5198E+06    -72.3179E+06    -3.63393E+06    -2.21645E+06    -54.4877E-03     107.754E-03    -53.2665E-03     84.3024E-03    -54.8525E-03     107.772E-03    -53.1385E-03     83.5754E-03
             779     11.0947E-03     88.5190E-03    -25.8967E+06    -47.6878E+06    -1.80953E+06    -1.70799E+06    -54.5458E-03     107.763E-03    -53.2168E-03     88.9630E-03    -55.0427E-03     108.004E-03    -53.1192E-03     88.1307E-03
             780     11.9483E-03     88.6096E-03    -23.6143E+06    -12.2296E+06     1.97168E+06    -934.447E+03    -54.5836E-03     107.744E-03    -53.1600E-03     95.5611E-03    -55.2798E-03     108.307E-03    -53.0982E-03     94.6157E-03
             781     12.8022E-03     88.7092E-03    -21.9108E+06     49.1846E+06     6.03126E+06     586.056E+03    -54.6721E-03     107.736E-03    -53.0635E-03     105.069E-03    -55.6869E-03     108.830E-03    -53.0729E-03     104.009E-03
             782     13.6559E-03     88.8184E-03    -19.5430E+06     102.958E+06     29.8508E+06     1.87057E+06    -54.7114E-03     107.782E-03    -53.0707E-03     114.077E-03    -56.0798E-03     109.360E-03    -53.0424E-03     112.961E-03
             783     14.5102E-03     88.9362E-03    -15.3408E+06     120.740E+06     64.1902E+06     1.65254E+06    -54.2457E-03     107.422E-03    -53.1760E-03     110.408E-03    -55.7533E-03     109.117E-03    -53.0079E-03     109.363E-03
             784     15.3639E-03     89.0371E-03    -10.4640E+06     129.586E+06     84.2638E+06     1.11398E+06    -53.8118E-03     107.034E-03    -53.2224E-03     104.134E-03    -55.3678E-03     108.769E-03    -52.9738E-03     103.225E-03
             785     16.2183E-03     89.1435E-03    -4.28818E+06     131.778E+06     90.2970E+06     114.623E+03    -53.0814E-03     106.291E-03    -53.2094E-03     76.6326E-03    -54.2112E-03     107.611E-03    -52.9427E-03     75.9872E-03
             786     853.295E-06     88.9385E-03    -71.7126E+06    -177.876E+06    -69.0704E+06    -933.334E+03    -53.3393E-03     106.662E-03    -53.3231E-03     9.28610E-03    -53.3412E-03     105.979E-03    -53.3065E-03     9.23956E-03
             787     1.70661E-03     88.9512E-03    -68.5730E+06    -177.166E+06    -62.6707E+06    -955.884E+03    -53.4073E-03     106.763E-03    -53.3556E-03     16.9975E-03    -53.4071E-03     106.072E-03    -53.3126E-03     16.9204E-03
             788     2.55979E-03     88.9725E-03    -64.6639E+06    -168.719E+06    -55.0117E+06    -1.38165E+06    -53.4457E-03     106.819E-03    -53.3732E-03     25.0318E-03    -53.4550E-03     106.159E-03    -53.3098E-03     24.9146E-03
             789     3.41316E-03     89.0013E-03    -60.7134E+06    -160.397E+06    -46.3013E+06    -2.41372E+06    -53.5201E-03     106.906E-03    -53.3864E-03     32.9067E-03    -53.5432E-03     106.279E-03    -53.2973E-03     32.7373E-03
             790     4.26650E-03     89.0384E-03    -56.6625E+06    -151.441E+06    -37.4658E+06    -2.24235E+06    -53.6091E-03     107.005E-03    -53.3956E-03     40.5844E-03    -53.6500E-03     106.416E-03    -53.2812E-03     40.3734E-03
             791     5.11988E-03     89.0827E-03    -52.4733E+06    -144.337E+06    -28.5626E+06    -2.21858E+06    -53.7229E-03     107.128E-03    -53.4050E-03     47.9620E-03    -53.7832E-03     106.572E-03    -53.2624E-03     47.7013E-03
             792     5.97333E-03     89.1341E-03    -48.0894E+06    -136.650E+06    -20.7392E+06    -2.58129E+06    -53.8437E-03     107.250E-03    -53.4060E-03     55.0128E-03    -53.9271E-03     106.737E-03    -53.2418E-03     54.6910E-03
             793     6.82688E-03     89.1927E-03    -43.4358E+06    -126.501E+06    -14.6697E+06    -3.04738E+06    -53.9762E-03     107.369E-03    -53.3926E-03     61.7254E-03    -54.0895E-03     106.921E-03    -53.2195E-03     61.3331E-03
             794     7.68021E-03     89.2574E-03    -39.0407E+06    -116.502E+06    -10.8640E+06    -3.77358E+06    -54.1241E-03     107.492E-03    -53.3682E-03     68.0538E-03    -54.2739E-03     107.121E-03    -53.1970E-03     67.5793E-03
             795     8.53403E-03     89.3286E-03    -35.0872E+06    -104.462E+06    -8.68525E+06    -3.85079E+06    -54.2365E-03     107.569E-03    -53.3326E-03     74.0333E-03    -54.4365E-03     107.299E-03    -53.1736E-03     73.4769E-03
             796     9.38744E-03     89.4051E-03    -31.6289E+06    -89.8925E+06    -6.30051E+06    -3.72313E+06    -54.3346E-03     107.628E-03    -53.2933E-03     79.5057E-03    -54.6050E-03     107.485E-03    -53.1486E-03     78.8604E-03
             797     10.2413E-03     89.4869E-03    -28.4751E+06    -73.1310E+06    -4.71359E+06    -3.30465E+06    -54.4192E-03     107.666E-03    -53.2473E-03     84.3700E-03    -54.7806E-03     107.681E-03    -53.1235E-03     83.6307E-03
             798     11.0949E-03     89.5730E-03    -25.8663E+06    -48.4038E+06    -2.82635E+06    -2.44414E+06    -54.4863E-03     107.680E-03    -53.1933E-03     89.1242E-03    -54.9803E-03     107.918E-03    -53.0998E-03     88.2845E-03
             799     11.9487E-03     89.6641E-03    -23.7054E+06    -13.8346E+06     777.500E+03    -1.23507E+06    -54.6023E-03     107.739E-03    -53.1363E-03     95.6372E-03    -55.2952E-03     108.296E-03    -53.0780E-03     94.6878E-03
             800     12.8024E-03     89.7627E-03    -21.3775E+06     46.2632E+06     4.70698E+06     450.358E+03    -54.6556E-03     107.697E-03    -53.0410E-03     105.104E-03    -55.6609E-03     108.777E-03    -53.0535E-03     104.044E-03
             801     13.6564E-03     89.8733E-03    -18.5545E+06     102.383E+06     29.6456E+06     1.78084E+06    -54.5481E-03     107.593E-03    -53.0452E-03     113.932E-03    -55.9074E-03     109.164E-03    -53.0185E-03     112.821E-03
             802     14.5107E-03     89.9890E-03    -14.7764E+06     121.413E+06     63.7022E+06     1.82786E+06    -54.2612E-03     107.406E-03    -53.1447E-03     110.503E-03    -55.7669E-03     109.105E-03    -52.9808E-03     109.460E-03
             803     15.3647E-03     90.0931E-03    -9.73916E+06     130.220E+06     84.2707E+06     836.698E+03    -54.0626E-03     107.265E-03    -53.2021E-03     104.025E-03    -55.6186E-03     109.004E-03    -52.9554E-03     103.101E-03
             804     16.2183E-03     90.1958E-03    -3.88468E+06     132.554E+06     91.0014E+06    -115.859E+03    -53.2807E-03     106.487E-03    -53.2065E-03     76.2352E-03    -54.4119E-03     107.811E-03    -52.9380E-03     75.5794E-03
             805     853.307E-06     89.9925E-03    -70.6242E+06    -176.492E+06    -68.1868E+06    -338.433E+03    -53.3732E-03     106.705E-03    -53.3320E-03     9.30993E-03    -53.3730E-03     106.025E-03    -53.3146E-03     9.27120E-03
             806     1.70642E-03     90.0058E-03    -68.4513E+06    -176.085E+06    -62.3642E+06    -1.26870E+06    -53.4010E-03     106.771E-03    -53.3703E-03     16.9835E-03    -53.4022E-03     106.085E-03    -53.3276E-03     16.9023E-03
             807     2.55987E-03     90.0265E-03    -65.5530E+06    -166.981E+06    -57.3117E+06    -2.20033E+06    -53.4329E-03     106.801E-03    -53.3678E-03     25.0104E-03    -53.4459E-03     106.154E-03    -53.3171E-03     24.8827E-03
             808     3.41312E-03     90.0559E-03    -62.2946E+06    -159.161E+06    -48.8037E+06    -2.56859E+06    -53.5043E-03     106.882E-03    -53.3774E-03     32.9304E-03    -53.5334E-03     106.266E-03    -53.3003E-03     32.7593E-03
             809     4.26645E-03     90.0924E-03    -58.4592E+06    -151.274E+06    -38.2683E+06    -2.80875E+06    -53.5898E-03     106.984E-03    -53.3941E-03     40.5988E-03    -53.6388E-03     106.399E-03    -53.2814E-03     40.3807E-03
             810     5.11998E-03     90.1369E-03    -53.6924E+06    -143.478E+06    -28.8795E+06    -2.99743E+06    -53.7039E-03     107.106E-03    -53.4021E-03     47.9874E-03    -53.7710E-03     106.557E-03    -53.2606E-03     47.7172E-03
             811     5.97329E-03     90.1884E-03    -48.6580E+06    -135.275E+06    -21.0840E+06    -3.65882E+06    -53.8290E-03     107.229E-03    -53.3998E-03     55.0418E-03    -53.9167E-03     106.725E-03    -53.2385E-03     54.7062E-03
             812     6.82679E-03     90.2467E-03    -43.7763E+06    -125.152E+06    -15.8008E+06    -4.54335E+06    -53.9488E-03     107.329E-03    -53.3802E-03     61.8032E-03    -54.0640E-03     106.890E-03    -53.2143E-03     61.3923E-03
             813     7.68055E-03     90.3118E-03    -39.2418E+06    -115.437E+06    -11.8191E+06    -5.12313E+06    -54.0858E-03     107.440E-03    -53.3539E-03     68.1141E-03    -54.2368E-03     107.076E-03    -53.1887E-03     67.6227E-03
             814     8.53387E-03     90.3825E-03    -35.2378E+06    -104.222E+06    -9.67328E+06    -5.35985E+06    -54.1982E-03     107.514E-03    -53.3161E-03     74.0461E-03    -54.3977E-03     107.247E-03    -53.1623E-03     73.4707E-03
             815     9.38782E-03     90.4592E-03    -31.5743E+06    -90.0027E+06    -7.36035E+06    -5.03733E+06    -54.2905E-03     107.564E-03    -53.2739E-03     79.5345E-03    -54.5587E-03     107.422E-03    -53.1344E-03     78.8731E-03
             816     10.2414E-03     90.5409E-03    -28.4742E+06    -73.7473E+06    -5.68832E+06    -4.49465E+06    -54.3560E-03     107.582E-03    -53.2257E-03     84.3537E-03    -54.7146E-03     107.594E-03    -53.1059E-03     83.6001E-03
             817     11.0952E-03     90.6271E-03    -25.7063E+06    -49.8863E+06    -4.03702E+06    -3.35885E+06    -54.4366E-03     107.605E-03    -53.1683E-03     89.1687E-03    -54.9254E-03     107.837E-03    -53.0788E-03     88.3186E-03
             818     11.9490E-03     90.7180E-03    -23.3082E+06    -15.7156E+06    -170.902E+03    -1.72683E+06    -54.6218E-03     107.734E-03    -53.1126E-03     95.6687E-03    -55.3089E-03     108.283E-03    -53.0569E-03     94.7123E-03
             819     12.8025E-03     90.8173E-03    -21.5191E+06     43.9739E+06     3.31755E+06     82.4649E+03    -54.6708E-03     107.690E-03    -53.0191E-03     104.873E-03    -55.6710E-03     108.760E-03    -53.0351E-03     103.808E-03
             820     13.6567E-03     90.9263E-03    -19.1042E+06     101.117E+06     27.6965E+06     1.40409E+06    -54.6397E-03     107.665E-03    -53.0249E-03     113.608E-03    -55.9972E-03     109.233E-03    -53.0053E-03     112.488E-03
             821     14.5108E-03     91.0438E-03    -14.6716E+06     121.955E+06     62.8199E+06     1.35961E+06    -54.3594E-03     107.493E-03    -53.1335E-03     110.285E-03    -55.8655E-03     109.198E-03    -52.9749E-03     109.229E-03
             822     15.3646E-03     91.1468E-03    -9.09287E+06     131.607E+06     84.9296E+06     314.586E+03    -53.9771E-03     107.175E-03    -53.1982E-03     103.823E-03    -55.5342E-03     108.921E-03    -52.9512E-03     102.894E-03
             823     16.2181E-03     91.2516E-03    -4.47674E+06     132.873E+06     91.0284E+06     150.637E+03    -53.4544E-03     106.660E-03    -53.2056E-03     76.4125E-03    -54.5910E-03     107.988E-03    -52.9366E-03     75.7600E-03
             824     853.162E-06     91.0471E-03    -73.1731E+06    -175.858E+06    -71.5527E+06     219.900E+03    -53.3566E-03     106.698E-03    -53.3413E-03     9.33034E-03    -53.3652E-03     106.030E-03    -53.3380E-03     9.29904E-03
             825     1.70660E-03     91.0599E-03    -70.9947E+06    -173.376E+06    -67.1549E+06    -1.51511E+06    -53.3846E-03     106.736E-03    -53.3509E-03     17.0301E-03    -53.3956E-03     106.074E-03    -53.3323E-03     16.9459E-03
             826     2.55971E-03     91.0811E-03    -68.0202E+06    -165.219E+06    -59.3241E+06    -2.71741E+06    -53.4181E-03     106.778E-03    -53.3599E-03     25.0209E-03    -53.4431E-03     106.147E-03    -53.3183E-03     24.8865E-03
             827     3.41315E-03     91.1099E-03    -64.0483E+06    -158.163E+06    -48.7191E+06    -3.16340E+06    -53.4640E-03     106.840E-03    -53.3760E-03     32.9444E-03    -53.5034E-03     106.232E-03    -53.2974E-03     32.7658E-03
             828     4.26661E-03     91.1469E-03    -59.0952E+06    -150.184E+06    -38.0839E+06     -3.6288E+06    -53.5756E-03     106.963E-03    -53.3878E-03     40.6208E-03    -53.6296E-03     106.385E-03    -53.2748E-03     40.3923E-03
             829     5.11982E-03     91.1911E-03    -53.9165E+06    -142.198E+06    -28.5773E+06    -4.25697E+06    -53.6765E-03     107.070E-03    -53.3939E-03     48.0014E-03    -53.7469E-03     106.527E-03    -53.2524E-03     47.7153E-03
             830     5.97351E-03     91.2426E-03    -48.6133E+06    -133.253E+06    -21.4279E+06    -5.21064E+06    -53.7952E-03     107.179E-03    -53.3840E-03     55.0724E-03    -53.8850E-03     106.686E-03    -53.2275E-03     54.7171E-03
             831     6.82699E-03     91.3010E-03    -43.6040E+06    -123.572E+06    -16.6087E+06    -6.13451E+06    -53.9350E-03     107.296E-03    -53.3612E-03     61.7892E-03    -54.0505E-03     106.866E-03    -53.2018E-03     61.3577E-03
             832     7.68040E-03     91.3657E-03    -39.1883E+06    -114.414E+06    -12.8823E+06    -6.64979E+06    -54.0453E-03     107.378E-03    -53.3331E-03     68.1102E-03    -54.1957E-03     107.021E-03    -53.1748E-03     67.5997E-03
             833     8.53431E-03     91.4367E-03    -35.1967E+06    -103.470E+06    -10.6322E+06    -6.90298E+06    -54.1685E-03     107.463E-03    -53.2942E-03     74.0295E-03    -54.3675E-03     107.200E-03    -53.1463E-03     73.4345E-03
             834     9.38771E-03     91.5131E-03    -31.6372E+06    -90.3563E+06    -8.64783E+06    -6.66241E+06    -54.2710E-03     107.522E-03    -53.2512E-03     79.5454E-03    -54.5373E-03     107.380E-03    -53.1176E-03     78.8631E-03
             835     10.2416E-03     91.5949E-03    -28.4433E+06    -74.4206E+06    -6.88168E+06    -5.74457E+06    -54.3679E-03     107.573E-03    -53.2048E-03     84.3189E-03    -54.7238E-03     107.583E-03    -53.0900E-03     83.5489E-03
             836     11.0954E-03     91.6807E-03    -25.8151E+06    -51.5385E+06    -5.35268E+06    -4.49487E+06    -54.4522E-03     107.603E-03    -53.1507E-03     89.1008E-03    -54.9375E-03     107.829E-03    -53.0653E-03     88.2350E-03
             837     11.9490E-03     91.7725E-03    -23.4807E+06    -18.2722E+06    -1.69047E+06    -2.51435E+06    -54.5717E-03     107.667E-03    -53.0951E-03     95.7013E-03    -55.2538E-03     108.206E-03    -53.0430E-03     94.7360E-03
             838     12.8030E-03     91.8710E-03    -21.4177E+06     41.4940E+06     1.79799E+06     56.5471E+03    -54.7602E-03     107.763E-03    -53.0030E-03     104.715E-03    -55.7544E-03     108.823E-03    -53.0231E-03     103.647E-03
             839     13.6565E-03     91.9809E-03    -19.0195E+06     100.440E+06     26.3692E+06     1.07636E+06    -54.9275E-03     107.947E-03    -53.0197E-03     113.564E-03    -56.2861E-03     109.518E-03    -53.0059E-03     112.429E-03
             840     14.5102E-03     92.0976E-03    -15.0377E+06     122.891E+06     62.5181E+06     309.971E+03    -54.4727E-03     107.617E-03    -53.1440E-03     110.239E-03    -55.9864E-03     109.332E-03    -52.9878E-03     109.165E-03
             841     15.3642E-03     92.2015E-03    -9.71111E+06     131.941E+06     84.7108E+06     61.3356E+03    -53.9095E-03     107.121E-03    -53.2118E-03     103.540E-03    -55.4668E-03     108.867E-03    -52.9655E-03     102.610E-03
             842     16.2192E-03     92.3046E-03    -4.92777E+06     132.787E+06     90.3465E+06     643.445E+03    -53.2621E-03     106.472E-03    -53.2103E-03     76.2848E-03    -54.3951E-03     107.797E-03    -52.9439E-03     75.6433E-03
             843     853.336E-06     92.1012E-03    -74.3106E+06    -174.495E+06    -73.9747E+06    -901.002E+03    -53.3598E-03     106.679E-03    -53.3189E-03     9.29981E-03    -53.3725E-03     106.023E-03    -53.3280E-03     9.25390E-03
             844     1.70645E-03     92.1143E-03    -71.6198E+06    -170.022E+06    -67.1215E+06    -2.45129E+06    -53.3512E-03     106.692E-03    -53.3411E-03     17.0327E-03    -53.3702E-03     106.048E-03    -53.3263E-03     16.9364E-03
             845     2.55990E-03     92.1353E-03    -68.0787E+06    -163.551E+06    -57.5765E+06    -3.27720E+06    -53.4038E-03     106.759E-03    -53.3557E-03     25.0300E-03    -53.4340E-03     106.134E-03    -53.3077E-03     24.8885E-03
             846     3.41317E-03     92.1642E-03    -63.8470E+06    -156.155E+06    -47.2263E+06    -3.99803E+06    -53.4737E-03     106.846E-03    -53.3727E-03     32.9229E-03    -53.5171E-03     106.246E-03    -53.2898E-03     32.7334E-03
             847     4.26648E-03     92.2011E-03    -58.8136E+06    -148.582E+06    -37.2615E+06    -4.85357E+06    -53.5320E-03     106.913E-03    -53.3811E-03     40.6111E-03    -53.5880E-03     106.341E-03    -53.2666E-03     40.3671E-03
             848     5.12015E-03     92.2453E-03    -53.3672E+06    -140.264E+06    -28.7920E+06    -5.69010E+06    -53.6480E-03     107.025E-03    -53.3765E-03     47.9864E-03    -53.7181E-03     106.491E-03    -53.2397E-03     47.6819E-03
             849     5.97343E-03     92.2967E-03    -48.2227E+06    -130.953E+06    -22.2968E+06    -6.85791E+06    -53.7773E-03     107.139E-03    -53.3616E-03     55.0677E-03    -53.8672E-03     106.657E-03    -53.2133E-03     54.6914E-03
             850     6.82701E-03     92.3551E-03    -43.4525E+06    -121.760E+06    -17.6539E+06    -7.77153E+06    -53.8933E-03     107.230E-03    -53.3372E-03     61.7839E-03    -54.0091E-03     106.811E-03    -53.1859E-03     61.3315E-03
             851     7.68075E-03     92.4198E-03    -39.0592E+06    -113.101E+06    -13.9614E+06     -8.2694E+06    -54.0148E-03     107.322E-03    -53.3075E-03     68.1100E-03    -54.1648E-03     106.973E-03    -53.1567E-03     67.5790E-03
             852     8.53419E-03     92.4906E-03    -35.2066E+06    -102.646E+06    -11.8550E+06    -8.46888E+06    -54.1464E-03     107.414E-03    -53.2679E-03     74.0660E-03    -54.3449E-03     107.158E-03    -53.1273E-03     73.4510E-03
             853     9.38814E-03     92.5671E-03    -31.8368E+06    -90.3902E+06    -9.96629E+06    -8.18918E+06    -54.2795E-03     107.507E-03    -53.2271E-03     79.5106E-03    -54.5448E-03     107.367E-03    -53.0997E-03     78.8084E-03
             854     10.2418E-03     92.6487E-03    -28.7634E+06    -75.4874E+06    -8.54364E+06    -7.33487E+06    -54.4114E-03     107.595E-03    -53.1840E-03     84.4019E-03    -54.7654E-03     107.604E-03    -53.0756E-03     83.6106E-03
             855     11.0952E-03     92.7351E-03    -25.8865E+06    -53.2682E+06    -6.84102E+06    -5.71460E+06    -54.5041E-03     107.640E-03    -53.1358E-03     89.1516E-03    -54.9858E-03     107.860E-03    -53.0552E-03     88.2690E-03
             856     11.9494E-03     92.8258E-03    -23.4442E+06    -21.3487E+06    -3.51081E+06    -3.46001E+06    -54.5634E-03     107.646E-03    -53.0822E-03     95.6948E-03    -55.2375E-03     108.171E-03    -53.0348E-03     94.7184E-03
             857     12.8028E-03     92.9258E-03    -20.8710E+06     38.2470E+06     212.510E+03    -970.601E+03    -54.7837E-03     107.775E-03    -52.9908E-03     104.993E-03    -55.7691E-03     108.821E-03    -53.0149E-03     103.911E-03
             858     13.6566E-03     93.0347E-03    -17.7476E+06     100.009E+06     25.8922E+06     693.991E+03    -55.0001E-03     108.010E-03    -53.0095E-03     114.078E-03    -56.3544E-03     109.581E-03    -52.9993E-03     112.938E-03
             859     14.5101E-03     93.1529E-03    -14.2747E+06     124.167E+06     62.5806E+06     760.140E+03    -54.5318E-03     107.669E-03    -53.1371E-03     110.700E-03    -56.0448E-03     109.390E-03    -52.9835E-03     109.632E-03
             860     15.3643E-03     93.2544E-03    -10.6207E+06     131.220E+06     83.5777E+06     737.909E+03    -54.0303E-03     107.238E-03    -53.2073E-03     104.405E-03    -55.5924E-03     108.985E-03    -52.9643E-03     103.482E-03
             861     16.2164E-03     93.3608E-03    -5.10160E+06     132.470E+06     89.7515E+06     435.819E+03    -52.9909E-03     106.192E-03    -53.2010E-03     76.9199E-03    -54.1264E-03     107.519E-03    -52.9369E-03     76.2769E-03
             862     853.146E-06     93.1556E-03    -72.1896E+06    -171.247E+06    -70.4451E+06    -2.03017E+06    -53.3735E-03     106.672E-03    -53.2987E-03     9.27103E-03    -53.3855E-03     106.024E-03    -53.2979E-03     9.21020E-03
             863     1.70657E-03     93.1686E-03    -70.1370E+06    -167.095E+06    -64.1745E+06    -2.74794E+06    -53.3344E-03     106.674E-03    -53.3395E-03     17.0201E-03    -53.3545E-03     106.038E-03    -53.3164E-03     16.9200E-03
             864     2.55986E-03     93.1894E-03    -66.8243E+06    -161.231E+06    -55.6788E+06    -3.74899E+06    -53.3938E-03     106.743E-03    -53.3488E-03     25.0332E-03    -53.4238E-03     106.125E-03    -53.2966E-03     24.8856E-03
             865     3.41316E-03     93.2187E-03    -62.3566E+06    -153.703E+06    -45.9769E+06    -4.66357E+06    -53.4584E-03     106.820E-03    -53.3615E-03     32.9104E-03    -53.4998E-03     106.228E-03    -53.2781E-03     32.7124E-03
             866     4.26666E-03     93.2550E-03    -57.7357E+06    -146.011E+06    -36.9011E+06    -5.77022E+06    -53.5258E-03     106.892E-03    -53.3658E-03     40.5893E-03    -53.5807E-03     106.330E-03    -53.2549E-03     40.3334E-03
             867     5.11999E-03     93.2995E-03    -52.8644E+06    -137.653E+06    -29.7521E+06    -7.13413E+06    -53.6117E-03     106.966E-03    -53.3540E-03     47.9767E-03    -53.6816E-03     106.446E-03    -53.2266E-03     47.6538E-03
             868     5.97366E-03     93.3508E-03    -48.0351E+06    -128.421E+06    -23.5917E+06    -8.27746E+06    -53.7222E-03     107.056E-03    -53.3336E-03     55.0735E-03    -53.8128E-03     106.588E-03    -53.1957E-03     54.6795E-03
             869     6.82723E-03     93.4091E-03    -43.6739E+06    -119.665E+06    -18.8543E+06    -9.36678E+06    -53.8487E-03     107.156E-03    -53.3070E-03     61.8062E-03    -53.9667E-03     106.748E-03    -53.1644E-03     61.3339E-03
             870     7.68076E-03     93.4738E-03    -39.4273E+06    -111.485E+06    -15.1444E+06    -10.0289E+06    -53.9826E-03     107.259E-03    -53.2767E-03     68.1158E-03    -54.1351E-03     106.920E-03    -53.1335E-03     67.5624E-03
             871     8.53466E-03     93.5445E-03    -35.4751E+06    -101.765E+06    -12.9785E+06    -10.1592E+06    -54.1455E-03     107.384E-03    -53.2390E-03     74.1104E-03    -54.3448E-03     107.134E-03    -53.1049E-03     73.4739E-03
             872     9.38810E-03     93.6210E-03    -31.9256E+06    -90.2272E+06    -11.0790E+06    -9.90353E+06    -54.2904E-03     107.492E-03    -53.2014E-03     79.5683E-03    -54.5548E-03     107.355E-03    -53.0796E-03     78.8441E-03
             873     10.2418E-03     93.7027E-03    -28.7309E+06    -76.3397E+06    -9.78401E+06    -9.00944E+06    -54.3996E-03     107.560E-03    -53.1602E-03     84.5494E-03    -54.7506E-03     107.566E-03    -53.0568E-03     83.7370E-03
             874     11.0959E-03     93.7889E-03    -25.7450E+06    -55.2920E+06    -8.35824E+06    -7.45651E+06    -54.5129E-03     107.625E-03    -53.1124E-03     89.3956E-03    -54.9889E-03     107.838E-03    -53.0367E-03     88.4913E-03
             875     11.9489E-03     93.8802E-03    -22.6752E+06    -24.5170E+06    -4.87190E+06    -4.91209E+06    -54.6055E-03     107.668E-03    -53.0622E-03     95.9174E-03    -55.2699E-03     108.179E-03    -53.0181E-03     94.9220E-03
             876     12.8033E-03     93.9790E-03    -20.3735E+06     34.8867E+06    -1.38647E+06    -2.03829E+06    -54.7428E-03     107.712E-03    -52.9696E-03     105.509E-03    -55.7198E-03     108.745E-03    -52.9976E-03     104.417E-03
             877     13.6569E-03     94.0900E-03    -18.1744E+06     98.2939E+06     23.9810E+06     43.9288E+03    -54.8778E-03     107.858E-03    -52.9798E-03     114.403E-03    -56.2268E-03     109.421E-03    -52.9760E-03     113.259E-03
             878     14.5112E-03     94.2062E-03    -14.5721E+06     123.523E+06     60.2445E+06     1.53740E+06    -54.4763E-03     107.575E-03    -53.0985E-03     110.811E-03    -55.9832E-03     109.294E-03    -52.9552E-03     109.756E-03
             879     15.3646E-03     94.3102E-03    -9.66772E+06     132.154E+06     83.3258E+06     1.18056E+06    -53.8444E-03     107.014E-03    -53.1693E-03     104.585E-03    -55.4031E-03     108.766E-03    -52.9303E-03     103.673E-03
             880     16.2207E-03     94.4135E-03    -4.88834E+06     133.424E+06     90.6552E+06     36.6638E+03    -53.2612E-03     106.435E-03    -53.1734E-03     76.7356E-03    -54.3993E-03     107.766E-03    -52.9065E-03     76.0866E-03
             881     853.344E-06     94.2100E-03    -70.6581E+06    -167.802E+06    -68.8123E+06    -1.41318E+06    -53.3327E-03     106.618E-03    -53.2851E-03     9.25174E-03    -53.3443E-03     105.983E-03    -53.2834E-03     9.19904E-03
             882     1.70657E-03     94.2227E-03    -68.5517E+06    -164.215E+06    -62.9817E+06    -2.64215E+06    -53.3526E-03     106.673E-03    -53.3200E-03     17.0121E-03    -53.3706E-03     106.047E-03    -53.2974E-03     16.9133E-03
             883     2.55984E-03     94.2440E-03    -65.3375E+06    -158.176E+06    -54.8008E+06    -3.85730E+06    -53.3685E-03     106.703E-03    -53.3341E-03     25.0271E-03    -53.3968E-03     106.096E-03    -53.2840E-03     24.8783E-03
             884     3.41333E-03     94.2726E-03    -61.5026E+06    -150.953E+06    -46.0321E+06    -5.32459E+06    -53.4228E-03     106.762E-03    -53.3388E-03     32.9118E-03    -53.4637E-03     106.182E-03    -53.2608E-03     32.7054E-03
             885     4.26665E-03     94.3095E-03    -56.7557E+06    -142.852E+06    -37.7540E+06    -6.65991E+06    -53.5115E-03     106.848E-03    -53.3363E-03     40.5787E-03    -53.5648E-03     106.302E-03    -53.2356E-03     40.3115E-03
             886     5.12019E-03     94.3535E-03    -52.2399E+06    -134.244E+06    -30.4591E+06    -8.20829E+06    -53.5740E-03     106.898E-03    -53.3244E-03     47.9827E-03    -53.6447E-03     106.395E-03    -53.2063E-03     47.6462E-03
             887     5.97374E-03     94.4049E-03    -47.8386E+06    -125.703E+06    -24.3962E+06    -9.67093E+06    -53.6720E-03     106.974E-03    -53.3020E-03     55.0848E-03    -53.7643E-03     106.521E-03    -53.1723E-03     54.6734E-03
             888     6.82734E-03     94.4631E-03    -43.4921E+06    -116.958E+06    -19.4586E+06    -10.7244E+06    -53.7995E-03     107.073E-03    -53.2734E-03     61.7830E-03    -53.9194E-03     106.680E-03    -53.1380E-03     61.2941E-03
             889     7.68114E-03     94.5277E-03    -39.5490E+06    -109.390E+06    -15.8097E+06    -11.7169E+06    -53.9526E-03     107.195E-03    -53.2428E-03     68.1548E-03    -54.1075E-03     106.867E-03    -53.1059E-03     67.5803E-03
             890     8.53462E-03     94.5984E-03    -35.7077E+06    -100.768E+06    -13.9561E+06    -12.0570E+06    -54.1026E-03     107.307E-03    -53.2045E-03     74.2035E-03    -54.3029E-03     107.063E-03    -53.0764E-03     73.5437E-03
             891     9.38851E-03     94.6750E-03    -32.1093E+06    -89.7401E+06    -12.0803E+06    -11.8261E+06    -54.2415E-03     107.407E-03    -53.1654E-03     79.7702E-03    -54.5058E-03     107.274E-03    -53.0492E-03     79.0229E-03
             892     10.2423E-03     94.7565E-03    -28.7670E+06    -77.0790E+06    -10.9118E+06    -11.0300E+06    -54.3903E-03     107.515E-03    -53.1244E-03     84.7851E-03    -54.7389E-03     107.519E-03    -53.0255E-03     83.9474E-03
             893     11.0956E-03     94.8430E-03    -25.7074E+06    -57.1710E+06    -9.72346E+06    -9.40225E+06    -54.4458E-03     107.521E-03    -53.0755E-03     89.6335E-03    -54.9167E-03     107.726E-03    -53.0040E-03     88.7063E-03
             894     11.9502E-03     94.9340E-03    -22.8818E+06    -27.9544E+06    -6.59106E+06    -7.07277E+06    -54.6085E-03     107.633E-03    -53.0248E-03     96.2168E-03    -55.2670E-03     108.130E-03    -52.9841E-03     95.1941E-03
             895     12.8032E-03     95.0334E-03    -20.0801E+06     29.8463E+06    -3.34628E+06    -3.17941E+06    -54.8247E-03     107.761E-03    -52.9362E-03     105.722E-03    -55.7914E-03     108.772E-03    -52.9671E-03     104.612E-03
             896     13.6575E-03     95.1435E-03    -18.1084E+06     95.7065E+06     22.0436E+06     844.307E+03    -54.8256E-03     107.771E-03    -52.9451E-03     114.516E-03    -56.1660E-03     109.323E-03    -52.9474E-03     113.385E-03
             897     14.5109E-03     95.2612E-03    -15.2427E+06     123.739E+06     57.9735E+06     1.27286E+06    -54.3996E-03     107.456E-03    -53.0566E-03     110.841E-03    -55.9085E-03     109.182E-03    -52.9240E-03     109.784E-03
             898     15.3656E-03     95.3633E-03    -9.38413E+06     133.586E+06     83.1386E+06    -175.638E+03    -54.0730E-03     107.214E-03    -53.1414E-03     103.928E-03    -55.6326E-03     108.974E-03    -52.9058E-03     102.989E-03
             899     16.2181E-03     95.4678E-03    -4.78070E+06     133.983E+06     91.2839E+06     326.315E+03    -53.4181E-03     106.582E-03    -53.1643E-03     76.3714E-03    -54.5550E-03     107.913E-03    -52.8953E-03     75.7204E-03
             900     853.311E-06     95.2640E-03    -69.7574E+06    -164.649E+06    -68.6848E+06    -1.45417E+06    -53.3045E-03     106.581E-03    -53.2761E-03     9.21596E-03    -53.3164E-03     105.960E-03    -53.2797E-03     9.16270E-03
             901     1.70656E-03     95.2772E-03    -67.7760E+06    -160.898E+06    -63.0353E+06    -2.77528E+06    -53.3166E-03     106.611E-03    -53.2942E-03     17.0038E-03    -53.3355E-03     106.001E-03    -53.2778E-03     16.9035E-03
             902     2.55998E-03     95.2979E-03    -64.6716E+06    -155.038E+06    -55.2231E+06    -4.21928E+06    -53.3430E-03     106.646E-03    -53.3028E-03     25.0073E-03    -53.3718E-03     106.055E-03    -53.2603E-03     24.8539E-03
             903     3.41330E-03     95.3270E-03    -60.6092E+06    -147.119E+06    -46.4272E+06    -5.78317E+06    -53.3943E-03     106.700E-03    -53.3056E-03     32.9234E-03    -53.4358E-03     106.139E-03    -53.2366E-03     32.7115E-03
             904     4.26680E-03     95.3635E-03    -56.4768E+06    -139.330E+06    -38.3318E+06    -7.80482E+06    -53.4388E-03     106.738E-03    -53.2991E-03     40.5680E-03    -53.4950E-03     106.210E-03    -53.2068E-03     40.2866E-03
             905     5.12036E-03     95.4076E-03    -51.9132E+06    -130.787E+06    -30.9978E+06    -9.32480E+06    -53.5327E-03     106.816E-03    -53.2829E-03     48.0053E-03    -53.6058E-03     106.330E-03    -53.1730E-03     47.6549E-03
             906     5.97390E-03     95.4589E-03    -47.6213E+06    -122.095E+06    -24.6222E+06    -10.7909E+06    -53.6304E-03     106.892E-03    -53.2612E-03     55.1224E-03    -53.7264E-03     106.456E-03    -53.1382E-03     54.6972E-03
             907     6.82763E-03     95.5169E-03    -43.4972E+06    -114.029E+06    -19.9834E+06    -12.2151E+06    -53.7300E-03     106.960E-03    -53.2300E-03     61.8849E-03    -53.8532E-03     106.582E-03    -53.1015E-03     61.3782E-03
             908     7.68124E-03     95.5816E-03    -39.5109E+06    -106.759E+06    -16.3095E+06    -13.1449E+06    -53.8881E-03     107.085E-03    -53.1964E-03     68.3394E-03    -54.0457E-03     106.770E-03    -53.0659E-03     67.7483E-03
             909     8.53514E-03     95.6523E-03    -35.9966E+06    -99.2208E+06    -14.7119E+06    -13.8129E+06    -54.0314E-03     107.187E-03    -53.1558E-03     74.3561E-03    -54.2340E-03     106.952E-03    -53.0333E-03     73.6754E-03
             910     9.38891E-03     95.7286E-03    -32.6551E+06    -88.9950E+06    -13.2428E+06    -13.7984E+06    -54.1726E-03     107.286E-03    -53.1133E-03     79.9853E-03    -54.4386E-03     107.158E-03    -53.0031E-03     79.2147E-03
             911     10.2426E-03     95.8106E-03    -29.4284E+06    -77.3556E+06    -12.1334E+06    -13.2205E+06    -54.3115E-03     107.382E-03    -53.0706E-03     85.0568E-03    -54.6608E-03     107.388E-03    -52.9765E-03     84.1936E-03
             912     11.0968E-03     95.8966E-03    -26.3020E+06    -59.2641E+06    -11.4289E+06    -11.6356E+06    -54.4412E-03     107.463E-03    -53.0214E-03     89.9068E-03    -54.9094E-03     107.660E-03    -52.9544E-03     88.9522E-03
             913     11.9500E-03     95.9878E-03    -23.6221E+06    -31.1672E+06    -8.55624E+06    -8.96893E+06    -54.6550E-03     107.630E-03    -52.9750E-03     96.5363E-03    -55.3102E-03     108.116E-03    -52.9383E-03     95.4893E-03
             914     12.8043E-03     96.0876E-03    -21.8416E+06     23.5908E+06    -6.20464E+06     -4.5569E+06    -54.8351E-03     107.727E-03    -52.8915E-03     105.979E-03    -55.7968E-03     108.713E-03    -52.9251E-03     104.853E-03
             915     13.6575E-03     96.1977E-03    -18.8271E+06     91.4343E+06     17.7241E+06     23.9075E+03    -54.8027E-03     107.692E-03    -52.8895E-03     114.898E-03    -56.1362E-03     109.232E-03    -52.9061E-03     113.759E-03
             916     14.5124E-03     96.3149E-03    -13.9319E+06     126.001E+06     56.9898E+06     824.909E+03    -54.4170E-03     107.422E-03    -53.0054E-03     111.442E-03    -55.9239E-03     109.162E-03    -52.8830E-03     110.380E-03
             917     15.3652E-03     96.4184E-03    -10.4855E+06     133.719E+06     82.7802E+06     253.085E+03    -54.2488E-03     107.353E-03    -53.1047E-03     105.274E-03    -55.8200E-03     109.122E-03    -52.8694E-03     104.340E-03
             918     16.2191E-03     96.5231E-03    -5.90242E+06     133.000E+06     90.5181E+06     439.066E+03    -53.2473E-03     106.374E-03    -53.1264E-03     77.3855E-03    -54.3934E-03     107.708E-03    -52.8581E-03     76.7356E-03
             919     853.242E-06     96.3184E-03    -69.8690E+06    -161.178E+06    -68.3645E+06    -1.66041E+06    -53.2946E-03     106.521E-03    -53.2265E-03     9.30298E-03    -53.3125E-03     105.917E-03    -53.2333E-03     9.24729E-03
             920     1.70669E-03     96.3312E-03    -67.6109E+06    -157.178E+06    -63.1758E+06    -3.14055E+06    -53.2626E-03     106.520E-03    -53.2577E-03     16.9903E-03    -53.2858E-03     105.929E-03    -53.2477E-03     16.8854E-03
             921     2.56002E-03     96.3522E-03    -64.3184E+06    -151.097E+06    -55.4255E+06    -5.02437E+06    -53.2955E-03     106.555E-03    -53.2593E-03     25.0304E-03    -53.3280E-03     105.983E-03    -53.2241E-03     24.8669E-03
             922     3.41346E-03     96.3810E-03    -60.2890E+06    -143.285E+06    -46.8619E+06    -6.84359E+06    -53.3179E-03     106.574E-03    -53.2559E-03     32.9552E-03    -53.3626E-03     106.032E-03    -53.1950E-03     32.7302E-03
             923     4.26700E-03     96.4175E-03    -55.9098E+06    -134.801E+06    -38.1619E+06    -8.60400E+06    -53.3741E-03     106.620E-03    -53.2455E-03     40.6259E-03    -53.4341E-03     106.113E-03    -53.1598E-03     40.3349E-03
             924     5.12056E-03     96.4615E-03    -51.6891E+06    -126.942E+06    -30.9958E+06    -10.5543E+06    -53.4563E-03     106.683E-03    -53.2266E-03     48.0872E-03    -53.5337E-03     106.216E-03    -53.1226E-03     47.7221E-03
             925     5.97425E-03     96.5128E-03    -47.2597E+06    -118.428E+06    -24.8123E+06    -11.9344E+06    -53.5343E-03     106.733E-03    -53.1991E-03     55.2190E-03    -53.6332E-03     106.316E-03    -53.0829E-03     54.7808E-03
             926     6.82796E-03     96.5707E-03    -43.3147E+06    -110.595E+06    -20.0609E+06    -13.3809E+06    -53.6485E-03     106.813E-03    -53.1648E-03     62.0565E-03    -53.7753E-03     106.452E-03    -53.0419E-03     61.5365E-03
             927     7.68189E-03     96.6354E-03    -39.6999E+06    -104.171E+06    -16.7859E+06    -14.5964E+06    -53.7785E-03     106.905E-03    -53.1267E-03     68.5583E-03    -53.9395E-03     106.604E-03    -53.0020E-03     67.9511E-03
             928     8.53560E-03     96.7059E-03    -36.2137E+06    -96.8616E+06    -15.0142E+06    -15.2398E+06    -53.9457E-03     107.029E-03    -53.0833E-03     74.6351E-03    -54.1518E-03     106.806E-03    -52.9654E-03     73.9388E-03
             929     9.38943E-03     96.7824E-03    -33.0177E+06    -87.7737E+06    -13.9107E+06    -15.6847E+06    -54.0914E-03     107.130E-03    -53.0386E-03     80.3434E-03    -54.3597E-03     107.010E-03    -52.9330E-03     79.5512E-03
             930     10.2435E-03     96.8641E-03    -29.9091E+06    -77.1704E+06    -13.0535E+06    -15.2109E+06    -54.2189E-03     107.213E-03    -52.9938E-03     85.4429E-03    -54.5687E-03     107.220E-03    -52.9038E-03     84.5579E-03
             931     11.0971E-03     96.9504E-03    -27.1027E+06    -60.8991E+06    -12.8807E+06    -13.9158E+06    -54.4220E-03     107.367E-03    -52.9445E-03     90.4407E-03    -54.8898E-03     107.559E-03    -52.8813E-03     89.4594E-03
             932     11.9512E-03     97.0420E-03    -24.4168E+06    -34.9350E+06    -10.5261E+06    -10.8790E+06    -54.6510E-03     107.552E-03    -52.9007E-03     97.2428E-03    -55.3028E-03     108.023E-03    -52.8673E-03     96.1740E-03
             933     12.8044E-03     97.1414E-03    -21.5937E+06     16.9733E+06    -8.17131E+06    -5.92266E+06    -54.7807E-03     107.601E-03    -52.8199E-03     106.618E-03    -55.7292E-03     108.556E-03    -52.8540E-03     105.481E-03
             934     13.6591E-03     97.2516E-03    -18.6990E+06     87.5842E+06     15.6828E+06    -1.93794E+06    -54.8677E-03     107.683E-03    -52.8153E-03     115.528E-03    -56.1941E-03     109.208E-03    -52.8368E-03     114.365E-03
             935     14.5123E-03     97.3690E-03    -15.2496E+06     125.509E+06     52.8576E+06     220.926E+03    -54.4279E-03     107.350E-03    -52.9221E-03     111.965E-03    -55.9344E-03     109.095E-03    -52.8177E-03     110.897E-03
             936     15.3673E-03     97.4727E-03    -10.2862E+06     133.551E+06     80.4414E+06      1.1372E+06    -53.7030E-03     106.718E-03    -53.0149E-03     105.779E-03    -55.2647E-03     108.484E-03    -52.7914E-03     104.873E-03
             937     16.2215E-03     97.5775E-03    -4.83290E+06     133.600E+06     91.8195E+06     335.460E+03    -53.2756E-03     106.316E-03    -53.0409E-03     77.7715E-03    -54.4174E-03     107.649E-03    -52.7685E-03     77.1246E-03
             938     853.426E-06     97.3726E-03    -69.1874E+06    -157.207E+06    -68.1656E+06    -1.97663E+06    -53.2131E-03     106.379E-03    -53.1661E-03     9.27958E-03    -53.2337E-03     105.794E-03    -53.1787E-03     9.22010E-03
             939     1.70669E-03     97.3854E-03    -66.8604E+06    -152.791E+06    -62.3698E+06    -3.89159E+06    -53.2082E-03     106.399E-03    -53.1907E-03     17.0499E-03    -53.2352E-03     105.827E-03    -53.1841E-03     16.9356E-03
             940     2.56016E-03     97.4063E-03    -63.5779E+06    -146.404E+06    -54.7919E+06    -5.88018E+06    -53.2072E-03     106.398E-03    -53.1906E-03     25.0916E-03    -53.2437E-03     105.848E-03    -53.1601E-03     24.9178E-03
             941     3.41372E-03     97.4350E-03    -59.6450E+06    -138.748E+06    -46.2374E+06    -8.03673E+06    -53.2201E-03     106.401E-03    -53.1811E-03     32.9943E-03    -53.2690E-03     105.880E-03    -53.1246E-03     32.7547E-03
             942     4.26731E-03     97.4714E-03    -55.1490E+06    -130.706E+06    -37.9072E+06    -9.77568E+06    -53.2762E-03     106.440E-03    -53.1642E-03     40.7470E-03    -53.3386E-03     105.953E-03    -53.0842E-03     40.4423E-03
             943     5.12095E-03     97.5154E-03    -50.7068E+06    -122.153E+06    -30.2840E+06    -11.5098E+06    -53.3332E-03     106.474E-03    -53.1405E-03     48.2130E-03    -53.4135E-03     106.028E-03    -53.0413E-03     47.8376E-03
             944     5.97475E-03     97.5663E-03    -46.5513E+06    -115.068E+06    -24.4590E+06    -13.2759E+06    -53.4068E-03     106.514E-03    -53.1071E-03     55.4063E-03    -53.5072E-03     106.111E-03    -52.9951E-03     54.9532E-03
             945     6.82864E-03     97.6245E-03    -42.4642E+06    -107.098E+06    -19.7155E+06    -14.3142E+06    -53.5215E-03     106.588E-03    -53.0667E-03     62.3137E-03    -53.6490E-03     106.242E-03    -52.9484E-03     61.7848E-03
             946     7.68241E-03     97.6887E-03    -38.9558E+06    -100.708E+06    -16.1889E+06    -15.6418E+06    -53.6392E-03     106.664E-03    -53.0248E-03     68.8563E-03    -53.8016E-03     106.377E-03    -52.9032E-03     68.2395E-03
             947     8.53656E-03     97.7596E-03    -35.7295E+06    -94.3611E+06    -14.8933E+06    -16.6596E+06    -53.7774E-03     106.751E-03    -52.9740E-03     75.1101E-03    -53.9840E-03     106.539E-03    -52.8599E-03     74.4004E-03
             948     9.39055E-03     97.8359E-03    -32.6598E+06    -85.6593E+06    -13.8024E+06    -17.1197E+06    -53.9572E-03     106.881E-03    -52.9239E-03     80.8818E-03    -54.2261E-03     106.770E-03    -52.8214E-03     80.0761E-03
             949     10.2444E-03     97.9175E-03    -29.8832E+06    -76.7130E+06    -13.4025E+06    -17.0834E+06    -54.1470E-03     107.025E-03    -52.8781E-03     86.1327E-03    -54.4964E-03     107.035E-03    -52.7906E-03     85.2282E-03
             950     11.0986E-03     98.0041E-03    -27.2372E+06    -61.8377E+06    -13.6064E+06    -15.7808E+06    -54.3090E-03     107.137E-03    -52.8281E-03     91.2715E-03    -54.7747E-03     107.326E-03    -52.7670E-03     90.2723E-03
             951     11.9522E-03     98.0956E-03    -24.5204E+06    -38.5385E+06    -11.8809E+06    -13.1165E+06    -54.5024E-03     107.283E-03    -52.7806E-03     98.1075E-03    -55.1464E-03     107.738E-03    -52.7485E-03     97.0182E-03
             952     12.8067E-03     98.1955E-03    -21.6853E+06     9.82455E+06    -10.1746E+06    -8.48610E+06    -54.8505E-03     107.553E-03    -52.7028E-03     107.522E-03    -55.7871E-03     108.477E-03    -52.7365E-03     106.354E-03
             953     13.6599E-03     98.3052E-03    -18.9843E+06     82.6686E+06     12.2036E+06    -2.59364E+06    -54.9907E-03     107.688E-03    -52.6974E-03     116.374E-03    -56.3075E-03     109.196E-03    -52.7287E-03     115.204E-03
             954     14.5144E-03     98.4239E-03    -15.8260E+06     124.703E+06     47.9567E+06    -147.685E+03    -54.4847E-03     107.285E-03    -52.8000E-03     112.660E-03    -55.9862E-03     109.034E-03    -52.7181E-03     111.589E-03
             955     15.3676E-03     98.5256E-03    -10.3778E+06     132.644E+06     77.7193E+06     19.1628E+03    -53.9757E-03     106.892E-03    -52.9167E-03     105.403E-03    -55.5298E-03     108.655E-03    -52.7054E-03     104.473E-03
             956     16.2231E-03     98.6307E-03    -3.81885E+06     133.753E+06     92.6841E+06     135.632E+03    -53.2907E-03     106.262E-03    -52.9708E-03     77.4089E-03    -54.4268E-03     107.590E-03    -52.6958E-03     76.7522E-03
             957     853.391E-06     98.4265E-03    -67.4735E+06    -152.067E+06    -66.2955E+06    -2.62496E+06    -53.0755E-03     106.182E-03    -53.1065E-03     9.28302E-03    -53.0977E-03     105.617E-03    -53.1196E-03     9.21524E-03
             958     1.70697E-03     98.4394E-03    -65.3348E+06    -147.686E+06    -61.0484E+06    -4.65878E+06    -53.0843E-03     106.169E-03    -53.0852E-03     17.0943E-03    -53.1129E-03     105.619E-03    -53.0815E-03     16.9708E-03
             959     2.56046E-03     98.4602E-03    -61.9846E+06    -141.377E+06    -53.2359E+06    -6.84705E+06    -53.0884E-03     106.168E-03    -53.0798E-03     25.1470E-03    -53.1264E-03     105.639E-03    -53.0511E-03     24.9615E-03
             960     3.41404E-03     98.4888E-03    -57.9653E+06    -133.429E+06    -44.7205E+06    -8.95383E+06    -53.0937E-03     106.160E-03    -53.0662E-03     33.1139E-03    -53.1440E-03     105.660E-03    -53.0123E-03     32.8639E-03
             961     4.26775E-03     98.5252E-03    -53.8310E+06    -126.277E+06    -36.7660E+06    -11.0515E+06    -53.1056E-03     106.148E-03    -53.0421E-03     40.9187E-03    -53.1692E-03     105.678E-03    -52.9648E-03     40.5997E-03
             962     5.12163E-03     98.5689E-03    -49.3961E+06    -117.860E+06    -29.6370E+06    -12.6734E+06    -53.1496E-03     106.155E-03    -53.0058E-03     48.4576E-03    -53.2300E-03     105.728E-03    -52.9115E-03     48.0702E-03
             963     5.97550E-03     98.6199E-03    -45.2732E+06    -110.821E+06    -23.4035E+06    -14.1845E+06    -53.2353E-03     106.202E-03    -52.9667E-03     55.7295E-03    -53.3365E-03     105.817E-03    -52.8573E-03     55.2681E-03
             964     6.82951E-03     98.6776E-03    -41.4655E+06    -103.682E+06    -19.1327E+06    -15.5953E+06    -53.3130E-03     106.231E-03    -52.9177E-03     62.7362E-03    -53.4406E-03     105.898E-03    -52.8029E-03     62.1955E-03
             965     7.68373E-03     98.7423E-03    -37.6507E+06    -96.9173E+06    -15.3176E+06    -16.5836E+06    -53.4221E-03     106.289E-03    -52.8669E-03     69.3997E-03    -53.5837E-03     106.017E-03    -52.7484E-03     68.7765E-03
             966     8.53776E-03     98.8125E-03    -34.4987E+06    -91.4908E+06    -13.9062E+06    -17.6981E+06    -53.5652E-03     106.375E-03    -52.8098E-03     75.7435E-03    -53.7701E-03     106.173E-03    -52.6967E-03     75.0269E-03
             967     9.39208E-03     98.8893E-03    -31.6757E+06    -83.1921E+06    -13.1556E+06    -18.4390E+06    -53.7512E-03     106.503E-03    -52.7520E-03     81.6885E-03    -54.0182E-03     106.401E-03    -52.6512E-03     80.8735E-03
             968     10.2463E-03     98.9707E-03    -29.0702E+06    -75.7445E+06    -12.9332E+06    -18.4539E+06    -53.9717E-03     106.674E-03    -52.7026E-03     87.0532E-03    -54.3181E-03     106.686E-03    -52.6153E-03     86.1385E-03
             969     11.1003E-03     99.0575E-03    -26.6989E+06    -62.5909E+06    -13.8629E+06    -17.5413E+06    -54.1623E-03     106.811E-03    -52.6491E-03     92.3171E-03    -54.6224E-03     106.995E-03    -52.5890E-03     91.3041E-03
             970     11.9547E-03     99.1489E-03    -24.2983E+06    -41.4524E+06    -12.4618E+06    -15.2233E+06    -54.4766E-03     107.082E-03    -52.6059E-03     99.1329E-03    -55.1139E-03     107.523E-03    -52.5728E-03     98.0228E-03
             971     12.8084E-03     99.2489E-03    -22.5345E+06     2.39618E+06    -12.5057E+06    -10.0909E+06    -54.8978E-03     107.433E-03    -52.5355E-03     108.626E-03    -55.8242E-03     108.324E-03    -52.5688E-03     107.443E-03
             972     13.6624E-03     99.3601E-03    -20.0259E+06     76.7638E+06     7.23517E+06    -4.54494E+06    -55.0808E-03     107.606E-03    -52.5252E-03     117.338E-03    -56.3885E-03     109.094E-03    -52.5713E-03     116.145E-03
             973     14.5161E-03     99.4766E-03    -15.2494E+06     123.753E+06     42.8593E+06    -1.43922E+06    -54.7949E-03     107.430E-03    -52.6349E-03     113.485E-03    -56.2893E-03     109.185E-03    -52.5780E-03     112.393E-03
             974     15.3704E-03     99.5815E-03    -10.6968E+06     131.970E+06     74.9676E+06    -552.395E+03    -54.6283E-03     107.424E-03    -52.7955E-03     106.494E-03    -56.1920E-03     109.201E-03    -52.5965E-03     105.537E-03
             975     16.2214E-03     99.6847E-03    -4.74031E+06     133.123E+06     92.2530E+06    -485.927E+03    -53.5004E-03     106.389E-03    -52.8889E-03     78.1792E-03    -54.6521E-03     107.729E-03    -52.6138E-03     77.5023E-03
             976     853.581E-06     99.4802E-03    -65.1665E+06    -146.219E+06    -64.1847E+06    -2.90941E+06    -52.9673E-03     105.867E-03    -52.8999E-03     9.35381E-03    -52.9895E-03     105.325E-03    -52.9143E-03     9.28291E-03
             977     1.70710E-03     99.4931E-03    -63.1321E+06    -141.573E+06    -58.8227E+06    -5.35741E+06    -52.9112E-03     105.835E-03    -52.9242E-03     17.1820E-03    -52.9409E-03     105.309E-03    -52.9215E-03     17.0504E-03
             978     2.56085E-03     99.5137E-03    -59.9641E+06    -135.748E+06    -51.5324E+06    -7.86339E+06    -52.8880E-03     105.796E-03    -52.9085E-03     25.2687E-03    -52.9264E-03     105.290E-03    -52.8824E-03     25.0717E-03
             979     3.41464E-03     99.5424E-03    -56.1072E+06    -128.206E+06    -43.2279E+06    -9.92758E+06    -52.8696E-03     105.753E-03    -52.8834E-03     33.3254E-03    -52.9201E-03     105.274E-03    -52.8322E-03     33.0652E-03
             980     4.26857E-03     99.5784E-03    -51.8860E+06    -120.791E+06    -35.0458E+06    -11.9993E+06    -52.8760E-03     105.725E-03    -52.8495E-03     41.2037E-03    -52.9399E-03     105.278E-03    -52.7743E-03     40.8757E-03
             981     5.12256E-03     99.6222E-03    -47.7399E+06    -113.514E+06    -28.3758E+06    -13.8754E+06    -52.9032E-03     105.707E-03    -52.8039E-03     48.8247E-03    -52.9828E-03     105.297E-03    -52.7119E-03     48.4259E-03
             982     5.97680E-03     99.6729E-03    -43.5424E+06    -106.839E+06    -22.4554E+06    -15.2405E+06    -52.9492E-03     105.702E-03    -52.7523E-03     56.2012E-03    -53.0480E-03     105.332E-03    -52.6466E-03     55.7318E-03
             983     6.83099E-03     99.7308E-03    -39.6972E+06    -99.3813E+06    -17.7190E+06    -16.5833E+06    -53.0092E-03     105.702E-03    -52.6924E-03     63.3204E-03    -53.1350E-03     105.385E-03    -52.5794E-03     62.7737E-03
             984     7.68538E-03     99.7947E-03    -36.2525E+06    -93.6384E+06    -14.1963E+06    -17.7968E+06    -53.1084E-03     105.738E-03    -52.6300E-03     70.1583E-03    -53.2680E-03     105.478E-03    -52.5126E-03     69.5275E-03
             985     8.53993E-03     99.8657E-03    -32.9343E+06    -88.2904E+06    -12.4031E+06    -18.5941E+06    -53.2851E-03     105.850E-03    -52.5651E-03     76.6562E-03    -53.4873E-03     105.658E-03    -52.4514E-03     75.9372E-03
             986     9.39434E-03     99.9415E-03    -30.3107E+06    -80.4996E+06    -11.7856E+06    -19.3550E+06    -53.4874E-03     105.989E-03    -52.5012E-03     82.7827E-03    -53.7519E-03     105.894E-03    -52.3994E-03     81.9657E-03
             987     10.2488E-03     100.024E-03    -28.0088E+06    -74.3642E+06    -11.7507E+06    -19.5715E+06    -53.7382E-03     106.187E-03    -52.4491E-03     88.2400E-03    -54.0811E-03     106.201E-03    -52.3594E-03     87.3215E-03
             988     11.1034E-03     100.110E-03    -25.9117E+06    -62.6470E+06    -13.1013E+06    -18.8197E+06    -54.0631E-03     106.461E-03    -52.3982E-03     93.4992E-03    -54.5190E-03     106.641E-03    -52.3353E-03     92.4783E-03
             989     11.9574E-03     100.203E-03    -24.1504E+06    -44.1898E+06    -12.2751E+06    -16.7238E+06    -54.5176E-03     106.886E-03    -52.3679E-03     100.512E-03    -55.1508E-03     107.312E-03    -52.3302E-03     99.3883E-03
             990     12.8113E-03     100.303E-03    -21.6186E+06    -4.93073E+06    -13.0004E+06    -11.9086E+06    -55.0105E-03     107.326E-03    -52.3155E-03     109.920E-03    -55.9230E-03     108.182E-03    -52.3420E-03     108.718E-03
             991     13.6654E-03     100.413E-03    -18.8928E+06     71.4876E+06     6.71014E+06    -6.07993E+06    -55.3236E-03     107.645E-03    -52.3218E-03     118.418E-03    -56.6206E-03     109.110E-03    -52.3645E-03     117.204E-03
             992     14.5189E-03     100.532E-03    -16.2033E+06     121.533E+06     37.8850E+06    -2.87815E+06    -55.1846E-03     107.619E-03    -52.4343E-03     114.584E-03    -56.6819E-03     109.380E-03    -52.3976E-03     113.464E-03
             993     15.3716E-03     100.635E-03    -10.5014E+06     131.240E+06     71.0751E+06    -2.00305E+06    -54.7341E-03     107.351E-03    -52.6172E-03     107.527E-03    -56.3010E-03     109.141E-03    -52.4369E-03     106.550E-03
             994     16.2275E-03     100.741E-03    -4.82439E+06     133.121E+06     92.6958E+06    -884.666E+03    -54.0284E-03     106.783E-03    -52.7545E-03     78.4468E-03    -55.1844E-03     108.126E-03    -52.4770E-03     77.7603E-03
             995     853.761E-06     100.534E-03    -62.3829E+06    -139.339E+06    -61.2407E+06    -3.31194E+06    -52.7131E-03     105.352E-03    -52.6386E-03     9.41854E-03    -52.7356E-03     104.836E-03    -52.6523E-03     9.34330E-03
             996     1.70765E-03     100.546E-03    -60.3103E+06    -134.939E+06    -56.3538E+06    -5.98078E+06    -52.6537E-03     105.318E-03    -52.6644E-03     17.3079E-03    -52.6824E-03     104.817E-03    -52.6631E-03     17.1697E-03
             997     2.56147E-03     100.567E-03    -57.4278E+06    -129.411E+06    -49.2594E+06    -8.63922E+06    -52.5890E-03     105.231E-03    -52.6421E-03     25.4801E-03    -52.6270E-03     104.749E-03    -52.6175E-03     25.2753E-03
             998     3.41557E-03     100.595E-03    -53.7527E+06    -122.506E+06    -41.4050E+06    -11.0081E+06    -52.5535E-03     105.158E-03    -52.6041E-03     33.6155E-03    -52.6028E-03     104.701E-03    -52.5555E-03     33.3447E-03
             999     4.26975E-03     100.631E-03    -49.6211E+06    -115.318E+06    -33.4165E+06    -12.9959E+06    -52.5449E-03     105.104E-03    -52.5588E-03     41.5868E-03    -52.6072E-03     104.677E-03    -52.4867E-03     41.2505E-03
            1000     5.12409E-03     100.675E-03    -45.4209E+06    -108.545E+06    -26.4294E+06    -14.8879E+06    -52.5423E-03     105.046E-03    -52.5037E-03     49.3497E-03    -52.6196E-03     104.653E-03    -52.4126E-03     48.9437E-03
            1001     5.97846E-03     100.726E-03    -41.4034E+06    -102.520E+06    -20.9116E+06    -16.4695E+06    -52.5440E-03     104.981E-03    -52.4370E-03     56.8629E-03    -52.6393E-03     104.626E-03    -52.3328E-03     56.3853E-03
            1002     6.83327E-03     100.783E-03    -37.5069E+06    -95.5504E+06    -16.1652E+06    -17.5321E+06    -52.5911E-03     104.953E-03    -52.3622E-03     64.1354E-03    -52.7122E-03     104.649E-03    -52.2501E-03     63.5856E-03
            1003     7.68798E-03     100.847E-03    -34.0836E+06    -89.8300E+06    -12.3829E+06    -18.6662E+06    -52.7060E-03     104.994E-03    -52.2882E-03     71.1436E-03    -52.8609E-03     104.745E-03    -52.1704E-03     70.5123E-03
            1004     8.54285E-03     100.917E-03    -31.1336E+06      -85.43E+06    -10.7234E+06    -19.5882E+06    -52.8961E-03     105.111E-03    -52.2146E-03     77.8495E-03    -53.0935E-03     104.925E-03    -52.0993E-03     77.1299E-03
            1005     9.39768E-03     100.994E-03    -28.5712E+06    -77.8381E+06    -9.96651E+06    -19.8375E+06    -53.1682E-03     105.315E-03    -52.1464E-03     84.1198E-03    -53.4280E-03     105.226E-03    -52.0419E-03     83.3092E-03
            1006     10.2526E-03     101.076E-03    -26.6826E+06    -72.2207E+06    -9.67465E+06    -20.2190E+06    -53.5242E-03     105.623E-03    -52.0988E-03     89.7573E-03    -53.8646E-03     105.640E-03    -52.0038E-03     88.8428E-03
            1007     11.1069E-03     101.163E-03    -24.9380E+06    -62.5829E+06    -11.8350E+06    -19.6633E+06    -53.9916E-03     106.049E-03    -52.0576E-03     95.2104E-03    -54.4440E-03     106.225E-03    -51.9899E-03     94.1888E-03
            1008     11.9612E-03     101.255E-03    -22.9127E+06    -45.7440E+06    -11.0459E+06    -17.8393E+06    -54.5095E-03     106.554E-03    -52.0443E-03     102.294E-03    -55.1361E-03     106.969E-03    -51.9999E-03     101.166E-03
            1009     12.8154E-03     101.357E-03    -20.8086E+06    -10.6057E+06    -12.5647E+06    -14.4506E+06    -55.2790E-03     107.296E-03    -52.0175E-03     111.914E-03    -56.1832E-03     108.126E-03    -52.0347E-03     110.683E-03
            1010     13.6684E-03     101.467E-03    -17.2646E+06     63.8916E+06     6.67757E+06    -8.35134E+06    -55.8280E-03     107.887E-03    -52.0586E-03     120.195E-03    -57.1150E-03     109.320E-03    -52.0928E-03     118.947E-03
            1011     14.5221E-03     101.586E-03    -12.4531E+06     119.239E+06     37.7144E+06    -3.32682E+06    -55.4412E-03     107.633E-03    -52.1916E-03     116.082E-03    -56.9242E-03     109.386E-03    -52.1579E-03     114.956E-03
            1012     15.3758E-03     101.690E-03    -9.29406E+06     131.415E+06     69.1676E+06    -2.46991E+06    -55.2870E-03     107.684E-03    -52.3966E-03     108.761E-03    -56.8518E-03     109.481E-03    -52.2278E-03     107.770E-03
            1013     16.2272E-03     101.794E-03    -6.38888E+06     131.047E+06     91.4655E+06    -1.30736E+06    -54.8177E-03     107.406E-03    -52.5881E-03     78.9105E-03    -55.9828E-03     108.748E-03    -52.3116E-03     78.1991E-03
            1014     854.138E-06     101.586E-03    -59.3017E+06    -131.627E+06    -58.2198E+06    -3.51750E+06    -52.3013E-03     104.594E-03    -52.2925E-03     9.59701E-03    -52.3239E-03     104.107E-03    -52.3067E-03     9.52041E-03
            1015     1.70815E-03     101.599E-03    -57.5072E+06    -127.774E+06    -53.6903E+06    -6.53817E+06    -52.2356E-03     104.512E-03    -52.2763E-03     17.4368E-03    -52.2644E-03     104.039E-03    -52.2761E-03     17.2935E-03
            1016     2.56255E-03     101.619E-03    -54.5978E+06    -122.452E+06    -46.9080E+06    -9.37513E+06    -52.1783E-03     104.420E-03    -52.2419E-03     25.7653E-03    -52.2155E-03     103.965E-03    -52.2197E-03     25.5544E-03
            1017     3.41688E-03     101.648E-03    -51.0346E+06    -116.214E+06    -39.2217E+06    -11.9763E+06    -52.1322E-03     104.330E-03    -52.1981E-03     34.0019E-03    -52.1798E-03     103.898E-03    -52.1517E-03     33.7232E-03
            1018     4.27146E-03     101.683E-03    -47.1133E+06    -109.704E+06    -31.6481E+06    -14.1266E+06    -52.0560E-03     104.196E-03    -52.1403E-03     42.1124E-03    -52.1158E-03     103.791E-03    -52.0711E-03     41.7677E-03
            1019     5.12621E-03     101.727E-03    -43.0724E+06    -103.527E+06    -24.7527E+06    -15.9143E+06    -52.0011E-03     104.068E-03    -52.0668E-03     50.0443E-03    -52.0753E-03     103.693E-03    -51.9779E-03     49.6334E-03
            1020     5.98130E-03     101.777E-03    -39.1562E+06    -97.5646E+06    -19.0039E+06    -17.4841E+06    -51.9987E-03     103.981E-03    -51.9824E-03     57.7624E-03    -52.0912E-03     103.643E-03    -51.8792E-03     57.2820E-03
            1021     6.83625E-03     101.835E-03    -35.5074E+06    -92.0648E+06    -14.7000E+06    -18.6729E+06    -52.0548E-03     103.948E-03    -51.8928E-03     65.2559E-03    -52.1710E-03     103.653E-03    -51.7813E-03     64.7037E-03
            1022     7.69167E-03     101.898E-03    -32.1096E+06    -86.0018E+06    -10.9150E+06    -19.4396E+06    -52.1872E-03     103.994E-03    -51.8066E-03     72.4711E-03    -52.3372E-03     103.756E-03    -51.6899E-03     71.8441E-03
            1023     8.54688E-03     101.969E-03    -29.1452E+06    -82.1806E+06    -8.52873E+06    -20.2980E+06    -52.4227E-03     104.153E-03    -51.7301E-03     79.4060E-03    -52.6152E-03     103.975E-03    -51.6113E-03     78.6926E-03
            1024     9.40228E-03     102.045E-03    -26.6729E+06    -76.1559E+06    -8.18427E+06    -20.3579E+06    -52.7710E-03     104.431E-03    -51.6601E-03     85.9424E-03    -53.0231E-03     104.342E-03    -51.5519E-03     85.1420E-03
            1025     10.2572E-03     102.128E-03    -24.7544E+06    -69.5254E+06    -7.14207E+06    -20.1920E+06    -53.2529E-03     104.873E-03    -51.6199E-03     91.8620E-03    -53.5886E-03     104.895E-03    -51.5189E-03     90.9642E-03
            1026     11.1123E-03     102.215E-03    -23.2791E+06    -62.0232E+06    -9.43330E+06    -20.2158E+06    -53.8553E-03     105.450E-03    -51.5945E-03     97.6052E-03    -54.3018E-03     105.621E-03    -51.5180E-03     96.5924E-03
            1027     11.9666E-03     102.308E-03    -21.7397E+06    -46.6899E+06      -9.195E+06    -18.9134E+06    -54.6165E-03     106.221E-03    -51.6047E-03     104.719E-03    -55.2392E-03     106.628E-03    -51.5514E-03     103.588E-03
            1028     12.8204E-03     102.409E-03    -19.7101E+06    -14.7008E+06    -10.4172E+06    -16.3116E+06    -55.5236E-03     107.139E-03    -51.6158E-03     114.621E-03    -56.4232E-03     107.947E-03    -51.6180E-03     113.374E-03
            1029     13.6741E-03     102.523E-03    -17.0047E+06     56.2953E+06     8.46708E+06    -11.4475E+06    -56.3660E-03     108.067E-03    -51.7010E-03     123.027E-03    -57.6529E-03     109.469E-03    -51.7157E-03     121.740E-03
            1030     14.5265E-03     102.640E-03    -13.3344E+06     114.325E+06     35.1730E+06    -5.34365E+06    -56.2378E-03     108.101E-03    -51.8634E-03     117.560E-03    -57.7239E-03     109.844E-03    -51.8340E-03     116.397E-03
            1031     15.3799E-03     102.745E-03    -8.97769E+06     130.816E+06     65.4109E+06    -1.07679E+06    -56.0226E-03     108.132E-03    -52.1090E-03     110.766E-03    -57.5865E-03     109.938E-03    -51.9586E-03     109.783E-03
            1032     16.2321E-03     102.852E-03    -5.64149E+06     129.969E+06     91.7051E+06    -448.217E+03    -55.4684E-03     107.834E-03    -52.3656E-03     80.5891E-03    -56.6363E-03     109.177E-03    -52.0873E-03     79.8742E-03
            1033     854.453E-06     102.639E-03    -56.1199E+06    -123.478E+06    -55.3957E+06    -3.93613E+06    -51.7485E-03     103.485E-03    -51.7367E-03     9.70408E-03    -51.7710E-03     103.031E-03    -51.7532E-03     9.62348E-03
            1034     1.70924E-03     102.651E-03    -54.3814E+06    -119.907E+06    -50.9135E+06    -7.03773E+06    -51.6671E-03     103.384E-03    -51.7173E-03     17.6820E-03    -51.6956E-03     102.942E-03    -51.7192E-03     17.5351E-03
            1035     2.56389E-03     102.671E-03    -51.8081E+06    -114.980E+06    -44.6405E+06    -10.0384E+06    -51.6037E-03     103.279E-03    -51.6753E-03     26.1442E-03    -51.6407E-03     102.853E-03    -51.6566E-03     25.9293E-03
            1036     3.41880E-03     102.699E-03    -48.6031E+06    -109.424E+06    -37.2772E+06    -12.7872E+06    -51.4997E-03     103.120E-03    -51.6204E-03     34.5481E-03    -51.5472E-03     102.715E-03    -51.5776E-03     34.2653E-03
            1037     4.27389E-03     102.734E-03    -44.9508E+06    -103.754E+06    -30.0195E+06    -15.1166E+06    -51.3823E-03     102.927E-03    -51.5446E-03     42.8300E-03    -51.4412E-03     102.545E-03    -51.4791E-03     42.4811E-03
            1038     5.12934E-03     102.777E-03    -41.1238E+06    -98.2579E+06    -23.3127E+06    -16.9365E+06    -51.2856E-03     102.737E-03    -51.4513E-03     50.9751E-03    -51.3582E-03     102.382E-03    -51.3658E-03     50.5621E-03
            1039     5.98483E-03     102.828E-03    -37.3466E+06    -92.8128E+06    -17.7149E+06    -18.4525E+06    -51.2680E-03     102.615E-03    -51.3472E-03     58.9322E-03    -51.3580E-03     102.294E-03    -51.2471E-03     58.4528E-03
            1040     6.84084E-03     102.885E-03    -33.9038E+06    -88.0633E+06    -13.2381E+06    -19.5612E+06    -51.3448E-03     102.588E-03    -51.2436E-03     66.7071E-03    -51.4579E-03     102.307E-03    -51.1330E-03     66.1597E-03
            1041     7.69651E-03     102.949E-03    -30.6784E+06    -82.5888E+06    -9.72871E+06    -20.4255E+06    -51.5040E-03     102.650E-03    -51.1455E-03     74.2509E-03    -51.6499E-03     102.422E-03    -51.0299E-03     73.6298E-03
            1042     8.55262E-03     103.019E-03    -27.8219E+06    -79.0066E+06    -6.91760E+06    -20.8158E+06    -51.8052E-03     102.870E-03    -51.0650E-03     81.5473E-03    -51.9937E-03     102.699E-03    -50.9447E-03     80.8480E-03
            1043     9.40824E-03     103.096E-03    -25.4867E+06    -74.4761E+06    -6.57774E+06    -20.8560E+06    -52.2637E-03     103.262E-03    -50.9978E-03     88.4459E-03    -52.5103E-03     103.172E-03    -50.8857E-03     87.6609E-03
            1044     10.2642E-03     103.178E-03    -23.2386E+06    -67.6183E+06    -5.32971E+06    -20.5673E+06    -52.8826E-03     103.849E-03    -50.9664E-03     94.7301E-03    -53.2118E-03     103.871E-03    -50.8613E-03     93.8503E-03
            1045     11.1190E-03     103.267E-03    -21.5658E+06    -60.4750E+06    -6.47774E+06    -20.1929E+06    -53.7049E-03     104.671E-03    -50.9660E-03     100.684E-03    -54.1464E-03     104.840E-03    -50.8795E-03     99.6919E-03
            1046     11.9738E-03     103.360E-03    -20.3290E+06    -46.9045E+06    -6.75868E+06    -19.4851E+06    -54.7235E-03     105.732E-03    -51.0083E-03     108.131E-03    -55.3418E-03     106.131E-03    -50.9446E-03     107.010E-03
            1047     12.8274E-03     103.463E-03    -19.3291E+06    -17.3369E+06    -7.26729E+06    -17.2312E+06    -55.9512E-03     107.025E-03    -51.0733E-03     118.026E-03    -56.8549E-03     107.819E-03    -51.0565E-03     116.775E-03
            1048     13.6809E-03     103.576E-03    -18.4521E+06     49.5099E+06     10.5225E+06    -12.0067E+06    -56.8189E-03     108.031E-03    -51.2117E-03     126.310E-03    -58.1087E-03     109.400E-03    -51.2042E-03     125.024E-03
            1049     14.5333E-03     103.698E-03    -16.8280E+06     108.550E+06     32.0178E+06    -6.14060E+06    -57.4199E-03     108.835E-03    -51.4152E-03     120.960E-03    -58.9203E-03     110.568E-03    -51.3881E-03     119.774E-03
            1050     15.3839E-03     103.799E-03    -12.4714E+06     126.661E+06     58.4690E+06    -2.38813E+06    -57.1547E-03     108.875E-03    -51.7202E-03     112.736E-03    -58.7313E-03     110.687E-03    -51.5934E-03     111.710E-03
            1051     16.2371E-03     103.909E-03    -4.25801E+06     128.227E+06     90.6827E+06    -1.37765E+06    -56.3893E-03     108.454E-03    -52.0650E-03     82.0291E-03    -57.5493E-03     109.792E-03    -51.7913E-03     81.2870E-03
            1052     855.242E-06     103.689E-03    -53.0521E+06    -114.416E+06    -52.2708E+06    -4.32122E+06    -51.0029E-03     101.946E-03    -50.9436E-03     9.79149E-03    -51.0277E-03     101.528E-03    -50.9621E-03     9.70786E-03
            1053     1.71044E-03     103.701E-03    -51.4086E+06    -111.602E+06    -48.3708E+06    -7.61407E+06    -50.8906E-03     101.835E-03    -50.9441E-03     18.0108E-03    -50.9197E-03     101.425E-03    -50.9496E-03     17.8603E-03
            1054     2.56583E-03     103.721E-03    -48.9406E+06    -107.180E+06    -42.3579E+06    -10.6685E+06    -50.7754E-03     101.666E-03    -50.8905E-03     26.6536E-03    -50.8122E-03     101.271E-03    -50.8759E-03     26.4366E-03
            1055     3.42149E-03     103.749E-03    -45.9954E+06    -102.426E+06    -35.3392E+06    -13.3903E+06    -50.6176E-03     101.433E-03    -50.8150E-03     35.2619E-03    -50.6641E-03     101.055E-03    -50.7765E-03     34.9798E-03
            1056     4.27740E-03     103.784E-03    -42.6981E+06    -97.3349E+06    -28.2994E+06    -15.7864E+06    -50.4688E-03     101.186E-03    -50.7172E-03     43.7772E-03    -50.5269E-03     100.829E-03    -50.6556E-03     43.4308E-03
            1057     5.13350E-03     103.827E-03    -39.2895E+06    -92.7003E+06    -22.0649E+06    -17.7353E+06    -50.3670E-03     100.971E-03    -50.6039E-03     52.2163E-03    -50.4381E-03     100.637E-03    -50.5229E-03     51.8070E-03
            1058     5.99007E-03     103.877E-03    -35.9687E+06    -87.9794E+06    -16.6955E+06    -19.1631E+06    -50.3371E-03     100.821E-03    -50.4836E-03     60.4976E-03    -50.4257E-03     100.518E-03    -50.3874E-03     60.0266E-03
            1059     6.84646E-03     103.933E-03    -32.6939E+06    -83.9939E+06    -12.1599E+06    -20.3365E+06    -50.3962E-03     100.762E-03    -50.3654E-03     68.6043E-03    -50.5068E-03     100.493E-03    -50.2570E-03     68.0676E-03
            1060     7.70346E-03     103.997E-03    -29.7803E+06    -79.0832E+06    -8.79487E+06    -21.0597E+06    -50.5903E-03     100.844E-03    -50.2539E-03     76.5629E-03    -50.7331E-03     100.626E-03    -50.1400E-03     75.9576E-03
            1061     8.56000E-03     104.068E-03    -27.2248E+06    -76.6598E+06    -6.19813E+06    -21.2825E+06    -50.9771E-03     101.144E-03    -50.1667E-03     84.3298E-03    -51.1611E-03     100.977E-03    -50.0470E-03     83.6515E-03
            1062     9.41685E-03     104.145E-03    -24.8058E+06    -71.8337E+06    -5.20109E+06    -21.3806E+06    -51.5973E-03     101.702E-03    -50.1044E-03     91.7154E-03    -51.8401E-03     101.616E-03    -49.9903E-03     90.9520E-03
            1063     10.2727E-03     104.228E-03    -22.6972E+06    -66.5185E+06    -4.07479E+06    -21.2531E+06    -52.4354E-03     102.525E-03    -50.0899E-03     98.4226E-03    -52.7596E-03     102.544E-03    -49.9809E-03     97.5622E-03
            1064     11.1287E-03     104.317E-03    -20.7658E+06    -59.1145E+06    -4.46926E+06    -20.4054E+06    -53.5362E-03     103.658E-03    -50.1218E-03     104.820E-03    -53.9742E-03     103.825E-03    -50.0283E-03     103.852E-03
            1065     11.9831E-03     104.412E-03    -19.3740E+06    -46.1772E+06    -3.80957E+06    -19.4641E+06    -54.9268E-03     105.143E-03    -50.2157E-03     112.347E-03    -55.5455E-03     105.540E-03    -50.1397E-03     111.245E-03
            1066     12.8375E-03     104.516E-03    -18.4722E+06    -20.3275E+06    -4.37364E+06    -17.0274E+06    -56.5079E-03     106.856E-03    -50.3484E-03     122.362E-03    -57.4110E-03     107.634E-03    -50.3140E-03     121.126E-03
            1067     13.6892E-03     104.632E-03    -16.9007E+06     42.9972E+06     14.0182E+06    -11.4267E+06    -57.6831E-03     108.252E-03    -50.5687E-03     130.002E-03    -58.9713E-03     109.592E-03    -50.5364E-03     128.722E-03
            1068     14.5428E-03     104.751E-03    -14.3227E+06     102.656E+06     32.5666E+06    -5.23439E+06    -58.1198E-03     108.945E-03    -50.8257E-03     125.050E-03    -59.6114E-03     110.656E-03    -50.7910E-03     123.877E-03
            1069     15.3927E-03     104.862E-03    -10.8706E+06     125.537E+06     57.0823E+06    -4.11759E+06    -58.6471E-03     109.844E-03    -51.1965E-03     116.119E-03    -60.2383E-03     111.676E-03    -51.0773E-03     115.042E-03
            1070     16.2425E-03     104.959E-03    -4.72992E+06     126.110E+06     90.0158E+06    -3.63444E+06    -59.8136E-03     111.511E-03    -51.6969E-03     85.7623E-03    -61.0150E-03     112.882E-03    -51.4229E-03     84.9119E-03
            1071     856.009E-06     104.738E-03    -49.9319E+06    -104.944E+06    -49.1901E+06    -4.43454E+06    -49.9429E-03     99.8502E-03    -49.9073E-03     10.0155E-03    -49.9703E-03     99.4704E-03    -49.9287E-03     9.93298E-03
            1072     1.71216E-03     104.750E-03    -48.6821E+06    -102.646E+06    -45.6341E+06    -7.92531E+06    -49.8201E-03     99.7100E-03    -49.8899E-03     18.4666E-03    -49.8523E-03     99.3372E-03    -49.8987E-03     18.3172E-03
            1073     2.56859E-03     104.769E-03    -46.6343E+06    -99.1632E+06    -40.5649E+06    -11.2743E+06    -49.6496E-03     99.4676E-03    -49.8180E-03     27.3077E-03    -49.6885E-03     99.1064E-03    -49.8095E-03     27.0905E-03
            1074     3.42511E-03     104.797E-03    -43.8607E+06    -95.3531E+06    -34.1060E+06    -13.8998E+06    -49.4522E-03     99.1718E-03    -49.7196E-03     36.1442E-03    -49.4990E-03     98.8232E-03    -49.6883E-03     35.8663E-03
            1075     4.28206E-03     104.832E-03    -41.0306E+06    -90.8510E+06    -27.4642E+06    -16.1156E+06    -49.2742E-03     98.8739E-03    -49.5997E-03     44.9831E-03    -49.3327E-03     98.5437E-03    -49.5458E-03     44.6467E-03
            1076     5.13935E-03     104.874E-03    -38.1454E+06    -86.9274E+06    -21.3751E+06    -18.0687E+06    -49.1612E-03     98.6293E-03    -49.4680E-03     53.7547E-03    -49.2333E-03     98.3191E-03    -49.3936E-03     53.3588E-03
            1077     5.99665E-03     104.923E-03    -35.2924E+06    -83.1995E+06    -16.2908E+06    -19.5105E+06    -49.1032E-03     98.4331E-03    -49.3299E-03     62.4609E-03    -49.1920E-03     98.1483E-03    -49.2395E-03     62.0071E-03
            1078     6.85459E-03     104.980E-03    -32.7353E+06    -79.9327E+06    -12.1523E+06    -20.6421E+06    -49.1645E-03     98.3582E-03    -49.1937E-03     71.0545E-03    -49.2760E-03     98.1048E-03    -49.0911E-03     70.5397E-03
            1079     7.71220E-03     105.044E-03    -30.4142E+06    -75.8560E+06    -8.77821E+06    -21.0933E+06    -49.4241E-03     98.4954E-03    -49.0713E-03     79.5337E-03    -49.5683E-03     98.2876E-03    -48.9611E-03     78.9577E-03
            1080     8.57026E-03     105.115E-03    -28.2519E+06    -73.4529E+06    -5.94730E+06    -21.5762E+06    -49.9407E-03     98.9230E-03    -48.9823E-03     87.7931E-03    -50.1274E-03     98.7657E-03    -48.8645E-03     87.1435E-03
            1081     9.42756E-03     105.192E-03    -26.1567E+06    -69.6155E+06    -4.72594E+06    -21.8818E+06    -50.7635E-03     99.6955E-03    -48.9321E-03     95.7459E-03    -51.0089E-03     99.6146E-03    -48.8168E-03     95.0104E-03
            1082     10.2849E-03     105.277E-03    -24.2656E+06    -64.6732E+06    -3.13000E+06    -21.6645E+06    -51.9272E-03     100.874E-03    -48.9471E-03     102.896E-03    -52.2563E-03     100.897E-03    -48.8338E-03     102.063E-03
            1083     11.1407E-03     105.366E-03    -22.5806E+06     -58.593E+06    -3.09891E+06    -21.0652E+06    -53.4605E-03     102.493E-03    -49.0322E-03     109.618E-03    -53.9060E-03     102.659E-03    -48.9300E-03     108.669E-03
            1084     11.9961E-03     105.463E-03    -21.0355E+06    -46.0471E+06    -1.51238E+06    -19.5492E+06    -55.3560E-03     104.560E-03    -49.2041E-03     117.297E-03    -55.9887E-03     104.959E-03    -49.1144E-03     116.212E-03
            1085     12.8486E-03     105.569E-03    -19.5906E+06    -22.5164E+06    -483.509E+03    -17.2251E+06    -57.3279E-03     106.767E-03    -49.4395E-03     126.824E-03    -58.2473E-03     107.539E-03    -49.3809E-03     125.589E-03
            1086     13.7026E-03     105.686E-03    -17.0482E+06     36.0722E+06     18.4329E+06    -12.4005E+06    -59.0907E-03     108.870E-03    -49.7792E-03     133.960E-03    -60.3977E-03     110.191E-03    -49.7146E-03     132.649E-03
            1087     14.5510E-03     105.809E-03    -11.7032E+06     98.1582E+06     35.1139E+06    -7.85789E+06    -59.6779E-03     109.821E-03    -50.1434E-03     126.833E-03    -61.1759E-03     111.525E-03    -50.0932E-03     125.594E-03
            1088     15.4050E-03     105.914E-03    -5.82004E+06     126.267E+06     61.5110E+06    -5.47461E+06    -61.2943E-03     111.955E-03    -50.6612E-03     117.053E-03    -62.8965E-03     113.807E-03    -50.5282E-03     115.888E-03
            1089     16.2518E-03     106.028E-03    -4.63075E+06     123.941E+06     91.5053E+06    -1.90106E+06    -64.0078E-03     115.370E-03    -51.3618E-03     86.2716E-03    -65.2333E-03     116.754E-03    -51.0773E-03     85.3503E-03
            1090     857.295E-06     105.784E-03    -47.2238E+06    -95.2449E+06    -46.6384E+06    -4.55762E+06    -48.5064E-03     97.0514E-03    -48.5450E-03     10.3566E-03    -48.5379E-03     96.7123E-03    -48.5716E-03     10.2759E-03
            1091     1.71464E-03     105.796E-03    -46.0599E+06    -93.4652E+06    -43.5120E+06    -8.11582E+06    -48.3984E-03     96.8813E-03    -48.4829E-03     18.9395E-03    -48.4336E-03     96.5471E-03    -48.4981E-03     18.7936E-03
            1092     2.57206E-03     105.815E-03    -44.3944E+06    -90.8535E+06     -39.016E+06    -11.3885E+06    -48.1787E-03     96.5735E-03    -48.3948E-03     28.0593E-03    -48.2200E-03     96.2475E-03    -48.3937E-03     27.8500E-03
            1093     3.43006E-03     105.842E-03    -42.5247E+06    -88.3053E+06    -33.7572E+06    -14.1432E+06    -47.9544E-03     96.2287E-03    -48.2743E-03     37.2421E-03    -48.0038E-03     95.9113E-03    -48.2534E-03     36.9740E-03
            1094     4.28824E-03     105.876E-03    -40.2501E+06    -84.7062E+06    -27.7830E+06    -16.0617E+06    -47.7567E-03     95.8921E-03    -48.1354E-03     46.4293E-03    -47.8174E-03     95.5895E-03    -48.0931E-03     46.1105E-03
            1095     5.14670E-03     105.918E-03    -38.1274E+06    -81.3621E+06    -21.8681E+06    -17.6813E+06    -47.5720E-03     95.5559E-03    -47.9839E-03     55.6277E-03    -47.6477E-03     95.2705E-03    -47.9199E-03     55.2584E-03
            1096     6.00573E-03     105.967E-03    -36.2744E+06    -78.6075E+06    -17.1159E+06    -19.0685E+06    -47.5059E-03     95.3296E-03    -47.8237E-03     64.8372E-03    -47.6001E-03     95.0653E-03    -47.7427E-03     64.4151E-03
            1097     6.86470E-03     106.024E-03    -34.6838E+06    -75.6478E+06    -13.0690E+06    -19.8017E+06    -47.6258E-03     95.2980E-03    -47.6721E-03     73.9408E-03    -47.7453E-03     95.0634E-03    -47.5775E-03     73.4672E-03
            1098     7.72416E-03     106.088E-03    -33.4144E+06    -72.7792E+06    -9.77463E+06    -20.4135E+06    -48.0131E-03     95.5600E-03    -47.5469E-03     82.9988E-03    -48.1674E-03     95.3654E-03    -47.4418E-03     82.4654E-03
            1099     8.58301E-03     106.159E-03    -32.2285E+06    -69.7941E+06    -6.76555E+06    -20.9861E+06    -48.7558E-03     96.2251E-03    -47.4693E-03     91.8254E-03    -48.9574E-03     96.0839E-03    -47.3552E-03     91.2196E-03
            1100     9.44188E-03     106.237E-03    -31.1663E+06    -67.0385E+06    -5.22585E+06    -21.6344E+06    -49.9177E-03     97.3721E-03    -47.4544E-03     100.235E-03    -50.1825E-03     97.3032E-03    -47.3381E-03     99.5382E-03
            1101     10.2994E-03     106.323E-03    -29.7172E+06    -62.3952E+06    -3.59138E+06    -21.9542E+06    -51.5440E-03     99.0705E-03    -47.5265E-03     107.739E-03    -51.8958E-03     99.1057E-03    -47.4109E-03     106.934E-03
            1102     11.1562E-03     106.415E-03    -27.6369E+06    -57.4291E+06    -2.87938E+06    -21.9167E+06    -53.6133E-03     101.312E-03    -47.6988E-03     114.682E-03    -54.0840E-03     101.489E-03    -47.5899E-03     113.746E-03
            1103     12.0105E-03     106.514E-03    -25.1728E+06    -46.8534E+06    -1.06768E+06    -20.7577E+06    -56.0613E-03     104.042E-03    -47.9806E-03     122.465E-03    -56.7184E-03     104.447E-03    -47.8815E-03     121.375E-03
            1104     12.8644E-03     106.622E-03    -22.5648E+06    -24.0759E+06     1.99898E+06    -18.0720E+06    -58.8504E-03     107.213E-03    -48.3626E-03     131.470E-03    -59.8049E-03     107.996E-03    -48.2850E-03     130.209E-03
            1105     13.7133E-03     106.742E-03    -18.8979E+06     31.6597E+06     21.1311E+06    -15.0033E+06    -61.1150E-03     109.983E-03    -48.8684E-03     137.656E-03    -62.4557E-03     111.308E-03    -48.7812E-03     136.275E-03
            1106     14.5653E-03     106.867E-03    -14.2356E+06     95.4954E+06     38.4947E+06    -11.7650E+06    -63.4056E-03     112.851E-03    -49.4449E-03     129.272E-03    -64.9629E-03     114.585E-03    -49.3702E-03     127.887E-03
            1107     15.4076E-03     106.975E-03    -10.6408E+06     121.208E+06     60.0294E+06    -6.29544E+06    -66.1277E-03     116.341E-03    -50.2136E-03     119.177E-03    -67.8046E-03     118.237E-03    -50.0738E-03     117.852E-03
            1108     16.2504E-03     107.093E-03    -5.79483E+06     118.850E+06     88.1106E+06    -756.783E+03    -66.6058E-03     117.720E-03    -51.1138E-03     87.3068E-03    -67.8498E-03     119.109E-03    -50.8371E-03     86.3247E-03
            1109     858.706E-06     106.827E-03    -44.3701E+06    -85.3073E+06    -44.0544E+06    -4.62017E+06    -46.7415E-03     93.4952E-03    -46.7537E-03     10.5765E-03    -46.7769E-03     93.1978E-03    -46.7859E-03     10.4987E-03
            1110     1.71755E-03     106.838E-03    -43.8838E+06    -84.3379E+06    -42.1868E+06    -8.17320E+06    -46.5266E-03     93.2067E-03    -46.6801E-03     19.4961E-03    -46.5657E-03     92.9125E-03    -46.7051E-03     19.3565E-03
            1111     2.57685E-03     106.858E-03    -43.0595E+06    -82.9466E+06    -38.9225E+06    -11.1246E+06    -46.3165E-03     92.8783E-03    -46.5619E-03     28.9375E-03    -46.3617E-03     92.5888E-03    -46.5738E-03     28.7424E-03
            1112     3.43626E-03     106.884E-03    -42.0560E+06    -81.2495E+06    -34.3834E+06    -13.4863E+06    -46.0765E-03     92.5027E-03    -46.4262E-03     38.4908E-03    -46.1311E-03     92.2190E-03    -46.4193E-03     38.2460E-03
            1113     4.29607E-03     106.918E-03    -41.0829E+06    -79.1239E+06    -29.4862E+06    -15.2133E+06    -45.8030E-03     92.0706E-03    -46.2676E-03     48.0919E-03    -45.8706E-03     91.7965E-03    -46.2407E-03     47.8035E-03
            1114     5.15642E-03     106.959E-03    -40.2126E+06    -76.4825E+06    -24.3138E+06    -16.2090E+06    -45.6042E-03     91.6973E-03    -46.0932E-03     57.7685E-03    -45.6895E-03     91.4385E-03    -46.0455E-03     57.4424E-03
            1115     6.01698E-03     107.008E-03    -39.7664E+06    -74.2556E+06    -19.3567E+06    -17.0501E+06    -45.5881E-03     91.5096E-03    -45.9214E-03     67.4756E-03    -45.6967E-03     91.2692E-03    -45.8529E-03     67.1083E-03
            1116     6.87792E-03     107.064E-03    -39.4537E+06    -71.9239E+06    -15.1825E+06    -17.7307E+06    -45.8442E-03     91.6150E-03    -45.7707E-03     77.1129E-03    -45.9822E-03     91.4012E-03    -45.6852E-03     76.6986E-03
            1117     7.73854E-03     107.128E-03    -39.0768E+06    -69.2015E+06    -11.4585E+06    -18.4318E+06    -46.4713E-03     92.1363E-03    -45.6650E-03     86.6985E-03    -46.6475E-03     91.9611E-03    -45.5653E-03     86.2259E-03
            1118     8.59923E-03     107.200E-03    -38.4859E+06    -66.3877E+06    -8.27464E+06    -19.3824E+06    -47.5864E-03     93.2155E-03    -45.6291E-03     96.0171E-03    -47.8125E-03     93.0931E-03    -45.5184E-03     95.4677E-03
            1119     9.45863E-03     107.280E-03    -37.4198E+06    -63.2833E+06    -5.84006E+06    -20.5404E+06    -49.2691E-03     94.9566E-03    -45.6875E-03     104.847E-03    -49.5610E-03     94.9078E-03    -45.5707E-03     104.197E-03
            1120     10.3171E-03     107.367E-03    -35.8679E+06    -59.3575E+06    -4.27752E+06    -21.9245E+06    -51.4345E-03     97.2930E-03    -45.8586E-03     112.711E-03    -51.8147E-03     97.3476E-03    -45.7419E-03     111.934E-03
            1121     11.1733E-03     107.462E-03    -33.4057E+06    -54.8251E+06    -3.21359E+06    -23.1179E+06    -54.0797E-03     100.235E-03    -46.1554E-03     119.919E-03    -54.5821E-03     100.434E-03    -46.0436E-03     118.985E-03
            1122     12.0282E-03     107.564E-03    -29.8915E+06    -46.9351E+06    -1.36639E+06    -23.1197E+06    -57.2876E-03     103.877E-03    -46.5892E-03     127.779E-03    -57.9775E-03     104.298E-03    -46.4847E-03     126.659E-03
            1123     12.8790E-03     107.676E-03    -25.3322E+06    -26.7106E+06     2.38163E+06    -21.0330E+06    -60.7852E-03     107.937E-03    -47.1514E-03     136.695E-03    -61.7729E-03     108.733E-03    -47.0640E-03     135.373E-03
            1124     13.7295E-03     107.800E-03    -20.2816E+06     30.7177E+06     22.7989E+06    -17.8738E+06    -64.2288E-03     112.100E-03    -47.8711E-03     142.013E-03    -65.6209E-03     113.464E-03    -47.7723E-03     140.522E-03
            1125     14.5735E-03     107.926E-03    -16.3305E+06     89.4392E+06     39.2119E+06    -12.7020E+06    -67.4407E-03     116.140E-03    -48.6994E-03     135.028E-03    -69.0717E-03     117.917E-03    -48.6093E-03     133.517E-03
            1126     15.4166E-03     108.047E-03    -12.2899E+06     113.672E+06     58.3276E+06    -6.20176E+06    -69.9581E-03     119.654E-03    -49.6957E-03     125.972E-03    -71.7099E-03     121.597E-03    -49.5510E-03     124.531E-03
            1127     16.2568E-03     108.158E-03    -5.54026E+06     115.870E+06     85.8507E+06    -2.59050E+06    -70.2874E-03     121.078E-03    -50.7910E-03     91.9810E-03    -71.5777E-03     122.512E-03    -50.5217E-03     90.8735E-03
            1128     860.557E-06     107.866E-03    -43.1409E+06    -75.6642E+06    -42.8873E+06    -4.46053E+06    -44.4824E-03     88.9714E-03    -44.4890E-03     10.8273E-03    -44.5272E-03     88.7184E-03    -44.5311E-03     10.7553E-03
            1129     1.72156E-03     107.877E-03    -43.4319E+06    -75.7550E+06    -42.3141E+06    -7.45407E+06    -44.2522E-03     88.6630E-03    -44.4109E-03     20.1377E-03    -44.3008E-03     88.4108E-03    -44.4496E-03     20.0152E-03
            1130     2.58260E-03     107.895E-03    -43.8722E+06    -75.7224E+06    -40.5703E+06    -10.0774E+06    -44.0276E-03     88.3098E-03    -44.2822E-03     29.8889E-03    -44.0839E-03     88.0586E-03    -44.3116E-03     29.7190E-03
            1131     3.44403E-03     107.922E-03    -44.2505E+06    -75.3965E+06    -37.5972E+06    -11.7578E+06    -43.7259E-03     87.8556E-03    -44.1297E-03     39.8234E-03    -43.7932E-03     87.6066E-03    -44.1442E-03     39.6171E-03
            1132     4.30600E-03     107.955E-03    -44.8924E+06    -74.4740E+06    -33.4918E+06    -12.7210E+06    -43.4485E-03     87.4034E-03    -43.9549E-03     49.8386E-03    -43.5327E-03     87.1604E-03    -43.9493E-03     49.6029E-03
            1133     5.16829E-03     107.996E-03    -45.7089E+06    -72.6542E+06    -28.5301E+06    -13.1748E+06    -43.3295E-03     87.1063E-03    -43.7768E-03     59.9782E-03    -43.4367E-03     86.8756E-03    -43.7478E-03     59.7162E-03
            1134     6.03091E-03     108.044E-03    -46.3762E+06    -70.6892E+06    -23.0264E+06    -13.5084E+06    -43.4559E-03     87.0751E-03    -43.6193E-03     70.1555E-03    -43.5907E-03     86.8607E-03    -43.5647E-03     69.8628E-03
            1135     6.89353E-03     108.101E-03    -46.7146E+06    -68.2414E+06    -17.8897E+06    -14.4925E+06    -43.9776E-03     87.4813E-03    -43.5037E-03     80.3182E-03    -44.1451E-03     87.2922E-03    -43.4265E-03     79.9775E-03
            1136     7.75605E-03     108.165E-03    -46.1416E+06    -65.2769E+06    -13.2934E+06    -15.8923E+06    -45.0072E-03     88.4654E-03    -43.4582E-03     90.3503E-03    -45.2125E-03     88.3134E-03    -43.3631E-03     89.9437E-03
            1137     8.61749E-03     108.238E-03    -44.5232E+06    -62.0748E+06    -9.19022E+06    -17.7781E+06    -46.6231E-03     90.1339E-03    -43.5108E-03     100.188E-03    -46.8751E-03     90.0339E-03    -43.4022E-03     99.6919E-03
            1138     9.47802E-03     108.320E-03    -41.8576E+06    -58.8641E+06     -5.9577E+06    -20.0242E+06    -48.8438E-03     92.5270E-03    -43.6833E-03     109.517E-03    -49.1561E-03     92.4991E-03    -43.5670E-03     108.903E-03
            1139     10.3363E-03     108.410E-03    -38.4791E+06    -55.1162E+06    -3.66188E+06    -22.1628E+06    -51.6129E-03     95.6048E-03    -43.9920E-03     117.805E-03    -52.0088E-03     95.6792E-03    -43.8746E-03     117.048E-03
            1140     11.1931E-03     108.508E-03    -34.9489E+06    -50.8128E+06    -1.94601E+06    -24.2875E+06    -54.9788E-03     99.4312E-03    -44.4524E-03     125.418E-03    -55.4987E-03     99.6526E-03    -44.3377E-03     124.480E-03
            1141     12.0460E-03     108.614E-03    -30.9906E+06    -45.1456E+06    -324.964E+03    -25.8603E+06    -58.8788E-03     103.951E-03    -45.0721E-03     133.630E-03    -59.5917E-03     104.395E-03    -44.9634E-03     132.468E-03
            1142     12.8972E-03     108.731E-03    -26.1786E+06    -27.9459E+06     3.17002E+06    -25.0891E+06    -63.1804E-03     109.024E-03    -45.8432E-03     142.481E-03    -64.2007E-03     109.843E-03    -45.7489E-03     141.069E-03
            1143     13.7432E-03     108.858E-03    -20.7702E+06     27.4461E+06     22.9938E+06    -21.1525E+06    -67.5746E-03     114.369E-03    -46.7942E-03     148.358E-03    -69.0260E-03     115.778E-03    -46.6889E-03     146.740E-03
            1144     14.5867E-03     108.994E-03    -14.6544E+06     80.5356E+06     39.5158E+06    -14.3291E+06    -70.7644E-03     118.624E-03    -47.8596E-03     141.097E-03    -72.4448E-03     120.424E-03    -47.7575E-03     139.465E-03
            1145     15.4278E-03     109.111E-03    -8.90676E+06     106.929E+06     59.3277E+06    -7.20524E+06    -73.1982E-03     122.259E-03    -49.0610E-03     130.137E-03    -74.9809E-03     124.218E-03    -48.9065E-03     128.579E-03
            1146     16.2661E-03     109.234E-03    -4.73023E+06     113.251E+06     85.1398E+06    -3.48783E+06    -75.6452E-03     126.034E-03    -50.3892E-03     93.9666E-03    -76.9610E-03     127.489E-03    -50.1208E-03     92.7164E-03
            1147     863.141E-06     108.899E-03    -44.9676E+06    -67.3936E+06    -44.7932E+06    -3.74755E+06    -41.7313E-03     83.4286E-03    -41.6973E-03     11.1260E-03    -41.7943E-03     83.2221E-03    -41.7584E-03     11.0675E-03
            1148     1.72618E-03     108.910E-03    -46.0269E+06    -68.6787E+06    -44.9845E+06    -5.86059E+06    -41.5650E-03     83.2197E-03    -41.6546E-03     20.7329E-03    -41.6325E-03     83.0097E-03    -41.7132E-03     20.6387E-03
            1149     2.58961E-03     108.929E-03    -47.7540E+06    -70.0231E+06    -44.6203E+06    -7.45126E+06    -41.2707E-03     82.8072E-03    -41.5365E-03     30.8159E-03    -41.3475E-03     82.5946E-03    -41.5889E-03     30.6918E-03
            1150     3.45356E-03     108.954E-03    -50.0847E+06    -71.5298E+06    -42.9888E+06    -8.23078E+06    -40.9766E-03     82.3555E-03    -41.3789E-03     41.0788E-03    -41.0686E-03     82.1397E-03    -41.4175E-03     40.9341E-03
            1151     4.31779E-03     108.987E-03    -52.3522E+06    -71.3575E+06    -39.2587E+06    -8.39666E+06    -40.8188E-03     82.0334E-03    -41.2146E-03     51.4993E-03    -40.9328E-03     81.8214E-03    -41.2315E-03     51.3394E-03
            1152     5.18236E-03     109.027E-03    -54.0010E+06    -69.7205E+06    -33.4807E+06    -8.69666E+06    -40.8737E-03     81.9448E-03    -41.0712E-03     62.0442E-03    -41.0143E-03     81.7427E-03    -41.0592E-03     61.8635E-03
            1153     6.04706E-03     109.076E-03    -54.3543E+06    -67.5618E+06    -26.6357E+06    -9.60936E+06    -41.2942E-03     82.2652E-03    -40.9710E-03     72.6688E-03    -41.4615E-03     82.0764E-03    -40.9274E-03     72.4530E-03
            1154     6.91155E-03     109.133E-03    -53.1506E+06    -63.9674E+06    -19.8461E+06    -11.4406E+06    -42.2215E-03     83.1595E-03    -40.9381E-03     83.3228E-03    -42.4164E-03     82.9959E-03    -40.8675E-03     83.0499E-03
            1155     7.77521E-03     109.198E-03    -50.7352E+06    -60.4564E+06    -13.9709E+06    -14.0776E+06    -43.7454E-03     84.7467E-03    -41.0013E-03     93.8743E-03    -43.9708E-03     84.6177E-03    -40.9100E-03     93.5201E-03
            1156     8.63795E-03     109.273E-03    -47.4063E+06    -56.5891E+06    -9.02804E+06    -17.1231E+06    -45.8942E-03     87.0795E-03    -41.1853E-03     104.282E-03    -46.1602E-03     87.0024E-03    -41.0796E-03     103.822E-03
            1157     9.49869E-03     109.358E-03    -43.3806E+06    -53.0480E+06    -5.23011E+06    -20.7524E+06    -48.6351E-03     90.1425E-03    -41.5073E-03     114.146E-03    -48.9574E-03     90.1376E-03    -41.3937E-03     113.549E-03
            1158     10.3578E-03     109.451E-03    -38.5359E+06    -50.2646E+06    -2.49462E+06    -23.9573E+06    -52.0415E-03     94.0254E-03    -41.9839E-03     123.054E-03    -52.4428E-03     94.1189E-03    -41.8676E-03     122.294E-03
            1159     11.2132E-03     109.553E-03    -33.5983E+06    -46.2124E+06    -133.852E+03    -26.1420E+06    -56.1148E-03     98.7468E-03    -42.6320E-03     131.342E-03    -56.6413E-03     98.9908E-03    -42.5170E-03     130.388E-03
            1160     12.0663E-03     109.664E-03    -29.0171E+06    -40.8562E+06     1.90738E+06    -28.4884E+06    -60.7546E-03     104.214E-03    -43.4592E-03     139.907E-03    -61.4830E-03     104.689E-03    -43.3484E-03     138.698E-03
            1161     12.9146E-03     109.786E-03    -24.2940E+06    -28.8204E+06     4.20431E+06    -28.4825E+06    -65.8600E-03     110.317E-03    -44.4566E-03     149.231E-03    -66.9094E-03     111.166E-03    -44.3586E-03     147.727E-03
            1162     13.7596E-03     109.921E-03    -19.5792E+06     22.9749E+06     23.0436E+06    -24.2385E+06    -70.7305E-03     116.373E-03    -45.6423E-03     155.225E-03    -72.2357E-03     117.824E-03    -45.5320E-03     153.479E-03
            1163     14.6010E-03     110.060E-03    -14.6353E+06     71.4376E+06     38.6197E+06    -17.6230E+06    -74.7048E-03     121.661E-03    -46.9566E-03     146.180E-03    -76.4410E-03     123.488E-03    -46.8459E-03     144.379E-03
            1164     15.4367E-03     110.185E-03    -8.99212E+06     98.2897E+06     56.7668E+06    -9.41127E+06    -78.3041E-03     126.731E-03    -48.4270E-03     133.758E-03    -80.1427E-03     128.723E-03    -48.2727E-03     131.988E-03
            1165     16.2700E-03     110.309E-03    -4.05513E+06     109.293E+06     83.6919E+06    -3.29553E+06    -81.0921E-03     131.138E-03    -50.0457E-03     97.5087E-03    -82.4521E-03     132.630E-03    -49.7798E-03     96.0896E-03
            1166     865.814E-06     109.927E-03    -51.2254E+06    -61.9743E+06    -50.5299E+06    -1.73359E+06    -38.5235E-03     77.0468E-03    -38.5233E-03     11.4234E-03    -38.6173E-03     76.8844E-03    -38.6118E-03     11.3950E-03
            1167     1.73172E-03     109.938E-03    -53.9208E+06    -64.5123E+06    -52.1926E+06    -2.62822E+06    -38.3666E-03     76.8282E-03    -38.4616E-03     21.1945E-03    -38.4686E-03     76.6602E-03    -38.5508E-03     21.1494E-03
            1168     2.59796E-03     109.955E-03    -57.2902E+06    -67.2946E+06    -52.6181E+06    -2.84393E+06    -38.1466E-03     76.5009E-03    -38.3543E-03     31.5491E-03    -38.2621E-03     76.3259E-03    -38.4368E-03     31.4954E-03
            1169     3.46442E-03     109.980E-03    -60.5552E+06    -69.3592E+06    -50.4289E+06    -2.83642E+06    -38.0057E-03     76.2410E-03    -38.2353E-03     42.1104E-03    -38.1401E-03     76.0596E-03    -38.2990E-03     42.0496E-03
            1170     4.33127E-03     110.013E-03    -62.5188E+06    -69.3494E+06    -45.2763E+06    -3.40980E+06    -38.0574E-03     76.1906E-03    -38.1332E-03     52.8887E-03    -38.2128E-03     76.0085E-03    -38.1684E-03     52.8108E-03
            1171     5.19815E-03     110.053E-03    -62.2526E+06    -66.9865E+06    -37.5480E+06    -4.77981E+06    -38.4481E-03     76.5229E-03    -38.0748E-03     63.7846E-03    -38.6231E-03     76.3474E-03    -38.0751E-03     63.6747E-03
            1172     6.06479E-03     110.102E-03    -59.9252E+06    -63.4177E+06    -28.8427E+06    -7.17015E+06    -39.2816E-03     77.3654E-03    -38.0838E-03     74.8328E-03    -39.4734E-03     77.2025E-03    -38.0492E-03     74.6707E-03
            1173     6.93082E-03     110.160E-03    -56.0996E+06    -58.8632E+06    -20.7352E+06    -10.3200E+06    -40.6648E-03     78.8457E-03    -38.1809E-03     85.9945E-03    -40.8733E-03     78.7058E-03    -38.1179E-03     85.7601E-03
            1174     7.79593E-03     110.228E-03    -51.4780E+06    -54.6658E+06    -13.8789E+06    -13.8755E+06    -42.6764E-03     81.0678E-03    -38.3914E-03     97.1551E-03    -42.9060E-03     80.9607E-03    -38.3069E-03     96.8284E-03
            1175     8.65918E-03     110.305E-03    -46.4871E+06    -50.1172E+06    -8.14470E+06    -17.8550E+06    -45.3118E-03     84.0475E-03    -38.7357E-03     108.207E-03    -45.5757E-03     83.9921E-03    -38.6363E-03     107.762E-03
            1176     9.52073E-03     110.393E-03    -41.4279E+06    -46.0583E+06    -3.60196E+06    -22.0160E+06    -48.6095E-03     87.8402E-03    -39.2307E-03     118.787E-03    -48.9276E-03     87.8584E-03    -39.1219E-03     118.196E-03
            1177     10.3792E-03     110.490E-03    -36.7999E+06    -44.1815E+06    -835.055E+03    -26.0606E+06    -52.6075E-03     92.5005E-03    -39.8930E-03     128.525E-03    -53.0083E-03     92.6166E-03    -39.7797E-03     127.754E-03
            1178     11.2351E-03     110.597E-03    -32.1680E+06    -41.7504E+06     1.27778E+06     -28.828E+06    -57.3241E-03     98.0628E-03    -40.7387E-03     137.595E-03    -57.8558E-03     98.3290E-03    -40.6251E-03     136.612E-03
            1179     12.0863E-03     110.714E-03    -27.6142E+06    -35.1191E+06     4.06272E+06    -30.9729E+06    -62.7378E-03     104.517E-03    -41.7794E-03     146.933E-03    -63.4885E-03     105.034E-03    -41.6682E-03     145.676E-03
            1180     12.9338E-03     110.843E-03    -23.6034E+06    -29.5046E+06     4.77114E+06    -31.4506E+06    -68.6531E-03     111.662E-03    -43.0093E-03     156.643E-03    -69.7398E-03     112.548E-03    -42.9085E-03     155.048E-03
            1181     13.7766E-03     110.984E-03    -19.2954E+06     17.5683E+06     21.5513E+06    -26.5815E+06    -74.4131E-03     118.856E-03    -44.4433E-03     162.201E-03    -75.9748E-03     120.351E-03    -44.3331E-03     160.319E-03
            1182     14.6136E-03     111.132E-03    -15.3026E+06     63.2886E+06     36.5841E+06    -19.2113E+06    -79.2393E-03     125.274E-03    -46.0342E-03     152.598E-03    -81.0476E-03     127.147E-03    -45.9208E-03     150.623E-03
            1183     15.4472E-03     111.261E-03    -11.1965E+06     87.8739E+06     52.1259E+06    -11.5517E+06    -83.8678E-03     131.662E-03    -47.7945E-03     140.431E-03    -85.7972E-03     133.714E-03    -47.6450E-03     138.420E-03
            1184     16.2747E-03     111.394E-03    -5.62174E+06     103.633E+06     80.6031E+06    -4.81690E+06    -86.6416E-03     136.352E-03    -49.7107E-03     103.065E-03    -88.0738E-03     137.900E-03    -49.4498E-03     101.431E-03
            1185     868.809E-06     110.948E-03    -66.3808E+06    -62.6762E+06    -64.6163E+06     2.51683E+06    -34.9539E-03     69.9479E-03    -34.9940E-03     11.6351E-03    -35.1019E-03     69.8241E-03    -35.1300E-03     11.6650E-03
            1186     1.73791E-03     110.958E-03    -70.2344E+06    -64.4043E+06    -65.5305E+06     3.18282E+06    -34.8630E-03     69.7941E-03    -34.9312E-03     21.4384E-03    -35.0268E-03     69.6690E-03    -35.0636E-03     21.4745E-03
            1187     2.60707E-03     110.976E-03    -73.2189E+06    -66.8057E+06    -63.9129E+06     2.76522E+06    -34.8450E-03     69.7231E-03    -34.8781E-03     31.9534E-03    -35.0234E-03     69.5888E-03    -34.9946E-03     31.9810E-03
            1188     3.47642E-03     111.000E-03    -73.5076E+06    -67.9322E+06    -58.8056E+06     1.40538E+06    -34.9842E-03     69.8339E-03    -34.8497E-03     42.7609E-03    -35.1712E-03     69.6885E-03    -34.9386E-03     42.7663E-03
            1189     4.34567E-03     111.033E-03    -71.0757E+06    -66.7390E+06    -50.4069E+06    -836.602E+03    -35.3963E-03     70.2611E-03    -34.8648E-03     53.8107E-03    -35.5877E-03     70.1087E-03    -34.9170E-03     53.7796E-03
            1190     5.21471E-03     111.074E-03    -66.7253E+06    -63.2606E+06    -40.3753E+06    -3.78914E+06    -36.1949E-03     71.1370E-03    -34.9421E-03     65.0701E-03    -36.3894E-03     70.9865E-03    -34.9555E-03     64.9887E-03
            1191     6.08313E-03     111.124E-03    -61.2107E+06    -58.1523E+06    -30.3378E+06    -7.45510E+06    -37.4771E-03     72.5779E-03    -35.1008E-03     76.5524E-03    -37.6753E-03     72.4400E-03    -35.0794E-03     76.4042E-03
            1192     6.95066E-03     111.183E-03    -55.2354E+06    -52.9550E+06    -21.3352E+06    -11.3795E+06    -39.2972E-03     74.6580E-03    -35.3608E-03     88.2630E-03    -39.5025E-03     74.5408E-03    -35.3106E-03     88.0346E-03
            1193     7.81662E-03     111.253E-03    -49.2079E+06    -48.1889E+06    -13.7094E+06    -15.3877E+06    -41.7136E-03     77.4532E-03    -35.7396E-03     100.086E-03    -41.9340E-03     77.3674E-03    -35.6669E-03     99.7611E-03
            1194     8.68102E-03     111.334E-03    -43.2735E+06    -42.9141E+06    -7.06631E+06    -19.7835E+06    -44.7807E-03     81.0357E-03    -36.2551E-03     111.892E-03    -45.0324E-03     81.0020E-03    -36.1654E-03     111.445E-03
            1195     9.54270E-03     111.425E-03    -37.8815E+06    -39.4248E+06    -1.94469E+06    -23.6111E+06    -48.5942E-03     85.5215E-03    -36.9272E-03     123.413E-03    -48.8994E-03     85.5581E-03    -36.8249E-03     122.824E-03
            1196     10.4018E-03     111.527E-03    -33.4771E+06    -36.8878E+06     1.76144E+06    -27.1653E+06    -53.1914E-03     90.9683E-03    -37.7769E-03     134.113E-03    -53.5856E-03     91.1081E-03    -37.6661E-03     133.346E-03
            1197     11.2565E-03     111.640E-03    -29.4404E+06    -36.1060E+06     3.79965E+06    -30.9652E+06    -58.5476E-03     97.3677E-03    -38.8200E-03     144.183E-03    -59.0804E-03     97.6575E-03    -38.7060E-03     143.180E-03
            1198     12.1076E-03     111.764E-03    -24.6732E+06    -29.7881E+06     7.01583E+06    -33.7584E+06    -64.6301E-03     104.698E-03    -40.0681E-03     154.419E-03    -65.3921E-03     105.248E-03    -39.9540E-03     153.115E-03
            1199     12.9534E-03     111.900E-03    -19.8221E+06    -29.6807E+06     7.33893E+06    -33.6728E+06    -71.6089E-03     113.138E-03    -41.5289E-03     164.971E-03    -72.7204E-03     114.054E-03    -41.4204E-03     163.294E-03
            1200     13.7928E-03     112.050E-03    -15.6271E+06     10.4532E+06     20.3745E+06    -28.1102E+06    -78.3490E-03     121.559E-03    -43.2095E-03     170.700E-03    -79.9526E-03     123.086E-03    -43.1001E-03     168.686E-03
            1201     14.6285E-03     112.205E-03    -12.0980E+06     54.4776E+06     35.5595E+06    -19.1474E+06    -83.9393E-03     129.020E-03    -45.0804E-03     160.846E-03    -85.8195E-03     130.949E-03    -44.9640E-03     158.697E-03
            1202     15.4569E-03     112.343E-03    -9.15890E+06     79.4158E+06     51.3226E+06    -11.6791E+06    -89.2637E-03     136.396E-03    -47.1322E-03     148.351E-03    -91.2895E-03     138.524E-03    -46.9775E-03     146.108E-03
            1203     16.2817E-03     112.484E-03    -4.91821E+06     97.0612E+06     78.4499E+06    -6.24592E+06    -92.6517E-03     141.993E-03    -49.3416E-03     108.310E-03    -94.1464E-03     143.589E-03    -49.0829E-03     106.443E-03
            1204     872.224E-06     111.961E-03    -98.1837E+06    -69.4034E+06    -96.8429E+06     4.21863E+06    -31.2672E-03     62.4996E-03    -31.2324E-03     11.5395E-03    -31.5176E-03     62.4349E-03    -31.4736E-03     11.5938E-03
            1205     1.74434E-03     111.971E-03    -94.2644E+06    -67.2822E+06    -88.6732E+06     5.42358E+06    -31.3670E-03     62.6425E-03    -31.2755E-03     21.3976E-03    -31.6127E-03     62.5709E-03    -31.4846E-03     21.4669E-03
            1206     2.61647E-03     111.989E-03    -89.0275E+06    -66.3656E+06    -78.3650E+06     4.15273E+06    -31.6313E-03     62.9759E-03    -31.3446E-03     31.9665E-03    -31.8674E-03     62.8868E-03    -31.5111E-03     32.0181E-03
            1207     3.48841E-03     112.014E-03    -83.1125E+06    -65.3303E+06    -67.5972E+06     1.13344E+06    -32.1387E-03     63.5936E-03    -31.4548E-03     42.9011E-03    -32.3631E-03     63.4863E-03    -31.5776E-03     42.9107E-03
            1208     4.36002E-03     112.047E-03    -76.3589E+06    -62.5501E+06    -56.3522E+06    -2.64795E+06    -32.9551E-03     64.5766E-03    -31.6216E-03     54.1657E-03    -33.1679E-03     64.4592E-03    -31.7019E-03     54.1207E-03
            1209     5.23098E-03     112.089E-03    -68.4434E+06    -57.8028E+06    -44.5991E+06    -6.97956E+06    -34.1571E-03     66.0176E-03    -31.8605E-03     65.7750E-03    -34.3585E-03     65.8997E-03    -31.9004E-03     65.6638E-03
            1210     6.10111E-03     112.140E-03    -59.7618E+06    -52.3213E+06    -32.9515E+06    -11.1742E+06    -35.8307E-03     68.0189E-03    -32.1882E-03     77.7107E-03    -36.0218E-03     67.9074E-03    -32.1904E-03     77.5283E-03
            1211     6.96980E-03     112.202E-03    -51.4229E+06    -47.0363E+06    -22.4023E+06    -14.7521E+06    -38.0201E-03     70.6389E-03    -32.6189E-03     89.9913E-03    -38.2075E-03     70.5416E-03    -32.5881E-03     89.7355E-03
            1212     7.83710E-03     112.275E-03    -44.0955E+06    -41.7585E+06    -13.3230E+06    -18.1615E+06    -40.7807E-03     73.9462E-03    -33.1654E-03     102.530E-03    -40.9780E-03     73.8772E-03    -33.1076E-03     102.189E-03
            1213     8.70198E-03     112.359E-03    -38.3590E+06    -35.9601E+06    -5.56246E+06    -21.5934E+06    -44.2326E-03     78.0789E-03    -33.8463E-03     115.184E-03    -44.4634E-03     78.0621E-03    -33.7664E-03     114.736E-03
            1214     9.56454E-03     112.455E-03    -33.9151E+06    -33.2059E+06     339.633E+03    -24.8964E+06    -48.5057E-03     83.1925E-03    -34.6868E-03     127.706E-03    -48.7943E-03     83.2422E-03    -34.5878E-03     127.123E-03
            1215     10.4233E-03     112.563E-03    -29.3598E+06    -29.2829E+06     5.29298E+06    -28.5886E+06    -53.6209E-03     89.3282E-03    -35.7073E-03     139.546E-03    -54.0030E-03     89.4873E-03    -35.5958E-03     138.781E-03
            1216     11.2785E-03     112.682E-03    -24.8801E+06    -29.3588E+06     8.22748E+06    -32.4201E+06    -59.5789E-03     96.5088E-03    -36.9299E-03     150.816E-03    -60.1021E-03     96.8165E-03    -36.8101E-03     149.808E-03
            1217     12.1283E-03     112.814E-03    -22.3355E+06    -24.9604E+06     10.3330E+06    -34.5067E+06    -66.4498E-03     104.817E-03    -38.3667E-03     162.303E-03    -67.2201E-03     105.390E-03    -38.2465E-03     160.985E-03
            1218     12.9728E-03     112.959E-03    -20.6155E+06    -27.6346E+06     9.65481E+06    -36.0166E+06    -74.2541E-03     114.291E-03    -40.0371E-03     174.214E-03    -75.4057E-03     115.245E-03    -39.9189E-03     172.467E-03
            1219     13.8117E-03     113.119E-03    -16.4029E+06     1.43189E+06     17.2385E+06    -31.7493E+06    -82.0869E-03     124.025E-03    -41.9378E-03     180.262E-03    -83.7430E-03     125.580E-03    -41.8299E-03     178.093E-03
            1220     14.6427E-03     113.282E-03    -11.1507E+06     42.4991E+06     32.0813E+06    -20.8730E+06    -88.9800E-03     133.061E-03    -44.0811E-03     170.237E-03    -90.9495E-03     135.051E-03    -43.9662E-03     167.860E-03
            1221     15.4685E-03     113.431E-03    -6.61777E+06     72.5643E+06     51.9959E+06    -12.0324E+06    -95.1192E-03     141.569E-03    -46.4498E-03     156.485E-03    -97.2542E-03     143.790E-03    -46.2855E-03     153.967E-03
            1222     16.2877E-03     113.578E-03    -2.81198E+06     89.7896E+06     77.6556E+06    -5.61400E+06    -99.1240E-03     148.098E-03    -48.9740E-03     114.292E-03    -100.683E-03     149.742E-03    -48.7119E-03     112.179E-03
            1223     875.185E-06     112.966E-03    -128.627E+06    -73.3223E+06    -128.932E+06    -350.335E+03    -27.8759E-03     55.6550E-03    -27.7791E-03     11.2577E-03    -28.2261E-03     55.6615E-03    -28.1309E-03     11.2540E-03
            1224     1.75032E-03     112.977E-03    -120.358E+06    -67.9377E+06    -118.945E+06    -1.43473E+06    -28.1764E-03     56.0648E-03    -27.8884E-03     20.9369E-03    -28.5074E-03     56.0716E-03    -28.2101E-03     20.9197E-03
            1225     2.62513E-03     112.995E-03    -109.025E+06    -63.6307E+06    -104.306E+06    -3.84302E+06    -28.7336E-03     56.7985E-03    -28.0649E-03     31.4268E-03    -29.0354E-03     56.7892E-03    -28.3361E-03     31.3782E-03
            1226     3.49945E-03     113.021E-03    -95.8984E+06    -60.7716E+06    -86.3122E+06    -7.15646E+06    -29.5812E-03     57.9028E-03    -28.3217E-03     42.3937E-03    -29.8479E-03     57.8631E-03    -28.5260E-03     42.3007E-03
            1227     4.37309E-03     113.055E-03    -82.3302E+06    -56.7008E+06    -68.4194E+06    -11.0032E+06    -30.7598E-03     59.4085E-03    -28.6487E-03     53.8145E-03    -30.9918E-03     59.3450E-03    -28.7892E-03     53.6675E-03
            1228     5.24587E-03     113.099E-03    -69.4964E+06    -51.1101E+06    -52.1759E+06    -15.1464E+06    -32.3162E-03     61.3653E-03    -29.0491E-03     65.7027E-03    -32.5191E-03     61.2910E-03    -29.1351E-03     65.4938E-03
            1229     6.11736E-03     113.153E-03    -58.1060E+06    -46.4625E+06    -37.8897E+06    -18.4988E+06    -34.2864E-03     63.8210E-03    -29.5346E-03     78.0428E-03    -34.4669E-03     63.7399E-03    -29.5724E-03     77.7760E-03
            1230     6.98758E-03     113.217E-03    -48.5206E+06    -42.1971E+06    -25.3413E+06    -20.4337E+06    -36.7482E-03     66.8646E-03    -30.1163E-03     90.8506E-03    -36.9185E-03     66.7862E-03    -30.1115E-03     90.5349E-03
            1231     7.85566E-03     113.293E-03    -40.8237E+06    -36.3620E+06    -14.2383E+06    -22.1787E+06    -39.8008E-03     70.6087E-03    -30.8079E-03     104.084E-03    -39.9808E-03     70.5560E-03    -30.7672E-03     103.708E-03
            1232     8.72179E-03     113.381E-03    -34.2219E+06    -30.4968E+06    -4.19802E+06    -24.0456E+06    -43.6035E-03     75.2369E-03    -31.6334E-03     117.670E-03    -43.8138E-03     75.2298E-03    -31.5605E-03     117.211E-03
            1233     9.58456E-03     113.482E-03    -28.5808E+06    -27.1868E+06     3.85403E+06    -26.2144E+06    -48.2572E-03     80.8741E-03    -32.6169E-03     131.291E-03    -48.5209E-03     80.9290E-03    -32.5167E-03     130.715E-03
            1234     10.4441E-03     113.596E-03    -24.9484E+06    -22.1289E+06     9.58926E+06    -29.0907E+06    -53.7703E-03     87.5465E-03    -33.7762E-03     144.412E-03    -54.1335E-03     87.7154E-03    -33.6600E-03     143.668E-03
            1235     11.2988E-03     113.723E-03    -23.3452E+06    -22.5498E+06     12.4913E+06    -32.1374E+06    -60.2732E-03     95.4166E-03    -35.1434E-03     157.028E-03    -60.7914E-03     95.7366E-03    -35.0144E-03     156.048E-03
            1236     12.1489E-03     113.863E-03    -21.3086E+06    -20.6967E+06     13.9332E+06    -33.9971E+06    -67.9506E-03     104.687E-03    -36.7368E-03     170.139E-03    -68.7218E-03     105.270E-03    -36.6062E-03     168.837E-03
            1237     12.9925E-03     114.018E-03    -18.8160E+06    -21.7291E+06     14.8073E+06    -35.9738E+06    -76.6306E-03     115.219E-03    -38.5888E-03     183.202E-03    -77.7963E-03     116.200E-03    -38.4560E-03     181.436E-03
            1238     13.8290E-03     114.188E-03    -16.3401E+06    -6.04400E+06     17.3931E+06    -34.5836E+06    -85.6689E-03     126.364E-03    -40.6950E-03     190.183E-03    -87.3585E-03     127.926E-03    -40.5756E-03     187.885E-03
            1239     14.6586E-03     114.364E-03    -12.3052E+06     26.8429E+06     28.4797E+06    -23.9227E+06    -93.8634E-03     136.949E-03    -43.0856E-03     180.477E-03    -95.9129E-03     138.970E-03    -42.9643E-03     177.860E-03
            1240     15.4787E-03     114.523E-03    -8.52781E+06     64.2290E+06     50.1137E+06    -12.7263E+06    -101.322E-03     147.075E-03    -45.7535E-03     166.104E-03    -103.597E-03     149.406E-03    -45.5837E-03     163.276E-03
            1241     16.2935E-03     114.680E-03    -5.32213E+06     81.3715E+06     75.8843E+06    -5.71975E+06    -105.943E-03     154.553E-03    -48.6092E-03     121.596E-03    -107.608E-03     156.269E-03    -48.3401E-03     119.195E-03
            1242     877.612E-06     113.966E-03    -122.017E+06    -67.6452E+06    -121.993E+06    -5.27137E+06    -25.3536E-03     50.6001E-03    -25.2465E-03     10.6506E-03    -25.6888E-03     50.6156E-03    -25.5815E-03     10.5833E-03
            1243     1.75493E-03     113.977E-03    -117.685E+06    -61.5492E+06    -116.758E+06    -9.64471E+06    -25.7746E-03     51.1471E-03    -25.3725E-03     19.8678E-03    -26.1045E-03     51.1790E-03    -25.6964E-03     19.7444E-03
            1244     2.63186E-03     113.996E-03    -110.728E+06    -56.3487E+06    -107.119E+06    -14.0980E+06    -26.4660E-03     52.0582E-03    -25.5921E-03     29.9926E-03    -26.7826E-03     52.0919E-03    -25.8855E-03     29.8117E-03
            1245     3.50816E-03     114.023E-03    -101.542E+06    -52.9655E+06    -94.3597E+06    -18.6093E+06    -27.4730E-03     53.3736E-03    -25.9006E-03     40.7691E-03    -27.7673E-03     53.3927E-03    -26.1483E-03     40.5289E-03
            1246     4.38364E-03     114.059E-03    -90.8784E+06    -48.7301E+06    -81.1914E+06    -22.8516E+06    -28.8351E-03     55.1235E-03    -26.2885E-03     52.2297E-03    -29.1022E-03     55.1303E-03    -26.4920E-03     51.9318E-03
            1247     5.25788E-03     114.104E-03    -79.5867E+06    -43.3952E+06    -67.0097E+06    -26.5891E+06    -30.5855E-03     57.3522E-03    -26.7667E-03     64.3555E-03    -30.8271E-03     57.3513E-03    -26.9234E-03     64.0032E-03
            1248     6.13092E-03     114.160E-03    -67.6969E+06    -40.6153E+06    -50.4889E+06    -29.3186E+06    -32.7866E-03     60.1421E-03    -27.3554E-03     77.0570E-03    -33.0025E-03     60.1198E-03    -27.4508E-03     76.6574E-03
            1249     7.00208E-03     114.228E-03    -55.1019E+06    -38.7481E+06    -33.5164E+06    -30.2662E+06    -35.4717E-03     63.5229E-03    -28.0512E-03     90.2982E-03    -35.6633E-03     63.4786E-03    -28.0827E-03     89.8662E-03
            1250     7.87161E-03     114.307E-03    -42.9470E+06    -32.9018E+06    -17.8348E+06    -29.7975E+06    -38.7541E-03     67.6056E-03    -28.8514E-03     104.166E-03    -38.9370E-03     67.5710E-03    -28.8306E-03     103.707E-03
            1251     8.73821E-03     114.400E-03    -33.4824E+06    -27.7488E+06    -4.62484E+06    -28.6904E+06    -42.8065E-03     72.5869E-03    -29.7804E-03     118.647E-03    -43.0048E-03     72.5816E-03    -29.7148E-03     118.149E-03
            1252     9.60210E-03     114.506E-03    -27.6531E+06    -22.8039E+06     5.44255E+06    -28.2014E+06    -47.7098E-03     78.5702E-03    -30.8605E-03     133.351E-03    -47.9608E-03     78.6268E-03    -30.7601E-03     132.778E-03
            1253     10.4619E-03     114.627E-03    -23.7970E+06    -16.5975E+06     13.0529E+06    -29.0211E+06    -53.5567E-03     85.6730E-03    -32.1164E-03     147.772E-03    -53.9048E-03     85.8406E-03    -31.9925E-03     147.063E-03
            1254     11.3175E-03     114.761E-03    -20.0219E+06    -15.8770E+06     18.1875E+06    -31.2264E+06    -60.6159E-03     94.2030E-03    -33.5871E-03     161.971E-03    -61.1084E-03     94.5164E-03    -33.4441E-03     161.040E-03
            1255     12.1671E-03     114.910E-03    -17.1351E+06    -16.4590E+06     20.3422E+06    -33.4040E+06    -68.9746E-03     104.273E-03    -35.2989E-03     176.729E-03    -69.7093E-03     104.831E-03    -35.1484E-03     175.469E-03
            1256     13.0102E-03     115.077E-03    -15.5467E+06    -16.2052E+06     21.7002E+06    -34.3697E+06    -78.5124E-03     115.798E-03    -37.2852E-03     191.522E-03    -79.6500E-03     116.762E-03    -37.1307E-03     189.792E-03
            1257     13.8459E-03     115.259E-03    -14.8790E+06    -8.20842E+06     21.7429E+06    -33.3375E+06    -88.6124E-03     128.164E-03    -39.5512E-03     200.599E-03    -90.2965E-03     129.705E-03    -39.4090E-03     198.276E-03
            1258     14.6721E-03     115.448E-03    -13.7220E+06     10.3043E+06     25.4149E+06    -25.4938E+06    -98.0476E-03     140.174E-03    -42.1262E-03     192.327E-03    -100.160E-03     142.204E-03    -41.9942E-03     189.520E-03
            1259     15.4912E-03     115.620E-03    -10.0457E+06     52.9208E+06     49.2175E+06    -13.8031E+06    -106.883E-03     151.927E-03    -45.0441E-03     178.272E-03    -109.317E-03     154.374E-03    -44.8602E-03     175.128E-03
            1260     16.2999E-03     115.790E-03    -4.72209E+06     73.9396E+06     78.8836E+06    -6.52938E+06    -113.153E-03     161.373E-03    -48.2194E-03     131.602E-03    -114.934E-03     163.173E-03    -47.9254E-03     128.891E-03
            1261     878.817E-06     114.961E-03    -88.9733E+06    -55.2298E+06    -87.4975E+06    -7.02596E+06    -24.1025E-03     48.1287E-03    -24.0262E-03     9.63205E-03    -24.3404E-03     48.1085E-03    -24.2546E-03     9.54103E-03
            1262     1.75743E-03     114.973E-03    -86.3731E+06    -49.8376E+06    -81.5770E+06    -12.3601E+06    -24.5473E-03     48.7042E-03    -24.1570E-03     18.0104E-03    -24.7887E-03     48.6987E-03    -24.3674E-03     17.8501E-03
            1263     2.63556E-03     114.993E-03    -83.5460E+06    -45.3664E+06    -75.0862E+06    -17.3502E+06    -25.2352E-03     49.6164E-03    -24.3811E-03     27.3539E-03    -25.4787E-03     49.6198E-03    -24.5696E-03     27.1285E-03
            1264     3.51312E-03     115.021E-03    -80.8814E+06    -41.6683E+06    -69.6438E+06    -22.5082E+06    -26.2112E-03     50.8846E-03    -24.6734E-03     37.4811E-03    -26.4550E-03     50.8953E-03    -24.8440E-03     37.1878E-03
            1265     4.38976E-03     115.058E-03    -77.7788E+06    -37.8326E+06    -64.4125E+06    -28.0430E+06    -27.5023E-03     52.5414E-03    -25.0390E-03     48.4998E-03    -27.7447E-03     52.5601E-03    -25.1935E-03     48.1326E-03
            1266     5.26552E-03     115.106E-03    -73.4890E+06    -33.6811E+06    -57.2267E+06    -32.8529E+06    -29.2064E-03     54.7018E-03    -25.4954E-03     60.4853E-03    -29.4458E-03     54.7268E-03    -25.6262E-03     60.0513E-03
            1267     6.13961E-03     115.165E-03    -68.1407E+06    -32.7911E+06    -47.5147E+06    -36.6288E+06    -31.4184E-03     57.4841E-03    -26.0656E-03     73.3498E-03    -31.6511E-03     57.4963E-03    -26.1569E-03     72.8582E-03
            1268     7.01210E-03     115.235E-03    -61.4449E+06    -33.4108E+06    -37.4550E+06    -39.3111E+06    -34.1793E-03     60.9288E-03    -26.7495E-03     87.0151E-03    -34.4012E-03     60.9227E-03    -26.7992E-03     86.4729E-03
            1269     7.88213E-03     115.319E-03    -52.3586E+06    -30.0969E+06    -25.7212E+06    -40.2341E+06    -37.5853E-03     65.1422E-03    -27.5569E-03     101.619E-03    -37.8004E-03     65.1394E-03    -27.5660E-03     101.038E-03
            1270     8.75004E-03     115.416E-03    -40.8851E+06    -28.4135E+06    -10.7044E+06    -37.8822E+06    -41.7858E-03     70.3078E-03    -28.5220E-03     116.936E-03    -41.9980E-03     70.3053E-03    -28.4750E-03     116.341E-03
            1271     9.61446E-03     115.527E-03    -29.6541E+06    -22.7798E+06     4.73058E+06    -33.2534E+06    -46.8289E-03     76.4758E-03    -29.6468E-03     132.607E-03    -47.0672E-03     76.5147E-03    -29.5472E-03     132.000E-03
            1272     10.4753E-03     115.655E-03    -21.9522E+06    -13.5992E+06     16.9289E+06    -30.4711E+06    -52.9393E-03     83.8847E-03    -30.9454E-03     148.379E-03    -53.2554E-03     84.0262E-03    -30.8092E-03     147.695E-03
            1273     11.3312E-03     115.797E-03    -18.8792E+06    -10.5638E+06     23.8487E+06    -30.5344E+06    -60.4271E-03     92.8892E-03    -32.4622E-03     164.329E-03    -60.8837E-03     93.1733E-03    -32.3002E-03     163.462E-03
            1274     12.1812E-03     115.957E-03    -17.5266E+06    -11.2620E+06     26.6446E+06    -32.2699E+06    -69.2221E-03     103.452E-03    -34.2300E-03     180.887E-03    -69.9100E-03     103.962E-03    -34.0551E-03     179.711E-03
            1275     13.0246E-03     116.133E-03    -15.8947E+06    -14.1364E+06     27.2904E+06    -32.4242E+06    -79.2702E-03     115.544E-03    -36.2742E-03     198.011E-03    -80.3361E-03     116.427E-03    -36.0942E-03     196.381E-03
            1276     13.8598E-03     116.330E-03    -14.7395E+06    -7.25616E+06     28.2960E+06    -31.0258E+06    -89.9890E-03     128.598E-03    -38.6095E-03     209.749E-03    -91.5998E-03     130.052E-03    -38.4361E-03     207.513E-03
            1277     14.6872E-03     116.533E-03    -12.3313E+06    -2.34530E+06     27.7335E+06    -25.8742E+06    -101.208E-03     142.495E-03    -41.2866E-03     204.759E-03    -103.327E-03     144.485E-03    -41.1266E-03     201.847E-03
            1278     15.5018E-03     116.722E-03    -8.28392E+06     39.0927E+06     48.3364E+06    -15.5314E+06    -112.014E-03     156.397E-03    -44.3835E-03     189.569E-03    -114.589E-03     158.946E-03    -44.1865E-03     186.068E-03
            1279     16.3101E-03     116.904E-03    -4.37698E+06     67.2970E+06     80.5660E+06    -7.18561E+06    -119.862E-03     167.708E-03    -47.8458E-03     140.863E-03    -121.779E-03     169.618E-03    -47.5342E-03     137.799E-03
            1280     878.711E-06     115.956E-03    -56.2831E+06    -41.3213E+06    -54.3120E+06    -6.83366E+06    -24.3833E-03     48.7327E-03    -24.3494E-03     8.24424E-03    -24.5262E-03     48.6866E-03    -24.4795E-03     8.15392E-03
            1281     1.75714E-03     115.968E-03    -54.9452E+06    -37.4045E+06    -49.3390E+06    -11.6285E+06    -24.7968E-03     49.2555E-03    -24.4587E-03     15.4123E-03    -24.9463E-03     49.2200E-03    -24.5714E-03     15.2582E-03
            1282     2.63531E-03     115.988E-03    -52.5139E+06    -33.6230E+06    -42.8173E+06    -16.3913E+06    -25.4237E-03     50.0966E-03    -24.6729E-03     23.4552E-03    -25.5766E-03     50.0677E-03    -24.7621E-03     23.2374E-03
            1283     3.51278E-03     116.018E-03    -49.3090E+06    -29.7286E+06    -35.2119E+06    -21.1729E+06    -26.2706E-03     51.2265E-03    -24.9559E-03     32.2930E-03    -26.4250E-03     51.2024E-03    -25.0174E-03     32.0107E-03
            1284     4.38971E-03     116.056E-03    -46.6366E+06    -25.7005E+06    -27.7814E+06    -26.0636E+06    -27.3667E-03     52.6670E-03    -25.3003E-03     42.0873E-03    -27.5259E-03     52.6499E-03    -25.3343E-03     41.7384E-03
            1285     5.26553E-03     116.106E-03    -45.5461E+06    -23.1251E+06    -22.9593E+06    -30.3735E+06    -28.7631E-03     54.4639E-03    -25.7008E-03     53.0574E-03    -28.9298E-03     54.4534E-03    -25.7160E-03     52.6484E-03
            1286     6.14046E-03     116.167E-03    -45.8001E+06    -22.8272E+06    -20.7308E+06    -34.0950E+06    -30.5909E-03     56.7595E-03    -26.1686E-03     65.3350E-03    -30.7663E-03     56.7514E-03    -26.1727E-03     64.8712E-03
            1287     7.01361E-03     116.240E-03    -46.2374E+06    -23.8803E+06    -19.2178E+06    -38.5422E+06    -33.0665E-03     59.7996E-03    -26.7331E-03     78.9440E-03    -33.2515E-03     59.7916E-03    -26.7275E-03     78.4115E-03
            1288     7.88502E-03     116.327E-03    -45.6794E+06    -23.2831E+06    -16.1221E+06    -42.6339E+06    -36.3150E-03     63.7436E-03    -27.4285E-03     93.9634E-03    -36.5149E-03     63.7456E-03    -27.4091E-03     93.3587E-03
            1289     8.75335E-03     116.429E-03    -42.8893E+06    -27.1058E+06    -10.7506E+06    -44.1845E+06    -40.4019E-03     68.6904E-03    -28.2885E-03     110.136E-03    -40.6122E-03     68.6838E-03    -28.2408E-03     109.478E-03
            1290     9.61878E-03     116.546E-03    -35.9884E+06    -25.2704E+06    -219.613E+03    -42.0143E+06    -45.4524E-03     74.7846E-03    -29.3322E-03     126.989E-03    -45.6854E-03     74.8013E-03    -29.2445E-03     126.303E-03
            1291     10.4804E-03     116.679E-03    -26.3720E+06    -15.8239E+06     14.9194E+06    -36.4744E+06    -51.7161E-03     82.3026E-03    -30.5866E-03     144.262E-03    -52.0048E-03     82.3991E-03    -30.4508E-03     143.553E-03
            1292     11.3371E-03     116.830E-03    -18.1098E+06    -10.1995E+06     27.4128E+06    -30.7602E+06    -59.3146E-03     91.3874E-03    -32.0729E-03     161.972E-03    -59.7049E-03     91.5989E-03    -31.8947E-03     161.180E-03
            1293     12.1881E-03     116.999E-03    -14.7640E+06    -6.27336E+06     34.7990E+06    -28.7520E+06    -68.3440E-03     102.156E-03    -33.8122E-03     180.487E-03    -68.9341E-03     102.572E-03    -33.6077E-03     179.465E-03
            1294     13.0321E-03     117.188E-03    -14.6049E+06    -11.9391E+06     36.6714E+06    -29.5882E+06    -78.5807E-03     114.412E-03    -35.8309E-03     199.565E-03    -79.5046E-03     115.137E-03    -35.6090E-03     198.120E-03
            1295     13.8691E-03     117.397E-03    -12.1534E+06    -4.44199E+06     39.2618E+06    -30.3932E+06    -89.5930E-03     127.726E-03    -38.1334E-03     213.949E-03    -91.0191E-03     128.982E-03    -37.9130E-03     211.892E-03
            1296     14.6965E-03     117.616E-03    -7.29656E+06    -11.2853E+06     36.2645E+06    -27.5975E+06    -101.867E-03     142.654E-03    -40.7872E-03     214.564E-03    -103.824E-03     144.445E-03    -40.5789E-03     211.738E-03
            1297     15.5112E-03     117.829E-03    -3.31811E+06     21.6935E+06     44.9580E+06    -15.6610E+06    -115.860E-03     159.762E-03    -43.9023E-03     203.210E-03    -118.494E-03     162.337E-03    -43.7042E-03     199.446E-03
            1298     16.3103E-03     118.023E-03    -1.99339E+06     59.3358E+06     77.6977E+06    -4.24054E+06    -125.425E-03     172.974E-03    -47.5491E-03     152.382E-03    -127.528E-03     175.059E-03    -47.2438E-03     148.909E-03
            1299     876.936E-06     116.952E-03    -27.1223E+06    -28.7006E+06    -25.4864E+06    -5.67421E+06    -26.5055E-03     52.9302E-03    -26.4246E-03     6.53090E-03    -26.5632E-03     52.8629E-03    -26.4711E-03     6.45314E-03
            1300     1.75379E-03     116.965E-03    -25.8471E+06    -25.7961E+06    -21.2894E+06    -10.4120E+06    -26.8903E-03     53.4562E-03    -26.5659E-03     12.1229E-03    -26.9525E-03     53.3959E-03    -26.5974E-03     11.9799E-03
            1301     2.63004E-03     116.986E-03    -23.7423E+06    -22.5378E+06    -14.2842E+06    -15.0611E+06    -27.4468E-03     54.2355E-03    -26.7887E-03     18.4122E-03    -27.5143E-03     54.1793E-03    -26.7931E-03     18.2044E-03
            1302     3.50600E-03     117.016E-03    -21.8056E+06    -19.4157E+06    -6.73777E+06    -18.8603E+06    -28.1624E-03     55.2308E-03    -27.0684E-03     25.3693E-03    -28.2372E-03     55.1780E-03    -27.0423E-03     25.1072E-03
            1303     4.38112E-03     117.056E-03    -20.8746E+06    -15.8997E+06    -711.760E+03    -21.7446E+06    -29.0059E-03     56.3928E-03    -27.3868E-03     33.2026E-03    -29.0921E-03     56.3496E-03    -27.3371E-03     32.8976E-03
            1304     5.25576E-03     117.106E-03    -20.5949E+06    -13.7220E+06     3.41277E+06    -24.6084E+06    -29.9870E-03     57.7234E-03    -27.7364E-03     42.2000E-03    -30.0837E-03     57.6877E-03    -27.6696E-03     41.8520E-03
            1305     6.12950E-03     117.169E-03    -20.2261E+06    -13.6189E+06     6.56084E+06    -27.7060E+06    -31.2384E-03     59.3628E-03    -28.1244E-03     52.6340E-03    -31.3419E-03     59.3264E-03    -28.0425E-03     52.2392E-03
            1306     7.00256E-03     117.244E-03    -20.6942E+06    -13.3402E+06     9.50592E+06    -31.1351E+06    -32.9869E-03     61.5593E-03    -28.5725E-03     64.7525E-03    -33.1028E-03     61.5264E-03    -28.4756E-03     64.3046E-03
            1307     7.87367E-03     117.334E-03    -23.6676E+06    -14.0766E+06     10.1301E+06    -34.1847E+06    -35.4262E-03     64.5304E-03    -29.1042E-03     78.8475E-03    -35.5653E-03     64.5060E-03    -28.9988E-03     78.3474E-03
            1308     8.74307E-03     117.439E-03    -28.2805E+06    -18.6533E+06     7.53044E+06    -37.9315E+06    -38.7719E-03     68.5225E-03    -29.7506E-03     94.9453E-03    -38.9375E-03     68.4998E-03    -29.6449E-03     94.3762E-03
            1309     9.60952E-03     117.561E-03    -31.6692E+06    -21.7066E+06     6.91833E+06    -41.8403E+06    -43.3358E-03     73.9015E-03    -30.5657E-03     112.751E-03    -43.5374E-03     73.8941E-03    -30.4537E-03     112.095E-03
            1310     10.4719E-03     117.701E-03    -30.9366E+06    -19.5996E+06     12.7765E+06    -40.8216E+06    -49.3021E-03     80.9093E-03    -31.6072E-03     131.732E-03    -49.5562E-03     80.9478E-03    -31.4700E-03     131.025E-03
            1311     11.3298E-03     117.860E-03    -24.9988E+06    -13.6472E+06     25.4710E+06    -36.7562E+06    -56.8276E-03     89.7481E-03    -32.9205E-03     151.351E-03    -57.1604E-03     89.8710E-03    -32.7371E-03     150.580E-03
            1312     12.1822E-03     118.038E-03    -16.6308E+06    -9.68896E+06     40.4980E+06    -30.1147E+06    -65.9233E-03     100.456E-03    -34.5324E-03     171.576E-03    -66.3904E-03     100.713E-03    -34.2918E-03     170.685E-03
            1313     13.0277E-03     118.238E-03    -11.7867E+06    -7.87272E+06     49.0847E+06    -25.7286E+06    -76.0082E-03     112.427E-03    -36.4189E-03     191.919E-03    -76.7261E-03     112.935E-03    -36.1450E-03     190.744E-03
            1314     13.8657E-03     118.458E-03    -12.0529E+06     569.083E+03     49.8130E+06    -27.5110E+06    -86.8468E-03     125.405E-03    -38.5587E-03     209.540E-03    -87.9869E-03     126.363E-03    -38.2930E-03     207.821E-03
            1315     14.6955E-03     118.695E-03    -13.0828E+06    -13.7145E+06     45.9774E+06    -29.3770E+06    -98.1205E-03     139.144E-03    -41.0238E-03     216.320E-03    -99.7539E-03     140.553E-03    -40.7550E-03     213.879E-03
            1316     15.5158E-03     118.927E-03    -7.74143E+06     568.881E+03     44.5251E+06    -20.2730E+06    -112.806E-03     156.672E-03    -43.8660E-03     217.147E-03    -115.270E-03     158.987E-03    -43.6330E-03     213.592E-03
            1317     16.3180E-03     119.158E-03     459.409E+03     42.1400E+06     74.8758E+06    -2.71825E+06    -127.324E-03     174.692E-03    -47.3679E-03     169.151E-03    -129.477E-03     176.786E-03    -47.0553E-03     165.558E-03
            1318     873.554E-06     117.955E-03    -781.602E+03    -17.7831E+06     151.948E+03    -4.93339E+06    -30.6707E-03     61.3332E-03    -30.6625E-03     4.34637E-03    -30.6505E-03     61.2444E-03    -30.6348E-03     4.27497E-03
            1319     1.74656E-03     117.968E-03    -129.843E+03    -15.1714E+06     4.50191E+06    -8.97527E+06    -31.0950E-03     61.8833E-03    -30.7884E-03     8.11462E-03    -31.0823E-03     61.8008E-03    -30.7437E-03     7.98423E-03
            1320     2.61943E-03     117.990E-03     476.841E+03    -13.1254E+06     10.2342E+06    -12.4130E+06    -31.6337E-03     62.6665E-03    -31.0328E-03     12.2861E-03    -31.6304E-03     62.5860E-03    -30.9632E-03     12.1036E-03
            1321     3.49145E-03     118.021E-03     954.332E+03    -11.3947E+06     15.4125E+06    -14.9744E+06    -32.2493E-03     63.5752E-03    -31.3258E-03     16.9495E-03    -32.2553E-03     63.4969E-03    -31.2336E-03     16.7255E-03
            1322     4.36309E-03     118.061E-03     1.85270E+06    -8.73905E+06     20.3605E+06    -17.0691E+06    -32.9048E-03     64.5545E-03    -31.6496E-03     22.3462E-03    -32.9197E-03     64.4833E-03    -31.5379E-03     22.0863E-03
            1323     5.23398E-03     118.112E-03     2.54356E+06    -6.69002E+06     25.5659E+06    -18.8404E+06    -33.6282E-03     65.6304E-03    -32.0022E-03     28.6398E-03    -33.6533E-03     65.5640E-03    -31.8684E-03     28.3477E-03
            1324     6.10440E-03     118.175E-03     1.58060E+06    -6.25371E+06     29.2980E+06    -20.6700E+06    -34.4090E-03     66.7847E-03    -32.3756E-03     36.1476E-03    -34.4491E-03     66.7205E-03    -32.2224E-03     35.8224E-03
            1325     6.97382E-03     118.251E-03    -1.08371E+06    -6.27257E+06     30.9440E+06    -22.0007E+06    -35.3042E-03     68.0680E-03    -32.7638E-03     45.2959E-03    -35.3651E-03     68.0104E-03    -32.5984E-03     44.9441E-03
            1326     7.84303E-03     118.342E-03    -4.12864E+06    -6.88944E+06     32.1949E+06    -23.2728E+06    -36.5586E-03     69.7430E-03    -33.1845E-03     56.3818E-03    -36.6422E-03     69.6918E-03    -33.0075E-03     56.0030E-03
            1327     8.71099E-03     118.449E-03    -7.34742E+06    -8.78217E+06     33.0690E+06    -25.7063E+06    -38.4804E-03     72.1472E-03    -33.6668E-03     69.7368E-03    -38.5876E-03     72.0994E-03    -33.4781E-03     69.3133E-03
            1328     9.57720E-03     118.574E-03    -12.5012E+06    -11.9501E+06     31.3381E+06    -29.1150E+06    -41.3814E-03     75.6221E-03    -34.2407E-03     85.8011E-03    -41.5205E-03     75.5825E-03    -34.0485E-03     85.3146E-03
            1329     10.4410E-03     118.719E-03    -18.8248E+06    -15.7799E+06     28.3393E+06    -32.4077E+06    -45.8062E-03     80.7695E-03    -34.9633E-03     104.533E-03    -45.9895E-03     80.7476E-03    -34.7714E-03     103.971E-03
            1330     11.3005E-03     118.884E-03    -23.4829E+06    -11.6096E+06     31.9918E+06    -34.5940E+06    -52.2702E-03     88.1981E-03    -35.9280E-03     125.485E-03    -52.5311E-03     88.2428E-03    -35.7171E-03     124.828E-03
            1331     12.1538E-03     119.072E-03    -23.2180E+06    -14.6562E+06     39.3071E+06    -34.0067E+06    -60.5981E-03     97.7940E-03    -37.1959E-03     147.771E-03    -60.9473E-03     97.8967E-03    -36.9445E-03     146.995E-03
            1332     13.0009E-03     119.281E-03    -17.0918E+06    -11.4712E+06     49.1698E+06    -28.6559E+06    -70.2571E-03     109.019E-03    -38.7623E-03     170.254E-03    -70.7506E-03     109.271E-03    -38.4750E-03     169.320E-03
            1333     13.8417E-03     119.513E-03    -13.2086E+06     15.2729E+03     60.7535E+06    -21.5965E+06    -80.3168E-03     120.935E-03    -40.6182E-03     190.255E-03    -81.0886E-03     121.486E-03    -40.2953E-03     189.044E-03
            1334     14.6758E-03     119.763E-03    -15.4157E+06    -6.52905E+06     62.5838E+06    -21.8883E+06    -88.3351E-03     131.011E-03    -42.6761E-03     201.155E-03    -89.4659E-03     131.886E-03    -42.3313E-03     199.462E-03
            1335     15.5030E-03     120.012E-03    -19.0044E+06    -10.1045E+06     49.8974E+06    -23.5871E+06    -100.184E-03     145.075E-03    -44.8910E-03     216.168E-03    -102.085E-03     146.733E-03    -44.5993E-03     213.468E-03
            1336     16.3217E-03     120.275E-03    -16.5746E+06     17.9538E+06     61.4984E+06    -12.8639E+06    -118.121E-03     165.829E-03    -47.7074E-03     183.702E-03    -120.107E-03     167.651E-03    -47.4019E-03     180.426E-03
            1337     867.681E-06     118.968E-03     22.4783E+06    -8.54813E+06     24.0896E+06    -3.66983E+06    -37.3877E-03     74.6657E-03    -37.2780E-03     1.85418E-03    -37.3006E-03     74.5531E-03    -37.1778E-03     1.79601E-03
            1338     1.73541E-03     118.982E-03     22.3328E+06    -6.99110E+06     26.6301E+06    -6.55945E+06    -37.6885E-03     75.1534E-03    -37.4649E-03     3.25661E-03    -37.6086E-03     75.0453E-03    -37.3540E-03     3.15159E-03
            1339     2.60222E-03     119.004E-03     22.1376E+06    -6.39202E+06     30.3764E+06    -8.37733E+06    -38.1840E-03     75.8943E-03    -37.7103E-03     5.04921E-03    -38.1121E-03     75.7849E-03    -37.5812E-03     4.91027E-03
            1340     3.46868E-03     119.036E-03     21.8317E+06    -5.08527E+06     34.6184E+06    -10.2838E+06    -38.7825E-03     76.8081E-03    -38.0257E-03     7.14856E-03    -38.7214E-03     76.7006E-03    -37.8768E-03     6.97376E-03
            1341     4.33432E-03     119.077E-03     21.3048E+06    -3.35354E+06     39.0337E+06    -12.0334E+06    -39.4263E-03     77.8230E-03    -38.3966E-03     9.67088E-03    -39.3786E-03     77.7200E-03    -38.2275E-03     9.46143E-03
            1342     5.19927E-03     119.129E-03     20.1109E+06    -2.47630E+06     43.1112E+06    -12.5155E+06    -40.0491E-03     78.8581E-03    -38.8090E-03     12.8276E-03    -40.0169E-03     78.7575E-03    -38.6190E-03     12.5995E-03
            1343     6.06317E-03     119.192E-03     18.2667E+06    -1.93788E+06     46.5904E+06    -12.2660E+06    -40.6200E-03     79.8678E-03    -39.2479E-03     16.8598E-03    -40.6059E-03     79.7703E-03    -39.0386E-03     16.6220E-03
            1344     6.92672E-03     119.268E-03     16.3562E+06    -1.85645E+06     49.5855E+06    -12.6557E+06    -41.1478E-03     80.8537E-03    -39.7059E-03     21.9632E-03    -41.1519E-03     80.7586E-03    -39.4790E-03     21.7073E-03
            1345     7.78923E-03     119.358E-03     14.4208E+06    -2.50982E+06     52.4944E+06    -13.4767E+06    -41.6410E-03     81.8238E-03    -40.1828E-03     28.3497E-03    -41.6633E-03     81.7289E-03    -39.9376E-03     28.0698E-03
            1346     8.65110E-03     119.465E-03     11.4154E+06    -3.28557E+06     54.9199E+06    -13.8144E+06    -42.1595E-03     82.8368E-03    -40.6774E-03     36.4346E-03    -42.2058E-03     82.7452E-03    -40.4145E-03     36.1368E-03
            1347     9.51248E-03     119.590E-03     7.58398E+06    -4.70417E+06     55.8446E+06    -14.4501E+06    -42.9963E-03     84.1934E-03    -41.1971E-03     46.7330E-03    -43.0695E-03     84.1073E-03    -40.9220E-03     46.4120E-03
            1348     10.3729E-03     119.735E-03     3.86091E+06    -6.48710E+06     55.2855E+06    -17.4382E+06    -44.6068E-03     86.3790E-03    -41.7723E-03     59.8798E-03    -44.7069E-03     86.3025E-03    -41.4920E-03     59.5013E-03
            1349     11.2315E-03     119.904E-03    -564.110E+03    -5.41722E+06     54.7173E+06    -19.3078E+06    -47.4063E-03     89.8557E-03    -42.4494E-03     76.6199E-03    -47.5470E-03     89.8116E-03    -42.1671E-03     76.1897E-03
            1350     12.0872E-03     120.098E-03    -7.68764E+06    -6.75131E+06     53.6451E+06    -21.6258E+06    -52.0252E-03     95.3121E-03    -43.2868E-03     96.8605E-03    -52.2301E-03     95.3082E-03    -42.9977E-03     96.3491E-03
            1351     12.9378E-03     120.315E-03    -13.6785E+06    -12.1417E+06     54.4230E+06    -25.4122E+06    -58.9004E-03     103.253E-03    -44.3525E-03     119.607E-03    -59.1910E-03     103.295E-03    -44.0429E-03     118.944E-03
            1352     13.7812E-03     120.557E-03    -12.4928E+06    -11.0535E+06     63.0307E+06    -19.8918E+06    -64.9297E-03     110.536E-03    -45.6067E-03     142.077E-03    -65.3309E-03     110.677E-03    -45.2574E-03     141.335E-03
            1353     14.6192E-03     120.815E-03    -6.55246E+06     2.11471E+06     74.1247E+06    -14.0483E+06    -71.0013E-03     117.938E-03    -46.9371E-03     158.437E-03    -71.5683E-03     118.280E-03    -46.5600E-03     157.545E-03
            1354     15.4619E-03     121.068E-03    -3.45396E+06    -1.72035E+06     69.6763E+06    -13.6365E+06    -77.7182E-03     126.010E-03    -48.2916E-03     179.228E-03    -78.6825E-03     126.761E-03    -47.9358E-03     177.840E-03
            1355     16.2907E-03     121.364E-03    -6.03169E+06     952.487E+03     53.5052E+06    -12.7789E+06    -82.7414E-03     132.354E-03    -49.6128E-03     180.293E-03    -83.9145E-03     133.369E-03    -49.3380E-03     178.418E-03
            1356     859.784E-06     119.998E-03     40.1944E+06    -2.57314E+06     40.8514E+06    -1.94083E+06    -46.7266E-03     93.5289E-03    -46.8022E-03    -1.40237E-03    -46.5859E-03     93.3938E-03    -46.6525E-03    -1.43754E-03
            1357     1.71900E-03     120.012E-03     38.9924E+06    -1.96280E+06     42.0438E+06    -3.07854E+06    -46.9749E-03     93.8732E-03    -46.8982E-03    -2.35763E-03    -46.8431E-03     93.7410E-03    -46.7417E-03    -2.41636E-03
            1358     2.57826E-03     120.035E-03     37.8572E+06    -2.48720E+06     45.0180E+06    -4.07092E+06    -47.4088E-03     94.5457E-03    -47.1369E-03    -3.27888E-03    -47.2864E-03     94.4082E-03    -46.9631E-03    -3.36008E-03
            1359     3.43655E-03     120.067E-03     36.6538E+06    -930.292E+03     48.9372E+06    -4.89280E+06    -48.0797E-03     95.5683E-03    -47.4886E-03    -4.14153E-03    -47.9716E-03     95.4348E-03    -47.2957E-03    -4.24374E-03
            1360     4.29379E-03     120.109E-03     34.6851E+06    -293.268E+03     53.0748E+06    -5.15082E+06    -48.8412E-03     96.7893E-03    -47.9480E-03    -4.88617E-03    -48.7504E-03     96.6558E-03    -47.7325E-03    -5.00283E-03
            1361     5.14987E-03     120.161E-03     32.5250E+06    -550.463E+03     56.7441E+06    -4.91967E+06    -49.6105E-03     98.1016E-03    -48.4911E-03    -5.42061E-03    -49.5364E-03     97.9647E-03    -48.2537E-03    -5.54615E-03
            1362     6.00514E-03     120.224E-03     31.2430E+06    -470.931E+03     61.5155E+06    -4.49954E+06    -50.3917E-03     99.5042E-03    -49.1125E-03    -5.76572E-03    -50.3323E-03     99.3626E-03    -48.8495E-03    -5.89866E-03
            1363     6.85865E-03     120.300E-03     30.1789E+06     575.679E+03     66.9164E+06    -4.23236E+06    -51.0743E-03     100.879E-03    -49.8045E-03    -5.83355E-03    -51.0312E-03     100.736E-03    -49.5145E-03    -5.97700E-03
            1364     7.71083E-03     120.390E-03     28.3592E+06    -147.154E+03     70.6941E+06    -3.87299E+06    -51.4542E-03     102.000E-03    -50.5458E-03    -5.46154E-03    -51.4269E-03     101.852E-03    -50.2333E-03    -5.61515E-03
            1365     8.56184E-03     120.496E-03     26.7969E+06    -1.21177E+06     73.6258E+06    -3.39777E+06    -51.5032E-03     102.825E-03    -51.3216E-03    -4.50669E-03    -51.4894E-03     102.670E-03    -50.9905E-03    -4.66979E-03
            1366     9.41141E-03     120.619E-03     26.1654E+06    -1.13807E+06     76.7827E+06    -3.52909E+06    -51.1837E-03     103.311E-03    -52.1271E-03    -2.67339E-03    -51.1816E-03     103.154E-03    -51.7795E-03    -2.85486E-03
            1367     10.2595E-03     120.762E-03     24.2060E+06    -1.06456E+06     78.3504E+06    -4.07767E+06    -50.2013E-03     103.143E-03    -52.9416E-03     844.089E-06    -50.2164E-03     102.991E-03    -52.5834E-03     638.745E-06
            1368     11.1068E-03     120.927E-03     20.3489E+06    -2.13094E+06     78.2899E+06    -4.31817E+06    -48.5802E-03     102.320E-03    -53.7403E-03     7.06359E-03    -48.6197E-03     102.174E-03    -53.3752E-03     6.84047E-03
            1369     11.9545E-03     121.117E-03     17.7592E+06    -1.33766E+06     79.7936E+06    -3.66323E+06    -46.9945E-03     101.518E-03    -54.5239E-03     16.7963E-03    -47.0601E-03     101.388E-03    -54.1487E-03     16.5670E-03
            1370     12.8016E-03     121.335E-03     13.9781E+06    -2.35833E+06     79.6311E+06    -5.45353E+06    -44.7825E-03     100.023E-03    -55.2401E-03     32.0396E-03    -44.8782E-03     99.9150E-03    -54.8588E-03     31.7737E-03
            1371     13.6477E-03     121.579E-03     8.45788E+06    -7.23506E+06     75.5276E+06    -8.77985E+06    -41.9740E-03     97.7625E-03    -55.7885E-03     48.7713E-03    -42.0989E-03     97.6622E-03    -55.4126E-03     48.4619E-03
            1372     14.5064E-03     121.832E-03     7.82877E+06     3.35988E+06      76.336E+06    -8.24136E+06    -43.1047E-03     99.3416E-03    -56.2369E-03     65.6207E-03    -43.2799E-03     99.3351E-03    -55.8714E-03     65.2735E-03
            1373     15.3402E-03     122.117E-03     9.89630E+06    -5.48046E+06     69.2159E+06    -3.99563E+06    -39.2995E-03     95.7697E-03    -56.4703E-03     81.0114E-03    -39.5275E-03     95.8253E-03    -56.1306E-03     80.6425E-03
            1374     16.2065E-03     122.369E-03     10.4121E+06    -4.80576E+06     52.0980E+06    -4.24382E+06    -21.8329E-03     77.6902E-03    -55.8573E-03     89.5804E-03    -22.1019E-03     77.8365E-03    -55.6049E-03     89.1949E-03
            1375     16.2181E-03     60.6804E-03    -4.40451E+06     127.352E+06     88.1680E+06    -28.3757E+03    -53.0672E-03     106.295E-03    -53.2279E-03     76.3781E-03    -54.1892E-03     107.598E-03    -52.9653E-03     75.7355E-03
            1376     15.3637E-03     60.5758E-03    -10.0425E+06     124.822E+06     82.6748E+06     796.902E+03    -53.6892E-03     106.938E-03    -53.2487E-03     104.261E-03    -55.2392E-03     108.656E-03    -53.0017E-03     103.351E-03
            1377     14.5100E-03     60.4724E-03    -15.1599E+06     115.662E+06     64.6296E+06     704.324E+03    -54.1895E-03     107.410E-03    -53.2208E-03     110.605E-03    -55.6940E-03     109.084E-03    -53.0434E-03     109.550E-03
            1378     13.6553E-03     60.3559E-03    -18.0079E+06     99.6639E+06     35.0010E+06    -253.424E+03    -54.6317E-03     107.773E-03    -53.1412E-03     113.995E-03    -55.9969E-03     109.326E-03    -53.0846E-03     112.854E-03
            1379     12.8015E-03     60.2455E-03    -19.6664E+06      51.845E+06     11.9329E+06    -44.2333E+03    -54.7253E-03     107.857E-03    -53.1314E-03     105.144E-03    -55.7452E-03     108.956E-03    -53.1184E-03     104.072E-03
            1380     11.9478E-03     60.1463E-03    -21.9972E+06    -3.68161E+06     6.99258E+06     159.603E+03    -54.6945E-03     107.907E-03    -53.2128E-03     95.5993E-03    -55.4053E-03     108.507E-03    -53.1406E-03     94.6631E-03
            1381     11.0943E-03     60.0549E-03    -24.8914E+06    -39.5062E+06     3.12295E+06    -12.4180E+03    -54.6388E-03     107.904E-03    -53.2651E-03     89.0267E-03    -55.1514E-03     108.179E-03    -53.1561E-03     88.2130E-03
            1382     10.2408E-03     59.9685E-03    -27.5243E+06    -65.1110E+06     1.22485E+06     222.468E+03    -54.5948E-03     107.904E-03    -53.3096E-03     84.3013E-03    -54.9734E-03     107.951E-03    -53.1692E-03     83.6024E-03
            1383     9.38708E-03     59.8865E-03    -30.1403E+06    -83.7112E+06    -291.949E+03     324.164E+03    -54.5106E-03     107.855E-03    -53.3447E-03     79.4335E-03    -54.7924E-03     107.734E-03    -53.1811E-03     78.8364E-03
            1384     8.53390E-03     59.8097E-03    -33.0835E+06    -99.5063E+06    -2.29771E+06     319.015E+03    -54.3935E-03     107.766E-03    -53.3725E-03     73.9767E-03    -54.6008E-03     107.509E-03    -53.1917E-03     73.4709E-03
            1385     7.68021E-03     59.7386E-03    -36.4032E+06    -112.968E+06    -4.41419E+06     371.647E+03    -54.2415E-03     107.638E-03    -53.3961E-03     68.0694E-03    -54.3931E-03     107.272E-03    -53.2016E-03     67.6466E-03
            1386     6.82696E-03     59.6735E-03    -40.0753E+06    -123.111E+06    -9.08035E+06     392.603E+03    -54.0769E-03     107.480E-03    -53.4027E-03     61.7944E-03    -54.1867E-03     107.036E-03    -53.2115E-03     61.4455E-03
            1387     5.97352E-03     59.6149E-03    -44.0407E+06    -132.029E+06    -15.9177E+06     204.312E+03    -53.9074E-03     107.305E-03    -53.3980E-03     55.1252E-03    -53.9845E-03     106.804E-03    -53.2223E-03     54.8387E-03
            1388     5.11995E-03     59.5631E-03    -48.0823E+06    -140.507E+06    -23.3358E+06     201.459E+03    -53.7412E-03     107.133E-03    -53.3918E-03     48.0708E-03    -53.7927E-03     106.583E-03    -53.2350E-03     47.8413E-03
            1389     4.26674E-03     59.5187E-03    -52.2216E+06    -148.791E+06    -31.5595E+06     251.405E+03    -53.6097E-03     106.992E-03    -53.3827E-03     40.6730E-03    -53.6409E-03     106.402E-03    -53.2490E-03     40.4942E-03
            1390     3.41319E-03     59.4818E-03    -56.2039E+06    -155.883E+06    -41.0669E+06     214.871E+03    -53.5044E-03     106.869E-03    -53.3641E-03     33.0020E-03    -53.5191E-03     106.249E-03    -53.2619E-03     32.8667E-03
            1391     2.55997E-03     59.4526E-03    -59.5929E+06    -162.562E+06    -50.1058E+06     182.699E+03    -53.4229E-03     106.767E-03    -53.3443E-03     25.1102E-03    -53.4230E-03     106.124E-03    -53.2727E-03     25.0133E-03
            1392     1.70660E-03     59.4315E-03    -62.3487E+06    -168.641E+06    -57.6488E+06     64.1890E+03    -53.3630E-03     106.691E-03    -53.3280E-03     17.0741E-03    -53.3513E-03     106.026E-03    -53.2813E-03     17.0101E-03
            1393     853.252E-06     59.4186E-03    -64.1710E+06    -171.876E+06    -62.8588E+06     6.95563E+03    -53.3415E-03     106.644E-03    -53.3025E-03     9.31491E-03    -53.3235E-03     105.970E-03    -53.2746E-03     9.28068E-03
            1394     16.2177E-03     59.6268E-03    -4.64873E+06     126.748E+06     87.7304E+06     571.799E+03    -52.9388E-03     106.174E-03    -53.2353E-03     76.7386E-03    -54.0626E-03     107.477E-03    -52.9737E-03     76.1051E-03
            1395     15.3637E-03     59.5216E-03    -10.1019E+06     124.895E+06     83.1423E+06     648.556E+03    -53.7366E-03     107.000E-03    -53.2630E-03     104.566E-03    -55.2894E-03     108.719E-03    -53.0137E-03     103.655E-03
            1396     14.5089E-03     59.4187E-03    -13.7171E+06     116.976E+06     65.7276E+06    -539.907E+03    -54.2652E-03     107.497E-03    -53.2316E-03     110.460E-03    -55.7671E-03     109.175E-03    -53.0527E-03     109.386E-03
            1397     13.6554E-03     59.3013E-03    -17.2013E+06     99.1817E+06      34.857E+06    -718.376E+03    -54.7856E-03     107.928E-03    -53.1421E-03     113.774E-03    -56.1478E-03     109.480E-03    -53.0867E-03     112.621E-03
            1398     12.8016E-03     59.1915E-03    -20.6777E+06     51.2447E+06     11.3998E+06    -16.0182E+03    -54.7622E-03     107.888E-03    -53.1261E-03     104.926E-03    -55.7853E-03     108.987E-03    -53.1135E-03     103.854E-03
            1399     11.9480E-03     59.0917E-03    -23.0410E+06    -3.32500E+06     6.57690E+06     487.128E+03    -54.6881E-03     107.893E-03    -53.2045E-03     95.5293E-03    -55.4044E-03     108.496E-03    -53.1334E-03     94.5969E-03
            1400     11.0944E-03     59.0007E-03    -25.1484E+06    -39.5062E+06     2.98201E+06     458.523E+03    -54.6471E-03     107.903E-03    -53.2564E-03     88.9621E-03    -55.1611E-03     108.179E-03    -53.1477E-03     88.1537E-03
            1401     10.2407E-03     58.9141E-03    -27.5658E+06    -65.0807E+06     1.13492E+06     362.479E+03    -54.5812E-03     107.881E-03    -53.3001E-03     84.2609E-03    -54.9600E-03     107.928E-03    -53.1601E-03     83.5638E-03
            1402     9.38752E-03     58.8322E-03    -30.2382E+06    -83.6450E+06    -399.932E+03     343.991E+03    -54.4916E-03     107.827E-03    -53.3355E-03     79.3996E-03    -54.7739E-03     107.706E-03    -53.1724E-03     78.8028E-03
            1403     8.53369E-03     58.7554E-03    -33.2187E+06    -99.4296E+06    -2.38252E+06     364.298E+03    -54.3647E-03     107.730E-03    -53.3649E-03     73.9637E-03    -54.5725E-03     107.473E-03    -53.1845E-03     73.4589E-03
            1404     7.68051E-03     58.6843E-03    -36.6035E+06    -112.904E+06    -4.56907E+06     363.239E+03    -54.2200E-03     107.610E-03    -53.3902E-03     68.0852E-03    -54.3724E-03     107.245E-03    -53.1963E-03     67.6627E-03
            1405     6.82687E-03     58.6193E-03    -40.3175E+06    -122.891E+06    -9.19163E+06     309.287E+03    -54.0610E-03     107.460E-03    -53.3985E-03     61.8301E-03    -54.1722E-03     107.018E-03    -53.2078E-03     61.4802E-03
            1406     5.97344E-03     58.5606E-03    -44.2324E+06    -131.760E+06    -15.9865E+06     267.098E+03    -53.8885E-03     107.284E-03    -53.3958E-03     55.1328E-03    -53.9667E-03     106.784E-03    -53.2205E-03     54.8475E-03
            1407     5.12015E-03     58.5090E-03    -48.3788E+06    -140.580E+06    -23.8214E+06     155.872E+03    -53.7277E-03     107.118E-03    -53.3904E-03     48.0723E-03    -53.7798E-03     106.568E-03    -53.2355E-03     47.8425E-03
            1408     4.26651E-03     58.4644E-03    -52.4656E+06    -148.690E+06    -32.0705E+06     246.708E+03    -53.6060E-03     106.988E-03    -53.3825E-03     40.6924E-03    -53.6379E-03     106.399E-03    -53.2511E-03     40.5138E-03
            1409     3.41337E-03     58.4276E-03    -56.3563E+06    -155.526E+06    -41.4810E+06     205.082E+03    -53.5132E-03     106.877E-03    -53.3636E-03     33.0261E-03    -53.5285E-03     106.260E-03    -53.2638E-03     32.8908E-03
            1410     2.55989E-03     58.3984E-03    -59.8327E+06    -162.479E+06    -50.4818E+06     65.3920E+03    -53.4157E-03     106.761E-03    -53.3451E-03     25.1117E-03    -53.4166E-03     106.119E-03    -53.2751E-03     25.0133E-03
            1411     1.70656E-03     58.3773E-03    -62.4257E+06    -168.380E+06    -57.6382E+06     88.5036E+03    -53.3550E-03     106.690E-03    -53.3354E-03     17.0742E-03    -53.3441E-03     106.027E-03    -53.2889E-03     17.0107E-03
            1412     853.338E-06     58.3641E-03    -64.2154E+06    -171.776E+06    -62.9679E+06     1.05877E+03    -53.3486E-03     106.666E-03    -53.3172E-03     9.32499E-03    -53.3308E-03     105.993E-03    -53.2898E-03     9.29069E-03
            1413     16.2173E-03     58.5727E-03    -4.80120E+06     126.774E+06     87.8241E+06     633.600E+03    -53.1144E-03     106.367E-03    -53.2531E-03     76.9718E-03    -54.2418E-03     107.673E-03    -52.9908E-03     76.3341E-03
            1414     15.3630E-03     58.4674E-03    -9.22117E+06     126.498E+06     84.1606E+06    -556.791E+03    -54.0766E-03     107.344E-03    -53.2672E-03     103.996E-03    -55.6307E-03     109.070E-03    -53.0164E-03     103.055E-03
            1415     14.5099E-03     58.3645E-03    -14.5302E+06     116.290E+06     64.5624E+06    -681.858E+03    -54.3691E-03     107.585E-03    -53.2159E-03     109.894E-03    -55.8722E-03     109.262E-03    -53.0406E-03     108.811E-03
            1416     13.6556E-03     58.2471E-03    -19.9259E+06     99.0972E+06     31.3108E+06     270.227E+03    -54.7458E-03     107.858E-03    -53.1122E-03     113.645E-03    -56.1161E-03     109.419E-03    -53.0705E-03     112.504E-03
            1417     12.8020E-03     58.1372E-03    -22.8733E+06     51.7215E+06     9.06609E+06    -313.647E+03    -54.7054E-03     107.807E-03    -53.1020E-03     104.889E-03    -55.7372E-03     108.915E-03    -53.0985E-03     103.813E-03
            1418     11.9480E-03     58.0376E-03    -24.1110E+06    -4.27819E+06     5.94777E+06    -403.826E+03    -54.6234E-03     107.816E-03    -53.1923E-03     95.6222E-03    -55.3430E-03     108.417E-03    -53.1214E-03     94.6793E-03
            1419     11.0945E-03     57.9462E-03    -25.6321E+06    -39.5674E+06     2.71146E+06     297.264E+03    -54.6094E-03     107.856E-03    -53.2468E-03     88.9751E-03    -55.1254E-03     108.133E-03    -53.1387E-03     88.1650E-03
            1420     10.2411E-03     57.8600E-03    -27.8132E+06    -64.8447E+06     1.17746E+06     437.098E+03    -54.5718E-03     107.864E-03    -53.2923E-03     84.2957E-03    -54.9524E-03     107.912E-03    -53.1521E-03     83.5997E-03
            1421     9.38723E-03     57.7779E-03    -30.3901E+06    -83.5595E+06    -562.901E+03     370.558E+03    -54.4619E-03     107.790E-03    -53.3281E-03     79.4731E-03    -54.7448E-03     107.670E-03    -53.1657E-03     78.8773E-03
            1422     8.53409E-03     57.7012E-03    -33.2584E+06    -99.3653E+06    -2.44107E+06     401.151E+03    -54.3313E-03     107.692E-03    -53.3606E-03     74.0385E-03    -54.5392E-03     107.436E-03    -53.1805E-03     73.5349E-03
            1423     7.68024E-03     57.6300E-03    -36.5569E+06    -112.689E+06    -4.66724E+06     369.120E+03    -54.1987E-03     107.587E-03    -53.3883E-03     68.1634E-03    -54.3509E-03     107.223E-03    -53.1952E-03     67.7416E-03
            1424     6.82697E-03     57.5649E-03    -40.2781E+06    -122.880E+06    -9.34782E+06     306.468E+03    -54.0479E-03     107.447E-03    -53.3989E-03     61.8422E-03    -54.1587E-03     107.005E-03    -53.2090E-03     61.4925E-03
            1425     5.97351E-03     57.5064E-03    -44.2551E+06    -131.449E+06    -15.8709E+06     290.342E+03    -53.8818E-03     107.280E-03    -53.3987E-03     55.1499E-03    -53.9607E-03     106.782E-03    -53.2233E-03     54.8649E-03
            1426     5.11993E-03     57.4546E-03    -48.3255E+06    -140.431E+06    -23.6569E+06     218.285E+03    -53.7404E-03     107.134E-03    -53.3936E-03     48.0856E-03    -53.7927E-03     106.585E-03    -53.2382E-03     47.8566E-03
            1427     4.26675E-03     57.4103E-03    -52.4479E+06    -148.595E+06    -32.2495E+06     173.082E+03    -53.6067E-03     106.990E-03    -53.3834E-03     40.7057E-03    -53.6383E-03     106.402E-03    -53.2531E-03     40.5262E-03
            1428     3.41313E-03     57.3731E-03    -56.2216E+06    -155.358E+06    -41.2609E+06     138.542E+03    -53.5033E-03     106.872E-03    -53.3682E-03     33.0302E-03    -53.5185E-03     106.255E-03    -53.2677E-03     32.8940E-03
            1429     2.55995E-03     57.3442E-03    -59.5473E+06    -162.294E+06    -50.0420E+06     118.317E+03    -53.4346E-03     106.784E-03    -53.3497E-03     25.0889E-03    -53.4349E-03     106.142E-03    -53.2783E-03     24.9912E-03
            1430     1.70662E-03     57.3229E-03    -62.4744E+06    -168.265E+06    -57.7907E+06     41.8633E+03    -53.3656E-03     106.697E-03    -53.3315E-03     17.0621E-03    -53.3550E-03     106.035E-03    -53.2859E-03     16.9980E-03
            1431     853.201E-06     57.3100E-03    -64.3437E+06    -171.710E+06    -63.0669E+06     75.6679E+03    -53.3416E-03     106.652E-03    -53.3102E-03     9.31060E-03    -53.3243E-03     105.980E-03    -53.2833E-03     9.27730E-03
            1432     16.2169E-03     57.5180E-03    -4.46046E+06     127.396E+06     88.5969E+06    -192.993E+03    -53.4189E-03     106.656E-03    -53.2376E-03     76.0383E-03    -54.5438E-03     107.961E-03    -52.9729E-03     75.3857E-03
            1433     15.3643E-03     57.4123E-03    -8.77657E+06     126.395E+06     83.8317E+06    -240.505E+03    -53.8643E-03     107.106E-03    -53.2419E-03     103.454E-03    -55.4123E-03     108.829E-03    -52.9933E-03     102.521E-03
            1434     14.5100E-03     57.3107E-03    -14.9444E+06     115.354E+06     63.8277E+06     975.467E+03    -54.2842E-03     107.482E-03    -53.1982E-03     110.191E-03    -55.7881E-03     109.158E-03    -53.0246E-03     109.131E-03
            1435     13.6560E-03     57.1929E-03    -18.8397E+06     100.529E+06     32.5874E+06     329.649E+03    -54.6963E-03     107.800E-03    -53.1034E-03     114.015E-03    -56.0671E-03     109.366E-03    -53.0590E-03     112.877E-03
            1436     12.8019E-03     57.0831E-03    -20.6119E+06     52.1290E+06      9.7788E+06    -569.791E+03    -54.6707E-03     107.765E-03    -53.0938E-03     105.180E-03    -55.6941E-03     108.871E-03    -53.0906E-03     104.102E-03
            1437     11.9483E-03     56.9834E-03    -23.1206E+06    -5.28951E+06     5.89310E+06    -311.976E+03    -54.6284E-03     107.814E-03    -53.1860E-03     95.8067E-03    -55.3421E-03     108.410E-03    -53.1154E-03     94.8651E-03
            1438     11.0946E-03     56.8921E-03    -25.7319E+06    -39.7500E+06     2.42121E+06     75.7368E+03    -54.5655E-03     107.807E-03    -53.2418E-03     89.1543E-03    -55.0812E-03     108.084E-03    -53.1347E-03     88.3429E-03
            1439     10.2408E-03     56.8056E-03    -27.9331E+06    -64.9572E+06     913.238E+03     322.440E+03    -54.5424E-03     107.833E-03    -53.2907E-03     84.3737E-03    -54.9229E-03     107.881E-03    -53.1514E-03     83.6768E-03
            1440     9.38764E-03     56.7238E-03    -30.4541E+06    -83.2477E+06    -625.725E+03     427.399E+03    -54.4512E-03     107.780E-03    -53.3287E-03     79.5612E-03    -54.7347E-03     107.662E-03    -53.1670E-03     78.9666E-03
            1441     8.53365E-03     56.6469E-03    -33.3439E+06    -99.3365E+06    -2.71691E+06     313.543E+03    -54.3357E-03     107.697E-03    -53.3613E-03     74.0869E-03    -54.5438E-03     107.442E-03    -53.1825E-03     73.5821E-03
            1442     7.68049E-03     56.5758E-03    -36.5794E+06    -112.540E+06    -4.74290E+06     355.014E+03    -54.1929E-03     107.583E-03    -53.3902E-03     68.1860E-03    -54.3453E-03     107.220E-03    -53.1977E-03     67.7641E-03
            1443     6.82683E-03     56.5107E-03    -40.2494E+06    -122.783E+06    -9.45125E+06     286.554E+03    -54.0428E-03     107.444E-03    -53.4017E-03     61.8517E-03    -54.1533E-03     107.004E-03    -53.2126E-03     61.5019E-03
            1444     5.97338E-03     56.4522E-03    -44.0852E+06    -131.419E+06    -15.8453E+06     214.390E+03    -53.8905E-03     107.293E-03    -53.4023E-03     55.1319E-03    -53.9688E-03     106.794E-03    -53.2271E-03     54.8457E-03
            1445     5.12009E-03     56.4004E-03    -48.1537E+06    -140.036E+06    -23.2454E+06     311.423E+03    -53.7448E-03     107.143E-03    -53.3981E-03     48.0824E-03    -53.7974E-03     106.595E-03    -53.2415E-03     47.8546E-03
            1446     4.26651E-03     56.3559E-03    -52.3256E+06    -148.379E+06    -31.9098E+06     192.907E+03    -53.6233E-03     107.010E-03    -53.3863E-03     40.6960E-03    -53.6551E-03     106.421E-03    -53.2548E-03     40.5167E-03
            1447     3.41336E-03     56.3191E-03    -56.2732E+06    -155.427E+06    -41.5184E+06     12.8328E+03    -53.5062E-03     106.873E-03    -53.3668E-03     33.0229E-03    -53.5212E-03     106.257E-03    -53.2674E-03     32.8852E-03
            1448     2.55985E-03     56.2897E-03    -59.6906E+06    -162.198E+06    -50.1861E+06     79.5106E+03    -53.4256E-03     106.776E-03    -53.3500E-03     25.0873E-03    -53.4265E-03     106.134E-03    -53.2792E-03     24.9891E-03
            1449     1.70660E-03     56.2689E-03    -62.4033E+06    -168.063E+06    -57.6707E+06     196.140E+03    -53.3785E-03     106.709E-03    -53.3306E-03     17.0665E-03    -53.3680E-03     106.048E-03    -53.2848E-03     17.0043E-03
            1450     853.402E-06     56.2556E-03    -64.2813E+06    -171.636E+06    -63.0922E+06     125.793E+03    -53.3487E-03     106.643E-03    -53.2941E-03     9.34560E-03    -53.3312E-03     105.971E-03    -53.2674E-03     9.31292E-03
            1451     16.2201E-03     56.4632E-03    -4.27999E+06     126.882E+06     88.2607E+06    -385.495E+03    -53.0975E-03     106.319E-03    -53.2216E-03     76.6251E-03    -54.2214E-03     107.622E-03    -52.9581E-03     75.9773E-03
            1452     15.3639E-03     56.3602E-03    -9.64540E+06     124.848E+06     83.1026E+06     970.524E+03    -53.5974E-03     106.843E-03    -53.2459E-03     104.925E-03    -55.1489E-03     108.563E-03    -52.9974E-03     104.019E-03
            1453     14.5096E-03     56.2554E-03    -13.8868E+06     116.435E+06     65.2025E+06     736.744E+03    -54.3347E-03     107.551E-03    -53.2159E-03     110.904E-03    -55.8404E-03     109.231E-03    -53.0386E-03     109.843E-03
            1454     13.6558E-03     56.1395E-03    -16.9141E+06     101.482E+06     33.6298E+06    -127.151E+03    -54.8086E-03     107.925E-03    -53.1159E-03     114.262E-03    -56.1758E-03     109.494E-03    -53.0704E-03     113.115E-03
            1455     12.8018E-03     56.0285E-03    -20.4532E+06     51.8829E+06     9.37197E+06     253.488E+03    -54.7444E-03     107.844E-03    -53.0992E-03     105.464E-03    -55.7671E-03     108.951E-03    -53.0979E-03     104.396E-03
            1456     11.9481E-03     55.9294E-03    -23.2829E+06    -5.32394E+06     5.51109E+06     401.451E+03    -54.6599E-03     107.849E-03    -53.1893E-03     95.8977E-03    -55.3739E-03     108.446E-03    -53.1203E-03     94.9651E-03
            1457     11.0944E-03     55.8377E-03    -25.5984E+06    -39.8811E+06     2.21489E+06     233.436E+03    -54.5819E-03     107.827E-03    -53.2446E-03     89.2452E-03    -55.0969E-03     108.103E-03    -53.1386E-03     88.4355E-03
            1458     10.2411E-03     55.7515E-03    -28.0841E+06    -65.0603E+06     598.921E+03     297.311E+03    -54.5240E-03     107.818E-03    -53.2940E-03     84.3922E-03    -54.9046E-03     107.866E-03    -53.1560E-03     83.6953E-03
            1459     9.38706E-03     55.6694E-03    -30.6455E+06    -83.1434E+06    -752.852E+03     314.174E+03    -54.4598E-03     107.793E-03    -53.3336E-03     79.5752E-03    -54.7443E-03     107.676E-03    -53.1724E-03     78.9790E-03
            1460     8.53405E-03     55.5927E-03    -33.4463E+06    -99.0751E+06    -2.78082E+06     285.831E+03    -54.3630E-03     107.728E-03    -53.3648E-03     74.1002E-03    -54.5720E-03     107.474E-03    -53.1866E-03     73.5947E-03
            1461     7.68021E-03     55.5215E-03    -36.6991E+06    -112.573E+06    -4.87919E+06     244.642E+03    -54.2087E-03     107.600E-03    -53.3918E-03     68.1566E-03    -54.3616E-03     107.238E-03    -53.1997E-03     67.7330E-03
            1462     6.82689E-03     55.4565E-03    -40.2723E+06    -122.591E+06    -9.46884E+06     179.363E+03    -54.0464E-03     107.449E-03    -53.4023E-03     61.8303E-03    -54.1573E-03     107.009E-03    -53.2135E-03     61.4793E-03
            1463     5.97349E-03     55.3978E-03    -44.1857E+06    -131.346E+06    -15.9369E+06     152.840E+03    -53.8941E-03     107.296E-03    -53.4023E-03     55.0879E-03    -53.9728E-03     106.798E-03    -53.2274E-03     54.8009E-03
            1464     5.11992E-03     55.3462E-03    -48.2146E+06    -139.959E+06    -23.3906E+06     239.416E+03    -53.7443E-03     107.142E-03    -53.3973E-03     48.0646E-03    -53.7971E-03     106.594E-03    -53.2414E-03     47.8359E-03
            1465     4.26670E-03     55.3016E-03    -52.2158E+06    -148.137E+06    -31.7604E+06     173.883E+03    -53.6280E-03     107.014E-03    -53.3859E-03     40.6869E-03    -53.6599E-03     106.427E-03    -53.2542E-03     40.5073E-03
            1466     3.41318E-03     55.2647E-03    -56.1499E+06    -155.231E+06    -41.2344E+06     147.725E+03    -53.5141E-03     106.879E-03    -53.3652E-03     32.9920E-03    -53.5291E-03     106.264E-03    -53.2649E-03     32.8560E-03
            1467     2.55996E-03     55.2356E-03    -59.7646E+06    -162.250E+06    -50.3441E+06     88.9653E+03    -53.4161E-03     106.763E-03    -53.3465E-03     25.1008E-03    -53.4171E-03     106.122E-03    -53.2763E-03     25.0029E-03
            1468     1.70657E-03     55.2144E-03    -62.5170E+06    -167.959E+06    -57.6530E+06     73.5154E+03    -53.3688E-03     106.700E-03    -53.3314E-03     17.0379E-03    -53.3590E-03     106.039E-03    -53.2855E-03     16.9741E-03
            1469     853.195E-06     55.2015E-03    -64.1844E+06    -171.216E+06    -62.7882E+06     132.630E+03    -53.3617E-03     106.649E-03    -53.2871E-03     9.31023E-03    -53.3448E-03     105.978E-03    -53.2597E-03     9.27755E-03
            1470     16.2156E-03     55.4110E-03    -4.74765E+06     126.194E+06     87.5781E+06     82.5044E+03    -52.7136E-03     105.960E-03    -53.2467E-03     77.1209E-03    -53.8385E-03     107.262E-03    -52.9850E-03     76.4816E-03
            1471     15.3627E-03     55.3045E-03    -10.0356E+06     125.000E+06     83.3026E+06    -154.624E+03    -53.9548E-03     107.230E-03    -53.2754E-03     104.578E-03    -55.5096E-03     108.952E-03    -53.0256E-03     103.649E-03
            1472     14.5094E-03     55.2021E-03    -14.2623E+06     116.559E+06     64.7142E+06    -364.616E+03    -54.3898E-03     107.620E-03    -53.2304E-03     110.525E-03    -55.8975E-03     109.303E-03    -53.0551E-03     109.447E-03
            1473     13.6552E-03     55.0843E-03    -18.9859E+06     100.673E+06     31.6573E+06     612.096E+03    -54.8595E-03     107.982E-03    -53.1230E-03     113.939E-03    -56.2327E-03     109.554E-03    -53.0831E-03     112.798E-03
            1474     12.8018E-03     54.9748E-03    -21.8968E+06     52.5834E+06     9.06766E+06     677.576E+03    -54.7945E-03     107.902E-03    -53.1074E-03     105.223E-03    -55.8247E-03     109.015E-03    -53.1065E-03     104.158E-03
            1475     11.9480E-03     54.8748E-03    -23.7901E+06    -5.23553E+06     5.27075E+06     425.161E+03    -54.6650E-03     107.860E-03    -53.1951E-03     95.8444E-03    -55.3816E-03     108.458E-03    -53.1266E-03     94.9112E-03
            1476     11.0945E-03     54.7837E-03    -25.9847E+06    -39.8146E+06     2.16407E+06     430.382E+03    -54.5897E-03     107.840E-03    -53.2508E-03     89.1731E-03    -55.1067E-03     108.118E-03    -53.1445E-03     88.3652E-03
            1477     10.2406E-03     54.6971E-03    -28.2473E+06    -64.7621E+06     691.082E+03     229.347E+03    -54.5430E-03     107.842E-03    -53.2994E-03     84.4141E-03    -54.9251E-03     107.892E-03    -53.1610E-03     83.7161E-03
            1478     9.38758E-03     54.6154E-03    -30.6733E+06    -83.2558E+06    -758.560E+03     155.737E+03    -54.4819E-03     107.819E-03    -53.3374E-03     79.5635E-03    -54.7665E-03     107.702E-03    -53.1760E-03     78.9648E-03
            1479     8.53354E-03     54.5383E-03    -33.4606E+06    -98.8674E+06    -2.65731E+06     182.924E+03    -54.3698E-03     107.737E-03    -53.3676E-03     74.0881E-03    -54.5792E-03     107.485E-03    -53.1890E-03     73.5815E-03
            1480     7.68048E-03     54.4673E-03    -36.6420E+06    -112.558E+06    -4.83238E+06     120.124E+03    -54.2379E-03     107.630E-03    -53.3924E-03     68.1298E-03    -54.3905E-03     107.267E-03    -53.2003E-03     67.7043E-03
            1481     6.82688E-03     54.4021E-03    -40.3371E+06    -122.429E+06    -9.48794E+06     176.034E+03    -54.0572E-03     107.457E-03    -53.4001E-03     61.8143E-03    -54.1686E-03     107.018E-03    -53.2116E-03     61.4631E-03
            1482     5.97339E-03     54.3436E-03    -44.2817E+06    -131.187E+06    -16.2099E+06     146.509E+03    -53.8903E-03     107.288E-03    -53.3981E-03     55.0909E-03    -53.9692E-03     106.791E-03    -53.2247E-03     54.8041E-03
            1483     5.12011E-03     54.2919E-03    -48.2708E+06    -140.067E+06    -23.6382E+06     75.0916E+03    -53.7651E-03     107.157E-03    -53.3915E-03     48.0427E-03    -53.8177E-03     106.609E-03    -53.2366E-03     47.8116E-03
            1484     4.26655E-03     54.2474E-03    -52.2842E+06    -147.965E+06    -32.0077E+06     132.226E+03    -53.6235E-03     107.001E-03    -53.3771E-03     40.6402E-03    -53.6556E-03     106.415E-03    -53.2467E-03     40.4601E-03
            1485     3.41335E-03     54.2105E-03    -56.1632E+06    -155.129E+06    -41.1051E+06     173.896E+03    -53.5037E-03     106.862E-03    -53.3580E-03     32.9351E-03    -53.5192E-03     106.246E-03    -53.2572E-03     32.7993E-03
            1486     2.55989E-03     54.1814E-03    -59.6116E+06    -162.086E+06    -50.0110E+06     193.365E+03    -53.4239E-03     106.761E-03    -53.3370E-03     25.0676E-03    -53.4249E-03     106.120E-03    -53.2656E-03     24.9708E-03
            1487     1.70662E-03     54.1602E-03    -62.3687E+06    -167.801E+06    -57.7269E+06    -16.5898E+03    -53.3641E-03     106.678E-03    -53.3137E-03     17.0065E-03    -53.3537E-03     106.018E-03    -53.2686E-03     16.9416E-03
            1488     853.401E-06     54.1472E-03    -64.2490E+06    -171.127E+06    -62.9497E+06    -65.3187E+03    -53.3229E-03     106.608E-03    -53.2849E-03     9.26358E-03    -53.3062E-03     105.938E-03    -53.2583E-03     9.22835E-03
            1489     16.2180E-03     54.3549E-03    -4.19464E+06     127.269E+06     88.5648E+06     -31.696E+03    -53.1686E-03     106.407E-03    -53.2386E-03     75.7234E-03    -54.2916E-03     107.710E-03    -52.9743E-03     75.0804E-03
            1490     15.3642E-03     54.2511E-03    -9.35529E+06     125.568E+06     83.1634E+06    -774.728E+03    -53.6532E-03     106.908E-03    -53.2545E-03     103.546E-03    -55.2043E-03     108.630E-03    -53.0072E-03     102.614E-03
            1491     14.5093E-03     54.1475E-03    -15.3194E+06     115.116E+06     63.3369E+06     16.1299E+03    -54.2852E-03     107.503E-03    -53.2174E-03     110.308E-03    -55.7921E-03     109.180E-03    -53.0454E-03     109.235E-03
            1492     13.6559E-03     54.0303E-03    -18.9002E+06     100.621E+06     31.9691E+06     681.878E+03    -54.7585E-03     107.878E-03    -53.1199E-03     113.743E-03    -56.1284E-03     109.446E-03    -53.0785E-03     112.606E-03
            1493     12.8017E-03     53.9203E-03    -21.4114E+06     52.5793E+06     9.29482E+06     939.462E+03    -54.7265E-03     107.835E-03    -53.1082E-03     105.158E-03    -55.7538E-03     108.946E-03    -53.1069E-03     104.098E-03
            1494     11.9481E-03     53.8208E-03    -23.9894E+06    -4.73211E+06     5.57801E+06     578.330E+03    -54.6300E-03     107.830E-03    -53.2001E-03     95.8357E-03    -55.3486E-03     108.431E-03    -53.1306E-03     94.9053E-03
            1495     11.0943E-03     53.7293E-03    -26.0331E+06    -39.5359E+06     2.26395E+06     138.130E+03    -54.5783E-03     107.835E-03    -53.2570E-03     89.2503E-03    -55.0956E-03     108.113E-03    -53.1506E-03     88.4399E-03
            1496     10.2410E-03     53.6431E-03    -28.0094E+06    -64.7375E+06     971.185E+03     100.392E+03    -54.6018E-03     107.907E-03    -53.3050E-03     84.4323E-03    -54.9834E-03     107.956E-03    -53.1657E-03     83.7318E-03
            1497     9.38701E-03     53.5608E-03    -30.4594E+06    -83.0379E+06    -603.938E+03     69.9276E+03    -54.5160E-03     107.854E-03    -53.3385E-03     79.5315E-03    -54.8000E-03     107.737E-03    -53.1769E-03     78.9313E-03
            1498     8.53407E-03     53.4842E-03    -33.2550E+06    -98.9379E+06    -2.51769E+06     57.6362E+03    -54.3847E-03     107.751E-03    -53.3667E-03     74.0524E-03    -54.5932E-03     107.498E-03    -53.1876E-03     73.5440E-03
            1499     7.68017E-03     53.4128E-03    -36.6063E+06    -112.491E+06    -4.82245E+06     99.1779E+03    -54.2340E-03     107.624E-03    -53.3900E-03     68.0961E-03    -54.3865E-03     107.261E-03    -53.1980E-03     67.6703E-03
            1500     6.82695E-03     53.3480E-03    -40.2010E+06    -122.451E+06    -9.46038E+06     136.274E+03    -54.0792E-03     107.475E-03    -53.3961E-03     61.7524E-03    -54.1900E-03     107.036E-03    -53.2076E-03     61.4002E-03
            1501     5.97350E-03     53.2893E-03    -44.0679E+06    -131.025E+06    -16.0847E+06     171.662E+03    -53.9203E-03     107.310E-03    -53.3896E-03     55.0345E-03    -53.9986E-03     106.813E-03    -53.2161E-03     54.7476E-03
            1502     5.11999E-03     53.2376E-03    -48.2181E+06    -139.979E+06    -23.6915E+06     51.6986E+03    -53.7670E-03     107.145E-03    -53.3783E-03     47.9705E-03    -53.8195E-03     106.598E-03    -53.2238E-03     47.7389E-03
            1503     4.26683E-03     53.1931E-03    -52.2731E+06    -147.972E+06    -31.8812E+06     49.8167E+03    -53.6114E-03     106.975E-03    -53.3632E-03     40.5822E-03    -53.6436E-03     106.388E-03    -53.2322E-03     40.4008E-03
            1504     3.41326E-03     53.1562E-03    -56.1222E+06    -155.142E+06    -41.1648E+06     124.627E+03    -53.4960E-03     106.838E-03    -53.3418E-03     32.9350E-03    -53.5111E-03     106.222E-03    -53.2413E-03     32.7986E-03
            1505     2.56003E-03     53.1271E-03    -59.5041E+06    -161.859E+06    -49.9962E+06     114.084E+03    -53.4111E-03     106.730E-03    -53.3189E-03     25.0340E-03    -53.4119E-03     106.090E-03    -53.2479E-03     24.9361E-03
            1506     1.70667E-03     53.1060E-03    -62.2948E+06    -167.569E+06    -57.6169E+06     112.495E+03    -53.3321E-03     106.632E-03    -53.2998E-03     17.0374E-03    -53.3218E-03     105.973E-03    -53.2546E-03     16.9743E-03
            1507     853.274E-06     53.0930E-03    -64.1330E+06    -171.037E+06    -63.0533E+06         709.605    -53.2822E-03     106.589E-03    -53.3064E-03     9.27445E-03    -53.2649E-03     105.919E-03    -53.2807E-03     9.24011E-03
            1508     16.2198E-03     53.3026E-03    -4.24180E+06     126.850E+06     88.1454E+06    -319.584E+03    -53.1218E-03     106.348E-03    -53.2266E-03     76.7099E-03    -54.2489E-03     107.655E-03    -52.9637E-03     76.0649E-03
            1509     15.3634E-03     53.1977E-03    -9.42103E+06     124.941E+06     83.0050E+06     1.00001E+06    -53.6916E-03     106.940E-03    -53.2481E-03     105.265E-03    -55.2478E-03     108.665E-03    -53.0006E-03     104.358E-03
            1510     14.5100E-03     53.0929E-03    -14.7363E+06     115.512E+06     64.0237E+06     863.265E+03    -54.2507E-03     107.467E-03    -53.2164E-03     110.948E-03    -55.7543E-03     109.143E-03    -53.0424E-03     109.892E-03
            1511     13.6555E-03     52.9767E-03    -19.6537E+06     100.258E+06     31.4191E+06     589.053E+03    -54.6989E-03     107.820E-03    -53.1207E-03     114.219E-03    -56.0696E-03     109.385E-03    -53.0805E-03     113.086E-03
            1512     12.8017E-03     52.8658E-03    -22.3104E+06     52.5706E+06     8.72254E+06     635.492E+03    -54.7227E-03     107.835E-03    -53.1122E-03     105.432E-03    -55.7541E-03     108.948E-03    -53.1124E-03     104.369E-03
            1513     11.9479E-03     52.7667E-03    -23.4973E+06    -3.84061E+06     5.98582E+06     319.982E+03    -54.6469E-03     107.853E-03    -53.2061E-03     95.8479E-03    -55.3643E-03     108.456E-03    -53.1365E-03     94.9150E-03
            1514     11.0943E-03     52.6751E-03    -25.3645E+06    -39.2699E+06     2.46835E+06     83.0793E+03    -54.6458E-03     107.906E-03    -53.2599E-03     89.2511E-03    -55.1605E-03     108.184E-03    -53.1538E-03     88.4392E-03
            1515     10.2406E-03     52.5884E-03    -27.7287E+06    -64.9211E+06     878.091E+03     2.90647E+03    -54.6495E-03     107.953E-03    -53.3031E-03     84.3064E-03    -55.0293E-03     108.001E-03    -53.1643E-03     83.6038E-03
            1516     9.38759E-03     52.5068E-03    -30.2558E+06    -82.8240E+06    -473.178E+03     90.4178E+03    -54.5457E-03     107.879E-03    -53.3331E-03     79.3791E-03    -54.8293E-03     107.762E-03    -53.1715E-03     78.7786E-03
            1517     8.53360E-03     52.4296E-03    -33.2258E+06    -98.9824E+06    -2.61905E+06     29.7265E+03    -54.3905E-03     107.748E-03    -53.3579E-03     73.9516E-03    -54.5988E-03     107.495E-03    -53.1793E-03     73.4424E-03
            1518     7.68059E-03     52.3588E-03    -36.4197E+06    -112.299E+06    -4.58928E+06     71.3078E+03    -54.2395E-03     107.620E-03    -53.3805E-03     68.0037E-03    -54.3917E-03     107.258E-03    -53.1878E-03     67.5773E-03
            1519     6.82688E-03     52.2935E-03    -40.1187E+06    -122.565E+06    -9.49683E+06     61.3898E+03    -54.0907E-03     107.474E-03    -53.3830E-03     61.6498E-03    -54.2008E-03     107.034E-03    -53.1946E-03     61.2962E-03
            1520     5.97360E-03     52.2351E-03    -44.0484E+06    -131.109E+06    -16.1027E+06     130.181E+03    -53.9293E-03     107.302E-03    -53.3730E-03     54.9671E-03    -54.0075E-03     106.805E-03    -53.1995E-03     54.6791E-03
            1521     5.12032E-03     52.1833E-03    -48.0405E+06    -139.585E+06    -23.4935E+06     132.136E+03    -53.7412E-03     107.102E-03    -53.3604E-03     47.9315E-03    -53.7936E-03     106.556E-03    -53.2058E-03     47.7010E-03
            1522     4.26668E-03     52.1390E-03    -52.1696E+06    -148.127E+06    -31.7595E+06    -35.4366E+03    -53.5950E-03     106.941E-03    -53.3463E-03     40.5698E-03    -53.6266E-03     106.354E-03    -53.2147E-03     40.3874E-03
            1523     3.41347E-03     52.1020E-03    -56.0481E+06    -155.079E+06    -40.9969E+06     71.6706E+03    -53.4794E-03     106.804E-03    -53.3246E-03     32.9261E-03    -53.4945E-03     106.188E-03    -53.2234E-03     32.7890E-03
            1524     2.56002E-03     52.0728E-03    -59.5703E+06    -161.753E+06    -50.0829E+06     112.954E+03    -53.3681E-03     106.673E-03    -53.3053E-03     25.0439E-03    -53.3693E-03     106.034E-03    -53.2348E-03     24.9463E-03
            1525     1.70664E-03     52.0519E-03    -62.4038E+06    -167.513E+06    -57.6750E+06     110.881E+03    -53.3025E-03     106.601E-03    -53.2984E-03     17.0481E-03    -53.2927E-03     105.942E-03    -53.2534E-03     16.9849E-03
            1526     853.303E-06     52.0387E-03    -64.1036E+06    -170.782E+06    -62.8786E+06     193.676E+03    -53.2960E-03     106.600E-03    -53.3044E-03     9.31502E-03    -53.2792E-03     105.932E-03    -53.2782E-03     9.28331E-03
            1527     16.2146E-03     52.2481E-03    -4.72286E+06     126.216E+06     87.3599E+06    -119.822E+03    -52.7766E-03     106.025E-03    -53.2485E-03     76.7656E-03    -53.8999E-03     107.326E-03    -52.9879E-03     76.1213E-03
            1528     15.3637E-03     52.1424E-03    -10.8209E+06     124.124E+06     82.2337E+06     657.057E+03    -54.0119E-03     107.284E-03    -53.2722E-03     104.710E-03    -55.5682E-03     109.004E-03    -53.0253E-03     103.789E-03
            1529     14.5091E-03     52.0398E-03    -14.9205E+06     115.938E+06     64.6708E+06     1.01922E+06    -54.3002E-03     107.534E-03    -53.2338E-03     110.938E-03    -55.8068E-03     109.212E-03    -53.0569E-03     109.883E-03
            1530     13.6552E-03     51.9218E-03    -18.0052E+06     100.157E+06     34.1877E+06     695.489E+03    -54.8067E-03     107.950E-03    -53.1428E-03     114.208E-03    -56.1743E-03     109.510E-03    -53.0910E-03     113.073E-03
            1531     12.8015E-03     51.8119E-03    -20.0426E+06     53.1379E+06     11.5057E+06     206.415E+03    -54.8102E-03     107.937E-03    -53.1265E-03     105.186E-03    -55.8350E-03     109.046E-03    -53.1170E-03     104.115E-03
            1532     11.9478E-03     51.7122E-03    -22.4818E+06    -3.35906E+06     6.49760E+06     432.362E+03    -54.7672E-03     107.970E-03    -53.2033E-03     95.6514E-03    -55.4814E-03     108.574E-03    -53.1333E-03     94.7169E-03
            1533     11.0944E-03     51.6207E-03    -25.0029E+06    -39.0619E+06     2.83036E+06     353.837E+03    -54.7279E-03     107.977E-03    -53.2489E-03     88.9475E-03    -55.2421E-03     108.255E-03    -53.1418E-03     88.1364E-03
            1534     10.2411E-03     51.5342E-03    -27.4147E+06    -64.7068E+06     1.09205E+06     134.553E+03    -54.6281E-03     107.915E-03    -53.2871E-03     84.1019E-03    -55.0065E-03     107.963E-03    -53.1481E-03     83.4014E-03
            1535     9.38724E-03     51.4522E-03    -30.0638E+06    -82.9646E+06    -347.803E+03     95.4859E+03    -54.5294E-03     107.846E-03    -53.3169E-03     79.2196E-03    -54.8121E-03     107.729E-03    -53.1548E-03     78.6186E-03
            1536     8.53428E-03     51.3757E-03    -32.9494E+06    -98.6693E+06    -2.34108E+06     112.803E+03    -54.3981E-03     107.738E-03    -53.3399E-03     73.8211E-03    -54.6058E-03     107.485E-03    -53.1608E-03     73.3125E-03
            1537     7.68038E-03     51.3042E-03    -36.4042E+06    -112.425E+06    -4.47839E+06     80.2226E+03    -54.2295E-03     107.590E-03    -53.3603E-03     67.9061E-03    -54.3816E-03     107.226E-03    -53.1669E-03     67.4797E-03
            1538     6.82729E-03     51.2395E-03    -40.1718E+06    -122.457E+06    -9.31394E+06     103.358E+03    -54.0527E-03     107.416E-03    -53.3631E-03     61.6273E-03    -54.1635E-03     106.976E-03    -53.1739E-03     61.2746E-03
            1539     5.97370E-03     51.1807E-03    -44.1072E+06    -131.114E+06    -16.1462E+06     7.72508E+03    -53.8778E-03     107.233E-03    -53.3555E-03     54.9745E-03    -53.9561E-03     106.736E-03    -53.1822E-03     54.6854E-03
            1540     5.12020E-03     51.1292E-03    -47.9938E+06    -139.516E+06    -23.4981E+06    -5.42554E+03    -53.7261E-03     107.072E-03    -53.3454E-03     47.9390E-03    -53.7784E-03     106.526E-03    -53.1910E-03     47.7069E-03
            1541     4.26695E-03     51.0848E-03    -52.0025E+06    -148.066E+06    -31.6618E+06     57.7797E+03    -53.5836E-03     106.915E-03    -53.3314E-03     40.5906E-03    -53.6146E-03     106.328E-03    -53.1997E-03     40.4096E-03
            1542     3.41343E-03     51.0478E-03    -56.0723E+06    -155.086E+06    -40.8630E+06     83.2808E+03    -53.4405E-03     106.754E-03    -53.3134E-03     32.9309E-03    -53.4559E-03     106.138E-03    -53.2115E-03     32.7943E-03
            1543     2.56004E-03     51.0189E-03    -59.5580E+06    -161.538E+06    -49.7985E+06     127.960E+03    -53.3534E-03     106.652E-03    -53.2990E-03     25.0646E-03    -53.3552E-03     106.014E-03    -53.2274E-03     24.9673E-03
            1544     1.70666E-03     50.9975E-03    -62.3500E+06    -167.401E+06    -57.5557E+06     82.5321E+03    -53.3107E-03     106.598E-03    -53.2877E-03     17.0229E-03    -53.3010E-03     105.940E-03    -53.2423E-03     16.9593E-03
            1545     853.306E-06     50.9848E-03    -64.3089E+06    -170.762E+06    -62.9282E+06     143.168E+03    -53.3160E-03     106.568E-03    -53.2516E-03     9.38282E-03    -53.3001E-03     105.900E-03    -53.2254E-03     9.35068E-03
            1546     16.2198E-03     51.1935E-03    -4.55309E+06     126.429E+06     87.3899E+06     565.155E+03    -52.9943E-03     106.242E-03    -53.2482E-03     76.8388E-03    -54.1148E-03     107.542E-03    -52.9880E-03     76.2066E-03
            1547     15.3630E-03     51.0888E-03    -10.1715E+06     124.398E+06     82.4607E+06     451.473E+03    -53.7566E-03     107.030E-03    -53.2732E-03     104.428E-03    -55.3082E-03     108.748E-03    -53.0265E-03     103.512E-03
            1548     14.5093E-03     50.9852E-03    -14.6458E+06     116.376E+06     65.4279E+06    -492.095E+03    -54.5013E-03     107.739E-03    -53.2379E-03     110.603E-03    -56.0120E-03     109.421E-03    -53.0583E-03     109.520E-03
            1549     13.6556E-03     50.8676E-03    -17.0082E+06     99.8366E+06     35.3216E+06    -648.335E+03    -54.9495E-03     108.086E-03    -53.1367E-03     113.756E-03    -56.3144E-03     109.643E-03    -53.0802E-03     112.598E-03
            1550     12.8017E-03     50.7575E-03    -19.6440E+06     52.2231E+06     11.9385E+06      808.12E+03    -54.8706E-03     107.980E-03    -53.1095E-03     104.719E-03    -55.8916E-03     109.082E-03    -53.0971E-03     103.654E-03
            1551     11.9483E-03     50.6577E-03    -22.3988E+06    -2.60904E+06     7.12288E+06     1.12430E+06    -54.7958E-03     107.975E-03    -53.1793E-03     95.3702E-03    -55.5118E-03     108.582E-03    -53.1074E-03     94.4427E-03
            1552     11.0948E-03     50.5663E-03    -24.8121E+06    -38.7041E+06     3.28582E+06     515.411E+03    -54.6799E-03     107.902E-03    -53.2223E-03     88.7226E-03    -55.1939E-03     108.181E-03    -53.1138E-03     87.9139E-03
            1553     10.2412E-03     50.4799E-03    -27.1946E+06    -64.3033E+06     1.58443E+06     355.711E+03    -54.5697E-03     107.832E-03    -53.2621E-03     84.0385E-03    -54.9482E-03     107.881E-03    -53.1215E-03     83.3413E-03
            1554     9.38793E-03     50.3981E-03    -29.7681E+06    -82.9932E+06    -87.1911E+03     72.6589E+03    -54.4882E-03     107.781E-03    -53.2933E-03     79.2118E-03    -54.7695E-03     107.663E-03    -53.1302E-03     78.6112E-03
            1555     8.53403E-03     50.3211E-03    -32.6218E+06    -98.5825E+06    -1.91119E+06     167.447E+03    -54.3693E-03     107.687E-03    -53.3180E-03     73.7933E-03    -54.5760E-03     107.434E-03    -53.1373E-03     73.2858E-03
            1556     7.68104E-03     50.2503E-03    -35.9410E+06    -112.376E+06    -4.14029E+06     225.140E+03    -54.1835E-03     107.523E-03    -53.3395E-03     67.9462E-03    -54.3337E-03     107.159E-03    -53.1452E-03     67.5224E-03
            1557     6.82715E-03     50.1850E-03    -39.7609E+06    -122.399E+06    -8.87030E+06     203.266E+03    -53.9997E-03     107.347E-03    -53.3469E-03     61.6706E-03    -54.1090E-03     106.906E-03    -53.1561E-03     61.3201E-03
            1558     5.97381E-03     50.1267E-03    -43.7372E+06    -130.813E+06    -15.8109E+06     15.0062E+03    -53.8406E-03     107.183E-03    -53.3426E-03     54.9877E-03    -53.9179E-03     106.687E-03    -53.1686E-03     54.6995E-03
            1559     5.12036E-03     50.0750E-03    -47.8604E+06    -139.801E+06    -23.5324E+06    -102.659E+03    -53.6998E-03     107.035E-03    -53.3351E-03     47.9568E-03    -53.7509E-03     106.488E-03    -53.1806E-03     47.7238E-03
            1560     4.26686E-03     50.0306E-03    -51.9472E+06    -147.946E+06    -31.5091E+06     81.8738E+03    -53.5568E-03     106.882E-03    -53.3251E-03     40.5991E-03    -53.5879E-03     106.295E-03    -53.1928E-03     40.4187E-03
            1561     3.41346E-03     49.9938E-03    -55.7665E+06    -154.994E+06    -40.6332E+06     82.4723E+03    -53.4432E-03     106.751E-03    -53.3082E-03     32.9416E-03    -53.4576E-03     106.135E-03    -53.2057E-03     32.8052E-03
            1562     2.56005E-03     49.9645E-03    -59.2867E+06    -161.521E+06    -49.6232E+06     138.755E+03    -53.3650E-03     106.654E-03    -53.2893E-03     25.0558E-03    -53.3657E-03     106.015E-03    -53.2172E-03     24.9586E-03
            1563     1.70672E-03     49.9436E-03    -62.2453E+06    -167.124E+06    -57.2382E+06     169.465E+03    -53.3088E-03     106.580E-03    -53.2711E-03     17.0425E-03    -53.2994E-03     105.922E-03    -53.2247E-03     16.9803E-03
            1564     853.369E-06     49.9303E-03    -64.2854E+06    -170.578E+06    -62.8991E+06     136.163E+03    -53.3070E-03     106.524E-03    -53.2172E-03     9.39974E-03    -53.2914E-03     105.857E-03    -53.1912E-03     9.36764E-03
            1565     16.2160E-03     50.1410E-03    -5.32704E+06     126.029E+06     86.8173E+06     662.505E+03    -53.2807E-03     106.530E-03    -53.2496E-03     77.2081E-03    -54.4090E-03     107.835E-03    -52.9905E-03     76.5713E-03
            1566     15.3633E-03     50.0343E-03    -8.95602E+06     125.918E+06     83.9893E+06     21.9326E+03    -54.1378E-03     107.399E-03    -53.2615E-03     104.564E-03    -55.6929E-03     109.126E-03    -53.0112E-03     103.631E-03
            1567     14.5096E-03     49.9307E-03    -13.2800E+06     117.556E+06     65.7300E+06    -1.14007E+06    -54.5873E-03     107.792E-03    -53.2051E-03     109.936E-03    -56.0914E-03     109.476E-03    -53.0277E-03     108.839E-03
            1568     13.6559E-03     49.8132E-03    -18.4930E+06     98.4462E+06     32.9740E+06    -383.078E+03    -54.8995E-03     107.993E-03    -53.0938E-03     113.454E-03    -56.2654E-03     109.547E-03    -53.0449E-03     112.300E-03
            1569     12.8025E-03     49.7033E-03    -21.6976E+06     50.7089E+06     10.3434E+06     631.925E+03    -54.8462E-03     107.917E-03    -53.0706E-03     104.756E-03    -55.8741E-03     109.018E-03    -53.0610E-03     103.688E-03
            1570     11.9487E-03     49.6034E-03    -23.0509E+06    -2.16704E+06     7.12723E+06     814.327E+03    -54.6801E-03     107.826E-03    -53.1459E-03     95.4370E-03    -55.3998E-03     108.436E-03    -53.0737E-03     94.5078E-03
            1571     11.0952E-03     49.5121E-03    -24.8564E+06    -38.0587E+06     3.49183E+06     654.521E+03    -54.5614E-03     107.757E-03    -53.1953E-03     88.8391E-03    -55.0764E-03     108.038E-03    -53.0866E-03     88.0348E-03
            1572     10.2416E-03     49.4259E-03    -27.1759E+06    -64.0709E+06     1.71931E+06     281.687E+03    -54.5342E-03     107.774E-03    -53.2397E-03     84.1388E-03    -54.9134E-03     107.824E-03    -53.0988E-03     83.4411E-03
            1573     9.38780E-03     49.3437E-03    -29.7301E+06    -82.6060E+06     134.232E+03     183.762E+03    -54.4325E-03     107.706E-03    -53.2736E-03     79.3461E-03    -54.7141E-03     107.588E-03    -53.1100E-03     78.7487E-03
            1574     8.53467E-03     49.2671E-03    -32.6746E+06    -98.8058E+06    -1.98674E+06     54.7613E+03    -54.2980E-03     107.601E-03    -53.3028E-03     73.9307E-03    -54.5042E-03     107.346E-03    -53.1221E-03     73.4233E-03
            1575     7.68062E-03     49.1959E-03    -35.8779E+06    -112.359E+06    -4.00182E+06     209.677E+03    -54.1585E-03     107.487E-03    -53.3289E-03     68.0342E-03    -54.3086E-03     107.123E-03    -53.1340E-03     67.6109E-03
            1576     6.82750E-03     49.1311E-03    -39.4236E+06    -122.082E+06    -8.72480E+06     178.087E+03    -53.9959E-03     107.332E-03    -53.3362E-03     61.7167E-03    -54.1040E-03     106.892E-03    -53.1457E-03     61.3664E-03
            1577     5.97381E-03     49.0725E-03    -43.3239E+06    -130.779E+06    -15.3884E+06     166.821E+03    -53.8296E-03     107.163E-03    -53.3336E-03     55.0053E-03    -53.9053E-03     106.666E-03    -53.1581E-03     54.7194E-03
            1578     5.12037E-03     49.0209E-03    -47.5850E+06    -139.685E+06    -23.2847E+06     211.228E+03    -53.6693E-03     106.997E-03    -53.3274E-03     47.9541E-03    -53.7193E-03     106.449E-03    -53.1723E-03     47.7257E-03
            1579     4.26689E-03     48.9765E-03    -51.8422E+06    -147.853E+06    -31.5955E+06    -1.99927E+03    -53.5471E-03     106.865E-03    -53.3183E-03     40.5749E-03    -53.5776E-03     106.279E-03    -53.1867E-03     40.3936E-03
            1580     3.41348E-03     48.9395E-03    -55.7854E+06    -155.128E+06    -40.8516E+06     57.2410E+03    -53.4540E-03     106.753E-03    -53.2992E-03     32.9165E-03    -53.4679E-03     106.137E-03    -53.1977E-03     32.7796E-03
            1581     2.56013E-03     48.9106E-03    -59.2414E+06    -161.632E+06    -50.0518E+06     209.533E+03    -53.3586E-03     106.635E-03    -53.2762E-03     25.0512E-03    -53.3583E-03     105.996E-03    -53.2061E-03     24.9552E-03
            1582     1.70668E-03     48.8893E-03    -61.8221E+06    -166.947E+06    -57.4542E+06     322.146E+03    -53.2998E-03     106.557E-03    -53.2573E-03     17.0653E-03    -53.2882E-03     105.900E-03    -53.2129E-03     17.0052E-03
            1583     853.357E-06     48.8764E-03    -63.6838E+06    -170.165E+06    -62.6679E+06     310.738E+03    -53.2714E-03     106.502E-03    -53.2308E-03     9.35764E-03    -53.2536E-03     105.836E-03    -53.2051E-03     9.32769E-03
            1584     16.2179E-03     49.0854E-03    -4.97144E+06     126.619E+06     87.4401E+06    -143.049E+03    -53.8760E-03     107.106E-03    -53.2304E-03     75.8948E-03    -55.0020E-03     108.411E-03    -52.9696E-03     75.2308E-03
            1585     15.3644E-03     48.9796E-03    -8.34401E+06     126.568E+06     84.0026E+06    -1.20526E+06    -54.2840E-03     107.498E-03    -53.2137E-03     103.336E-03    -55.8330E-03     109.223E-03    -52.9651E-03     102.378E-03
            1586     14.5109E-03     48.8764E-03    -13.8075E+06     116.654E+06     64.6252E+06     74.3353E+03    -54.2719E-03     107.428E-03    -53.1565E-03     109.948E-03    -55.7729E-03     109.107E-03    -52.9825E-03     108.877E-03
            1587     13.6568E-03     48.7594E-03    -18.4533E+06     98.4176E+06     33.0254E+06     806.153E+03    -54.7233E-03     107.786E-03    -53.0623E-03     113.874E-03    -56.0897E-03     109.340E-03    -53.0131E-03     112.741E-03
            1588     12.8025E-03     48.6487E-03    -21.1969E+06     50.5793E+06     10.2063E+06     223.272E+03    -54.7247E-03     107.772E-03    -53.0472E-03     105.192E-03    -55.7509E-03     108.873E-03    -53.0388E-03     104.122E-03
            1589     11.9491E-03     48.5495E-03    -23.2649E+06    -2.59871E+06     6.79984E+06     164.992E+03    -54.5852E-03     107.716E-03    -53.1306E-03     95.7402E-03    -55.3047E-03     108.324E-03    -53.0591E-03     94.8057E-03
            1590     11.0952E-03     48.4580E-03    -25.1058E+06    -37.5274E+06     3.47414E+06     395.233E+03    -54.5260E-03     107.711E-03    -53.1852E-03     89.1912E-03    -55.0432E-03     107.996E-03    -53.0770E-03     88.3851E-03
            1591     10.2416E-03     48.3716E-03    -27.2231E+06    -63.9655E+06     1.62724E+06     230.623E+03    -54.5170E-03     107.749E-03    -53.2319E-03     84.3643E-03    -54.8963E-03     107.800E-03    -53.0916E-03     83.6671E-03
            1592     9.38821E-03     48.2898E-03    -29.8085E+06    -82.3243E+06     121.420E+03     183.945E+03    -54.4057E-03     107.674E-03    -53.2681E-03     79.5011E-03    -54.6878E-03     107.558E-03    -53.1049E-03     78.9049E-03
            1593     8.53412E-03     48.2129E-03    -32.7559E+06    -98.8092E+06    -2.15320E+06     141.389E+03    -54.2958E-03     107.594E-03    -53.2984E-03     74.0420E-03    -54.5019E-03     107.340E-03    -53.1184E-03     73.5365E-03
            1594     7.68110E-03     48.1419E-03    -36.0996E+06    -112.420E+06    -4.21955E+06     34.4842E+03    -54.1665E-03     107.491E-03    -53.3241E-03     68.0417E-03    -54.3171E-03     107.126E-03    -53.1299E-03     67.6164E-03
            1595     6.82722E-03     48.0768E-03    -39.7451E+06    -121.945E+06    -8.80309E+06     97.4998E+03    -54.0028E-03     107.333E-03    -53.3304E-03     61.7254E-03    -54.1126E-03     106.895E-03    -53.1400E-03     61.3743E-03
            1596     5.97397E-03     48.0184E-03    -43.7903E+06    -130.917E+06    -15.5367E+06     272.466E+03    -53.8286E-03     107.155E-03    -53.3266E-03     54.9986E-03    -53.9062E-03     106.658E-03    -53.1510E-03     54.7143E-03
            1597     5.12039E-03     47.9668E-03    -47.7880E+06    -139.343E+06    -23.3776E+06     344.258E+03    -53.6761E-03     106.994E-03    -53.3175E-03     47.9390E-03    -53.7274E-03     106.448E-03    -53.1630E-03     47.7125E-03
            1598     4.26697E-03     47.9223E-03    -51.8970E+06    -147.764E+06    -31.9001E+06     225.652E+03    -53.5533E-03     106.857E-03    -53.3041E-03     40.5577E-03    -53.5837E-03     106.272E-03    -53.1741E-03     40.3794E-03
            1599     3.41355E-03     47.8855E-03    -55.9679E+06    -155.228E+06    -41.0930E+06     132.582E+03    -53.4330E-03     106.718E-03    -53.2848E-03     32.8861E-03    -53.4473E-03     106.101E-03    -53.1840E-03     32.7504E-03
            1600     2.56007E-03     47.8563E-03    -59.3384E+06    -161.566E+06    -50.0978E+06     143.224E+03    -53.3524E-03     106.614E-03    -53.2616E-03     25.0222E-03    -53.3526E-03     105.975E-03    -53.1918E-03     24.9253E-03
            1601     1.70677E-03     47.8353E-03    -61.9290E+06    -166.917E+06    -57.5628E+06     206.800E+03    -53.2917E-03     106.530E-03    -53.2381E-03     17.0254E-03    -53.2806E-03     105.873E-03    -53.1941E-03     16.9638E-03
            1602     853.359E-06     47.8221E-03    -63.1565E+06    -169.633E+06    -62.0690E+06     398.875E+03    -53.2438E-03     106.461E-03    -53.2172E-03     9.28161E-03    -53.2250E-03     105.796E-03    -53.1900E-03     9.25266E-03
            1603     16.2190E-03     48.0292E-03    -4.12216E+06     127.037E+06     88.0059E+06    -742.376E+03    -53.7984E-03     106.985E-03    -53.1871E-03     75.7572E-03    -54.9193E-03     108.288E-03    -52.9253E-03     75.0910E-03
            1604     15.3658E-03     47.9262E-03    -8.98536E+06     125.310E+06     82.9259E+06    -199.258E+03    -53.6753E-03     106.861E-03    -53.1857E-03     104.384E-03    -55.2238E-03     108.582E-03    -52.9397E-03     103.458E-03
            1605     14.5105E-03     47.8227E-03    -14.7888E+06     115.781E+06     64.0771E+06     634.481E+03    -54.1679E-03     107.322E-03    -53.1540E-03     111.293E-03    -55.6768E-03     109.004E-03    -52.9801E-03     110.237E-03
            1606     13.6564E-03     47.7052E-03    -18.1877E+06     98.6300E+06     33.9976E+06     379.750E+03    -54.7381E-03     107.808E-03    -53.0703E-03     114.699E-03    -56.1095E-03     109.367E-03    -53.0170E-03     113.561E-03
            1607     12.8028E-03     47.5948E-03    -20.5784E+06     51.4309E+06     10.9102E+06     465.312E+03    -54.7028E-03     107.758E-03    -53.0555E-03     105.629E-03    -55.7280E-03     108.861E-03    -53.0457E-03     104.566E-03
            1608     11.9486E-03     47.4952E-03    -22.9712E+06    -2.59609E+06     6.49072E+06     243.798E+03    -54.6039E-03     107.742E-03    -53.1376E-03     95.9735E-03    -55.3211E-03     108.349E-03    -53.0681E-03     95.0412E-03
            1609     11.0952E-03     47.4040E-03    -25.1982E+06    -37.7829E+06     3.22455E+06     20.6210E+03    -54.5579E-03     107.751E-03    -53.1931E-03     89.3791E-03    -55.0751E-03     108.035E-03    -53.0856E-03     88.5682E-03
            1610     10.2415E-03     47.3173E-03    -27.3382E+06    -63.6904E+06     1.43265E+06     161.563E+03    -54.5287E-03     107.768E-03    -53.2389E-03     84.4949E-03    -54.9085E-03     107.820E-03    -53.0997E-03     83.7975E-03
            1611     9.38770E-03     47.2357E-03    -29.8619E+06    -82.4402E+06    -85.1929E+03     192.389E+03    -54.4852E-03     107.757E-03    -53.2722E-03     79.5096E-03    -54.7674E-03     107.641E-03    -53.1098E-03     78.9125E-03
            1612     8.53466E-03     47.1588E-03    -32.7560E+06    -98.5590E+06    -2.19441E+06     223.566E+03    -54.3493E-03     107.646E-03    -53.2965E-03     73.9937E-03    -54.5558E-03     107.392E-03    -53.1171E-03     73.4888E-03
            1613     7.68070E-03     47.0877E-03    -36.1243E+06    -112.305E+06    -4.22884E+06     133.087E+03    -54.1782E-03     107.497E-03    -53.3187E-03     68.0070E-03    -54.3289E-03     107.133E-03    -53.1246E-03     67.5832E-03
            1614     6.82757E-03     47.0228E-03    -40.1075E+06    -122.094E+06    -8.91588E+06     235.448E+03    -54.0003E-03     107.324E-03    -53.3239E-03     61.6624E-03    -54.1114E-03     106.885E-03    -53.1332E-03     61.3131E-03
            1615     5.97384E-03     46.9642E-03    -44.1557E+06    -130.748E+06    -15.8421E+06     275.701E+03    -53.8415E-03     107.158E-03    -53.3164E-03     54.9531E-03    -53.9206E-03     106.662E-03    -53.1420E-03     54.6689E-03
            1616     5.12049E-03     46.9127E-03    -48.2271E+06    -139.447E+06    -23.8618E+06     230.537E+03    -53.6999E-03     107.002E-03    -53.3017E-03     47.8856E-03    -53.7526E-03     106.457E-03    -53.1489E-03     47.6576E-03
            1617     4.26703E-03     46.8682E-03    -52.1515E+06    -147.619E+06    -32.0956E+06     322.308E+03    -53.5378E-03     106.823E-03    -53.2853E-03     40.5081E-03    -53.5694E-03     106.239E-03    -53.1561E-03     40.3313E-03
            1618     3.41358E-03     46.8314E-03    -55.9615E+06    -155.012E+06    -40.9455E+06     238.093E+03    -53.4285E-03     106.693E-03    -53.2646E-03     32.8579E-03    -53.4432E-03     106.078E-03    -53.1634E-03     32.7238E-03
            1619     2.56022E-03     46.8023E-03    -59.5901E+06    -161.554E+06    -49.6610E+06     117.814E+03    -53.3448E-03     106.583E-03    -53.2379E-03     24.9733E-03    -53.3469E-03     105.944E-03    -53.1655E-03     24.8761E-03
            1620     1.70678E-03     46.7812E-03    -62.6369E+06    -166.943E+06    -57.2248E+06     226.595E+03    -53.2711E-03     106.478E-03    -53.2065E-03     16.9720E-03    -53.2640E-03     105.821E-03    -53.1597E-03     16.9107E-03
            1621     853.433E-06     46.7682E-03    -65.0196E+06    -169.010E+06    -63.4115E+06     312.955E+03    -53.1913E-03     106.370E-03    -53.1783E-03     9.23659E-03    -53.1809E-03     105.712E-03    -53.1560E-03     9.20638E-03
            1622     16.2195E-03     46.9770E-03    -4.42633E+06     126.517E+06     87.3134E+06    -411.189E+03    -52.9533E-03     106.166E-03    -53.2127E-03     77.2673E-03    -54.0796E-03     107.473E-03    -52.9532E-03     76.6174E-03
            1623     15.3629E-03     46.8720E-03    -10.4367E+06     124.411E+06     82.3204E+06     443.348E+03    -53.8591E-03     107.095E-03    -53.2360E-03     105.277E-03    -55.4174E-03     108.819E-03    -52.9897E-03     104.360E-03
            1624     14.5099E-03     46.7686E-03    -14.8200E+06     116.247E+06     64.3763E+06     142.932E+03    -54.4006E-03     107.598E-03    -53.1973E-03     111.650E-03    -55.9146E-03     109.285E-03    -53.0225E-03     110.580E-03
            1625     13.6560E-03     46.6510E-03    -18.9494E+06     98.0232E+06     33.0478E+06      187.54E+03    -54.9482E-03     108.048E-03    -53.0996E-03     114.909E-03    -56.3243E-03     109.609E-03    -53.0490E-03     113.762E-03
            1626     12.8020E-03     46.5405E-03    -21.7399E+06      51.819E+06     10.7375E+06     186.144E+03    -54.8433E-03     107.921E-03    -53.0782E-03     105.503E-03    -55.8749E-03     109.029E-03    -53.0681E-03     104.432E-03
            1627     11.9487E-03     46.4412E-03    -23.2923E+06    -2.00846E+06     6.40616E+06    -16.4918E+03    -54.6681E-03     107.821E-03    -53.1530E-03     95.9697E-03    -55.3878E-03     108.432E-03    -53.0843E-03     95.0327E-03
            1628     11.0948E-03     46.3496E-03    -25.1169E+06    -38.1773E+06     3.01134E+06    -76.4049E+03    -54.6359E-03     107.840E-03    -53.2041E-03     89.2803E-03    -55.1523E-03     108.123E-03    -53.0973E-03     88.4661E-03
            1629     10.2413E-03     46.2634E-03    -27.4275E+06    -63.5559E+06     1.42125E+06     122.408E+03    -54.6067E-03     107.851E-03    -53.2444E-03     84.3485E-03    -54.9871E-03     107.904E-03    -53.1054E-03     83.6493E-03
            1630     9.38806E-03     46.1811E-03    -30.0065E+06    -82.5115E+06    -210.335E+03     207.643E+03    -54.5353E-03     107.807E-03    -53.2717E-03     79.3897E-03    -54.8178E-03     107.691E-03    -53.1096E-03     78.7919E-03
            1631     8.53427E-03     46.1047E-03    -32.9543E+06    -98.4749E+06    -2.18254E+06     244.983E+03    -54.3945E-03     107.686E-03    -53.2912E-03     73.8736E-03    -54.6022E-03     107.433E-03    -53.1115E-03     73.3681E-03
            1632     7.68116E-03     46.0335E-03    -36.3695E+06    -112.316E+06    -4.36543E+06     275.038E+03    -54.1979E-03     107.506E-03    -53.3081E-03     67.9246E-03    -54.3495E-03     107.142E-03    -53.1143E-03     67.5026E-03
            1633     6.82738E-03     45.9686E-03    -40.0005E+06    -121.872E+06    -8.80242E+06     296.250E+03    -54.0215E-03     107.331E-03    -53.3093E-03     61.5500E-03    -54.1325E-03     106.893E-03    -53.1186E-03     61.2016E-03
            1634     5.97408E-03     45.9102E-03    -43.9472E+06    -130.697E+06    -15.5824E+06     277.757E+03    -53.8569E-03     107.154E-03    -53.2975E-03     54.8489E-03    -53.9353E-03     106.658E-03    -53.1222E-03     54.5649E-03
            1635     5.12060E-03     45.8584E-03    -48.0070E+06    -139.559E+06    -23.4856E+06     239.332E+03    -53.6815E-03     106.962E-03    -53.2804E-03     47.7771E-03    -53.7334E-03     106.416E-03    -53.1259E-03     47.5493E-03
            1636     4.26715E-03     45.8143E-03    -52.1362E+06    -147.418E+06    -31.8693E+06     300.397E+03    -53.5306E-03     106.791E-03    -53.2604E-03     40.4403E-03    -53.5627E-03     106.207E-03    -53.1304E-03     40.2635E-03
            1637     3.41369E-03     45.7772E-03    -56.1814E+06    -154.848E+06    -40.8753E+06     311.833E+03    -53.4113E-03     106.647E-03    -53.2354E-03     32.8195E-03    -53.4274E-03     106.032E-03    -53.1338E-03     32.6866E-03
            1638     2.56028E-03     45.7483E-03    -59.7300E+06    -161.376E+06    -49.7634E+06     271.991E+03    -53.3205E-03     106.525E-03    -53.2043E-03     24.9440E-03    -53.3233E-03     105.887E-03    -53.1325E-03     24.8490E-03
            1639     1.70688E-03     45.7272E-03    -62.7439E+06    -167.033E+06    -57.5314E+06     239.365E+03    -53.2318E-03     106.404E-03    -53.1721E-03     16.9368E-03    -53.2245E-03     105.748E-03    -53.1266E-03     16.8758E-03
            1640     853.474E-06     45.7142E-03    -64.5531E+06    -168.502E+06    -62.9802E+06     23.3084E+03    -53.1576E-03     106.308E-03    -53.1503E-03     9.22761E-03    -53.1462E-03     105.652E-03    -53.1273E-03     9.19353E-03
            1641     16.2141E-03     45.9208E-03    -4.31583E+06     126.691E+06     87.3663E+06    -144.499E+03    -52.7094E-03     105.964E-03    -53.2550E-03     76.5247E-03    -53.8323E-03     107.268E-03    -52.9956E-03     75.8824E-03
            1642     15.3640E-03     45.8175E-03    -10.1244E+06     124.492E+06     82.1343E+06    -286.264E+03    -54.0252E-03     107.303E-03    -53.2781E-03     104.108E-03    -55.5794E-03     109.025E-03    -53.0333E-03     103.173E-03
            1643     14.5091E-03     45.7147E-03    -15.0164E+06     115.879E+06     64.2997E+06     247.992E+03    -54.6809E-03     107.909E-03    -53.2278E-03     111.120E-03    -56.1964E-03     109.596E-03    -53.0526E-03     110.040E-03
            1644     13.6554E-03     45.5960E-03    -18.9813E+06     98.2473E+06     33.3690E+06     174.195E+03    -55.0732E-03     108.191E-03    -53.1182E-03     114.282E-03    -56.4479E-03     109.751E-03    -53.0663E-03     113.131E-03
            1645     12.8023E-03     45.4863E-03    -21.0726E+06     51.8866E+06     11.0789E+06    -376.859E+03    -54.8667E-03     107.957E-03    -53.0903E-03     105.036E-03    -55.8940E-03     109.062E-03    -53.0796E-03     103.956E-03
            1646     11.9482E-03     45.3868E-03    -23.0052E+06    -1.88488E+06     6.81545E+06    -322.546E+03    -54.7522E-03     107.914E-03    -53.1617E-03     95.8196E-03    -55.4724E-03     108.526E-03    -53.0916E-03     94.8754E-03
            1647     11.0949E-03     45.2954E-03    -25.3165E+06    -38.2039E+06     2.93849E+06    -17.4861E+03    -54.7343E-03     107.938E-03    -53.2041E-03     89.0812E-03    -55.2515E-03     108.222E-03    -53.0973E-03     88.2657E-03
            1648     10.2416E-03     45.2089E-03    -27.6892E+06    -63.8038E+06     1.38442E+06     137.799E+03    -54.6657E-03     107.903E-03    -53.2377E-03     84.1680E-03    -55.0469E-03     107.956E-03    -53.0981E-03     83.4678E-03
            1649     9.38786E-03     45.1271E-03    -30.2655E+06    -82.4297E+06    -203.779E+03     187.586E+03    -54.5409E-03     107.801E-03    -53.2605E-03     79.2772E-03    -54.8246E-03     107.686E-03    -53.0982E-03     78.6794E-03
            1650     8.53470E-03     45.0502E-03    -33.1148E+06    -98.6362E+06    -2.22162E+06     216.801E+03    -54.4096E-03     107.687E-03    -53.2771E-03     73.7085E-03    -54.6175E-03     107.433E-03    -53.0972E-03     73.2026E-03
            1651     7.68099E-03     44.9794E-03    -36.3510E+06    -112.073E+06    -4.35447E+06     246.273E+03    -54.2349E-03     107.523E-03    -53.2881E-03     67.7555E-03    -54.3866E-03     107.160E-03    -53.0947E-03     67.3329E-03
            1652     6.82776E-03     44.9145E-03    -40.0672E+06    -121.912E+06    -9.02394E+06     186.740E+03    -54.0429E-03     107.325E-03    -53.2820E-03     61.4476E-03    -54.1535E-03     106.887E-03    -53.0922E-03     61.0981E-03
            1653     5.97426E-03     44.8559E-03    -43.9256E+06    -130.710E+06    -15.6032E+06     257.150E+03    -53.8452E-03     107.111E-03    -53.2662E-03     54.7293E-03    -53.9233E-03     106.615E-03    -53.0910E-03     54.4454E-03
            1654     5.12075E-03     44.8046E-03    -48.0483E+06    -139.427E+06    -23.2595E+06     379.364E+03    -53.6557E-03     106.903E-03    -53.2477E-03     47.6920E-03    -53.7081E-03     106.358E-03    -53.0922E-03     47.4666E-03
            1655     4.26727E-03     44.7601E-03    -52.2912E+06    -147.299E+06    -31.6869E+06     400.828E+03    -53.5168E-03     106.741E-03    -53.2242E-03     40.3563E-03    -53.5500E-03     106.158E-03    -53.0932E-03     40.1810E-03
            1656     3.41388E-03     44.7234E-03    -56.2390E+06    -154.600E+06    -41.1149E+06     304.051E+03    -53.3822E-03     106.575E-03    -53.1923E-03     32.7247E-03    -53.3986E-03     105.962E-03    -53.0922E-03     32.5919E-03
            1657     2.56033E-03     44.6942E-03    -59.6565E+06    -161.212E+06    -50.1552E+06     236.087E+03    -53.2681E-03     106.428E-03    -53.1602E-03     24.8733E-03    -53.2702E-03     105.792E-03    -53.0907E-03     24.7782E-03
            1658     1.70696E-03     44.6733E-03    -62.2661E+06    -166.727E+06    -57.6305E+06     38.1107E+03    -53.1861E-03     106.319E-03    -53.1327E-03     16.8372E-03    -53.1767E-03     105.664E-03    -53.0888E-03     16.7735E-03
            1659     853.364E-06     44.6604E-03    -64.0111E+06    -168.383E+06    -62.8727E+06    -131.169E+03    -53.1418E-03     106.238E-03    -53.0966E-03     9.20766E-03    -53.1280E-03     105.582E-03    -53.0740E-03     9.17179E-03
            1660     16.2211E-03     44.8689E-03    -3.98333E+06     127.153E+06     87.9234E+06     210.274E+03    -52.8633E-03     106.116E-03    -53.2529E-03     76.7089E-03    -53.9837E-03     107.419E-03    -52.9919E-03     76.0747E-03
            1661     15.3619E-03     44.7632E-03    -9.85769E+06     124.347E+06     82.1633E+06     171.899E+03    -53.9297E-03     107.204E-03    -53.2738E-03     104.398E-03    -55.4825E-03     108.924E-03    -53.0290E-03     103.470E-03
            1662     14.5096E-03     44.6594E-03    -14.7870E+06     115.803E+06     64.5020E+06    -126.720E+03    -54.8177E-03     108.040E-03    -53.2220E-03     110.440E-03    -56.3303E-03     109.724E-03    -53.0460E-03     109.352E-03
            1663     13.6564E-03     44.5419E-03    -17.8630E+06     99.0295E+06     34.2954E+06    -413.951E+03    -54.9341E-03     108.045E-03    -53.1114E-03     113.797E-03    -56.3002E-03     109.600E-03    -53.0576E-03     112.644E-03
            1664     12.8018E-03     44.4320E-03    -20.6922E+06     51.5492E+06     10.9779E+06    -283.079E+03    -54.8298E-03     107.915E-03    -53.0855E-03     105.019E-03    -55.8539E-03     109.017E-03    -53.0754E-03     103.942E-03
            1665     11.9487E-03     44.3325E-03    -23.3486E+06    -2.25077E+06     6.68102E+06     23.3434E+03    -54.8597E-03     108.014E-03    -53.1545E-03     95.5880E-03    -55.5807E-03     108.625E-03    -53.0840E-03     94.6456E-03
            1666     11.0951E-03     44.2408E-03    -25.7326E+06    -38.0662E+06     2.86919E+06    -4.15927E+03    -54.7443E-03     107.935E-03    -53.1908E-03     88.9150E-03    -55.2627E-03     108.219E-03    -53.0839E-03     88.1002E-03
            1667     10.2415E-03     44.1547E-03    -27.9496E+06    -63.9714E+06     1.22702E+06     14.8204E+03    -54.6886E-03     107.910E-03    -53.2210E-03     84.0460E-03    -55.0701E-03     107.961E-03    -53.0815E-03     83.3443E-03
            1668     9.38836E-03     44.0727E-03    -30.3961E+06    -82.4358E+06    -225.550E+03     108.451E+03    -54.5853E-03     107.824E-03    -53.2388E-03     79.1103E-03    -54.8692E-03     107.708E-03    -53.0763E-03     78.5113E-03
            1669     8.53466E-03     43.9961E-03    -33.2095E+06    -98.6066E+06    -2.34139E+06      86.042E+03    -54.4197E-03     107.669E-03    -53.2492E-03     73.5562E-03    -54.6274E-03     107.415E-03    -53.0698E-03     73.0492E-03
            1670     7.68148E-03     43.9252E-03    -36.4563E+06    -112.087E+06    -4.47258E+06     154.496E+03    -54.2468E-03     107.502E-03    -53.2553E-03     67.5794E-03    -54.3984E-03     107.139E-03    -53.0623E-03     67.1560E-03
            1671     6.82792E-03     43.8603E-03    -40.0719E+06    -121.870E+06    -9.15050E+06     148.399E+03    -54.0334E-03     107.277E-03    -53.2441E-03     61.3062E-03    -54.1437E-03     106.839E-03    -53.0550E-03     60.9565E-03
            1672     5.97443E-03     43.8020E-03    -44.0772E+06    -130.815E+06    -15.7649E+06     253.205E+03    -53.8296E-03     107.054E-03    -53.2244E-03     54.5925E-03    -53.9078E-03     106.557E-03    -53.0496E-03     54.3090E-03
            1673     5.12102E-03     43.7505E-03    -48.1717E+06    -139.348E+06    -23.2761E+06     424.643E+03    -53.6586E-03     106.858E-03    -53.1995E-03     47.5402E-03    -53.7116E-03     106.313E-03    -53.0440E-03     47.3156E-03
            1674     4.26753E-03     43.7062E-03    -52.1934E+06    -147.046E+06    -31.5033E+06     349.538E+03    -53.4850E-03     106.654E-03    -53.1691E-03     40.2120E-03    -53.5182E-03     106.071E-03    -53.0377E-03     40.0364E-03
            1675     3.41399E-03     43.6694E-03    -56.0409E+06    -154.290E+06    -40.9291E+06     246.552E+03    -53.3384E-03     106.470E-03    -53.1319E-03     32.5774E-03    -53.3544E-03     105.858E-03    -53.0315E-03     32.4441E-03
            1676     2.56062E-03     43.6405E-03    -59.5126E+06    -161.078E+06    -50.1098E+06     115.751E+03    -53.1902E-03     106.290E-03    -53.0998E-03     24.7596E-03    -53.1918E-03     105.654E-03    -53.0304E-03     24.6631E-03
            1677     1.70696E-03     43.6194E-03    -62.2502E+06    -166.490E+06    -57.4573E+06     58.3513E+03    -53.1099E-03     106.192E-03    -53.0816E-03     16.8313E-03    -53.1011E-03     105.537E-03    -53.0372E-03     16.7682E-03
            1678     853.660E-06     43.6066E-03    -64.1381E+06    -168.252E+06    -62.7703E+06     84.6206E+03    -53.0988E-03     106.147E-03    -53.0482E-03     9.18022E-03    -53.0860E-03     105.491E-03    -53.0250E-03     9.14731E-03
            1679     16.2139E-03     43.8146E-03    -4.72582E+06     126.785E+06     87.5355E+06     347.612E+03    -53.2411E-03     106.481E-03    -53.2403E-03     76.5778E-03    -54.3643E-03     107.784E-03    -52.9796E-03     75.9348E-03
            1680     15.3646E-03     43.7090E-03    -9.38416E+06     125.226E+06     83.2779E+06     315.216E+03    -54.1668E-03     107.414E-03    -53.2473E-03     104.352E-03    -55.7198E-03     109.137E-03    -52.9988E-03     103.421E-03
            1681     14.5101E-03     43.6041E-03    -14.4398E+06     115.984E+06     64.2553E+06    -106.053E+03    -54.4139E-03     107.607E-03    -53.1932E-03     110.192E-03    -55.9182E-03     109.285E-03    -53.0191E-03     109.115E-03
            1682     13.6557E-03     43.4883E-03    -19.8636E+06     99.1484E+06     31.7208E+06     6.54626E+03    -54.8324E-03     107.920E-03    -53.0879E-03     113.795E-03    -56.2024E-03     109.480E-03    -53.0442E-03     112.650E-03
            1683     12.8023E-03     43.3775E-03    -23.0530E+06     51.9436E+06     9.16469E+06    -474.036E+03    -54.9470E-03     108.011E-03    -53.0639E-03     105.030E-03    -55.9813E-03     109.121E-03    -53.0599E-03     103.947E-03
            1684     11.9488E-03     43.2779E-03    -24.3967E+06    -2.92257E+06     6.02440E+06    -554.444E+03    -54.8429E-03     107.976E-03    -53.1329E-03     95.3670E-03    -55.5648E-03     108.583E-03    -53.0632E-03     94.4191E-03
            1685     11.0953E-03     43.1868E-03    -25.8219E+06    -37.9997E+06     2.87973E+06    -185.188E+03    -54.7581E-03     107.926E-03    -53.1678E-03     88.7842E-03    -55.2764E-03     108.209E-03    -53.0609E-03     87.9674E-03
            1686     10.2420E-03     43.1002E-03    -27.9210E+06    -64.0329E+06     1.08859E+06    -152.570E+03    -54.7299E-03     107.922E-03    -53.1924E-03     83.8675E-03    -55.1102E-03     107.973E-03    -53.0536E-03     83.1640E-03
            1687     9.38841E-03     43.0185E-03    -30.3563E+06    -82.5239E+06    -302.607E+03    -61.4432E+03    -54.6127E-03     107.817E-03    -53.2042E-03     78.8717E-03    -54.8956E-03     107.700E-03    -53.0420E-03     78.2705E-03
            1688     8.53526E-03     42.9419E-03    -33.1949E+06    -98.4760E+06    -2.36171E+06     37.2303E+03    -54.4409E-03     107.649E-03    -53.2079E-03     73.3691E-03    -54.6481E-03     107.395E-03    -53.0288E-03     72.8620E-03
            1689     7.68165E-03     42.8710E-03    -36.4403E+06    -112.221E+06    -4.48676E+06     15.1503E+03    -54.2378E-03     107.446E-03    -53.2084E-03     67.3753E-03    -54.3886E-03     107.082E-03    -53.0153E-03     66.9508E-03
            1690     6.82829E-03     42.8063E-03    -40.1748E+06    -121.843E+06    -9.16438E+06     158.147E+03    -54.0230E-03     107.214E-03    -53.1915E-03     61.0610E-03    -54.1335E-03     106.776E-03    -53.0024E-03     60.7119E-03
            1691     5.97484E-03     42.7480E-03     -44.162E+06    -130.833E+06    -15.7682E+06     268.852E+03    -53.8241E-03     106.988E-03    -53.1643E-03     54.3768E-03    -53.9024E-03     106.491E-03    -52.9894E-03     54.0940E-03
            1692     5.12133E-03     42.6966E-03    -48.1880E+06    -139.380E+06    -23.2703E+06     254.492E+03    -53.6281E-03     106.760E-03    -53.1314E-03     47.3490E-03    -53.6809E-03     106.214E-03    -52.9758E-03     47.1228E-03
            1693     4.26787E-03     42.6524E-03    -52.1787E+06    -146.947E+06    -31.6823E+06     218.654E+03    -53.4350E-03     106.528E-03    -53.0935E-03     40.0650E-03    -53.4679E-03     105.946E-03    -52.9632E-03     39.8883E-03
            1694     3.41437E-03     42.6156E-03    -56.0172E+06    -154.119E+06    -40.8391E+06     190.768E+03    -53.2535E-03     106.309E-03    -53.0555E-03     32.4734E-03    -53.2697E-03     105.698E-03    -52.9550E-03     32.3400E-03
            1695     2.56070E-03     42.5868E-03    -59.4708E+06    -160.758E+06    -49.7984E+06     146.373E+03    -53.1143E-03     106.139E-03    -53.0246E-03     24.6538E-03    -53.1166E-03     105.504E-03    -52.9543E-03     24.5581E-03
            1696     1.70716E-03     42.5659E-03    -62.3601E+06    -166.400E+06    -57.4508E+06     92.4266E+03    -53.0239E-03     106.032E-03    -53.0079E-03     16.7967E-03    -53.0157E-03     105.378E-03    -52.9635E-03     16.7345E-03
            1697     853.366E-06     42.5527E-03    -64.3191E+06    -167.998E+06    -62.7629E+06    -27.0975E+03    -53.0125E-03     106.004E-03    -52.9910E-03     9.11824E-03    -53.0010E-03     105.349E-03    -52.9679E-03     9.08383E-03
            1698     16.2212E-03     42.7603E-03    -4.66138E+06     127.102E+06     87.7231E+06    -193.424E+03    -53.6332E-03     106.858E-03    -53.2251E-03     76.8254E-03    -54.7632E-03     108.169E-03    -52.9640E-03     76.1654E-03
            1699     15.3642E-03     42.6538E-03    -9.19846E+06     125.313E+06     83.3436E+06     241.469E+03    -54.0151E-03     107.240E-03    -53.2251E-03     104.686E-03    -55.5677E-03     108.963E-03    -52.9767E-03     103.756E-03
            1700     14.5102E-03     42.5515E-03    -14.8875E+06     115.417E+06     64.1183E+06     1.17251E+06    -54.2810E-03     107.462E-03    -53.1805E-03     110.751E-03    -55.7838E-03     109.135E-03    -53.0057E-03     109.696E-03
            1701     13.6562E-03     42.4334E-03    -18.6825E+06     100.471E+06     32.8291E+06      647.48E+03    -55.0258E-03     108.101E-03    -53.0749E-03     113.954E-03    -56.3952E-03     109.665E-03    -53.0293E-03     112.811E-03
            1702     12.8028E-03     42.3231E-03    -20.8894E+06     52.9609E+06     10.2567E+06    -557.145E+03    -55.0220E-03     108.062E-03    -53.0403E-03     104.851E-03    -56.0470E-03     109.171E-03    -53.0355E-03     103.766E-03
            1703     11.9492E-03     42.2238E-03    -23.1775E+06    -3.51982E+06     6.22000E+06    -843.579E+03    -54.8592E-03     107.963E-03    -53.1038E-03     95.3067E-03    -55.5738E-03     108.565E-03    -53.0340E-03     94.3557E-03
            1704     11.0957E-03     42.1323E-03    -25.5358E+06    -38.4950E+06     2.74606E+06    -447.015E+03    -54.8435E-03     107.975E-03    -53.1318E-03     88.5559E-03    -55.3589E-03     108.255E-03    -53.0252E-03     87.7347E-03
            1705     10.2423E-03     42.0460E-03    -27.7661E+06    -64.0283E+06     1.18514E+06    -201.124E+03    -54.7510E-03     107.900E-03    -53.1489E-03     83.6111E-03    -55.1298E-03     107.949E-03    -53.0098E-03     82.9073E-03
            1706     9.38909E-03     41.9643E-03    -30.2993E+06    -82.7064E+06    -372.416E+03    -181.217E+03    -54.6227E-03     107.777E-03    -53.1539E-03     78.6397E-03    -54.9041E-03     107.658E-03    -52.9919E-03     78.0376E-03
            1707     8.53552E-03     41.8877E-03    -33.1224E+06    -98.5269E+06    -2.18976E+06    -20.0652E+03    -54.4469E-03     107.599E-03    -53.1519E-03     73.1006E-03    -54.6533E-03     107.344E-03    -52.9719E-03     72.5933E-03
            1708     7.68230E-03     41.8170E-03    -36.5054E+06    -112.184E+06    -4.45125E+06     41.8902E+03    -54.2326E-03     107.377E-03    -53.1444E-03     67.1373E-03    -54.3834E-03     107.013E-03    -52.9510E-03     66.7138E-03
            1709     6.82878E-03     41.7523E-03    -40.2352E+06    -122.039E+06    -9.28122E+06     155.620E+03    -54.0204E-03     107.139E-03    -53.1183E-03     60.8246E-03    -54.1303E-03     106.699E-03    -52.9294E-03     60.4762E-03
            1710     5.97532E-03     41.6941E-03    -44.1072E+06    -130.740E+06    -15.8036E+06     263.138E+03    -53.7849E-03     106.868E-03    -53.0827E-03     54.1711E-03    -53.8627E-03     106.371E-03    -52.9082E-03     53.8890E-03
            1711     5.12184E-03     41.6428E-03    -48.2248E+06    -139.124E+06    -23.3062E+06     155.956E+03    -53.5623E-03     106.606E-03    -53.0441E-03     47.1750E-03    -53.6153E-03     106.062E-03    -52.8890E-03     46.9484E-03
            1712     4.26822E-03     41.5987E-03    -52.2984E+06    -146.913E+06    -31.8131E+06     28.5149E+03    -53.3488E-03     106.352E-03    -53.0032E-03     39.8839E-03    -53.3819E-03     105.770E-03    -52.8734E-03     39.7055E-03
            1713     3.41458E-03     41.5621E-03    -56.0353E+06    -154.145E+06    -41.0838E+06     34.4180E+03    -53.1581E-03     106.122E-03    -52.9642E-03     32.3266E-03    -53.1739E-03     105.511E-03    -52.8648E-03     32.1918E-03
            1714     2.56097E-03     41.5333E-03    -59.4447E+06    -160.562E+06    -49.7624E+06     121.274E+03    -53.0472E-03     105.977E-03    -52.9298E-03     24.5660E-03    -53.0496E-03     105.343E-03    -52.8596E-03     24.4704E-03
            1715     1.70733E-03     41.5123E-03    -62.3179E+06    -166.185E+06    -57.2826E+06     124.185E+03    -52.9670E-03     105.861E-03    -52.8942E-03     16.6704E-03    -52.9591E-03     105.208E-03    -52.8493E-03     16.6087E-03
            1716     853.802E-06     41.4995E-03    -64.3370E+06    -167.951E+06    -63.0682E+06     30.0458E+03    -52.8803E-03     105.744E-03    -52.8639E-03     9.11042E-03    -52.8684E-03     105.091E-03    -52.8424E-03     9.07724E-03
            1717     16.2152E-03     41.7045E-03    -4.75213E+06     126.583E+06     87.3270E+06    -46.8331E+03    -53.2364E-03     106.469E-03    -53.2329E-03     77.7504E-03    -54.3658E-03     107.778E-03    -52.9729E-03     77.0995E-03
            1718     15.3641E-03     41.6006E-03    -10.3922E+06     123.726E+06     82.1133E+06     633.305E+03    -54.1368E-03     107.378E-03    -53.2412E-03     105.051E-03    -55.6900E-03     109.095E-03    -52.9950E-03     104.125E-03
            1719     14.5097E-03     41.4968E-03    -14.4772E+06     115.974E+06     65.4320E+06     513.517E+03    -54.8225E-03     108.008E-03    -53.1860E-03     110.891E-03    -56.3294E-03     109.686E-03    -53.0060E-03     109.813E-03
            1720     13.6566E-03     41.3788E-03    -17.2324E+06     101.909E+06     34.5021E+06    -18.0850E+03    -55.2043E-03     108.262E-03    -53.0572E-03     113.862E-03    -56.5716E-03     109.829E-03    -53.0075E-03     112.707E-03
            1721     12.8029E-03     41.2688E-03    -19.9614E+06     53.0146E+06     10.3715E+06    -42.2397E+03    -55.0467E-03     108.056E-03    -53.0092E-03     104.649E-03    -56.0664E-03     109.163E-03    -53.0053E-03     103.572E-03
            1722     11.9495E-03     41.1693E-03    -22.6314E+06    -3.55517E+06     6.39933E+06    -111.511E+03    -55.0108E-03     108.075E-03    -53.0646E-03     95.1503E-03    -55.7234E-03     108.677E-03    -52.9947E-03     94.2053E-03
            1723     11.0964E-03     41.0778E-03    -25.1567E+06    -38.5136E+06     2.86912E+06    -279.211E+03    -54.8986E-03     107.980E-03    -53.0811E-03     88.2782E-03    -55.4114E-03     108.258E-03    -52.9744E-03     87.4587E-03
            1724     10.2430E-03     40.9919E-03    -27.6493E+06    -64.2811E+06     1.23052E+06    -243.670E+03    -54.7725E-03     107.863E-03    -53.0902E-03     83.3610E-03    -55.1496E-03     107.910E-03    -52.9508E-03     82.6569E-03
            1725     9.38951E-03     40.9099E-03    -30.2474E+06    -82.6755E+06    -264.690E+03    -112.699E+03    -54.6266E-03     107.714E-03    -53.0879E-03     78.4001E-03    -54.9070E-03     107.595E-03    -52.9255E-03     77.8000E-03
            1726     8.53639E-03     40.8337E-03    -33.2679E+06    -98.7830E+06    -2.36446E+06    -75.1031E+03    -54.4346E-03     107.513E-03    -53.0779E-03     72.8370E-03    -54.6404E-03     107.256E-03    -52.8983E-03     72.3300E-03
            1727     7.68276E-03     40.7630E-03    -36.5214E+06    -112.091E+06    -4.35145E+06     91.1362E+03    -54.2177E-03     107.281E-03    -53.0634E-03     66.9119E-03    -54.3681E-03     106.917E-03    -52.8697E-03     66.4903E-03
            1728     6.82944E-03     40.6984E-03    -40.1713E+06    -122.155E+06    -9.20187E+06     119.625E+03    -53.9798E-03     107.010E-03    -53.0299E-03     60.6127E-03    -54.0887E-03     106.569E-03    -52.8405E-03     60.2651E-03
            1729     5.97592E-03     40.6404E-03    -44.0814E+06    -130.750E+06    -15.8434E+06     187.297E+03    -53.7318E-03     106.718E-03    -52.9867E-03     53.9636E-03    -53.8089E-03     106.221E-03    -52.8124E-03     53.6817E-03
            1730     5.12229E-03     40.5891E-03    -48.0259E+06    -138.804E+06    -23.2172E+06     122.596E+03    -53.4856E-03     106.428E-03    -52.9421E-03     46.9849E-03    -53.5380E-03     105.884E-03    -52.7873E-03     46.7590E-03
            1731     4.26874E-03     40.5452E-03    -52.1439E+06    -146.738E+06    -31.5881E+06     22.8881E+03    -53.2569E-03     106.155E-03    -52.8979E-03     39.6804E-03    -53.2896E-03     105.573E-03    -52.7674E-03     39.5029E-03
            1732     3.41501E-03     40.5087E-03    -56.3007E+06    -154.273E+06    -41.2353E+06     46.6085E+03    -53.0768E-03     105.929E-03    -52.8519E-03     32.1612E-03    -53.0934E-03     105.317E-03    -52.7527E-03     32.0272E-03
            1733     2.56126E-03     40.4799E-03    -59.8985E+06    -160.594E+06    -50.5072E+06     102.760E+03    -52.9479E-03     105.754E-03    -52.8064E-03     24.4519E-03    -52.9514E-03     105.121E-03    -52.7392E-03     24.3566E-03
            1734     1.70756E-03     40.4590E-03    -62.6482E+06    -165.958E+06    -57.8528E+06     104.160E+03    -52.8471E-03     105.612E-03    -52.7650E-03     16.6031E-03    -52.8404E-03     104.962E-03    -52.7228E-03     16.5416E-03
            1735     853.763E-06     40.4462E-03    -64.4679E+06    -167.924E+06    -62.9445E+06     34.9682E+03    -52.7797E-03     105.487E-03    -52.7069E-03     9.10625E-03    -52.7687E-03     104.833E-03    -52.6847E-03     9.07354E-03
            1736     16.2193E-03     40.6513E-03    -4.89062E+06     126.221E+06     87.1229E+06     674.122E+03    -53.2348E-03     106.471E-03    -53.2362E-03     76.8471E-03    -54.3567E-03     107.771E-03    -52.9765E-03     76.2070E-03
            1737     15.3627E-03     40.5454E-03    -10.0473E+06     124.264E+06     82.5329E+06     13.4705E+03    -54.3979E-03     107.634E-03    -53.2360E-03     104.093E-03    -55.9505E-03     109.353E-03    -52.9889E-03     103.150E-03
            1738     14.5106E-03     40.4417E-03    -14.1652E+06     116.464E+06     65.1742E+06    -839.263E+03    -55.0665E-03     108.225E-03    -53.1590E-03     109.998E-03    -56.5733E-03     109.906E-03    -52.9815E-03     108.894E-03
            1739     13.6570E-03     40.3244E-03    -18.2644E+06     100.951E+06     33.4746E+06    -221.208E+03    -55.2052E-03     108.224E-03    -53.0186E-03     113.267E-03    -56.5712E-03     109.786E-03    -52.9711E-03     112.110E-03
            1740     12.8035E-03     40.2145E-03    -21.3153E+06     53.2494E+06     10.1248E+06     372.817E+03    -55.1304E-03     108.096E-03    -52.9660E-03     104.432E-03    -56.1569E-03     109.207E-03    -52.9617E-03     103.357E-03
            1741     11.9504E-03     40.1145E-03    -23.4722E+06    -2.79023E+06     6.38653E+06     32.7337E+03    -55.0604E-03     108.072E-03    -53.0120E-03     94.9209E-03    -55.7771E-03     108.677E-03    -52.9419E-03     93.9773E-03
            1742     11.0969E-03     40.0237E-03    -25.3751E+06     -38.397E+06     2.92444E+06    -232.093E+03    -54.9232E-03     107.944E-03    -53.0209E-03     88.0661E-03    -55.4359E-03     108.222E-03    -52.9138E-03     87.2479E-03
            1743     10.2436E-03     39.9374E-03    -27.5184E+06    -64.4159E+06     1.22966E+06    -177.768E+03    -54.8060E-03     107.827E-03    -53.0214E-03     83.1834E-03    -55.1812E-03     107.873E-03    -52.8820E-03     82.4808E-03
            1744     9.39054E-03     39.8560E-03    -30.1619E+06    -82.7824E+06    -250.267E+03    -49.7566E+03    -54.6360E-03     107.646E-03    -53.0104E-03     78.2148E-03    -54.9148E-03     107.525E-03    -52.8479E-03     77.6170E-03
            1745     8.53686E-03     39.7796E-03    -33.0693E+06    -98.7229E+06    -2.32995E+06     26.4373E+03    -54.4359E-03     107.427E-03    -52.9912E-03     72.6320E-03    -54.6398E-03     107.170E-03    -52.8117E-03     72.1279E-03
            1746     7.68372E-03     39.7091E-03    -36.5005E+06    -112.234E+06    -4.37082E+06     73.0305E+03    -54.1911E-03     107.159E-03    -52.9679E-03     66.6601E-03    -54.3404E-03     106.793E-03    -52.7741E-03     66.2398E-03
            1747     6.83006E-03     39.6447E-03    -40.2847E+06    -122.147E+06    -9.14339E+06     139.092E+03    -53.9235E-03     106.851E-03    -52.9270E-03     60.3589E-03    -54.0325E-03     106.409E-03    -52.7372E-03     60.0131E-03
            1748     5.97654E-03     39.5868E-03    -44.2148E+06    -130.668E+06    -16.0305E+06     49.2879E+03    -53.6638E-03     106.539E-03    -52.8754E-03     53.7058E-03    -53.7410E-03     106.042E-03    -52.7020E-03     53.4235E-03
            1749     5.12298E-03     39.5358E-03    -48.2358E+06    -138.762E+06    -23.6881E+06     32.8136E+03    -53.3896E-03     106.213E-03    -52.8238E-03     46.7430E-03    -53.4420E-03     105.671E-03    -52.6711E-03     46.5173E-03
            1750     4.26916E-03     39.4919E-03    -52.3572E+06    -146.722E+06    -31.8339E+06     159.237E+03    -53.1612E-03     105.937E-03    -52.7754E-03     39.5094E-03    -53.1944E-03     105.355E-03    -52.6460E-03     39.3347E-03
            1751     3.41545E-03     39.4556E-03    -56.3848E+06    -154.079E+06    -41.0188E+06     224.121E+03    -52.9921E-03     105.714E-03    -52.7221E-03     32.0219E-03    -53.0095E-03     105.103E-03    -52.6220E-03     31.8910E-03
            1752     2.56169E-03     39.4268E-03    -59.9265E+06    -160.580E+06    -50.2878E+06     106.485E+03    -52.8157E-03     105.485E-03    -52.6693E-03     24.3256E-03    -52.8196E-03     104.852E-03    -52.6010E-03     24.2311E-03
            1753     1.70778E-03     39.4062E-03    -62.6470E+06    -165.773E+06    -57.9487E+06     40.5458E+03    -52.6895E-03     105.320E-03    -52.6303E-03     16.5130E-03    -52.6828E-03     104.670E-03    -52.5889E-03     16.4511E-03
            1754     853.880E-06     39.3932E-03     -64.592E+06    -167.818E+06    -63.3580E+06     53.0769E+03    -52.6438E-03     105.228E-03    -52.5837E-03     8.99303E-03    -52.6330E-03     104.575E-03    -52.5635E-03     8.96063E-03
            1755     16.2169E-03     39.5980E-03    -4.69341E+06     126.639E+06     87.5518E+06     327.019E+03    -54.1402E-03     107.352E-03    -53.2119E-03     76.6769E-03    -55.2687E-03     108.660E-03    -52.9510E-03     76.0125E-03
            1756     15.3655E-03     39.4904E-03    -8.54695E+06     125.809E+06     83.7266E+06    -289.860E+03    -54.5242E-03     107.706E-03    -53.1821E-03     103.969E-03    -56.0751E-03     109.431E-03    -52.9335E-03     103.017E-03
            1757     14.5112E-03     39.3869E-03    -14.5934E+06     115.838E+06     63.9620E+06     46.6506E+03    -54.6967E-03     107.800E-03    -53.1029E-03     109.700E-03    -56.1971E-03     109.474E-03    -52.9299E-03     108.617E-03
            1758     13.6577E-03     39.2702E-03    -19.6082E+06     100.563E+06     32.4371E+06     240.642E+03    -55.2159E-03     108.188E-03    -52.9717E-03     113.345E-03    -56.5851E-03     109.750E-03    -52.9269E-03     112.194E-03
            1759     12.8044E-03     39.1597E-03    -21.9787E+06     53.9296E+06     10.3397E+06    -191.030E+03    -55.2404E-03     108.156E-03    -52.9159E-03     104.524E-03    -56.2700E-03     109.269E-03    -52.9105E-03     103.440E-03
            1760     11.9509E-03     39.0604E-03    -23.2974E+06    -2.67602E+06      6.5265E+06    -525.651E+03    -55.0750E-03     108.028E-03    -52.9530E-03     94.7900E-03    -55.7889E-03     108.631E-03    -52.8827E-03     93.8411E-03
            1761     11.0977E-03     38.9691E-03    -25.1682E+06    -38.6300E+06     2.96003E+06    -348.429E+03    -54.9366E-03     107.893E-03    -52.9559E-03     87.9396E-03    -55.4460E-03     108.167E-03    -52.8486E-03     87.1222E-03
            1762     10.2446E-03     38.8834E-03    -27.4402E+06    -64.5110E+06     1.18061E+06    -92.3585E+03    -54.8570E-03     107.804E-03    -52.9475E-03     83.0111E-03    -55.2305E-03     107.848E-03    -52.8082E-03     82.3106E-03
            1763     9.39097E-03     38.8018E-03    -30.0360E+06    -82.9247E+06    -311.158E+03     11.2695E+03    -54.6856E-03     107.610E-03    -52.9244E-03     77.9572E-03    -54.9623E-03     107.487E-03    -52.7622E-03     77.3613E-03
            1764     8.53800E-03     38.7258E-03    -33.0273E+06    -98.7179E+06    -2.29538E+06     136.052E+03    -54.4393E-03     107.333E-03    -52.8934E-03     72.3549E-03    -54.6421E-03     107.074E-03    -52.7139E-03     71.8539E-03
            1765     7.68430E-03     38.6554E-03    -36.4000E+06    -112.292E+06    -4.48435E+06     205.162E+03    -54.1682E-03     107.027E-03    -52.8586E-03     66.3707E-03    -54.3160E-03     106.660E-03    -52.6654E-03     65.9537E-03
            1766     6.83100E-03     38.5912E-03    -40.1803E+06    -122.011E+06    -9.26779E+06     161.611E+03    -53.8761E-03     106.683E-03    -52.8070E-03     60.0682E-03    -53.9839E-03     106.242E-03    -52.6182E-03     59.7244E-03
            1767     5.97734E-03     38.5335E-03    -44.1399E+06    -130.560E+06    -16.1089E+06     27.4128E+03    -53.5659E-03     106.314E-03    -52.7481E-03     53.4229E-03    -53.6422E-03     105.817E-03    -52.5754E-03     53.1421E-03
            1768     5.12358E-03     38.4825E-03    -48.2612E+06    -138.839E+06    -23.8233E+06     105.877E+03    -53.2912E-03     105.982E-03    -52.6907E-03     46.4823E-03    -53.3430E-03     105.439E-03    -52.5385E-03     46.2589E-03
            1769     4.26982E-03     38.4390E-03    -52.4868E+06    -146.646E+06    -32.0656E+06     233.519E+03    -53.0574E-03     105.692E-03    -52.6343E-03     39.2867E-03    -53.0908E-03     105.111E-03    -52.5059E-03     39.1140E-03
            1770     3.41595E-03     38.4025E-03    -56.4636E+06    -153.958E+06    -41.0124E+06     154.463E+03    -52.8475E-03     105.425E-03    -52.5773E-03     31.8353E-03    -52.8653E-03     104.815E-03    -52.4773E-03     31.7045E-03
            1771     2.56202E-03     38.3743E-03    -59.9759E+06    -160.281E+06    -49.9919E+06     78.8247E+03    -52.6779E-03     105.201E-03    -52.5230E-03     24.1761E-03    -52.6828E-03     104.569E-03    -52.4536E-03     24.0819E-03
            1772     1.70803E-03     38.3533E-03    -62.9316E+06    -165.726E+06    -57.9011E+06     17.7206E+03    -52.5479E-03     105.026E-03    -52.4780E-03     16.4356E-03    -52.5428E-03     104.377E-03    -52.4360E-03     16.3739E-03
            1773     854.086E-06     38.3408E-03    -64.7258E+06    -167.661E+06    -63.3282E+06     91.5900E+03    -52.4619E-03     104.914E-03    -52.4519E-03     8.93577E-03    -52.4520E-03     104.263E-03    -52.4316E-03     8.90410E-03
            1774     16.2193E-03     38.5400E-03    -4.72376E+06     126.535E+06     87.6522E+06    -327.190E+03    -54.2779E-03     107.457E-03    -53.1793E-03     75.8829E-03    -55.4005E-03     108.758E-03    -52.9177E-03     75.2086E-03
            1775     15.3659E-03     38.4367E-03    -9.27737E+06     124.791E+06     83.0496E+06     348.183E+03    -54.3508E-03     107.498E-03    -53.1472E-03     104.264E-03    -55.8966E-03     109.213E-03    -52.8994E-03     103.328E-03
            1776     14.5118E-03     38.3330E-03    -14.5641E+06     115.819E+06     64.6962E+06     1.38831E+06    -54.6956E-03     107.774E-03    -53.0780E-03     110.759E-03    -56.1958E-03     109.446E-03    -52.9013E-03     109.698E-03
            1777     13.6580E-03     38.2154E-03    -18.3500E+06     101.877E+06     34.1055E+06     243.584E+03    -55.3976E-03     108.341E-03    -52.9429E-03     113.717E-03    -56.7651E-03     109.906E-03    -52.8935E-03     112.562E-03
            1778     12.8047E-03     38.1053E-03    -20.4486E+06     54.4883E+06     11.0816E+06    -1.01693E+06    -55.3952E-03     108.266E-03    -52.8708E-03     104.484E-03    -56.4174E-03     109.377E-03    -52.8648E-03     103.388E-03
            1779     11.9518E-03     38.0058E-03    -22.3829E+06    -3.19962E+06     6.57501E+06    -614.563E+03    -55.1783E-03     108.073E-03    -52.8947E-03     94.6467E-03    -55.8849E-03     108.670E-03    -52.8247E-03     93.6972E-03
            1780     11.0984E-03     37.9152E-03    -24.7811E+06    -38.9631E+06     2.88588E+06    -59.2469E+03    -55.0435E-03     107.928E-03    -52.8847E-03     87.7468E-03    -55.5493E-03     108.199E-03    -52.7778E-03     86.9329E-03
            1781     10.2451E-03     37.8289E-03    -27.3788E+06    -64.6088E+06     1.05128E+06     62.6380E+03    -54.9382E-03     107.800E-03    -52.8615E-03     82.6471E-03    -55.3096E-03     107.842E-03    -52.7229E-03     81.9492E-03
            1782     9.39233E-03     37.7479E-03    -30.1190E+06    -82.8779E+06    -421.296E+03     182.935E+03    -54.7163E-03     107.541E-03    -52.8243E-03     77.5518E-03    -54.9920E-03     107.416E-03    -52.6626E-03     76.9592E-03
            1783     8.53862E-03     37.6719E-03    -33.0547E+06    -98.7566E+06    -2.43321E+06     198.005E+03    -54.4400E-03     107.220E-03    -52.7803E-03     71.9981E-03    -54.6415E-03     106.961E-03    -52.6013E-03     71.4995E-03
            1784     7.68552E-03     37.6018E-03    -36.3374E+06    -112.255E+06    -4.57972E+06     219.886E+03    -54.1377E-03     106.871E-03    -52.7332E-03     65.9973E-03    -54.2841E-03     106.503E-03    -52.5406E-03     65.5822E-03
            1785     6.83179E-03     37.5378E-03    -39.9847E+06    -121.810E+06    -9.29825E+06     147.483E+03    -53.7965E-03     106.468E-03    -52.6714E-03     59.7108E-03    -53.9027E-03     106.027E-03    -52.4833E-03     59.3688E-03
            1786     5.97819E-03     37.4803E-03    -43.9870E+06     -130.54E+06    -15.9430E+06     129.203E+03    -53.4680E-03     106.074E-03    -52.6059E-03     53.0996E-03    -53.5432E-03     105.576E-03    -52.4326E-03     52.8219E-03
            1787     5.12437E-03     37.4298E-03    -48.1273E+06    -138.946E+06    -23.7239E+06     259.482E+03    -53.1880E-03     105.728E-03    -52.5400E-03     46.2145E-03    -53.2387E-03     105.183E-03    -52.3874E-03     45.9946E-03
            1788     4.27052E-03     37.3860E-03    -52.1855E+06    -146.469E+06    -32.0551E+06     260.912E+03    -52.9266E-03     105.401E-03    -52.4748E-03     39.0413E-03    -52.9584E-03     104.821E-03    -52.3470E-03     38.8704E-03
            1789     3.41651E-03     37.3503E-03    -56.1551E+06    -153.812E+06    -41.1152E+06     190.104E+03    -52.6881E-03     105.102E-03    -52.4135E-03     31.6311E-03    -52.7043E-03     104.492E-03    -52.3146E-03     31.5019E-03
            1790     2.56241E-03     37.3214E-03    -59.7697E+06    -160.154E+06    -50.0798E+06     136.822E+03    -52.5099E-03     104.869E-03    -52.3594E-03     24.0032E-03    -52.5137E-03     104.238E-03    -52.2909E-03     23.9106E-03
            1791     1.70838E-03     37.3013E-03    -62.8020E+06    -165.487E+06    -57.5889E+06     81.5134E+03    -52.3863E-03     104.703E-03    -52.3165E-03     16.3348E-03    -52.3812E-03     104.054E-03    -52.2734E-03     16.2746E-03
            1792     854.086E-06     37.2882E-03    -64.9971E+06    -167.641E+06    -63.2940E+06    -255.810E+03    -52.2940E-03     104.587E-03    -52.2926E-03     8.87304E-03    -52.2855E-03     103.936E-03    -52.2717E-03     8.83699E-03
            1793     16.2196E-03     37.4869E-03    -4.65084E+06     126.091E+06     87.3174E+06     82.5821E+03    -53.7518E-03     106.937E-03    -53.1856E-03     77.0850E-03    -54.8730E-03     108.237E-03    -52.9251E-03     76.4240E-03
            1794     15.3645E-03     37.3821E-03    -10.2844E+06     123.772E+06     82.4644E+06     1.02342E+06    -54.5587E-03     107.725E-03    -53.1660E-03     104.989E-03    -56.1095E-03     109.439E-03    -52.9183E-03     104.056E-03
            1795     14.5115E-03     37.2783E-03    -14.1308E+06     116.464E+06     65.7758E+06     112.882E+03    -55.2965E-03     108.375E-03    -53.0788E-03     110.830E-03    -56.8025E-03     110.054E-03    -52.8983E-03     109.735E-03
            1796     13.6584E-03     37.1606E-03    -16.4463E+06     102.996E+06     34.9838E+06    -490.338E+03    -55.7467E-03     108.657E-03    -52.9101E-03     113.553E-03    -57.1085E-03     110.224E-03    -52.8607E-03     112.380E-03
            1797     12.8056E-03     37.0503E-03    -19.3273E+06     54.5782E+06     11.1838E+06    -314.037E+03    -55.5444E-03     108.362E-03    -52.8172E-03     103.915E-03    -56.5582E-03     109.468E-03    -52.8124E-03     102.826E-03
            1798     11.9522E-03     36.9516E-03    -22.5329E+06    -3.56213E+06     6.36802E+06     83.3187E+03    -55.3198E-03     108.146E-03    -52.8263E-03     94.2059E-03    -56.0248E-03     108.740E-03    -52.7566E-03     93.2638E-03
            1799     11.0994E-03     36.8605E-03    -25.2121E+06    -39.1231E+06     2.51735E+06     272.494E+03    -55.1972E-03     107.994E-03    -52.7973E-03     87.2893E-03    -55.7031E-03     108.265E-03    -52.6914E-03     86.4782E-03
            1800     10.2466E-03     36.7749E-03    -27.6507E+06    -64.4179E+06     987.186E+03     296.507E+03    -54.9798E-03     107.738E-03    -52.7579E-03     82.2163E-03    -55.3509E-03     107.779E-03    -52.6195E-03     81.5228E-03
            1801     9.39296E-03     36.6939E-03    -30.2164E+06    -82.8600E+06    -531.616E+03     242.676E+03    -54.7203E-03     107.428E-03    -52.7075E-03     77.1566E-03    -54.9948E-03     107.302E-03    -52.5462E-03     76.5666E-03
            1802     8.54009E-03     36.6183E-03    -33.1101E+06    -98.7037E+06    -2.46523E+06     212.901E+03    -54.4289E-03     107.080E-03    -52.6508E-03     71.5884E-03    -54.6294E-03     106.819E-03    -52.4720E-03     71.0919E-03
            1803     7.68638E-03     36.5483E-03    -36.4014E+06    -112.143E+06    -4.67885E+06     143.584E+03    -54.0705E-03     106.662E-03    -52.5918E-03     65.6170E-03    -54.2161E-03     106.294E-03    -52.3998E-03     65.2033E-03
            1804     6.83299E-03     36.4847E-03    -40.1154E+06    -121.742E+06    -9.32315E+06     181.590E+03    -53.7060E-03     106.227E-03    -52.5213E-03     59.3443E-03    -53.8120E-03     105.786E-03    -52.3332E-03     59.0052E-03
            1805     5.97909E-03     36.4275E-03    -44.1468E+06    -130.446E+06    -15.9179E+06     307.847E+03    -53.3773E-03     105.823E-03    -52.4458E-03     52.7635E-03    -53.4527E-03     105.325E-03    -52.2723E-03     52.4901E-03
            1806     5.12531E-03     36.3770E-03    -48.2431E+06    -138.889E+06    -23.7145E+06     252.040E+03    -53.0576E-03     105.428E-03    -52.3701E-03     45.8930E-03    -53.1084E-03     104.883E-03    -52.2173E-03     45.6749E-03
            1807     4.27120E-03     36.3338E-03    -52.1945E+06    -146.450E+06    -32.2484E+06     145.140E+03    -52.7636E-03     105.062E-03    -52.2980E-03     38.7694E-03    -52.7948E-03     104.481E-03    -52.1712E-03     38.5987E-03
            1808     3.41714E-03     36.2977E-03    -55.8005E+06    -153.616E+06    -41.2394E+06     158.517E+03    -52.5256E-03     104.757E-03    -52.2318E-03     31.3998E-03    -52.5398E-03     104.148E-03    -52.1344E-03     31.2714E-03
            1809     2.56296E-03     36.2697E-03    -59.0100E+06    -160.108E+06    -49.8039E+06     203.147E+03    -52.3291E-03     104.506E-03    -52.1768E-03     23.8501E-03    -52.3294E-03     103.873E-03    -52.1081E-03     23.7593E-03
            1810     1.70853E-03     36.2490E-03    -61.5998E+06    -165.110E+06    -57.0693E+06     85.2294E+03    -52.2092E-03     104.342E-03    -52.1331E-03     16.2012E-03    -52.1994E-03     103.693E-03    -52.0897E-03     16.1415E-03
            1811     854.444E-06     36.2366E-03    -63.2158E+06    -167.854E+06    -62.2211E+06    -183.059E+03    -52.1222E-03     104.228E-03    -52.1056E-03     8.79696E-03    -52.1061E-03     103.572E-03    -52.0816E-03     8.76229E-03
            1812     16.2159E-03     36.4320E-03    -5.41020E+06     125.508E+06     86.5193E+06     203.638E+03    -53.8625E-03     107.078E-03    -53.2157E-03     76.7579E-03    -54.9873E-03     108.378E-03    -52.9573E-03     76.0888E-03
            1813     15.3647E-03     36.3261E-03    -9.71794E+06     124.646E+06     83.2842E+06    -568.989E+03    -55.3200E-03     108.495E-03    -53.1746E-03     103.873E-03    -56.8725E-03     110.214E-03    -52.9248E-03     102.892E-03
            1814     14.5119E-03     36.2235E-03    -13.4676E+06     116.979E+06     65.7760E+06    -795.317E+03    -55.7804E-03     108.824E-03    -53.0437E-03     109.723E-03    -57.2828E-03     110.503E-03    -52.8650E-03     108.597E-03
            1815     13.6592E-03     36.1049E-03    -18.6531E+06     102.972E+06     32.0264E+06    -317.520E+03    -55.9172E-03     108.756E-03    -52.8391E-03     112.655E-03    -57.2813E-03     110.327E-03    -52.8013E-03     111.478E-03
            1816     12.8063E-03     35.9961E-03    -21.9708E+06     54.1487E+06     8.59978E+06     210.534E+03    -55.6289E-03     108.363E-03    -52.7336E-03     103.288E-03    -56.6480E-03     109.471E-03    -52.7373E-03     102.205E-03
            1817     11.9537E-03     35.8967E-03    -23.9180E+06    -4.06984E+06     5.62978E+06     288.168E+03    -55.4459E-03     108.181E-03    -52.7348E-03     93.7551E-03    -56.1542E-03     108.773E-03    -52.6661E-03     92.8139E-03
            1818     11.1007E-03     35.8062E-03    -25.8945E+06    -38.7459E+06     2.36844E+06     317.144E+03    -55.2130E-03     107.905E-03    -52.6924E-03     86.8753E-03    -55.7199E-03     108.176E-03    -52.5868E-03     86.0670E-03
            1819     10.2473E-03     35.7208E-03    -28.0419E+06    -64.3776E+06     858.551E+03     212.454E+03    -55.0049E-03     107.646E-03    -52.6412E-03     81.8353E-03    -55.3759E-03     107.686E-03    -52.5029E-03     81.1427E-03
            1820     9.39467E-03     35.6402E-03    -30.4733E+06    -82.6620E+06    -564.711E+03     178.481E+03    -54.7256E-03     107.303E-03    -52.5772E-03     76.7531E-03    -54.9998E-03     107.177E-03    -52.4160E-03     76.1646E-03
            1821     8.54100E-03     35.5647E-03    -33.3125E+06    -98.7202E+06    -2.64243E+06     138.312E+03    -54.3725E-03     106.881E-03    -52.5081E-03     71.1984E-03    -54.5721E-03     106.619E-03    -52.3299E-03     70.7039E-03
            1822     7.68780E-03     35.4953E-03    -36.6189E+06    -112.006E+06    -4.69583E+06     176.009E+03    -54.0033E-03     106.442E-03    -52.4391E-03     65.2232E-03    -54.1489E-03     106.074E-03    -52.2471E-03     64.8128E-03
            1823     6.83389E-03     35.4318E-03    -40.3263E+06    -121.779E+06    -9.56817E+06     248.292E+03    -53.6360E-03     105.991E-03    -52.3554E-03     58.9405E-03    -53.7416E-03     105.549E-03    -52.1682E-03     58.6046E-03
            1824     5.98027E-03     35.3749E-03    -44.2258E+06    -130.428E+06    -16.1683E+06     330.388E+03    -53.2708E-03     105.538E-03    -52.2671E-03     52.3888E-03    -53.3455E-03     105.039E-03    -52.0947E-03     52.1181E-03
            1825     5.12618E-03     35.3247E-03    -48.2550E+06    -138.551E+06    -23.7241E+06     268.201E+03    -52.9207E-03     105.102E-03    -52.1811E-03     45.5243E-03    -52.9715E-03     104.558E-03    -52.0288E-03     45.3085E-03
            1826     4.27214E-03     35.2817E-03    -52.3743E+06    -146.347E+06    -32.2353E+06     79.1042E+03    -52.5985E-03     104.699E-03    -52.1004E-03     38.4378E-03    -52.6304E-03     104.119E-03    -51.9735E-03     38.2680E-03
            1827     3.41779E-03     35.2460E-03    -56.2643E+06    -153.709E+06    -41.4880E+06    -8.44353E+03    -52.3272E-03     104.355E-03    -52.0282E-03     31.1158E-03    -52.3430E-03     103.746E-03    -51.9312E-03     30.9867E-03
            1828     2.56337E-03     35.2179E-03    -59.5371E+06    -159.880E+06    -50.3756E+06    -2.91356E+03    -52.1412E-03     104.107E-03    -51.9654E-03     23.6426E-03    -52.1436E-03     103.476E-03    -51.8991E-03     23.5501E-03
            1829     1.70910E-03     35.1975E-03    -61.8717E+06    -164.987E+06    -57.9013E+06    -59.7770E+03    -51.9952E-03     103.911E-03    -51.9154E-03     16.0537E-03    -51.9856E-03     103.264E-03    -51.8760E-03     15.9928E-03
            1830     854.390E-06     35.1849E-03    -63.1491E+06    -167.816E+06    -62.4560E+06     107.881E+03    -51.9191E-03     103.799E-03    -51.8794E-03     8.75192E-03    -51.9023E-03     103.143E-03    -51.8568E-03     8.72147E-03
            1831     16.2194E-03     35.3755E-03    -4.66310E+06     126.736E+06     87.7905E+06     149.362E+03    -54.6351E-03     107.820E-03    -53.1846E-03     75.8016E-03    -55.7559E-03     109.119E-03    -52.9226E-03     75.1167E-03
            1832     15.3655E-03     35.2712E-03    -8.98365E+06     125.284E+06     83.4195E+06    -1.34904E+06    -55.4569E-03     108.566E-03    -53.1091E-03     102.785E-03    -56.9982E-03     110.278E-03    -52.8607E-03     101.786E-03
            1833     14.5133E-03     35.1668E-03    -14.7298E+06     115.529E+06     64.1078E+06    -323.413E+03    -55.7874E-03     108.752E-03    -52.9645E-03     108.906E-03    -57.2814E-03     110.418E-03    -52.7901E-03     107.788E-03
            1834     13.6608E-03     35.0509E-03    -18.9323E+06     102.890E+06     31.8426E+06     967.518E+03    -55.8683E-03     108.627E-03    -52.7586E-03     112.207E-03    -57.2260E-03     110.190E-03    -52.7212E-03     111.052E-03
            1835     12.8076E-03     34.9408E-03    -22.1164E+06     54.6216E+06     8.29751E+06     473.497E+03    -55.7135E-03     108.358E-03    -52.6441E-03     103.213E-03    -56.7307E-03     109.466E-03    -52.6498E-03     102.133E-03
            1836     11.9548E-03     34.8423E-03    -24.2753E+06    -4.14190E+06     5.33547E+06    -21.8466E+03    -55.5102E-03     108.145E-03    -52.6344E-03     93.4958E-03    -56.2167E-03     108.735E-03    -52.5665E-03     92.5524E-03
            1837     11.1018E-03     34.7520E-03    -26.1069E+06    -38.5949E+06     2.28580E+06    -7.49049E+03    -55.2516E-03     107.832E-03    -52.5800E-03     86.6083E-03    -55.7570E-03     108.101E-03    -52.4747E-03     85.7985E-03
            1838     10.2491E-03     34.6668E-03    -28.1270E+06    -64.3295E+06     712.235E+03    -19.3797E+03    -55.0369E-03     107.552E-03    -52.5150E-03     81.4595E-03    -55.4058E-03     107.590E-03    -52.3774E-03     80.7664E-03
            1839     9.39558E-03     34.5864E-03    -30.5334E+06    -82.6890E+06    -656.751E+03     38.0828E+03    -54.7214E-03     107.159E-03    -52.4373E-03     76.3340E-03    -54.9938E-03     107.031E-03    -52.2764E-03     75.7466E-03
            1840     8.54258E-03     34.5116E-03    -33.3873E+06    -98.5543E+06    -2.71509E+06     163.917E+03    -54.3503E-03     106.704E-03    -52.3537E-03     70.7190E-03    -54.5487E-03     106.442E-03    -52.1760E-03     70.2278E-03
            1841     7.68877E-03     34.4422E-03    -36.7538E+06    -112.092E+06    -4.89009E+06     208.994E+03    -53.9548E-03     106.224E-03    -52.2694E-03     64.7065E-03    -54.0990E-03     105.854E-03    -52.0780E-03     64.2995E-03
            1842     6.83540E-03     34.3793E-03    -40.5066E+06    -121.836E+06    -9.74161E+06     316.712E+03    -53.5532E-03     105.724E-03    -52.1709E-03     58.4490E-03    -53.6583E-03     105.281E-03    -51.9842E-03     58.1166E-03
            1843     5.98130E-03     34.3225E-03    -44.4744E+06    -130.280E+06    -16.6346E+06     304.725E+03    -53.1513E-03     105.218E-03    -52.0670E-03     51.9084E-03    -53.2259E-03     104.721E-03    -51.8967E-03     51.6399E-03
            1844     5.12734E-03     34.2729E-03    -48.4854E+06    -138.356E+06    -24.0209E+06     178.614E+03    -52.7686E-03     104.738E-03    -51.9693E-03     45.0972E-03    -52.8198E-03     104.195E-03    -51.8185E-03     44.8823E-03
            1845     4.27300E-03     34.2300E-03    -52.5051E+06    -146.154E+06    -31.9338E+06     179.894E+03    -52.4259E-03     104.306E-03    -51.8798E-03     38.0535E-03    -52.4588E-03     103.726E-03    -51.7514E-03     37.8866E-03
            1846     3.41863E-03     34.1947E-03    -56.6414E+06    -153.582E+06    -41.3732E+06     121.218E+03    -52.1443E-03     103.938E-03    -51.7937E-03     30.7961E-03    -52.1621E-03     103.329E-03    -51.6957E-03     30.6701E-03
            1847     2.56411E-03     34.1666E-03    -60.3684E+06    -159.713E+06    -50.7424E+06    -71.0376E+03    -51.9090E-03     103.627E-03    -51.7179E-03     23.3638E-03    -51.9150E-03     102.999E-03    -51.6525E-03     23.2716E-03
            1848     1.70934E-03     34.1465E-03    -63.4082E+06    -165.091E+06    -58.3405E+06    -52.1142E+03    -51.7362E-03     103.402E-03    -51.6653E-03     15.8657E-03    -51.7335E-03     102.757E-03    -51.6257E-03     15.8056E-03
            1849     854.806E-06     34.1339E-03    -65.6435E+06    -167.638E+06    -64.0947E+06     223.205E+03    -51.6365E-03     103.282E-03    -51.6459E-03     8.68434E-03    -51.6300E-03     102.634E-03    -51.6281E-03     8.65581E-03
            1850     16.2194E-03     34.3209E-03    -4.20070E+06     127.041E+06     88.2938E+06    -197.582E+03    -55.0764E-03     108.208E-03    -53.1314E-03     76.3756E-03    -56.1996E-03     109.511E-03    -52.8680E-03     75.6722E-03
            1851     15.3677E-03     34.2149E-03    -9.23773E+06     124.788E+06     83.0151E+06     463.003E+03    -55.4398E-03     108.481E-03    -53.0413E-03     103.563E-03    -56.9795E-03     110.190E-03    -52.7938E-03     102.588E-03
            1852     14.5146E-03     34.1122E-03    -15.8285E+06     114.465E+06     63.2048E+06     619.828E+03    -55.6460E-03     108.545E-03    -52.8994E-03     109.361E-03    -57.1370E-03     110.203E-03    -52.7264E-03     108.264E-03
            1853     13.6611E-03     33.9958E-03    -20.0133E+06     102.761E+06     32.0818E+06     347.421E+03    -56.0339E-03     108.728E-03    -52.6941E-03     112.411E-03    -57.3950E-03     110.290E-03    -52.6537E-03     111.247E-03
            1854     12.8087E-03     33.8861E-03    -21.5993E+06     55.6794E+06     9.45028E+06     422.820E+03    -55.8713E-03     108.436E-03    -52.5651E-03     103.118E-03    -56.8858E-03     109.544E-03    -52.5673E-03     102.038E-03
            1855     11.9559E-03     33.7878E-03    -23.4294E+06    -3.66916E+06     5.63276E+06     75.3777E+03    -55.6122E-03     108.148E-03    -52.5360E-03     93.2029E-03    -56.3124E-03     108.736E-03    -52.4686E-03     92.2623E-03
            1856     11.1032E-03     33.6977E-03    -25.6447E+06    -38.5289E+06     2.37216E+06    -246.777E+03    -55.3845E-03     107.849E-03    -52.4642E-03     86.2322E-03    -55.8855E-03     108.115E-03    -52.3593E-03     85.4200E-03
            1857     10.2501E-03     33.6129E-03    -27.8416E+06    -64.4928E+06     568.653E+03    -150.374E+03    -55.0956E-03     107.476E-03    -52.3799E-03     80.9947E-03    -55.4601E-03     107.510E-03    -52.2431E-03     80.3024E-03
            1858     9.39728E-03     33.5330E-03    -30.4258E+06    -82.8470E+06    -806.797E+03     64.6461E+03    -54.7571E-03     107.041E-03    -52.2842E-03     75.7646E-03    -55.0263E-03     106.911E-03    -52.1240E-03     75.1799E-03
            1859     8.54377E-03     33.4582E-03    -33.3905E+06    -98.5707E+06    -2.87370E+06     224.637E+03    -54.3638E-03     106.544E-03    -52.1806E-03     70.0997E-03    -54.5600E-03     106.280E-03    -52.0037E-03     69.6119E-03
            1860     7.69061E-03     33.3897E-03    -36.7144E+06    -112.105E+06    -5.04499E+06     315.333E+03    -53.9122E-03     105.989E-03    -52.0765E-03     64.0974E-03    -54.0545E-03     105.617E-03    -51.8859E-03     63.6945E-03
            1861     6.83653E-03     33.3268E-03    -40.4356E+06    -121.817E+06     -9.7337E+06     347.320E+03    -53.4527E-03     105.414E-03    -51.9613E-03     57.8475E-03    -53.5562E-03     104.970E-03    -51.7747E-03     57.5184E-03
            1862     5.98281E-03     33.2708E-03    -44.3020E+06    -129.988E+06    -16.4784E+06     326.664E+03    -53.0136E-03     104.856E-03    -51.8423E-03     51.3403E-03    -53.0870E-03     104.358E-03    -51.6720E-03     51.0747E-03
            1863     5.12848E-03     33.2212E-03    -48.3973E+06    -138.176E+06    -23.9611E+06     246.305E+03    -52.5982E-03     104.329E-03    -51.7304E-03     44.5786E-03    -52.6485E-03     103.786E-03    -51.5796E-03     44.3671E-03
            1864     4.27412E-03     33.1789E-03    -52.6744E+06    -146.154E+06    -32.1992E+06     228.536E+03    -52.2398E-03     103.865E-03    -51.6255E-03     37.5941E-03    -52.2727E-03     103.286E-03    -51.4982E-03     37.4298E-03
            1865     3.41951E-03     33.1436E-03    -56.6050E+06    -153.251E+06    -41.2495E+06     256.079E+03    -51.9206E-03     103.447E-03    -51.5265E-03     30.4157E-03    -51.9385E-03     102.840E-03    -51.4284E-03     30.2930E-03
            1866     2.56481E-03     33.1161E-03    -60.3029E+06    -159.593E+06    -50.2584E+06     219.145E+03    -51.6499E-03     103.093E-03    -51.4427E-03     23.1092E-03    -51.6563E-03     102.464E-03    -51.3752E-03     23.0220E-03
            1867     1.70998E-03     33.0959E-03    -63.5985E+06    -165.224E+06    -58.1046E+06     203.141E+03    -51.4773E-03     102.855E-03    -51.3778E-03     15.6896E-03    -51.4757E-03     102.210E-03    -51.3365E-03     15.6337E-03
            1868     854.912E-06     33.0835E-03    -65.8475E+06    -167.412E+06    -64.0345E+06     38.5616E+03    -51.3733E-03     102.686E-03    -51.3123E-03     8.53432E-03    -51.3682E-03     102.038E-03    -51.2942E-03     8.50390E-03
            1869     16.2198E-03     33.2635E-03    -4.26481E+06     126.366E+06     87.6672E+06    -84.5374E+03    -55.0104E-03     108.120E-03    -53.1095E-03     76.3042E-03    -56.1253E-03     109.414E-03    -52.8482E-03     75.6036E-03
            1870     15.3672E-03     33.1598E-03    -10.3535E+06     123.462E+06     82.1656E+06     1.18778E+06    -55.5160E-03     108.536E-03    -53.0200E-03     103.737E-03    -57.0505E-03     110.234E-03    -52.7731E-03     102.774E-03
            1871     14.5141E-03     33.0571E-03    -14.2536E+06     116.140E+06     65.3170E+06     836.958E+03    -56.0165E-03     108.887E-03    -52.8708E-03     109.420E-03    -57.5016E-03     110.545E-03    -52.6919E-03     108.318E-03
            1872     13.6623E-03     32.9401E-03    -17.2767E+06     102.614E+06     34.8755E+06    -68.5136E+03    -56.3533E-03     108.999E-03    -52.6461E-03     112.024E-03    -57.7012E-03     110.549E-03    -52.5955E-03     110.847E-03
            1873     12.8096E-03     32.8315E-03    -20.3285E+06     55.3836E+06     11.0742E+06     466.713E+03    -56.1040E-03     108.594E-03    -52.4905E-03     102.666E-03    -57.1111E-03     109.694E-03    -52.4859E-03     101.584E-03
            1874     11.9571E-03     32.7330E-03    -22.7452E+06    -2.45741E+06     6.09471E+06     399.242E+03    -55.8281E-03     108.259E-03    -52.4311E-03     92.7288E-03    -56.5244E-03     108.848E-03    -52.3640E-03     91.7907E-03
            1875     11.1044E-03     32.6435E-03    -24.9675E+06    -38.8379E+06     2.50918E+06    -78.3737E+03    -55.5235E-03     107.860E-03    -52.3365E-03     85.5753E-03    -56.0180E-03     108.121E-03    -52.2314E-03     84.7655E-03
            1876     10.2519E-03     32.5590E-03    -27.5499E+06    -64.4416E+06     663.734E+03     151.691E+03    -55.2058E-03     107.435E-03    -52.2288E-03     80.3041E-03    -55.5662E-03     107.467E-03    -52.0921E-03     79.6170E-03
            1877     9.39869E-03     32.4795E-03    -30.3152E+06    -83.0016E+06    -929.324E+03     192.142E+03    -54.8156E-03     106.924E-03    -52.1089E-03     75.0456E-03    -55.0813E-03     106.791E-03    -51.9492E-03     74.4651E-03
            1878     8.54571E-03     32.4054E-03    -33.2362E+06    -98.6076E+06    -2.84140E+06     316.647E+03    -54.3513E-03     106.335E-03    -51.9835E-03     69.3745E-03    -54.5446E-03     106.068E-03    -51.8066E-03     68.8907E-03
            1879     7.69193E-03     32.3370E-03    -36.5751E+06    -112.065E+06    -5.11239E+06     398.706E+03    -53.8612E-03     105.719E-03    -51.8577E-03     63.3850E-03    -54.0011E-03     105.346E-03    -51.6677E-03     62.9860E-03
            1880     6.83851E-03     32.2750E-03    -40.2944E+06    -121.726E+06    -9.80992E+06     411.513E+03    -53.3498E-03     105.072E-03    -51.7221E-03     57.1674E-03    -53.4512E-03     104.627E-03    -51.5362E-03     56.8423E-03
            1881     5.98417E-03     32.2191E-03    -44.3205E+06    -129.833E+06    -16.4820E+06     389.952E+03    -52.8502E-03     104.436E-03    -51.5860E-03     50.7008E-03    -52.9228E-03     103.938E-03    -51.4159E-03     50.4389E-03
            1882     5.12995E-03     32.1702E-03    -48.4518E+06    -137.953E+06    -24.1833E+06     427.968E+03    -52.4161E-03     103.872E-03    -51.4563E-03     44.0070E-03    -52.4660E-03     103.331E-03    -51.3070E-03     43.8003E-03
            1883     4.27534E-03     32.1281E-03    -52.5245E+06    -145.938E+06    -32.4783E+06     325.185E+03    -52.0073E-03     103.343E-03    -51.3357E-03     37.0916E-03    -52.0388E-03     102.764E-03    -51.2103E-03     36.9309E-03
            1884     3.42062E-03     32.0933E-03    -56.4254E+06    -153.127E+06    -41.3951E+06     209.037E+03    -51.6373E-03     102.866E-03    -51.2285E-03     30.0082E-03    -51.6540E-03     102.259E-03    -51.1316E-03     29.8869E-03
            1885     2.56551E-03     32.0660E-03    -59.7888E+06    -159.530E+06    -50.1157E+06     296.735E+03    -51.3830E-03     102.520E-03    -51.1366E-03     22.8042E-03    -51.3870E-03     101.890E-03    -51.0692E-03     22.7193E-03
            1886     1.71043E-03     32.0459E-03    -62.2363E+06    -164.715E+06    -57.6707E+06     143.148E+03    -51.1855E-03     102.244E-03    -51.0586E-03     15.4603E-03    -51.1782E-03     101.598E-03    -51.0179E-03     15.4046E-03
            1887     855.368E-06     32.0339E-03    -63.7732E+06    -167.631E+06    -62.6604E+06    -132.686E+03    -51.0644E-03     102.049E-03    -50.9846E-03     8.50729E-03    -51.0506E-03     101.396E-03    -50.9624E-03     8.47523E-03
            1888     16.2205E-03     32.2089E-03    -4.69541E+06     125.774E+06     86.9076E+06     460.203E+03    -55.2345E-03     108.348E-03    -53.1135E-03     76.6088E-03    -56.3459E-03     109.637E-03    -52.8546E-03     75.9085E-03
            1889     15.3669E-03     32.1041E-03    -9.66814E+06     124.280E+06     82.8397E+06     358.019E+03    -56.0923E-03     109.097E-03    -53.0051E-03     103.223E-03    -57.6222E-03     110.794E-03    -52.7571E-03     102.232E-03
            1890     14.5158E-03     32.0006E-03    -13.5923E+06     116.776E+06     65.6290E+06    -352.242E+03    -56.3739E-03     109.198E-03    -52.8242E-03     108.554E-03    -57.8537E-03     110.854E-03    -52.6456E-03     107.425E-03
            1891     13.6630E-03     31.8851E-03    -17.9210E+06     102.097E+06     33.9241E+06     601.201E+03    -56.5818E-03     109.155E-03    -52.5735E-03     111.515E-03    -57.9255E-03     110.699E-03    -52.5259E-03     110.342E-03
            1892     12.8107E-03     31.7760E-03    -20.9616E+06     55.5005E+06     10.9193E+06     474.962E+03    -56.4116E-03     108.808E-03    -52.3962E-03     102.033E-03    -57.4187E-03     109.906E-03    -52.3917E-03     100.945E-03
            1893     11.9586E-03     31.6784E-03    -22.6465E+06    -1.88864E+06     6.35881E+06     222.099E+03    -56.0704E-03     108.379E-03    -52.3083E-03     91.9610E-03    -56.7632E-03     108.966E-03    -52.2409E-03     91.0188E-03
            1894     11.1063E-03     31.5891E-03    -24.9066E+06    -38.9471E+06     2.40911E+06     553.056E+03    -55.6876E-03     107.873E-03    -52.1853E-03     84.7554E-03    -56.1777E-03     108.129E-03    -52.0806E-03     83.9541E-03
            1895     10.2535E-03     31.5053E-03    -27.5592E+06    -64.1927E+06     794.752E+03     507.432E+03    -55.2975E-03     107.350E-03    -52.0524E-03     79.4939E-03    -55.6554E-03     107.380E-03    -51.9154E-03     78.8135E-03
            1896     9.40080E-03     31.4262E-03    -30.2756E+06    -82.8797E+06    -926.918E+03     416.927E+03    -54.8425E-03     106.750E-03    -51.9076E-03     74.2293E-03    -55.1051E-03     106.614E-03    -51.7481E-03     73.6549E-03
            1897     8.54741E-03     31.3527E-03    -33.2604E+06    -98.6621E+06    -2.88398E+06     392.829E+03    -54.3269E-03     106.086E-03    -51.7592E-03     68.5688E-03    -54.5179E-03     105.817E-03    -51.5823E-03     68.0892E-03
            1898     7.69417E-03     31.2849E-03    -36.5548E+06    -111.991E+06    -5.17179E+06     454.850E+03    -53.7781E-03     105.389E-03    -51.6111E-03     62.6063E-03    -53.9158E-03     105.015E-03    -51.4216E-03     62.2120E-03
            1899     6.84001E-03     31.2233E-03    -40.2592E+06    -121.692E+06    -9.84902E+06     537.813E+03    -53.2224E-03     104.678E-03    -51.4551E-03     56.4178E-03    -53.3221E-03     104.231E-03    -51.2695E-03     56.0979E-03
            1900     5.98609E-03     31.1682E-03    -44.2738E+06    -129.670E+06    -16.5536E+06     600.128E+03    -52.6936E-03     103.991E-03    -51.2979E-03     50.0217E-03    -52.7650E-03     103.493E-03    -51.1284E-03     49.7658E-03
            1901     5.13146E-03     31.1196E-03    -48.3595E+06    -137.789E+06    -24.2596E+06     504.333E+03    -52.1903E-03     103.340E-03    -51.1496E-03     43.3858E-03    -52.2390E-03     102.798E-03    -51.0010E-03     43.1831E-03
            1902     4.27678E-03     31.0779E-03    -52.3388E+06    -145.586E+06    -32.4588E+06     357.229E+03    -51.7259E-03     102.742E-03    -51.0163E-03     36.5355E-03    -51.7564E-03     102.164E-03    -50.8916E-03     36.3778E-03
            1903     3.42159E-03     31.0437E-03    -56.1923E+06    -152.991E+06    -41.6296E+06     241.908E+03    -51.3686E-03     102.263E-03    -50.8947E-03     29.5566E-03    -51.3836E-03     101.656E-03    -50.7995E-03     29.4376E-03
            1904     2.56652E-03     31.0163E-03    -59.4670E+06    -159.333E+06    -50.4697E+06     111.709E+03    -51.0627E-03     101.851E-03    -50.7885E-03     22.4203E-03    -51.0646E-03     101.223E-03    -50.7236E-03     22.3346E-03
            1905     1.71114E-03     30.9969E-03    -62.0265E+06    -164.406E+06    -57.6928E+06    -2.25566E+03    -50.8216E-03     101.533E-03    -50.7115E-03     15.2233E-03    -50.8136E-03     100.889E-03    -50.6716E-03     15.1668E-03
            1906     855.435E-06     30.9846E-03    -63.7953E+06    -167.607E+06    -62.6738E+06     22.4514E+03    -50.7099E-03     101.364E-03    -50.6538E-03     8.31034E-03    -50.6962E-03     100.710E-03    -50.6316E-03     8.28072E-03
            1907     16.2177E-03     31.1516E-03    -4.71694E+06     126.152E+06     87.2599E+06    -48.5752E+03    -55.9106E-03     109.017E-03    -53.1066E-03     75.3488E-03    -57.0215E-03     110.306E-03    -52.8464E-03     74.6269E-03
            1908     15.3688E-03     31.0465E-03    -8.86699E+06     125.161E+06     83.1055E+06    -561.658E+03    -56.3758E-03     109.343E-03    -52.9667E-03     102.594E-03    -57.9038E-03     111.042E-03    -52.7198E-03     101.575E-03
            1909     14.5160E-03     30.9458E-03    -15.0620E+06     115.330E+06     64.0947E+06     684.747E+03    -56.6756E-03     109.438E-03    -52.7626E-03     108.289E-03    -58.1549E-03     111.088E-03    -52.5875E-03     107.162E-03
            1910     13.6641E-03     30.8288E-03    -19.7159E+06     102.936E+06     32.7222E+06     439.137E+03    -56.9826E-03     109.466E-03    -52.4834E-03     110.981E-03    -58.3296E-03     111.014E-03    -52.4405E-03     109.798E-03
            1911     12.8125E-03     30.7209E-03    -21.3953E+06     56.0085E+06     9.77107E+06    -426.622E+03    -56.7120E-03     108.985E-03    -52.2734E-03     101.211E-03    -57.7141E-03     110.082E-03    -52.2748E-03     100.107E-03
            1912     11.9603E-03     30.6233E-03    -23.3606E+06    -3.06885E+06     5.56052E+06     339.256E+03    -56.2743E-03     108.435E-03    -52.1610E-03     91.1078E-03    -56.9626E-03     109.014E-03    -52.0949E-03     90.1668E-03
            1913     11.1081E-03     30.5349E-03    -25.6594E+06    -38.3902E+06     2.11670E+06     774.913E+03    -55.8478E-03     107.858E-03    -52.0099E-03     83.9547E-03    -56.3378E-03     108.114E-03    -51.9065E-03     83.1578E-03
            1914     10.2558E-03     30.4515E-03    -27.8610E+06    -64.1062E+06     607.596E+03     626.190E+03    -55.3839E-03     107.234E-03    -51.8498E-03     78.5946E-03    -55.7393E-03     107.261E-03    -51.7134E-03     77.9187E-03
            1915     9.40275E-03     30.3732E-03    -30.4549E+06    -82.5248E+06    -1.01333E+06     608.210E+03    -54.8380E-03     106.518E-03    -51.6798E-03     73.3643E-03    -55.0986E-03     106.380E-03    -51.5210E-03     72.7967E-03
            1916     8.54977E-03     30.3002E-03    -33.3693E+06    -98.6441E+06    -3.09964E+06     464.051E+03    -54.2886E-03     105.796E-03    -51.5073E-03     67.7009E-03    -54.4770E-03     105.525E-03    -51.3314E-03     67.2266E-03
            1917     7.69598E-03     30.2332E-03    -36.7118E+06    -111.898E+06    -5.14578E+06     539.620E+03    -53.6814E-03     105.018E-03    -51.3368E-03     61.7312E-03    -53.8179E-03     104.642E-03    -51.1470E-03     61.3422E-03
            1918     6.84233E-03     30.1722E-03    -40.4155E+06    -121.667E+06    -10.0126E+06     620.744E+03    -53.0750E-03     104.232E-03    -51.1575E-03     55.5817E-03    -53.1734E-03     103.785E-03    -50.9725E-03     55.2669E-03
            1919     5.98778E-03     30.1176E-03    -44.2665E+06    -129.601E+06    -16.7408E+06     667.306E+03    -52.4981E-03     103.477E-03    -50.9787E-03     49.2557E-03    -52.5680E-03     102.978E-03    -50.8103E-03     49.0042E-03
            1920     5.13334E-03     30.0695E-03    -48.1864E+06    -137.319E+06    -24.3498E+06     552.193E+03    -51.9323E-03     102.744E-03    -50.8121E-03     42.6806E-03    -51.9798E-03     102.204E-03    -50.6648E-03     42.4817E-03
            1921     4.27813E-03     30.0287E-03    -52.2300E+06    -145.358E+06    -32.6193E+06     430.707E+03    -51.4568E-03     102.118E-03    -50.6614E-03     35.9365E-03    -51.4862E-03     101.541E-03    -50.5380E-03     35.7825E-03
            1922     3.42306E-03     29.9943E-03    -56.0532E+06    -152.680E+06    -41.6778E+06     326.648E+03    -51.0557E-03     101.578E-03    -50.5222E-03     29.0350E-03    -51.0700E-03     100.972E-03    -50.4280E-03     28.9193E-03
            1923     2.56746E-03     29.9678E-03    -59.4986E+06    -159.075E+06    -50.4415E+06     165.585E+03    -50.6997E-03     101.104E-03    -50.4039E-03     21.9990E-03    -50.7020E-03     100.476E-03    -50.3392E-03     21.9157E-03
            1924     1.71161E-03     29.9483E-03    -62.3048E+06    -164.295E+06    -57.7568E+06     105.272E+03    -50.4597E-03     100.772E-03    -50.3120E-03     14.9091E-03    -50.4531E-03     100.128E-03    -50.2723E-03     14.8550E-03
            1925     856.020E-06     29.9364E-03    -64.1353E+06    -167.544E+06    -62.8283E+06     85.2691E+03    -50.3147E-03     100.541E-03    -50.2263E-03     8.10092E-03    -50.3025E-03     99.8887E-03    -50.2045E-03     8.07271E-03
            1926     16.2234E-03     30.0949E-03    -4.43661E+06     126.394E+06     87.5653E+06    -141.616E+03    -56.1755E-03     109.271E-03    -53.0952E-03     75.8668E-03    -57.2847E-03     110.559E-03    -52.8342E-03     75.1332E-03
            1927     15.3678E-03     29.9914E-03    -9.97600E+06     123.835E+06     82.2798E+06     863.194E+03    -56.8074E-03     109.742E-03    -52.9351E-03     102.793E-03    -58.3265E-03     111.427E-03    -52.6888E-03     101.783E-03
            1928     14.5169E-03     29.8880E-03    -14.8608E+06     115.464E+06     64.8200E+06     711.020E+03    -57.2653E-03     109.968E-03    -52.7025E-03     107.710E-03    -58.7360E-03     111.608E-03    -52.5243E-03     106.572E-03
            1929     13.6659E-03     29.7736E-03    -17.3857E+06     104.281E+06     33.7110E+06    -104.301E+03    -57.4967E-03     109.876E-03    -52.3796E-03     110.147E-03    -58.8295E-03     111.420E-03    -52.3370E-03     108.945E-03
            1930     12.8140E-03     29.6646E-03    -20.9101E+06     55.4621E+06     8.67788E+06     513.138E+03    -56.9838E-03     109.113E-03    -52.1294E-03     100.323E-03    -57.9724E-03     110.199E-03    -52.1361E-03     99.2308E-03
            1931     11.9625E-03     29.5690E-03    -24.0451E+06    -3.35112E+06     4.97599E+06     679.468E+03    -56.4608E-03     108.453E-03    -51.9919E-03     90.1907E-03    -57.1456E-03     109.026E-03    -51.9273E-03     89.2548E-03
            1932     11.1102E-03     29.4802E-03    -26.0984E+06    -38.0297E+06     1.84134E+06     482.928E+03    -55.9794E-03     107.792E-03    -51.8129E-03     83.0473E-03    -56.4667E-03     108.047E-03    -51.7107E-03     82.2495E-03
            1933     10.2580E-03     29.3981E-03    -28.1421E+06    -64.1341E+06     173.751E+03     564.362E+03    -55.4529E-03     107.077E-03    -51.6244E-03     77.6131E-03    -55.8046E-03     107.101E-03    -51.4898E-03     76.9402E-03
            1934     9.40529E-03     29.3203E-03    -30.5186E+06    -82.3529E+06    -1.11443E+06     592.736E+03    -54.8570E-03     106.285E-03    -51.4278E-03     72.4340E-03    -55.1146E-03     106.145E-03    -51.2697E-03     71.8702E-03
            1935     8.55195E-03     29.2481E-03    -33.4449E+06    -98.3623E+06    -3.19803E+06     652.930E+03    -54.2362E-03     105.465E-03    -51.2284E-03     66.7420E-03    -54.4222E-03     105.192E-03    -51.0533E-03     66.2751E-03
            1936     7.69862E-03     29.1817E-03    -36.8766E+06    -111.855E+06    -5.34929E+06     638.672E+03    -53.5805E-03     104.612E-03    -51.0318E-03     60.7461E-03    -53.7151E-03     104.234E-03    -50.8429E-03     60.3629E-03
            1937     6.84432E-03     29.1215E-03    -40.6247E+06    -121.543E+06    -10.1970E+06     708.405E+03    -52.9107E-03     103.738E-03    -50.8274E-03     54.6738E-03    -53.0082E-03     103.290E-03    -50.6433E-03     54.3645E-03
            1938     5.99014E-03     29.0675E-03    -44.5116E+06    -129.402E+06    -17.2305E+06     622.391E+03    -52.2528E-03     102.879E-03    -50.6259E-03     48.3828E-03    -52.3221E-03     102.381E-03    -50.4599E-03     48.1351E-03
            1939     5.13500E-03     29.0203E-03    -48.3818E+06    -136.995E+06    -24.8300E+06     520.035E+03    -51.6681E-03     102.108E-03    -50.4395E-03     41.9026E-03    -51.7153E-03     101.569E-03    -50.2948E-03     41.7069E-03
            1940     4.28001E-03     28.9796E-03    -52.2215E+06    -145.080E+06    -32.6710E+06     496.073E+03    -51.1588E-03     101.429E-03    -50.2698E-03     35.2760E-03    -51.1878E-03     100.852E-03    -50.1470E-03     35.1257E-03
            1941     3.42432E-03     28.9462E-03    -56.0512E+06    -152.415E+06    -41.5653E+06     441.395E+03    -50.6846E-03     100.800E-03    -50.1151E-03     28.4537E-03    -50.6990E-03     100.195E-03    -50.0206E-03     28.3419E-03
            1942     2.56849E-03     28.9198E-03    -59.4868E+06    -158.746E+06    -50.2368E+06     405.912E+03    -50.3248E-03     100.307E-03    -49.9825E-03     21.5628E-03    -50.3275E-03     99.6810E-03    -49.9173E-03     21.4843E-03
            1943     1.71269E-03     28.9007E-03    -62.3923E+06    -164.007E+06    -57.7285E+06     277.777E+03    -50.0476E-03     99.9214E-03    -49.8738E-03     14.6205E-03    -50.0418E-03     99.2793E-03    -49.8341E-03     14.5698E-03
            1944     856.260E-06     28.8890E-03    -64.3528E+06    -167.370E+06    -63.0789E+06    -42.2790E+03    -49.8496E-03     99.6472E-03    -49.7976E-03     7.96647E-03    -49.8383E-03     98.9964E-03    -49.7770E-03     7.93722E-03
            1945     16.2154E-03     29.0362E-03    -5.19393E+06     125.243E+06     86.4051E+06     421.146E+03    -56.4147E-03     109.487E-03    -53.0728E-03     74.9982E-03    -57.5116E-03     110.760E-03    -52.8148E-03     74.2605E-03
            1946     15.3696E-03     28.9333E-03    -10.0924E+06     123.750E+06     82.8090E+06     292.280E+03    -57.5857E-03     110.471E-03    -52.8852E-03     101.063E-03    -59.0932E-03     112.142E-03    -52.6360E-03     100.024E-03
            1947     14.5184E-03     28.8319E-03    -13.5332E+06     116.445E+06     65.2034E+06    -217.109E+03    -57.7541E-03     110.358E-03    -52.6040E-03     106.501E-03    -59.2110E-03     111.991E-03    -52.4272E-03     105.337E-03
            1948     13.6671E-03     28.7160E-03    -18.9244E+06     103.025E+06     31.7528E+06     890.423E+03    -57.7289E-03     109.974E-03    -52.2446E-03     108.953E-03    -59.0526E-03     111.504E-03    -52.2078E-03     107.762E-03
            1949     12.8164E-03     28.6099E-03    -22.3349E+06     56.0240E+06     8.66299E+06     1.29324E+06    -57.2284E-03     109.201E-03    -51.9728E-03     99.2661E-03    -58.2171E-03     110.284E-03    -51.9784E-03     98.1822E-03
            1950     11.9644E-03     28.5134E-03    -23.9029E+06    -2.39694E+06     5.12092E+06     496.222E+03    -56.6734E-03     108.476E-03    -51.8022E-03     89.2253E-03    -57.3524E-03     109.046E-03    -51.7385E-03     88.2880E-03
            1951     11.1129E-03     28.4265E-03    -25.8112E+06    -38.1571E+06     1.75811E+06     345.849E+03    -56.0822E-03     107.676E-03    -51.5937E-03     81.9709E-03    -56.5617E-03     107.923E-03    -51.4921E-03     81.1750E-03
            1952     10.2605E-03     28.3444E-03    -27.9575E+06    -64.1652E+06     8.10685E+03     427.154E+03    -55.4964E-03     106.874E-03    -51.3773E-03     76.5869E-03    -55.8419E-03     106.892E-03    -51.2436E-03     75.9171E-03
            1953     9.40778E-03     28.2678E-03    -30.4962E+06    -82.3534E+06    -1.17281E+06     680.226E+03    -54.8903E-03     106.042E-03    -51.1519E-03     71.3584E-03    -55.1439E-03     105.899E-03    -50.9942E-03     70.8000E-03
            1954     8.55476E-03     28.1962E-03    -33.4736E+06    -98.0807E+06    -3.27879E+06     814.126E+03    -54.1760E-03     105.098E-03    -50.9222E-03     65.6856E-03    -54.3591E-03     104.824E-03    -50.7479E-03     65.2260E-03
            1955     7.70091E-03     28.1308E-03    -36.7819E+06    -111.825E+06    -5.45499E+06     819.355E+03    -53.4487E-03     104.147E-03    -50.6988E-03     59.7390E-03    -53.5801E-03     103.767E-03    -50.5106E-03     59.3633E-03
            1956     6.84709E-03     28.0713E-03    -40.5114E+06    -121.344E+06    -10.2466E+06     771.648E+03    -52.7223E-03     103.192E-03    -50.4693E-03     53.7030E-03    -52.8176E-03     102.742E-03    -50.2858E-03     53.3992E-03
            1957     5.99218E-03     28.0182E-03    -44.3489E+06    -128.990E+06    -17.1430E+06     687.086E+03    -52.0219E-03     102.265E-03    -50.2433E-03     47.4680E-03    -52.0896E-03     101.767E-03    -50.0777E-03     47.2254E-03
            1958     5.13734E-03     27.9716E-03    -48.3495E+06    -136.753E+06    -25.0065E+06     609.505E+03    -51.3819E-03     101.414E-03    -50.0320E-03     41.0793E-03    -51.4279E-03     100.875E-03    -49.8887E-03     40.8886E-03
            1959     4.28169E-03     27.9316E-03    -52.3707E+06    -144.928E+06    -33.0119E+06     511.984E+03    -50.7896E-03     100.633E-03    -49.8434E-03     34.5389E-03    -50.8183E-03     100.057E-03    -49.7224E-03     34.3920E-03
            1960     3.42592E-03     27.8988E-03    -56.1591E+06    -152.068E+06    -41.5975E+06     521.240E+03    -50.3010E-03     99.9756E-03    -49.6746E-03     27.8557E-03    -50.3160E-03     99.3720E-03    -49.5806E-03     27.7474E-03
            1961     2.56978E-03     27.8727E-03    -59.5940E+06    -158.571E+06    -50.4694E+06     484.630E+03    -49.8850E-03     99.4151E-03    -49.5300E-03     21.1013E-03    -49.8880E-03     98.7899E-03    -49.4661E-03     21.0257E-03
            1962     1.71313E-03     27.8541E-03    -62.2421E+06    -163.595E+06    -57.8851E+06     493.416E+03    -49.5720E-03     98.9965E-03    -49.4245E-03     14.3161E-03    -49.5657E-03     98.3564E-03    -49.3865E-03     14.2696E-03
            1963     856.700E-06     27.8426E-03    -64.0232E+06    -166.718E+06    -63.0079E+06     284.815E+03    -49.4270E-03     98.7634E-03    -49.3364E-03     7.75596E-03    -49.4151E-03     98.1153E-03    -49.3169E-03     7.73145E-03
            1964     16.2259E-03     27.9800E-03    -4.39362E+06     126.108E+06     87.4862E+06     269.414E+03    -57.6742E-03     110.689E-03    -53.0152E-03     74.3200E-03    -58.7661E-03     111.960E-03    -52.7543E-03     73.5559E-03
            1965     15.3703E-03     27.8750E-03    -8.83082E+06     124.499E+06     82.7772E+06    -625.002E+03    -57.7574E-03     110.535E-03    -52.7779E-03     100.295E-03    -59.2516E-03     112.200E-03    -52.5317E-03     99.2298E-03
            1966     14.5206E-03     27.7744E-03    -15.1161E+06     114.574E+06     63.4945E+06     869.753E+03    -57.9644E-03     110.441E-03    -52.4769E-03     105.671E-03    -59.4107E-03     112.057E-03    -52.3036E-03     104.516E-03
            1967     13.6699E-03     27.6603E-03    -19.2574E+06     102.983E+06     33.0562E+06     1.62125E+06    -57.9357E-03     110.041E-03    -52.1052E-03     108.238E-03    -59.2507E-03     111.557E-03    -52.0613E-03     107.056E-03
            1968     12.8181E-03     27.5536E-03    -21.1518E+06     57.3241E+06     10.1959E+06     666.329E+03    -57.4772E-03     109.280E-03    -51.8032E-03     98.3977E-03    -58.4552E-03     110.357E-03    -51.8046E-03     97.3053E-03
            1969     11.9674E-03     27.4588E-03    -22.9108E+06    -1.90474E+06     5.49704E+06     415.573E+03    -56.8844E-03     108.481E-03    -51.5968E-03     88.1976E-03    -57.5518E-03     109.045E-03    -51.5333E-03     87.2618E-03
            1970     11.1153E-03     27.3721E-03    -25.0934E+06    -38.2367E+06     1.94805E+06     527.321E+03    -56.2083E-03     107.565E-03    -51.3570E-03     80.9155E-03    -56.6781E-03     107.805E-03    -51.2554E-03     80.1263E-03
            1971     10.2633E-03     27.2915E-03    -27.6576E+06    -64.0333E+06     134.140E+03     743.276E+03    -55.5858E-03     106.694E-03    -51.1087E-03     75.5144E-03    -55.9254E-03     106.708E-03    -50.9750E-03     74.8530E-03
            1972     9.41066E-03     27.2152E-03    -30.4755E+06    -82.4172E+06    -1.39207E+06     853.517E+03    -54.8788E-03     105.730E-03    -50.8508E-03     70.2109E-03    -55.1276E-03     105.582E-03    -50.6941E-03     69.6604E-03
            1973     8.55749E-03     27.1450E-03    -33.3948E+06    -97.9652E+06    -3.25877E+06     967.972E+03    -54.0963E-03     104.689E-03    -50.5927E-03     64.5410E-03    -54.2758E-03     104.412E-03    -50.4185E-03     64.0888E-03
            1974     7.70392E-03     27.0802E-03    -36.7305E+06    -111.605E+06    -5.68184E+06     963.459E+03    -53.2942E-03     103.635E-03    -50.3405E-03     58.6744E-03    -53.4226E-03     103.253E-03    -50.1539E-03     58.3063E-03
            1975     6.84941E-03     27.0217E-03    -40.4247E+06    -121.065E+06    -10.4318E+06     899.298E+03    -52.5181E-03     102.603E-03    -50.0851E-03     52.6427E-03    -52.6110E-03     102.153E-03    -49.9031E-03     52.3456E-03
            1976     5.99488E-03     26.9695E-03    -44.4300E+06    -128.626E+06    -17.1637E+06     805.634E+03    -51.7699E-03     101.604E-03    -49.8342E-03     46.5271E-03    -51.8369E-03     101.107E-03    -49.6691E-03     46.2904E-03
            1977     5.13944E-03     26.9235E-03    -48.4087E+06    -136.528E+06    -24.9299E+06     741.761E+03    -51.0563E-03     100.656E-03    -49.6002E-03     40.2237E-03    -51.1020E-03     100.118E-03    -49.4567E-03     40.0386E-03
            1978     4.28375E-03     26.8846E-03    -52.4384E+06    -144.635E+06    -33.2921E+06     740.711E+03    -50.4075E-03     99.7985E-03    -49.3909E-03     33.7923E-03    -50.4359E-03     99.2238E-03    -49.2717E-03     33.6518E-03
            1979     3.42747E-03     26.8520E-03    -56.3779E+06    -151.857E+06    -42.0629E+06     624.709E+03    -49.8550E-03     99.0651E-03    -49.2100E-03     27.2706E-03    -49.8702E-03     98.4630E-03    -49.1184E-03     27.1664E-03
            1980     2.57091E-03     26.8269E-03    -59.7460E+06    -158.210E+06    -50.6114E+06     504.668E+03    -49.4258E-03     98.4869E-03    -49.0610E-03     20.6318E-03    -49.4296E-03     97.8637E-03    -48.9981E-03     20.5584E-03
            1981     1.71420E-03     26.8084E-03    -62.2878E+06    -163.268E+06    -58.0626E+06     403.323E+03    -49.1109E-03     98.0594E-03    -48.9485E-03     13.9748E-03    -49.1050E-03     97.4211E-03    -48.9117E-03     13.9284E-03
            1982     857.083E-06     26.7971E-03    -63.5249E+06    -165.878E+06    -62.5559E+06     459.284E+03    -48.9526E-03     97.8055E-03    -48.8529E-03     7.60725E-03    -48.9401E-03     97.1602E-03    -48.8330E-03     7.58579E-03
            1983     16.2186E-03     26.9197E-03    -4.41776E+06     125.887E+06     87.3520E+06    -138.012E+03    -58.3582E-03     111.335E-03    -52.9772E-03     74.2862E-03    -59.4469E-03     112.602E-03    -52.7166E-03     73.4940E-03
            1984     15.3735E-03     26.8182E-03    -9.60010E+06     123.360E+06     82.1039E+06     1.57075E+06    -58.4069E-03     111.109E-03    -52.7024E-03     100.845E-03    -59.8917E-03     112.760E-03    -52.4569E-03     99.7934E-03
            1985     14.5217E-03     26.7167E-03    -15.2430E+06     114.303E+06     64.1223E+06     1.43346E+06    -58.3148E-03     110.689E-03    -52.3740E-03     105.742E-03    -59.7516E-03     112.291E-03    -52.1971E-03     104.591E-03
            1986     13.6712E-03     26.6037E-03    -18.2780E+06     103.810E+06     34.2820E+06     160.158E+03    -58.4551E-03     110.423E-03    -51.9681E-03     107.712E-03    -59.7601E-03     111.932E-03    -51.9207E-03     106.503E-03
            1987     12.8210E-03     26.4976E-03    -20.0221E+06     57.5096E+06     10.5276E+06     393.678E+03    -57.8399E-03     109.462E-03    -51.6219E-03     97.4595E-03    -58.8027E-03     110.527E-03    -51.6236E-03     96.3629E-03
            1988     11.9695E-03     26.4036E-03    -22.3040E+06    -1.65874E+06     5.61640E+06     914.452E+03    -57.0909E-03     108.470E-03    -51.3794E-03     87.0655E-03    -57.7477E-03     109.026E-03    -51.3165E-03     86.1392E-03
            1989     11.1183E-03     26.3182E-03    -24.9431E+06    -37.9929E+06     1.85782E+06     1.13735E+06    -56.4020E-03     107.506E-03    -51.1037E-03     79.7289E-03    -56.8651E-03     107.740E-03    -51.0032E-03     78.9507E-03
            1990     10.2662E-03     26.2382E-03    -27.5650E+06    -63.8987E+06     5.40133E+03     1.17700E+06    -55.6554E-03     106.475E-03    -50.8199E-03     74.3028E-03    -55.9894E-03     106.485E-03    -50.6872E-03     73.6518E-03
            1991     9.41373E-03     26.1633E-03    -30.2599E+06    -82.2054E+06    -1.55188E+06     1.11563E+06    -54.8430E-03     105.373E-03    -50.5303E-03     69.0431E-03    -55.0864E-03     105.222E-03    -50.3750E-03     68.5020E-03
            1992     8.56053E-03     26.0938E-03    -33.1799E+06    -97.9816E+06    -3.48225E+06     1.16097E+06    -54.0018E-03     104.245E-03    -50.2430E-03     63.3687E-03    -54.1765E-03     103.964E-03    -50.0702E-03     62.9247E-03
            1993     7.70666E-03     26.0303E-03    -36.5971E+06    -111.176E+06    -5.70840E+06     1.25853E+06    -53.1347E-03     103.097E-03    -49.9628E-03     57.5282E-03    -53.2603E-03     102.715E-03    -49.7771E-03     57.1695E-03
            1994     6.85248E-03     25.9728E-03    -40.4276E+06    -120.756E+06     -10.658E+06     1.06279E+06    -52.2865E-03     101.967E-03    -49.6803E-03     51.6045E-03    -52.3773E-03     101.516E-03    -49.4999E-03     51.3150E-03
            1995     5.99730E-03     25.9214E-03    -44.2869E+06    -128.298E+06    -17.2880E+06     922.917E+03    -51.4691E-03     100.876E-03    -49.4065E-03     45.5350E-03    -51.5342E-03     100.378E-03    -49.2427E-03     45.3045E-03
            1996     5.14183E-03     25.8766E-03    -48.3904E+06    -136.343E+06    -24.8676E+06     958.902E+03    -50.6939E-03     99.8487E-03    -49.1547E-03     39.3489E-03    -50.7387E-03     99.3097E-03    -49.0112E-03     39.1709E-03
            1997     4.28569E-03     25.8381E-03    -52.4852E+06    -144.286E+06    -33.1140E+06     938.569E+03    -50.0023E-03     98.9327E-03    -48.9305E-03     33.0533E-03    -50.0309E-03     98.3588E-03    -48.8107E-03     32.9188E-03
            1998     3.42918E-03     25.8066E-03    -56.2740E+06    -151.414E+06    -42.1784E+06     815.375E+03    -49.4083E-03     98.1447E-03    -48.7365E-03     26.6612E-03    -49.4230E-03     97.5444E-03    -48.6462E-03     26.5622E-03
            1999     2.57212E-03     25.7816E-03    -59.6934E+06    -157.733E+06    -50.5895E+06     625.490E+03    -48.9626E-03     97.5427E-03    -48.5801E-03     20.1668E-03    -48.9666E-03     96.9215E-03    -48.5178E-03     20.0970E-03
            2000     1.71492E-03     25.7638E-03    -62.7451E+06    -162.919E+06    -57.8083E+06     482.939E+03    -48.6363E-03     97.0971E-03    -48.4608E-03     13.6534E-03    -48.6333E-03     96.4607E-03    -48.4227E-03     13.6092E-03
            2001     857.501E-06     25.7527E-03    -65.2783E+06    -165.099E+06    -63.5694E+06     369.494E+03    -48.4793E-03     96.8046E-03    -48.3254E-03     7.47213E-03    -48.4751E-03     96.1671E-03    -48.3092E-03     7.45023E-03
            2002     16.2245E-03     25.8600E-03    -4.78901E+06     124.636E+06     86.0545E+06     569.353E+03    -58.4384E-03     111.394E-03    -52.9554E-03     73.4348E-03    -59.5078E-03     112.639E-03    -52.6989E-03     72.6480E-03
            2003     15.3716E-03     25.7585E-03    -10.5386E+06     122.570E+06     81.9857E+06     1.15393E+06    -59.0634E-03     111.726E-03    -52.6624E-03     99.5063E-03    -60.5351E-03     113.357E-03    -52.4149E-03     98.4335E-03
            2004     14.5232E-03     25.6599E-03    -13.4584E+06     116.130E+06     66.2074E+06     473.334E+03    -59.1893E-03     111.476E-03    -52.2869E-03     104.871E-03    -60.6145E-03     113.074E-03    -52.1048E-03     103.685E-03
            2005     13.6734E-03     25.5454E-03    -17.2472E+06     103.868E+06     34.2220E+06     207.328E+03    -59.0442E-03     110.864E-03    -51.8199E-03     106.440E-03    -60.3323E-03     112.361E-03    -51.7744E-03     105.220E-03
            2006     12.8231E-03     25.4419E-03    -20.8911E+06     56.8008E+06     9.48547E+06     595.025E+03    -58.2210E-03     109.648E-03    -51.4266E-03     95.9466E-03    -59.1754E-03     110.702E-03    -51.4313E-03     94.8492E-03
            2007     11.9726E-03     25.3484E-03    -23.3580E+06    -1.78250E+06     4.83965E+06     1.39956E+06    -57.3415E-03     108.486E-03    -51.1441E-03     85.7467E-03    -57.9943E-03     109.035E-03    -51.0834E-03     84.8280E-03
            2008     11.1212E-03     25.2642E-03    -25.5751E+06    -37.6696E+06     1.47101E+06     1.45465E+06    -56.5192E-03     107.352E-03    -50.8329E-03     78.3862E-03    -56.9789E-03     107.583E-03    -50.7338E-03     77.6160E-03
            2009     10.2695E-03     25.1854E-03    -27.6705E+06    -63.5803E+06    -311.376E+03     1.30176E+06    -55.6758E-03     106.192E-03    -50.5165E-03     73.0594E-03    -56.0047E-03     106.198E-03    -50.3857E-03     72.4159E-03
            2010     9.41678E-03     25.1116E-03    -30.1113E+06    -82.0123E+06    -1.68690E+06     1.34329E+06    -54.7960E-03     104.994E-03    -50.1975E-03     67.8126E-03    -55.0344E-03     104.839E-03    -50.0434E-03     67.2803E-03
            2011     8.56364E-03     25.0433E-03    -33.0777E+06    -97.7766E+06    -3.72670E+06     1.39669E+06    -53.8810E-03     103.762E-03    -49.8812E-03     62.1887E-03    -54.0516E-03     103.479E-03    -49.7101E-03     61.7541E-03
            2012     7.70986E-03     24.9810E-03    -36.3372E+06    -110.991E+06    -5.68747E+06     1.45890E+06    -52.9496E-03     102.525E-03    -49.5754E-03     56.3986E-03    -53.0713E-03     102.140E-03    -49.3902E-03     56.0485E-03
            2013     6.85509E-03     24.9244E-03    -40.0479E+06    -120.132E+06    -10.5775E+06     1.36789E+06    -52.0227E-03     101.291E-03    -49.2686E-03     50.5683E-03    -52.1105E-03     100.841E-03    -49.0893E-03     50.2884E-03
            2014     6.00005E-03     24.8742E-03    -44.1915E+06    -128.180E+06    -17.4234E+06     1.20135E+06    -51.1387E-03     100.114E-03    -48.9755E-03     44.5806E-03    -51.2016E-03     99.6157E-03    -48.8126E-03     44.3589E-03
            2015     5.14412E-03     24.8302E-03    -48.2764E+06    -135.966E+06    -24.8729E+06     1.22600E+06    -50.3133E-03     99.0217E-03    -48.7084E-03     38.4933E-03    -50.3569E-03     98.4834E-03    -48.5656E-03     38.3230E-03
            2016     4.28769E-03     24.7928E-03    -52.2747E+06    -143.836E+06    -33.0362E+06     1.08794E+06    -49.5836E-03     98.0559E-03    -48.4723E-03     32.3173E-03    -49.6111E-03     97.4830E-03    -48.3531E-03     32.1883E-03
            2017     3.43070E-03     24.7618E-03    -56.1207E+06    -150.903E+06    -41.8895E+06     983.193E+03    -48.9933E-03     97.2595E-03    -48.2662E-03     26.0610E-03    -49.0079E-03     96.6606E-03    -48.1754E-03     25.9669E-03
            2018     2.57351E-03     24.7376E-03    -59.6732E+06    -157.267E+06    -50.7151E+06     928.306E+03    -48.4932E-03     96.5902E-03    -48.0970E-03     19.6997E-03    -48.4973E-03     95.9712E-03    -48.0360E-03     19.6359E-03
            2019     1.71577E-03     24.7201E-03    -62.5278E+06    -162.258E+06    -57.9265E+06     829.066E+03    -48.1664E-03     96.1349E-03    -47.9685E-03     13.3420E-03    -48.1630E-03     95.5015E-03    -47.9322E-03     13.3037E-03
            2020     858.006E-06     24.7093E-03    -64.5588E+06    -164.077E+06    -63.1689E+06     551.362E+03    -47.9962E-03     95.8125E-03    -47.8163E-03     7.19906E-03    -47.9905E-03     95.1785E-03    -47.8007E-03     7.18019E-03
            2021     16.2208E-03     24.8011E-03    -4.82901E+06     124.839E+06     86.2735E+06     837.306E+03    -59.5458E-03     112.487E-03    -52.9409E-03     73.4517E-03    -60.6121E-03     113.729E-03    -52.6836E-03     72.6416E-03
            2022     15.3741E-03     24.6993E-03    -8.90322E+06     124.236E+06     83.0843E+06    -293.140E+03    -59.9161E-03     112.507E-03    -52.5911E-03     98.1250E-03    -61.3739E-03     114.134E-03    -52.3429E-03     97.0005E-03
            2023     14.5247E-03     24.6003E-03    -13.8153E+06     115.600E+06     65.2224E+06    -443.407E+03    -59.8718E-03     112.029E-03    -52.1576E-03     102.939E-03    -61.2828E-03     113.613E-03    -51.9791E-03     101.720E-03
            2024     13.6758E-03     24.4883E-03    -17.7425E+06     103.202E+06     33.2191E+06     1.02894E+06    -59.4484E-03     111.092E-03    -51.6440E-03     104.798E-03    -60.7215E-03     112.573E-03    -51.6018E-03     103.584E-03
            2025     12.8260E-03     24.3852E-03    -21.0904E+06     56.6481E+06     8.86632E+06     1.83925E+06    -58.4895E-03     109.702E-03    -51.2128E-03     94.3715E-03    -59.4317E-03     110.745E-03    -51.2200E-03     93.2901E-03
            2026     11.9755E-03     24.2935E-03    -23.7642E+06    -1.53573E+06     4.44346E+06     1.46831E+06    -57.5219E-03     108.418E-03    -50.8956E-03     84.3940E-03    -58.1676E-03     108.961E-03    -50.8367E-03     83.4794E-03
            2027     11.1245E-03     24.2103E-03    -25.5945E+06    -37.5226E+06     1.17344E+06     1.25825E+06    -56.5548E-03     107.108E-03    -50.5536E-03     77.1520E-03    -57.0069E-03     107.333E-03    -50.4562E-03     76.3858E-03
            2028     10.2725E-03     24.1328E-03    -27.7346E+06    -63.3128E+06    -535.783E+03     1.40302E+06    -55.6624E-03     105.872E-03    -50.2098E-03     71.8539E-03    -55.9859E-03     105.874E-03    -50.0805E-03     71.2186E-03
            2029     9.42013E-03     24.0603E-03    -30.3150E+06    -81.9543E+06    -2.07446E+06     1.51191E+06    -54.7232E-03     104.586E-03    -49.8632E-03     66.6693E-03    -54.9576E-03     104.428E-03    -49.7107E-03     66.1461E-03
            2030     8.56677E-03     23.9933E-03    -33.2079E+06    -97.4831E+06    -4.03030E+06     1.62360E+06    -53.7303E-03     103.252E-03    -49.5212E-03     61.0667E-03    -53.8977E-03     102.967E-03    -49.3519E-03     60.6421E-03
            2031     7.71267E-03     23.9321E-03    -36.5403E+06    -110.684E+06    -6.24371E+06     1.57097E+06    -52.7318E-03     101.923E-03    -49.1914E-03     55.3471E-03    -52.8513E-03     101.538E-03    -49.0092E-03     55.0051E-03
            2032     6.85814E-03     23.8769E-03    -40.2245E+06    -119.770E+06    -10.9206E+06     1.70079E+06    -51.7480E-03     100.613E-03    -48.8654E-03     49.5490E-03    -51.8344E-03     100.164E-03    -48.6880E-03     49.2793E-03
            2033     6.00244E-03     23.8277E-03    -44.1977E+06    -127.708E+06    -17.5898E+06     1.64246E+06    -50.7993E-03     99.3553E-03    -48.5560E-03     43.6480E-03    -50.8611E-03     98.8578E-03    -48.3947E-03     43.4373E-03
            2034     5.14637E-03     23.7848E-03    -48.2656E+06    -135.678E+06    -25.1866E+06     1.39501E+06    -49.9458E-03     98.2204E-03    -48.2746E-03     37.6390E-03    -49.9882E-03     97.6828E-03    -48.1338E-03     37.4751E-03
            2035     4.28959E-03     23.7483E-03    -52.3075E+06    -143.188E+06    -33.3863E+06     1.35362E+06    -49.2061E-03     97.2290E-03    -48.0229E-03     31.5792E-03    -49.2335E-03     96.6592E-03    -47.9064E-03     31.4570E-03
            2036     3.43239E-03     23.7181E-03    -56.2602E+06    -150.487E+06    -42.1216E+06     1.21097E+06    -48.5588E-03     96.3642E-03    -47.8054E-03     25.4168E-03    -48.5739E-03     95.7675E-03    -47.7162E-03     25.3283E-03
            2037     2.57458E-03     23.6945E-03    -59.6366E+06    -156.556E+06    -50.7251E+06     1.08541E+06    -48.0550E-03     95.6810E-03    -47.6260E-03     19.2201E-03    -48.0597E-03     95.0653E-03    -47.5662E-03     19.1602E-03
            2038     1.71662E-03     23.6774E-03    -62.1333E+06    -161.473E+06    -58.0866E+06     921.038E+03    -47.6992E-03     95.1859E-03    -47.4867E-03     13.0661E-03    -47.6947E-03     94.5560E-03    -47.4529E-03     13.0304E-03
            2039     858.419E-06     23.6667E-03    -63.4595E+06    -162.721E+06    -62.5395E+06     503.349E+03    -47.4642E-03     94.8487E-03    -47.3845E-03     6.96607E-03    -47.4558E-03     94.2188E-03    -47.3692E-03     6.94721E-03
            2040     16.2236E-03     23.7381E-03    -5.06876E+06     124.803E+06     86.5107E+06    -87.3554E+03    -60.7293E-03     113.635E-03    -52.9061E-03     71.7232E-03    -61.7889E-03     114.869E-03    -52.6471E-03     70.8667E-03
            2041     15.3755E-03     23.6390E-03    -8.40957E+06     124.422E+06     83.4307E+06    -264.622E+03    -60.8799E-03     113.370E-03    -52.4902E-03     96.4065E-03    -62.3188E-03     114.979E-03    -52.2412E-03     95.2521E-03
            2042     14.5276E-03     23.5412E-03    -14.0517E+06     114.869E+06     64.1822E+06     930.243E+03    -60.2627E-03     112.266E-03    -52.0036E-03     101.797E-03    -61.6534E-03     113.829E-03    -51.8289E-03     100.591E-03
            2043     13.6785E-03     23.4304E-03    -19.6199E+06     101.927E+06     31.4335E+06     1.51371E+06    -59.7288E-03     111.185E-03    -51.4560E-03     103.463E-03    -60.9894E-03     112.646E-03    -51.4181E-03     102.255E-03
            2044     12.8288E-03     23.3287E-03    -21.9511E+06     57.0763E+06     8.27379E+06     1.70531E+06    -58.6530E-03     109.649E-03    -50.9962E-03     93.1583E-03    -59.5845E-03     110.681E-03    -51.0058E-03     92.0817E-03
            2045     11.9786E-03     23.2385E-03    -23.2003E+06    -597.758E+03     4.42159E+06     1.45382E+06    -57.6213E-03     108.273E-03    -50.6512E-03     83.2085E-03    -58.2557E-03     108.810E-03    -50.5946E-03     82.3004E-03
            2046     11.1274E-03     23.1567E-03    -25.3197E+06    -37.3619E+06     806.558E+03     1.35001E+06    -56.6098E-03     106.891E-03    -50.2814E-03     75.9578E-03    -57.0523E-03     107.109E-03    -50.1865E-03     75.2004E-03
            2047     10.2758E-03     23.0807E-03    -27.6556E+06    -63.4281E+06    -958.576E+03     1.55264E+06    -55.6204E-03     105.532E-03    -49.9120E-03     70.7432E-03    -55.9370E-03     105.529E-03    -49.7847E-03     70.1174E-03
            2048     9.42295E-03     23.0093E-03    -30.1604E+06    -81.7412E+06    -2.42439E+06     1.79258E+06    -54.6295E-03     104.171E-03    -49.5413E-03     65.5315E-03    -54.8582E-03     104.009E-03    -49.3911E-03     65.0195E-03
            2049     8.56974E-03     22.9437E-03    -33.0950E+06    -97.2763E+06    -4.47935E+06     1.88449E+06    -53.5727E-03     102.749E-03    -49.1763E-03     59.9294E-03    -53.7354E-03     102.462E-03    -49.0096E-03     59.5153E-03
            2050     7.71562E-03     22.8839E-03    -36.5470E+06    -110.333E+06    -6.60129E+06     2.00879E+06    -52.5025E-03     101.330E-03    -48.8271E-03     54.2650E-03    -52.6193E-03     100.944E-03    -48.6471E-03     53.9350E-03
            2051     6.86048E-03     22.8299E-03    -40.3292E+06    -119.463E+06    -11.5044E+06     1.95350E+06    -51.4731E-03     99.9561E-03    -48.4831E-03     48.5258E-03    -51.5575E-03     99.5067E-03    -48.3089E-03     48.2651E-03
            2052     6.00499E-03     22.7820E-03    -44.1872E+06    -127.135E+06    -18.1069E+06     1.92959E+06    -50.4889E-03     98.6468E-03    -48.1579E-03     42.6784E-03    -50.5491E-03     98.1514E-03    -48.0000E-03     42.4763E-03
            2053     5.14845E-03     22.7402E-03    -48.2450E+06    -135.054E+06    -25.7376E+06     1.79022E+06    -49.6075E-03     97.4689E-03    -47.8614E-03     36.8074E-03    -49.6488E-03     96.9341E-03    -47.7243E-03     36.6528E-03
            2054     4.29147E-03     22.7046E-03    -52.2905E+06    -142.746E+06    -33.6160E+06     1.62528E+06    -48.8417E-03     96.4390E-03    -47.5973E-03     30.8408E-03    -48.8687E-03     95.8710E-03    -47.4825E-03     30.7253E-03
            2055     3.43386E-03     22.6752E-03    -56.0308E+06    -149.683E+06    -42.2284E+06     1.50497E+06    -48.1661E-03     95.5318E-03    -47.3657E-03     24.7826E-03    -48.1806E-03     94.9385E-03    -47.2786E-03     24.7004E-03
            2056     2.57583E-03     22.6524E-03    -59.4618E+06    -155.786E+06    -50.5925E+06     1.15636E+06    -47.6385E-03     94.8130E-03    -47.1745E-03     18.7491E-03    -47.6434E-03     94.2004E-03    -47.1153E-03     18.6920E-03
            2057     1.71747E-03     22.6355E-03    -62.2928E+06    -160.689E+06    -57.5064E+06     943.012E+03    -47.2158E-03     94.2539E-03    -47.0381E-03     12.6706E-03    -47.2139E-03     93.6272E-03    -47.0023E-03     12.6364E-03
            2058     858.654E-06     22.6257E-03    -64.4073E+06    -161.226E+06    -63.1183E+06     746.948E+03    -46.9869E-03     93.9508E-03    -46.9638E-03     6.91851E-03    -46.9846E-03     93.3306E-03    -46.9523E-03     6.90365E-03
            2059     16.2234E-03     22.6753E-03    -4.05167E+06     124.952E+06     87.0407E+06    -344.219E+03    -61.2921E-03     114.130E-03    -52.8379E-03     71.0090E-03    -62.3330E-03     115.348E-03    -52.5781E-03     70.1361E-03
            2060     15.3774E-03     22.5776E-03    -9.68967E+06     122.416E+06     81.8427E+06     177.273E+03    -61.1913E-03     113.580E-03    -52.3888E-03     95.3915E-03    -62.6074E-03     115.159E-03    -52.1431E-03     94.2371E-03
            2061     14.5291E-03     22.4821E-03    -15.0344E+06     113.666E+06     63.9710E+06     1.96994E+06    -60.8182E-03     112.692E-03    -51.8743E-03     100.743E-03    -62.1886E-03     114.228E-03    -51.6974E-03     99.5450E-03
            2062     13.6808E-03     22.3719E-03    -18.4670E+06     102.632E+06     33.1190E+06     2.02356E+06    -59.9620E-03     111.257E-03    -51.2954E-03     102.278E-03    -61.1997E-03     112.698E-03    -51.2519E-03     101.082E-03
            2063     12.8314E-03     22.2728E-03    -21.0679E+06     57.6785E+06     8.44075E+06     1.20754E+06    -58.8561E-03     109.657E-03    -50.8006E-03     92.1454E-03    -59.7715E-03     110.678E-03    -50.8115E-03     91.0681E-03
            2064     11.9811E-03     22.1832E-03    -23.1977E+06    -402.358E+03     3.77123E+06     1.41358E+06    -57.7902E-03     108.214E-03    -50.4235E-03     81.9450E-03    -58.4141E-03     108.743E-03    -50.3704E-03     81.0422E-03
            2065     11.1304E-03     22.1035E-03    -25.2757E+06     -37.043E+06     401.008E+03     1.74861E+06    -56.6438E-03     106.670E-03    -50.0265E-03     74.6903E-03    -57.0782E-03     106.882E-03    -49.9341E-03     73.9456E-03
            2066     10.2784E-03     22.0286E-03    -27.6682E+06    -63.4615E+06    -1.65893E+06     1.82419E+06    -55.6059E-03     105.237E-03    -49.6311E-03     69.5548E-03    -55.9159E-03     105.228E-03    -49.5073E-03     68.9393E-03
            2067     9.42604E-03     21.9588E-03    -30.2810E+06    -81.6462E+06    -2.89405E+06     2.07573E+06    -54.5108E-03     103.750E-03    -49.2391E-03     64.3189E-03    -54.7348E-03     103.585E-03    -49.0913E-03     63.8180E-03
            2068     8.57244E-03     21.8946E-03    -33.1816E+06    -97.0149E+06    -5.04450E+06     2.23818E+06    -53.4008E-03     102.255E-03    -48.8544E-03     58.7729E-03    -53.5599E-03     101.967E-03    -48.6908E-03     58.3702E-03
            2069     7.71813E-03     21.8362E-03    -36.3634E+06    -110.080E+06    -6.98666E+06     2.27729E+06    -52.3019E-03     100.789E-03    -48.4876E-03     53.1290E-03    -52.4147E-03     100.403E-03    -48.3101E-03     52.8084E-03
            2070     6.86315E-03     21.7836E-03    -39.9163E+06    -118.979E+06    -11.8268E+06     2.34069E+06    -51.2042E-03     99.3314E-03    -48.1272E-03     47.4237E-03    -51.2846E-03     98.8821E-03    -47.9560E-03     47.1736E-03
            2071     6.00702E-03     21.7369E-03    -43.8373E+06    -126.688E+06    -18.5781E+06     2.27205E+06    -50.2047E-03     97.9921E-03    -47.7874E-03     41.6897E-03    -50.2616E-03     97.4975E-03    -47.6330E-03     41.4968E-03
            2072     5.15047E-03     21.6964E-03    -47.8269E+06    -134.294E+06    -25.6125E+06     2.23556E+06    -49.3073E-03     96.7852E-03    -47.4779E-03     35.9105E-03    -49.3467E-03     96.2524E-03    -47.3419E-03     35.7656E-03
            2073     4.29312E-03     21.6615E-03    -51.8374E+06    -142.015E+06    -33.5762E+06     2.03384E+06    -48.4760E-03     95.6772E-03    -47.2011E-03     30.0226E-03    -48.5010E-03     95.1113E-03    -47.0879E-03     29.9158E-03
            2074     3.43523E-03     21.6334E-03    -55.7166E+06    -148.891E+06    -42.0600E+06     1.76027E+06    -47.8003E-03     94.7608E-03    -46.9605E-03     24.1598E-03    -47.8142E-03     94.1703E-03    -46.8741E-03     24.0835E-03
            2075     2.57693E-03     21.6108E-03    -59.1768E+06    -154.757E+06    -50.2168E+06     1.52618E+06    -47.2403E-03     94.0011E-03    -46.7608E-03     18.2619E-03    -47.2455E-03     93.3924E-03    -46.7017E-03     18.2115E-03
            2076     1.71809E-03     21.5951E-03    -62.1865E+06    -159.770E+06    -57.3012E+06     1.11375E+06    -46.8255E-03     93.4359E-03    -46.6104E-03     12.3129E-03    -46.8246E-03     92.8132E-03    -46.5751E-03     12.2821E-03
            2077     859.161E-06     21.5849E-03    -64.1275E+06    -159.755E+06    -62.6392E+06     932.662E+03    -46.6219E-03     93.0736E-03    -46.4518E-03     6.68156E-03    -46.6209E-03     92.4596E-03    -46.4403E-03     6.66998E-03
            2078     16.2265E-03     21.6135E-03    -3.94399E+06     124.419E+06     86.5372E+06     377.279E+03    -61.8469E-03     114.647E-03    -52.7998E-03     70.5755E-03    -62.8695E-03     115.846E-03    -52.5418E-03     69.6996E-03
            2079     15.3775E-03     21.5169E-03    -10.4792E+06     121.178E+06     81.0825E+06     1.52648E+06    -61.8004E-03     114.118E-03    -52.3178E-03     94.9086E-03    -63.1955E-03     115.671E-03    -52.0729E-03     93.7600E-03
            2080     14.5311E-03     21.4206E-03    -15.2132E+06     113.256E+06     64.3417E+06     1.00354E+06    -61.2740E-03     113.044E-03    -51.7696E-03     99.1138E-03    -62.6226E-03     114.554E-03    -51.5901E-03     97.8996E-03
            2081     13.6828E-03     21.3151E-03    -18.0283E+06     102.906E+06     34.1278E+06     1.00842E+06    -60.3015E-03     111.458E-03    -51.1566E-03     100.799E-03    -61.5206E-03     112.880E-03    -51.1091E-03     99.5914E-03
            2082     12.8332E-03     21.2152E-03    -20.2596E+06     58.3132E+06     9.22232E+06     1.85173E+06    -59.1507E-03     109.776E-03    -50.6252E-03     90.7446E-03    -60.0519E-03     110.786E-03    -50.6343E-03     89.6775E-03
            2083     11.9840E-03     21.1286E-03    -22.8933E+06      -494.8E+03     3.30406E+06     2.01692E+06    -57.8986E-03     108.112E-03    -50.2130E-03     80.3079E-03    -58.5090E-03     108.629E-03    -50.1626E-03     79.4194E-03
            2084     11.1327E-03     21.0500E-03    -25.4559E+06    -37.0664E+06    -111.826E+03     2.13089E+06    -56.6862E-03     106.477E-03    -49.7907E-03     73.3722E-03    -57.1140E-03     106.683E-03    -49.7006E-03     72.6380E-03
            2085     10.2814E-03     20.9768E-03    -27.8249E+06    -62.9838E+06    -2.08413E+06     2.27389E+06    -55.5731E-03     104.945E-03    -49.3715E-03     68.2223E-03    -55.8781E-03     104.933E-03    -49.2502E-03     67.6194E-03
            2086     9.42841E-03     20.9087E-03    -30.3689E+06    -81.8040E+06    -3.49715E+06     2.29492E+06    -54.4018E-03     103.361E-03    -48.9588E-03     63.0378E-03    -54.6204E-03     103.191E-03    -48.8137E-03     62.5466E-03
            2087     8.57499E-03     20.8460E-03    -33.0902E+06    -96.6126E+06    -5.44116E+06     2.48164E+06    -53.2499E-03     101.806E-03    -48.5557E-03     57.4976E-03    -53.4047E-03     101.516E-03    -48.3948E-03     57.1047E-03
            2088     7.72059E-03     20.7890E-03    -36.2761E+06    -109.809E+06    -7.65038E+06     2.47433E+06    -52.0973E-03     100.268E-03    -48.1710E-03     51.8583E-03    -52.2059E-03     99.8805E-03    -47.9974E-03     51.5468E-03
            2089     6.86522E-03     20.7378E-03    -39.8050E+06    -118.740E+06    -12.2194E+06     2.64541E+06    -50.9863E-03     98.7819E-03    -47.7956E-03     46.2269E-03    -51.0636E-03     98.3318E-03    -47.6268E-03     45.9864E-03
            2090     6.00917E-03     20.6927E-03    -43.5494E+06    -126.031E+06    -18.8780E+06     2.75570E+06    -49.9658E-03     97.4031E-03    -47.4374E-03     40.5538E-03    -50.0198E-03     96.9100E-03    -47.2859E-03     40.3721E-03
            2091     5.15229E-03     20.6528E-03    -47.4503E+06    -133.670E+06    -25.9230E+06     2.64890E+06    -48.9954E-03     96.1082E-03    -47.1127E-03     34.8150E-03    -49.0320E-03     95.5769E-03    -46.9797E-03     34.6798E-03
            2092     4.29475E-03     20.6197E-03    -51.4227E+06    -140.954E+06    -33.6539E+06     2.54865E+06    -48.1449E-03     94.9700E-03    -46.8252E-03     29.1235E-03    -48.1683E-03     94.4081E-03    -46.7145E-03     29.0271E-03
            2093     3.43653E-03     20.5918E-03    -55.3541E+06    -147.945E+06    -42.1641E+06     2.22681E+06    -47.4434E-03     94.0181E-03    -46.5747E-03     23.3819E-03    -47.4561E-03     93.4314E-03    -46.4907E-03     23.3145E-03
            2094     2.57782E-03     20.5706E-03    -58.7575E+06    -153.589E+06    -50.1741E+06     1.83239E+06    -46.8703E-03     93.2364E-03    -46.3660E-03     17.5755E-03    -46.8749E-03     92.6326E-03    -46.3090E-03     17.5312E-03
            2095     1.71881E-03     20.5548E-03    -61.4504E+06    -158.382E+06    -57.0329E+06     1.39538E+06    -46.4613E-03     92.6609E-03    -46.1996E-03     11.8928E-03    -46.4590E-03     92.0435E-03    -46.1660E-03     11.8671E-03
            2096     859.605E-06     20.5454E-03    -63.5785E+06    -158.150E+06    -62.1132E+06     833.783E+03    -46.1980E-03     92.2307E-03    -46.0327E-03     6.50431E-03    -46.1974E-03     91.6231E-03    -46.0217E-03     6.49212E-03
            2097     16.2229E-03     20.5505E-03    -4.63448E+06     123.470E+06     85.5334E+06     937.579E+03    -62.7532E-03     115.543E-03    -52.7900E-03     69.4049E-03    -63.7603E-03     116.724E-03    -52.5346E-03     68.5149E-03
            2098     15.3795E-03     20.4533E-03    -9.58772E+06     121.896E+06     82.0328E+06     1.38177E+06    -62.5862E-03     114.850E-03    -52.2637E-03     93.2511E-03    -63.9564E-03     116.381E-03    -52.0164E-03     92.0816E-03
            2099     14.5321E-03     20.3610E-03    -13.8563E+06     114.108E+06     65.1217E+06     576.833E+03    -61.6429E-03     113.316E-03    -51.6732E-03     97.2579E-03    -62.9668E-03     114.807E-03    -51.4929E-03     96.0320E-03
            2100     13.6841E-03     20.2559E-03    -18.3108E+06     101.912E+06     33.2605E+06     839.597E+03    -60.7985E-03     111.818E-03    -51.0190E-03     98.9233E-03    -61.9995E-03     113.219E-03    -50.9740E-03     97.7071E-03
            2101     12.8363E-03     20.1586E-03    -21.3416E+06     57.6598E+06     8.44322E+06     2.02792E+06    -59.3094E-03     109.762E-03    -50.4530E-03     88.9045E-03    -60.1986E-03     110.756E-03    -50.4634E-03     87.8443E-03
            2102     11.9858E-03     20.0737E-03    -23.5139E+06    -139.143E+03     2.71605E+06     2.76692E+06    -57.9128E-03     107.929E-03    -50.0166E-03     78.7903E-03    -58.5149E-03     108.440E-03    -49.9687E-03     77.9191E-03
            2103     11.1355E-03     19.9968E-03    -25.6555E+06    -36.7586E+06    -536.052E+03     2.44434E+06    -56.7247E-03     106.298E-03    -49.5735E-03     71.9019E-03    -57.1457E-03     106.499E-03    -49.4857E-03     71.1777E-03
            2104     10.2834E-03     19.9254E-03    -27.6650E+06    -62.6225E+06    -2.30063E+06     2.39715E+06    -55.5236E-03     104.657E-03    -49.1335E-03     66.8264E-03    -55.8214E-03     104.641E-03    -49.0141E-03     66.2326E-03
            2105     9.43106E-03     19.8588E-03    -29.9077E+06    -81.7339E+06    -3.89307E+06     2.54407E+06    -54.3615E-03     103.060E-03    -48.6988E-03     61.6200E-03    -54.5721E-03     102.886E-03    -48.5564E-03     61.1388E-03
            2106     8.57737E-03     19.7977E-03    -32.6272E+06    -96.4114E+06    -5.75970E+06     2.70187E+06    -53.1480E-03     101.421E-03    -48.2735E-03     56.0551E-03    -53.2958E-03     101.128E-03    -48.1151E-03     55.6720E-03
            2107     7.72286E-03     19.7423E-03    -35.8230E+06    -109.353E+06    -7.96843E+06     2.95867E+06    -51.9511E-03     99.8182E-03    -47.8671E-03     50.3681E-03    -52.0538E-03     99.4287E-03    -47.6964E-03     50.0699E-03
            2108     6.86741E-03     19.6928E-03    -39.5021E+06    -118.581E+06    -12.7688E+06     3.04524E+06    -50.8262E-03     98.2947E-03    -47.4685E-03     44.7565E-03    -50.8983E-03     97.8427E-03    -47.3031E-03     44.5273E-03
            2109     6.01124E-03     19.6484E-03    -43.2680E+06    -125.472E+06    -19.1921E+06     3.19029E+06    -49.7290E-03     96.8180E-03    -47.0890E-03     39.1481E-03    -49.7799E-03     96.3255E-03    -46.9403E-03     38.9775E-03
            2110     5.15415E-03     19.6107E-03    -47.1352E+06    -132.896E+06    -26.4095E+06     3.22229E+06    -48.7155E-03     95.4601E-03    -46.7446E-03     33.5261E-03    -48.7493E-03     94.9314E-03    -46.6156E-03     33.4032E-03
            2111     4.29622E-03     19.5779E-03    -51.0786E+06    -140.041E+06    -33.9900E+06     3.09014E+06    -47.8452E-03     94.2839E-03    -46.4387E-03     27.9426E-03    -47.8666E-03     93.7255E-03    -46.3315E-03     27.8569E-03
            2112     3.43790E-03     19.5516E-03    -54.7482E+06    -146.503E+06    -42.1345E+06     2.76867E+06    -47.0909E-03     93.2624E-03    -46.1715E-03     22.3545E-03    -47.1020E-03     92.6812E-03    -46.0903E-03     22.2971E-03
            2113     2.57893E-03     19.5306E-03    -58.0635E+06    -152.151E+06    -50.1197E+06     2.20109E+06    -46.4939E-03     92.4419E-03    -45.9480E-03     16.8094E-03    -46.4968E-03     91.8439E-03    -45.8938E-03     16.7721E-03
            2114     1.71960E-03     19.5158E-03    -60.7418E+06    -156.738E+06    -56.4842E+06     1.59379E+06    -46.0262E-03     91.8055E-03    -45.7793E-03     11.3157E-03    -46.0233E-03     91.1943E-03    -45.7464E-03     11.2941E-03
            2115     859.708E-06     19.5066E-03    -62.4083E+06    -156.075E+06    -61.2103E+06     940.567E+03    -45.7290E-03     91.3974E-03    -45.6684E-03     6.12449E-03    -45.7267E-03     90.7971E-03    -45.6577E-03     6.11451E-03
            2116     16.2267E-03     19.4846E-03    -4.67459E+06     123.404E+06     85.7238E+06     766.872E+03    -63.8800E-03     116.649E-03    -52.7695E-03     67.5769E-03    -64.8683E-03     117.811E-03    -52.5130E-03     66.6666E-03
            2117     15.3798E-03     19.3908E-03    -8.57202E+06     122.547E+06     82.5982E+06     302.061E+03    -63.0217E-03     115.216E-03    -52.1943E-03     90.6869E-03    -64.3597E-03     116.719E-03    -51.9465E-03     89.4917E-03
            2118     14.5334E-03     19.3004E-03    -13.7912E+06     113.735E+06     64.6088E+06     923.990E+03    -62.0383E-03     113.606E-03    -51.5676E-03     95.1631E-03    -63.3360E-03     115.071E-03    -51.3894E-03     93.9368E-03
            2119     13.6869E-03     19.1960E-03    -18.2360E+06     100.955E+06     32.3667E+06     1.97478E+06    -60.9354E-03     111.820E-03    -50.8846E-03     96.9625E-03    -62.1114E-03     113.196E-03    -50.8427E-03     95.7662E-03
            2120     12.8376E-03     19.1027E-03    -21.9421E+06     56.8150E+06     6.96961E+06     2.72345E+06    -59.3839E-03     109.680E-03    -50.2961E-03     87.2608E-03    -60.2565E-03     110.656E-03    -50.3118E-03     86.2170E-03
            2121     11.9883E-03     19.0184E-03    -24.0514E+06     801.250E+03     2.23046E+06     2.54778E+06    -58.0244E-03     107.865E-03    -49.8405E-03     77.3881E-03    -58.6189E-03     108.370E-03    -49.7956E-03     76.5203E-03
            2122     11.1373E-03     18.9439E-03    -25.4327E+06    -36.1598E+06    -921.089E+03     2.26238E+06    -56.7645E-03     106.139E-03    -49.3744E-03     70.3252E-03    -57.1746E-03     106.333E-03    -49.2897E-03     69.6070E-03
            2123     10.2860E-03     18.8741E-03    -27.2555E+06    -62.6832E+06    -2.76170E+06     2.44152E+06    -55.5858E-03     104.496E-03    -48.9102E-03     65.2779E-03    -55.8734E-03     104.472E-03    -48.7936E-03     64.6915E-03
            2124     9.43311E-03     18.8091E-03    -29.5357E+06    -81.5466E+06    -4.29823E+06     2.78019E+06    -54.3921E-03     102.839E-03    -48.4470E-03     59.9489E-03    -54.5939E-03     102.659E-03    -48.3075E-03     59.4781E-03
            2125     8.57972E-03     18.7498E-03    -32.2452E+06    -96.4072E+06    -6.41539E+06     3.11863E+06    -53.1626E-03     101.152E-03    -47.9889E-03     54.2502E-03    -53.3020E-03     100.853E-03    -47.8345E-03     53.8800E-03
            2126     7.72514E-03     18.6961E-03    -35.3920E+06    -109.047E+06    -8.37499E+06     3.46390E+06    -51.9334E-03     99.4807E-03    -47.5473E-03     48.4939E-03    -52.0293E-03     99.0882E-03    -47.3797E-03     48.2092E-03
            2127     6.86986E-03     18.6478E-03    -38.9134E+06    -117.995E+06    -13.1457E+06     3.68503E+06    -50.6961E-03     97.8090E-03    -47.1129E-03     42.8576E-03    -50.7621E-03     97.3561E-03    -46.9511E-03     42.6436E-03
            2128     6.01335E-03     18.6055E-03    -42.7189E+06    -125.043E+06    -19.6144E+06     3.76345E+06    -49.5189E-03     96.2211E-03    -46.7023E-03     37.2836E-03    -49.5642E-03     95.7278E-03    -46.5571E-03     37.1269E-03
            2129     5.15608E-03     18.5685E-03    -46.5993E+06    -132.106E+06    -26.4766E+06     3.90298E+06    -48.4773E-03     94.8046E-03    -46.3272E-03     31.7740E-03    -48.5075E-03     94.2772E-03    -46.2005E-03     31.6654E-03
            2130     4.29828E-03     18.5373E-03    -50.4493E+06    -138.797E+06    -34.0093E+06     3.73504E+06    -47.5175E-03     93.5072E-03    -45.9897E-03     26.3613E-03    -47.5362E-03     92.9527E-03    -45.8853E-03     26.2887E-03
            2131     3.43938E-03     18.5117E-03    -54.0550E+06    -145.020E+06    -42.0142E+06     3.26984E+06    -46.6909E-03     92.3890E-03    -45.6980E-03     21.0360E-03    -46.7001E-03     91.8132E-03    -45.6195E-03     20.9890E-03
            2132     2.58011E-03     18.4918E-03    -57.2276E+06    -150.243E+06    -49.4907E+06     2.68273E+06    -46.0314E-03     91.4914E-03    -45.4600E-03     15.7655E-03    -46.0333E-03     90.9003E-03    -45.4066E-03     15.7373E-03
            2133     1.72029E-03     18.4775E-03    -59.9101E+06    -154.677E+06    -55.7140E+06     1.86705E+06    -45.5484E-03     90.8281E-03    -45.2796E-03     10.5479E-03    -45.5453E-03     90.2247E-03    -45.2470E-03     10.5317E-03
            2134     860.376E-06     18.4689E-03    -61.9699E+06    -154.104E+06    -60.6280E+06     1.10435E+06    -45.2757E-03     90.3819E-03    -45.1062E-03     5.72206E-03    -45.2749E-03     89.7899E-03    -45.0961E-03     5.71518E-03
            2135     16.2252E-03     18.4190E-03    -4.72047E+06     122.850E+06     85.5987E+06     207.836E+03    -64.6695E-03     117.418E-03    -52.7482E-03     65.8311E-03    -65.6376E-03     118.557E-03    -52.4914E-03     64.8993E-03
            2136     15.3814E-03     18.3280E-03    -8.68646E+06     121.832E+06     82.3199E+06     870.066E+03    -63.5821E-03     115.714E-03    -52.1316E-03     89.0336E-03    -64.8912E-03     117.186E-03    -51.8841E-03     87.8368E-03
            2137     14.5359E-03     18.2382E-03    -13.9760E+06     112.888E+06     63.7373E+06     1.96546E+06    -62.2469E-03     113.720E-03    -51.4735E-03     93.6087E-03    -63.5148E-03     115.155E-03    -51.2983E-03     92.4019E-03
            2138     13.6876E-03     18.1382E-03    -18.9629E+06     99.7572E+06     31.4687E+06     2.97255E+06    -60.9594E-03     111.735E-03    -50.7756E-03     95.3570E-03    -62.1096E-03     113.081E-03    -50.7355E-03     94.1863E-03
            2139     12.8395E-03     18.0451E-03     -21.369E+06     57.5401E+06     7.30817E+06     2.92386E+06    -59.5896E-03     109.759E-03    -50.1699E-03     85.5904E-03    -60.4428E-03     110.720E-03    -50.1858E-03     84.5555E-03
            2140     11.9899E-03     17.9639E-03    -22.7986E+06     2.02813E+06     2.27561E+06     2.24988E+06    -58.2398E-03     107.923E-03    -49.6831E-03     75.6084E-03    -58.8164E-03     108.419E-03    -49.6416E-03     74.7427E-03
            2141     11.1395E-03     17.8907E-03    -24.7261E+06    -35.9628E+06    -1.35878E+06     2.26874E+06    -56.9937E-03     106.178E-03    -49.1839E-03     68.5567E-03    -57.3886E-03     106.361E-03    -49.1027E-03     67.8455E-03
            2142     10.2879E-03     17.8228E-03    -26.7997E+06    -62.8990E+06    -3.42459E+06     2.64821E+06    -55.8736E-03     104.551E-03    -48.6777E-03     63.2156E-03    -56.1484E-03     104.518E-03    -48.5648E-03     62.6374E-03
            2143     9.43574E-03     17.7596E-03    -29.1715E+06    -81.5710E+06    -4.76837E+06     3.13580E+06    -54.6405E-03     102.805E-03    -48.1646E-03     57.5407E-03    -54.8313E-03     102.617E-03    -48.0279E-03     57.0814E-03
            2144     8.58225E-03     17.7020E-03    -31.9120E+06    -96.3136E+06    -7.04203E+06     3.63625E+06    -53.3371E-03     100.987E-03    -47.6498E-03     51.5745E-03    -53.4667E-03     100.682E-03    -47.4991E-03     51.2189E-03
            2145     7.72811E-03     17.6499E-03    -35.0514E+06    -109.024E+06    -9.26861E+06     4.03804E+06    -51.9799E-03     99.1301E-03    -47.1502E-03     45.7314E-03    -52.0668E-03     98.7324E-03    -46.9876E-03     45.4626E-03
            2146     6.87257E-03     17.6036E-03    -38.4764E+06    -117.454E+06    -13.7189E+06     4.29167E+06    -50.6315E-03     97.2924E-03    -46.6610E-03     40.0567E-03    -50.6903E-03     96.8376E-03    -46.5035E-03     39.8592E-03
            2147     6.01624E-03     17.5627E-03    -42.1197E+06    -124.411E+06    -19.9502E+06     4.55017E+06    -49.3477E-03     95.5441E-03    -46.1964E-03     34.5761E-03    -49.3866E-03     95.0498E-03    -46.0547E-03     34.4379E-03
            2148     5.15895E-03     17.5273E-03    -45.8983E+06    -131.214E+06    -26.6668E+06     4.63666E+06    -48.1432E-03     93.9162E-03    -45.7730E-03     29.2974E-03    -48.1681E-03     93.3898E-03    -45.6496E-03     29.2058E-03
            2149     4.30043E-03     17.4974E-03    -49.6493E+06    -137.246E+06    -33.8546E+06     4.42485E+06    -47.0890E-03     92.4845E-03    -45.3956E-03     24.1735E-03    -47.1043E-03     91.9346E-03    -45.2939E-03     24.1164E-03
            2150     3.44154E-03     17.4730E-03    -53.2590E+06    -143.084E+06    -41.7185E+06     3.91153E+06    -46.1787E-03     91.2465E-03    -45.0679E-03     19.1765E-03    -46.1859E-03     90.6777E-03    -44.9918E-03     19.1430E-03
            2151     2.58174E-03     17.4540E-03    -56.4067E+06    -148.125E+06    -48.7922E+06     3.10410E+06    -45.4153E-03     90.2215E-03    -44.8063E-03     14.3059E-03    -45.4165E-03     89.6381E-03    -44.7536E-03     14.2871E-03
            2152     1.72149E-03     17.4404E-03    -58.9577E+06    -152.277E+06    -54.6216E+06     2.18678E+06    -44.8933E-03     89.5082E-03    -44.6149E-03     9.61410E-03    -44.8902E-03     88.9136E-03    -44.5817E-03     9.60471E-03
            2153     860.784E-06     17.4321E-03    -60.8142E+06    -151.646E+06    -59.4423E+06     1.17722E+06    -44.5981E-03     89.0424E-03    -44.4443E-03     5.19594E-03    -44.5968E-03     88.4593E-03    -44.4334E-03     5.19138E-03
            2154     16.2260E-03     17.3521E-03    -4.44356E+06     122.342E+06     85.2951E+06    -103.040E+03    -64.9986E-03     117.749E-03    -52.7503E-03     64.2607E-03    -65.9435E-03     118.865E-03    -52.4947E-03     63.3144E-03
            2155     15.3818E-03     17.2633E-03    -9.82511E+06     120.093E+06     80.9922E+06     1.08327E+06    -64.0541E-03     116.162E-03    -52.1076E-03     87.1719E-03    -65.3334E-03     117.598E-03    -51.8625E-03     85.9710E-03
            2156     14.5355E-03     17.1775E-03    -14.6437E+06     111.579E+06     63.5816E+06     2.76718E+06    -62.6046E-03     114.030E-03    -51.4251E-03     91.8118E-03    -63.8431E-03     115.428E-03    -51.2478E-03     90.6186E-03
            2157     13.6891E-03     17.0786E-03    -17.9292E+06     100.209E+06     33.2181E+06     2.94542E+06    -61.3734E-03     112.074E-03    -50.7004E-03     93.3968E-03    -62.4947E-03     113.391E-03    -50.6537E-03     92.2277E-03
            2158     12.8407E-03     16.9882E-03    -19.8691E+06     58.5990E+06     8.22764E+06     2.50479E+06    -59.9996E-03     110.051E-03    -50.0517E-03     83.5914E-03    -60.8278E-03     110.993E-03    -50.0667E-03     82.5537E-03
            2159     11.9917E-03     16.9086E-03    -21.9080E+06     2.48952E+06     1.89489E+06     2.64386E+06    -58.7392E-03     108.253E-03    -49.5140E-03     73.1353E-03    -59.2946E-03     108.734E-03    -49.4764E-03     72.2769E-03
            2160     11.1415E-03     16.8377E-03    -24.1607E+06    -35.9916E+06    -1.72775E+06     2.85922E+06    -57.5902E-03     106.545E-03    -48.9550E-03     65.8061E-03    -57.9678E-03     106.714E-03    -48.8764E-03     65.1046E-03
            2161     10.2908E-03     16.7711E-03    -26.4601E+06    -63.0357E+06    -3.96218E+06     3.03559E+06    -56.4822E-03     104.854E-03    -48.3721E-03     59.9936E-03    -56.7417E-03     104.808E-03    -48.2621E-03     59.4246E-03
            2162     9.43898E-03     16.7101E-03    -28.8530E+06    -81.6934E+06    -5.14997E+06     3.58480E+06    -55.1945E-03     102.965E-03    -47.7706E-03     53.8488E-03    -55.3713E-03     102.764E-03    -47.6360E-03     53.4024E-03
            2163     8.58637E-03     16.6542E-03    -31.4673E+06    -96.3621E+06    -7.41498E+06     4.20542E+06    -53.6885E-03     100.850E-03    -47.1612E-03     47.5553E-03    -53.8048E-03     100.534E-03    -47.0129E-03     47.2172E-03
            2164     7.73212E-03     16.6044E-03    -34.4647E+06    -108.724E+06    -9.94901E+06     4.71438E+06    -52.1084E-03     98.6765E-03    -46.5680E-03     41.5405E-03    -52.1829E-03     98.2716E-03    -46.4102E-03     41.2929E-03
            2165     6.87700E-03     16.5597E-03    -37.8827E+06    -117.076E+06    -14.3575E+06     5.02615E+06    -50.5624E-03     96.5545E-03    -45.9920E-03     35.9429E-03    -50.6109E-03     96.0946E-03    -45.8391E-03     35.7676E-03
            2166     6.02055E-03     16.5208E-03    -41.4544E+06    -123.784E+06    -20.0994E+06     5.32935E+06    -49.0573E-03     94.5069E-03    -45.4496E-03     30.6694E-03    -49.0884E-03     94.0097E-03    -45.3105E-03     30.5534E-03
            2167     5.16275E-03     16.4872E-03    -45.0912E+06    -129.949E+06    -26.6885E+06     5.42147E+06    -47.6602E-03     92.6163E-03    -44.9561E-03     25.7368E-03    -47.6791E-03     92.0912E-03    -44.8357E-03     25.6666E-03
            2168     4.30424E-03     16.4588E-03    -48.7319E+06    -135.508E+06    -33.7515E+06     5.13545E+06    -46.4267E-03     90.9479E-03    -44.5212E-03     21.0483E-03    -46.4376E-03     90.4026E-03    -44.4228E-03     21.0098E-03
            2169     3.44448E-03     16.4356E-03    -52.0855E+06    -140.782E+06    -40.9455E+06     4.49734E+06    -45.3668E-03     89.5215E-03    -44.1547E-03     16.6112E-03    -45.3711E-03     88.9597E-03    -44.0797E-03     16.5929E-03
            2170     2.58409E-03     16.4178E-03    -55.0622E+06    -145.523E+06    -47.6822E+06     3.51268E+06    -44.5359E-03     88.4014E-03    -43.8655E-03     12.4014E-03    -44.5349E-03     87.8265E-03    -43.8130E-03     12.3936E-03
            2171     1.72298E-03     16.4049E-03    -57.5960E+06    -149.524E+06    -53.5543E+06     2.37929E+06    -43.9454E-03     87.6024E-03    -43.6570E-03     8.32299E-03    -43.9406E-03     87.0176E-03    -43.6245E-03     8.31980E-03
            2172     861.629E-06     16.3970E-03    -59.3769E+06    -148.876E+06    -58.1654E+06     1.20615E+06    -43.6235E-03     87.1191E-03    -43.4955E-03     4.41127E-03    -43.6208E-03     86.5456E-03    -43.4844E-03     4.40902E-03
            2173     16.2250E-03     16.2841E-03    -4.14672E+06     121.740E+06     84.7729E+06     798.460E+03    -65.3207E-03     118.087E-03    -52.7663E-03     62.6867E-03    -66.2325E-03     119.171E-03    -52.5130E-03     61.7533E-03
            2174     15.3811E-03     16.1998E-03    -10.6905E+06     118.564E+06     80.1126E+06     1.48416E+06    -64.5255E-03     116.626E-03    -52.1006E-03     84.3785E-03    -65.7623E-03     118.014E-03    -51.8565E-03     83.1805E-03
            2175     14.5366E-03     16.1146E-03    -14.7553E+06     110.946E+06     64.3369E+06     1.40408E+06    -63.2637E-03     114.648E-03    -51.3846E-03     88.8552E-03    -64.4678E-03     116.007E-03    -51.2024E-03     87.6374E-03
            2176     13.6898E-03     16.0196E-03    -17.1820E+06     100.151E+06     34.1212E+06     1.81664E+06    -62.1096E-03     112.715E-03    -50.6054E-03     90.5437E-03    -63.1989E-03     114.000E-03    -50.5551E-03     89.3518E-03
            2177     12.8424E-03     15.9302E-03    -19.6860E+06     58.6327E+06     7.89016E+06     2.96642E+06    -60.9033E-03     110.786E-03    -49.8824E-03     80.3040E-03    -61.7044E-03     111.702E-03    -49.8994E-03     79.2649E-03
            2178     11.9942E-03     15.8531E-03    -22.1386E+06     2.81335E+06     1.30955E+06     3.35664E+06    -59.7780E-03     109.032E-03    -49.2536E-03     69.1926E-03    -60.3110E-03     109.492E-03    -49.2190E-03     68.3388E-03
            2179     11.1454E-03     15.7836E-03    -24.2481E+06    -35.5843E+06    -1.95627E+06     3.29990E+06    -58.6819E-03     107.266E-03    -48.5839E-03     61.2641E-03    -59.0397E-03     107.417E-03    -48.5069E-03     60.5674E-03
            2180     10.2954E-03     15.7193E-03    -26.2476E+06    -62.7612E+06    -4.18269E+06     3.56408E+06    -57.4448E-03     105.317E-03    -47.8725E-03     54.8429E-03    -57.6836E-03     105.252E-03    -47.7644E-03     54.2879E-03
            2181     9.44469E-03     15.6599E-03    -28.4691E+06    -82.0312E+06    -5.46506E+06     3.99363E+06    -55.9151E-03     103.051E-03    -47.1360E-03     48.1896E-03    -56.0714E-03     102.831E-03    -47.0031E-03     47.7615E-03
            2182     8.59245E-03     15.6068E-03    -30.9409E+06    -96.5721E+06    -7.61111E+06     4.70814E+06    -54.1340E-03     100.525E-03    -46.3909E-03     41.6840E-03    -54.2323E-03     100.193E-03    -46.2441E-03     41.3690E-03
            2183     7.73907E-03     15.5591E-03    -33.8207E+06    -108.449E+06    -10.2332E+06     5.40252E+06    -52.2186E-03     97.8841E-03    -45.6655E-03     35.7533E-03    -52.2781E-03     97.4684E-03    -45.5104E-03     35.5327E-03
            2184     6.88382E-03     15.5171E-03    -37.1130E+06    -116.508E+06    -14.5388E+06     5.83600E+06    -50.3041E-03     95.2762E-03    -44.9721E-03     30.4713E-03    -50.3405E-03     94.8095E-03    -44.8221E-03     30.3246E-03
            2185     6.02710E-03     15.4802E-03    -40.5811E+06    -122.977E+06    -20.0108E+06     6.06226E+06    -48.5070E-03     92.8366E-03    -44.3295E-03     25.6198E-03    -48.5288E-03     92.3358E-03    -44.1924E-03     25.5296E-03
            2186     5.16918E-03     15.4487E-03    -44.1022E+06    -128.459E+06    -26.2552E+06     6.14646E+06    -46.8455E-03     90.5974E-03    -43.7518E-03     21.3061E-03    -46.8582E-03     90.0735E-03    -43.6329E-03     21.2592E-03
            2187     4.30961E-03     15.4220E-03    -47.4251E+06    -133.424E+06    -33.0838E+06     5.72887E+06    -45.3706E-03     88.6238E-03    -43.2533E-03     17.3560E-03    -45.3762E-03     88.0833E-03    -43.1564E-03     17.3369E-03
            2188     3.44908E-03     15.4006E-03    -50.4902E+06    -138.326E+06    -40.0491E+06     4.95584E+06    -44.1740E-03     87.0171E-03    -42.8431E-03     13.6279E-03    -44.1736E-03     86.4624E-03    -42.7696E-03     13.6246E-03
            2189     2.58749E-03     15.3837E-03    -53.2370E+06    -142.505E+06    -46.5990E+06     3.96505E+06    -43.2736E-03     85.7927E-03    -42.5191E-03     10.1259E-03    -43.2686E-03     85.2278E-03    -42.4683E-03     10.1305E-03
            2190     1.72549E-03     15.3718E-03    -55.6012E+06    -146.442E+06    -52.1895E+06     2.69273E+06    -42.6302E-03     84.9085E-03    -42.2783E-03     6.74825E-03    -42.6216E-03     84.3338E-03    -42.2463E-03     6.75342E-03
            2191     862.780E-06     15.3643E-03    -57.3345E+06    -145.921E+06    -56.2936E+06     1.38602E+06    -42.2397E-03     84.3309E-03    -42.0911E-03     3.61827E-03    -42.2337E-03     83.7664E-03    -42.0779E-03     3.62060E-03
            2192     16.2250E-03     15.2182E-03    -4.37242E+06     120.934E+06     84.2187E+06     1.50472E+06    -66.2913E-03     119.067E-03    -52.7753E-03     60.2618E-03    -67.1703E-03     120.115E-03    -52.5232E-03     59.3302E-03
            2193     15.3820E-03     15.1327E-03    -9.00452E+06     119.651E+06     81.7055E+06     1.45095E+06    -65.3033E-03     117.366E-03    -52.0629E-03     81.0204E-03    -66.4939E-03     118.713E-03    -51.8148E-03     79.8079E-03
            2194     14.5374E-03     15.0531E-03    -13.7326E+06     111.037E+06     64.5163E+06     496.975E+03    -64.2457E-03     115.527E-03    -51.2812E-03     85.0752E-03    -65.4076E-03     116.847E-03    -51.0997E-03     83.8241E-03
            2195     13.6920E-03     14.9581E-03    -18.1383E+06     98.1497E+06     32.7777E+06     1.65208E+06    -63.4534E-03     113.865E-03    -50.4120E-03     86.4390E-03    -64.5058E-03     115.107E-03    -50.3642E-03     85.2215E-03
            2196     12.8462E-03     14.8721E-03    -21.0058E+06     58.0855E+06     6.95055E+06     3.34269E+06    -62.5086E-03     112.076E-03    -49.5673E-03     75.4125E-03    -63.2804E-03     112.959E-03    -49.5863E-03     74.3581E-03
            2197     11.9995E-03     14.7958E-03    -22.7464E+06     3.67129E+06     558.159E+03     3.57947E+06    -61.4325E-03     110.218E-03    -48.7850E-03     63.5647E-03    -61.9368E-03     110.653E-03    -48.7546E-03     62.7048E-03
            2198     11.1521E-03     14.7291E-03    -24.3303E+06    -34.9458E+06    -2.13858E+06     3.48889E+06    -60.2164E-03     108.162E-03    -47.9455E-03     54.9612E-03    -60.5465E-03     108.288E-03    -47.8703E-03     54.2689E-03
            2199     10.3039E-03     14.6664E-03    -26.1710E+06    -62.5613E+06    -4.43929E+06     3.87581E+06    -58.6488E-03     105.701E-03    -47.0518E-03     47.9631E-03    -58.8613E-03     105.611E-03    -46.9453E-03     47.4249E-03
            2200     9.45406E-03     14.6104E-03    -28.2247E+06    -82.2760E+06    -5.69759E+06     4.35708E+06    -56.6397E-03     102.777E-03    -46.1375E-03     41.0174E-03    -56.7725E-03     102.535E-03    -46.0058E-03     40.6142E-03
            2201     8.60272E-03     14.5595E-03    -30.6405E+06    -96.7932E+06    -7.71457E+06     5.08037E+06    -54.4077E-03     99.6343E-03    -45.2266E-03     34.6106E-03    -54.4872E-03     99.2841E-03    -45.0804E-03     34.3236E-03
            2202     7.74926E-03     14.5153E-03    -33.3882E+06    -108.367E+06    -10.3086E+06     5.90032E+06    -52.0791E-03     96.4267E-03    -44.3476E-03     28.9779E-03    -52.1242E-03     95.9986E-03    -44.1936E-03     28.7863E-03
            2203     6.89396E-03     14.4759E-03    -36.4441E+06    -115.882E+06    -14.3943E+06     6.51826E+06    -49.7206E-03     93.2402E-03    -43.5196E-03     24.1932E-03    -49.7459E-03     92.7666E-03    -43.3707E-03     24.0765E-03
            2204     6.03678E-03     14.4419E-03    -39.7329E+06    -121.926E+06    -19.8242E+06     6.78691E+06    -47.5267E-03     90.2938E-03    -42.7671E-03     20.1076E-03    -47.5400E-03     89.7907E-03    -42.6318E-03     20.0454E-03
            2205     5.17758E-03     14.4127E-03    -42.9456E+06    -126.778E+06    -25.8193E+06     6.63146E+06    -45.5811E-03     87.6853E-03    -42.1042E-03     16.4838E-03    -45.5871E-03     87.1635E-03    -41.9872E-03     16.4586E-03
            2206     4.31703E-03     14.3884E-03    -46.0743E+06    -131.103E+06    -32.2639E+06     6.19243E+06    -43.9054E-03     85.4450E-03    -41.5396E-03     13.2923E-03    -43.9063E-03     84.9103E-03    -41.4440E-03     13.2917E-03
            2207     3.45505E-03     14.3683E-03    -48.9753E+06    -135.543E+06    -39.2036E+06      5.3865E+06    -42.5826E-03     83.6561E-03    -41.0735E-03     10.3647E-03    -42.5784E-03     83.1103E-03    -41.0020E-03     10.3766E-03
            2208     2.59229E-03     14.3530E-03    -51.4392E+06    -139.380E+06    -45.5026E+06     4.34565E+06    -41.5590E-03     82.2642E-03    -40.7052E-03     7.65429E-03    -41.5504E-03     81.7098E-03    -40.6560E-03     7.67078E-03
            2209     1.72850E-03     14.3417E-03    -53.4088E+06    -143.042E+06    -50.3623E+06     3.08629E+06    -40.8284E-03     81.2649E-03    -40.4365E-03     5.09172E-03    -40.8161E-03     80.7009E-03    -40.4034E-03     5.10664E-03
            2210     864.551E-06     14.3351E-03    -54.8203E+06    -142.572E+06    -53.9138E+06     1.55967E+06    -40.3719E-03     80.6268E-03    -40.2549E-03     2.73471E-03    -40.3615E-03     80.0718E-03    -40.2382E-03     2.74187E-03
            2211     16.2256E-03     14.1481E-03    -4.73853E+06     120.543E+06     84.3102E+06     810.527E+03    -68.1060E-03     120.868E-03    -52.7619E-03     57.2197E-03    -68.9620E-03     121.891E-03    -52.5082E-03     56.2457E-03
            2212     15.3833E-03     14.0681E-03    -7.75409E+06     120.230E+06     82.8388E+06     783.568E+03    -66.7350E-03     118.691E-03    -51.9555E-03     77.0645E-03    -67.8812E-03     119.996E-03    -51.7044E-03     75.8061E-03
            2213     14.5403E-03     13.9878E-03    -13.2503E+06     110.505E+06     64.6039E+06     1.64017E+06    -65.8032E-03     116.873E-03    -51.0695E-03     80.7595E-03    -66.9187E-03     118.146E-03    -50.8875E-03     79.4900E-03
            2214     13.6969E-03     13.8971E-03    -18.3160E+06     96.8786E+06     32.3863E+06     2.68633E+06    -65.5842E-03     115.646E-03    -50.0619E-03     81.9142E-03    -66.5942E-03     116.841E-03    -50.0139E-03     80.6705E-03
            2215     12.8527E-03     13.8107E-03    -21.2137E+06     58.0336E+06     6.55342E+06     3.39013E+06    -64.8991E-03     113.930E-03    -49.0304E-03     69.7656E-03    -65.6306E-03     114.773E-03    -49.0511E-03     68.6819E-03
            2216     12.0086E-03     13.7384E-03    -22.7072E+06     4.97137E+06     267.417E+03     3.35578E+06    -63.6260E-03     111.658E-03    -48.0318E-03     56.9131E-03    -64.0939E-03     112.062E-03    -48.0047E-03     56.0404E-03
            2217     11.1632E-03     13.6727E-03    -24.2658E+06    -34.8173E+06    -2.56569E+06     3.52606E+06    -61.9615E-03     108.932E-03    -46.9702E-03     47.8141E-03    -62.2586E-03     109.027E-03    -46.8973E-03     47.1295E-03
            2218     10.3163E-03     13.6141E-03    -25.9916E+06    -62.6063E+06    -4.52290E+06     4.05593E+06    -59.8173E-03     105.678E-03    -45.8609E-03     40.3461E-03    -60.0023E-03     105.562E-03    -45.7550E-03     39.8281E-03
            2219     9.46760E-03     13.5606E-03    -28.1098E+06    -82.1045E+06    -5.67301E+06     4.65709E+06    -57.1780E-03     101.924E-03    -44.7457E-03     33.4364E-03    -57.2899E-03     101.661E-03    -44.6142E-03     33.0615E-03
            2220     8.61637E-03     13.5143E-03    -30.5790E+06    -97.0937E+06    -7.69594E+06     5.45962E+06    -54.3672E-03     98.0235E-03    -43.6563E-03     27.3472E-03    -54.4308E-03     97.6565E-03    -43.5097E-03     27.0909E-03
            2221     7.76297E-03     13.4728E-03    -33.3157E+06    -108.291E+06    -10.2515E+06     6.28946E+06    -51.5321E-03     94.1530E-03    -42.6209E-03     22.1704E-03    -51.5662E-03     93.7143E-03    -42.4668E-03     22.0083E-03
            2222     6.90720E-03     13.4377E-03    -36.2409E+06    -115.239E+06    -14.2822E+06     6.96129E+06    -48.7509E-03     90.4089E-03    -41.6580E-03     17.9950E-03    -48.7688E-03     89.9306E-03    -41.5098E-03     17.9055E-03
            2223     6.04873E-03     13.4066E-03    -39.1189E+06    -120.607E+06    -19.4400E+06     7.15292E+06    -46.1852E-03     86.9781E-03    -40.7930E-03     14.6396E-03    -46.1929E-03     86.4751E-03    -40.6586E-03     14.6006E-03
            2224     5.18859E-03     13.3803E-03    -41.9687E+06    -125.009E+06    -25.1525E+06     6.88473E+06    -43.9556E-03     83.9940E-03    -40.0384E-03     11.6780E-03    -43.9569E-03     83.4753E-03    -39.9220E-03     11.6712E-03
            2225     4.32646E-03     13.3582E-03    -44.7559E+06    -128.715E+06    -31.2618E+06     6.45782E+06    -42.0885E-03     81.4845E-03    -39.3961E-03     9.28361E-03    -42.0857E-03     80.9564E-03    -39.3008E-03     9.29806E-03
            2226     3.46299E-03     13.3402E-03    -47.3709E+06    -132.586E+06    -37.8298E+06     5.67022E+06    -40.5654E-03     79.4325E-03    -38.8671E-03     7.16379E-03    -40.5584E-03     78.8959E-03    -38.7953E-03     7.18826E-03
            2227     2.59817E-03     13.3261E-03    -49.6736E+06    -136.186E+06    -43.7203E+06     4.55553E+06    -39.3946E-03     77.8513E-03    -38.4568E-03     5.26027E-03    -39.3838E-03     77.3071E-03    -38.4059E-03     5.28599E-03
            2228     1.73272E-03     13.3161E-03    -51.4773E+06    -139.287E+06    -48.4212E+06     3.16566E+06    -38.5723E-03     76.7381E-03    -38.1657E-03     3.51460E-03    -38.5584E-03     76.1869E-03    -38.1312E-03     3.53472E-03
            2229     866.326E-06     13.3099E-03    -52.4551E+06    -138.990E+06    -51.6514E+06     1.54368E+06    -38.1054E-03     76.0749E-03    -37.9695E-03     1.84377E-03    -38.0917E-03     75.5309E-03    -37.9502E-03     1.85297E-03
            2230     16.2256E-03     13.0771E-03    -4.59968E+06     119.892E+06     84.2289E+06    -36.6047E+03    -70.0035E-03     122.708E-03    -52.7048E-03     53.6421E-03    -70.8278E-03     123.698E-03    -52.4508E-03     52.6164E-03
            2231     15.3869E-03     12.9992E-03    -8.52325E+06     118.333E+06     81.9801E+06     863.598E+03    -68.8373E-03     120.616E-03    -51.7788E-03     73.0558E-03    -69.9381E-03     121.869E-03    -51.5282E-03     71.7492E-03
            2232     14.5454E-03     12.9235E-03    -13.4103E+06     109.454E+06     65.2810E+06     2.77332E+06    -68.3902E-03     119.135E-03    -50.7452E-03     77.6328E-03    -69.4675E-03     120.364E-03    -50.5580E-03     76.3223E-03
            2233     13.7035E-03     12.8318E-03    -17.6856E+06     96.8626E+06     34.2848E+06     3.51522E+06    -68.7581E-03     118.292E-03    -49.5341E-03     77.2440E-03    -69.7248E-03     119.441E-03    -49.4775E-03     75.9510E-03
            2234     12.8632E-03     12.7484E-03    -20.3137E+06     58.8591E+06     7.13899E+06     3.49515E+06    -67.8547E-03     116.100E-03    -48.2449E-03     63.3568E-03    -68.5374E-03     116.899E-03    -48.2651E-03     62.2428E-03
            2235     12.0212E-03     12.6781E-03    -22.1775E+06     6.10953E+06    -103.699E+03     3.41982E+06    -66.0312E-03     113.014E-03    -46.9827E-03     49.7821E-03    -66.4590E-03     113.386E-03    -46.9599E-03     48.9039E-03
            2236     11.1779E-03     12.6166E-03    -23.9263E+06    -34.4565E+06    -2.70389E+06     3.63017E+06    -63.6185E-03     109.294E-03    -45.6753E-03     40.3448E-03    -63.8833E-03     109.360E-03    -45.6041E-03     39.6736E-03
            2237     10.3325E-03     12.5612E-03    -25.8101E+06    -62.6594E+06    -4.76765E+06     4.24852E+06    -60.6673E-03     105.009E-03    -44.3421E-03     32.8378E-03    -60.8269E-03     104.869E-03    -44.2377E-03     32.3456E-03
            2238     9.48421E-03     12.5129E-03    -27.9657E+06    -81.8460E+06    -5.41525E+06     5.08221E+06    -57.4013E-03     100.432E-03    -43.0305E-03     26.1662E-03    -57.4957E-03     100.153E-03    -42.8984E-03     25.8227E-03
            2239     8.63323E-03     12.4703E-03    -30.5372E+06    -97.2411E+06    -7.52359E+06     5.87194E+06    -53.9397E-03     95.7092E-03    -41.7695E-03     20.5171E-03    -53.9906E-03     95.3287E-03    -41.6218E-03     20.2923E-03
            2240     7.77925E-03     12.4338E-03    -33.2524E+06    -108.298E+06    -9.83872E+06     6.65418E+06    -50.5371E-03     91.1321E-03    -40.5951E-03     16.0758E-03    -50.5629E-03     90.6842E-03    -40.4390E-03     15.9422E-03
            2241     6.92219E-03     12.4023E-03    -35.8699E+06    -114.318E+06    -13.6837E+06     7.06176E+06    -47.4475E-03     86.9607E-03    -39.5132E-03     12.6297E-03    -47.4603E-03     86.4801E-03    -39.3638E-03     12.5608E-03
            2242     6.06311E-03     12.3751E-03    -38.6004E+06    -119.130E+06    -18.6336E+06     7.05200E+06    -44.5863E-03     83.1283E-03    -38.5420E-03     9.94037E-03    -44.5912E-03     82.6273E-03    -38.4065E-03     9.91529E-03
            2243     5.20110E-03     12.3520E-03    -41.3517E+06    -123.186E+06    -23.9868E+06     6.85383E+06    -42.0518E-03     79.7517E-03    -37.6998E-03     7.88524E-03    -42.0523E-03     79.2374E-03    -37.5812E-03     7.89004E-03
            2244     4.33735E-03     12.3325E-03    -43.8850E+06    -126.370E+06    -30.0785E+06     6.34294E+06    -39.9824E-03     76.9673E-03    -36.9849E-03     6.21895E-03    -39.9792E-03     76.4467E-03    -36.8884E-03     6.24074E-03
            2245     3.47183E-03     12.3167E-03    -46.1515E+06    -129.700E+06    -36.2726E+06     5.51741E+06    -38.2796E-03     74.6790E-03    -36.3995E-03     4.78145E-03    -38.2722E-03     74.1522E-03    -36.3258E-03     4.81044E-03
            2246     2.60504E-03     12.3043E-03    -48.1181E+06    -132.893E+06    -41.8175E+06     4.39155E+06    -36.9709E-03     72.9209E-03    -35.9500E-03     3.52467E-03    -36.9596E-03     72.3878E-03    -35.8966E-03     3.55274E-03
            2247     1.73708E-03     12.2955E-03    -49.5655E+06    -135.414E+06    -46.3810E+06     2.89689E+06    -36.0781E-03     71.7103E-03    -35.6322E-03     2.36859E-03    -36.0631E-03     71.1726E-03    -35.5958E-03     2.38804E-03
            2248     868.852E-06     12.2900E-03    -50.5600E+06    -135.674E+06    -49.6339E+06     1.41455E+06    -35.5816E-03     70.9857E-03    -35.4041E-03     1.24893E-03    -35.5662E-03     70.4526E-03    -35.3822E-03     1.25795E-03
            2249     16.2281E-03     12.0017E-03    -3.46405E+06     119.376E+06     84.2201E+06     25.5365E+03    -71.9295E-03     124.536E-03    -52.6069E-03     50.5186E-03    -72.7129E-03     125.487E-03    -52.3539E-03     49.4656E-03
            2250     15.3893E-03     11.9308E-03    -9.28098E+06     116.455E+06     80.9894E+06     1.36503E+06    -71.4800E-03     123.026E-03    -51.5462E-03     69.8298E-03    -72.5403E-03     124.232E-03    -51.2967E-03     68.4684E-03
            2251     14.5504E-03     11.8542E-03    -13.9803E+06     108.060E+06     65.6106E+06     2.45372E+06    -72.4726E-03     122.776E-03    -50.3033E-03     74.4179E-03    -73.5193E-03     123.966E-03    -50.1116E-03     73.0056E-03
            2252     13.7145E-03     11.7636E-03    -17.2401E+06     96.4621E+06     36.1673E+06     3.46837E+06    -72.7611E-03     121.573E-03    -48.8119E-03     71.8530E-03    -73.6826E-03     122.671E-03    -48.7459E-03     70.4850E-03
            2253     12.8764E-03     11.6835E-03    -19.7729E+06     60.3542E+06     8.39869E+06     3.87384E+06    -70.9871E-03     118.209E-03    -47.2224E-03     56.3751E-03    -71.6249E-03     118.968E-03    -47.2392E-03     55.2364E-03
            2254     12.0373E-03     11.6167E-03    -21.7559E+06     7.55385E+06    -276.267E+03     3.71027E+06    -68.1775E-03     113.860E-03    -45.6826E-03     42.4864E-03    -68.5684E-03     114.202E-03    -45.6634E-03     41.6144E-03
            2255     11.1957E-03     11.5599E-03    -23.6357E+06    -34.1459E+06    -2.66117E+06     3.99299E+06    -64.7851E-03     108.928E-03    -44.1427E-03     33.0456E-03    -65.0212E-03     108.967E-03    -44.0722E-03     32.3984E-03
            2256     10.3508E-03     11.5099E-03    -25.7532E+06    -62.4363E+06    -4.74125E+06     4.71054E+06    -61.0159E-03     103.628E-03    -42.6118E-03     26.1064E-03    -61.1557E-03     103.469E-03    -42.5076E-03     25.6470E-03
            2257     9.50286E-03     11.4664E-03    -28.1304E+06    -82.0131E+06    -5.17991E+06     5.49139E+06    -57.0557E-03     98.1946E-03    -41.1389E-03     20.0219E-03    -57.1375E-03     97.9009E-03    -41.0051E-03     19.7108E-03
            2258     8.65149E-03     11.4294E-03    -30.6074E+06    -96.9393E+06    -6.70722E+06     6.30878E+06    -53.0168E-03     92.7668E-03    -39.7500E-03     15.1582E-03    -53.0609E-03     92.3780E-03    -39.5986E-03     14.9633E-03
            2259     7.79630E-03     11.3981E-03    -33.1855E+06    -107.812E+06    -8.98265E+06     6.66894E+06    -49.2228E-03     87.6951E-03    -38.4723E-03     11.6362E-03    -49.2449E-03     87.2430E-03    -38.3128E-03     11.5226E-03
            2260     6.93842E-03     11.3705E-03    -35.7670E+06    -113.485E+06    -12.6163E+06     6.82531E+06    -45.7719E-03     83.0830E-03    -37.3112E-03     9.02305E-03    -45.7838E-03     82.6018E-03    -37.1578E-03     8.96636E-03
            2261     6.07724E-03     11.3478E-03    -38.4247E+06    -117.645E+06    -17.5925E+06     6.84161E+06    -42.7079E-03     78.9854E-03    -36.2775E-03     7.13912E-03    -42.7139E-03     78.4883E-03    -36.1392E-03     7.12259E-03
            2262     5.21384E-03     11.3281E-03    -41.0652E+06    -121.132E+06    -22.9144E+06     6.50352E+06    -40.0548E-03     75.4350E-03    -35.3802E-03     5.81631E-03    -40.0575E-03     74.9282E-03    -35.2596E-03     5.82447E-03
            2263     4.34806E-03     11.3117E-03    -43.4830E+06    -123.980E+06    -28.8755E+06     5.72983E+06    -37.7954E-03     72.4166E-03    -34.6213E-03     4.68553E-03    -37.7950E-03     71.9053E-03    -34.5228E-03     4.70504E-03
            2264     3.48057E-03     11.2982E-03    -45.5349E+06    -126.961E+06    -34.8466E+06     4.75264E+06    -35.9998E-03     70.0043E-03    -34.0045E-03     3.71940E-03    -35.9952E-03     69.4881E-03    -33.9286E-03     3.74223E-03
            2265     2.61161E-03     11.2877E-03    -47.0381E+06    -129.697E+06    -40.2656E+06     3.64956E+06    -34.6430E-03     68.1670E-03    -33.5240E-03     2.82556E-03    -34.6331E-03     67.6461E-03    -33.4690E-03     2.84644E-03
            2266     1.74174E-03     11.2800E-03    -48.1191E+06    -132.049E+06    -44.8448E+06     2.36822E+06    -33.6759E-03     66.8520E-03    -33.1760E-03     1.92790E-03    -33.6607E-03     66.3268E-03    -33.1390E-03     1.94205E-03
            2267     870.926E-06     11.2752E-03    -48.8177E+06    -132.962E+06    -47.9284E+06     1.11604E+06    -33.1017E-03     66.0511E-03    -32.9495E-03     1.06588E-03    -33.0838E-03     65.5266E-03    -32.9255E-03     1.07182E-03
            2268     16.2299E-03     10.9303E-03    -3.43390E+06     118.544E+06     83.8593E+06     363.649E+03    -75.0431E-03     127.549E-03    -52.5057E-03     48.3703E-03    -75.8051E-03     128.476E-03    -52.2533E-03     47.2585E-03
            2269     15.3930E-03     10.8562E-03    -9.17978E+06     116.048E+06     81.2229E+06     1.73115E+06    -75.9640E-03     127.195E-03    -51.2307E-03     66.9506E-03    -76.9988E-03     128.374E-03    -50.9796E-03     65.4720E-03
            2270     14.5605E-03     10.7810E-03    -14.1977E+06     107.078E+06     65.6869E+06     1.94843E+06    -77.1631E-03     126.861E-03    -49.6984E-03     69.9625E-03    -78.1746E-03     128.013E-03    -49.5046E-03     68.4299E-03
            2271     13.7264E-03     10.6914E-03    -17.9468E+06     95.0873E+06     36.1541E+06     2.86194E+06    -76.6676E-03     124.565E-03    -47.8973E-03     65.7352E-03    -77.5443E-03     125.611E-03    -47.8284E-03     64.2935E-03
            2272     12.8929E-03     10.6163E-03    -19.9358E+06     61.4338E+06     9.25036E+06     3.61656E+06    -73.7272E-03     119.746E-03    -46.0192E-03     49.1569E-03    -74.3257E-03     120.467E-03    -46.0332E-03     47.9954E-03
            2273     12.0555E-03     10.5548E-03    -21.5615E+06     9.21243E+06     146.041E+03     4.22331E+06    -69.5914E-03     113.828E-03    -44.2365E-03     35.6828E-03    -69.9514E-03     114.145E-03    -44.2178E-03     34.8339E-03
            2274     11.2146E-03     10.5041E-03    -23.7946E+06    -33.9260E+06    -2.33879E+06     4.77414E+06    -65.1745E-03     107.690E-03    -42.5150E-03     26.8953E-03    -65.3896E-03     107.707E-03    -42.4430E-03     26.2862E-03
            2275     10.3700E-03     10.4601E-03    -26.2562E+06    -61.9718E+06    -4.04592E+06     5.35638E+06    -60.5869E-03     101.437E-03    -40.8505E-03     20.8492E-03    -60.7163E-03     101.266E-03    -40.7428E-03     20.4280E-03
            2276     9.52135E-03     10.4226E-03    -28.6318E+06    -82.1033E+06    -4.42928E+06     5.82466E+06    -55.8857E-03     95.1773E-03    -39.2916E-03     15.7788E-03    -55.9617E-03     94.8736E-03    -39.1532E-03     15.5006E-03
            2277     8.66838E-03     10.3920E-03    -30.9890E+06    -96.5406E+06    -5.22318E+06     6.39166E+06    -51.5061E-03     89.3626E-03    -37.8565E-03     12.1324E-03    -51.5501E-03     88.9694E-03    -37.6977E-03     11.9605E-03
            2278     7.81236E-03     10.3653E-03    -33.4995E+06    -106.521E+06    -7.47475E+06     6.50867E+06    -47.4985E-03     84.0484E-03    -36.5499E-03     9.67574E-03    -47.5241E-03     83.5989E-03    -36.3843E-03     9.57575E-03
            2279     6.95242E-03     10.3436E-03    -36.3727E+06    -112.692E+06    -11.3881E+06     6.33402E+06    -43.8447E-03     79.2257E-03    -35.3810E-03     7.98173E-03    -43.8618E-03     78.7467E-03    -35.2218E-03     7.93013E-03
            2280     6.08961E-03     10.3244E-03    -38.9739E+06    -116.167E+06    -16.2717E+06     6.24222E+06    -40.7549E-03     75.1075E-03    -34.3527E-03     6.78751E-03    -40.7676E-03     74.6167E-03    -34.2091E-03     6.77083E-03
            2281     5.22436E-03     10.3086E-03    -41.2513E+06    -119.018E+06    -21.5641E+06     5.56529E+06    -38.1270E-03     71.5880E-03    -33.4610E-03     5.85590E-03    -38.1358E-03     71.0903E-03    -33.3364E-03     5.85668E-03
            2282     4.35694E-03     10.2952E-03    -43.3248E+06    -121.598E+06    -27.3350E+06     4.55186E+06    -35.8760E-03     68.5834E-03    -32.7075E-03     5.07759E-03    -35.8807E-03     68.0818E-03    -32.6050E-03     5.08493E-03
            2283     3.48758E-03     10.2842E-03    -45.0598E+06    -124.425E+06    -33.3647E+06     3.48918E+06    -34.0894E-03     66.1832E-03    -32.0938E-03     4.26342E-03    -34.0884E-03     65.6771E-03    -32.0149E-03     4.27183E-03
            2284     2.61694E-03     10.2755E-03    -46.4439E+06    -127.150E+06    -38.9471E+06     2.40728E+06    -32.7513E-03     64.3631E-03    -31.6117E-03     3.36336E-03    -32.7441E-03     63.8523E-03    -31.5547E-03     3.36932E-03
            2285     1.74520E-03     10.2692E-03    -47.3348E+06    -129.513E+06    -43.6683E+06     1.37241E+06    -31.7850E-03     63.0387E-03    -31.2537E-03     2.34283E-03    -31.7712E-03     62.5235E-03    -31.2156E-03     2.34474E-03
            2286     872.882E-06     10.2653E-03    -47.7301E+06    -131.161E+06    -46.7534E+06     593.771E+03    -31.1465E-03     62.1953E-03    -31.0488E-03     1.31608E-03    -31.1274E-03     61.6766E-03    -31.0232E-03     1.31555E-03
            2287     16.2288E-03     9.84883E-03    -4.10026E+06     117.591E+06     83.5253E+06     82.6774E+03    -79.5978E-03     131.955E-03    -52.3574E-03     45.9603E-03    -80.3493E-03     132.867E-03    -52.1043E-03     44.7370E-03
            2288     15.4015E-03     9.77745E-03    -9.19626E+06     115.537E+06     81.6261E+06     1.28538E+06    -81.4435E-03     132.242E-03    -50.7990E-03     63.5160E-03    -82.4573E-03     133.397E-03    -50.5450E-03     61.8783E-03
            2289     14.5708E-03     9.70290E-03    -13.6434E+06     106.895E+06     66.8553E+06     2.33051E+06    -81.6875E-03     130.639E-03    -48.9514E-03     65.7968E-03    -82.6645E-03     131.754E-03    -48.7524E-03     64.1671E-03
            2290     13.7425E-03     9.61656E-03    -17.5122E+06     94.6407E+06     36.7035E+06     2.26414E+06    -79.8317E-03     126.692E-03    -46.8603E-03     59.7004E-03    -80.6610E-03     127.690E-03    -46.7886E-03     58.2113E-03
            2291     12.9098E-03     9.54748E-03    -20.0000E+06     60.9207E+06     8.70242E+06     3.39250E+06    -75.3242E-03     120.072E-03    -44.7480E-03     42.5436E-03    -75.8799E-03     120.749E-03    -44.7638E-03     41.3915E-03
            2292     12.0737E-03     9.49350E-03    -22.5329E+06     9.64150E+06     154.165E+03     5.28964E+06    -69.9100E-03     112.718E-03    -42.8085E-03     30.0547E-03    -70.2474E-03     113.011E-03    -42.7890E-03     29.2544E-03
            2293     11.2326E-03     9.44988E-03    -25.3992E+06    -32.8511E+06    -1.65674E+06     5.85480E+06    -64.4808E-03     105.477E-03    -40.9965E-03     22.7598E-03    -64.6895E-03     105.485E-03    -40.9203E-03     22.2042E-03
            2294     10.3871E-03     9.41259E-03    -27.7171E+06    -61.1976E+06    -2.83133E+06     5.69996E+06    -59.0883E-03     98.3912E-03    -39.3029E-03     17.9005E-03    -59.2184E-03     98.2147E-03    -39.1882E-03     17.5196E-03
            2295     9.53664E-03     9.38285E-03    -29.7819E+06    -81.5489E+06    -2.60548E+06     5.77947E+06    -53.9191E-03     91.6872E-03    -37.7681E-03     14.3067E-03    -53.9998E-03     91.3807E-03    -37.6197E-03     14.0572E-03
            2296     8.68225E-03     9.35742E-03    -32.0990E+06    -96.1743E+06    -3.54573E+06     5.88001E+06    -49.3433E-03     85.7350E-03    -36.3917E-03     12.0642E-03    -49.3944E-03     85.3414E-03    -36.2235E-03     11.9065E-03
            2297     7.82365E-03     9.33706E-03    -34.5337E+06    -105.447E+06    -5.53082E+06     5.92072E+06    -45.3537E-03     80.5212E-03    -35.1675E-03     10.5971E-03    -45.3890E-03     80.0759E-03    -34.9922E-03     10.5033E-03
            2298     6.96203E-03     9.31964E-03    -37.0378E+06    -111.272E+06    -9.40982E+06     5.61660E+06    -41.9394E-03     76.0227E-03    -34.0833E-03     9.64544E-03    -41.9655E-03     75.5498E-03    -33.9153E-03     9.59301E-03
            2299     6.09766E-03     9.30498E-03    -39.4127E+06    -114.512E+06    -14.3661E+06     4.85542E+06    -38.9880E-03     72.1245E-03    -33.1365E-03     8.92573E-03    -39.0089E-03     71.6407E-03    -32.9851E-03     8.89642E-03
            2300     5.23071E-03     9.29241E-03    -41.3640E+06    -116.848E+06    -19.6830E+06     3.82218E+06    -36.5271E-03     68.8534E-03    -32.3263E-03     8.18893E-03    -36.5430E-03     68.3648E-03    -32.1954E-03     8.17052E-03
            2301     4.36185E-03     9.28208E-03    -43.0780E+06    -119.543E+06    -25.5515E+06     2.71921E+06    -34.5389E-03     66.1811E-03    -31.6422E-03     7.34221E-03    -34.5484E-03     65.6875E-03    -31.5342E-03     7.32773E-03
            2302     3.49146E-03     9.27336E-03    -44.6342E+06    -122.425E+06    -31.5703E+06     1.74272E+06    -32.9137E-03     63.9930E-03    -31.0793E-03     6.34186E-03    -32.9163E-03     63.4941E-03    -30.9949E-03     6.32892E-03
            2303     2.61969E-03     9.26650E-03    -45.9939E+06    -125.467E+06    -37.5808E+06     769.181E+03    -31.6611E-03     62.2987E-03    -30.6376E-03     5.06759E-03    -31.6561E-03     61.7940E-03    -30.5768E-03     5.05314E-03
            2304     1.74703E-03     9.26144E-03    -47.1353E+06    -128.287E+06    -42.9083E+06     118.459E+03    -30.7808E-03     61.0957E-03    -30.3149E-03     3.56988E-03    -30.7689E-03     60.5855E-03    -30.2751E-03     3.55602E-03
            2305     873.673E-06     9.25844E-03     -47.981E+06    -130.437E+06    -46.5878E+06    -42.3757E+03    -30.2374E-03     60.3479E-03    -30.1105E-03     1.99857E-03    -30.2208E-03     59.8331E-03    -30.0847E-03     1.99003E-03
            2306     16.2363E-03     8.76250E-03    -4.36460E+06     116.834E+06     83.4856E+06     485.211E+03    -84.3956E-03     136.509E-03    -52.1130E-03     45.1217E-03    -85.1366E-03     137.407E-03    -51.8587E-03     43.8014E-03
            2307     15.4081E-03     8.69354E-03    -9.96553E+06     114.298E+06     81.6496E+06     644.562E+03    -86.1792E-03     136.462E-03    -50.2833E-03     60.7360E-03    -87.1719E-03     137.589E-03    -50.0263E-03     58.9698E-03
            2308     14.5844E-03     8.62001E-03    -13.4850E+06     106.564E+06     67.7226E+06     1.31499E+06    -85.5544E-03     133.713E-03    -48.1585E-03     61.9613E-03    -86.4999E-03     134.793E-03    -47.9548E-03     60.2434E-03
            2309     13.7568E-03     8.54020E-03    -17.0846E+06     93.6977E+06     36.4546E+06     2.88907E+06    -81.7828E-03     127.617E-03    -45.8341E-03     54.2878E-03    -82.5635E-03     128.565E-03    -45.7629E-03     52.8086E-03
            2310     12.9261E-03     8.47868E-03    -21.8957E+06     59.3145E+06     7.20522E+06     5.46915E+06    -75.4097E-03     118.995E-03    -43.5857E-03     37.0390E-03    -75.9309E-03     119.630E-03    -43.6039E-03     35.9642E-03
            2311     12.0891E-03     8.43408E-03    -26.0448E+06     10.2514E+06    -80.1748E+03     6.81163E+06    -68.6269E-03     110.241E-03    -41.6138E-03     26.5070E-03    -68.9592E-03     110.518E-03    -41.5913E-03     25.7868E-03
            2312     11.2467E-03     8.39790E-03    -28.4167E+06    -30.8896E+06    -60.8317E+03     6.12475E+06    -62.3319E-03     102.184E-03    -39.8517E-03     21.4195E-03    -62.5499E-03     102.192E-03    -39.7660E-03     20.9205E-03
            2313     10.3989E-03     8.36927E-03    -30.1738E+06    -59.8555E+06    -587.814E+03     5.24742E+06    -56.4747E-03     94.7430E-03    -38.2683E-03     18.2062E-03    -56.6174E-03     94.5686E-03    -38.1407E-03     17.8618E-03
            2314     9.54623E-03     8.34595E-03    -32.1082E+06    -80.7534E+06     102.544E+03     4.88689E+06    -51.2510E-03     88.1371E-03    -36.8861E-03     16.3090E-03    -51.3476E-03     87.8333E-03    -36.7219E-03     16.0778E-03
            2315     8.68899E-03     8.32727E-03    -34.0153E+06    -95.4433E+06    -849.436E+03     4.61854E+06    -46.8366E-03     82.5197E-03    -35.6830E-03     15.2343E-03    -46.9033E-03     82.1296E-03    -35.4995E-03     15.0800E-03
            2316     7.82841E-03     8.31168E-03    -35.9807E+06    -104.641E+06    -2.98084E+06     4.36117E+06    -43.2102E-03     77.8496E-03    -34.6394E-03     14.4673E-03    -43.2591E-03     77.4083E-03    -34.4504E-03     14.3660E-03
            2317     6.96500E-03     8.29859E-03    -37.7413E+06    -109.701E+06    -6.49983E+06     3.83593E+06    -40.2031E-03     73.9362E-03    -33.7331E-03     13.8821E-03    -40.2406E-03     73.4694E-03    -33.5518E-03     13.8143E-03
            2318     6.09905E-03     8.28776E-03    -39.3027E+06    -112.409E+06    -11.5943E+06     2.65345E+06    -37.6940E-03     70.6450E-03    -32.9510E-03     13.2949E-03    -37.7226E-03     70.1687E-03    -32.7889E-03     13.2419E-03
            2319     5.23114E-03     8.27831E-03    -40.9278E+06    -115.049E+06    -17.4063E+06     1.36258E+06    -35.6561E-03     67.9445E-03    -32.2884E-03     12.4197E-03    -35.6766E-03     67.4618E-03    -32.1492E-03     12.3725E-03
            2320     4.36167E-03     8.27028E-03    -42.4731E+06    -118.042E+06    -23.5392E+06     367.161E+03    -34.0358E-03     65.7689E-03    -31.7331E-03     11.1622E-03    -34.0479E-03     65.2795E-03    -31.6181E-03     11.1194E-03
            2321     3.49085E-03     8.26375E-03    -44.0359E+06    -121.294E+06    -29.7588E+06    -453.682E+03    -32.7469E-03     64.0220E-03    -31.2750E-03     9.58514E-03    -32.7511E-03     63.5255E-03    -31.1841E-03     9.54529E-03
            2322     2.61907E-03     8.25838E-03    -45.6397E+06    -124.950E+06    -36.4827E+06    -918.501E+03    -31.7212E-03     62.6335E-03    -30.9122E-03     7.60899E-03    -31.7170E-03     62.1294E-03    -30.8473E-03     7.57390E-03
            2323     1.74641E-03     8.25458E-03    -47.1632E+06    -128.458E+06    -42.6547E+06    -928.555E+03    -30.9952E-03     61.6492E-03    -30.6541E-03     5.33210E-03    -30.9836E-03     61.1379E-03    -30.6127E-03     5.30553E-03
            2324     873.307E-06     8.25208E-03    -48.4093E+06    -131.016E+06    -46.9622E+06    -623.456E+03    -30.5870E-03     61.0854E-03    -30.4984E-03     2.98493E-03    -30.5713E-03     60.5689E-03    -30.4730E-03     2.96934E-03
            2325     16.2382E-03     7.67422E-03    -4.27302E+06     116.681E+06     84.1740E+06     1.21093E+06    -89.3090E-03     141.166E-03    -51.8571E-03     46.2288E-03    -90.0487E-03     142.061E-03    -51.5992E-03     44.8148E-03
            2326     15.4180E-03     7.60296E-03    -9.30290E+06     114.797E+06     82.6514E+06     185.130E+03    -90.1795E-03     139.954E-03    -49.7749E-03     59.0777E-03    -91.1530E-03     141.063E-03    -49.5146E-03     57.2123E-03
            2327     14.5947E-03     7.53549E-03    -14.7845E+06     104.693E+06     66.3142E+06     830.008E+03    -87.8889E-03     135.324E-03    -47.4348E-03     58.2638E-03    -88.8010E-03     136.364E-03    -47.2336E-03     56.5159E-03
            2328     13.7700E-03     7.46206E-03    -20.9351E+06     88.6578E+06     33.9630E+06     5.37519E+06    -81.7504E-03     126.750E-03    -44.9995E-03     49.2627E-03    -82.4898E-03     127.633E-03    -44.9278E-03     47.8788E-03
            2329     12.9380E-03     7.41241E-03    -26.6023E+06     58.4858E+06     7.35511E+06     8.91446E+06    -73.3053E-03     116.081E-03    -42.7761E-03     33.7903E-03    -73.8123E-03     116.682E-03    -42.7855E-03     32.8588E-03
            2330     12.0988E-03     7.37745E-03    -30.1032E+06     13.8185E+06     2.50587E+06     7.48691E+06    -65.4639E-03     106.404E-03    -40.9396E-03     26.4794E-03    -65.8084E-03     106.684E-03    -40.9035E-03     25.8547E-03
            2331     11.2531E-03     7.35032E-03    -31.8526E+06    -28.5822E+06     3.37868E+06     4.98219E+06    -58.7070E-03     98.0989E-03    -39.3918E-03     23.7853E-03    -58.9444E-03     98.1129E-03    -39.2873E-03     23.3377E-03
            2332     10.4020E-03     7.32935E-03    -33.2222E+06    -58.3640E+06     3.12556E+06     3.63666E+06    -52.9907E-03     91.0577E-03    -38.0670E-03     22.4993E-03    -53.1549E-03     90.8885E-03    -37.9186E-03     22.1811E-03
            2333     9.54612E-03     7.31296E-03    -34.3859E+06    -79.8280E+06     4.45758E+06     2.71784E+06    -48.3206E-03     85.2788E-03    -36.9583E-03     21.8673E-03    -48.4374E-03     84.9779E-03    -36.7704E-03     21.6375E-03
            2334     8.68669E-03     7.29958E-03    -35.5865E+06    -94.5085E+06     3.99952E+06     2.13251E+06    -44.5295E-03     80.5511E-03    -36.0216E-03     21.4370E-03    -44.6140E-03     80.1627E-03    -35.8130E-03     21.2695E-03
            2335     7.82432E-03     7.28828E-03    -36.7766E+06    -103.643E+06     922.714E+03     1.47049E+06    -41.4841E-03     76.7127E-03    -35.2286E-03     21.0184E-03    -41.5456E-03     76.2733E-03    -35.0203E-03     20.8920E-03
            2336     6.95939E-03     7.27908E-03    -37.6888E+06    -108.294E+06    -3.20852E+06     469.419E+03    -39.1208E-03     73.6818E-03    -34.5610E-03     20.3151E-03    -39.1661E-03     73.2183E-03    -34.3654E-03     20.2120E-03
            2337     6.09270E-03     7.27090E-03    -38.6297E+06    -110.815E+06    -8.59240E+06    -582.180E+03    -37.2965E-03     71.2909E-03    -33.9944E-03     19.2250E-03    -37.3292E-03     70.8180E-03    -33.8207E-03     19.1354E-03
            2338     5.22471E-03     7.26390E-03    -39.8110E+06    -113.908E+06    -14.9602E+06    -1.58286E+06    -35.8275E-03     69.3437E-03    -33.5162E-03     17.6876E-03    -35.8481E-03     68.8619E-03    -33.3681E-03     17.6062E-03
            2339     4.35541E-03     7.25785E-03    -41.2477E+06    -117.489E+06    -21.7390E+06    -2.34817E+06    -34.6585E-03     67.7782E-03    -33.1197E-03     15.6982E-03    -34.6682E-03     67.2872E-03    -32.9982E-03     15.6233E-03
            2340     3.48538E-03     7.25263E-03    -42.9191E+06    -121.452E+06    -28.7270E+06    -2.53795E+06    -33.7599E-03     66.5567E-03    -32.7967E-03     13.2431E-03    -33.7600E-03     66.0562E-03    -32.7020E-03     13.1786E-03
            2341     2.61463E-03     7.24867E-03    -44.9334E+06    -125.786E+06    -35.9430E+06    -2.17837E+06    -33.0826E-03     65.6222E-03    -32.5395E-03     10.3966E-03    -33.0746E-03     65.1120E-03    -32.4717E-03     10.3469E-03
            2342     1.74341E-03     7.24559E-03    -46.8649E+06    -129.790E+06    -42.4793E+06    -1.53081E+06    -32.5926E-03     64.9410E-03    -32.3484E-03     7.21711E-03    -32.5781E-03     64.4221E-03    -32.3046E-03     7.18403E-03
            2343     871.801E-06     7.24372E-03    -48.2082E+06    -132.572E+06    -47.0290E+06    -828.954E+03    -32.2506E-03     64.5210E-03    -32.2704E-03     4.03112E-03    -32.2317E-03     63.9963E-03    -32.2434E-03     4.01362E-03
            2344     16.2438E-03     6.57559E-03    -4.27691E+06     116.703E+06     84.9928E+06     1.04103E+06    -93.7687E-03     145.441E-03    -51.6722E-03     46.5324E-03    -94.5060E-03     146.331E-03    -51.4103E-03     45.0278E-03
            2345     15.4241E-03     6.51238E-03    -9.39308E+06     114.244E+06     82.6309E+06     1.77265E+06    -92.5045E-03     141.902E-03    -49.3974E-03     57.9962E-03    -93.4552E-03     142.986E-03    -49.1363E-03     56.1233E-03
            2346     14.6040E-03     6.44683E-03    -17.8213E+06     100.341E+06     63.8120E+06     4.62053E+06    -87.7454E-03     134.720E-03    -46.9746E-03     56.4314E-03    -88.6217E-03     135.706E-03    -46.7752E-03     54.8010E-03
            2347     13.7775E-03     6.38750E-03    -25.5800E+06     82.8477E+06     34.9113E+06     8.74750E+06    -78.8834E-03     123.511E-03    -44.6276E-03     46.4057E-03    -79.5827E-03     124.315E-03    -44.5361E-03     45.2145E-03
            2348     12.9415E-03     6.34983E-03    -29.6684E+06     60.2624E+06     14.1269E+06     10.1879E+06    -68.6097E-03     111.252E-03    -42.6427E-03     34.5737E-03    -69.1113E-03     111.823E-03    -42.6165E-03     33.8081E-03
            2349     12.0980E-03     6.32540E-03    -31.9181E+06     19.6532E+06     10.0567E+06     6.78080E+06    -60.4899E-03     101.620E-03    -41.1301E-03     31.1525E-03    -60.8519E-03     101.911E-03    -41.0621E-03     30.6241E-03
            2350     11.2482E-03     6.30709E-03    -33.8630E+06    -25.8156E+06     9.88194E+06     2.89852E+06    -54.3160E-03     94.2629E-03    -39.9469E-03     30.7869E-03    -54.5736E-03     94.2809E-03    -39.8109E-03     30.3837E-03
            2351     10.3930E-03     6.29321E-03    -34.9639E+06    -56.7916E+06     9.45902E+06     570.444E+03    -49.4934E-03     88.4793E-03    -38.9859E-03     30.5808E-03    -49.6770E-03     88.3105E-03    -38.8055E-03     30.2693E-03
            2352     9.53457E-03     6.28185E-03    -35.6321E+06    -78.9372E+06     10.7667E+06    -831.458E+03    -45.7856E-03     84.0075E-03    -38.2219E-03     30.4290E-03    -45.9193E-03     83.7038E-03    -38.0020E-03     30.1831E-03
            2353     8.67336E-03     6.27290E-03    -36.2912E+06    -93.8760E+06     9.70799E+06    -1.88345E+06    -42.9846E-03     80.5825E-03    -37.5979E-03     30.0367E-03    -43.0825E-03     80.1905E-03    -37.3607E-03     29.8362E-03
            2354     7.80964E-03     6.26522E-03    -36.5280E+06    -102.520E+06     5.47239E+06    -2.97873E+06    -40.8820E-03     77.9591E-03    -37.0771E-03     29.0597E-03    -40.9509E-03     77.5185E-03    -36.8481E-03     28.8884E-03
            2355     6.94456E-03     6.25828E-03    -36.7865E+06    -107.355E+06    -518.663E+03    -4.05738E+06    -39.3433E-03     75.9849E-03    -36.6416E-03     27.5065E-03    -39.3895E-03     75.5207E-03    -36.4351E-03     27.3535E-03
            2356     6.07850E-03     6.25211E-03    -37.2407E+06    -110.599E+06    -6.97231E+06    -4.82435E+06    -38.1986E-03     74.4750E-03    -36.2764E-03     25.3863E-03    -38.2270E-03     73.9984E-03    -36.0969E-03     25.2481E-03
            2357     5.21139E-03     6.24674E-03    -37.8960E+06    -114.027E+06    -13.6926E+06    -4.97692E+06    -37.3068E-03     73.2763E-03    -35.9695E-03     22.7943E-03    -37.3194E-03     72.7888E-03    -35.8177E-03     22.6736E-03
            2358     4.34384E-03     6.24183E-03    -39.2958E+06    -118.457E+06    -21.3382E+06    -4.70896E+06    -36.5927E-03     72.3052E-03    -35.7126E-03     19.7650E-03    -36.5918E-03     71.8055E-03    -35.5905E-03     19.6632E-03
            2359     3.47555E-03     6.23782E-03    -41.3914E+06    -123.190E+06    -28.9447E+06    -3.90454E+06    -36.0342E-03     71.5404E-03    -35.5062E-03     16.3527E-03    -36.0238E-03     71.0289E-03    -35.4123E-03     16.2734E-03
            2360     2.60694E-03     6.23435E-03    -43.6681E+06    -127.833E+06    -36.0655E+06    -2.76242E+06    -35.6413E-03     70.9864E-03    -35.3451E-03     12.6156E-03    -35.6239E-03     70.4639E-03    -35.2767E-03     12.5604E-03
            2361     1.73814E-03     6.23197E-03    -45.7612E+06    -131.774E+06    -42.1036E+06    -1.66648E+06    -35.3748E-03     70.5948E-03    -35.2200E-03     8.68079E-03    -35.3526E-03     70.0636E-03    -35.1731E-03     8.64719E-03
            2362     869.122E-06     6.23041E-03    -47.1414E+06    -134.401E+06    -46.0829E+06    -786.532E+03    -35.1699E-03     70.3133E-03    -35.1434E-03     4.75834E-03    -35.1446E-03     69.7763E-03    -35.1105E-03     4.74201E-03
            2363     16.2444E-03     5.47597E-03    -4.90821E+06     114.988E+06     83.4959E+06     2.06125E+06    -95.7547E-03     147.437E-03    -51.6819E-03     48.9769E-03    -96.4865E-03     148.318E-03    -51.4240E-03     47.4720E-03
            2364     15.4273E-03     5.41847E-03    -12.2880E+06     110.068E+06     79.5802E+06     5.11119E+06    -92.2710E-03     141.637E-03    -49.3657E-03     59.8573E-03    -93.1945E-03     142.678E-03    -49.1096E-03     58.1158E-03
            2365     14.6040E-03     5.36128E-03    -19.3668E+06     96.0567E+06     64.9578E+06     8.87497E+06    -84.2438E-03     131.316E-03    -47.0727E-03     56.3616E-03    -85.0621E-03     132.221E-03    -46.8591E-03     54.9814E-03
            2366     13.7734E-03     5.31644E-03    -25.0034E+06     81.1985E+06     43.2516E+06     10.5094E+06    -72.3514E-03     117.418E-03    -45.0663E-03     47.0592E-03    -72.9944E-03     118.138E-03    -44.9315E-03     46.1280E-03
            2367     12.9324E-03     5.29407E-03    -28.7060E+06     63.6204E+06     25.6140E+06     9.16395E+06    -61.7716E-03     105.318E-03    -43.5460E-03     41.2947E-03    -62.2633E-03     105.861E-03    -43.4686E-03     40.6891E-03
            2368     12.0823E-03     5.27841E-03    -31.3110E+06     25.3950E+06     20.4819E+06     5.38001E+06    -55.0272E-03     97.5343E-03    -42.5071E-03     41.2429E-03    -55.3995E-03     97.8275E-03    -42.3962E-03     40.8047E-03
            2369     11.2277E-03     5.26728E-03    -33.2133E+06    -21.8549E+06     19.2152E+06     165.919E+03    -50.5001E-03     92.2613E-03    -41.7611E-03     41.3004E-03    -50.7668E-03     92.2776E-03    -41.5852E-03     40.9310E-03
            2370     10.3705E-03     5.25797E-03    -34.3392E+06    -55.1702E+06     17.7206E+06    -3.38380E+06    -47.1092E-03     88.2943E-03    -41.1851E-03     41.0379E-03    -47.2997E-03     88.1161E-03    -40.9667E-03     40.7197E-03
            2371     9.51025E-03     5.25139E-03    -34.9972E+06    -78.1138E+06     17.7641E+06    -5.46943E+06    -44.7096E-03     85.4605E-03    -40.7508E-03     40.1539E-03    -44.8484E-03     85.1461E-03    -40.4980E-03     39.8775E-03
            2372     8.64802E-03     5.24453E-03    -35.1718E+06    -93.0746E+06     15.1290E+06    -7.37559E+06    -43.1259E-03     83.5233E-03    -40.3974E-03     38.5373E-03    -43.2248E-03     83.1227E-03    -40.1358E-03     38.2853E-03
            2373     7.78545E-03     5.23916E-03    -34.9766E+06    -102.184E+06     8.58446E+06    -8.75194E+06    -42.0676E-03     82.1524E-03    -40.0848E-03     36.1371E-03    -42.1318E-03     81.7042E-03    -39.8430E-03     35.9043E-03
            2374     6.92186E-03     5.23349E-03    -34.5254E+06    -107.658E+06     440.839E+03    -9.40194E+06    -41.2321E-03     81.0410E-03    -39.8089E-03     33.2923E-03    -41.2665E-03     80.5684E-03    -39.6005E-03     33.0798E-03
            2375     6.05754E-03     5.22876E-03    -34.5302E+06    -112.101E+06    -7.59395E+06    -9.17971E+06    -40.6010E-03     80.1751E-03    -39.5741E-03     29.9320E-03    -40.6117E-03     79.6862E-03    -39.3994E-03     29.7449E-03
            2376     5.19303E-03     5.22394E-03    -35.4016E+06    -116.539E+06    -15.2924E+06    -7.96283E+06    -40.1151E-03     79.4894E-03    -39.3743E-03     26.2565E-03    -40.1086E-03     78.9868E-03    -39.2305E-03     26.1026E-03
            2377     4.32798E-03     5.22016E-03    -37.0892E+06    -121.322E+06    -22.7282E+06    -6.03784E+06    -39.7312E-03     78.9343E-03    -39.2031E-03     22.3178E-03    -39.7127E-03     78.4182E-03    -39.0870E-03     22.2026E-03
            2378     3.46279E-03     5.21644E-03    -39.4548E+06    -126.179E+06    -29.8491E+06    -4.21843E+06    -39.4076E-03     78.4649E-03    -39.0573E-03     18.1175E-03    -39.3817E-03     77.9363E-03    -38.9664E-03     18.0367E-03
            2379     2.59736E-03     5.21372E-03    -41.8459E+06    -130.517E+06    -36.2705E+06    -2.61992E+06    -39.1252E-03     78.0667E-03    -38.9415E-03     13.7703E-03    -39.0945E-03     77.5281E-03    -38.8729E-03     13.7187E-03
            2380     1.73158E-03     5.21143E-03    -43.7949E+06    -133.766E+06    -41.2225E+06    -1.37027E+06    -38.9414E-03     77.8005E-03    -38.8591E-03     9.37176E-03    -38.9078E-03     77.2549E-03    -38.8078E-03     9.34303E-03
            2381     865.908E-06     5.21014E-03    -45.2216E+06    -136.071E+06    -44.4259E+06    -654.317E+03    -38.8306E-03     77.6367E-03    -38.8061E-03     5.10085E-03    -38.7957E-03     77.0859E-03    -38.7654E-03     5.08671E-03
            2382     16.2387E-03     4.37650E-03    -5.04692E+06     111.497E+06     80.2040E+06     4.73543E+06    -94.8066E-03     146.927E-03    -52.1207E-03     54.1503E-03    -95.5199E-03     147.787E-03    -51.8741E-03     52.7615E-03
            2383     15.4181E-03     4.32393E-03    -12.5601E+06     106.661E+06     77.7781E+06     7.97270E+06    -88.3527E-03     138.324E-03    -49.9714E-03     63.2153E-03    -89.2158E-03     139.298E-03    -49.7189E-03     61.7347E-03
            2384     14.5937E-03     4.28026E-03    -17.3205E+06     93.7916E+06     69.2108E+06     9.42989E+06    -75.7997E-03     123.890E-03    -48.0898E-03     59.0453E-03    -76.5312E-03     124.696E-03    -47.8546E-03     57.9865E-03
            2385     13.7540E-03     4.25558E-03    -21.0492E+06     81.3621E+06     52.6070E+06     10.2581E+06    -63.1818E-03     109.869E-03    -46.6874E-03     55.1355E-03    -63.7619E-03     110.514E-03    -46.5118E-03     54.4663E-03
            2386     12.9027E-03     4.24426E-03    -25.0996E+06     67.7111E+06     35.8827E+06     8.64276E+06    -55.5377E-03     101.291E-03    -45.7532E-03     53.0636E-03    -56.0023E-03     101.804E-03    -45.6356E-03     52.6097E-03
            2387     12.0489E-03     4.23407E-03    -28.2465E+06     31.3952E+06     29.2052E+06     3.07225E+06    -51.3521E-03     96.5372E-03    -45.1850E-03     53.2289E-03    -51.7110E-03     96.8233E-03    -45.0436E-03     52.8571E-03
            2388     11.1930E-03     4.22740E-03    -30.2394E+06    -17.8249E+06     26.1651E+06    -3.00680E+06    -48.8458E-03     93.6623E-03    -44.8165E-03     51.8397E-03    -49.0984E-03     93.6684E-03    -44.6160E-03     51.4939E-03
            2389     10.3340E-03     4.22187E-03    -31.6780E+06    -52.9110E+06     22.9973E+06    -7.47110E+06    -47.1663E-03     91.6981E-03    -44.5318E-03     49.8323E-03    -47.3434E-03     91.5077E-03    -44.2942E-03     49.5038E-03
            2390     9.47468E-03     4.21652E-03    -32.2747E+06    -76.7652E+06     20.6390E+06    -11.2223E+06    -46.2056E-03     90.5063E-03    -44.3007E-03     47.0733E-03    -46.3288E-03     90.1816E-03    -44.0394E-03     46.7509E-03
            2391     8.61515E-03     4.21177E-03    -31.7753E+06    -92.4550E+06     15.7237E+06    -13.7707E+06    -45.5668E-03     89.6471E-03    -44.0803E-03     43.5449E-03    -45.6444E-03     89.2369E-03    -43.8215E-03     43.2304E-03
            2392     7.75459E-03     4.20653E-03    -30.9518E+06    -103.383E+06     6.76163E+06    -14.9252E+06    -45.0636E-03     88.9201E-03    -43.8565E-03     39.6882E-03    -45.0989E-03     88.4576E-03    -43.6279E-03     39.3906E-03
            2393     6.89405E-03     4.20249E-03    -30.6503E+06    -110.424E+06    -2.84640E+06    -14.2339E+06    -44.6850E-03     88.3258E-03    -43.6408E-03     35.5699E-03    -44.6881E-03     87.8350E-03    -43.4505E-03     35.3057E-03
            2394     6.03323E-03     4.19776E-03    -31.2687E+06    -116.121E+06    -11.7003E+06    -12.0743E+06    -44.2742E-03     87.7179E-03    -43.4437E-03     31.3015E-03    -44.2547E-03     87.2077E-03    -43.2885E-03     31.0849E-03
            2395     5.17190E-03     4.19422E-03    -32.9082E+06    -121.315E+06    -19.3865E+06    -9.15596E+06    -43.9326E-03     87.2028E-03    -43.2702E-03     26.9227E-03    -43.8994E-03     86.6769E-03    -43.1435E-03     26.7591E-03
            2396     4.31042E-03     4.19032E-03    -35.1193E+06    -125.771E+06    -25.5838E+06    -6.21065E+06    -43.6267E-03     86.7449E-03    -43.1182E-03     22.4940E-03    -43.5869E-03     86.2068E-03    -43.0128E-03     22.3804E-03
            2397     3.44878E-03     4.18746E-03    -37.4179E+06    -129.740E+06    -31.0495E+06    -3.68815E+06    -43.3394E-03     86.3240E-03    -42.9846E-03     18.0657E-03    -43.2960E-03     85.7759E-03    -42.8975E-03     17.9943E-03
            2398     2.58675E-03     4.18494E-03    -39.4989E+06    -133.097E+06    -35.8416E+06    -1.87539E+06    -43.0920E-03     85.9637E-03    -42.8717E-03     13.6318E-03    -43.0463E-03     85.4078E-03    -42.8006E-03     13.5915E-03
            2399     1.72473E-03     4.18309E-03    -41.1188E+06    -135.474E+06    -39.5827E+06    -796.239E+03    -42.8596E-03     85.6541E-03    -42.7945E-03     9.22195E-03    -42.8124E-03     85.0935E-03    -42.7363E-03     9.20170E-03
            2400     862.232E-06     4.18193E-03    -42.2675E+06    -137.080E+06    -41.9798E+06    -210.078E+03    -42.7695E-03     85.5268E-03    -42.7572E-03     5.03252E-03    -42.7220E-03     84.9631E-03    -42.7071E-03     5.02473E-03
            2401     16.2214E-03     3.27856E-03    -6.11280E+06     107.448E+06     77.4868E+06     6.51303E+06    -89.6665E-03     142.947E-03    -53.2809E-03     62.0698E-03    -90.3480E-03     143.767E-03    -53.0404E-03     60.9094E-03
            2402     15.3995E-03     3.23131E-03    -9.58574E+06     105.386E+06     79.4195E+06     8.46791E+06    -77.8590E-03     129.478E-03    -51.6188E-03     70.6191E-03    -78.6378E-03     130.372E-03    -51.3606E-03     69.5035E-03
            2403     14.5602E-03     3.21510E-03    -13.2268E+06     92.6582E+06     72.7910E+06     8.59460E+06    -64.7638E-03     115.196E-03    -50.4323E-03     68.6933E-03    -65.3983E-03     115.905E-03    -50.1835E-03     67.9545E-03
            2404     13.7081E-03     3.20132E-03    -17.2815E+06     81.1810E+06     57.0486E+06     9.05118E+06    -56.9080E-03     106.583E-03    -49.6746E-03     67.5065E-03    -57.4137E-03     107.151E-03    -49.4820E-03     67.0316E-03
            2405     12.8573E-03     3.19439E-03    -19.4967E+06     72.5808E+06     38.5915E+06     7.03333E+06    -53.5765E-03     102.737E-03    -49.1607E-03     63.4446E-03    -53.9794E-03     103.216E-03    -49.0447E-03     63.0952E-03
            2406     12.0023E-03     3.18923E-03    -21.6540E+06     37.7395E+06     26.0920E+06     1.28977E+06    -51.6487E-03     100.488E-03    -48.8398E-03     60.4028E-03    -51.9467E-03     100.767E-03    -48.7326E-03     60.0915E-03
            2407     11.1457E-03     3.18303E-03    -24.3487E+06    -13.8607E+06     19.3581E+06    -5.43280E+06    -50.7491E-03     99.3912E-03    -48.6420E-03     56.2715E-03    -50.9445E-03     99.3934E-03    -48.4898E-03     55.9541E-03
            2408     10.2909E-03     3.17975E-03    -25.8580E+06    -48.9897E+06     13.6738E+06    -11.5672E+06    -50.4829E-03     98.9255E-03    -48.4426E-03     51.5464E-03    -50.6056E-03     98.7413E-03    -48.2657E-03     51.2067E-03
            2409     9.43473E-03     3.17445E-03    -25.6728E+06    -74.7581E+06     8.27248E+06    -16.6149E+06    -50.1074E-03     98.3370E-03    -48.2296E-03     47.0234E-03    -50.1702E-03     98.0178E-03    -48.0426E-03     46.6617E-03
            2410     8.57873E-03     3.17045E-03    -25.2314E+06    -93.4122E+06     2.43935E+06    -19.0336E+06    -49.7540E-03     97.7619E-03    -48.0079E-03     42.2775E-03    -49.7694E-03     97.3475E-03    -47.8237E-03     41.9184E-03
            2411     7.72248E-03     3.16651E-03    -25.4996E+06    -106.803E+06    -5.21041E+06    -18.7259E+06    -49.3824E-03     97.1558E-03    -47.7733E-03     37.7064E-03    -49.3621E-03     96.6793E-03    -47.6076E-03     37.3769E-03
            2412     6.86579E-03     3.16216E-03    -26.7958E+06    -116.246E+06    -12.5340E+06    -16.1640E+06    -48.9648E-03     96.5065E-03    -47.5417E-03     33.0630E-03    -48.9219E-03     95.9908E-03    -47.3970E-03     32.7868E-03
            2413     6.00871E-03     3.15910E-03    -28.9353E+06    -122.549E+06    -18.9532E+06    -12.1833E+06    -48.5441E-03     95.8634E-03    -47.3193E-03     28.6359E-03    -48.4903E-03     95.3254E-03    -47.1944E-03     28.4273E-03
            2414     5.15129E-03     3.15533E-03    -31.4139E+06    -127.216E+06    -24.6605E+06    -8.29190E+06    -48.0887E-03     95.2000E-03    -47.1113E-03     24.3189E-03    -48.0300E-03     94.6485E-03    -47.0046E-03     24.1733E-03
            2415     4.29359E-03     3.15262E-03    -33.8355E+06    -130.648E+06    -29.1915E+06    -5.05448E+06    -47.6342E-03     94.5628E-03    -46.9286E-03     20.1058E-03    -47.5746E-03     94.0027E-03    -46.8360E-03     20.0121E-03
            2416     3.43516E-03     3.15001E-03    -35.8422E+06    -133.183E+06    -32.7552E+06    -2.64676E+06    -47.2360E-03     94.0121E-03    -46.7761E-03     16.0376E-03    -47.1765E-03     93.4464E-03    -46.6948E-03     15.9831E-03
            2417     2.57683E-03     3.14789E-03    -37.3572E+06    -135.217E+06    -35.5545E+06    -1.07881E+06    -46.9230E-03     93.5777E-03    -46.6548E-03     12.0599E-03    -46.8634E-03     93.0075E-03    -46.5823E-03     12.0321E-03
            2418     1.71791E-03     3.14661E-03    -38.4252E+06    -136.594E+06    -37.5632E+06    -213.088E+03    -46.7094E-03     93.2676E-03    -46.5582E-03     8.12631E-03    -46.6498E-03     92.6945E-03    -46.4922E-03     8.11490E-03
            2419     859.080E-06     3.14546E-03    -39.0008E+06    -137.233E+06    -38.7831E+06     135.984E+03    -46.5589E-03     93.0221E-03    -46.4633E-03     4.42884E-03    -46.4992E-03     92.4484E-03    -46.4016E-03     4.42621E-03
            2420     16.1908E-03     2.17956E-03    -6.25758E+06     104.613E+06     78.2909E+06     5.68129E+06    -79.3018E-03     135.045E-03    -55.7433E-03     80.8170E-03    -79.9784E-03     135.848E-03    -55.4944E-03     79.8855E-03
            2421     15.3493E-03     2.16250E-03    -5.17404E+06     103.401E+06     82.1954E+06     6.46608E+06    -68.1849E-03     122.901E-03    -54.7165E-03     83.4041E-03    -68.8566E-03     123.685E-03    -54.4480E-03     82.5902E-03
            2422     14.4991E-03     2.15309E-03    -8.99283E+06     92.2943E+06     75.1934E+06     7.84213E+06    -61.1473E-03     115.194E-03    -54.0470E-03     76.3163E-03    -61.6571E-03     115.781E-03    -53.7919E-03     75.8124E-03
            2423     13.6523E-03     2.14586E-03    -11.3420E+06     84.2539E+06     57.8319E+06     5.87014E+06    -58.4215E-03     111.959E-03    -53.5379E-03     69.7151E-03    -58.8213E-03     112.449E-03    -53.3544E-03     69.3527E-03
            2424     12.8000E-03     2.13888E-03    -12.0233E+06      74.927E+06     28.6188E+06     3.89932E+06    -57.1229E-03     110.175E-03    -53.0517E-03     61.3795E-03    -57.4200E-03     110.610E-03    -52.9998E-03     61.1048E-03
            2425     11.9507E-03     2.13619E-03    -13.2908E+06     42.0385E+06     5.00594E+06     1.40899E+06    -56.5121E-03     109.169E-03    -52.6573E-03     54.8286E-03    -56.7031E-03     109.446E-03    -52.6739E-03     54.6033E-03
            2426     11.1005E-03     2.13137E-03    -15.1127E+06    -6.61775E+06    -6.32477E+06    -5.80175E+06    -56.0151E-03     108.371E-03    -52.3563E-03     48.8193E-03    -56.1092E-03     108.405E-03    -52.3564E-03     48.5596E-03
            2427     10.2491E-03     2.12694E-03    -16.1374E+06    -44.6810E+06    -14.3043E+06    -13.5567E+06    -55.6153E-03     107.670E-03    -52.0547E-03     43.0125E-03    -55.6351E-03     107.514E-03    -52.0381E-03     42.6964E-03
            2428     9.39866E-03     2.12394E-03    -17.2044E+06    -73.4761E+06    -20.2933E+06    -17.7175E+06    -55.0797E-03     106.826E-03    -51.7466E-03     38.1172E-03    -55.0467E-03     106.529E-03    -51.7166E-03     37.7793E-03
            2429     8.54651E-03     2.12029E-03    -19.1973E+06    -95.9799E+06    -24.2595E+06    -18.9318E+06    -54.4105E-03     105.858E-03    -51.4472E-03     33.6570E-03    -54.3437E-03     105.451E-03    -51.4015E-03     33.3284E-03
            2430     7.69441E-03     2.11691E-03    -22.1371E+06    -112.507E+06    -26.5329E+06    -17.3304E+06    -53.7828E-03     104.942E-03    -51.1587E-03     29.4842E-03    -53.6998E-03     104.456E-03    -51.0961E-03     29.1952E-03
            2431     6.84144E-03     2.11433E-03    -25.3849E+06    -123.552E+06    -27.6843E+06    -13.7625E+06    -53.0977E-03     103.978E-03    -50.8799E-03     25.5951E-03    -53.0107E-03     103.441E-03    -50.8023E-03     25.3673E-03
            2432     5.98796E-03     2.11118E-03    -28.3901E+06    -129.653E+06    -28.7772E+06    -9.63731E+06    -52.4299E-03     103.040E-03    -50.6105E-03     21.9296E-03    -52.3458E-03     102.478E-03    -50.5253E-03     21.7667E-03
            2433     5.13403E-03     2.10909E-03    -31.0588E+06    -132.896E+06    -30.5389E+06    -5.89790E+06    -51.7501E-03     102.107E-03    -50.3564E-03     18.4955E-03    -51.6709E-03     101.533E-03    -50.2714E-03     18.3905E-03
            2434     4.27907E-03     2.10680E-03    -33.0835E+06    -134.711E+06    -32.4351E+06    -3.18596E+06    -51.1166E-03     101.248E-03    -50.1310E-03     15.2337E-03    -51.0412E-03     100.670E-03    -50.0499E-03     15.1713E-03
            2435     3.42420E-03     2.10500E-03    -34.4531E+06    -135.768E+06    -33.9383E+06    -1.46296E+06    -50.5800E-03     100.523E-03    -49.9433E-03     12.0894E-03    -50.5073E-03     99.9440E-03    -49.8662E-03     12.0552E-03
            2436     2.56821E-03     2.10366E-03    -35.3859E+06    -136.651E+06    -34.9561E+06    -479.326E+03    -50.1594E-03     99.9557E-03    -49.7963E-03     9.03338E-03    -50.0882E-03     99.3745E-03    -49.7217E-03     9.01664E-03
            2437     1.71245E-03     2.10224E-03    -35.9441E+06    -137.057E+06    -35.5432E+06     27.8166E+03    -49.8681E-03     99.5530E-03    -49.6849E-03     6.08088E-03    -49.7980E-03     98.9712E-03    -49.6118E-03     6.07461E-03
            2438     856.418E-06     2.10182E-03    -36.1789E+06    -137.067E+06    -35.9922E+06     169.075E+03    -49.6933E-03     99.2684E-03    -49.5750E-03     3.34976E-03    -49.6236E-03     98.6875E-03    -49.5038E-03     3.34854E-03
            2439     16.1132E-03     1.09862E-03    -1.03593E+06     103.980E+06     83.4406E+06     3.49164E+06    -78.1187E-03     137.503E-03    -59.3841E-03     81.2818E-03    -78.6634E-03     138.169E-03    -59.1162E-03     80.5802E-03
            2440     15.2758E-03     1.08810E-03    -2.93332E+06     101.209E+06     84.0360E+06     4.72515E+06    -71.9800E-03     130.435E-03    -58.4547E-03     68.5015E-03    -72.4495E-03     131.007E-03    -58.1770E-03     68.0098E-03
            2441     14.4393E-03     1.08509E-03    -5.50748E+06     94.3814E+06     75.3366E+06     4.15988E+06    -68.2077E-03     125.882E-03    -57.6743E-03     56.2901E-03    -68.5703E-03     126.339E-03    -57.4265E-03     55.9865E-03
            2442     13.5961E-03     1.07670E-03    -6.50697E+06     87.3688E+06     51.8104E+06     1.98803E+06    -65.6146E-03     122.549E-03    -56.9341E-03     46.8629E-03    -65.9023E-03     122.971E-03    -56.7923E-03     46.6327E-03
            2443     12.7560E-03     1.07562E-03    -7.25216E+06     73.4692E+06     14.6817E+06     2.26390E+06    -63.7648E-03     119.975E-03    -56.2100E-03     38.5293E-03    -63.9599E-03     120.361E-03    -56.2326E-03     38.3766E-03
            2444     11.9107E-03     1.07077E-03    -6.78873E+06     45.2396E+06    -17.6638E+06     1.29580E+06    -62.6092E-03     118.176E-03    -55.5672E-03     32.8806E-03    -62.7027E-03     118.457E-03    -55.7112E-03     32.7604E-03
            2445     11.0664E-03     1.06934E-03    -6.31293E+06     1.78603E+06    -35.7534E+06    -4.13201E+06    -61.4466E-03     116.486E-03    -55.0390E-03     28.4466E-03    -61.4417E-03     116.568E-03    -55.2112E-03     28.2911E-03
            2446     10.2205E-03     1.06621E-03    -7.92085E+06    -41.5209E+06    -45.0433E+06    -9.32228E+06    -60.2004E-03     114.786E-03    -54.5854E-03     24.7507E-03    -60.1229E-03     114.663E-03    -54.7389E-03     24.5526E-03
            2447     9.37257E-03     1.06439E-03    -11.9765E+06    -73.6450E+06    -49.2525E+06    -11.5423E+06    -59.1529E-03     113.323E-03    -54.1700E-03     21.3125E-03    -59.0401E-03     113.049E-03    -54.2921E-03     21.1046E-03
            2448     8.52486E-03     1.06238E-03    -16.9040E+06    -98.9386E+06    -49.6113E+06    -11.7068E+06    -58.0743E-03     111.861E-03    -53.7869E-03     18.6936E-03    -57.9472E-03     111.466E-03    -53.8670E-03     18.4964E-03
            2449     7.67518E-03     1.06069E-03    -21.7177E+06    -117.821E+06    -46.6037E+06    -10.2935E+06    -57.0052E-03     110.444E-03    -53.4387E-03     16.1419E-03    -56.8779E-03     109.956E-03    -53.4693E-03     15.9741E-03
            2450     6.82513E-03     1.05877E-03    -26.0729E+06    -129.551E+06    -42.2526E+06    -7.97027E+06    -56.0259E-03     109.141E-03    -53.1154E-03     13.9172E-03    -55.9089E-03     108.594E-03    -53.1010E-03     13.7870E-03
            2451     5.97414E-03     1.05756E-03    -29.3632E+06    -135.266E+06    -38.5901E+06    -5.27960E+06    -55.0760E-03     107.887E-03    -52.8109E-03     11.9067E-03    -54.9720E-03     107.310E-03    -52.7651E-03     11.8177E-03
            2452     5.12205E-03     1.05610E-03    -31.5779E+06    -136.973E+06    -36.1174E+06    -2.98514E+06    -54.2378E-03     106.767E-03    -52.5289E-03     10.0223E-03    -54.1455E-03     106.180E-03    -52.4651E-03     9.96807E-03
            2453     4.26989E-03     1.05513E-03    -32.8814E+06    -137.266E+06    -34.8844E+06    -1.43870E+06    -53.5001E-03     105.774E-03    -52.2741E-03     8.22681E-03    -53.4154E-03     105.186E-03    -52.2018E-03     8.19656E-03
            2454     3.41629E-03     1.05419E-03    -33.5395E+06    -137.258E+06    -34.2552E+06    -511.481E+03    -52.8684E-03     104.922E-03    -52.0540E-03     6.52178E-03    -52.7878E-03     104.335E-03    -51.9777E-03     6.50686E-03
            2455     2.56309E-03     1.05325E-03    -33.7903E+06    -137.283E+06    -33.8947E+06    -88.2555E+03    -52.3570E-03     104.230E-03    -51.8734E-03     4.85731E-03    -52.2780E-03     103.642E-03    -51.7948E-03     4.85040E-03
            2456     1.70883E-03     1.05283E-03    -33.9009E+06    -137.158E+06    -33.8470E+06     27.8774E+03    -51.9416E-03     103.684E-03    -51.7424E-03     3.23376E-03    -51.8633E-03     103.096E-03    -51.6636E-03     3.23051E-03
            2457     854.208E-06     1.05225E-03    -34.0557E+06    -136.941E+06    -34.0227E+06     25.8271E+03    -51.7381E-03     103.382E-03    -51.6435E-03     1.70273E-03    -51.6605E-03     102.796E-03    -51.5657E-03     1.70108E-03


