********************************************************************************
Field Output Report, written Mon Aug 12 22:27:13 2024

Source 1
---------

   ODB: G:/Abaqus_calc_2019/1740/Vel_40/odb/zeides_2a_40_red_500_cal_10_vel_40_fric_0100.odb
   Step: Step-1
   Frame: Increment   1871807: Step Time =   0.2259

Loc 1 : Nodal values from source 1

Output sorted by column "Nodal Label".

Field Output reported at nodes for region: DIE_2A_40_D0_36-1.Region_1
   Computation algorithm: EXTRAPOLATE_COMPUTE_AVERAGE
   Averaged at nodes
   Averaging regions: ODB_REGIONS

      Node Label     COORD.COOR1     COORD.COOR2
                          @Loc 1          @Loc 1
-------------------------------------------------
               1     22.9485E-03     121.791E-03


Field Output reported at nodes for region: DIE_2A_40_D0_36-1.Region_2
   Computation algorithm: EXTRAPOLATE_COMPUTE_AVERAGE
   Averaged at nodes
   Averaging regions: ODB_REGIONS

      Node Label     COORD.COOR1     COORD.COOR2
                          @Loc 1          @Loc 1
-------------------------------------------------
               1     22.9485E-03     121.791E-03


Field Output reported at nodes for part: WIRE-1
   Computation algorithm: EXTRAPOLATE_COMPUTE_AVERAGE
   Averaged at nodes
   Averaging regions: ODB_REGIONS

      Node Label     COORD.COOR1     COORD.COOR2           S.S11           S.S22           S.S33           S.S12         PE.PE11         PE.PE22         PE.PE33         PE.PE12         LE.LE11         LE.LE22         LE.LE33         LE.LE12
                          @Loc 1          @Loc 1          @Loc 1          @Loc 1          @Loc 1          @Loc 1          @Loc 1          @Loc 1          @Loc 1          @Loc 1          @Loc 1          @Loc 1          @Loc 1          @Loc 1
-------------------------------------------------------------------------------------------------------------------------------------------------------------------------------------------------------------------------------------------------
               1     1.05550E-06     60.6628E-03    -51.8037E+06    -173.089E+06    -51.0927E+06     2.10308E+06    -56.9067E-03     112.955E-03    -56.0482E-03     7.61600E-03    -56.8400E-03     112.240E-03    -55.9775E-03     7.62976E-03
               2     17.0177E-03     63.0833E-03    -2.71260E+06     159.735E+06     114.869E+06     883.899E+03    -59.5226E-03     116.020E-03    -56.4975E-03     237.823E-03    -71.0118E-03     127.734E-03    -56.1508E-03     248.040E-03
               3     16.2918E-03     124.860E-03    -19.4207E+06    -8.05839E+06    -37.3046E+06    -10.8433E+06     45.4528E-03     44.8018E-03    -90.2546E-03     4.50250E-03     45.4874E-03     44.9096E-03    -90.4013E-03     4.36263E-03
               4    -1.58681E-06     121.430E-03     54.0683E+06    -4.94785E+06     50.7853E+06    -1.11289E+06    -56.1786E-03     113.976E-03    -57.7978E-03    -3.45414E-03    -55.9829E-03     113.791E-03    -57.6151E-03    -3.47567E-03
               5    -917.743E-09     263.678E-18    -29.6745E+06    -147.041E+06    -29.8687E+06    -838.808E+03    -50.3761E-03     100.408E-03    -50.0318E-03     520.764E-06    -50.2676E-03     99.7593E-03    -49.9249E-03     508.327E-06
               6     16.7867E-03     263.678E-18     26.0851E+06     117.138E+06     111.732E+06    -5.22755E+06    -179.052E-03     244.865E-03    -65.8128E-03     181.099E-03    -181.218E-03     247.322E-03    -65.4618E-03     174.949E-03
               7     850.714E-06     60.6749E-03    -51.5687E+06    -173.138E+06    -50.9664E+06     644.303E+03    -56.7134E-03     112.975E-03    -56.2615E-03     10.1440E-03    -56.6472E-03     112.260E-03    -56.1905E-03     10.1186E-03
               8     1.70120E-03     60.6849E-03    -50.7214E+06    -171.438E+06    -47.6499E+06    -106.249E+03    -56.4731E-03     112.945E-03    -56.4721E-03     17.0517E-03    -56.4137E-03     112.235E-03    -56.3882E-03     16.9812E-03
               9     2.55211E-03     60.7088E-03    -49.3840E+06    -168.894E+06    -43.0816E+06     369.407E+03    -56.5091E-03     112.968E-03    -56.4594E-03     25.6775E-03    -56.4588E-03     112.268E-03    -56.3583E-03     25.5792E-03
              10     3.40257E-03     60.7362E-03    -47.5248E+06    -165.426E+06    -37.0950E+06     473.066E+03    -56.6483E-03     113.109E-03    -56.4607E-03     33.8776E-03    -56.6111E-03     112.423E-03    -56.3374E-03     33.7401E-03
              11     4.25417E-03     60.7765E-03    -43.8294E+06    -160.249E+06    -28.6794E+06     643.510E+03    -56.9404E-03     113.433E-03    -56.4926E-03     41.6579E-03    -56.9170E-03     112.768E-03    -56.3401E-03     41.4742E-03
              12     5.10370E-03     60.8212E-03    -40.5424E+06    -155.509E+06    -22.6293E+06     355.218E+03    -57.0785E-03     113.602E-03    -56.5232E-03     49.4400E-03    -57.0715E-03     112.964E-03    -56.3521E-03     49.1982E-03
              13     5.95473E-03     60.8758E-03    -38.1727E+06    -151.701E+06    -17.9258E+06     529.486E+03    -57.0642E-03     113.592E-03    -56.5280E-03     57.2934E-03    -57.0809E-03     112.987E-03    -56.3423E-03     56.9927E-03
              14     6.80583E-03     60.9373E-03    -34.8103E+06    -145.767E+06    -14.0972E+06     808.956E+03    -57.3668E-03     113.883E-03    -56.5160E-03     64.7666E-03    -57.4123E-03     113.328E-03    -56.3246E-03     64.3955E-03
              15     7.65640E-03     61.0065E-03    -32.0465E+06    -137.668E+06    -11.6881E+06     740.327E+03    -57.7886E-03     114.301E-03    -56.5127E-03     72.3149E-03    -57.8789E-03     113.823E-03    -56.3251E-03     71.8535E-03
              16     8.50688E-03     61.0831E-03    -30.3206E+06    -126.991E+06    -10.2416E+06     571.575E+03    -57.8726E-03     114.377E-03    -56.5043E-03     79.7485E-03    -58.0294E-03     114.005E-03    -56.3274E-03     79.1842E-03
              17     9.35800E-03     61.1669E-03    -28.7000E+06    -110.629E+06    -10.0943E+06     641.726E+03    -57.8816E-03     114.344E-03    -56.4627E-03     87.2385E-03    -58.1317E-03     114.129E-03    -56.3111E-03     86.5595E-03
              18     10.2090E-03     61.2589E-03    -27.7473E+06    -88.8779E+06    -10.6705E+06     770.604E+03    -58.3199E-03     114.731E-03    -56.4109E-03     94.6521E-03    -58.7044E-03     114.732E-03    -56.2951E-03     93.8292E-03
              19     11.0593E-03     61.3580E-03    -26.6536E+06    -58.8572E+06    -10.6809E+06     1.38757E+06    -58.5557E-03     114.916E-03    -56.3607E-03     102.424E-03    -59.1322E-03     115.220E-03    -56.2901E-03     101.439E-03
              20     11.9102E-03     61.4648E-03    -24.9053E+06    -13.8451E+06    -11.1697E+06     1.63194E+06    -58.6243E-03     114.897E-03    -56.2730E-03     115.166E-03    -59.5172E-03     115.685E-03    -56.2726E-03     113.973E-03
              21     12.7631E-03     61.5902E-03    -23.0421E+06     31.6339E+06    -4.41144E+06    -236.194E+03    -59.8440E-03     116.057E-03    -56.2131E-03     139.165E-03    -61.3554E-03     117.612E-03    -56.2476E-03     137.612E-03
              22     13.6124E-03     61.7415E-03    -22.2165E+06     66.3077E+06     22.3897E+06    -932.884E+03    -63.0609E-03     119.344E-03    -56.2829E-03     186.633E-03    -66.0551E-03     122.430E-03    -56.2349E-03     184.542E-03
              23     14.4633E-03     61.9665E-03    -20.1055E+06     101.734E+06     65.5700E+06     54.3605E+03    -71.7545E-03     128.193E-03    -56.4388E-03     282.656E-03    -79.7021E-03     136.241E-03    -56.2293E-03     279.672E-03
              24     15.3130E-03     62.3215E-03    -13.1838E+06     141.584E+06     104.230E+06    -142.660E+03    -83.3044E-03     139.864E-03    -56.5596E-03     407.871E-03    -105.313E-03     162.026E-03    -56.2247E-03     405.663E-03
              25     16.1686E-03     62.8203E-03    -5.72820E+06     161.129E+06     116.912E+06     148.557E+03    -73.9119E-03     130.458E-03    -56.5460E-03     353.355E-03    -95.7491E-03     152.508E-03    -56.1867E-03     358.040E-03
              26     17.0194E-03     64.1308E-03    -3.17026E+06     158.611E+06     112.836E+06     640.657E+03    -56.5845E-03     113.110E-03    -56.5259E-03     230.462E-03    -67.6452E-03     124.397E-03    -56.1871E-03     240.939E-03
              27     17.0179E-03     65.1717E-03    -5.20229E+06     157.588E+06     112.296E+06    -1.45832E+06    -62.5786E-03     118.979E-03    -56.4007E-03     222.249E-03    -73.1400E-03     129.757E-03    -56.0602E-03     231.905E-03
              28     17.0164E-03     66.2646E-03    -3.57319E+06     159.415E+06     114.459E+06     786.929E+03    -64.2959E-03     120.691E-03    -56.3950E-03     229.174E-03    -75.2250E-03     131.842E-03    -56.0487E-03     238.587E-03
              29     17.0197E-03     67.3208E-03    -2.57790E+06     160.099E+06     114.067E+06     1.46565E+06    -58.2886E-03     114.803E-03    -56.5140E-03     235.047E-03    -69.6004E-03     126.343E-03    -56.1720E-03     245.340E-03
              30     17.0173E-03     68.3654E-03    -3.81616E+06     159.536E+06     113.763E+06    -644.440E+03    -57.8970E-03     114.398E-03    -56.5012E-03     224.862E-03    -68.6508E-03     125.375E-03    -56.1582E-03     235.090E-03
              31     17.0190E-03     69.4242E-03    -3.43688E+06     160.284E+06     115.004E+06    -633.810E+03    -63.0071E-03     119.386E-03    -56.3790E-03     222.420E-03    -73.5428E-03     130.145E-03    -56.0314E-03     231.945E-03
              32     17.0176E-03     70.5033E-03    -1.53740E+06     161.991E+06     115.927E+06     957.785E+03    -62.7969E-03     119.165E-03    -56.3682E-03     229.912E-03    -73.7598E-03     130.362E-03    -56.0212E-03     239.483E-03
              33     17.0208E-03     71.5642E-03    -2.58356E+06     162.099E+06     115.205E+06    -214.897E+03    -58.7173E-03     115.182E-03    -56.4651E-03     232.941E-03    -69.9872E-03     126.685E-03    -56.1204E-03     243.220E-03
              34     17.0164E-03     72.6078E-03    -3.72007E+06     161.759E+06     115.346E+06    -794.546E+03    -59.6902E-03     116.154E-03    -56.4641E-03     227.708E-03    -70.6308E-03     127.322E-03    -56.1166E-03     237.835E-03
              35     17.0199E-03     73.6802E-03    -2.27367E+06     162.903E+06     116.173E+06     733.692E+03    -61.7405E-03     118.158E-03    -56.4173E-03     229.095E-03    -72.6857E-03     129.336E-03    -56.0694E-03     238.891E-03
              36     17.0172E-03     74.7421E-03    -3.03965E+06     162.680E+06     115.290E+06     280.774E+03    -61.4554E-03     117.892E-03    -56.4368E-03     234.636E-03    -72.7745E-03     129.444E-03    -56.0918E-03     244.573E-03
              37     17.0188E-03     75.8053E-03    -3.73375E+06     162.591E+06     115.269E+06     403.048E+03    -59.9676E-03     116.453E-03    -56.4852E-03     234.234E-03    -71.2834E-03     127.998E-03    -56.1392E-03     244.380E-03
              38     17.0176E-03     76.8559E-03    -2.42028E+06     163.981E+06     116.537E+06     460.749E+03    -59.4670E-03     115.941E-03    -56.4743E-03     230.414E-03    -70.5082E-03     127.218E-03    -56.1259E-03     240.534E-03
              39     17.0197E-03     77.9180E-03    -2.20999E+06     164.280E+06     116.825E+06    -255.361E+03    -60.7944E-03     117.220E-03    -56.4254E-03     227.041E-03    -71.6330E-03     128.295E-03    -56.0763E-03     236.893E-03
              40     17.0173E-03     78.9796E-03    -3.09614E+06     163.674E+06     116.141E+06    -560.071E+03    -61.9119E-03     118.329E-03    -56.4167E-03     227.164E-03    -72.7938E-03     129.444E-03    -56.0689E-03     236.917E-03
              41     17.0185E-03     80.0436E-03    -2.95966E+06     164.240E+06     116.156E+06     444.438E+03    -61.9773E-03     118.416E-03    -56.4384E-03     231.946E-03    -73.1161E-03     129.790E-03    -56.0914E-03     241.789E-03
              42     17.0176E-03     81.1122E-03    -3.33905E+06     165.030E+06     115.988E+06     905.029E+03    -59.5252E-03     116.022E-03    -56.4969E-03     236.064E-03    -70.9182E-03     127.653E-03    -56.1514E-03     246.235E-03
              43     17.0190E-03     82.1619E-03    -4.11643E+06     164.829E+06     115.115E+06     205.564E+03    -58.2379E-03     114.744E-03    -56.5065E-03     228.135E-03    -69.2132E-03     125.957E-03    -56.1640E-03     238.366E-03
              44     17.0173E-03     83.2059E-03    -3.19496E+06     165.208E+06     115.555E+06    -481.899E+03    -62.7049E-03     119.095E-03    -56.3902E-03     218.744E-03    -73.0539E-03     129.685E-03    -56.0474E-03     228.237E-03
              45     17.0183E-03     84.2925E-03    -3.11549E+06     165.401E+06     115.908E+06    -657.093E+03    -63.8966E-03     120.274E-03    -56.3774E-03     225.338E-03    -74.6112E-03     131.229E-03    -56.0332E-03     234.699E-03
              46     17.0178E-03     85.3564E-03    -3.54328E+06     165.802E+06     115.946E+06     532.407E+03    -59.3859E-03     115.867E-03    -56.4810E-03     236.688E-03    -70.8297E-03     127.551E-03    -56.1366E-03     246.931E-03
              47     17.0200E-03     86.4066E-03    -531.712E+03     168.994E+06     117.975E+06     1.43139E+06    -57.9971E-03     114.476E-03    -56.4785E-03     233.408E-03    -69.2563E-03     125.991E-03    -56.1329E-03     243.785E-03
              48     17.0182E-03     87.4629E-03    -3.00604E+06     168.981E+06     116.479E+06     772.776E+03    -60.8043E-03     117.200E-03    -56.3955E-03     227.503E-03    -71.7045E-03     128.351E-03    -56.0537E-03     237.397E-03
              49     17.0193E-03     88.5274E-03    -4.14962E+06     170.611E+06     116.698E+06     672.083E+03    -63.0921E-03     119.450E-03    -56.3579E-03     229.367E-03    -74.0876E-03     130.698E-03    -56.0158E-03     238.999E-03
              50     17.0178E-03     89.5991E-03    -3.02041E+06     173.762E+06     118.573E+06     441.184E+03    -61.6042E-03     118.009E-03    -56.4047E-03     234.801E-03    -72.9492E-03     129.616E-03    -56.0594E-03     244.696E-03
              51     17.0200E-03     90.6530E-03    -3.08075E+06     174.116E+06     118.401E+06     479.168E+03    -58.7565E-03     115.194E-03    -56.4371E-03     233.355E-03    -70.0154E-03     126.717E-03    -56.0931E-03     243.583E-03
              52     17.0195E-03     91.7049E-03    -3.01424E+06     173.772E+06     118.004E+06    -71.2019E+03    -59.3306E-03     115.717E-03    -56.3868E-03     225.747E-03    -70.1336E-03     126.784E-03    -56.0444E-03     235.773E-03
              53     17.0195E-03     92.7662E-03    -4.12398E+06     174.430E+06     118.292E+06     471.928E+03    -61.9191E-03     118.220E-03    -56.3008E-03     225.345E-03    -72.6510E-03     129.213E-03    -55.9563E-03     235.026E-03
              54     17.0215E-03     93.8366E-03    -1.90431E+06     178.366E+06     120.909E+06     1.34858E+06    -61.3973E-03     117.656E-03    -56.2584E-03     231.698E-03    -72.4713E-03     129.005E-03    -55.9097E-03     241.475E-03
              55     17.0224E-03     94.8984E-03    -2.96548E+06     178.194E+06     120.318E+06     805.062E+03    -59.6721E-03     115.915E-03    -56.2431E-03     237.502E-03    -71.1459E-03     127.662E-03    -55.8956E-03     247.671E-03
              56     17.0232E-03     95.9554E-03    -3.74178E+06     177.816E+06     120.477E+06     1.34865E+06    -57.5163E-03     113.715E-03    -56.1985E-03     235.530E-03    -68.8629E-03     125.330E-03    -55.8485E-03     245.886E-03
              57     17.0273E-03     97.0054E-03    -2.60104E+06     178.943E+06     121.796E+06     235.066E+03    -56.8879E-03     112.942E-03    -56.0539E-03     226.051E-03    -67.6422E-03     123.969E-03    -55.7006E-03     236.243E-03
              58     17.0280E-03     98.0518E-03    -4.08787E+06     178.373E+06     122.263E+06    -1.00586E+06    -61.8505E-03     117.636E-03    -55.7860E-03     221.419E-03    -72.2692E-03     128.320E-03    -55.4274E-03     230.923E-03
              59     17.0317E-03     99.1395E-03    -2.63687E+06     179.895E+06     124.426E+06     1.26907E+06    -61.3593E-03     116.971E-03    -55.6114E-03     228.755E-03    -72.1976E-03     128.078E-03    -55.2463E-03     238.360E-03
              60     17.0374E-03     100.190E-03    -4.20846E+06     179.476E+06     123.927E+06     966.495E+03    -57.9154E-03     113.355E-03    -55.4392E-03     235.800E-03    -69.2272E-03     124.930E-03    -55.0737E-03     246.146E-03
              61     17.0404E-03     101.242E-03    -2.33552E+06     180.508E+06     126.003E+06     880.504E+03    -59.0365E-03     114.132E-03    -55.0953E-03     232.552E-03    -70.0740E-03     125.437E-03    -54.7236E-03     242.640E-03
              62     17.0497E-03     102.311E-03    -2.26698E+06     180.364E+06     126.542E+06     1.28792E+06    -58.7311E-03     113.437E-03    -54.7058E-03     231.649E-03    -69.6797E-03     124.651E-03    -54.3314E-03     241.703E-03
              63     17.0546E-03     103.356E-03    -3.33777E+06     178.147E+06     125.560E+06     1.17141E+06    -60.3172E-03     114.535E-03    -54.2179E-03     229.791E-03    -71.1896E-03     125.664E-03    -53.8435E-03     239.794E-03
              64     17.0650E-03     104.425E-03    -1.43207E+06     179.128E+06     128.015E+06    -62.7419E+03    -64.5927E-03     118.258E-03    -53.6653E-03     232.037E-03    -75.6194E-03     129.545E-03    -53.2829E-03     241.564E-03
              65     17.0697E-03     105.499E-03    -1.33269E+06     176.780E+06     127.950E+06    -527.295E+03    -65.6043E-03     118.860E-03    -53.2554E-03     233.311E-03    -76.8923E-03     130.400E-03    -52.8701E-03     242.864E-03
              66     17.0755E-03     106.549E-03    -6.84946E+06     169.579E+06     123.436E+06    -1.31202E+06    -68.2828E-03     121.162E-03    -52.8789E-03     222.834E-03    -79.1378E-03     132.236E-03    -52.4977E-03     232.181E-03
              67     17.0777E-03     107.612E-03    -5.14210E+06     165.320E+06     123.455E+06     42.7635E+03    -77.8573E-03     130.248E-03    -52.3906E-03     219.944E-03    -88.4706E-03     141.075E-03    -52.0056E-03     228.166E-03
              68     17.0841E-03     108.721E-03    -3.27987E+06     163.021E+06      125.01E+06     98.5874E+03    -81.7618E-03     133.824E-03    -52.0620E-03     227.598E-03    -92.9026E-03     145.171E-03    -51.6685E-03     235.299E-03
              69     17.0861E-03     109.787E-03    -1.42391E+06     157.968E+06     124.876E+06    -2.16077E+06    -82.8730E-03     134.698E-03    -51.8249E-03     225.926E-03    -94.0691E-03     146.085E-03    -51.4275E-03     233.592E-03
              70     17.0895E-03     110.858E-03    -4.81800E+06     149.301E+06     122.256E+06    -4.45031E+06    -94.3806E-03     145.751E-03    -51.3700E-03     216.870E-03    -104.934E-03     156.465E-03    -50.9682E-03     223.017E-03
              71     17.0914E-03     111.979E-03    -1.38055E+06     143.802E+06     122.775E+06    -3.38950E+06    -108.816E-03     159.712E-03    -50.8957E-03     226.892E-03    -119.893E-03     170.946E-03    -50.4883E-03     231.155E-03
              72     17.0941E-03     113.106E-03    -6.86282E+06     132.708E+06     119.068E+06    -4.10263E+06    -117.537E-03     168.103E-03    -50.5659E-03     246.059E-03    -129.847E-03     180.518E-03    -50.1531E-03     249.174E-03
              73     17.0976E-03     114.227E-03      22.014E+03     125.078E+06     125.913E+06     480.567E+03    -121.166E-03     171.484E-03    -50.3178E-03     256.554E-03    -134.096E-03     184.495E-03    -49.8696E-03     259.065E-03
              74     17.1027E-03     115.351E-03    -3.67397E+06     112.556E+06     129.383E+06    -3.70463E+06    -128.071E-03     178.088E-03    -50.0177E-03     262.895E-03    -141.503E-03     191.534E-03    -49.5287E-03     264.062E-03
              75     17.1016E-03     116.482E-03    -1.19858E+06     92.9053E+06     132.265E+06    -7.20645E+06    -142.622E-03     192.261E-03    -49.6389E-03     272.771E-03    -156.670E-03     206.260E-03    -49.1106E-03     271.224E-03
              76     17.1052E-03     117.655E-03    -1.05780E+06     69.7992E+06     138.928E+06    -11.5078E+06    -157.740E-03     207.092E-03    -49.3516E-03     302.172E-03    -173.709E-03     222.922E-03    -48.7566E-03     297.210E-03
              77     17.1046E-03     118.844E-03     1.38470E+06     53.9261E+06     136.572E+06    -4.01051E+06    -169.723E-03     218.896E-03    -49.1732E-03     353.048E-03    -189.238E-03     238.237E-03    -48.5706E-03     344.457E-03
              78     17.1070E-03     120.040E-03    -554.916E+03     54.7629E+06     152.455E+06     5.14203E+06    -168.088E-03     217.584E-03    -49.4957E-03     405.139E-03    -190.542E-03     239.809E-03    -48.8120E-03     393.648E-03
              79     17.1024E-03     121.191E-03    -19.5295E+06     33.6974E+06     100.315E+06    -10.7122E+06    -125.596E-03     176.017E-03    -50.4207E-03     441.489E-03    -145.453E-03     195.652E-03    -49.9396E-03     433.521E-03
              80     17.1172E-03     122.195E-03    -5.45407E+06    -12.1991E+06     5.50278E+06    -22.9965E+06    -41.8378E-03     94.9112E-03    -53.0734E-03     409.545E-03    -51.3864E-03     104.420E-03    -53.0202E-03     408.247E-03
              81     17.0238E-03     123.074E-03     10.5399E+06    -20.7300E+06     36.7198E+06     7.05802E+06     28.0882E-03     34.0405E-03    -62.1287E-03     226.360E-03     26.5826E-03     35.3312E-03    -61.9303E-03     227.005E-03
              82     16.6445E-03     123.928E-03     7.10244E+06    -4.51171E+06     32.0442E+06     18.3354E+06     47.5492E-03     32.1060E-03    -79.6552E-03     46.0621E-03     47.5317E-03     32.0056E-03    -79.4987E-03     46.2966E-03
              83     15.3942E-03     124.478E-03    -28.0416E+06    -2.86476E+06    -26.1647E+06     8.61044E+06     40.6787E-03     50.7585E-03    -91.4372E-03     12.2225E-03     40.6295E-03     50.8723E-03    -91.5232E-03     12.3331E-03
              84     14.5371E-03     124.052E-03    -26.6697E+06     27.2414E+06      39.646E+06    -9.68026E+06     15.3463E-03     77.4051E-03    -92.7514E-03     6.65889E-03     15.1105E-03     77.5187E-03    -92.5540E-03     6.51342E-03
              85     13.7437E-03     123.631E-03    -30.3017E+06    -13.1489E+06     64.2363E+06    -24.6620E+06    -25.7169E-03     116.930E-03    -91.2129E-03    -45.7926E-03    -25.9801E-03     116.728E-03    -90.8287E-03    -46.2724E-03
              86     12.9946E-03     123.261E-03    -29.1513E+06    -15.3663E+06     53.8068E+06    -24.3578E+06    -55.3416E-03     142.497E-03    -87.1553E-03    -99.4927E-03    -55.5674E-03     142.217E-03    -86.8218E-03    -100.167E-03
              87     12.2652E-03     122.935E-03    -6.43435E+06    -15.1168E+06     62.5363E+06    -24.8958E+06    -67.1355E-03     149.776E-03    -82.6405E-03    -108.795E-03    -67.2401E-03     149.444E-03    -82.2965E-03    -109.543E-03
              88     11.5044E-03     122.670E-03     7.64220E+06    -20.0706E+06     71.3179E+06    -7.76413E+06    -72.0394E-03     150.790E-03    -78.7503E-03    -98.1801E-03    -72.0696E-03     150.441E-03    -78.3757E-03    -98.6683E-03
              89     10.7317E-03     122.445E-03     18.0661E+06     2.62423E+06      85.047E+06    -7.80516E+06    -75.9476E-03     151.404E-03    -75.4565E-03    -86.3928E-03    -75.9846E-03     151.164E-03    -75.0612E-03    -86.8206E-03
              90     9.94617E-03     122.261E-03     27.5384E+06    -8.34536E+06     88.7771E+06    -4.58306E+06    -78.1080E-03     150.652E-03    -72.5435E-03    -73.6421E-03    -78.0883E-03     150.367E-03    -72.1275E-03    -73.9712E-03
              91     9.14893E-03     122.102E-03     36.5438E+06    -1.48546E+06     94.4002E+06    -2.28136E+06    -77.5958E-03     147.514E-03    -69.9186E-03    -62.2573E-03    -77.5489E-03     147.264E-03    -69.4974E-03    -62.5109E-03
              92     8.34225E-03     121.969E-03     41.4353E+06    -1.41059E+06     92.4571E+06     374.168E+03    -75.6174E-03     143.171E-03    -67.5537E-03    -52.1738E-03    -75.5457E-03     142.931E-03    -67.1495E-03    -52.3492E-03
              93     7.52800E-03     121.854E-03     43.9279E+06     252.444E+03     87.1187E+06     935.953E+03    -73.2273E-03     138.652E-03    -65.4252E-03    -43.0776E-03    -73.1393E-03     138.435E-03    -65.0536E-03    -43.2075E-03
              94     6.70720E-03     121.758E-03     45.1155E+06    -626.415E+03     80.9575E+06     1.97422E+06    -70.0702E-03     133.623E-03    -63.5531E-03    -35.2603E-03    -69.9670E-03     133.416E-03    -63.2129E-03    -35.3471E-03
              95     5.88010E-03     121.676E-03     45.5736E+06     2.17119E+06     77.2824E+06     517.221E+03    -67.2454E-03     129.191E-03    -61.9460E-03    -28.6578E-03    -67.1390E-03     129.007E-03    -61.6288E-03    -28.7403E-03
              96     5.04853E-03     121.610E-03     47.0925E+06    -551.139E+03     71.6674E+06    -455.828E+03    -64.6405E-03     125.204E-03    -60.5632E-03    -23.1796E-03    -64.5146E-03     125.015E-03    -60.2724E-03    -23.2563E-03
              97     4.21275E-03     121.552E-03     48.6119E+06     702.984E+03     66.2513E+06    -500.914E+03    -61.9142E-03     121.352E-03    -59.4383E-03    -18.2746E-03    -61.7749E-03     121.178E-03    -59.1786E-03    -18.3347E-03
              98     3.37338E-03     121.510E-03     49.7547E+06    -166.234E+03     62.2856E+06    -640.154E+03    -60.1083E-03     118.690E-03    -58.5822E-03    -14.1395E-03    -59.9561E-03     118.518E-03    -58.3427E-03    -14.1879E-03
              99     2.53164E-03     121.474E-03     50.9673E+06     749.006E+03     59.3395E+06    -1.35767E+06    -58.7952E-03     116.715E-03    -57.9198E-03    -10.6991E-03    -58.6342E-03     116.551E-03    -57.6981E-03    -10.7459E-03
             100     1.68848E-03     121.451E-03     52.0807E+06    -1.17520E+06     55.4000E+06    -1.24107E+06    -57.7894E-03     115.228E-03    -57.4387E-03    -7.48651E-03    -57.6146E-03     115.059E-03    -57.2355E-03    -7.52173E-03
             101     844.079E-06     121.435E-03     53.2489E+06    -857.498E+03     53.0088E+06    -912.719E+03    -56.8323E-03     114.355E-03    -57.5229E-03    -4.64761E-03    -56.6492E-03     114.189E-03    -57.3338E-03    -4.66999E-03
             102     237.759E-09     120.365E-03     43.7851E+06    -2.92370E+06     43.7759E+06    -522.915E+03    -50.7295E-03     101.968E-03    -51.2389E-03    -1.50203E-03    -50.5755E-03     101.821E-03    -51.0793E-03    -1.51604E-03
             103     315.068E-09     119.331E-03     22.3965E+06    -8.25361E+06     23.4332E+06    -2.62380E+06    -40.6746E-03     81.0776E-03    -40.4030E-03     535.985E-06    -40.5878E-03     80.9668E-03    -40.3063E-03     494.738E-06
             104    -357.994E-09     118.310E-03    -3.57872E+06    -18.9000E+06    -3.61764E+06    -2.82030E+06    -32.8682E-03     65.6213E-03    -32.7531E-03     1.63778E-03    -32.8554E-03     65.5355E-03    -32.7386E-03     1.59565E-03
             105     619.346E-09     117.305E-03    -31.5167E+06    -28.9598E+06    -30.5540E+06    -3.04548E+06    -27.3769E-03     54.6337E-03    -27.2568E-03     2.86807E-03    -27.4490E-03     54.5783E-03    -27.3219E-03     2.82533E-03
             106    -655.734E-09     116.308E-03    -61.6390E+06    -42.8545E+06    -60.9156E+06    -4.23619E+06    -23.8672E-03     47.7594E-03    -23.8922E-03     3.94258E-03    -24.0252E-03     47.7226E-03    -24.0453E-03     3.88628E-03
             107     651.875E-09     115.315E-03    -97.2662E+06    -58.4924E+06    -96.2855E+06    -6.14023E+06    -22.2312E-03     44.3290E-03    -22.0978E-03     4.70488E-03    -22.4930E-03     44.3173E-03    -22.3533E-03     4.62506E-03
             108    -411.483E-09     114.327E-03    -131.423E+06    -75.7409E+06    -133.487E+06    -4.50854E+06    -21.8573E-03     43.6452E-03    -21.7879E-03     4.97665E-03    -22.2110E-03     43.6506E-03    -22.1549E-03     4.91839E-03
             109     258.988E-09     113.334E-03    -135.623E+06    -79.4900E+06    -136.957E+06     3.63262E+06    -23.1004E-03     46.1311E-03    -23.0307E-03     6.05541E-03    -23.4648E-03     46.1287E-03    -23.4036E-03     6.10357E-03
             110    -15.1376E-09     112.340E-03    -92.0077E+06    -56.4999E+06    -93.5928E+06     9.96679E+06    -25.6862E-03     51.0834E-03    -25.3972E-03     6.36685E-03    -25.9288E-03     51.0697E-03    -25.6498E-03     6.49680E-03
             111     243.509E-09     111.339E-03    -57.8508E+06    -27.1956E+06    -54.5011E+06     8.64614E+06    -28.7368E-03     57.2469E-03    -28.5102E-03     6.38078E-03    -28.9080E-03     57.2733E-03    -28.6593E-03     6.49323E-03
             112    -52.2213E-09     110.332E-03    -40.7050E+06    -14.5331E+06    -38.6030E+06    -589.309E+03    -32.5095E-03     64.8575E-03    -32.3480E-03     6.52771E-03    -32.6367E-03     64.8991E-03    -32.4609E-03     6.51935E-03
             113     153.538E-09     109.316E-03    -24.8403E+06    -14.8079E+06    -26.7590E+06    -2.08556E+06    -36.4561E-03     72.9325E-03    -36.4763E-03     6.95972E-03    -36.5207E-03     72.9327E-03    -36.5526E-03     6.93175E-03
             114    -327.226E-09     108.289E-03    -19.9607E+06    -22.0794E+06    -18.4808E+06    -871.565E+03    -40.3050E-03     80.3067E-03    -40.0016E-03     7.77847E-03    -40.3464E-03     80.2517E-03    -40.0331E-03     7.76648E-03
             115     1.01654E-06     107.260E-03    -16.9063E+06    -34.0677E+06    -17.0720E+06    -3.49027E+06    -43.4559E-03     86.3025E-03    -42.8466E-03     6.63928E-03    -43.4664E-03     86.1815E-03    -42.8581E-03     6.58824E-03
             116    -675.474E-09     106.225E-03    -16.6146E+06    -47.6411E+06    -15.7059E+06    -4.49496E+06    -46.1080E-03     91.9424E-03    -45.8344E-03     6.25640E-03    -46.0998E-03     91.7509E-03    -45.8197E-03     6.18914E-03
             117     801.414E-09     105.180E-03    -15.8568E+06    -61.1208E+06    -17.3088E+06    -4.14140E+06    -48.9069E-03     97.6701E-03    -48.7632E-03     6.88829E-03    -48.8730E-03     97.4125E-03    -48.7381E-03     6.82481E-03
             118    -715.282E-09     104.133E-03    -19.1150E+06    -71.8050E+06    -19.1660E+06    -3.15185E+06    -50.9036E-03     101.625E-03    -50.7214E-03     5.80354E-03    -50.8676E-03     101.322E-03    -50.6854E-03     5.74781E-03
             119     925.304E-09     103.083E-03    -23.0433E+06    -83.6931E+06    -23.2057E+06    -2.62369E+06    -52.3646E-03     104.377E-03    -52.0121E-03     6.28218E-03    -52.3251E-03     104.026E-03    -51.9734E-03     6.23542E-03
             120    -553.228E-09     102.025E-03    -26.5347E+06    -97.1972E+06    -27.3697E+06    -1.65603E+06    -53.5265E-03     106.771E-03    -53.2449E-03     7.08333E-03    -53.4789E-03     106.364E-03    -53.2023E-03     7.05037E-03
             121     629.932E-09     100.975E-03    -31.4710E+06    -110.588E+06    -30.6848E+06    -3.73178E+06    -54.4890E-03     108.562E-03    -54.0733E-03     5.87009E-03    -54.4421E-03     108.100E-03    -54.0208E-03     5.80237E-03
             122    -4.70447E-09     99.9138E-03    -33.8635E+06    -119.704E+06    -34.5492E+06    -3.45836E+06    -55.3007E-03     110.355E-03    -55.0547E-03     5.67514E-03    -55.2471E-03     109.856E-03    -55.0048E-03     5.60946E-03
             123    -221.631E-09     98.8579E-03    -38.3839E+06    -128.568E+06    -38.3752E+06    -2.06443E+06    -55.8858E-03     111.705E-03    -55.8197E-03     6.47096E-03    -55.8364E-03     111.174E-03    -55.7695E-03     6.42586E-03
             124     543.293E-09     97.7902E-03    -43.3416E+06    -138.260E+06    -43.7883E+06    -776.994E+03    -56.3245E-03     111.792E-03    -55.4672E-03     6.61083E-03    -56.2770E-03     111.228E-03    -55.4228E-03     6.58350E-03
             125     569.055E-09     96.7407E-03    -48.2298E+06    -144.504E+06    -46.4923E+06    -3.22693E+06    -56.3349E-03     112.247E-03    -55.9121E-03     5.54683E-03    -56.2986E-03     111.663E-03    -55.8651E-03     5.47976E-03
             126    -957.438E-09     95.6730E-03    -49.9613E+06    -152.075E+06    -52.3417E+06    -2.33481E+06    -56.4197E-03     112.910E-03    -56.4900E-03     5.69692E-03    -56.3733E-03     112.299E-03    -56.4588E-03     5.64215E-03
             127     1.18566E-06     94.6127E-03    -53.4905E+06    -156.544E+06    -52.4325E+06     939.797E+03    -56.3896E-03     112.063E-03    -55.6738E-03     6.27286E-03    -56.3541E-03     111.435E-03    -55.6314E-03     6.26908E-03
             128    -201.838E-09     93.5560E-03    -57.4428E+06    -163.490E+06    -56.9286E+06    -2.05922E+06    -56.2241E-03     111.846E-03    -55.6221E-03     6.01740E-03    -56.1920E-03     111.195E-03    -55.5864E-03     5.96938E-03
             129     232.705E-09     92.4940E-03    -56.9455E+06    -165.668E+06    -57.2891E+06    -3.13821E+06    -56.4437E-03     112.759E-03    -56.3149E-03     3.92036E-03    -56.4057E-03     112.096E-03    -56.2785E-03     3.84912E-03
             130    -56.1755E-09     91.4383E-03    -60.0025E+06    -170.424E+06    -59.3863E+06    -4.00360E+06    -56.3864E-03     113.089E-03    -56.7029E-03     4.38662E-03    -56.3531E-03     112.411E-03    -56.6657E-03     4.30880E-03
             131    -663.942E-09     90.3667E-03    -56.7913E+06    -175.662E+06    -60.1364E+06     1.96603E+06    -56.7779E-03     113.288E-03    -56.5102E-03     7.03705E-03    -56.7191E-03     112.581E-03    -56.4738E-03     7.04799E-03
             132     1.77906E-06     89.3123E-03    -59.7526E+06    -177.823E+06    -57.0019E+06     1.57773E+06    -57.0172E-03     113.146E-03    -56.1287E-03     6.30805E-03    -56.9750E-03     112.427E-03    -56.0692E-03     6.30959E-03
             133    -1.37063E-06     88.2505E-03    -57.8401E+06    -178.470E+06    -58.9117E+06    -1.83824E+06    -56.5056E-03     113.241E-03    -56.7350E-03     5.81634E-03    -56.4506E-03     112.519E-03    -56.6869E-03     5.77152E-03
             134     545.611E-09     87.1868E-03    -56.5664E+06    -178.047E+06    -55.4256E+06     162.001E+03    -56.8758E-03     113.482E-03    -56.6067E-03     6.31768E-03    -56.8202E-03     112.755E-03    -56.5436E-03     6.30072E-03
             135     731.163E-09     86.1267E-03    -58.7385E+06    -181.044E+06    -58.4423E+06    -890.206E+03    -56.9474E-03     112.956E-03    -56.0087E-03     6.32052E-03    -56.8942E-03     112.222E-03    -55.9532E-03     6.28594E-03
             136    -426.012E-09     85.0673E-03    -57.7031E+06    -180.985E+06    -58.9394E+06     530.363E+03    -56.5156E-03     112.784E-03    -56.2685E-03     5.56035E-03    -56.4566E-03     112.049E-03    -56.2171E-03     5.54369E-03
             137     513.749E-09     84.0055E-03    -59.3736E+06    -182.039E+06    -58.4687E+06     651.532E+03    -56.7200E-03     113.112E-03    -56.3921E-03     6.64906E-03    -56.6686E-03     112.373E-03    -56.3344E-03     6.63845E-03
             138    -55.0217E-09     82.9416E-03    -55.9141E+06    -179.365E+06    -56.1248E+06     1.32176E+06    -56.9233E-03     113.293E-03    -56.3698E-03     7.15735E-03    -56.8618E-03     112.559E-03    -56.3093E-03     7.15798E-03
             139     511.215E-09     81.8852E-03    -57.5120E+06    -180.293E+06    -56.8201E+06    -585.327E+03    -56.6210E-03     112.862E-03    -56.2409E-03     5.45122E-03    -56.5651E-03     112.127E-03    -56.1802E-03     5.42075E-03
             140    -326.964E-09     80.8220E-03    -57.7308E+06    -181.421E+06    -59.2215E+06     759.387E+03    -56.3190E-03     112.292E-03    -55.9735E-03     5.64548E-03    -56.2592E-03     111.555E-03    -55.9228E-03     5.63213E-03
             141     699.541E-09     79.7626E-03    -53.9750E+06    -175.940E+06    -52.2547E+06     980.904E+03    -56.4435E-03     112.634E-03    -56.1910E-03     6.11035E-03    -56.3828E-03     111.909E-03    -56.1189E-03     6.10274E-03
             142    -640.685E-09     78.7031E-03    -53.4061E+06    -176.794E+06    -54.2544E+06    -2.36572E+06    -56.6743E-03     112.921E-03    -56.2469E-03     5.41038E-03    -56.6068E-03     112.194E-03    -56.1844E-03     5.35457E-03
             143     1.28735E-06     77.6393E-03    -57.3365E+06    -181.063E+06    -58.6291E+06     1.33163E+06    -56.3384E-03     112.313E-03    -55.9744E-03     5.82294E-03    -56.2779E-03     111.576E-03    -55.9219E-03     5.81786E-03
             144    -1.34408E-06     76.5833E-03    -54.5829E+06    -177.272E+06    -53.4945E+06     1.16451E+06    -56.4275E-03     112.542E-03    -56.1147E-03     6.14271E-03    -56.3659E-03     111.813E-03    -56.0460E-03     6.13818E-03
             145     1.92716E-06     75.5181E-03    -52.5454E+06    -176.245E+06    -53.1666E+06    -157.081E+03    -56.9017E-03     113.480E-03    -56.5787E-03     6.48361E-03    -56.8318E-03     112.753E-03    -56.5128E-03     6.45948E-03
             146    -1.98745E-06     74.4597E-03    -50.9501E+06    -173.766E+06    -50.3768E+06    -1.05480E+06    -56.5974E-03     112.859E-03    -56.2618E-03     3.99762E-03    -56.5265E-03     112.139E-03    -56.1879E-03     3.96029E-03
             147     2.61411E-06     73.4012E-03    -55.6765E+06    -178.858E+06    -55.6765E+06    -1.55560E+06    -56.4141E-03     112.771E-03    -56.3568E-03     5.87284E-03    -56.3512E-03     112.040E-03    -56.2952E-03     5.82864E-03
             148    -3.16573E-06     72.3325E-03    -51.8781E+06    -175.109E+06    -51.7627E+06     397.886E+03    -56.8316E-03     113.311E-03    -56.4795E-03     6.48344E-03    -56.7594E-03     112.590E-03    -56.4091E-03     6.46666E-03
             149     4.29896E-06     71.2794E-03    -53.8123E+06    -176.255E+06    -53.1033E+06    -233.676E+03    -56.6687E-03     112.577E-03    -55.9082E-03     5.15055E-03    -56.6016E-03     111.855E-03    -55.8401E-03     5.12592E-03
             150    -4.13584E-06     70.2156E-03    -51.1101E+06    -174.969E+06    -53.0162E+06     674.028E+03    -56.7524E-03     113.384E-03    -56.6315E-03     6.31562E-03    -56.6741E-03     112.665E-03    -56.5688E-03     6.29991E-03
             151     4.14335E-06     69.1518E-03    -52.0548E+06    -174.016E+06    -50.6885E+06     362.232E+03    -56.9034E-03     113.212E-03    -56.3082E-03     5.35981E-03    -56.8347E-03     112.495E-03    -56.2339E-03     5.34230E-03
             152    -3.13828E-06     68.0957E-03    -55.1592E+06    -177.204E+06    -55.0458E+06    -1.20531E+06    -56.2313E-03     112.168E-03    -55.9372E-03     5.61102E-03    -56.1685E-03     111.445E-03    -55.8755E-03     5.57325E-03
             153     2.61735E-06     67.0327E-03    -50.8147E+06    -173.716E+06    -51.8651E+06     927.253E+03    -56.6670E-03     113.056E-03    -56.3886E-03     5.73986E-03    -56.5934E-03     112.337E-03    -56.3223E-03     5.72879E-03
             154    -1.65169E-06     65.9709E-03    -53.5335E+06    -176.114E+06    -54.1639E+06     2.09381E+06    -56.8310E-03     113.431E-03    -56.6004E-03     6.81170E-03    -56.7647E-03     112.708E-03    -56.5382E-03     6.82369E-03
             155     1.04904E-06     64.9102E-03    -51.9321E+06    -173.958E+06    -51.9774E+06     1.48427E+06    -56.7369E-03     113.429E-03    -56.6923E-03     6.47974E-03    -56.6693E-03     112.710E-03    -56.6246E-03     6.48191E-03
             156    -390.260E-09     63.8478E-03    -51.8469E+06    -172.648E+06    -50.0436E+06    -1.03945E+06    -56.8423E-03     112.950E-03    -56.1080E-03     5.51525E-03    -56.7790E-03     112.235E-03    -56.0327E-03     5.47786E-03
             157     987.141E-09     62.7908E-03    -54.7948E+06    -176.803E+06    -55.4401E+06    -2.47303E+06    -56.4791E-03     112.674E-03    -56.1945E-03     5.15706E-03    -56.4165E-03     111.950E-03    -56.1359E-03     5.09948E-03
             158    -1.11870E-06     61.7272E-03    -52.9674E+06    -174.914E+06    -53.5756E+06     2.09363E+06    -56.3944E-03     112.886E-03    -56.4915E-03     6.78761E-03    -56.3280E-03     112.166E-03    -56.4289E-03     6.79825E-03
             159     447.000E-09     59.6094E-03    -53.3209E+06    -175.026E+06    -53.4544E+06    -800.150E+03    -56.7781E-03     112.645E-03    -55.8674E-03     5.36449E-03    -56.7132E-03     111.926E-03    -55.8035E-03     5.32849E-03
             160    -416.408E-09     58.5443E-03    -51.9668E+06    -173.893E+06    -52.9869E+06    -33.9503E+03    -56.2331E-03     112.799E-03    -56.5664E-03     4.86586E-03    -56.1648E-03     112.082E-03    -56.5039E-03     4.84000E-03
             161    -201.195E-09     57.4882E-03    -52.9147E+06    -174.256E+06    -52.7461E+06    -1.02340E+06    -56.8259E-03     113.796E-03    -56.9700E-03     6.08831E-03    -56.7624E-03     113.078E-03    -56.9044E-03     6.05395E-03
             162     561.884E-09     56.4158E-03    -53.8940E+06    -174.922E+06    -53.7441E+06     149.018E+03    -56.6739E-03     112.510E-03    -55.8363E-03     6.04062E-03    -56.6117E-03     111.793E-03    -55.7733E-03     6.02190E-03
             163     488.659E-09     55.3692E-03    -55.3868E+06    -176.066E+06    -54.8807E+06     111.289E+03    -56.3518E-03     111.827E-03    -55.4756E-03     5.57348E-03    -56.2939E-03     111.108E-03    -55.4143E-03     5.55007E-03
             164    -54.0262E-09     54.3008E-03    -50.5990E+06    -171.955E+06    -51.5125E+06    -34.1578E+03    -56.7326E-03     113.445E-03    -56.7122E-03     6.12085E-03    -56.6626E-03     112.733E-03    -56.6471E-03     6.09868E-03
             165    -369.348E-09     53.2399E-03    -52.7522E+06    -173.376E+06    -52.5695E+06     959.361E+03    -56.6358E-03     113.334E-03    -56.6978E-03     6.40909E-03    -56.5723E-03     112.620E-03    -56.6328E-03     6.40599E-03
             166     670.949E-09     52.1806E-03    -52.9284E+06    -173.136E+06    -51.8052E+06    -577.417E+03    -56.9985E-03     113.258E-03    -56.2599E-03     6.22131E-03    -56.9375E-03     112.545E-03    -56.1911E-03     6.19154E-03
             167     278.752E-09     51.1181E-03    -52.6229E+06    -173.346E+06    -52.8263E+06    -1.64492E+06    -56.9632E-03     113.481E-03    -56.5178E-03     5.70960E-03    -56.8990E-03     112.768E-03    -56.4543E-03     5.66314E-03
             168    -487.204E-09     50.0574E-03    -54.1074E+06    -174.936E+06    -54.5910E+06     586.667E+03    -56.3134E-03     112.270E-03    -55.9561E-03     5.46225E-03    -56.2516E-03     111.553E-03    -55.8970E-03     5.44791E-03
             169     1.28571E-06     48.9971E-03    -54.6155E+06    -174.797E+06    -53.7336E+06    -782.298E+03    -56.3576E-03     111.820E-03    -55.4627E-03     4.87520E-03    -56.2994E-03     111.104E-03    -55.3987E-03     4.83814E-03
             170    -562.393E-09     47.9427E-03    -52.3829E+06    -174.269E+06    -54.7474E+06    -610.543E+03    -56.2209E-03     112.483E-03    -56.2624E-03     4.69502E-03    -56.1504E-03     111.769E-03    -56.2074E-03     4.66001E-03
             171    -268.283E-09     46.8729E-03    -52.9179E+06    -173.050E+06    -51.6466E+06     892.614E+03    -56.3802E-03     112.904E-03    -56.5236E-03     6.30288E-03    -56.3186E-03     112.191E-03    -56.4542E-03     6.29651E-03
             172     849.400E-09     45.8179E-03    -53.9108E+06    -172.958E+06    -51.4459E+06    -2.36875E+06    -56.9914E-03     112.884E-03    -55.8928E-03     5.97232E-03    -56.9359E-03     112.173E-03    -55.8210E-03     5.91911E-03
             173     449.296E-09     44.7555E-03    -51.3866E+06    -172.645E+06    -53.8233E+06    -241.662E+03    -56.3703E-03     112.561E-03    -56.1911E-03     5.22270E-03    -56.2994E-03     111.851E-03    -56.1353E-03     5.19584E-03
             174    -1.48199E-06     43.6959E-03    -54.4586E+06    -175.482E+06    -55.7041E+06     2.96546E+06    -55.8647E-03     112.110E-03    -56.2453E-03     5.91291E-03    -55.8018E-03     111.393E-03    -56.1904E-03     5.93432E-03
             175     1.83705E-06     42.6328E-03    -54.1767E+06    -173.718E+06    -52.4908E+06     1.40051E+06    -56.3487E-03     111.695E-03    -55.3462E-03     6.22812E-03    -56.2911E-03     110.982E-03    -55.2782E-03     6.22899E-03
             176    -485.701E-09     41.5788E-03    -51.5180E+06    -171.400E+06    -50.9668E+06    -1.05897E+06    -56.0239E-03     111.879E-03    -55.8549E-03     6.65734E-03    -55.9585E-03     111.172E-03    -55.7865E-03     6.62384E-03
             177    -592.800E-09     40.5130E-03    -52.1618E+06    -173.178E+06    -53.9538E+06     1.38628E+06    -56.1332E-03     111.851E-03    -55.7173E-03     6.08256E-03    -56.0642E-03     111.140E-03    -55.6604E-03     6.08253E-03
             178     2.34474E-06     39.4570E-03    -54.1211E+06    -173.654E+06    -53.3656E+06     1.23994E+06    -55.4863E-03     110.317E-03    -54.8305E-03     5.26156E-03    -55.4269E-03     109.606E-03    -54.7670E-03     5.25843E-03
             179    -2.98192E-06     38.4027E-03    -52.3970E+06    -171.992E+06    -51.6624E+06    -2.51861E+06    -54.9737E-03     110.265E-03    -55.2914E-03     4.65607E-03    -54.9103E-03     109.558E-03    -55.2243E-03     4.59719E-03
             180     3.07587E-06     37.3387E-03    -51.9571E+06    -171.837E+06    -52.6993E+06    -1.56006E+06    -55.5390E-03     110.420E-03    -54.8813E-03     4.95405E-03    -55.4720E-03     109.715E-03    -54.8203E-03     4.91047E-03
             181    -2.07079E-06     36.2842E-03    -51.8223E+06    -171.394E+06    -52.4964E+06     789.673E+03    -54.6690E-03     109.186E-03    -54.5174E-03     4.82760E-03    -54.6031E-03     108.482E-03    -54.4562E-03     4.81769E-03
             182     1.30416E-06     35.2295E-03    -52.6438E+06    -172.050E+06    -52.6046E+06    -669.499E+03    -54.7540E-03     109.639E-03    -54.8849E-03     4.54548E-03    -54.6920E-03     108.932E-03    -54.8221E-03     4.51472E-03
             183    -769.901E-09     34.1660E-03    -52.2213E+06    -171.202E+06    -51.8746E+06    -887.055E+03    -54.9484E-03     109.594E-03    -54.6452E-03     5.39182E-03    -54.8865E-03     108.889E-03    -54.5806E-03     5.36002E-03
             184     743.310E-09     33.1140E-03    -52.6343E+06    -170.809E+06    -51.6324E+06    -551.678E+03    -54.4049E-03     108.220E-03    -53.8153E-03     4.95163E-03    -54.3461E-03     107.518E-03    -53.7494E-03     4.92402E-03
             185     289.811E-09     32.0559E-03    -53.2907E+06    -172.442E+06    -54.9044E+06     1.19433E+06    -54.0031E-03     107.744E-03    -53.7407E-03     5.75585E-03    -53.9405E-03     107.039E-03    -53.6879E-03     5.75516E-03
             186    -908.125E-09     31.0016E-03    -51.6735E+06    -169.962E+06    -52.0313E+06     3.13193E+06    -53.6162E-03     107.400E-03    -53.7838E-03     6.35158E-03    -53.5530E-03     106.701E-03    -53.7226E-03     6.37952E-03
             187     1.21938E-06     29.9437E-03    -53.2328E+06    -170.501E+06    -52.0131E+06     1.01145E+06    -53.3461E-03     105.726E-03    -52.3798E-03     5.79627E-03    -53.2893E-03     105.027E-03    -52.3154E-03     5.79475E-03
             188     118.203E-09     28.8973E-03    -52.7319E+06    -170.372E+06    -53.3168E+06     419.182E+03    -52.0500E-03     103.749E-03    -51.6990E-03     4.55726E-03    -51.9890E-03     103.052E-03    -51.6421E-03     4.54594E-03
             189    -874.153E-09     27.8449E-03    -52.8509E+06    -169.937E+06    -52.8661E+06    -346.954E+03    -51.4675E-03     103.241E-03    -51.7731E-03     4.11954E-03    -51.4088E-03     102.545E-03    -51.7144E-03     4.09742E-03
             190     1.09937E-06     26.7935E-03    -50.2786E+06    -166.742E+06    -49.4037E+06    -1.53334E+06    -51.7628E-03     103.162E-03    -51.3990E-03     4.14841E-03    -51.7009E-03     102.473E-03    -51.3314E-03     4.10914E-03
             191    -701.009E-09     25.7457E-03    -50.1930E+06    -167.777E+06    -52.4935E+06    -74.8029E+03    -50.8296E-03     101.796E-03    -50.9668E-03     3.96763E-03    -50.7612E-03     101.107E-03    -50.9132E-03     3.94932E-03
             192     34.6863E-09     24.6930E-03    -51.0356E+06    -166.718E+06    -50.4411E+06     2.04207E+06    -50.0308E-03     100.002E-03    -49.9716E-03     4.45908E-03    -49.9709E-03     99.3167E-03    -49.9081E-03     4.47244E-03
             193     730.600E-09     23.6513E-03    -52.4134E+06    -166.035E+06    -49.7235E+06    -2.79981E+06    -49.5017E-03     98.5528E-03    -49.0511E-03     3.87138E-03    -49.4509E-03     97.8713E-03    -48.9829E-03     3.81882E-03
             194    -701.102E-09     22.6041E-03    -50.4873E+06    -166.066E+06    -53.3869E+06    -552.516E+03    -48.5203E-03     97.1316E-03    -48.6112E-03     3.34248E-03    -48.4548E-03     96.4522E-03    -48.5642E-03     3.31949E-03
             195     479.006E-09     21.5612E-03    -51.6599E+06    -164.706E+06    -51.0380E+06     2.10244E+06    -47.7272E-03     95.5274E-03    -47.8002E-03     3.61025E-03    -47.6729E-03     94.8530E-03    -47.7417E-03     3.62499E-03
             196    -380.750E-09     20.5189E-03    -50.6249E+06    -163.132E+06    -51.0067E+06     217.488E+03    -46.9230E-03     93.7932E-03    -46.8703E-03     3.64887E-03    -46.8658E-03     93.1251E-03    -46.8153E-03     3.63999E-03
             197     363.062E-09     19.4798E-03    -50.0929E+06    -161.425E+06    -50.0260E+06     687.347E+03    -45.9539E-03     91.9080E-03    -45.9542E-03     3.21817E-03    -45.8979E-03     91.2462E-03    -45.8976E-03     3.21544E-03
             198    -349.338E-09     18.4417E-03    -50.1590E+06    -161.003E+06    -50.9453E+06     902.769E+03    -44.8653E-03     89.7458E-03    -44.8804E-03     3.00639E-03    -44.8090E-03     89.0875E-03    -44.8290E-03     3.00783E-03
             199     297.385E-09     17.4066E-03    -47.6821E+06    -156.701E+06    -47.4746E+06     1.87788E+06    -43.9248E-03     87.6928E-03    -43.7680E-03     2.93935E-03    -43.8674E-03     87.0474E-03    -43.7090E-03     2.95501E-03
             200     23.8533E-09     16.3728E-03    -46.7444E+06    -154.099E+06    -46.3199E+06     251.973E+03    -42.8725E-03     85.4267E-03    -42.5542E-03     2.46717E-03    -42.8158E-03     84.7912E-03    -42.4945E-03     2.46182E-03
             201     206.669E-09     15.3431E-03    -46.6113E+06    -151.888E+06    -46.8588E+06     411.005E+03    -41.3873E-03     82.6080E-03    -41.2207E-03     1.83586E-03    -41.3323E-03     81.9841E-03    -41.1672E-03     1.83293E-03
             202    -153.024E-09     14.3147E-03    -45.4583E+06    -147.911E+06    -44.8209E+06     418.738E+03    -39.7461E-03     79.3809E-03    -39.6348E-03     1.43650E-03    -39.6941E-03     78.7722E-03    -39.5785E-03     1.43481E-03
             203     299.656E-09     13.2911E-03    -43.7790E+06    -145.122E+06    -44.2164E+06     471.288E+03    -37.9572E-03     75.6965E-03    -37.7393E-03     912.588E-06    -37.9018E-03     75.0985E-03    -37.6865E-03     911.951E-06
             204    -72.1237E-09     12.2712E-03    -42.5980E+06    -141.738E+06    -42.2165E+06     731.551E+03    -35.9618E-03     71.7855E-03    -35.8237E-03     556.312E-06    -35.9082E-03     71.1997E-03    -35.7675E-03     559.592E-06
             205     89.8985E-09     11.2548E-03    -39.5110E+06    -138.445E+06    -40.3560E+06     980.414E+03    -34.0734E-03     68.2653E-03    -34.1918E-03     931.773E-06    -34.0119E-03     67.6888E-03    -34.1356E-03     939.123E-06
             206    -322.727E-09     10.2413E-03    -37.7553E+06    -135.741E+06    -37.4060E+06     1.04640E+06    -32.5981E-03     65.2569E-03    -32.6588E-03     981.906E-06    -32.5359E-03     64.6872E-03    -32.5943E-03     990.575E-06
             207     454.396E-09     9.23180E-03    -36.1516E+06    -133.791E+06    -35.8309E+06     619.690E+03    -31.5736E-03     63.0583E-03    -31.4847E-03     1.27177E-03    -31.5085E-03     62.4938E-03    -31.4174E-03     1.27510E-03
             208    -427.540E-09     8.22277E-03    -35.2076E+06    -132.917E+06    -34.7764E+06     63.8934E+03    -31.3912E-03     62.6845E-03    -31.2933E-03     1.59446E-03    -31.3241E-03     62.1215E-03    -31.2234E-03     1.59064E-03
             209     575.132E-09     7.21437E-03    -35.4382E+06    -134.480E+06    -35.4602E+06    -822.721E+03    -32.0772E-03     64.2264E-03    -32.1491E-03     1.75790E-03    -32.0080E-03     63.6569E-03    -32.0800E-03     1.74278E-03
             210    -848.641E-09     6.20198E-03    -36.3408E+06    -137.158E+06    -36.2248E+06    -815.754E+03    -33.9819E-03     68.0320E-03    -34.0502E-03     2.40494E-03    -33.9124E-03     67.4513E-03    -33.9797E-03     2.38999E-03
             211     1.00403E-06     5.18541E-03    -36.5973E+06    -140.037E+06    -36.1407E+06    -920.730E+03    -36.9217E-03     73.7686E-03    -36.8469E-03     2.56661E-03    -36.8495E-03     73.1738E-03    -36.7715E-03     2.55073E-03
             212    -1.02336E-06     4.16205E-03    -35.8741E+06    -143.147E+06    -35.9511E+06    -316.821E+03    -40.3578E-03     80.6587E-03    -40.3008E-03     2.66501E-03    -40.2780E-03     80.0467E-03    -40.2210E-03     2.65746E-03
             213     1.14250E-06     3.13092E-03    -33.2876E+06    -144.162E+06    -33.3184E+06    -162.233E+03    -44.0652E-03     88.0952E-03    -44.0301E-03     2.46948E-03    -43.9747E-03     87.4707E-03    -43.9393E-03     2.46392E-03
             214    -1.19872E-06     2.09233E-03    -31.2651E+06    -145.190E+06    -31.2301E+06    -338.834E+03    -47.2537E-03     94.5337E-03    -47.2800E-03     1.87283E-03    -47.1542E-03     93.8984E-03    -47.1803E-03     1.86570E-03
             215     1.21108E-06     1.04754E-03    -30.1943E+06    -146.542E+06    -30.4995E+06    -312.693E+03    -49.5281E-03     98.8758E-03    -49.3477E-03     1.07158E-03    -49.4223E-03     98.2311E-03    -49.2439E-03     1.06580E-03
             216     856.321E-06     263.678E-18    -29.4916E+06    -146.698E+06    -29.4634E+06    -363.524E+03    -50.3327E-03     100.466E-03    -50.1330E-03     868.634E-06    -50.2246E-03     99.8178E-03    -50.0249E-03     862.085E-06
             217     1.71076E-03     263.678E-18    -29.0684E+06    -146.298E+06    -29.0659E+06    -119.033E+03    -50.3257E-03     100.578E-03    -50.2523E-03     1.65092E-03    -50.2168E-03     99.9308E-03    -50.1433E-03     1.64666E-03
             218     2.56725E-03     263.678E-18    -28.6371E+06    -145.771E+06    -28.6450E+06    -676.285E+03    -50.4167E-03     100.709E-03    -50.2924E-03     2.37028E-03    -50.3070E-03     100.063E-03    -50.1827E-03     2.35663E-03
             219     3.42200E-03     263.678E-18    -27.7401E+06    -145.127E+06    -28.2293E+06    -552.953E+03    -50.5326E-03     100.870E-03    -50.3374E-03     3.09045E-03    -50.4200E-03     100.226E-03    -50.2279E-03     3.07660E-03
             220     4.27792E-03     263.678E-18    -26.4851E+06    -145.007E+06    -29.2450E+06    -966.214E+03    -50.7362E-03     101.124E-03    -50.3879E-03     4.07247E-03    -50.6161E-03     100.480E-03    -50.2855E-03     4.05256E-03
             221     5.13236E-03     263.678E-18    -24.4995E+06    -144.761E+06    -32.2100E+06    -2.50234E+06    -51.1129E-03     101.567E-03    -50.4543E-03     4.77695E-03    -50.9790E-03     100.926E-03    -50.3699E-03     4.73390E-03
             222     5.98821E-03     263.678E-18    -21.5377E+06    -144.045E+06    -36.6940E+06    -3.71309E+06    -51.6607E-03     102.211E-03    -50.5502E-03     5.56171E-03    -51.5066E-03     101.575E-03    -50.4936E-03     5.50087E-03
             223     6.84104E-03     263.678E-18    -17.3429E+06    -139.166E+06    -42.9026E+06    -4.57777E+06    -52.3993E-03     103.076E-03    -50.6764E-03     6.69936E-03    -52.2225E-03     102.468E-03    -50.6640E-03     6.62458E-03
             224     7.69580E-03     263.678E-18    -12.5618E+06    -126.668E+06    -49.3193E+06    -5.84444E+06    -53.3409E-03     104.184E-03    -50.8429E-03     7.59452E-03    -53.1491E-03     103.641E-03    -50.8876E-03     7.49919E-03
             225     8.54733E-03     263.678E-18    -7.28511E+06    -101.364E+06    -52.1820E+06    -6.32588E+06    -54.5216E-03     105.590E-03    -51.0686E-03     8.89484E-03    -54.3363E-03     105.171E-03    -51.1720E-03     8.78753E-03
             226     9.39924E-03     263.678E-18    -1.92931E+06    -62.9080E+06    -47.9854E+06    -5.03935E+06    -55.9009E-03     107.278E-03    -51.3769E-03     10.4356E-03    -55.7509E-03     107.037E-03    -51.5228E-03     10.3403E-03
             227     10.2485E-03     263.678E-18     534.675E+03    -22.0988E+06    -30.8048E+06    -2.07642E+06    -57.6343E-03     109.460E-03    -51.8261E-03     12.1310E-03    -57.5569E-03     109.396E-03    -51.9489E-03     12.0613E-03
             228     11.0974E-03     263.678E-18    -46.4874E+03     6.48549E+06    -6.48841E+06     634.420E+03    -59.9974E-03     112.428E-03    -52.4301E-03     14.8305E-03    -60.0005E-03     112.472E-03    -52.4719E-03     14.7855E-03
             229     11.9406E-03     263.678E-18    -297.488E+03     23.6536E+06     19.9816E+06     266.592E+03    -63.1290E-03     116.316E-03    -53.1865E-03     17.9374E-03    -63.1986E-03     116.410E-03    -53.1204E-03     17.8637E-03
             230     12.7856E-03     263.678E-18     2.82114E+06     38.4348E+06     50.9919E+06    -95.9916E+03    -67.9871E-03     122.132E-03    -54.1447E-03     23.8774E-03    -68.1109E-03     122.254E-03    -53.9495E-03     23.7698E-03
             231     13.6159E-03     263.678E-18     2.94772E+06     50.8535E+06     74.6253E+06     1.62680E+06    -77.3649E-03     132.773E-03    -55.4077E-03     33.0425E-03    -77.5489E-03     132.932E-03    -55.1125E-03     32.8841E-03
             232     14.4479E-03     263.678E-18    -1.99665E+06     59.4593E+06     80.9816E+06     6.56719E+06    -96.0246E-03     153.285E-03    -57.2603E-03     62.1718E-03    -96.2835E-03     153.504E-03    -56.9387E-03     61.9677E-03
             233     15.2172E-03     263.678E-18    -3.28343E+06     66.5128E+06     79.4329E+06     12.7879E+06    -113.740E-03     173.636E-03    -59.8963E-03     105.415E-03    -114.091E-03     173.962E-03    -59.5908E-03     105.051E-03
             234     16.0012E-03     263.678E-18     12.0354E+06     93.9718E+06     95.4438E+06     4.99100E+06    -149.077E-03     212.687E-03    -63.6093E-03     152.665E-03    -150.364E-03     214.117E-03    -63.2858E-03     149.324E-03
             235     16.8432E-03     1.29831E-03     1.91370E+06     111.910E+06     95.3083E+06     3.94308E+06    -196.478E-03     259.821E-03    -63.3426E-03     222.755E-03    -200.746E-03     264.281E-03    -63.0311E-03     213.797E-03
             236     16.9283E-03     2.59072E-03    -13.0363E+06     112.380E+06     80.6836E+06     11.4502E+06    -191.396E-03     251.161E-03    -59.7648E-03     239.859E-03    -197.499E-03     257.391E-03    -59.5054E-03     230.016E-03
             237     16.9468E-03     3.77205E-03    -5.22140E+06     119.239E+06     82.2479E+06     9.86242E+06    -159.360E-03     217.497E-03    -58.1369E-03     219.995E-03    -165.900E-03     224.191E-03    -57.8910E-03     212.999E-03
             238     16.9765E-03     4.90088E-03    -1.40327E+06     128.442E+06     90.1493E+06     5.01300E+06    -153.006E-03     209.948E-03    -56.9415E-03     205.934E-03    -159.638E-03     216.768E-03    -56.6750E-03     199.738E-03
             239     16.9860E-03     6.09875E-03     1.83864E+06     136.218E+06     99.2564E+06    -226.501E+03    -152.114E-03     208.238E-03    -56.1236E-03     197.841E-03    -158.938E-03     215.277E-03    -55.8275E-03     191.996E-03
             240     16.9937E-03     7.26901E-03    -2.82557E+06     135.328E+06     100.124E+06    -585.540E+03    -143.018E-03     199.012E-03    -55.9937E-03     214.381E-03    -151.101E-03     207.276E-03    -55.6852E-03     209.606E-03
             241     16.9938E-03     8.40710E-03    -4.71467E+06     135.902E+06     101.678E+06     491.490E+03    -133.217E-03     189.319E-03    -56.1024E-03     214.778E-03    -141.616E-03     197.888E-03    -55.7843E-03     211.444E-03
             242     16.9943E-03     9.54471E-03    -3.78566E+06     137.294E+06     102.908E+06     1.08068E+06    -120.790E-03     177.101E-03    -56.3115E-03     209.759E-03    -129.124E-03     185.609E-03    -55.9906E-03     208.321E-03
             243     16.9983E-03     10.6483E-03    -2.74214E+06     137.323E+06     102.630E+06     111.015E+03    -111.135E-03     167.529E-03    -56.3945E-03     207.899E-03    -119.449E-03     176.022E-03    -56.0765E-03     207.916E-03
             244     16.9993E-03     11.7687E-03    -1.66682E+06     138.113E+06     103.358E+06     191.436E+03    -105.488E-03     161.876E-03    -56.3883E-03     205.093E-03    -113.775E-03     170.349E-03    -56.0693E-03     206.084E-03
             245     17.0026E-03     12.8739E-03    -2.31415E+06     139.249E+06     104.255E+06     68.2367E+03    -99.0441E-03     155.478E-03    -56.4340E-03     205.627E-03    -107.514E-03     164.131E-03    -56.1112E-03     207.725E-03
             246     17.0026E-03     13.9688E-03    -1.48751E+06     140.397E+06     105.240E+06     952.680E+03    -94.3191E-03     150.715E-03    -56.3957E-03     205.493E-03    -102.831E-03     159.414E-03    -56.0709E-03     208.456E-03
             247     17.0096E-03     15.0694E-03    -7.57067E+03     141.856E+06     106.404E+06    -54.0622E+03    -90.2543E-03     146.576E-03    -56.3217E-03     204.945E-03    -98.8463E-03     155.363E-03    -55.9953E-03     208.607E-03
             248     17.0071E-03     16.1591E-03    -2.34034E+06     141.447E+06     106.025E+06    -1.03099E+06    -87.3121E-03     143.628E-03    -56.3161E-03     205.334E-03    -96.1200E-03     152.622E-03    -55.9877E-03     209.682E-03
             249     17.0103E-03     17.2499E-03    -3.87812E+06     140.923E+06     105.552E+06     478.283E+03    -84.6687E-03     141.009E-03    -56.3401E-03     205.628E-03    -93.5851E-03     150.106E-03    -56.0110E-03     210.571E-03
             250     17.0092E-03     18.3353E-03    -3.41982E+06     141.917E+06     105.973E+06     1.17543E+06    -81.6123E-03     137.971E-03    -56.3585E-03     206.734E-03    -90.6354E-03     147.178E-03    -56.0295E-03     212.200E-03
             251     17.0121E-03     19.4182E-03    -3.83270E+06     143.422E+06     106.845E+06     784.042E+03    -79.6193E-03     135.971E-03    -56.3514E-03     207.527E-03    -88.7353E-03     145.272E-03    -56.0195E-03     213.372E-03
             252     17.0113E-03     20.5001E-03    -2.88309E+06     144.715E+06     108.126E+06     520.930E+03    -77.9497E-03     134.289E-03    -56.3394E-03     207.760E-03    -87.1207E-03     143.650E-03    -56.0044E-03     213.921E-03
             253     17.0137E-03     21.5797E-03    -2.58812E+06     145.436E+06     108.534E+06     658.586E+03    -75.6896E-03     132.031E-03    -56.3414E-03     208.390E-03    -84.9305E-03     141.464E-03    -56.0059E-03     214.923E-03
             254     17.0135E-03     22.6562E-03    -2.42414E+06     146.994E+06     109.356E+06     545.924E+03    -73.8766E-03     130.214E-03    -56.3372E-03     209.482E-03    -83.2307E-03     139.764E-03    -56.0001E-03     216.356E-03
             255     17.0150E-03     23.7323E-03    -2.61286E+06     148.252E+06     109.747E+06     393.750E+03    -73.0681E-03     129.387E-03    -56.3191E-03     211.766E-03    -82.6011E-03     139.119E-03    -55.9816E-03     218.906E-03
             256     17.0149E-03     24.8101E-03    -3.54897E+06     149.110E+06     109.733E+06     161.870E+03    -72.0705E-03     128.385E-03    -56.3147E-03     218.481E-03    -82.0286E-03     138.542E-03    -55.9771E-03     225.970E-03
             257     17.0163E-03     25.8899E-03    -2.80381E+06     150.096E+06     110.048E+06     522.740E+03    -70.2233E-03     126.570E-03    -56.3472E-03     225.200E-03    -80.6531E-03     137.204E-03    -56.0105E-03     233.148E-03
             258     17.0152E-03     26.9558E-03    -4.48391E+06     149.713E+06     109.675E+06     492.461E+03    -69.5712E-03     125.940E-03    -56.3692E-03     228.801E-03    -80.2498E-03     136.817E-03    -56.0315E-03     237.045E-03
             259     17.0162E-03     28.0304E-03    -2.43100E+06     151.497E+06     111.226E+06     1.81245E+06    -66.4693E-03     122.868E-03    -56.3987E-03     228.237E-03    -77.0983E-03     133.704E-03    -56.0587E-03     236.844E-03
             260     17.0187E-03     29.0888E-03    -2.66277E+06     151.039E+06     110.406E+06    -52.1908E+03    -64.3570E-03     120.754E-03    -56.3974E-03     223.678E-03    -74.7927E-03     131.397E-03    -56.0605E-03     232.601E-03
             261     17.0154E-03     30.1457E-03    -3.89404E+06     151.205E+06     111.061E+06    -364.105E+03    -67.9249E-03     124.237E-03    -56.3125E-03     220.874E-03    -78.1996E-03     134.714E-03    -55.9708E-03     229.409E-03
             262     17.0191E-03     31.2361E-03    -1.86471E+06     153.330E+06     112.574E+06     896.752E+03    -66.8348E-03     123.171E-03    -56.3365E-03     225.305E-03    -77.3974E-03     133.946E-03    -55.9932E-03     234.014E-03
             263     17.0159E-03     32.2892E-03    -3.01250E+06     153.140E+06     111.264E+06     413.834E+03    -62.9979E-03     119.412E-03    -56.4141E-03     226.328E-03    -73.6665E-03     130.291E-03    -56.0755E-03     235.656E-03
             264     17.0197E-03     33.3480E-03    -2.88728E+06     153.641E+06     111.721E+06    -265.362E+03    -63.0469E-03     119.432E-03    -56.3850E-03     223.970E-03    -73.5409E-03     130.137E-03    -56.0450E-03     233.250E-03
             265     17.0170E-03     34.4237E-03    -3.41865E+06     153.425E+06     111.705E+06    -714.241E+03    -62.5776E-03     118.980E-03    -56.4022E-03     225.014E-03    -73.2333E-03     129.844E-03    -56.0612E-03     234.422E-03
             266     17.0183E-03     35.4744E-03    -3.71867E+06     153.337E+06     111.612E+06    -200.033E+03    -62.4255E-03     118.832E-03    -56.4067E-03     221.770E-03    -72.9008E-03     129.515E-03    -56.0655E-03     231.255E-03
             267     17.0179E-03     36.5359E-03    -2.46404E+06     154.377E+06     112.687E+06    -347.254E+03    -64.1994E-03     120.545E-03    -56.3458E-03     220.712E-03    -74.5274E-03     131.086E-03    -56.0026E-03     229.882E-03
             268     17.0185E-03     37.6195E-03    -2.44560E+06     155.311E+06     112.753E+06     368.279E+03    -62.3384E-03     118.729E-03    -56.3907E-03     228.033E-03    -73.1766E-03     129.783E-03    -56.0486E-03     237.603E-03
             269     17.0187E-03     38.6655E-03    -3.65327E+06     154.850E+06     111.991E+06    -343.872E+03    -61.6915E-03     118.107E-03    -56.4155E-03     231.485E-03    -72.7785E-03     129.406E-03    -56.0748E-03     241.334E-03
             270     17.0176E-03     39.7374E-03    -3.11641E+06     154.881E+06     112.686E+06     58.6812E+03    -61.9757E-03     118.388E-03    -56.4125E-03     230.212E-03    -72.9505E-03     129.575E-03    -56.0691E-03     239.899E-03
             271     17.0194E-03     40.7970E-03    -2.81449E+06     154.900E+06     112.248E+06     388.913E+03    -59.5909E-03     116.039E-03    -56.4481E-03     229.175E-03    -70.5384E-03     127.201E-03    -56.1074E-03     239.181E-03
             272     17.0182E-03     41.8436E-03    -2.81708E+06     155.445E+06     112.937E+06    -432.528E+03    -61.5545E-03     117.945E-03    -56.3903E-03     225.502E-03    -72.2634E-03     128.868E-03    -56.0470E-03     235.255E-03
             273     17.0191E-03     42.9224E-03    -2.15675E+06     156.896E+06     114.323E+06     135.693E+03    -62.4072E-03     118.780E-03    -56.3723E-03     228.643E-03    -73.2936E-03     129.884E-03    -56.0250E-03     238.254E-03
             274     17.0189E-03     43.9820E-03    -3.66234E+06     155.879E+06     112.718E+06    -478.112E+03    -60.0021E-03     116.438E-03    -56.4362E-03     231.221E-03    -71.1182E-03     127.768E-03    -56.0933E-03     241.268E-03
             275     17.0181E-03     45.0308E-03    -3.24504E+06     155.949E+06     112.446E+06     207.865E+03    -60.9354E-03     117.352E-03    -56.4163E-03     227.581E-03    -71.8099E-03     128.442E-03    -56.0755E-03     237.492E-03
             276     17.0191E-03     46.1040E-03    -2.78494E+06     157.112E+06     112.792E+06     505.669E+03    -62.3994E-03     118.791E-03    -56.3920E-03     230.876E-03    -73.4538E-03     130.067E-03    -56.0518E-03     240.625E-03
             277     17.0175E-03     47.1676E-03    -3.74414E+06     156.830E+06     112.632E+06    -76.6797E+03    -60.3817E-03     116.831E-03    -56.4495E-03     234.494E-03    -71.6597E-03     128.326E-03    -56.1084E-03     244.529E-03
             278     17.0198E-03     48.2192E-03    -2.47646E+06     157.227E+06     113.169E+06     591.147E+03    -59.0443E-03     115.502E-03    -56.4574E-03     230.730E-03    -70.0742E-03     126.753E-03    -56.1159E-03     240.883E-03
             279     17.0181E-03     49.2767E-03    -2.66899E+06     157.064E+06     113.622E+06    -431.078E+03    -61.0393E-03     117.451E-03    -56.4119E-03     228.189E-03    -71.9351E-03     128.566E-03    -56.0676E-03     238.068E-03
             280     17.0187E-03     50.3476E-03    -3.42359E+06     156.639E+06     113.746E+06    -206.168E+03    -61.3387E-03     117.763E-03    -56.4241E-03     230.404E-03    -72.3853E-03     129.023E-03    -56.0775E-03     240.266E-03
             281     17.0183E-03     51.4009E-03    -3.63514E+06     156.501E+06     113.273E+06     121.014E+03    -61.0463E-03     117.481E-03    -56.4352E-03     230.675E-03    -72.0862E-03     128.736E-03    -56.0905E-03     240.591E-03
             282     17.0182E-03     52.4653E-03    -2.13499E+06     157.528E+06     114.005E+06     466.369E+03    -60.2483E-03     116.683E-03    -56.4343E-03     229.275E-03    -71.1644E-03     127.820E-03    -56.0896E-03     239.198E-03
             283     17.0201E-03     53.5243E-03    -2.94290E+06     157.291E+06     113.097E+06    -246.764E+03    -60.1454E-03     116.575E-03    -56.4292E-03     230.714E-03    -71.2044E-03     127.854E-03    -56.0875E-03     240.752E-03
             284     17.0168E-03     54.5837E-03    -4.74286E+06     156.909E+06     113.177E+06    -60.9631E+03    -62.6610E-03     119.072E-03    -56.4108E-03     232.048E-03    -73.7954E-03     130.418E-03    -56.0655E-03     241.826E-03
             285     17.0188E-03     55.6556E-03    -1.59035E+06     159.391E+06     114.612E+06     1.70262E+06    -59.5621E-03     116.023E-03    -56.4612E-03     231.888E-03    -70.6404E-03     127.330E-03    -56.1170E-03     241.913E-03
             286     17.0199E-03     56.6984E-03    -3.24917E+06     157.507E+06     111.951E+06    -346.357E+03    -58.8710E-03     115.321E-03    -56.4499E-03     230.055E-03    -69.8846E-03     126.558E-03    -56.1138E-03     240.274E-03
             287     17.0167E-03     57.7647E-03    -2.81301E+06     158.001E+06     113.526E+06     70.8471E+03    -61.8290E-03     118.218E-03    -56.3886E-03     227.816E-03    -72.6917E-03     129.303E-03    -56.0460E-03     237.561E-03
             288     17.0212E-03     58.8323E-03    -2.29238E+06     158.765E+06     114.497E+06    -875.034E+03    -60.2273E-03     116.654E-03    -56.4263E-03     227.870E-03    -71.1378E-03     127.788E-03    -56.0807E-03     237.779E-03
             289     17.0159E-03     59.8780E-03    -4.88958E+06     156.575E+06     112.386E+06    -1.06063E+06    -61.4837E-03     117.908E-03    -56.4240E-03     225.614E-03    -72.2597E-03     128.897E-03    -56.0820E-03     235.463E-03
             290     17.0196E-03     60.9536E-03    -2.12202E+06     159.051E+06     114.245E+06     979.778E+03    -62.2354E-03     118.637E-03    -56.4012E-03     227.209E-03    -73.0435E-03     129.671E-03    -56.0575E-03     236.872E-03
             291     17.0181E-03     62.0131E-03    -2.20201E+06     160.168E+06     115.081E+06    -123.228E+03    -61.9452E-03     118.368E-03    -56.4229E-03     235.786E-03    -73.3087E-03     129.959E-03    -56.0766E-03     245.722E-03
             292     850.750E-06     61.7338E-03    -52.8856E+06    -174.136E+06    -51.8589E+06     883.717E+03    -56.3072E-03     112.734E-03    -56.4272E-03     9.96064E-03    -56.2452E-03     112.017E-03    -56.3573E-03     9.93829E-03
             293     1.70133E-03     61.7475E-03    -51.8125E+06    -172.352E+06    -48.4695E+06     25.2732E+03    -56.4289E-03     112.797E-03    -56.3681E-03     17.2997E-03    -56.3725E-03     112.085E-03    -56.2854E-03     17.2316E-03
             294     2.55233E-03     61.7675E-03    -49.6447E+06    -168.658E+06    -42.7488E+06     636.016E+03    -56.7278E-03     113.145E-03    -56.4176E-03     25.5396E-03    -56.6797E-03     112.446E-03    -56.3148E-03     25.4439E-03
             295     3.40313E-03     61.7990E-03    -46.7052E+06    -164.080E+06    -35.4499E+06     342.895E+03    -56.8961E-03     113.391E-03    -56.4949E-03     33.5553E-03    -56.8593E-03     112.709E-03    -56.3665E-03     33.4141E-03
             296     4.25256E-03     61.8361E-03    -43.9349E+06    -160.783E+06     -29.613E+06     114.825E+03    -56.8341E-03     113.365E-03    -56.5314E-03     41.5257E-03    -56.8089E-03     112.699E-03    -56.3826E-03     41.3357E-03
             297     5.10442E-03     61.8833E-03    -41.1781E+06    -155.975E+06    -23.0981E+06     314.382E+03    -56.9465E-03     113.484E-03    -56.5378E-03     49.5441E-03    -56.9413E-03     112.846E-03    -56.3674E-03     49.3024E-03
             298     5.95471E-03     61.9358E-03    -37.9269E+06    -151.265E+06    -17.5149E+06     403.398E+03    -57.2229E-03     113.765E-03    -56.5424E-03     57.3130E-03    -57.2398E-03     113.161E-03    -56.3557E-03     57.0091E-03
             299     6.80547E-03     61.9985E-03    -35.2786E+06    -145.944E+06    -14.8794E+06     571.061E+03    -57.3815E-03     113.917E-03    -56.5358E-03     64.9431E-03    -57.4281E-03     113.364E-03    -56.3475E-03     64.5691E-03
             300     7.65627E-03     62.0672E-03    -32.7943E+06    -138.234E+06    -12.5712E+06     767.517E+03    -57.6093E-03     114.131E-03    -56.5213E-03     72.4790E-03    -57.7008E-03     113.651E-03    -56.3362E-03     72.0207E-03
             301     8.50704E-03     62.1446E-03    -30.6012E+06    -126.757E+06    -10.4943E+06     1.04294E+06    -57.8616E-03     114.364E-03    -56.5029E-03     79.7572E-03    -58.0198E-03     113.995E-03    -56.3272E-03     79.1993E-03
             302     9.35770E-03     62.2270E-03    -29.2439E+06    -110.495E+06    -10.3202E+06     1.02089E+06    -58.1915E-03     114.666E-03    -56.4748E-03     87.3687E-03    -58.4456E-03     114.454E-03    -56.3238E-03     86.6890E-03
             303     10.2084E-03     62.3203E-03    -27.9978E+06    -89.3766E+06    -11.1886E+06     1.28870E+06    -58.3473E-03     114.782E-03    -56.4350E-03     94.8479E-03    -58.7316E-03     114.782E-03    -56.3207E-03     94.0323E-03
             304     11.0596E-03     62.4186E-03    -26.2218E+06    -58.8268E+06    -10.5324E+06     912.422E+03    -58.3511E-03     114.729E-03    -56.3774E-03     102.388E-03    -58.9238E-03     115.030E-03    -56.3068E-03     101.402E-03
             305     11.9104E-03     62.5262E-03    -23.4507E+06    -13.3801E+06    -10.3506E+06    -140.310E+03    -58.6049E-03     114.888E-03    -56.2826E-03     114.518E-03    -59.4862E-03     115.668E-03    -56.2810E-03     113.304E-03
             306     12.7616E-03     62.6478E-03    -22.6085E+06     32.2976E+06    -3.22379E+06     387.940E+03    -59.9398E-03     116.170E-03    -56.2303E-03     138.384E-03    -61.4430E-03     117.717E-03    -56.2604E-03     136.839E-03
             307     13.6124E-03     62.8078E-03    -22.7411E+06     66.1601E+06     22.7108E+06     1.81381E+06    -63.2292E-03     119.537E-03    -56.3082E-03     186.252E-03    -66.2237E-03     122.620E-03    -56.2576E-03     184.190E-03
             308     14.4621E-03     63.0242E-03    -18.8424E+06     102.658E+06     66.7670E+06     718.923E+03    -71.5960E-03     128.054E-03    -56.4578E-03     284.021E-03    -79.5728E-03     136.135E-03    -56.2455E-03     281.054E-03
             309     15.3154E-03     63.3857E-03    -12.8287E+06     142.581E+06     105.147E+06    -1.22702E+06    -84.6418E-03     141.225E-03    -56.5837E-03     411.863E-03    -107.006E-03     163.745E-03    -56.2461E-03     409.390E-03
             310     16.1565E-03     63.8803E-03    -6.55958E+06     160.167E+06     115.174E+06    -446.773E+03    -74.0477E-03     130.625E-03    -56.5773E-03     352.226E-03    -95.9954E-03     152.784E-03    -56.2242E-03     356.770E-03
             311     850.463E-06     62.7934E-03    -53.4971E+06    -175.252E+06    -53.2905E+06    -749.821E+03    -56.3957E-03     112.653E-03    -56.2571E-03     9.34304E-03    -56.3332E-03     111.933E-03    -56.1919E-03     9.29592E-03
             312     1.70236E-03     62.8078E-03    -51.5698E+06    -172.012E+06    -47.9862E+06     317.642E+03    -56.6040E-03     112.979E-03    -56.3748E-03     17.2545E-03    -56.5475E-03     112.268E-03    -56.2905E-03     17.1911E-03
             313     2.55185E-03     62.8294E-03    -49.3812E+06    -168.503E+06    -42.4487E+06    -56.1421E+03    -56.8827E-03     113.365E-03    -56.4822E-03     25.2708E-03    -56.8341E-03     112.666E-03    -56.3785E-03     25.1646E-03
             314     3.40192E-03     62.8596E-03    -46.6713E+06    -164.111E+06    -35.8845E+06     217.451E+03    -56.7444E-03     113.291E-03    -56.5461E-03     33.6724E-03    -56.7067E-03     112.609E-03    -56.4199E-03     33.5305E-03
             315     4.25353E-03     62.8977E-03    -44.0724E+06    -160.441E+06    -29.3586E+06     233.608E+03    -56.7673E-03     113.318E-03    -56.5509E-03     41.6760E-03    -56.7438E-03     112.654E-03    -56.4012E-03     41.4879E-03
             316     5.10387E-03     62.9426E-03    -41.0417E+06    -156.067E+06    -23.4272E+06     363.528E+03    -56.9742E-03     113.521E-03    -56.5471E-03     49.5971E-03    -56.9676E-03     112.883E-03    -56.3784E-03     49.3563E-03
             317     5.95483E-03     62.9984E-03    -37.7372E+06    -151.260E+06    -17.6940E+06     487.013E+03    -57.2432E-03     113.797E-03    -56.5541E-03     57.2228E-03    -57.2588E-03     113.193E-03    -56.3685E-03     56.9201E-03
             318     6.80533E-03     63.0580E-03    -34.8647E+06    -146.043E+06    -14.7709E+06     498.168E+03    -57.4245E-03     113.976E-03    -56.5511E-03     64.8818E-03    -57.4694E-03     113.421E-03    -56.3627E-03     64.5053E-03
             319     7.65619E-03     63.1292E-03    -32.9828E+06    -139.176E+06    -13.0610E+06     746.168E+03    -57.4561E-03     113.985E-03    -56.5287E-03     72.4063E-03    -57.5459E-03     113.501E-03    -56.3443E-03     71.9498E-03
             320     8.50738E-03     63.2039E-03    -30.9625E+06    -127.350E+06    -10.9489E+06     1.14776E+06    -57.9101E-03     114.413E-03    -56.5033E-03     79.8804E-03    -58.0684E-03     114.041E-03    -56.3285E-03     79.3244E-03
             321     9.35788E-03     63.2900E-03    -28.9645E+06    -110.379E+06    -10.1741E+06     1.04813E+06    -58.2983E-03     114.781E-03    -56.4830E-03     87.2832E-03    -58.5519E-03     114.570E-03    -56.3318E-03     86.6018E-03
             322     10.2082E-03     63.3799E-03    -27.0170E+06    -89.5818E+06    -10.7850E+06     1.17760E+06    -58.2412E-03     114.685E-03    -56.4435E-03     94.9283E-03    -58.6204E-03     114.681E-03    -56.3283E-03     94.1134E-03
             323     11.0590E-03     63.4803E-03    -25.8645E+06    -57.5819E+06    -10.1907E+06     1.15977E+06    -58.3210E-03     114.699E-03    -56.3775E-03     102.639E-03    -58.8940E-03     115.005E-03    -56.3075E-03     101.658E-03
             324     11.9106E-03     63.5855E-03    -27.3612E+06    -12.0016E+06    -11.7240E+06     242.253E+03    -59.0611E-03     115.355E-03    -56.2939E-03     114.997E-03    -59.9708E-03     116.159E-03    -56.2955E-03     113.773E-03
             325     12.7600E-03     63.7118E-03    -27.3059E+06     30.1920E+06    -8.45062E+06     220.605E+03    -59.9192E-03     116.160E-03    -56.2408E-03     139.335E-03    -61.4431E-03     117.719E-03    -56.2873E-03     137.788E-03
             326     13.6116E-03     63.8649E-03    -22.4442E+06     65.6562E+06     19.7870E+06     693.274E+03    -62.4652E-03     118.754E-03    -56.2891E-03     187.669E-03    -65.4616E-03     121.847E-03    -56.2528E-03     185.622E-03
             327     14.4646E-03     64.0890E-03    -16.7935E+06     104.916E+06     68.4352E+06     682.758E+03    -71.3359E-03     127.756E-03    -56.4206E-03     284.323E-03    -79.3008E-03     135.836E-03    -56.2062E-03     281.363E-03
             328     15.3147E-03     64.4425E-03    -11.9670E+06     143.972E+06     106.925E+06     713.039E+03    -83.0396E-03     139.520E-03    -56.4808E-03     415.431E-03    -105.594E-03     162.234E-03    -56.1376E-03     413.289E-03
             329     16.1729E-03     64.9591E-03    -7.29891E+06     160.340E+06     115.847E+06    -367.047E+03    -75.3736E-03     131.806E-03    -56.4323E-03     352.517E-03    -97.2794E-03     153.920E-03    -56.0750E-03     356.979E-03
             330     851.338E-06     63.8553E-03    -51.9983E+06    -173.214E+06    -50.5186E+06    -702.003E+03    -56.8435E-03     113.190E-03    -56.3469E-03     9.15552E-03    -56.7805E-03     112.475E-03    -56.2730E-03     9.10862E-03
             331     1.70022E-03     63.8681E-03    -51.0495E+06    -171.969E+06    -48.1817E+06     105.298E+03    -56.6866E-03     113.288E-03    -56.6011E-03     17.1800E-03    -56.6273E-03     112.576E-03    -56.5186E-03     17.1131E-03
             332     2.55172E-03     63.8913E-03    -49.2218E+06    -168.852E+06    -42.9475E+06    -174.552E+03    -56.5042E-03     113.093E-03    -56.5891E-03     25.4179E-03    -56.4535E-03     112.393E-03    -56.4876E-03     25.3111E-03
             333     3.40276E-03     63.9199E-03    -46.8254E+06    -164.534E+06    -36.3179E+06     24.1807E+03    -56.5771E-03     113.128E-03    -56.5504E-03     33.6019E-03    -56.5388E-03     112.444E-03    -56.4256E-03     33.4579E-03
             334     4.25339E-03     63.9582E-03    -43.6095E+06    -160.233E+06    -29.2213E+06     324.620E+03    -56.8799E-03     113.426E-03    -56.5462E-03     41.7419E-03    -56.8546E-03     112.762E-03    -56.3967E-03     41.5545E-03
             335     5.10369E-03     64.0047E-03    -40.5558E+06    -155.957E+06    -23.3518E+06     69.1324E+03    -57.0829E-03     113.644E-03    -56.5614E-03     49.4987E-03    -57.0742E-03     113.006E-03    -56.3932E-03     49.2534E-03
             336     5.95463E-03     64.0576E-03    -37.5368E+06    -151.354E+06    -17.5501E+06     370.060E+03    -57.1777E-03     113.749E-03    -56.5709E-03     57.4234E-03    -57.1923E-03     113.144E-03    -56.3848E-03     57.1200E-03
             337     6.80526E-03     64.1210E-03    -34.7639E+06    -146.413E+06    -14.4817E+06     541.839E+03    -57.3732E-03     113.933E-03    -56.5594E-03     64.8025E-03    -57.4173E-03     113.376E-03    -56.3691E-03     64.4270E-03
             338     7.65622E-03     64.1878E-03    -32.4216E+06    -139.651E+06    -13.0108E+06     820.236E+03    -57.6297E-03     114.171E-03    -56.5409E-03     72.2612E-03    -57.7165E-03     113.684E-03    -56.3564E-03     71.8030E-03
             339     8.50686E-03     64.2665E-03    -30.2937E+06    -127.835E+06    -10.9719E+06     908.395E+03    -57.8581E-03     114.378E-03    -56.5200E-03     80.0758E-03    -58.0119E-03     114.002E-03    -56.3456E-03     79.5183E-03
             340     9.35727E-03     64.3500E-03    -28.2368E+06    -110.658E+06    -9.91589E+06     1.02257E+06    -58.0462E-03     114.531E-03    -56.4845E-03     87.4478E-03    -58.2953E-03     114.316E-03    -56.3327E-03     86.7708E-03
             341     10.2087E-03     64.4416E-03    -26.5859E+06    -89.1771E+06    -10.1915E+06     962.647E+03    -58.2689E-03     114.705E-03    -56.4360E-03     94.7645E-03    -58.6469E-03     114.701E-03    -56.3191E-03     93.9464E-03
             342     11.0601E-03     64.5401E-03    -25.3830E+06    -58.4559E+06    -10.0621E+06     1.55360E+06    -58.5491E-03     114.929E-03    -56.3802E-03     102.535E-03    -59.1209E-03     115.233E-03    -56.3090E-03     101.553E-03
             343     11.9098E-03     64.6481E-03    -23.5516E+06    -11.0759E+06    -9.65092E+06     2.37391E+06    -58.7724E-03     115.069E-03    -56.2963E-03     115.260E-03    -59.6665E-03     115.868E-03    -56.2944E-03     114.071E-03
             344     12.7619E-03     64.7719E-03    -22.0499E+06     31.7656E+06    -757.221E+03     889.694E+03    -59.5563E-03     115.801E-03    -56.2452E-03     139.287E-03    -61.0624E-03     117.344E-03    -56.2630E-03     137.760E-03
             345     13.6135E-03     64.9259E-03    -21.4810E+06     65.1814E+06     25.5631E+06    -347.616E+03    -62.6704E-03     118.960E-03    -56.2899E-03     187.276E-03    -65.6632E-03     122.034E-03    -56.2254E-03     185.206E-03
             346     14.4642E-03     65.1487E-03    -18.4984E+06     104.219E+06     67.1963E+06     146.886E+03    -71.0922E-03     127.489E-03    -56.3963E-03     283.622E-03    -79.0645E-03     135.570E-03    -56.1846E-03     280.682E-03
             347     15.3157E-03     65.5060E-03    -12.0629E+06     143.466E+06     105.839E+06     347.339E+03    -81.6977E-03     138.141E-03    -56.4437E-03     410.241E-03    -103.818E-03     160.422E-03    -56.1051E-03     408.309E-03
             348     16.1718E-03     66.0030E-03    -5.92360E+06     161.504E+06     117.249E+06     607.760E+03    -75.2776E-03     131.687E-03    -56.4095E-03     351.153E-03    -96.9260E-03     153.548E-03    -56.0488E-03     355.671E-03
             349     849.435E-06     64.9164E-03    -51.7012E+06    -172.923E+06    -49.7327E+06     1.36655E+06    -56.7510E-03     113.463E-03    -56.7123E-03     10.0396E-03    -56.6881E-03     112.747E-03    -56.6352E-03     10.0234E-03
             350     1.70120E-03     64.9303E-03    -50.7066E+06    -171.395E+06    -46.8485E+06     184.765E+03    -56.6002E-03     113.295E-03    -56.6950E-03     17.5019E-03    -56.5420E-03     112.584E-03    -56.6072E-03     17.4356E-03
             351     2.55148E-03     64.9509E-03    -48.7728E+06    -168.401E+06    -42.2800E+06    -126.984E+03    -56.4383E-03     113.058E-03    -56.6198E-03     25.3536E-03    -56.3870E-03     112.358E-03    -56.5163E-03     25.2472E-03
             352     3.40261E-03     64.9812E-03    -46.4943E+06    -164.468E+06    -35.6361E+06    -57.3431E+03    -56.6643E-03     113.239E-03    -56.5746E-03     33.5022E-03    -56.6255E-03     112.555E-03    -56.4469E-03     33.3565E-03
             353     4.25285E-03     65.0193E-03    -43.6359E+06    -160.834E+06    -29.7071E+06    -299.980E+03    -56.8061E-03     113.371E-03    -56.5651E-03     41.6417E-03    -56.7793E-03     112.705E-03    -56.4171E-03     41.4465E-03
             354     5.10419E-03     65.0653E-03    -40.3966E+06    -155.977E+06    -22.5416E+06     3.99930E+03    -56.9910E-03     113.559E-03    -56.5679E-03     49.7265E-03    -56.9826E-03     112.919E-03    -56.3959E-03     49.4815E-03
             355     5.95431E-03     65.1194E-03    -37.8543E+06    -152.214E+06    -17.5753E+06     274.123E+03    -57.2101E-03     113.779E-03    -56.5694E-03     57.4156E-03    -57.2249E-03     113.170E-03    -56.3816E-03     57.1112E-03
             356     6.80563E-03     65.1805E-03    -35.4871E+06    -146.734E+06    -15.0815E+06     661.352E+03    -57.3964E-03     113.955E-03    -56.5586E-03     64.9233E-03    -57.4427E-03     113.398E-03    -56.3698E-03     64.5497E-03
             357     7.65598E-03     65.2502E-03    -32.6127E+06    -139.068E+06    -12.7193E+06     589.940E+03    -57.7362E-03     114.285E-03    -56.5489E-03     72.4560E-03    -57.8255E-03     113.802E-03    -56.3636E-03     71.9938E-03
             358     8.50646E-03     65.3264E-03    -30.4826E+06    -128.460E+06    -11.2825E+06     825.127E+03    -57.7545E-03     114.281E-03    -56.5264E-03     80.0882E-03    -57.9080E-03     113.903E-03    -56.3524E-03     79.5305E-03
             359     9.35850E-03     65.4109E-03    -28.7404E+06    -110.907E+06    -10.1359E+06     1.03965E+06    -57.9729E-03     114.455E-03    -56.4824E-03     87.5417E-03    -58.2229E-03     114.239E-03    -56.3306E-03     86.8675E-03
             360     10.2086E-03     65.5027E-03    -27.2722E+06    -88.9109E+06    -10.0244E+06     1.05682E+06    -58.4369E-03     114.876E-03    -56.4395E-03     94.5395E-03    -58.8194E-03     114.876E-03    -56.3211E-03     93.7192E-03
             361     11.0584E-03     65.6011E-03    -25.4647E+06    -58.8340E+06    -9.87413E+06     585.829E+03    -58.5188E-03     114.909E-03    -56.3899E-03     102.579E-03    -59.0906E-03     115.210E-03    -56.3170E-03     101.585E-03
             362     11.9103E-03     65.7090E-03    -22.7516E+06    -12.3485E+06    -9.15184E+06     889.400E+03    -58.5498E-03     114.849E-03    -56.2991E-03     114.760E-03    -59.4332E-03     115.634E-03    -56.2939E-03     113.559E-03
             363     12.7618E-03     65.8309E-03    -22.0796E+06     32.6486E+06    -2.53686E+06     2.68855E+06    -59.7019E-03     115.936E-03    -56.2343E-03     138.407E-03    -61.2015E-03     117.481E-03    -56.2623E-03     136.899E-03
             364     13.6122E-03     65.9885E-03    -22.0679E+06     67.4286E+06     23.0837E+06     1.83440E+06    -62.8358E-03     119.125E-03    -56.2888E-03     186.422E-03    -65.8316E-03     122.214E-03    -56.2391E-03     184.375E-03
             365     14.4629E-03     66.2085E-03    -18.8814E+06     104.309E+06     67.5486E+06    -319.253E+03    -71.0730E-03     127.496E-03    -56.4234E-03     282.418E-03    -79.0202E-03     135.551E-03    -56.2095E-03     279.487E-03
             366     15.3169E-03     66.5643E-03    -12.6564E+06     142.981E+06     105.828E+06    -331.568E+03    -83.9107E-03     140.454E-03    -56.5433E-03     408.001E-03    -105.956E-03     162.655E-03    -56.2031E-03     405.668E-03
             367     16.1602E-03     67.0644E-03    -5.82744E+06     161.411E+06     116.403E+06     743.491E+03    -74.4440E-03     130.995E-03    -56.5508E-03     352.376E-03    -96.2364E-03     153.002E-03    -56.1944E-03     356.926E-03
             368     851.551E-06     65.9780E-03    -52.2541E+06    -174.663E+06    -52.2071E+06     786.594E+03    -56.6153E-03     113.215E-03    -56.5995E-03     9.97616E-03    -56.5489E-03     112.495E-03    -56.5315E-03     9.95189E-03
             369     1.70084E-03     65.9912E-03    -50.4026E+06    -171.263E+06    -46.8107E+06     111.311E+03    -56.4780E-03     113.051E-03    -56.5733E-03     17.2869E-03    -56.4184E-03     112.341E-03    -56.4859E-03     17.2199E-03
             370     2.55187E-03     66.0122E-03    -48.6347E+06    -168.266E+06    -41.5917E+06     149.220E+03    -56.7721E-03     113.338E-03    -56.5658E-03     25.6547E-03    -56.7214E-03     112.638E-03    -56.4593E-03     25.5522E-03
             371     3.40198E-03     66.0420E-03    -46.1443E+06    -164.264E+06    -35.3168E+06    -8.20568E+03    -56.7447E-03     113.335E-03    -56.5905E-03     33.6692E-03    -56.7050E-03     112.651E-03    -56.4620E-03     33.5239E-03
             372     4.25325E-03     66.0803E-03    -43.7224E+06    -160.498E+06    -29.1224E+06    -46.8599E+03    -56.7054E-03     113.285E-03    -56.5792E-03     41.7269E-03    -56.6803E-03     112.619E-03    -56.4287E-03     41.5355E-03
             373     5.10379E-03     66.1255E-03    -41.2510E+06    -156.837E+06    -23.4239E+06     151.872E+03    -56.9349E-03     113.497E-03    -56.5619E-03     49.7910E-03    -56.9280E-03     112.855E-03    -56.3918E-03     49.5490E-03
             374     5.95499E-03     66.1811E-03    -38.2695E+06    -152.705E+06    -17.2755E+06     511.964E+03    -57.1872E-03     113.750E-03    -56.5631E-03     57.3184E-03    -57.2038E-03     113.139E-03    -56.3725E-03     57.0172E-03
             375     6.80514E-03     66.2406E-03    -35.1788E+06    -146.638E+06    -14.4557E+06     497.786E+03    -57.4931E-03     114.050E-03    -56.5574E-03     65.0485E-03    -57.5392E-03     113.493E-03    -56.3660E-03     64.6719E-03
             376     7.65613E-03     66.3121E-03    -33.0891E+06    -139.242E+06    -12.9004E+06     626.574E+03    -57.6137E-03     114.158E-03    -56.5447E-03     72.4494E-03    -57.7047E-03     113.675E-03    -56.3593E-03     71.9891E-03
             377     8.50727E-03     66.3864E-03    -30.9470E+06    -128.488E+06    -10.9485E+06     723.680E+03    -57.9020E-03     114.428E-03    -56.5263E-03     79.8563E-03    -58.0587E-03     114.051E-03    -56.3499E-03     79.2942E-03
             378     9.35707E-03     66.4723E-03    -29.0310E+06    -110.831E+06    -10.1107E+06     1.01094E+06    -58.1361E-03     114.632E-03    -56.4956E-03     87.4482E-03    -58.3880E-03     114.416E-03    -56.3434E-03     86.7711E-03
             379     10.2083E-03     66.5632E-03    -27.5880E+06    -89.4213E+06    -10.2347E+06     1.02164E+06    -58.2614E-03     114.713E-03    -56.4512E-03     94.7762E-03    -58.6446E-03     114.710E-03    -56.3327E-03     93.9581E-03
             380     11.0599E-03     66.6630E-03    -26.9115E+06    -57.8091E+06    -9.93408E+06     876.282E+03    -58.4075E-03     114.797E-03    -56.3898E-03     102.463E-03    -58.9860E-03     115.104E-03    -56.3166E-03     101.476E-03
             381     11.9104E-03     66.7684E-03    -28.3624E+06    -13.5657E+06    -11.6049E+06     934.850E+03    -58.9077E-03     115.214E-03    -56.3061E-03     114.638E-03    -59.8175E-03     116.008E-03    -56.3033E-03     113.427E-03
             382     12.7606E-03     66.8934E-03    -27.1802E+06     31.2370E+06    -10.7438E+06     1.28603E+06    -59.9194E-03     116.152E-03    -56.2321E-03     138.636E-03    -61.4405E-03     117.718E-03    -56.2917E-03     137.100E-03
             383     13.6118E-03     67.0482E-03    -22.2745E+06     69.4622E+06     17.5822E+06     1.18728E+06    -62.6102E-03     118.896E-03    -56.2855E-03     186.731E-03    -65.6038E-03     122.006E-03    -56.2660E-03     184.686E-03
             384     14.4646E-03     67.2697E-03    -17.4908E+06     106.169E+06     68.9703E+06     775.300E+03    -71.4278E-03     127.878E-03    -56.4499E-03     282.963E-03    -79.3583E-03     135.923E-03    -56.2337E-03     280.013E-03
             385     15.3114E-03     67.6255E-03    -13.0789E+06     143.429E+06     106.337E+06        517.E+03    -84.5614E-03     141.128E-03    -56.5663E-03     413.104E-03    -107.020E-03     163.740E-03    -56.2236E-03     410.697E-03
             386     16.1654E-03     68.1320E-03    -7.31897E+06     160.732E+06     115.839E+06    -114.150E+03    -74.4730E-03     131.023E-03    -56.5495E-03     352.102E-03    -96.4108E-03     153.169E-03    -56.1928E-03     356.579E-03
             387     849.210E-06     67.0393E-03    -51.9092E+06    -174.029E+06    -51.3296E+06     316.821E+03    -56.4700E-03     112.881E-03    -56.4108E-03     9.42803E-03    -56.4036E-03     112.162E-03    -56.3398E-03     9.39569E-03
             388     1.70183E-03     67.0512E-03    -51.3755E+06    -172.611E+06    -48.3766E+06     21.4027E+03    -56.5211E-03     112.964E-03    -56.4432E-03     17.4402E-03    -56.4621E-03     112.251E-03    -56.3603E-03     17.3735E-03
             389     2.55215E-03     67.0737E-03    -48.6698E+06    -168.551E+06    -42.0670E+06     281.140E+03    -56.7154E-03     113.199E-03    -56.4838E-03     25.7770E-03    -56.6637E-03     112.498E-03    -56.3791E-03     25.6772E-03
             390     3.40240E-03     67.1037E-03    -46.2627E+06    -164.463E+06    -35.4280E+06     52.4293E+03    -56.7655E-03     113.290E-03    -56.5245E-03     33.7051E-03    -56.7260E-03     112.605E-03    -56.3961E-03     33.5602E-03
             391     4.25329E-03     67.1396E-03    -43.4476E+06    -160.258E+06    -28.7142E+06     641.630E+03    -56.9454E-03     113.497E-03    -56.5516E-03     41.9575E-03    -56.9200E-03     112.832E-03    -56.3998E-03     41.7744E-03
             392     5.10379E-03     67.1885E-03    -40.4735E+06    -156.140E+06    -22.2570E+06     683.092E+03    -57.0159E-03     113.586E-03    -56.5698E-03     49.5910E-03    -57.0080E-03     112.944E-03    -56.3960E-03     49.3547E-03
             393     5.95463E-03     67.2393E-03    -37.6495E+06    -152.786E+06    -17.2179E+06     261.954E+03    -57.1541E-03     113.725E-03    -56.5705E-03     57.3030E-03    -57.1677E-03     113.112E-03    -56.3805E-03     56.9982E-03
             394     6.80557E-03     67.3046E-03    -35.2913E+06    -147.126E+06    -14.5952E+06     557.233E+03    -57.3893E-03     113.945E-03    -56.5561E-03     64.9807E-03    -57.4347E-03     113.386E-03    -56.3646E-03     64.6061E-03
             395     7.65611E-03     67.3700E-03    -32.9958E+06    -139.446E+06    -12.9710E+06     757.165E+03    -57.7548E-03     114.300E-03    -56.5448E-03     72.3609E-03    -57.8455E-03     113.816E-03    -56.3596E-03     71.8999E-03
             396     8.50670E-03     67.4499E-03    -30.9134E+06    -128.416E+06    -10.8981E+06     746.180E+03    -57.9928E-03     114.532E-03    -56.5389E-03     79.7019E-03    -58.1493E-03     114.154E-03    -56.3624E-03     79.1393E-03
             397     9.35764E-03     67.5318E-03    -29.0881E+06    -111.360E+06    -10.3188E+06     915.117E+03    -58.0902E-03     114.600E-03    -56.5094E-03     87.4702E-03    -58.3419E-03     114.383E-03    -56.3573E-03     86.7916E-03
             398     10.2085E-03     67.6251E-03    -27.4912E+06    -89.3802E+06    -10.2281E+06     1.09240E+06    -58.2366E-03     114.697E-03    -56.4608E-03     94.7416E-03    -58.6191E-03     114.695E-03    -56.3425E-03     93.9248E-03
             399     11.0589E-03     67.7226E-03    -26.5717E+06    -58.7117E+06    -9.94822E+06     2.26893E+06    -58.4518E-03     114.853E-03    -56.4009E-03     102.078E-03    -59.0270E-03     115.154E-03    -56.3270E-03     101.107E-03
             400     11.9100E-03     67.8308E-03    -25.2054E+06    -12.8578E+06    -10.3100E+06     2.59263E+06    -58.9223E-03     115.240E-03    -56.3182E-03     114.951E-03    -59.8202E-03     116.033E-03    -56.3146E-03     113.762E-03
             401     12.7608E-03     67.9541E-03    -23.5039E+06     32.7167E+06    -3.39155E+06     21.7603E+03    -59.7602E-03     116.026E-03    -56.2656E-03     138.768E-03    -61.2735E-03     117.582E-03    -56.2959E-03     137.223E-03
             402     13.6125E-03     68.1084E-03    -21.8151E+06     68.5874E+06     23.2324E+06    -328.576E+03    -62.7036E-03     119.017E-03    -56.3138E-03     187.171E-03    -65.6957E-03     122.108E-03    -56.2655E-03     185.104E-03
             403     14.4619E-03     68.3312E-03    -18.2521E+06     105.561E+06     67.2508E+06     1.45413E+06    -70.9960E-03     127.425E-03    -56.4289E-03     283.780E-03    -78.9413E-03     135.485E-03    -56.2192E-03     280.877E-03
             404     15.3182E-03     68.6870E-03    -12.4464E+06     144.284E+06     106.038E+06     1.59633E+06    -82.4127E-03     138.877E-03    -56.4640E-03     415.446E-03    -104.961E-03     161.586E-03    -56.1250E-03     413.394E-03
             405     16.1683E-03     69.1964E-03    -6.31284E+06     162.024E+06     117.455E+06     241.193E+03    -75.4588E-03     131.866E-03    -56.4070E-03     352.886E-03    -97.3604E-03     153.980E-03    -56.0455E-03     357.313E-03
             406     852.429E-06     68.0986E-03    -53.0468E+06    -174.961E+06    -51.9299E+06     25.7784E+03    -56.5377E-03     112.674E-03    -56.1361E-03     9.57831E-03    -56.4742E-03     111.954E-03    -56.0651E-03     9.54278E-03
             407     1.70127E-03     68.1129E-03    -50.7006E+06    -171.575E+06    -46.7051E+06     427.951E+03    -56.6607E-03     113.056E-03    -56.3955E-03     17.3402E-03    -56.6023E-03     112.344E-03    -56.3067E-03     17.2780E-03
             408     2.55157E-03     68.1347E-03    -49.5315E+06    -169.192E+06    -42.6028E+06    -68.3892E+03    -56.4757E-03     112.922E-03    -56.4461E-03     25.4481E-03    -56.4265E-03     112.220E-03    -56.3420E-03     25.3438E-03
             409     3.40365E-03     68.1632E-03    -46.7906E+06    -164.656E+06    -35.3617E+06     217.084E+03    -56.8558E-03     113.330E-03    -56.4741E-03     33.7037E-03    -56.8187E-03     112.645E-03    -56.3444E-03     33.5613E-03
             410     4.25303E-03     68.2032E-03    -43.2993E+06    -160.001E+06    -28.2526E+06     423.731E+03    -57.0634E-03     113.598E-03    -56.5345E-03     41.4947E-03    -57.0383E-03     112.933E-03    -56.3810E-03     41.3069E-03
             411     5.10405E-03     68.2468E-03    -40.4599E+06    -156.259E+06    -22.5699E+06     529.328E+03    -57.0091E-03     113.573E-03    -56.5639E-03     49.6629E-03    -57.0006E-03     112.932E-03    -56.3915E-03     49.4242E-03
             412     5.95431E-03     68.3031E-03    -37.6958E+06    -152.461E+06    -16.6461E+06     706.333E+03    -57.2181E-03     113.790E-03    -56.5721E-03     57.5795E-03    -57.2333E-03     113.179E-03    -56.3796E-03     57.2807E-03
             413     6.80531E-03     68.3621E-03    -34.9898E+06    -147.471E+06    -14.5041E+06     734.889E+03    -57.4818E-03     114.047E-03    -56.5652E-03     64.9126E-03    -57.5257E-03     113.485E-03    -56.3732E-03     64.5387E-03
             414     7.65633E-03     68.4341E-03    -32.7324E+06    -139.482E+06    -13.0132E+06     768.932E+03    -57.7622E-03     114.320E-03    -56.5575E-03     72.4527E-03    -57.8511E-03     113.835E-03    -56.3729E-03     71.9925E-03
             415     8.50618E-03     68.5090E-03    -30.6972E+06    -128.260E+06    -10.9644E+06     906.218E+03    -57.9148E-03     114.461E-03    -56.5461E-03     79.7864E-03    -58.0704E-03     114.084E-03    -56.3705E-03     79.2268E-03
             416     9.35758E-03     68.5934E-03    -28.8846E+06    -111.566E+06    -10.2851E+06     896.349E+03    -58.0961E-03     114.609E-03    -56.5130E-03     87.5159E-03    -58.3465E-03     114.391E-03    -56.3608E-03     86.8370E-03
             417     10.2079E-03     68.6858E-03    -27.5282E+06    -90.0902E+06    -10.6607E+06     1.42720E+06    -58.3372E-03     114.804E-03    -56.4668E-03     94.8304E-03    -58.7186E-03     114.799E-03    -56.3496E-03     94.0168E-03
             418     11.0592E-03     68.7837E-03    -25.3217E+06    -59.8827E+06    -10.0596E+06     1.59926E+06    -58.4832E-03     114.894E-03    -56.4106E-03     102.499E-03    -59.0517E-03     115.189E-03    -56.3373E-03     101.519E-03
             419     11.9098E-03     68.8917E-03    -22.3273E+06    -12.4053E+06    -9.06987E+06     1.58523E+06    -58.6037E-03     114.921E-03    -56.3173E-03     115.131E-03    -59.4846E-03     115.705E-03    -56.3123E-03     113.940E-03
             420     12.7616E-03     69.0145E-03    -22.2375E+06     34.3190E+06    -1.30261E+06     2.24521E+06    -59.7060E-03     115.961E-03    -56.2554E-03     138.942E-03    -61.2133E-03     117.515E-03    -56.2794E-03     137.430E-03
             421     13.6118E-03     69.1701E-03    -22.7931E+06     68.8343E+06     24.7663E+06     1.15541E+06    -62.6736E-03     118.978E-03    -56.3045E-03     187.074E-03    -65.6772E-03     122.073E-03    -56.2475E-03     185.030E-03
             422     14.4653E-03     69.3914E-03    -19.5338E+06     104.827E+06     67.3886E+06     39.9521E+03    -70.6363E-03     127.045E-03    -56.4092E-03     282.949E-03    -78.5691E-03     135.086E-03    -56.1959E-03     280.053E-03
             423     15.3140E-03     69.7452E-03    -12.8190E+06     143.868E+06     105.510E+06     804.175E+03    -81.8554E-03     138.299E-03    -56.4431E-03     410.644E-03    -103.992E-03     160.594E-03    -56.1056E-03     408.693E-03
             424     16.1745E-03     70.2512E-03    -5.17051E+06     162.778E+06     117.585E+06     1.02656E+06    -74.9276E-03     131.323E-03    -56.3950E-03     352.387E-03    -96.6502E-03     153.264E-03    -56.0356E-03     356.930E-03
             425     849.814E-06     69.1600E-03    -52.0820E+06    -174.059E+06    -50.6266E+06    -43.7686E+03    -56.5941E-03     112.992E-03    -56.3978E-03     9.22118E-03    -56.5283E-03     112.274E-03    -56.3230E-03     9.18328E-03
             426     1.70097E-03     69.1746E-03    -50.9727E+06    -172.060E+06    -47.3522E+06     297.945E+03    -56.3814E-03     112.845E-03    -56.4636E-03     17.1531E-03    -56.3227E-03     112.132E-03    -56.3770E-03     17.0887E-03
             427     2.55297E-03     69.1936E-03    -48.8637E+06    -168.536E+06    -41.5489E+06     313.746E+03    -56.7307E-03     113.202E-03    -56.4715E-03     25.3409E-03    -56.6807E-03     112.501E-03    -56.3640E-03     25.2402E-03
             428     3.40189E-03     69.2262E-03    -46.3614E+06    -164.519E+06    -35.3337E+06     351.260E+03    -56.7590E-03     113.276E-03    -56.5171E-03     33.5349E-03    -56.7198E-03     112.591E-03    -56.3880E-03     33.3948E-03
             429     4.25339E-03     69.2627E-03    -43.8487E+06    -160.911E+06    -29.4642E+06     298.288E+03    -56.7799E-03     113.308E-03    -56.5283E-03     41.5845E-03    -56.7544E-03     112.641E-03    -56.3787E-03     41.3969E-03
             430     5.10380E-03     69.3091E-03    -41.3334E+06    -157.081E+06    -23.2612E+06     233.449E+03    -57.0669E-03     113.606E-03    -56.5392E-03     49.6933E-03    -57.0605E-03     112.963E-03    -56.3678E-03     49.4508E-03
             431     5.95527E-03     69.3624E-03    -38.2646E+06    -152.827E+06    -16.9313E+06     941.489E+03    -57.3288E-03     113.893E-03    -56.5640E-03     57.5144E-03    -57.3459E-03     113.281E-03    -56.3716E-03     57.2182E-03
             432     6.80527E-03     69.4252E-03    -35.2432E+06    -147.022E+06    -14.1362E+06     913.910E+03    -57.6069E-03     114.182E-03    -56.5747E-03     65.0353E-03    -57.6536E-03     113.622E-03    -56.3811E-03     64.6625E-03
             433     7.65525E-03     69.4935E-03    -32.9064E+06    -139.606E+06    -13.1161E+06     857.820E+03    -57.5748E-03     114.137E-03    -56.5619E-03     72.4903E-03    -57.6641E-03     113.652E-03    -56.3773E-03     72.0333E-03
             434     8.50763E-03     69.5707E-03    -30.8024E+06    -128.449E+06    -11.1300E+06     994.110E+03    -57.8129E-03     114.347E-03    -56.5343E-03     80.0660E-03    -57.9683E-03     113.970E-03    -56.3591E-03     79.5096E-03
             435     9.35703E-03     69.6547E-03    -29.2535E+06    -111.662E+06    -10.2962E+06     1.21921E+06    -58.1791E-03     114.680E-03    -56.5011E-03     87.7171E-03    -58.4316E-03     114.462E-03    -56.3482E-03     87.0416E-03
             436     10.2087E-03     69.7459E-03    -27.7150E+06    -90.4302E+06    -10.6622E+06     1.15202E+06    -58.3344E-03     114.793E-03    -56.4586E-03     95.1535E-03    -58.7165E-03     114.787E-03    -56.3406E-03     94.3372E-03
             437     11.0589E-03     69.8459E-03    -26.1824E+06    -59.3815E+06    -10.2207E+06     485.862E+03    -58.4493E-03     114.849E-03    -56.4002E-03     102.524E-03    -59.0224E-03     115.148E-03    -56.3272E-03     101.530E-03
             438     11.9103E-03     69.9512E-03    -26.2787E+06    -14.2820E+06    -11.2316E+06     1.29320E+06    -58.6253E-03     114.932E-03    -56.3067E-03     114.666E-03    -59.5197E-03     115.715E-03    -56.3041E-03     113.469E-03
             439     12.7613E-03     70.0758E-03    -25.6227E+06     33.9376E+06    -8.64583E+06     2.88928E+06    -59.5776E-03     115.792E-03    -56.2145E-03     139.011E-03    -61.0919E-03     117.361E-03    -56.2698E-03     137.511E-03
             440     13.6130E-03     70.2311E-03    -22.4456E+06     71.4335E+06     19.4141E+06     1.79755E+06    -62.5664E-03     118.825E-03    -56.2584E-03     186.653E-03    -65.5591E-03     121.935E-03    -56.2324E-03     184.619E-03
             441     14.4628E-03     70.4506E-03    -18.5923E+06     106.075E+06     68.8742E+06     618.029E+03    -70.9513E-03     127.360E-03    -56.4090E-03     282.033E-03    -78.8478E-03     135.368E-03    -56.1915E-03     279.135E-03
             442     15.3175E-03     70.8071E-03    -13.7152E+06     143.686E+06     106.119E+06     608.166E+03    -83.8484E-03     140.360E-03    -56.5116E-03     409.999E-03    -106.012E-03     162.677E-03    -56.1694E-03     407.676E-03
             443     16.1585E-03     71.3050E-03    -6.57043E+06     162.287E+06     116.660E+06     135.330E+03    -74.6463E-03     131.149E-03    -56.5027E-03     353.668E-03    -96.5756E-03     153.293E-03    -56.1452E-03     358.201E-03
             444     850.077E-06     70.2222E-03    -51.5392E+06    -174.236E+06    -51.1611E+06     470.284E+03    -56.5285E-03     113.124E-03    -56.5950E-03     9.64475E-03    -56.4589E-03     112.405E-03    -56.5234E-03     9.61328E-03
             445     1.70227E-03     70.2324E-03    -50.8507E+06    -172.254E+06    -47.4493E+06     19.0459E+03    -56.5532E-03     113.103E-03    -56.5499E-03     17.1983E-03    -56.4935E-03     112.389E-03    -56.4637E-03     17.1302E-03
             446     2.55090E-03     70.2580E-03    -48.3311E+06    -168.712E+06    -42.1680E+06     634.697E+03    -56.6373E-03     113.183E-03    -56.5460E-03     25.4253E-03    -56.5834E-03     112.481E-03    -56.4421E-03     25.3293E-03
             447     3.40256E-03     70.2850E-03    -46.3395E+06    -164.952E+06    -36.0092E+06     644.865E+03    -56.4993E-03     113.028E-03    -56.5282E-03     33.6880E-03    -56.4585E-03     112.341E-03    -56.4019E-03     33.5525E-03
             448     4.25374E-03     70.3241E-03    -44.0946E+06    -161.086E+06    -29.5070E+06     545.529E+03    -56.7566E-03     113.264E-03    -56.5070E-03     41.9028E-03    -56.7318E-03     112.596E-03    -56.3570E-03     41.7199E-03
             449     5.10439E-03     70.3699E-03    -41.1673E+06    -156.748E+06    -22.4757E+06     737.143E+03    -57.2583E-03     113.795E-03    -56.5367E-03     49.5874E-03    -57.2528E-03     113.152E-03    -56.3621E-03     49.3501E-03
             450     5.95408E-03     70.4237E-03    -38.2544E+06    -153.371E+06    -17.2637E+06     552.160E+03    -57.4064E-03     113.985E-03    -56.5790E-03     57.2708E-03    -57.4223E-03     113.371E-03    -56.3875E-03     56.9677E-03
             451     6.80518E-03     70.4861E-03    -35.3338E+06    -147.353E+06    -14.2965E+06     918.203E+03    -57.3196E-03     113.897E-03    -56.5773E-03     64.9474E-03    -57.3653E-03     113.335E-03    -56.3839E-03     64.5781E-03
             452     7.65675E-03     70.5546E-03    -33.0311E+06    -139.603E+06    -12.5865E+06     976.106E+03    -57.6152E-03     114.168E-03    -56.5526E-03     72.4326E-03    -57.7060E-03     113.682E-03    -56.3653E-03     71.9763E-03
             453     8.50609E-03     70.6312E-03    -31.3081E+06    -129.145E+06    -11.2884E+06     1.16682E+06    -57.8000E-03     114.327E-03    -56.5265E-03     79.9246E-03    -57.9561E-03     113.946E-03    -56.3503E-03     79.3711E-03
             454     9.35853E-03     70.7157E-03    -29.4371E+06    -112.083E+06    -10.3765E+06     1.34465E+06    -58.0248E-03     114.511E-03    -56.4867E-03     87.6386E-03    -58.2764E-03     114.291E-03    -56.3334E-03     86.9678E-03
             455     10.2080E-03     70.8074E-03    -28.0968E+06    -89.6791E+06    -10.4379E+06     1.28037E+06    -58.3515E-03     114.791E-03    -56.4399E-03     95.0891E-03    -58.7365E-03     114.789E-03    -56.3213E-03     94.2747E-03
             456     11.0597E-03     70.9061E-03    -28.1124E+06    -59.2922E+06    -10.7984E+06     1.39062E+06    -58.4417E-03     114.825E-03    -56.3832E-03     102.489E-03    -59.0245E-03     115.129E-03    -56.3105E-03     101.506E-03
             457     11.9100E-03     71.0129E-03    -27.1021E+06    -15.7676E+06    -12.1522E+06     1.72191E+06    -58.7565E-03     115.051E-03    -56.2947E-03     114.690E-03    -59.6554E-03     115.833E-03    -56.2933E-03     113.493E-03
             458     12.7611E-03     71.1357E-03    -24.3669E+06     33.9581E+06    -8.17951E+06     1.31446E+06    -59.6061E-03     115.817E-03    -56.2104E-03     138.981E-03    -61.1132E-03     117.381E-03    -56.2652E-03     137.460E-03
             459     13.6127E-03     71.2915E-03    -22.1346E+06     72.4025E+06     19.3288E+06     1.64460E+06    -62.4939E-03     118.743E-03    -56.2496E-03     186.773E-03    -65.4723E-03     121.844E-03    -56.2258E-03     184.746E-03
             460     14.4648E-03     71.5130E-03    -18.9224E+06     106.066E+06     67.1397E+06     1.97886E+06    -71.2933E-03     127.694E-03    -56.4009E-03     282.114E-03    -79.1967E-03     135.712E-03    -56.1916E-03     279.198E-03
             461     15.3133E-03     71.8650E-03    -12.7164E+06     145.013E+06     106.719E+06     934.282E+03    -84.0192E-03     140.532E-03    -56.5128E-03     412.681E-03    -106.456E-03     163.129E-03    -56.1711E-03     410.317E-03
             462     16.1707E-03     72.3793E-03    -6.37513E+06     163.271E+06     118.005E+06    -200.399E+03    -74.9630E-03     131.466E-03    -56.5026E-03     353.692E-03    -96.9860E-03     153.703E-03    -56.1401E-03     358.142E-03
             463     851.867E-06     71.2802E-03    -52.1747E+06    -174.805E+06    -51.2710E+06    -48.1452E+03    -56.8879E-03     113.119E-03    -56.2313E-03     9.25856E-03    -56.8205E-03     112.399E-03    -56.1586E-03     9.22088E-03
             464     1.69959E-03     71.2972E-03    -50.4876E+06    -172.420E+06    -47.7453E+06     191.813E+03    -56.6618E-03     113.230E-03    -56.5684E-03     17.3804E-03    -56.5997E-03     112.515E-03    -56.4839E-03     17.3143E-03
             465     2.55218E-03     71.3158E-03    -49.4548E+06    -169.878E+06    -43.4765E+06     415.917E+03    -56.3015E-03     112.831E-03    -56.5300E-03     25.6963E-03    -56.2496E-03     112.127E-03    -56.4293E-03     25.5990E-03
             466     3.40327E-03     71.3471E-03    -46.8759E+06    -165.018E+06    -35.6393E+06     736.038E+03    -56.7098E-03     113.205E-03    -56.4953E-03     33.6867E-03    -56.6722E-03     112.519E-03    -56.3662E-03     33.5516E-03
             467     4.25302E-03     71.3842E-03    -43.9121E+06    -160.547E+06    -28.4196E+06     855.596E+03    -57.0401E-03     113.574E-03    -56.5342E-03     41.5060E-03    -57.0171E-03     112.908E-03    -56.3798E-03     41.3242E-03
             468     5.10395E-03     71.4312E-03    -41.0148E+06    -156.775E+06    -22.6584E+06     937.434E+03    -57.0899E-03     113.658E-03    -56.5684E-03     49.6515E-03    -57.0832E-03     113.015E-03    -56.3949E-03     49.4180E-03
             469     5.95452E-03     71.4857E-03    -37.9855E+06    -153.099E+06    -16.8833E+06     778.551E+03    -57.1788E-03     113.758E-03    -56.5794E-03     57.3995E-03    -57.1942E-03     113.144E-03    -56.3868E-03     57.1011E-03
             470     6.80532E-03     71.5456E-03    -35.4662E+06    -148.069E+06    -14.8296E+06     892.516E+03    -57.3661E-03     113.928E-03    -56.5620E-03     65.1005E-03    -57.4108E-03     113.364E-03    -56.3700E-03     64.7304E-03
             471     7.65578E-03     71.6161E-03    -33.2471E+06    -140.007E+06    -12.8930E+06     1.30033E+06    -57.6323E-03     114.175E-03    -56.5427E-03     72.5312E-03    -57.7228E-03     113.688E-03    -56.3559E-03     72.0801E-03
             472     8.50736E-03     71.6922E-03    -31.1640E+06    -129.169E+06    -10.9129E+06     1.30002E+06    -57.8654E-03     114.389E-03    -56.5239E-03     79.7843E-03    -58.0219E-03     114.008E-03    -56.3460E-03     79.2304E-03
             473     9.35706E-03     71.7757E-03    -29.5936E+06    -112.059E+06    -10.5576E+06     1.59147E+06    -58.0390E-03     114.525E-03    -56.4861E-03     87.6495E-03    -58.2910E-03     114.305E-03    -56.3335E-03     86.9821E-03
             474     10.2093E-03     71.8690E-03    -28.4032E+06    -90.2858E+06    -10.8036E+06     2.03064E+06    -58.1783E-03     114.612E-03    -56.4337E-03     94.8012E-03    -58.5616E-03     114.605E-03    -56.3156E-03     94.0003E-03
             475     11.0591E-03     71.9665E-03    -27.2176E+06    -59.7023E+06    -10.6836E+06     2.49847E+06    -58.2962E-03     114.662E-03    -56.3659E-03     102.404E-03    -58.8711E-03     114.959E-03    -56.2933E-03     101.442E-03
             476     11.9108E-03     72.0741E-03    -26.4826E+06    -14.5773E+06    -11.4659E+06     1.53920E+06    -58.7566E-03     115.030E-03    -56.2734E-03     114.939E-03    -59.6526E-03     115.813E-03    -56.2712E-03     113.743E-03
             477     12.7618E-03     72.1963E-03    -26.1943E+06     33.9645E+06    -7.66673E+06     781.496E+03    -59.8110E-03     116.013E-03    -56.2018E-03     138.775E-03    -61.3269E-03     117.579E-03    -56.2514E-03     137.241E-03
             478     13.6125E-03     72.3525E-03    -24.6208E+06     71.4963E+06     18.4844E+06     1.48953E+06    -62.5348E-03     118.781E-03    -56.2464E-03     186.702E-03    -65.5235E-03     121.883E-03    -56.2219E-03     184.672E-03
             479     14.4638E-03     72.5721E-03    -19.5608E+06     106.361E+06     66.3118E+06     708.332E+03    -71.3819E-03     127.778E-03    -56.3959E-03     282.750E-03    -79.3315E-03     135.843E-03    -56.1902E-03     279.781E-03
             480     15.3165E-03     72.9304E-03    -12.5436E+06     145.253E+06     106.372E+06    -283.283E+03    -82.9537E-03     139.440E-03    -56.4866E-03     411.891E-03    -105.290E-03     161.939E-03    -56.1472E-03     409.750E-03
             481     16.1649E-03     73.4303E-03    -5.76105E+06     163.530E+06     117.875E+06     201.892E+03    -74.7523E-03     131.206E-03    -56.4535E-03     353.089E-03    -96.6347E-03     153.306E-03    -56.0929E-03     357.648E-03
             482     849.378E-06     72.3452E-03    -52.5226E+06    -175.262E+06    -51.6484E+06     535.814E+03    -56.4738E-03     112.945E-03    -56.4709E-03     9.86710E-03    -56.4074E-03     112.223E-03    -56.3989E-03     9.83778E-03
             483     1.70231E-03     72.3557E-03    -51.7100E+06    -173.221E+06    -48.2972E+06     496.191E+03    -56.3711E-03     112.812E-03    -56.4404E-03     17.3475E-03    -56.3131E-03     112.095E-03    -56.3558E-03     17.2862E-03
             484     2.55233E-03     72.3774E-03    -49.4524E+06    -169.328E+06    -42.0779E+06     319.271E+03    -56.7665E-03     113.226E-03    -56.4598E-03     25.4312E-03    -56.7175E-03     112.523E-03    -56.3530E-03     25.3305E-03
             485     3.40213E-03     72.4077E-03    -47.1129E+06    -165.261E+06    -35.4943E+06     601.588E+03    -56.9231E-03     113.457E-03    -56.5339E-03     33.6227E-03    -56.8866E-03     112.769E-03    -56.4034E-03     33.4848E-03
             486     4.25328E-03     72.4460E-03    -44.1103E+06    -161.261E+06    -29.2351E+06       688.9E+03    -56.9853E-03     113.565E-03    -56.5799E-03     41.7108E-03    -56.9612E-03     112.897E-03    -56.4283E-03     41.5264E-03
             487     5.10319E-03     72.4920E-03    -40.9453E+06    -157.060E+06    -23.0022E+06     883.883E+03    -56.8519E-03     113.435E-03    -56.5834E-03     49.6464E-03    -56.8439E-03     112.791E-03    -56.4113E-03     49.4133E-03
             488     5.95517E-03     72.5454E-03    -38.1696E+06    -153.629E+06    -17.5619E+06     1.07299E+06    -56.9685E-03     113.527E-03    -56.5584E-03     57.3815E-03    -56.9825E-03     112.911E-03    -56.3681E-03     57.0896E-03
             489     6.80566E-03     72.6078E-03    -35.4808E+06    -148.124E+06    -14.7412E+06     1.19324E+06    -57.4467E-03     113.983E-03    -56.5367E-03     65.1310E-03    -57.4917E-03     113.419E-03    -56.3442E-03     64.7642E-03
             490     7.65630E-03     72.6763E-03    -33.0865E+06    -140.229E+06    -12.8752E+06     1.65428E+06    -57.6394E-03     114.164E-03    -56.5246E-03     72.6738E-03    -57.7287E-03     113.675E-03    -56.3377E-03     72.2279E-03
             491     8.50681E-03     72.7531E-03    -31.4350E+06    -128.734E+06    -10.9370E+06     1.76762E+06    -57.9525E-03     114.463E-03    -56.5108E-03     80.0409E-03    -58.1117E-03     114.086E-03    -56.3333E-03     79.4919E-03
             492     9.35809E-03     72.8374E-03    -29.6335E+06    -112.426E+06    -10.4733E+06     1.77115E+06    -58.1527E-03     114.637E-03    -56.4846E-03     87.5116E-03    -58.4053E-03     114.416E-03    -56.3310E-03     86.8434E-03
             493     10.2078E-03     72.9287E-03    -27.9782E+06    -91.6648E+06    -11.3146E+06     2.17229E+06    -58.0212E-03     114.450E-03    -56.4288E-03     94.8985E-03    -58.3991E-03     114.436E-03    -56.3119E-03     94.1027E-03
             494     11.0601E-03     73.0279E-03     -26.533E+06    -60.3130E+06    -10.8210E+06     2.42593E+06    -58.2074E-03     114.559E-03    -56.3513E-03     102.459E-03    -58.7761E-03     114.851E-03    -56.2795E-03     101.498E-03
             495     11.9108E-03     73.1339E-03    -25.4416E+06    -12.5690E+06    -10.4471E+06     2.19951E+06    -58.7748E-03     115.033E-03    -56.2582E-03     114.885E-03    -59.6688E-03     115.822E-03    -56.2553E-03     113.698E-03
             496     12.7614E-03     73.2588E-03    -24.6641E+06     34.0715E+06    -3.69801E+06     1.93675E+06    -59.8116E-03     116.017E-03    -56.2058E-03     138.521E-03    -61.3270E-03     117.577E-03    -56.2380E-03     137.002E-03
             497     13.6130E-03     73.4115E-03    -22.1372E+06     71.1866E+06     23.3579E+06     1.10640E+06    -62.8420E-03     119.108E-03    -56.2657E-03     186.465E-03    -65.8418E-03     122.214E-03    -56.2200E-03     184.407E-03
             498     14.4643E-03     73.6348E-03    -18.0666E+06     108.798E+06     68.7870E+06     150.673E+03    -71.4101E-03     127.821E-03    -56.4112E-03     282.966E-03    -79.3669E-03     135.901E-03    -56.1989E-03     280.000E-03
             499     15.3139E-03     73.9891E-03    -12.8599E+06     145.353E+06     106.781E+06    -7.99022E+03    -82.7875E-03     139.290E-03    -56.5028E-03     409.714E-03    -104.891E-03     161.555E-03    -56.1611E-03     407.613E-03
             500     16.1706E-03     74.4924E-03    -6.32085E+06     163.269E+06     117.272E+06     196.297E+03    -74.6991E-03     131.171E-03    -56.4723E-03     353.789E-03    -96.5422E-03     153.232E-03    -56.1135E-03     358.425E-03
             501     851.345E-06     73.4032E-03    -53.7409E+06    -176.539E+06    -53.0766E+06    -750.106E+03    -56.3598E-03     112.714E-03    -56.3543E-03     9.33271E-03    -56.2962E-03     111.989E-03    -56.2858E-03     9.28542E-03
             502     1.70168E-03     73.4165E-03    -51.2462E+06    -172.599E+06    -47.4131E+06     386.451E+03    -56.6160E-03     113.019E-03    -56.4029E-03     17.0947E-03    -56.5578E-03     112.304E-03    -56.3154E-03     17.0313E-03
             503     2.55148E-03     73.4397E-03    -49.3579E+06    -169.339E+06    -41.8824E+06     560.033E+03    -56.8882E-03     113.393E-03    -56.5051E-03     25.3315E-03    -56.8390E-03     112.689E-03    -56.3974E-03     25.2334E-03
             504     3.40261E-03     73.4679E-03    -46.8679E+06    -165.654E+06    -36.1536E+06     624.173E+03    -56.7856E-03     113.351E-03    -56.5658E-03     33.8499E-03    -56.7463E-03     112.662E-03    -56.4384E-03     33.7129E-03
             505     4.25275E-03     73.5077E-03    -44.3953E+06    -161.807E+06    -29.9672E+06     650.886E+03    -56.7334E-03     113.299E-03    -56.5653E-03     41.9700E-03    -56.7086E-03     112.629E-03    -56.4161E-03     41.7876E-03
             506     5.10447E-03     73.5521E-03    -41.4165E+06    -157.557E+06    -23.3319E+06      812.73E+03    -56.9204E-03     113.475E-03    -56.5548E-03     49.5701E-03    -56.9136E-03     112.830E-03    -56.3829E-03     49.3356E-03
             507     5.95432E-03     73.6067E-03    -38.2377E+06    -153.915E+06    -17.7449E+06     1.20336E+06    -57.1205E-03     113.670E-03    -56.5493E-03     57.4477E-03    -57.1345E-03     113.053E-03    -56.3594E-03     57.1562E-03
             508     6.80560E-03     73.6679E-03    -35.8107E+06    -148.710E+06    -14.9679E+06     1.53498E+06    -57.2949E-03     113.826E-03    -56.5306E-03     65.0341E-03    -57.3399E-03     113.259E-03    -56.3379E-03     64.6735E-03
             509     7.65658E-03     73.7378E-03    -33.5779E+06    -140.855E+06    -12.9530E+06     1.69459E+06    -57.6327E-03     114.145E-03    -56.5119E-03     72.3611E-03    -57.7235E-03     113.654E-03    -56.3238E-03     71.9150E-03
             510     8.50739E-03     73.8137E-03    -31.1339E+06    -128.859E+06    -10.8229E+06     1.91396E+06    -57.9423E-03     114.440E-03    -56.4981E-03     80.1731E-03    -58.0997E-03     114.061E-03    -56.3203E-03     79.6273E-03
             511     9.35733E-03     73.8990E-03    -29.3233E+06    -112.818E+06    -10.1855E+06     1.94574E+06    -58.0229E-03     114.491E-03    -56.4680E-03     87.3849E-03    -58.2735E-03     114.266E-03    -56.3129E-03     86.7205E-03
             512     10.2094E-03     73.9888E-03    -27.7355E+06    -91.9675E+06    -11.0828E+06     1.96133E+06    -58.0730E-03     114.483E-03    -56.4102E-03     94.8139E-03    -58.4500E-03     114.467E-03    -56.2920E-03     94.0134E-03
             513     11.0597E-03     74.0886E-03    -26.1033E+06    -60.3404E+06    -10.5131E+06     1.99354E+06    -58.3815E-03     114.724E-03    -56.3421E-03     102.743E-03    -58.9516E-03     115.017E-03    -56.2693E-03     101.771E-03
             514     11.9106E-03     74.1952E-03    -24.5912E+06    -12.8556E+06    -10.3794E+06     2.26042E+06    -58.8493E-03     115.106E-03    -56.2569E-03     114.779E-03    -59.7416E-03     115.896E-03    -56.2545E-03     113.589E-03
             515     12.7623E-03     74.3189E-03    -23.2080E+06     34.7504E+06    -3.22165E+06     2.15997E+06    -59.8583E-03     116.067E-03    -56.2091E-03     138.228E-03    -61.3668E-03     117.626E-03    -56.2420E-03     136.709E-03
             516     13.6126E-03     74.4736E-03    -21.8102E+06     72.3032E+06     24.8978E+06     1.34989E+06    -62.9121E-03     119.192E-03    -56.2798E-03     186.252E-03    -65.9135E-03     122.300E-03    -56.2286E-03     184.193E-03
             517     14.4630E-03     74.6950E-03    -18.3475E+06     109.314E+06     69.6470E+06     1.01852E+06    -71.3339E-03     127.757E-03    -56.4232E-03     283.017E-03    -79.2836E-03     135.828E-03    -56.2069E-03     280.080E-03
             518     15.3161E-03     75.0509E-03    -12.3284E+06     146.283E+06     107.422E+06     420.607E+03    -83.4742E-03     140.002E-03    -56.5282E-03     409.559E-03    -105.592E-03     162.284E-03    -56.1854E-03     407.301E-03
             519     16.1624E-03     75.5486E-03    -6.35369E+06     163.797E+06     117.862E+06     211.714E+03    -74.7275E-03     131.248E-03    -56.5200E-03     353.363E-03    -96.5944E-03     153.332E-03    -56.1590E-03     357.923E-03
             520     850.795E-06     74.4637E-03    -51.7402E+06    -174.499E+06    -50.7133E+06    -1.12654E+06    -56.7417E-03     113.157E-03    -56.4156E-03     8.59280E-03    -56.6748E-03     112.435E-03    -56.3411E-03     8.53969E-03
             521     1.70047E-03     74.4789E-03    -51.5184E+06    -173.957E+06    -49.4300E+06    -440.374E+03    -56.5979E-03     113.163E-03    -56.5650E-03     17.2701E-03    -56.5363E-03     112.444E-03    -56.4852E-03     17.1957E-03
             522     2.55225E-03     74.4992E-03    -49.2425E+06    -170.406E+06    -44.0467E+06     669.962E+03    -56.4830E-03     113.023E-03    -56.5404E-03     25.7247E-03    -56.4285E-03     112.317E-03    -56.4422E-03     25.6301E-03
             523     3.40221E-03     74.5305E-03    -47.0819E+06    -166.011E+06    -36.6956E+06     895.981E+03    -56.6240E-03     113.141E-03    -56.5174E-03     33.8661E-03    -56.5844E-03     112.452E-03    -56.3919E-03     33.7337E-03
             524     4.25376E-03     74.5668E-03    -44.4673E+06    -161.810E+06    -29.8827E+06     989.888E+03    -56.7375E-03     113.248E-03    -56.5109E-03     41.9586E-03    -56.7130E-03     112.578E-03    -56.3612E-03     41.7814E-03
             525     5.10384E-03     74.6141E-03    -41.1405E+06    -157.381E+06    -23.0792E+06     1.01837E+06    -57.0207E-03     113.538E-03    -56.5175E-03     49.6860E-03    -57.0133E-03     112.893E-03    -56.3451E-03     49.4539E-03
             526     5.95509E-03     74.6670E-03    -38.6927E+06    -154.341E+06    -17.9740E+06     1.15793E+06    -57.2580E-03     113.792E-03    -56.5339E-03     57.4130E-03    -57.2738E-03     113.175E-03    -56.3439E-03     57.1188E-03
             527     6.80553E-03     74.7291E-03    -36.2532E+06    -149.150E+06    -15.1500E+06     1.67485E+06    -57.4050E-03     113.938E-03    -56.5333E-03     65.0903E-03    -57.4515E-03     113.371E-03    -56.3402E-03     64.7306E-03
             528     7.65622E-03     74.7981E-03    -33.4816E+06    -141.025E+06    -12.9889E+06     1.67368E+06    -57.5738E-03     114.091E-03    -56.5171E-03     72.4194E-03    -57.6642E-03     113.599E-03    -56.3290E-03     71.9726E-03
             529     8.50688E-03     74.8751E-03    -31.3752E+06    -129.954E+06    -11.2971E+06     1.76701E+06    -57.6977E-03     114.185E-03    -56.4875E-03     80.1262E-03    -57.8528E-03     113.800E-03    -56.3101E-03     79.5825E-03
             530     9.35867E-03     74.9592E-03    -29.4980E+06    -112.993E+06    -10.1799E+06     1.94861E+06    -57.9355E-03     114.379E-03    -56.4439E-03     87.3572E-03    -58.1859E-03     114.154E-03    -56.2882E-03     86.6954E-03
             531     10.2086E-03     75.0498E-03    -27.6946E+06    -91.4470E+06    -10.3628E+06     1.76047E+06    -58.3649E-03     114.764E-03    -56.3989E-03     94.5474E-03    -58.7450E-03     114.751E-03    -56.2780E-03     93.7374E-03
             532     11.0600E-03     75.1492E-03    -26.3245E+06    -60.3547E+06    -10.3306E+06     1.75435E+06    -58.5795E-03     114.930E-03    -56.3508E-03     102.424E-03    -59.1513E-03     115.224E-03    -56.2768E-03     101.445E-03
             533     11.9110E-03     75.2564E-03    -25.5822E+06    -14.4006E+06    -10.6023E+06     2.23660E+06    -58.8947E-03     115.172E-03    -56.2769E-03     114.438E-03    -59.7872E-03     115.953E-03    -56.2719E-03     113.246E-03
             534     12.7608E-03     75.3798E-03    -25.1062E+06     35.3131E+06    -7.10008E+06     2.40199E+06    -59.8210E-03     116.030E-03    -56.2091E-03     138.178E-03    -61.3314E-03     117.597E-03    -56.2594E-03     136.663E-03
             535     13.6123E-03     75.5346E-03    -23.5285E+06     74.0246E+06     19.3760E+06     1.74475E+06    -62.6903E-03     118.950E-03    -56.2596E-03     186.638E-03    -65.6882E-03     122.071E-03    -56.2359E-03     184.598E-03
             536     14.4644E-03     75.7559E-03    -19.0205E+06     109.077E+06     68.3416E+06     511.176E+03    -71.2920E-03     127.708E-03    -56.4163E-03     282.978E-03    -79.2494E-03     135.787E-03    -56.2051E-03     280.030E-03
             537     15.3144E-03     76.1111E-03    -12.7447E+06     146.388E+06     107.489E+06     95.4523E+03    -83.7534E-03     140.280E-03    -56.5265E-03     411.064E-03    -106.008E-03     162.697E-03    -56.1828E-03     408.745E-03
             538     16.1675E-03     76.6166E-03    -6.03078E+06     164.257E+06     118.202E+06     475.027E+03    -74.6589E-03     131.172E-03    -56.5127E-03     352.886E-03    -96.5112E-03     153.243E-03    -56.1512E-03     357.393E-03
             539     849.802E-06     75.5271E-03    -51.8580E+06    -175.019E+06     -51.368E+06     327.654E+03    -56.6391E-03     113.234E-03    -56.5945E-03     9.81894E-03    -56.5714E-03     112.510E-03    -56.5223E-03     9.78640E-03
             540     1.70143E-03     75.5383E-03    -51.5288E+06    -173.772E+06    -48.9316E+06     182.951E+03    -56.4285E-03     112.992E-03    -56.5633E-03     17.4076E-03    -56.3679E-03     112.273E-03    -56.4812E-03     17.3414E-03
             541     2.55159E-03     75.5607E-03    -50.7112E+06     -171.75E+06    -45.2483E+06     213.604E+03    -56.4020E-03     112.890E-03    -56.4884E-03     25.7814E-03    -56.3512E-03     112.181E-03    -56.3921E-03     25.6814E-03
             542     3.40327E-03     75.5904E-03    -47.7682E+06    -166.769E+06    -37.4941E+06     695.189E+03    -56.5721E-03     113.033E-03    -56.4614E-03     33.7872E-03    -56.5336E-03     112.342E-03    -56.3378E-03     33.6526E-03
             543     4.25340E-03     75.6281E-03    -44.5713E+06    -161.977E+06    -29.9513E+06     1.07486E+06    -56.8093E-03     113.279E-03    -56.4693E-03     41.7511E-03    -56.7851E-03     112.608E-03    -56.3196E-03     41.5741E-03
             544     5.10455E-03     75.6749E-03    -42.0016E+06    -158.110E+06    -23.6553E+06     1.35094E+06    -56.9636E-03     113.449E-03    -56.4849E-03     49.8295E-03    -56.9586E-03     112.802E-03    -56.3130E-03     49.6024E-03
             545     5.95486E-03     75.7278E-03    -38.9743E+06    -154.260E+06    -17.5785E+06     1.35778E+06    -57.3351E-03     113.844E-03    -56.5090E-03     57.5804E-03    -57.3530E-03     113.227E-03    -56.3167E-03     57.2888E-03
             546     6.80551E-03     75.7905E-03    -35.9539E+06    -149.069E+06    -14.6386E+06     1.51364E+06    -57.5097E-03     114.032E-03    -56.5228E-03     65.0393E-03    -57.5559E-03     113.464E-03    -56.3277E-03     64.6758E-03
             547     7.65637E-03     75.8585E-03    -33.7731E+06    -141.046E+06    -12.9736E+06     1.69688E+06    -57.6184E-03     114.133E-03    -56.5149E-03     72.5834E-03    -57.7103E-03     113.642E-03    -56.3262E-03     72.1368E-03
             548     8.50752E-03     75.9362E-03    -31.7464E+06    -130.326E+06    -11.1771E+06     1.67297E+06    -57.6546E-03     114.143E-03    -56.4880E-03     79.5937E-03    -57.8109E-03     113.756E-03    -56.3089E-03     79.0480E-03
             549     9.35811E-03     76.0189E-03    -29.7803E+06    -113.547E+06    -10.5973E+06     1.64874E+06    -57.9593E-03     114.401E-03    -56.4422E-03     87.3103E-03    -58.2093E-03     114.173E-03    -56.2873E-03     86.6447E-03
             550     10.2094E-03     76.1123E-03    -28.2299E+06    -91.1504E+06    -10.5716E+06     1.68704E+06    -58.5762E-03     114.983E-03    -56.4071E-03     94.5853E-03    -58.9600E-03     114.974E-03    -56.2868E-03     93.7709E-03
             551     11.0591E-03     76.2093E-03    -27.1969E+06    -60.9275E+06    -10.7164E+06     1.92528E+06    -58.6903E-03     115.063E-03    -56.3724E-03     102.179E-03    -59.2651E-03     115.356E-03    -56.2982E-03     101.199E-03
             552     11.9097E-03     76.3181E-03    -26.2050E+06    -15.3482E+06    -10.9897E+06     2.64533E+06    -58.7010E-03     114.995E-03    -56.2944E-03     114.770E-03    -59.5929E-03     115.772E-03    -56.2890E-03     113.592E-03
             553     12.7616E-03     76.4401E-03    -24.4433E+06     35.7104E+06    -6.81719E+06     2.76908E+06    -59.6563E-03     115.867E-03    -56.2110E-03     138.627E-03    -61.1668E-03     117.438E-03    -56.2615E-03     137.122E-03
             554     13.6129E-03     76.5956E-03    -21.8987E+06     75.8130E+06     19.8874E+06     1.56794E+06    -62.6786E-03     118.931E-03    -56.2523E-03     186.690E-03    -65.6708E-03     122.057E-03    -56.2310E-03     184.648E-03
             555     14.4634E-03     76.8164E-03    -18.5124E+06     110.036E+06     68.4734E+06     507.347E+03    -71.2150E-03     127.621E-03    -56.4059E-03     283.234E-03    -79.1785E-03     135.711E-03    -56.1962E-03     280.290E-03
             556     15.3154E-03     77.1732E-03    -13.3921E+06     146.354E+06     107.147E+06     485.141E+03    -83.1635E-03     139.654E-03    -56.4908E-03     412.338E-03    -105.460E-03     162.112E-03    -56.1478E-03     410.162E-03
             557     16.1659E-03     77.6750E-03    -6.28167E+06     164.420E+06     118.182E+06     73.6931E+03    -74.7711E-03     131.231E-03    -56.4594E-03     351.937E-03    -96.5522E-03     153.230E-03    -56.0978E-03     356.445E-03
             558     851.275E-06     76.5863E-03    -54.4130E+06    -177.115E+06    -53.1564E+06     847.052E+03    -56.4429E-03     112.661E-03    -56.2185E-03     9.58626E-03    -56.3825E-03     111.933E-03    -56.1485E-03     9.56099E-03
             559     1.70140E-03     76.6000E-03    -52.7364E+06    -174.014E+06    -48.3707E+06     1.13014E+06    -56.5176E-03     112.880E-03    -56.3624E-03     17.4721E-03    -56.4635E-03     112.161E-03    -56.2754E-03     17.4188E-03
             560     2.55223E-03     76.6213E-03    -50.6675E+06    -170.454E+06    -42.6905E+06     561.988E+03    -56.6479E-03     113.071E-03    -56.4235E-03     25.6333E-03    -56.6026E-03     112.365E-03    -56.3164E-03     25.5362E-03
             561     3.40276E-03     76.6504E-03    -48.4239E+06    -167.360E+06    -37.8314E+06     207.971E+03    -56.6380E-03     113.089E-03    -56.4509E-03     33.6461E-03    -56.6014E-03     112.396E-03    -56.3272E-03     33.5042E-03
             562     4.25355E-03     76.6903E-03    -45.4619E+06    -163.220E+06    -31.4091E+06     714.291E+03    -56.6912E-03     113.145E-03    -56.4541E-03     41.6606E-03    -56.6675E-03     112.472E-03    -56.3086E-03     41.4793E-03
             563     5.10444E-03     76.7336E-03    -42.6317E+06    -158.736E+06    -24.2669E+06     1.12662E+06    -57.0017E-03     113.469E-03    -56.4670E-03     49.7987E-03    -56.9979E-03     112.820E-03    -56.2963E-03     49.5686E-03
             564     5.95539E-03     76.7908E-03    -39.4754E+06    -154.687E+06    -17.8573E+06     1.68206E+06    -57.2643E-03     113.758E-03    -56.4933E-03     57.5315E-03    -57.2833E-03     113.139E-03    -56.3011E-03     57.2454E-03
             565     6.80580E-03     76.8498E-03    -36.4904E+06    -149.570E+06    -15.1020E+06     1.52053E+06    -57.5020E-03     114.006E-03    -56.5037E-03     64.8853E-03    -57.5496E-03     113.437E-03    -56.3094E-03     64.5211E-03
             566     7.65655E-03     76.9208E-03    -34.0624E+06    -141.393E+06    -13.4579E+06     1.66377E+06    -57.6625E-03     114.162E-03    -56.4995E-03     72.5448E-03    -57.7545E-03     113.670E-03    -56.3124E-03     72.0978E-03
             567     8.50665E-03     76.9960E-03    -31.8930E+06    -130.063E+06    -11.4661E+06     1.69257E+06    -57.9011E-03     114.389E-03    -56.4881E-03     79.6215E-03    -58.0593E-03     114.006E-03    -56.3106E-03     79.0717E-03
             568     9.35813E-03     77.0801E-03    -30.1298E+06    -113.293E+06    -10.7612E+06     1.73795E+06    -58.2010E-03     114.666E-03    -56.4653E-03     87.4040E-03    -58.4544E-03     114.442E-03    -56.3111E-03     86.7346E-03
             569     10.2084E-03     77.1729E-03    -28.9187E+06    -91.8217E+06    -11.2995E+06     1.92368E+06    -58.3557E-03     114.784E-03    -56.4285E-03     94.7669E-03    -58.7396E-03     114.772E-03    -56.3099E-03     93.9605E-03
             570     11.0594E-03     77.2716E-03    -27.6546E+06    -61.3827E+06    -11.1401E+06     2.15245E+06    -58.4554E-03     114.830E-03    -56.3747E-03     102.319E-03    -59.0310E-03     115.122E-03    -56.3013E-03     101.347E-03
             571     11.9107E-03     77.3776E-03    -26.1591E+06    -15.7682E+06    -11.5402E+06     2.25312E+06    -58.7511E-03     115.039E-03    -56.2877E-03     114.823E-03    -59.6441E-03     115.816E-03    -56.2846E-03     113.635E-03
             572     12.7617E-03     77.5012E-03    -24.5107E+06     36.2023E+06    -6.70394E+06     1.73982E+06    -59.6357E-03     115.845E-03    -56.2089E-03     138.276E-03    -61.1459E-03     117.416E-03    -56.2594E-03     136.757E-03
             573     13.6122E-03     77.6566E-03    -22.2386E+06     76.8952E+06     20.7986E+06     1.31684E+06    -62.4404E-03     118.687E-03    -56.2464E-03     186.749E-03    -65.4346E-03     121.815E-03    -56.2216E-03     184.714E-03
             574     14.4643E-03     77.8771E-03    -18.5454E+06     110.483E+06     68.5547E+06     1.44432E+06    -70.8655E-03     127.243E-03    -56.3772E-03     283.749E-03    -78.8217E-03     135.326E-03    -56.1678E-03     280.850E-03
             575     15.3162E-03     78.2333E-03    -12.7869E+06     147.568E+06     107.641E+06     1.05456E+06    -83.0008E-03     139.449E-03    -56.4486E-03     412.183E-03    -105.290E-03     161.905E-03    -56.1058E-03     410.022E-03
             576     16.1700E-03     78.7377E-03    -6.19748E+06     165.192E+06     118.508E+06    -15.4468E+03    -75.4115E-03     131.845E-03    -56.4338E-03     351.894E-03    -97.2163E-03     153.871E-03    -56.0718E-03     356.335E-03
             577     850.906E-06     77.6479E-03    -55.9342E+06    -178.555E+06    -54.7494E+06     649.396E+03    -56.3852E-03     112.499E-03    -56.1142E-03     9.38794E-03    -56.3280E-03     111.769E-03    -56.0479E-03     9.35930E-03
             578     1.70177E-03     77.6601E-03    -53.1811E+06    -174.680E+06    -49.2176E+06     278.276E+03    -56.5074E-03     112.804E-03    -56.2968E-03     17.1410E-03    -56.4533E-03     112.084E-03    -56.2125E-03     17.0765E-03
             579     2.55255E-03     77.6822E-03    -50.3258E+06    -170.477E+06    -43.0260E+06     929.019E+03    -56.6763E-03     113.059E-03    -56.3832E-03     25.6202E-03    -56.6287E-03     112.353E-03    -56.2781E-03     25.5281E-03
             580     3.40227E-03     77.7125E-03    -48.3249E+06    -166.670E+06    -36.6596E+06     774.613E+03    -56.6810E-03     113.117E-03    -56.4362E-03     33.6039E-03    -56.6468E-03     112.426E-03    -56.3078E-03     33.4685E-03
             581     4.25407E-03     77.7484E-03    -46.1361E+06    -163.384E+06    -31.1811E+06     716.422E+03    -56.7920E-03     113.248E-03    -56.4556E-03     41.7606E-03    -56.7718E-03     112.574E-03    -56.3077E-03     41.5789E-03
             582     5.10427E-03     77.7973E-03    -43.1996E+06    -159.187E+06    -24.4873E+06     1.12142E+06    -57.0617E-03     113.543E-03    -56.4809E-03     49.7544E-03    -57.0598E-03     112.893E-03    -56.3098E-03     49.5241E-03
             583     5.95475E-03     77.8489E-03    -40.2726E+06    -155.666E+06    -18.9662E+06     1.31357E+06    -57.1804E-03     113.682E-03    -56.5018E-03     57.3118E-03    -57.2003E-03     113.062E-03    -56.3125E-03     57.0209E-03
             584     6.80602E-03     77.9129E-03    -37.0684E+06    -149.917E+06    -15.8193E+06     1.39206E+06    -57.3696E-03     113.868E-03    -56.4988E-03     64.8334E-03    -57.4182E-03     113.299E-03    -56.3067E-03     64.4695E-03
             585     7.65624E-03     77.9800E-03    -34.4840E+06    -141.944E+06    -14.2418E+06     1.51262E+06    -57.6242E-03     114.110E-03    -56.4853E-03     72.3620E-03    -57.7162E-03     113.617E-03    -56.3007E-03     71.9133E-03
             586     8.50822E-03     78.0578E-03    -32.1407E+06    -130.009E+06    -11.8167E+06     1.83508E+06    -58.0873E-03     114.570E-03    -56.4826E-03     79.9808E-03    -58.2468E-03     114.188E-03    -56.3066E-03     79.4316E-03
             587     9.35719E-03     78.1415E-03    -30.2887E+06    -113.212E+06    -10.7041E+06     1.93003E+06    -58.3890E-03     114.867E-03    -56.4784E-03     87.4647E-03    -58.6448E-03     114.645E-03    -56.3238E-03     86.7936E-03
             588     10.2085E-03     78.2333E-03    -28.7444E+06    -92.4092E+06    -11.3860E+06     2.08802E+06    -58.1638E-03     114.604E-03    -56.4405E-03     94.8524E-03    -58.5460E-03     114.589E-03    -56.3218E-03     94.0506E-03
             589     11.0597E-03     78.3322E-03    -27.2213E+06    -61.6618E+06    -11.2137E+06     2.13455E+06    -58.2410E-03     114.610E-03    -56.3692E-03     102.260E-03    -58.8118E-03     114.898E-03    -56.2964E-03     101.293E-03
             590     11.9105E-03     78.4386E-03    -25.7331E+06    -15.6767E+06    -11.4887E+06     1.92624E+06    -58.7760E-03     115.051E-03    -56.2754E-03     114.850E-03    -59.6671E-03     115.829E-03    -56.2728E-03     113.658E-03
             591     12.7605E-03     78.5629E-03    -24.6496E+06     36.7098E+06    -7.15118E+06     1.56363E+06    -59.4961E-03     115.686E-03    -56.1904E-03     138.695E-03    -61.0077E-03     117.262E-03    -56.2436E-03     137.180E-03
             592     13.6133E-03     78.7152E-03    -23.0229E+06     77.1527E+06     20.1959E+06     1.44467E+06    -62.3149E-03     118.534E-03    -56.2191E-03     187.121E-03    -65.3166E-03     121.669E-03    -56.1966E-03     185.093E-03
             593     14.4650E-03     78.9389E-03    -18.8392E+06     110.550E+06     68.4390E+06     1.05771E+06    -71.3192E-03     127.686E-03    -56.3668E-03     282.790E-03    -79.2627E-03     135.757E-03    -56.1576E-03     279.841E-03
             594     15.3167E-03     79.2923E-03    -12.4414E+06     148.101E+06     107.758E+06     454.172E+03    -83.0613E-03     139.533E-03    -56.4714E-03     409.514E-03    -105.202E-03     161.843E-03    -56.1294E-03     407.350E-03
             595     16.1658E-03     79.7981E-03    -5.85308E+06     165.932E+06     118.636E+06     395.633E+03    -75.0776E-03     131.541E-03    -56.4633E-03     352.885E-03    -96.8815E-03     153.569E-03    -56.1022E-03     357.417E-03
             596     850.530E-06     78.7069E-03    -53.3187E+06    -176.732E+06    -53.8501E+06    -1.12415E+06    -56.4995E-03     112.822E-03    -56.3223E-03     9.29115E-03    -56.4333E-03     112.095E-03    -56.2580E-03     9.23848E-03
             597     1.70149E-03     78.7215E-03    -52.8636E+06    -175.376E+06    -50.8587E+06     10.4504E+03    -56.3846E-03     112.774E-03    -56.3896E-03     17.2597E-03    -56.3256E-03     112.052E-03    -56.3129E-03     17.1917E-03
             598     2.55168E-03     78.7427E-03    -51.9756E+06    -172.760E+06    -45.9437E+06     661.784E+03    -56.3899E-03     112.760E-03    -56.3705E-03     25.6045E-03    -56.3429E-03     112.049E-03    -56.2743E-03     25.5105E-03
             599     3.40401E-03     78.7726E-03    -48.9782E+06    -167.134E+06    -37.1422E+06     1.27448E+06    -56.7153E-03     113.109E-03    -56.3941E-03     33.7368E-03    -56.6830E-03     112.418E-03    -56.2664E-03     33.6085E-03
             600     4.25295E-03     78.8106E-03    -46.1141E+06    -162.840E+06    -30.1511E+06     1.32853E+06    -57.0777E-03     113.535E-03    -56.4569E-03     41.8124E-03    -57.0599E-03     112.862E-03    -56.3047E-03     41.6368E-03
             601     5.10430E-03     78.8566E-03    -43.2844E+06    -159.529E+06    -24.9867E+06     1.39513E+06    -57.0716E-03     113.575E-03    -56.5037E-03     49.7210E-03    -57.0690E-03     112.925E-03    -56.3346E-03     49.4936E-03
             602     5.95513E-03     78.9114E-03    -39.8936E+06    -155.569E+06    -19.0250E+06     1.13581E+06    -57.1177E-03     113.636E-03    -56.5186E-03     57.2593E-03    -57.1358E-03     113.016E-03    -56.3303E-03     56.9663E-03
             603     6.80539E-03     78.9721E-03    -37.6207E+06    -150.240E+06    -16.7001E+06     1.08191E+06    -57.3140E-03     113.818E-03    -56.5035E-03     64.9373E-03    -57.3636E-03     113.249E-03    -56.3146E-03     64.5700E-03
             604     7.65719E-03     79.0418E-03    -34.8341E+06    -141.902E+06    -14.6204E+06     1.08290E+06    -57.7313E-03     114.225E-03    -56.4935E-03     72.2128E-03    -57.8248E-03     113.733E-03    -56.3103E-03     71.7567E-03
             605     8.50626E-03     79.1182E-03    -32.3567E+06    -130.808E+06    -12.4492E+06     1.41389E+06    -58.0035E-03     114.495E-03    -56.4917E-03     79.9210E-03    -58.1615E-03     114.110E-03    -56.3173E-03     79.3678E-03
             606     9.35840E-03     79.2033E-03    -30.0026E+06    -113.841E+06    -10.9746E+06     1.75689E+06    -58.1184E-03     114.590E-03    -56.4713E-03     87.4889E-03    -58.3699E-03     114.362E-03    -56.3176E-03     86.8212E-03
             607     10.2083E-03     79.2939E-03    -27.8932E+06    -92.5104E+06    -11.1463E+06     1.84043E+06    -58.2320E-03     114.658E-03    -56.4259E-03     94.7265E-03    -58.6111E-03     114.642E-03    -56.3070E-03     93.9194E-03
             608     11.0595E-03     79.3925E-03    -26.2276E+06    -61.5584E+06    -10.8309E+06     2.13467E+06    -58.3133E-03     114.674E-03    -56.3603E-03     102.720E-03    -58.8808E-03     114.961E-03    -56.2872E-03     101.752E-03
             609     11.9104E-03     79.5001E-03    -25.2596E+06    -15.6725E+06    -11.2426E+06     2.24302E+06    -58.3997E-03     114.656E-03    -56.2558E-03     114.876E-03    -59.2848E-03     115.428E-03    -56.2527E-03     113.700E-03
             610     12.7634E-03     79.6223E-03    -24.7644E+06     36.9697E+06    -7.28651E+06     1.97200E+06    -59.5604E-03     115.720E-03    -56.1600E-03     138.476E-03    -61.0719E-03     117.296E-03    -56.2142E-03     136.964E-03
             611     13.6134E-03     79.7772E-03    -23.2174E+06     77.9107E+06     20.1967E+06     1.33643E+06    -62.8956E-03     119.111E-03    -56.2151E-03     185.911E-03    -65.8936E-03     122.244E-03    -56.1934E-03     183.858E-03
             612     14.4644E-03     79.9982E-03    -19.0776E+06     111.109E+06     68.5795E+06     476.892E+03    -71.9651E-03     128.367E-03    -56.4017E-03     282.977E-03    -79.9587E-03     136.488E-03    -56.1922E-03     279.960E-03
             613     15.3122E-03     80.3563E-03    -12.7910E+06     148.030E+06     107.492E+06    -140.586E+03    -83.7259E-03     140.271E-03    -56.5447E-03     408.352E-03    -105.750E-03     162.463E-03    -56.2033E-03     406.117E-03
             614     16.1680E-03     80.8521E-03    -6.42924E+06     165.915E+06     118.133E+06     299.479E+03    -74.0686E-03     130.609E-03    -56.5406E-03     352.336E-03    -95.8272E-03     152.592E-03    -56.1812E-03     357.013E-03
             615     850.642E-06     79.7688E-03    -54.4534E+06    -176.702E+06    -52.8379E+06     199.496E+03    -56.4654E-03     112.741E-03    -56.2753E-03     9.87898E-03    -56.4063E-03     112.014E-03    -56.2043E-03     9.84568E-03
             616     1.70109E-03     79.7816E-03    -54.4530E+06    -176.334E+06    -51.3595E+06     358.413E+03    -56.4325E-03     112.800E-03    -56.3675E-03     17.5664E-03    -56.3793E-03     112.076E-03    -56.2897E-03     17.5036E-03
             617     2.55297E-03     79.8033E-03    -52.3316E+06    -172.827E+06    -45.7633E+06     575.797E+03    -56.4843E-03     112.867E-03    -56.3823E-03     25.3847E-03    -56.4392E-03     112.155E-03    -56.2847E-03     25.2887E-03
             618     3.40236E-03     79.8330E-03    -49.9196E+06    -168.495E+06    -38.7775E+06     796.595E+03    -56.7023E-03     113.112E-03    -56.4101E-03     33.7698E-03    -56.6702E-03     112.417E-03    -56.2873E-03     33.6362E-03
             619     4.25431E-03     79.8724E-03    -46.5653E+06    -163.687E+06    -31.3487E+06     1.42169E+06    -57.0239E-03     113.487E-03    -56.4629E-03     41.8260E-03    -57.0055E-03     112.813E-03    -56.3148E-03     41.6519E-03
             620     5.10380E-03     79.9173E-03    -42.7937E+06    -158.977E+06    -24.4231E+06     1.22205E+06    -57.0917E-03     113.602E-03    -56.5102E-03     49.5923E-03    -57.0884E-03     112.953E-03    -56.3397E-03     49.3617E-03
             621     5.95458E-03     79.9722E-03    -40.0174E+06    -155.832E+06    -19.3468E+06     1.21869E+06    -57.1121E-03     113.635E-03    -56.5232E-03     57.3254E-03    -57.1300E-03     113.014E-03    -56.3360E-03     57.0334E-03
             622     6.80625E-03     80.0325E-03    -37.0114E+06    -149.743E+06    -16.2459E+06     1.04357E+06    -57.4772E-03     113.995E-03    -56.5181E-03     64.9429E-03    -57.5254E-03     113.428E-03    -56.3285E-03     64.5731E-03
             623     7.65558E-03     80.1035E-03    -34.4907E+06    -142.049E+06    -14.7981E+06     808.544E+03    -57.7190E-03     114.232E-03    -56.5130E-03     72.4471E-03    -57.8106E-03     113.740E-03    -56.3310E-03     71.9877E-03
             624     8.50763E-03     80.1788E-03    -32.1813E+06    -131.377E+06    -13.0934E+06     846.405E+03    -57.7598E-03     114.254E-03    -56.4944E-03     80.0626E-03    -57.9149E-03     113.867E-03    -56.3227E-03     79.5052E-03
             625     9.35746E-03     80.2641E-03    -29.7034E+06    -114.423E+06    -11.5957E+06     1.11994E+06    -57.8744E-03     114.325E-03    -56.4502E-03     87.7027E-03    -58.1215E-03     114.094E-03    -56.2992E-03     87.0322E-03
             626     10.2094E-03     80.3546E-03    -27.6200E+06    -92.8764E+06    -11.5057E+06     1.34221E+06    -58.2926E-03     114.691E-03    -56.3982E-03     94.8352E-03    -58.6694E-03     114.673E-03    -56.2810E-03     94.0210E-03
             627     11.0598E-03     80.4539E-03    -26.0091E+06    -61.8680E+06    -10.9388E+06     1.88136E+06    -58.3967E-03     114.739E-03    -56.3419E-03     102.331E-03    -58.9624E-03     115.024E-03    -56.2692E-03     101.359E-03
             628     11.9114E-03     80.5598E-03    -24.9557E+06    -16.2313E+06    -11.1464E+06     2.42396E+06    -58.6523E-03     114.906E-03    -56.2542E-03     114.044E-03    -59.5343E-03     115.675E-03    -56.2502E-03     112.862E-03
             629     12.7615E-03     80.6827E-03    -24.2014E+06     37.3533E+06    -6.92981E+06     2.48888E+06    -59.9520E-03     116.135E-03    -56.1826E-03     137.818E-03    -61.4607E-03     117.710E-03    -56.2363E-03     136.300E-03
             630     13.6122E-03     80.8396E-03    -22.6560E+06     79.3746E+06     20.4847E+06     1.56638E+06    -63.0233E-03     119.276E-03    -56.2527E-03     185.726E-03    -66.0210E-03     122.416E-03    -56.2325E-03     183.668E-03
             631     14.4627E-03     81.0581E-03    -19.0335E+06     112.420E+06     68.6616E+06     530.247E+03    -71.3206E-03     127.738E-03    -56.4174E-03     284.101E-03    -79.3236E-03     135.873E-03    -56.2095E-03     281.152E-03
             632     15.3171E-03     81.4202E-03    -13.1429E+06     148.386E+06     107.403E+06     46.3035E+03    -84.3671E-03     140.900E-03    -56.5332E-03     412.386E-03    -106.684E-03     163.385E-03    -56.1923E-03     409.973E-03
             633     16.1592E-03     81.9141E-03    -6.97358E+06     165.787E+06     117.664E+06    -5.51836E+03    -74.7912E-03     131.330E-03    -56.5385E-03     351.232E-03    -96.6250E-03     153.386E-03    -56.1805E-03     355.688E-03
             634     851.291E-06     80.8291E-03    -57.1494E+06    -179.257E+06    -55.3559E+06     1.48723E+06    -56.3658E-03     112.474E-03    -56.1086E-03     9.67736E-03    -56.3128E-03     111.743E-03    -56.0426E-03     9.66124E-03
             635     1.70210E-03     80.8424E-03    -55.0004E+06    -175.484E+06    -49.3695E+06     921.449E+03    -56.6169E-03     112.930E-03    -56.3136E-03     17.4654E-03    -56.5705E-03     112.209E-03    -56.2262E-03     17.4100E-03
             636     2.55140E-03     80.8640E-03    -52.3022E+06    -172.302E+06    -44.8239E+06     374.893E+03    -56.7584E-03     113.185E-03    -56.4262E-03     25.3215E-03    -56.7154E-03     112.474E-03    -56.3247E-03     25.2213E-03
             637     3.40317E-03     80.8941E-03    -49.8501E+06    -168.516E+06    -38.8676E+06     913.861E+03    -56.7340E-03     113.218E-03    -56.4837E-03     33.7839E-03    -56.7015E-03     112.523E-03    -56.3614E-03     33.6514E-03
             638     4.25296E-03     80.9324E-03    -46.9256E+06    -164.278E+06    -32.2284E+06     746.582E+03    -56.7539E-03     113.252E-03    -56.4978E-03     41.8112E-03    -56.7349E-03     112.576E-03    -56.3527E-03     41.6300E-03
             639     5.10437E-03     80.9795E-03    -44.0267E+06    -160.058E+06    -25.5771E+06     660.838E+03    -56.9292E-03     113.432E-03    -56.5025E-03     49.4455E-03    -56.9286E-03     112.781E-03    -56.3344E-03     49.2087E-03
             640     5.95540E-03     81.0314E-03    -40.4090E+06    -155.554E+06    -19.1036E+06     964.466E+03    -57.3248E-03     113.847E-03    -56.5220E-03     57.4757E-03    -57.3457E-03     113.227E-03    -56.3333E-03     57.1791E-03
             641     6.80482E-03     81.0954E-03    -37.0076E+06    -149.497E+06    -16.2282E+06     956.632E+03    -57.4653E-03     113.994E-03    -56.5288E-03     65.0648E-03    -57.5140E-03     113.428E-03    -56.3395E-03     64.6942E-03
             642     7.65685E-03     81.1626E-03    -34.4880E+06    -141.992E+06    -14.8812E+06     432.561E+03    -57.5109E-03     114.021E-03    -56.5099E-03     72.6583E-03    -57.6022E-03     113.529E-03    -56.3284E-03     72.1965E-03
             643     8.50667E-03     81.2409E-03    -31.7079E+06    -131.262E+06    -12.9485E+06     270.625E+03    -57.7219E-03     114.201E-03    -56.4787E-03     79.9904E-03    -57.8747E-03     113.812E-03    -56.3072E-03     79.4262E-03
             644     9.35884E-03     81.3232E-03    -29.7193E+06    -115.127E+06    -12.4689E+06     431.849E+03    -57.9585E-03     114.394E-03    -56.4354E-03     87.3903E-03    -58.2038E-03     114.161E-03    -56.2877E-03     86.7084E-03
             645     10.2090E-03     81.4166E-03    -27.9915E+06    -93.2556E+06    -12.2713E+06     832.603E+03    -58.2621E-03     114.650E-03    -56.3880E-03     94.7870E-03    -58.6377E-03     114.631E-03    -56.2735E-03     93.9686E-03
             646     11.0598E-03     81.5142E-03    -26.3634E+06    -62.8933E+06    -11.6995E+06     1.23473E+06    -58.5359E-03     114.874E-03    -56.3384E-03     101.765E-03    -59.1010E-03     115.156E-03    -56.2675E-03     100.780E-03
             647     11.9104E-03     81.6205E-03    -24.8988E+06    -17.4326E+06    -12.0289E+06     2.04113E+06    -59.0573E-03     115.326E-03    -56.2692E-03     114.478E-03    -59.9422E-03     116.096E-03    -56.2679E-03     113.279E-03
             648     12.7607E-03     81.7453E-03    -23.3063E+06     37.5571E+06    -7.78711E+06     2.76133E+06    -59.9028E-03     116.105E-03    -56.2025E-03     138.725E-03    -61.4117E-03     117.687E-03    -56.2621E-03     137.212E-03
             649     13.6125E-03     81.8984E-03    -21.1478E+06     80.9448E+06     20.4421E+06     2.44689E+06    -62.7508E-03     119.006E-03    -56.2555E-03     187.155E-03    -65.7576E-03     122.166E-03    -56.2400E-03     185.116E-03
             650     14.4640E-03     82.1220E-03    -17.7357E+06     114.062E+06     69.4208E+06     1.37294E+06    -70.7828E-03     127.184E-03    -56.4015E-03     283.204E-03    -78.7161E-03     135.258E-03    -56.1941E-03     280.317E-03
             651     15.3154E-03     82.4739E-03    -12.8057E+06     148.969E+06     107.313E+06     724.102E+03    -82.7631E-03     139.210E-03    -56.4465E-03     415.331E-03    -105.327E-03     161.946E-03    -56.1073E-03     413.168E-03
             652     16.1728E-03     82.9935E-03    -6.50035E+06     166.088E+06     117.558E+06     100.289E+03    -75.9187E-03     132.325E-03    -56.4058E-03     351.667E-03    -97.7669E-03     154.399E-03    -56.0494E-03     355.951E-03
             653     850.423E-06     81.8880E-03    -56.4077E+06    -179.310E+06    -55.8344E+06     269.048E+03    -56.5453E-03     112.881E-03    -56.3355E-03     9.48818E-03    -56.4877E-03     112.148E-03    -56.2728E-03     9.45573E-03
             654     1.70123E-03     81.9041E-03    -54.7170E+06    -176.210E+06    -51.1447E+06     1.16595E+06    -56.4674E-03     112.904E-03    -56.4370E-03     17.4052E-03    -56.4160E-03     112.181E-03    -56.3578E-03     17.3536E-03
             655     2.55248E-03     81.9250E-03    -52.9671E+06    -172.671E+06    -45.1502E+06     744.908E+03    -56.6896E-03     113.157E-03    -56.4676E-03     25.5553E-03    -56.6490E-03     112.447E-03    -56.3662E-03     25.4601E-03
             656     3.40208E-03     81.9548E-03    -50.0647E+06    -168.373E+06    -38.6521E+06     919.655E+03    -56.7777E-03     113.288E-03    -56.5099E-03     33.9583E-03    -56.7468E-03     112.593E-03    -56.3864E-03     33.8256E-03
             657     4.25332E-03     81.9939E-03    -47.3959E+06    -164.352E+06    -32.2976E+06     824.730E+03    -56.6772E-03     113.193E-03    -56.5159E-03     41.9331E-03    -56.6602E-03     112.518E-03    -56.3704E-03     41.7539E-03
             658     5.10444E-03     82.0384E-03    -44.2509E+06    -160.150E+06    -25.8259E+06     350.903E+03    -56.9674E-03     113.479E-03    -56.5119E-03     49.5819E-03    -56.9674E-03     112.829E-03    -56.3446E-03     49.3412E-03
             659     5.95439E-03     82.0946E-03    -40.7769E+06    -155.765E+06    -19.6285E+06     483.701E+03    -57.2285E-03     113.754E-03    -56.5254E-03     57.4197E-03    -57.2500E-03     113.135E-03    -56.3386E-03     57.1177E-03
             660     6.80610E-03     82.1545E-03    -37.4881E+06    -149.561E+06    -17.1740E+06     98.8480E+03    -57.3695E-03     113.887E-03    -56.5176E-03     65.0539E-03    -57.4191E-03     113.322E-03    -56.3322E-03     64.6727E-03
             661     7.65609E-03     82.2246E-03    -34.3338E+06    -141.089E+06    -15.2731E+06    -190.160E+03    -57.5671E-03     114.065E-03    -56.4980E-03     72.3695E-03    -57.6584E-03     113.578E-03    -56.3200E-03     71.8984E-03
             662     8.50799E-03     82.3005E-03    -32.1476E+06    -131.486E+06    -13.5103E+06    -403.818E+03    -57.7474E-03     114.222E-03    -56.4748E-03     79.7084E-03    -57.9012E-03     113.834E-03    -56.3051E-03     79.1342E-03
             663     9.35743E-03     82.3852E-03    -29.8208E+06    -115.398E+06    -12.9180E+06    -157.865E+03    -58.1014E-03     114.541E-03    -56.4398E-03     87.4353E-03    -58.3472E-03     114.309E-03    -56.2938E-03     86.7427E-03
             664     10.2089E-03     82.4762E-03    -27.9519E+06    -93.7774E+06    -12.7210E+06     429.494E+03    -58.2797E-03     114.679E-03    -56.3990E-03     94.7008E-03    -58.6532E-03     114.657E-03    -56.2861E-03     93.8773E-03
             665     11.0601E-03     82.5759E-03    -26.5722E+06    -63.7575E+06    -12.4318E+06     670.904E+03    -58.5139E-03     114.861E-03    -56.3472E-03     102.068E-03    -59.0780E-03     115.141E-03    -56.2784E-03     101.076E-03
             666     11.9103E-03     82.6818E-03    -25.1365E+06    -18.5225E+06    -12.9639E+06     1.27605E+06    -58.9158E-03     115.186E-03    -56.2698E-03     114.696E-03    -59.7989E-03     115.951E-03    -56.2713E-03     113.491E-03
             667     12.7622E-03     82.8057E-03    -23.2461E+06     36.8225E+06    -8.81885E+06     1.92839E+06    -59.6508E-03     115.839E-03    -56.1886E-03     138.441E-03    -61.1524E-03     117.415E-03    -56.2523E-03     136.925E-03
             668     13.6129E-03     82.9598E-03    -20.7415E+06     81.4702E+06     19.3646E+06     2.19259E+06    -62.5898E-03     118.817E-03    -56.2271E-03     187.051E-03    -65.5888E-03     121.975E-03    -56.2184E-03     185.017E-03
             669     14.4640E-03     83.1823E-03    -17.0367E+06     114.761E+06     69.1893E+06     2.52720E+06    -70.9201E-03     127.301E-03    -56.3811E-03     282.418E-03    -78.8469E-03     135.374E-03    -56.1768E-03     279.527E-03
             670     15.3158E-03     83.5349E-03    -12.0688E+06     150.707E+06     108.287E+06     2.08368E+06    -82.0326E-03     138.471E-03    -56.4387E-03     411.533E-03    -104.295E-03     160.912E-03    -56.0983E-03     409.562E-03
             671     16.1708E-03     84.0412E-03    -6.32359E+06     167.410E+06     118.367E+06     391.273E+03    -75.5122E-03     131.908E-03    -56.3960E-03     351.954E-03    -97.2450E-03     153.870E-03    -56.0377E-03     356.378E-03
             672     850.550E-06     82.9517E-03    -56.2688E+06    -179.262E+06    -55.5690E+06     571.009E+03    -56.7363E-03     113.222E-03    -56.4856E-03     10.1402E-03    -56.6785E-03     112.489E-03    -56.4219E-03     10.1132E-03
             673     1.70084E-03     82.9632E-03    -55.1845E+06    -177.333E+06    -52.7538E+06     499.050E+03    -56.4026E-03     112.956E-03    -56.5531E-03     17.3839E-03    -56.3496E-03     112.230E-03    -56.4797E-03     17.3224E-03
             674     2.55199E-03     82.9861E-03    -52.9390E+06    -173.086E+06    -46.2657E+06     1.23562E+06    -56.4345E-03     112.924E-03    -56.4890E-03     25.8938E-03    -56.3914E-03     112.212E-03    -56.3926E-03     25.8073E-03
             675     3.40281E-03     83.0166E-03    -50.7083E+06    -168.597E+06    -38.9150E+06     617.876E+03    -56.7046E-03     113.188E-03    -56.4830E-03     33.8581E-03    -56.6762E-03     112.494E-03    -56.3596E-03     33.7215E-03
             676     4.25375E-03     83.0530E-03    -47.1491E+06    -163.959E+06    -32.0589E+06     422.041E+03    -56.9125E-03     113.421E-03    -56.5087E-03     41.7944E-03    -56.8954E-03     112.748E-03    -56.3629E-03     41.6082E-03
             677     5.10363E-03     83.1014E-03    -43.8074E+06    -159.305E+06    -25.0834E+06     420.051E+03    -57.0000E-03     113.532E-03    -56.5317E-03     49.7198E-03    -57.0002E-03     112.884E-03    -56.3626E-03     49.4800E-03
             678     5.95515E-03     83.1534E-03    -40.4790E+06    -155.811E+06    -20.1794E+06    -368.377E+03    -57.0536E-03     113.582E-03    -56.5283E-03     57.3841E-03    -57.0728E-03     112.963E-03    -56.3445E-03     57.0713E-03
             679     6.80550E-03     83.2165E-03    -36.9692E+06    -148.742E+06    -17.8168E+06    -693.654E+03    -57.4177E-03     113.926E-03    -56.5084E-03     65.1105E-03    -57.4649E-03     113.366E-03    -56.3282E-03     64.7192E-03
             680     7.65654E-03     83.2849E-03    -34.2446E+06    -140.786E+06    -16.2110E+06    -1.03295E+06    -57.7411E-03     114.242E-03    -56.5013E-03     72.1636E-03    -57.8313E-03     113.758E-03    -56.3286E-03     71.6792E-03
             681     8.50638E-03     83.3616E-03    -31.6640E+06    -131.277E+06    -13.9242E+06    -1.11592E+06    -57.7876E-03     114.279E-03    -56.4915E-03     79.4610E-03    -57.9392E-03     113.893E-03    -56.3248E-03     78.8754E-03
             682     9.35882E-03     83.4454E-03    -29.4095E+06    -115.494E+06    -13.0065E+06    -740.285E+03    -57.9822E-03     114.436E-03    -56.4536E-03     87.5422E-03    -58.2247E-03     114.202E-03    -56.3085E-03     86.8448E-03
             683     10.2086E-03     83.5383E-03    -27.4172E+06    -94.9680E+06    -13.5290E+06    -264.139E+03    -58.3335E-03     114.739E-03    -56.4057E-03     94.7876E-03    -58.7020E-03     114.712E-03    -56.2958E-03     93.9538E-03
             684     11.0593E-03     83.6353E-03    -25.8893E+06    -64.3516E+06    -12.8725E+06     565.647E+03    -58.4503E-03     114.803E-03    -56.3528E-03     102.225E-03    -59.0091E-03     115.079E-03    -56.2863E-03     101.234E-03
             685     11.9108E-03     83.7441E-03    -24.9413E+06    -19.0322E+06    -13.3921E+06     1.12576E+06    -58.6769E-03     114.941E-03    -56.2645E-03     114.547E-03    -59.5534E-03     115.701E-03    -56.2677E-03     113.349E-03
             686     12.7609E-03     83.8651E-03    -24.4802E+06     36.1169E+06    -10.2022E+06     1.18777E+06    -59.7758E-03     115.953E-03    -56.1773E-03     138.382E-03    -61.2841E-03     117.532E-03    -56.2452E-03     136.852E-03
             687     13.6128E-03     84.0213E-03    -22.7658E+06     80.9269E+06     18.0097E+06     1.35376E+06    -62.5683E-03     118.792E-03    -56.2236E-03     186.446E-03    -65.5695E-03     121.947E-03    -56.2178E-03     184.407E-03
             688     14.4646E-03     84.2420E-03    -18.8311E+06     113.676E+06     67.3633E+06     1.98611E+06    -71.1547E-03     127.540E-03    -56.3857E-03     281.794E-03    -79.0756E-03     135.603E-03    -56.1864E-03     278.873E-03
             689     15.3159E-03     84.5966E-03    -12.0790E+06     151.989E+06     108.260E+06     2.32981E+06    -83.8365E-03     140.355E-03    -56.5180E-03     408.449E-03    -105.873E-03     162.574E-03    -56.1796E-03     406.167E-03
             690     16.1632E-03     85.0975E-03    -5.57477E+06     169.836E+06     119.767E+06     1.37309E+06    -74.6414E-03     131.164E-03    -56.5225E-03     354.367E-03    -96.5108E-03     153.269E-03    -56.1618E-03     358.957E-03
             691     850.450E-06     84.0115E-03    -57.7462E+06    -180.203E+06    -56.3341E+06     624.386E+03    -56.5662E-03     113.013E-03    -56.4472E-03     9.92530E-03    -56.5135E-03     112.279E-03    -56.3838E-03     9.89821E-03
             692     1.70148E-03     84.0250E-03    -55.7449E+06    -177.096E+06    -51.8834E+06     387.133E+03    -56.5265E-03     113.029E-03    -56.5023E-03     17.4912E-03    -56.4779E-03     112.304E-03    -56.4241E-03     17.4278E-03
             693     2.55163E-03     84.0463E-03    -53.6351E+06    -173.586E+06    -46.6810E+06     633.842E+03    -56.5382E-03     113.034E-03    -56.4955E-03     25.8503E-03    -56.4972E-03     112.321E-03    -56.3995E-03     25.7560E-03
             694     3.40321E-03     84.0767E-03    -50.1923E+06    -168.259E+06    -39.0167E+06     317.488E+03    -56.7101E-03     113.213E-03    -56.5028E-03     33.7398E-03    -56.6795E-03     112.520E-03    -56.3811E-03     33.5992E-03
             695     4.25273E-03     84.1156E-03    -46.9108E+06    -163.652E+06    -32.0695E+06    -227.989E+03    -56.9090E-03     113.435E-03    -56.5257E-03     41.5985E-03    -56.8912E-03     112.762E-03    -56.3807E-03     41.4027E-03
             696     5.10434E-03     84.1606E-03    -43.3602E+06    -158.987E+06    -26.0031E+06    -348.394E+03    -56.8829E-03     113.415E-03    -56.5317E-03     49.6542E-03    -56.8800E-03     112.769E-03    -56.3684E-03     49.4048E-03
             697     5.95465E-03     84.2154E-03    -39.7918E+06    -154.607E+06    -20.1981E+06    -1.11855E+06    -57.1890E-03     113.719E-03    -56.5300E-03     57.4083E-03    -57.2067E-03     113.105E-03    -56.3491E-03     57.0844E-03
             698     6.80578E-03     84.2763E-03    -36.6004E+06    -148.081E+06    -18.4162E+06    -1.60021E+06    -57.4091E-03     113.926E-03    -56.5164E-03     65.0735E-03    -57.4545E-03     113.369E-03    -56.3407E-03     64.6705E-03
             699     7.65611E-03     84.3470E-03    -33.4736E+06    -140.425E+06    -16.9028E+06    -1.83098E+06    -57.5980E-03     114.096E-03    -56.4984E-03     72.4817E-03    -57.6836E-03     113.614E-03    -56.3307E-03     71.9896E-03
             700     8.50740E-03     84.4219E-03    -31.0028E+06    -130.706E+06    -14.6263E+06    -1.82805E+06    -58.0223E-03     114.512E-03    -56.4899E-03     79.8192E-03    -58.1716E-03     114.130E-03    -56.3286E-03     79.2214E-03
             701     9.35683E-03     84.5064E-03    -28.8844E+06    -115.736E+06    -13.9697E+06    -1.53262E+06    -58.0545E-03     114.520E-03    -56.4656E-03     87.3416E-03    -58.2930E-03     114.286E-03    -56.3257E-03     86.6320E-03
             702     10.2092E-03     84.5982E-03    -27.1481E+06    -96.2139E+06    -14.7465E+06    -874.224E+03    -58.0319E-03     114.439E-03    -56.4076E-03     94.9353E-03    -58.3941E-03     114.406E-03    -56.3024E-03     94.1000E-03
             703     11.0596E-03     84.6980E-03    -25.6722E+06    -65.7434E+06    -14.1727E+06     81.1420E+03    -58.3533E-03     114.690E-03    -56.3368E-03     102.661E-03    -58.9076E-03     114.961E-03    -56.2751E-03     101.666E-03
             704     11.9104E-03     84.8026E-03    -24.4044E+06    -20.0733E+06    -14.1192E+06     1.18266E+06    -58.7738E-03     115.023E-03    -56.2493E-03     114.751E-03    -59.6474E-03     115.780E-03    -56.2554E-03     113.550E-03
             705     12.7628E-03     84.9280E-03    -24.2117E+06     36.5311E+06    -10.5910E+06     2.02428E+06    -59.8757E-03     116.044E-03    -56.1681E-03     138.687E-03    -61.3846E-03     117.627E-03    -56.2389E-03     137.166E-03
             706     13.6122E-03     85.0814E-03    -23.7127E+06     80.8716E+06     16.6551E+06     1.75747E+06    -62.8632E-03     119.088E-03    -56.2249E-03     186.135E-03    -65.8619E-03     122.241E-03    -56.2245E-03     184.090E-03
             707     14.4637E-03     85.3021E-03    -19.5509E+06     113.440E+06     66.4114E+06     1.17319E+06    -71.7343E-03     128.145E-03    -56.4107E-03     282.481E-03    -79.6759E-03     136.227E-03    -56.2148E-03     279.504E-03
             708     15.3130E-03     85.6591E-03    -13.4885E+06     151.042E+06     106.612E+06     938.643E+03    -84.2377E-03     140.789E-03    -56.5514E-03     410.950E-03    -106.451E-03     163.182E-03    -56.2178E-03     408.593E-03
             709     16.1645E-03     86.1612E-03    -5.72999E+06     169.955E+06     118.717E+06     1.14728E+06    -73.9977E-03     130.531E-03    -56.5336E-03     354.143E-03    -95.9273E-03     152.700E-03    -56.1782E-03     358.770E-03
             710     850.806E-06     85.0720E-03    -57.9250E+06    -180.232E+06    -57.0681E+06     185.711E+03    -56.4870E-03     112.826E-03    -56.3394E-03     9.57761E-03    -56.4340E-03     112.093E-03    -56.2794E-03     9.54327E-03
             711     1.70134E-03     85.0858E-03    -56.3387E+06    -177.313E+06    -52.2509E+06     16.9312E+03    -56.6086E-03     113.054E-03    -56.4453E-03     17.5135E-03    -56.5620E-03     112.329E-03    -56.3678E-03     17.4465E-03
             712     2.55225E-03     85.1074E-03    -53.2513E+06    -172.870E+06    -45.8742E+06    -220.993E+03    -56.8145E-03     113.335E-03    -56.5200E-03     25.5948E-03    -56.7740E-03     112.624E-03    -56.4215E-03     25.4873E-03
             713     3.40171E-03     85.1377E-03    -50.3688E+06    -168.330E+06    -39.3560E+06    -440.822E+03    -56.6870E-03     113.244E-03    -56.5565E-03     33.8638E-03    -56.6567E-03     112.551E-03    -56.4362E-03     33.7137E-03
             714     4.25372E-03     85.1762E-03    -46.6733E+06    -163.416E+06    -32.5341E+06    -715.151E+03    -56.6585E-03     113.199E-03    -56.5406E-03     41.6884E-03    -56.6391E-03     112.528E-03    -56.3986E-03     41.4877E-03
             715     5.10375E-03     85.2215E-03    -42.9348E+06    -157.796E+06    -25.7187E+06    -1.39855E+06    -56.9793E-03     113.509E-03    -56.5298E-03     49.6374E-03    -56.9765E-03     112.868E-03    -56.3673E-03     49.3733E-03
             716     5.95509E-03     85.2760E-03    -39.6609E+06    -153.012E+06    -21.0764E+06    -1.95928E+06    -57.2561E-03     113.790E-03    -56.5338E-03     57.6072E-03    -57.2742E-03     113.185E-03    -56.3598E-03     57.2731E-03
             717     6.80493E-03     85.3380E-03    -36.7154E+06    -147.390E+06    -19.8771E+06    -2.66906E+06    -57.3056E-03     113.822E-03    -56.5160E-03     64.9260E-03    -57.3504E-03     113.270E-03    -56.3484E-03     64.5092E-03
             718     7.65678E-03     85.4062E-03    -33.9503E+06    -140.390E+06    -18.6178E+06    -2.83479E+06    -57.4339E-03     113.916E-03    -56.4825E-03     72.6198E-03    -57.5188E-03     113.436E-03    -56.3228E-03     72.1175E-03
             719     8.50717E-03     85.4841E-03    -31.3853E+06    -130.918E+06    -16.2761E+06    -2.63867E+06    -57.9218E-03     114.382E-03    -56.4607E-03     80.2564E-03    -58.0695E-03     114.001E-03    -56.3067E-03     79.6522E-03
             720     9.35819E-03     85.5675E-03    -29.5212E+06    -116.047E+06    -15.5926E+06    -2.39562E+06    -58.2553E-03     114.697E-03    -56.4414E-03     87.6261E-03    -58.4963E-03     114.466E-03    -56.3083E-03     86.9012E-03
             721     10.2079E-03     85.6583E-03    -27.2634E+06    -96.3029E+06    -15.4808E+06    -1.76461E+06    -58.1390E-03     114.540E-03    -56.4009E-03     94.9250E-03    -58.5017E-03     114.509E-03    -56.2991E-03     94.0750E-03
             722     11.0607E-03     85.7577E-03    -25.5665E+06    -67.4524E+06    -15.4748E+06    -841.562E+03    -58.1913E-03     114.520E-03    -56.3283E-03     102.359E-03    -58.7371E-03     114.780E-03    -56.2708E-03     101.358E-03
             723     11.9113E-03     85.8652E-03    -24.6831E+06    -22.2728E+06    -15.6426E+06     714.944E+03    -58.9355E-03     115.177E-03    -56.2416E-03     114.512E-03    -59.8045E-03     115.925E-03    -56.2517E-03     113.302E-03
             724     12.7607E-03     85.9870E-03    -23.1592E+06     35.5447E+06    -12.0855E+06     2.63464E+06    -59.8952E-03     116.059E-03    -56.1643E-03     138.213E-03    -61.3854E-03     117.629E-03    -56.2427E-03     136.703E-03
             725     13.6135E-03     86.1439E-03    -21.2400E+06     82.2143E+06     16.1079E+06     2.60289E+06    -62.7725E-03     118.989E-03    -56.2166E-03     186.434E-03    -65.7553E-03     122.142E-03    -56.2245E-03     184.402E-03
             726     14.4630E-03     86.3633E-03    -18.4727E+06     114.703E+06     66.7473E+06     1.59611E+06    -71.4545E-03     127.844E-03    -56.3895E-03     284.162E-03    -79.4298E-03     135.967E-03    -56.1953E-03     281.218E-03
             727     15.3157E-03     86.7215E-03    -13.1065E+06     151.619E+06     106.941E+06     1.32516E+06    -83.1411E-03     139.617E-03    -56.4759E-03     413.737E-03    -105.515E-03     162.173E-03    -56.1420E-03     411.568E-03
             728     16.1679E-03     87.2233E-03    -6.21001E+06     170.680E+06     118.792E+06     950.712E+03    -74.7043E-03     131.140E-03    -56.4354E-03     352.887E-03    -96.5836E-03     153.258E-03    -56.0799E-03     357.423E-03
             729     850.747E-06     86.1331E-03    -57.3758E+06    -179.610E+06    -56.9247E+06    -590.452E+03    -56.7833E-03     113.044E-03    -56.2612E-03     9.56917E-03    -56.7286E-03     112.314E-03    -56.2022E-03     9.52430E-03
             730     1.70136E-03     86.1465E-03    -55.5550E+06    -176.276E+06    -52.3805E+06    -408.599E+03    -56.6460E-03     113.183E-03    -56.5365E-03     17.3785E-03    -56.5968E-03     112.462E-03    -56.4623E-03     17.3055E-03
             731     2.55135E-03     86.1690E-03    -53.8101E+06    -173.079E+06    -47.0482E+06    -629.289E+03    -56.6768E-03     113.240E-03    -56.5637E-03     25.7183E-03    -56.6370E-03     112.532E-03    -56.4700E-03     25.6061E-03
             732     3.40279E-03     86.1987E-03    -50.7791E+06    -167.108E+06    -40.7510E+06    -1.26039E+06    -56.6034E-03     113.159E-03    -56.5551E-03     33.6712E-03    -56.5749E-03     112.475E-03    -56.4429E-03     33.5099E-03
             733     4.25291E-03     86.2362E-03    -47.3308E+06    -162.567E+06    -34.0382E+06    -1.99942E+06    -56.6998E-03     113.233E-03    -56.5330E-03     41.8174E-03    -56.6829E-03     112.569E-03    -56.3988E-03     41.6001E-03
             734     5.10442E-03     86.2831E-03    -43.7038E+06    -156.708E+06    -27.9876E+06    -2.33480E+06    -57.0113E-03     113.536E-03    -56.5243E-03     49.7531E-03    -57.0107E-03     112.905E-03    -56.3737E-03     49.4770E-03
             735     5.95420E-03     86.3366E-03    -40.0051E+06    -151.144E+06    -22.7775E+06    -3.02443E+06    -57.0941E-03     113.614E-03    -56.5203E-03     57.6411E-03    -57.1138E-03     113.022E-03    -56.3570E-03     57.2950E-03
             736     6.80613E-03     86.3988E-03    -36.5943E+06    -146.690E+06    -20.4059E+06    -3.82991E+06    -57.2773E-03     113.774E-03    -56.4969E-03     65.0844E-03    -57.3216E-03     113.227E-03    -56.3331E-03     64.6537E-03
             737     7.65603E-03     86.4668E-03    -34.1617E+06    -139.596E+06    -19.1931E+06    -3.81480E+06    -57.6333E-03     114.107E-03    -56.4739E-03     72.6166E-03    -57.7203E-03     113.633E-03    -56.3179E-03     72.0987E-03
             738     8.50755E-03     86.5446E-03    -31.8876E+06    -131.268E+06    -17.5562E+06    -3.78926E+06    -57.6711E-03     114.122E-03    -56.4505E-03     79.9223E-03    -57.8177E-03     113.740E-03    -56.3017E-03     79.3066E-03
             739     9.35843E-03     86.6282E-03    -29.3257E+06    -116.330E+06    -16.6319E+06    -3.66714E+06    -58.0420E-03     114.454E-03    -56.4115E-03     87.4340E-03    -58.2780E-03     114.221E-03    -56.2835E-03     86.6975E-03
             740     10.2096E-03     86.7203E-03    -27.5345E+06    -96.7608E+06    -16.8668E+06    -2.97531E+06    -58.5299E-03     114.909E-03    -56.3795E-03     94.6360E-03    -58.8931E-03     114.880E-03    -56.2836E-03     93.7622E-03
             741     11.0585E-03     86.8174E-03    -25.9739E+06    -68.8999E+06    -16.8034E+06    -1.74211E+06    -58.4525E-03     114.788E-03    -56.3360E-03     102.358E-03    -58.9997E-03     115.048E-03    -56.2825E-03     101.337E-03
             742     11.9107E-03     86.9256E-03    -24.5810E+06    -25.1008E+06    -17.3028E+06     176.821E+03    -58.7019E-03     114.950E-03    -56.2481E-03     115.101E-03    -59.5609E-03     115.683E-03    -56.2626E-03     113.892E-03
             743     12.7620E-03     87.0499E-03    -23.0267E+06     33.7794E+06    -14.2005E+06     1.62545E+06    -59.6780E-03     115.827E-03    -56.1487E-03     138.574E-03    -61.1649E-03     117.393E-03    -56.2353E-03     137.056E-03
             744     13.6119E-03     87.2020E-03    -21.2121E+06     81.9819E+06     13.6473E+06     2.78856E+06    -62.4717E-03     118.649E-03    -56.1776E-03     187.384E-03    -65.4613E-03     121.815E-03    -56.1975E-03     185.365E-03
             745     14.4653E-03     87.4264E-03    -18.1322E+06     115.923E+06     65.6998E+06     2.75351E+06    -70.8528E-03     127.182E-03    -56.3297E-03     283.929E-03    -78.7987E-03     135.285E-03    -56.1430E-03     281.044E-03
             746     15.3172E-03     87.7792E-03    -12.6390E+06     152.949E+06     107.553E+06     1.48450E+06    -82.3888E-03     138.790E-03    -56.4017E-03     411.689E-03    -104.616E-03     161.203E-03    -56.0673E-03     409.629E-03
             747     16.1706E-03     88.2862E-03    -6.78830E+06     171.326E+06     118.995E+06     831.249E+03    -75.4086E-03     131.784E-03    -56.3756E-03     352.805E-03    -97.2196E-03     153.834E-03    -56.0192E-03     357.285E-03
             748     850.218E-06     87.1949E-03    -56.5072E+06    -177.696E+06    -55.1525E+06    -701.333E+03    -56.7641E-03     113.418E-03    -56.6536E-03     9.52594E-03    -56.7104E-03     112.693E-03    -56.5898E-03     9.47996E-03
             749     1.70064E-03     87.2073E-03    -55.6819E+06    -176.063E+06    -53.0464E+06    -722.791E+03    -56.5761E-03     113.243E-03    -56.6670E-03     17.3842E-03    -56.5269E-03     112.525E-03    -56.5962E-03     17.3061E-03
             750     2.55201E-03     87.2302E-03    -53.1442E+06    -171.841E+06    -47.2189E+06    -1.00110E+06    -56.4143E-03     113.008E-03    -56.5938E-03     25.5603E-03    -56.3726E-03     112.305E-03    -56.5036E-03     25.4438E-03
             751     3.40224E-03     87.2590E-03    -50.2674E+06    -165.507E+06    -40.5477E+06    -1.94425E+06    -56.5501E-03     113.084E-03    -56.5334E-03     33.6248E-03    -56.5217E-03     112.407E-03    -56.4233E-03     33.4545E-03
             752     4.25355E-03     87.2976E-03    -47.6481E+06    -160.759E+06    -34.7754E+06    -2.86913E+06    -56.8495E-03     113.369E-03    -56.5190E-03     41.9853E-03    -56.8357E-03     112.716E-03    -56.3907E-03     41.7568E-03
             753     5.10350E-03     87.3433E-03    -44.2107E+06    -155.466E+06    -29.9861E+06    -3.87189E+06    -56.9061E-03     113.418E-03    -56.5122E-03     49.8574E-03    -56.9069E-03     112.797E-03    -56.3725E-03     49.5623E-03
             754     5.95532E-03     87.3980E-03    -40.6399E+06    -150.132E+06    -25.3554E+06    -4.46811E+06    -56.9931E-03     113.484E-03    -56.4914E-03     57.4734E-03    -57.0135E-03     112.901E-03    -56.3416E-03     57.1090E-03
             755     6.80551E-03     87.4584E-03    -37.6274E+06    -145.292E+06    -21.6304E+06    -5.04902E+06    -57.3666E-03     113.842E-03    -56.4758E-03     65.1561E-03    -57.4164E-03     113.306E-03    -56.3187E-03     64.7092E-03
             756     7.65688E-03     87.5292E-03    -34.7334E+06    -138.838E+06    -19.7572E+06    -4.89938E+06    -57.6663E-03     114.132E-03    -56.4654E-03     72.6020E-03    -57.7566E-03     113.663E-03    -56.3126E-03     72.0694E-03
             757     8.50657E-03     87.6044E-03    -32.1664E+06    -130.203E+06    -18.5071E+06    -5.16270E+06    -57.8145E-03     114.263E-03    -56.4489E-03     79.9026E-03    -57.9639E-03     113.890E-03    -56.3060E-03     79.2653E-03
             758     9.35821E-03     87.6888E-03    -29.7464E+06    -116.380E+06    -18.1068E+06    -5.12946E+06    -57.9789E-03     114.392E-03    -56.4128E-03     87.5428E-03    -58.2143E-03     114.161E-03    -56.2914E-03     86.7892E-03
             759     10.2086E-03     87.7814E-03    -27.7813E+06    -98.2263E+06    -18.4592E+06    -4.24273E+06    -58.2258E-03     114.592E-03    -56.3660E-03     94.6405E-03    -58.5841E-03     114.556E-03    -56.2756E-03     93.7564E-03
             760     11.0607E-03     87.8790E-03    -26.1680E+06    -70.6445E+06    -18.3161E+06    -2.90874E+06    -58.6249E-03     114.942E-03    -56.3172E-03     102.671E-03    -59.1720E-03     115.199E-03    -56.2684E-03     101.628E-03
             761     11.9102E-03     87.9861E-03    -24.2249E+06    -27.6982E+06    -18.5061E+06    -798.863E+03    -58.5702E-03     114.803E-03    -56.2332E-03     115.184E-03    -59.4228E-03     115.525E-03    -56.2504E-03     113.966E-03
             762     12.7622E-03     88.1094E-03    -23.3446E+06     31.6705E+06    -16.3640E+06     1.09179E+06    -59.3378E-03     115.451E-03    -56.1134E-03     138.848E-03    -60.8210E-03     117.011E-03    -56.2073E-03     137.331E-03
             763     13.6146E-03     88.2645E-03    -22.4126E+06     80.8548E+06     10.0213E+06     2.36996E+06    -62.5537E-03     118.684E-03    -56.1301E-03     186.628E-03    -65.5356E-03     121.844E-03    -56.1648E-03     184.601E-03
             764     14.4649E-03     88.4845E-03    -18.3873E+06     116.200E+06     63.6532E+06     2.85021E+06    -71.0184E-03     127.321E-03    -56.3023E-03     282.847E-03    -78.9587E-03     135.424E-03    -56.1258E-03     279.944E-03
             765     15.3160E-03     88.8418E-03    -12.5445E+06     153.895E+06     107.335E+06     2.13556E+06    -83.0020E-03     139.421E-03    -56.4192E-03     409.512E-03    -105.088E-03     161.697E-03    -56.0875E-03     407.355E-03
             766     16.1679E-03     89.3398E-03    -6.39135E+06     172.572E+06     119.640E+06     1.05013E+06    -75.1578E-03     131.580E-03    -56.4224E-03     353.394E-03    -96.9960E-03     153.662E-03    -56.0652E-03     357.922E-03
             767     850.457E-06     88.2555E-03    -57.5191E+06    -177.614E+06    -56.4259E+06     -409.82E+03    -56.6618E-03     113.372E-03    -56.7099E-03     9.92176E-03    -56.6113E-03     112.651E-03    -56.6511E-03     9.88072E-03
             768     1.70105E-03     88.2692E-03    -56.0296E+06    -173.786E+06    -52.7981E+06    -1.01094E+06    -56.6004E-03     113.256E-03    -56.6553E-03     17.3724E-03    -56.5567E-03     112.549E-03    -56.5860E-03     17.2905E-03
             769     2.55119E-03     88.2903E-03    -53.5371E+06    -170.419E+06    -48.2885E+06    -2.44954E+06    -56.3772E-03     112.960E-03    -56.5826E-03     25.3441E-03    -56.3381E-03     112.266E-03    -56.4993E-03     25.2073E-03
             770     3.40303E-03     88.3199E-03    -50.4128E+06    -164.265E+06    -41.1831E+06    -2.62242E+06    -56.5561E-03     113.077E-03    -56.5209E-03     33.8502E-03    -56.5292E-03     112.407E-03    -56.4156E-03     33.6722E-03
             771     4.25305E-03     88.3585E-03    -46.7326E+06    -157.872E+06    -33.9981E+06    -3.71662E+06    -56.7682E-03     113.273E-03    -56.5046E-03     41.9230E-03    -56.7550E-03     112.632E-03    -56.3779E-03     41.6839E-03
             772     5.10442E-03     88.4043E-03    -43.7496E+06    -153.773E+06    -29.0683E+06    -4.92298E+06    -56.8588E-03     113.351E-03    -56.4923E-03     49.8079E-03    -56.8610E-03     112.736E-03    -56.3512E-03     49.4994E-03
             773     5.95465E-03     88.4579E-03    -41.0295E+06    -148.114E+06    -26.6312E+06    -5.72606E+06    -57.1480E-03     113.619E-03    -56.4715E-03     57.5186E-03    -57.1717E-03     113.049E-03    -56.3303E-03     57.1366E-03
             774     6.80593E-03     88.5201E-03    -38.1926E+06    -143.867E+06    -23.2095E+06    -5.98779E+06    -57.3942E-03     113.863E-03    -56.4691E-03     65.1961E-03    -57.4468E-03     113.337E-03    -56.3212E-03     64.7366E-03
             775     7.65599E-03     88.5893E-03    -35.3991E+06    -138.750E+06    -20.8395E+06    -6.67722E+06    -57.5256E-03     113.983E-03    -56.4578E-03     72.4895E-03    -57.6174E-03     113.517E-03    -56.3095E-03     71.9353E-03
             776     8.50826E-03     88.6655E-03    -32.3203E+06    -128.537E+06    -19.4439E+06    -6.88951E+06    -57.9038E-03     114.340E-03    -56.4362E-03     80.0448E-03    -58.0555E-03     113.977E-03    -56.3002E-03     79.3839E-03
             777     9.35747E-03     88.7504E-03    -29.7961E+06    -116.047E+06    -18.8072E+06    -6.77103E+06    -57.9685E-03     114.376E-03    -56.4074E-03     87.5456E-03    -58.2040E-03     114.148E-03    -56.2899E-03     86.7702E-03
             778     10.2095E-03     88.8406E-03    -27.3038E+06    -99.7608E+06    -19.8627E+06    -5.99687E+06    -58.0292E-03     114.379E-03    -56.3495E-03     95.1674E-03    -58.3808E-03     114.337E-03    -56.2646E-03     94.2649E-03
             779     11.0596E-03     88.9407E-03    -25.2578E+06    -72.6851E+06    -19.5644E+06    -3.99369E+06    -58.2500E-03     114.529E-03    -56.2787E-03     102.821E-03    -58.7843E-03     114.772E-03    -56.2345E-03     101.776E-03
             780     11.9112E-03     89.0469E-03    -24.1342E+06    -30.9668E+06    -20.4492E+06    -1.30952E+06    -58.5704E-03     114.752E-03    -56.1819E-03     115.100E-03    -59.4166E-03     115.462E-03    -56.2042E-03     113.874E-03
             781     12.7626E-03     89.1686E-03    -23.7867E+06     29.2673E+06    -19.2679E+06     1.25004E+06    -59.7954E-03     115.869E-03    -56.0732E-03     139.338E-03    -61.2766E-03     117.425E-03    -56.1775E-03     137.812E-03
             782     13.6128E-03     89.3259E-03    -22.4657E+06     80.6454E+06     8.99299E+06     2.13450E+06    -62.7816E-03     118.901E-03    -56.1190E-03     186.340E-03    -65.7618E-03     122.061E-03    -56.1583E-03     184.303E-03
             783     14.4644E-03     89.5448E-03    -18.9605E+06     115.972E+06     62.9724E+06     1.99291E+06    -71.3647E-03     127.678E-03    -56.3130E-03     282.488E-03    -79.3119E-03     135.787E-03    -56.1388E-03     279.547E-03
             784     15.3169E-03     89.9021E-03    -13.2925E+06     154.476E+06     106.428E+06     1.83202E+06    -84.0545E-03     140.518E-03    -56.4630E-03     410.166E-03    -106.220E-03     162.875E-03    -56.1356E-03     407.808E-03
             785     16.1645E-03     90.4041E-03    -6.34270E+06     174.250E+06     120.001E+06     1.04799E+06    -74.5208E-03     130.996E-03    -56.4748E-03     353.241E-03    -96.3910E-03     153.114E-03    -56.1182E-03     357.761E-03
             786     850.889E-06     89.3157E-03    -57.9600E+06    -176.896E+06    -56.1731E+06    -140.418E+03    -56.7613E-03     113.095E-03    -56.3336E-03     9.90957E-03    -56.7141E-03     112.378E-03    -56.2739E-03     9.87345E-03
             787     1.70077E-03     89.3317E-03    -55.1042E+06    -171.776E+06    -52.4250E+06    -1.83577E+06    -56.5100E-03     113.035E-03    -56.5255E-03     17.2034E-03    -56.4651E-03     112.337E-03    -56.4587E-03     17.1103E-03
             788     2.55232E-03     89.3495E-03    -53.5093E+06    -167.716E+06    -48.0344E+06    -3.05464E+06    -56.6486E-03     113.166E-03    -56.5178E-03     25.4186E-03    -56.6138E-03     112.486E-03    -56.4372E-03     25.2729E-03
             789     3.40207E-03     89.3820E-03    -50.9596E+06    -161.598E+06    -43.4802E+06    -4.25640E+06    -56.6209E-03     113.130E-03    -56.5090E-03     33.7536E-03    -56.5973E-03     112.478E-03    -56.4182E-03     33.5536E-03
             790     4.25354E-03     89.4182E-03    -47.8740E+06    -155.999E+06    -36.4286E+06    -4.79113E+06    -56.5943E-03     113.081E-03    -56.4862E-03     41.8505E-03    -56.5860E-03     112.454E-03    -56.3728E-03     41.5978E-03
             791     5.10411E-03     89.4656E-03    -44.8243E+06    -151.274E+06    -30.2687E+06    -5.94534E+06    -56.9231E-03     113.393E-03    -56.4702E-03     49.7312E-03    -56.9326E-03     112.794E-03    -56.3372E-03     49.4089E-03
             792     5.95529E-03     89.5184E-03    -41.4450E+06    -145.215E+06    -26.3249E+06    -6.84084E+06    -57.2126E-03     113.680E-03    -56.4679E-03     57.5606E-03    -57.2433E-03     113.125E-03    -56.3288E-03     57.1632E-03
             793     6.80525E-03     89.5815E-03    -38.0494E+06    -142.817E+06    -22.9277E+06    -7.50894E+06    -57.3487E-03     113.819E-03    -56.4698E-03     65.1431E-03    -57.4023E-03     113.297E-03    -56.3222E-03     64.6643E-03
             794     7.65713E-03     89.6491E-03    -34.9863E+06    -136.833E+06    -20.9702E+06    -8.27829E+06    -57.5544E-03     114.008E-03    -56.4537E-03     72.5271E-03    -57.6470E-03     113.552E-03    -56.3094E-03     71.9515E-03
             795     8.50631E-03     89.7273E-03    -32.1831E+06    -127.735E+06    -20.3083E+06    -8.91918E+06    -57.6183E-03     114.036E-03    -56.4180E-03     80.2112E-03    -57.7679E-03     113.677E-03    -56.2877E-03     79.5295E-03
             796     9.35879E-03     89.8101E-03    -29.2071E+06    -116.154E+06    -20.0191E+06    -8.74043E+06    -57.8134E-03     114.181E-03    -56.3680E-03     87.6944E-03    -58.0435E-03     113.954E-03    -56.2573E-03     86.8967E-03
             797     10.2091E-03     89.9016E-03    -27.1252E+06    -100.410E+06    -20.9188E+06    -7.52684E+06    -58.0652E-03     114.374E-03    -56.3085E-03     95.4832E-03    -58.4139E-03     114.330E-03    -56.2281E-03     94.5616E-03
             798     11.0607E-03     90.0014E-03    -25.3458E+06    -75.3305E+06    -21.2415E+06    -5.54463E+06    -58.0830E-03     114.318E-03    -56.2349E-03     102.829E-03    -58.6088E-03     114.548E-03    -56.1951E-03     101.770E-03
             799     11.9128E-03     90.1057E-03    -23.7531E+06    -34.8721E+06    -21.8390E+06    -2.44866E+06    -58.8150E-03     114.961E-03    -56.1459E-03     114.773E-03    -59.6522E-03     115.653E-03    -56.1701E-03     113.525E-03
             800     12.7629E-03     90.2322E-03    -22.6575E+06     26.1734E+06    -20.6532E+06     847.109E+03    -59.9336E-03     115.985E-03    -56.0514E-03     138.835E-03    -61.3998E-03     117.524E-03    -56.1598E-03     137.301E-03
             801     13.6141E-03     90.3851E-03    -21.5648E+06     80.2145E+06     6.22813E+06     2.56689E+06    -62.8590E-03     118.952E-03    -56.0927E-03     186.967E-03    -65.8377E-03     122.121E-03    -56.1466E-03     184.930E-03
             802     14.4652E-03     90.6073E-03    -18.9158E+06     116.191E+06     61.3610E+06     2.61958E+06    -71.6151E-03     127.914E-03    -56.2984E-03     283.197E-03    -79.5719E-03     136.038E-03    -56.1327E-03     280.248E-03
             803     15.3140E-03     90.9621E-03    -13.7530E+06     155.887E+06     106.970E+06     1.59522E+06    -83.9078E-03     140.352E-03    -56.4442E-03     413.154E-03    -106.315E-03     162.953E-03    -56.1155E-03     410.810E-03
             804     16.1671E-03     91.4683E-03    -6.79929E+06     175.372E+06     120.016E+06     397.933E+03    -74.6256E-03     131.055E-03    -56.4296E-03     352.624E-03    -96.5100E-03     153.190E-03    -56.0740E-03     357.058E-03
             805     849.948E-06     90.3807E-03    -57.3806E+06    -173.319E+06    -57.7475E+06    -603.913E+03    -56.4888E-03     112.989E-03    -56.4999E-03     9.52727E-03    -56.4415E-03     112.291E-03    -56.4542E-03     9.48469E-03
             806     1.70215E-03     90.3885E-03    -56.6019E+06    -169.981E+06    -54.2772E+06    -3.22034E+06    -56.4305E-03     112.897E-03    -56.4664E-03     16.8274E-03    -56.3931E-03     112.213E-03    -56.4093E-03     16.7154E-03
             807     2.55165E-03     90.4143E-03    -53.6783E+06    -164.182E+06    -48.7753E+06    -3.45752E+06    -56.6547E-03     113.119E-03    -56.4643E-03     25.3889E-03    -56.6248E-03     112.457E-03    -56.3923E-03     25.2386E-03
             808     3.40256E-03     90.4403E-03    -51.7901E+06    -158.183E+06    -43.2700E+06    -5.12171E+06    -56.6449E-03     113.124E-03    -56.4788E-03     33.6618E-03    -56.6310E-03     112.490E-03    -56.3907E-03     33.4493E-03
             809     4.25335E-03     90.4804E-03    -49.1796E+06    -154.122E+06    -38.3113E+06    -6.24245E+06    -56.7249E-03     113.195E-03    -56.4705E-03     41.9191E-03    -56.7232E-03     112.583E-03    -56.3673E-03     41.6470E-03
             810     5.10431E-03     90.5250E-03    -45.3594E+06    -147.746E+06    -30.6292E+06    -7.04750E+06    -56.9731E-03     113.449E-03    -56.4764E-03     49.8145E-03    -56.9900E-03     112.870E-03    -56.3495E-03     49.4777E-03
             811     5.95447E-03     90.5807E-03    -41.7832E+06    -143.219E+06    -25.5952E+06    -8.73369E+06    -57.0993E-03     113.577E-03    -56.4772E-03     57.3968E-03    -57.1355E-03     113.030E-03    -56.3369E-03     56.9751E-03
             812     6.80621E-03     90.6407E-03    -38.2727E+06    -140.840E+06    -23.1248E+06    -9.39713E+06    -57.1692E-03     113.625E-03    -56.4561E-03     65.1733E-03    -57.2262E-03     113.114E-03    -56.3120E-03     64.6720E-03
             813     7.65581E-03     90.7115E-03    -35.0342E+06    -134.565E+06    -21.8574E+06    -9.92808E+06    -57.3501E-03     113.765E-03    -56.4146E-03     73.1202E-03    -57.4443E-03     113.320E-03    -56.2780E-03     72.5281E-03
             814     8.50836E-03     90.7865E-03    -32.4580E+06    -126.014E+06    -21.5741E+06    -10.6305E+06    -57.5523E-03     113.918E-03    -56.3661E-03     80.3978E-03    -57.7038E-03     113.570E-03    -56.2442E-03     79.6957E-03
             815     9.35896E-03     90.8708E-03    -30.1763E+06    -116.071E+06    -21.5294E+06    -10.5935E+06    -57.8713E-03     114.192E-03    -56.3212E-03     87.8296E-03    -58.1046E-03     113.969E-03    -56.2168E-03     87.0072E-03
             816     10.2099E-03     90.9630E-03    -28.0119E+06    -101.391E+06    -22.3958E+06    -9.49530E+06    -58.0336E-03     114.303E-03    -56.2693E-03     94.8321E-03    -58.3811E-03     114.256E-03    -56.1936E-03     93.8861E-03
             817     11.0616E-03     91.0597E-03    -26.0123E+06    -77.7131E+06    -22.8846E+06    -7.72538E+06    -58.4050E-03     114.617E-03    -56.2120E-03     102.496E-03    -58.9299E-03     114.840E-03    -56.1760E-03     101.401E-03
             818     11.9108E-03     91.1691E-03    -24.4811E+06    -39.5616E+06    -24.0925E+06    -4.66640E+06    -58.9434E-03     115.085E-03    -56.1413E-03     114.933E-03    -59.7750E-03     115.759E-03    -56.1689E-03     113.655E-03
             819     12.7621E-03     91.2905E-03    -23.1556E+06     21.6859E+06    -25.3811E+06    -487.481E+03    -59.6679E-03     115.697E-03    -56.0294E-03     138.644E-03    -61.1201E-03     117.218E-03    -56.1542E-03     137.100E-03
             820     13.6144E-03     91.4464E-03    -21.1826E+06     78.4020E+06     774.705E+03     2.35824E+06    -62.6919E-03     118.739E-03    -56.0469E-03     187.382E-03    -65.6568E-03     121.905E-03    -56.1259E-03     185.348E-03
             821     14.4644E-03     91.6689E-03    -17.8023E+06     116.616E+06     58.7705E+06     3.16321E+06    -71.1511E-03     127.392E-03    -56.2411E-03     283.841E-03    -79.1045E-03     135.526E-03    -56.0905E-03     280.934E-03
             822     15.3187E-03     92.0232E-03    -11.4586E+06     158.411E+06     107.895E+06     2.81136E+06    -82.8712E-03     139.225E-03    -56.3540E-03     413.940E-03    -105.279E-03     161.842E-03    -56.0276E-03     411.785E-03
             823     16.1705E-03     92.5311E-03    -5.87166E+06     177.371E+06     121.695E+06     1.41847E+06    -75.2456E-03     131.576E-03    -56.3304E-03     352.990E-03    -97.0924E-03     153.679E-03    -55.9706E-03     357.405E-03
             824     851.150E-06     91.4365E-03    -58.5081E+06    -169.228E+06    -58.5645E+06    -2.73738E+06    -56.4126E-03     113.010E-03    -56.5973E-03     8.77738E-03    -56.3761E-03     112.335E-03    -56.5599E-03     8.70299E-03
             825     1.70038E-03     91.4534E-03    -57.3757E+06    -165.872E+06    -54.8869E+06    -2.94025E+06    -56.4147E-03     112.887E-03    -56.4725E-03     17.1887E-03    -56.3861E-03     112.225E-03    -56.4232E-03     17.0820E-03
             826     2.55209E-03     91.4717E-03    -55.8999E+06    -162.096E+06    -50.0644E+06    -4.91387E+06    -56.4282E-03     112.863E-03    -56.4345E-03     25.4213E-03    -56.4105E-03     112.216E-03    -56.3687E-03     25.2528E-03
             827     3.40313E-03     91.5035E-03    -52.3653E+06    -154.937E+06    -42.9472E+06    -5.76944E+06    -56.7165E-03     113.153E-03    -56.4361E-03     33.6669E-03    -56.7105E-03     112.535E-03    -56.3502E-03     33.4463E-03
             828     4.25323E-03     91.5397E-03    -48.8381E+06    -149.398E+06    -35.8663E+06    -7.46850E+06    -56.9525E-03     113.427E-03    -56.4742E-03     41.7542E-03    -56.9597E-03     112.834E-03    -56.3661E-03     41.4644E-03
             829     5.10389E-03     91.5872E-03    -44.8574E+06    -145.112E+06    -30.5037E+06    -8.96761E+06    -56.8633E-03     113.348E-03    -56.4852E-03     49.8851E-03    -56.8815E-03     112.781E-03    -56.3622E-03     49.5242E-03
             830     5.95510E-03     91.6405E-03    -41.2019E+06    -140.666E+06    -25.4380E+06    -9.96310E+06    -56.8766E-03     113.337E-03    -56.4606E-03     57.5885E-03    -56.9135E-03     112.802E-03    -56.3241E-03     57.1537E-03
             831     6.80532E-03     91.7020E-03    -38.0536E+06    -138.059E+06    -22.9835E+06    -11.1978E+06    -56.9978E-03     113.414E-03    -56.4158E-03     65.3497E-03    -57.0578E-03     112.915E-03    -56.2753E-03     64.8269E-03
             832     7.65815E-03     91.7709E-03    -34.8653E+06    -132.236E+06    -22.4703E+06    -11.9810E+06    -57.2075E-03     113.566E-03    -56.3581E-03     72.9226E-03    -57.3025E-03     113.133E-03    -56.2282E-03     72.3063E-03
             833     8.50810E-03     91.8475E-03    -31.9130E+06    -124.234E+06    -21.7315E+06    -12.3321E+06    -57.6849E-03     114.002E-03    -56.3169E-03     80.1965E-03    -57.8364E-03     113.662E-03    -56.1991E-03     79.4702E-03
             834     9.35864E-03     91.9318E-03    -29.8203E+06    -115.173E+06    -21.7449E+06    -12.2685E+06    -57.9334E-03     114.221E-03    -56.2873E-03     87.6485E-03    -58.1656E-03     114.001E-03    -56.1857E-03     86.8038E-03
             835     10.2103E-03     92.0223E-03    -27.9075E+06    -102.470E+06    -23.7430E+06    -11.7389E+06    -58.1289E-03     114.371E-03    -56.2421E-03     94.9447E-03    -58.4736E-03     114.322E-03    -56.1717E-03     93.9674E-03
             836     11.0601E-03     92.1219E-03    -26.0571E+06    -79.9544E+06    -24.4851E+06    -9.68896E+06    -58.4136E-03     114.603E-03    -56.1891E-03     103.324E-03    -58.9357E-03     114.819E-03    -56.1578E-03     102.204E-03
             837     11.9125E-03     92.2286E-03    -24.3911E+06    -44.2451E+06    -26.2797E+06    -6.45083E+06    -58.7014E-03     114.810E-03    -56.1083E-03     115.743E-03    -59.5213E-03     115.462E-03    -56.1401E-03     114.450E-03
             838     12.7638E-03     92.3519E-03    -22.8149E+06     16.4804E+06    -28.1495E+06    -2.47825E+06    -59.8062E-03     115.794E-03    -55.9878E-03     139.396E-03    -61.2541E-03     117.301E-03    -56.1193E-03     137.822E-03
             839     13.6135E-03     92.5069E-03    -21.0519E+06     75.3385E+06    -2.47203E+06     1.61548E+06    -62.6534E-03     118.656E-03    -56.0023E-03     187.829E-03    -65.6130E-03     121.815E-03    -56.0934E-03     185.791E-03
             840     14.4673E-03     92.7287E-03    -17.6325E+06     117.137E+06     56.4745E+06     2.71431E+06    -70.9874E-03     127.181E-03    -56.1934E-03     283.255E-03    -78.9133E-03     135.296E-03    -56.0553E-03     280.348E-03
             841     15.3169E-03     93.0838E-03    -13.0572E+06     158.416E+06     105.964E+06     2.03392E+06    -82.4629E-03     138.780E-03    -56.3167E-03     410.602E-03    -104.593E-03     161.119E-03    -55.9977E-03     408.535E-03
             842     16.1714E-03     93.5873E-03    -6.28827E+06     177.929E+06     121.486E+06     1.71031E+06    -74.4976E-03     130.792E-03    -56.2942E-03     353.360E-03    -96.2548E-03     152.806E-03    -55.9356E-03     357.928E-03
             843     849.972E-06     92.5003E-03    -57.3557E+06    -165.668E+06    -56.5259E+06    -3.14081E+06    -56.3549E-03     112.679E-03    -56.3240E-03     8.77223E-03    -56.3210E-03     112.017E-03    -56.2832E-03     8.69126E-03
             844     1.70206E-03     92.5119E-03    -55.8934E+06    -162.486E+06    -52.7590E+06    -3.26718E+06    -56.3551E-03     112.686E-03    -56.3306E-03     17.5859E-03    -56.3270E-03     112.035E-03    -56.2777E-03     17.4769E-03
             845     2.55222E-03     92.5340E-03    -53.6767E+06    -157.132E+06    -46.6802E+06    -5.11750E+06    -56.6762E-03     113.045E-03    -56.3690E-03     25.6788E-03    -56.6595E-03     112.416E-03    -56.2968E-03     25.5080E-03
             846     3.40247E-03     92.5630E-03    -51.1809E+06    -151.127E+06    -40.5827E+06    -7.10073E+06    -56.8115E-03     113.246E-03    -56.4347E-03     33.6795E-03    -56.8085E-03     112.643E-03    -56.3443E-03     33.4416E-03
             847     4.25346E-03     92.6022E-03    -47.4257E+06    -145.413E+06    -34.0157E+06    -8.54807E+06    -56.7595E-03     113.224E-03    -56.4644E-03     41.8688E-03    -56.7680E-03     112.646E-03    -56.3548E-03     41.5662E-03
             848     5.10388E-03     92.6470E-03    -44.0820E+06    -141.546E+06    -29.3569E+06    -10.5098E+06    -56.7151E-03     113.161E-03    -56.4460E-03     49.9906E-03    -56.7363E-03     112.608E-03    -56.3236E-03     49.6108E-03
             849     5.95521E-03     92.7011E-03    -40.8261E+06    -137.948E+06    -25.6805E+06    -11.3450E+06    -56.7809E-03     113.185E-03    -56.4039E-03     57.7514E-03    -56.8193E-03     112.663E-03    -56.2730E-03     57.3008E-03
             850     6.80704E-03     92.7624E-03    -37.6075E+06    -133.775E+06    -22.2426E+06    -12.5484E+06    -57.1751E-03     113.548E-03    -56.3727E-03     65.1051E-03    -57.2404E-03     113.069E-03    -56.2354E-03     64.5629E-03
             851     7.65651E-03     92.8310E-03    -34.1208E+06    -129.030E+06    -21.9100E+06    -14.0954E+06    -57.3158E-03     113.654E-03    -56.3382E-03     72.3905E-03    -57.4130E-03     113.236E-03    -56.2112E-03     71.7434E-03
             852     8.50836E-03     92.9084E-03    -31.4981E+06    -123.515E+06    -22.5042E+06    -14.2237E+06    -57.3826E-03     113.671E-03    -56.2879E-03     80.4655E-03    -57.5304E-03     113.333E-03    -56.1757E-03     79.7211E-03
             853     9.35987E-03     92.9919E-03    -29.2631E+06    -114.208E+06    -22.5549E+06    -14.0342E+06    -57.7666E-03     114.003E-03    -56.2364E-03     88.0085E-03    -57.9952E-03     113.788E-03    -56.1412E-03     87.1461E-03
             854     10.2101E-03     93.0834E-03    -27.1247E+06    -102.190E+06    -24.1255E+06    -13.6749E+06    -58.1038E-03     114.291E-03    -56.1870E-03     95.6748E-03    -58.4457E-03     114.244E-03    -56.1201E-03     94.6742E-03
             855     11.0623E-03     93.1819E-03    -25.1776E+06    -82.3386E+06    -25.6498E+06    -11.8975E+06    -58.2840E-03     114.413E-03    -56.1295E-03     103.627E-03    -58.7940E-03     114.616E-03    -56.1018E-03     102.485E-03
             856     11.9127E-03     93.2890E-03    -23.1442E+06    -48.2069E+06    -27.0780E+06    -8.62246E+06    -58.6814E-03     114.731E-03    -56.0494E-03     115.701E-03    -59.4871E-03     115.362E-03    -56.0813E-03     114.384E-03
             857     12.7634E-03     93.4126E-03    -22.3363E+06     10.2377E+06    -29.8138E+06    -3.74399E+06    -59.8351E-03     115.767E-03    -55.9318E-03     139.614E-03    -61.2673E-03     117.243E-03    -56.0633E-03     138.026E-03
             858     13.6161E-03     93.5676E-03    -21.6986E+06     71.4357E+06    -7.42074E+06     216.025E+03    -62.9127E-03     118.853E-03    -55.9405E-03     187.453E-03    -65.8632E-03     122.002E-03    -56.0497E-03     185.386E-03
             859     14.4650E-03     93.7889E-03    -19.3733E+06     116.975E+06     52.1171E+06     2.41036E+06    -71.5521E-03     127.709E-03    -56.1567E-03     283.453E-03    -79.4976E-03     135.850E-03    -56.0377E-03     280.507E-03
             860     15.3174E-03     94.1451E-03    -13.9931E+06     159.808E+06     105.827E+06     2.56672E+06    -82.8417E-03     139.169E-03    -56.3276E-03     409.912E-03    -104.903E-03     161.441E-03    -56.0099E-03     407.802E-03
             861     16.1676E-03     94.6433E-03    -6.62263E+06     179.184E+06     121.985E+06     1.18117E+06    -73.7116E-03     130.013E-03    -56.3015E-03     355.114E-03    -95.5821E-03     152.142E-03    -55.9418E-03     359.845E-03
             862     851.692E-06     93.5599E-03    -56.0934E+06    -161.972E+06    -54.6298E+06    -2.52926E+06    -56.3671E-03     112.237E-03    -55.8698E-03     9.34954E-03    -56.3349E-03     111.589E-03    -55.8268E-03     9.27994E-03
             863     1.70159E-03     93.5726E-03    -54.4010E+06    -158.150E+06    -50.9315E+06    -4.21961E+06    -56.5673E-03     112.765E-03    -56.1981E-03     17.1678E-03    -56.5408E-03     112.132E-03    -56.1445E-03     17.0448E-03
             864     2.55251E-03     93.5949E-03    -51.8397E+06    -152.900E+06    -45.0758E+06    -5.49972E+06    -56.6633E-03     112.990E-03    -56.3268E-03     25.7988E-03    -56.6457E-03     112.376E-03    -56.2553E-03     25.6248E-03
             865     3.40268E-03     93.6250E-03    -48.5080E+06    -145.997E+06    -37.9640E+06    -7.45192E+06    -56.6592E-03     113.045E-03    -56.3857E-03     33.9523E-03    -56.6541E-03     112.459E-03    -56.2935E-03     33.7113E-03
             866     4.25345E-03     93.6617E-03    -45.8605E+06    -141.790E+06    -32.7724E+06    -9.34977E+06    -56.5675E-03     112.954E-03    -56.3867E-03     42.0849E-03    -56.5751E-03     112.391E-03    -56.2784E-03     41.7736E-03
             867     5.10511E-03     93.7084E-03    -42.6866E+06    -136.430E+06    -26.9897E+06    -10.7488E+06    -56.7092E-03     113.076E-03    -56.3668E-03     49.9139E-03    -56.7341E-03     112.543E-03    -56.2420E-03     49.5319E-03
             868     5.95568E-03     93.7608E-03    -39.6194E+06    -133.336E+06    -23.8546E+06    -12.9609E+06    -56.9976E-03     113.347E-03    -56.3497E-03     57.6087E-03    -57.0395E-03     112.844E-03    -56.2182E-03     57.1349E-03
             869     6.80596E-03     93.8233E-03    -36.3674E+06    -130.401E+06    -22.2775E+06    -14.2049E+06    -57.1214E-03     113.451E-03    -56.3291E-03     65.4275E-03    -57.1849E-03     112.987E-03    -56.1987E-03     64.8664E-03
             870     7.65746E-03     93.8923E-03    -33.8466E+06    -125.898E+06    -22.0254E+06    -15.4006E+06    -57.2337E-03     113.525E-03    -56.2910E-03     72.8837E-03    -57.3341E-03     113.122E-03    -56.1694E-03     72.2217E-03
             871     8.50866E-03     93.9669E-03    -31.4627E+06    -121.598E+06    -22.9108E+06    -16.1366E+06    -57.2260E-03     113.458E-03    -56.2325E-03     80.7302E-03    -57.3750E-03     113.131E-03    -56.1251E-03     79.9650E-03
             872     9.35990E-03     94.0533E-03    -28.8716E+06    -113.029E+06    -23.0613E+06    -16.1849E+06    -57.4330E-03     113.595E-03    -56.1621E-03     88.5313E-03    -57.6588E-03     113.384E-03    -56.0716E-03     87.6498E-03
             873     10.2119E-03     94.1427E-03    -27.0109E+06    -101.924E+06    -24.7974E+06    -15.6620E+06    -58.0707E-03     114.172E-03    -56.1016E-03     95.9836E-03    -58.4099E-03     114.126E-03    -56.0387E-03     94.9613E-03
             874     11.0619E-03     94.2431E-03    -25.3302E+06    -83.7979E+06    -26.4570E+06    -14.2584E+06    -58.3858E-03     114.440E-03    -56.0544E-03     103.580E-03    -58.8928E-03     114.636E-03    -56.0285E-03     102.407E-03
             875     11.9134E-03     94.3489E-03    -24.0440E+06    -53.1931E+06    -29.1429E+06    -10.9331E+06    -58.7284E-03     114.712E-03    -55.9841E-03     116.008E-03    -59.5285E-03     115.323E-03    -56.0178E-03     114.662E-03
             876     12.7654E-03     94.4733E-03    -23.0347E+06     3.32662E+06    -33.9943E+06    -5.26135E+06    -59.9633E-03     115.829E-03    -55.8661E-03     140.065E-03    -61.3824E-03     117.277E-03    -56.0075E-03     138.457E-03
             877     13.6147E-03     94.6284E-03    -22.7040E+06     66.8220E+06    -13.4769E+06    -226.262E+03    -62.8482E-03     118.713E-03    -55.8650E-03     187.873E-03    -65.7856E-03     121.846E-03    -55.9963E-03     185.811E-03
             878     14.4676E-03     94.8505E-03    -20.4991E+06     116.238E+06     46.4238E+06     2.03615E+06    -71.5724E-03     127.641E-03    -56.0688E-03     285.383E-03    -79.5662E-03     135.840E-03    -55.9755E-03     282.425E-03
             879     15.3176E-03     95.2064E-03    -13.6400E+06     160.948E+06     104.179E+06     1.56363E+06    -83.4625E-03     139.729E-03    -56.2662E-03     410.531E-03    -105.557E-03     162.044E-03    -55.9589E-03     408.294E-03
             880     16.1715E-03     95.7045E-03    -6.42165E+06     180.398E+06     122.909E+06     1.03391E+06    -73.0794E-03     129.343E-03    -56.2640E-03     353.077E-03    -94.8682E-03     151.393E-03    -55.9018E-03     357.801E-03
             881     850.979E-06     94.6204E-03    -53.2913E+06    -156.149E+06    -51.9784E+06    -1.95701E+06    -56.4987E-03     112.442E-03    -55.9437E-03     9.49965E-03    -56.4647E-03     111.816E-03    -55.8999E-03     9.43951E-03
             882     1.70155E-03     94.6340E-03    -51.7835E+06    -153.027E+06    -48.6650E+06    -4.63533E+06    -56.4999E-03     112.765E-03    -56.2652E-03     17.1592E-03    -56.4710E-03     112.150E-03    -56.2115E-03     17.0306E-03
             883     2.55188E-03     94.6552E-03    -49.6760E+06    -148.414E+06    -43.3423E+06    -5.98585E+06    -56.2574E-03     112.553E-03    -56.2957E-03     25.8452E-03    -56.2379E-03     111.956E-03    -56.2252E-03     25.6664E-03
             884     3.40374E-03     94.6854E-03    -46.7280E+06    -142.063E+06    -37.1768E+06    -7.97159E+06    -56.3434E-03     112.606E-03    -56.2629E-03     34.1004E-03    -56.3360E-03     112.037E-03    -56.1751E-03     33.8551E-03
             885     4.25440E-03     94.7228E-03    -43.2920E+06    -136.437E+06    -30.2053E+06    -9.72049E+06    -56.6995E-03     112.969E-03    -56.2695E-03     41.9715E-03    -56.7057E-03     112.425E-03    -56.1599E-03     41.6552E-03
             886     5.10482E-03     94.7680E-03    -40.1367E+06    -131.468E+06    -25.1299E+06    -11.5897E+06    -56.8363E-03     113.125E-03    -56.2888E-03     49.8454E-03    -56.8582E-03     112.611E-03    -56.1656E-03     49.4522E-03
             887     5.95578E-03     94.8227E-03    -36.8928E+06    -128.177E+06    -21.7980E+06    -13.5540E+06    -56.8171E-03     113.097E-03    -56.2803E-03     57.8112E-03    -56.8555E-03     112.613E-03    -56.1499E-03     57.3325E-03
             888     6.80703E-03     94.8831E-03    -34.5498E+06    -127.069E+06    -21.2253E+06    -15.6406E+06    -56.7517E-03     112.983E-03    -56.2317E-03     65.8508E-03    -56.8115E-03     112.531E-03    -56.1034E-03     65.2773E-03
             889     7.65882E-03     94.9519E-03    -32.1245E+06    -122.696E+06    -21.3946E+06    -16.6885E+06    -57.0767E-03     113.246E-03    -56.1694E-03     73.6369E-03    -57.1732E-03     112.855E-03    -56.0518E-03     72.9644E-03
             890     8.50909E-03     95.0287E-03    -29.8928E+06    -118.048E+06    -21.4019E+06    -17.7096E+06    -57.3702E-03     113.494E-03    -56.1235E-03     80.8511E-03    -57.5193E-03     113.180E-03    -56.0160E-03     80.0641E-03
             891     9.36135E-03     95.1105E-03    -27.9962E+06    -111.587E+06    -22.6232E+06    -17.9235E+06    -57.4715E-03     113.541E-03    -56.0691E-03     88.9782E-03    -57.6957E-03     113.335E-03    -55.9798E-03     88.0758E-03
             892     10.2122E-03     95.2051E-03    -26.2606E+06    -101.418E+06    -24.4383E+06    -17.3267E+06    -57.8899E-03     113.899E-03    -56.0095E-03     96.6081E-03    -58.2248E-03     113.852E-03    -55.9466E-03     95.5722E-03
             893     11.0636E-03     95.3024E-03    -25.0730E+06    -85.0155E+06    -26.5661E+06    -16.0462E+06    -58.2033E-03     114.157E-03    -55.9536E-03     104.113E-03    -58.7068E-03     114.347E-03    -55.9268E-03     102.924E-03
             894     11.9148E-03     95.4098E-03    -23.7704E+06    -57.9529E+06    -30.2077E+06    -12.8894E+06    -58.7866E-03     114.669E-03    -55.8823E-03     117.115E-03    -59.5792E-03     115.259E-03    -55.9148E-03     115.746E-03
             895     12.7647E-03     95.5334E-03    -22.7864E+06    -5.12081E+06    -36.8414E+06    -7.22007E+06    -59.8973E-03     115.658E-03    -55.7610E-03     141.456E-03    -61.3025E-03     117.071E-03    -55.9047E-03     139.831E-03
             896     13.6173E-03     95.6899E-03    -21.9127E+06     61.0685E+06    -20.3908E+06    -222.328E+03    -62.8239E-03     118.554E-03    -55.7302E-03     189.168E-03    -65.7422E-03     121.671E-03    -55.8889E-03     187.112E-03
             897     14.4685E-03     95.9089E-03    -18.7749E+06     116.440E+06     40.8663E+06     2.04062E+06    -71.2566E-03     127.176E-03    -55.9192E-03     286.235E-03    -79.2378E-03     135.385E-03    -55.8565E-03     283.312E-03
             898     15.3212E-03     96.2709E-03    -14.0393E+06     161.826E+06     102.738E+06     526.290E+03    -83.4908E-03     139.607E-03    -56.1163E-03     413.967E-03    -105.849E-03     162.192E-03    -55.8169E-03     411.698E-03
             899     16.1671E-03     96.7645E-03    -7.21237E+06     180.204E+06     122.667E+06     183.517E+03    -73.2534E-03     129.366E-03    -56.1127E-03     351.280E-03    -95.0100E-03     151.381E-03    -55.7502E-03     355.863E-03
             900     850.334E-06     95.6816E-03    -49.7595E+06    -149.943E+06    -49.5308E+06    -2.39666E+06    -56.2196E-03     112.617E-03    -56.3972E-03     9.88745E-03    -56.1805E-03     112.013E-03    -56.3553E-03     9.82034E-03
             901     1.70142E-03     95.6942E-03    -48.6354E+06    -147.430E+06    -45.1567E+06    -4.59637E+06    -56.1339E-03     112.397E-03    -56.2626E-03     17.6269E-03    -56.1025E-03     111.800E-03    -56.2041E-03     17.5009E-03
             902     2.55298E-03     95.7159E-03    -46.0114E+06    -142.812E+06    -40.4822E+06    -6.91250E+06    -56.2122E-03     112.418E-03    -56.2054E-03     25.5710E-03    -56.1867E-03     111.839E-03    -56.1340E-03     25.3790E-03
             903     3.40352E-03     95.7449E-03    -43.3688E+06    -136.873E+06    -34.5016E+06    -8.81021E+06    -56.2453E-03     112.424E-03    -56.1782E-03     33.9402E-03    -56.2323E-03     111.871E-03    -56.0894E-03     33.6851E-03
             904     4.25482E-03     95.7838E-03    -40.2132E+06    -132.190E+06    -28.5893E+06    -10.8071E+06    -56.4700E-03     112.636E-03    -56.1656E-03     42.0869E-03    -56.4688E-03     112.105E-03    -56.0585E-03     41.7600E-03
             905     5.10536E-03     95.8290E-03    -37.0691E+06    -127.085E+06    -23.5521E+06    -12.3206E+06    -56.6247E-03     112.786E-03    -56.1616E-03     50.3636E-03    -56.6397E-03     112.287E-03    -56.0413E-03     49.9645E-03
             906     5.95656E-03     95.8822E-03    -34.5889E+06    -124.065E+06    -20.3746E+06    -14.0734E+06    -56.5312E-03     112.665E-03    -56.1338E-03     58.1343E-03    -56.5653E-03     112.195E-03    -56.0056E-03     57.6539E-03
             907     6.80845E-03     95.9429E-03    -31.9034E+06    -121.082E+06    -18.3508E+06    -16.0745E+06    -56.6351E-03     112.715E-03    -56.0803E-03     65.9020E-03    -56.6939E-03     112.284E-03    -55.9502E-03     65.3259E-03
             908     7.65924E-03     96.0120E-03    -29.8441E+06    -119.037E+06    -19.3132E+06    -18.0631E+06    -56.8316E-03     112.846E-03    -56.0143E-03     73.9186E-03    -56.9233E-03     112.465E-03    -55.8950E-03     73.2351E-03
             909     8.51170E-03     96.0885E-03    -28.0291E+06    -115.234E+06    -20.4847E+06    -18.9600E+06    -57.2450E-03     113.204E-03    -55.9592E-03     81.4103E-03    -57.3891E-03     112.899E-03    -55.8539E-03     80.6132E-03
             910     9.36154E-03     96.1713E-03    -26.3500E+06    -108.619E+06    -20.8579E+06    -19.2544E+06    -57.6723E-03     113.596E-03    -55.9239E-03     89.6564E-03    -57.8963E-03     113.402E-03    -55.8325E-03     88.7363E-03
             911     10.2135E-03     96.2640E-03    -24.5230E+06    -100.949E+06    -23.5866E+06    -18.8655E+06    -57.5359E-03     113.402E-03    -55.8664E-03     97.5970E-03    -57.8617E-03     113.351E-03    -55.8024E-03     96.5538E-03
             912     11.0652E-03     96.3627E-03    -23.1679E+06    -86.2073E+06    -26.2194E+06    -17.4521E+06    -57.8736E-03     113.663E-03    -55.7893E-03     105.432E-03    -58.3636E-03     113.841E-03    -55.7618E-03     104.239E-03
             913     11.9165E-03     96.4698E-03    -22.2100E+06    -61.2521E+06    -29.5617E+06    -14.5064E+06    -58.6919E-03     114.405E-03    -55.7128E-03     118.479E-03    -59.4725E-03     114.975E-03    -55.7396E-03     117.099E-03
             914     12.7687E-03     96.5945E-03    -21.3692E+06    -14.0735E+06    -37.2933E+06    -8.78451E+06    -59.7761E-03     115.369E-03    -55.5928E-03     142.347E-03    -61.1559E-03     116.731E-03    -55.7278E-03     140.714E-03
             915     13.6199E-03     96.7487E-03    -20.2757E+06     53.5425E+06    -26.5526E+06    -1.81984E+06    -63.0542E-03     118.591E-03    -55.5373E-03     190.480E-03    -65.9569E-03     121.689E-03    -55.7183E-03     188.396E-03
             916     14.4699E-03     96.9732E-03    -17.8398E+06     116.076E+06     32.7502E+06     1.51020E+06    -71.0622E-03     126.775E-03    -55.7132E-03     286.577E-03    -79.0055E-03     134.972E-03    -55.6919E-03     283.685E-03
             917     15.3233E-03     97.3249E-03    -12.8423E+06     163.770E+06     101.446E+06     1.73107E+06    -81.4592E-03     137.331E-03    -55.8720E-03     416.900E-03    -103.955E-03     160.069E-03    -55.5836E-03     415.017E-03
             918     16.1821E-03     97.8391E-03    -6.73742E+06     181.428E+06     124.570E+06     340.838E+03    -74.1117E-03     129.944E-03    -55.8327E-03     352.647E-03    -95.8795E-03     151.971E-03    -55.4631E-03     357.216E-03
             919     850.893E-06     96.7392E-03    -47.3183E+06    -143.829E+06    -46.0436E+06    -3.13386E+06    -56.2301E-03     112.240E-03    -56.0103E-03     9.86533E-03    -56.1923E-03     111.659E-03    -55.9634E-03     9.78893E-03
             920     1.70231E-03     96.7561E-03    -45.2381E+06    -141.260E+06    -42.5059E+06    -4.96460E+06    -56.1209E-03     112.227E-03    -56.1065E-03     17.6020E-03    -56.0853E-03     111.653E-03    -56.0486E-03     17.4719E-03
             921     2.55249E-03     96.7749E-03    -42.8567E+06    -136.712E+06    -38.0785E+06    -8.41587E+06    -56.1733E-03     112.268E-03    -56.0945E-03     25.5461E-03    -56.1444E-03     111.712E-03    -56.0245E-03     25.3347E-03
             922     3.40381E-03     96.8064E-03    -39.8306E+06    -131.752E+06    -32.9205E+06    -9.69129E+06    -56.1373E-03     112.210E-03    -56.0727E-03     34.2161E-03    -56.1161E-03     111.675E-03    -55.9886E-03     33.9516E-03
             923     4.25480E-03     96.8426E-03    -37.5162E+06    -127.536E+06    -27.3118E+06    -11.4107E+06    -55.9853E-03     112.007E-03    -56.0220E-03     42.4901E-03    -55.9788E-03     111.494E-03    -55.9192E-03     42.1605E-03
             924     5.10711E-03     96.8896E-03    -34.9977E+06    -123.374E+06    -22.3003E+06    -13.2914E+06    -56.0780E-03     112.033E-03    -55.9548E-03     50.6382E-03    -56.0887E-03     111.546E-03    -55.8367E-03     50.2336E-03
             925     5.95825E-03     96.9418E-03    -31.5093E+06    -118.856E+06    -17.9705E+06    -14.7819E+06    -56.4216E-03     112.329E-03    -55.9072E-03     58.4282E-03    -56.4507E-03     111.876E-03    -55.7790E-03     57.9425E-03
             926     6.80912E-03     97.0028E-03    -28.7575E+06    -115.199E+06    -15.6564E+06    -16.7614E+06    -56.5804E-03     112.450E-03    -55.8697E-03     66.4724E-03    -56.6352E-03     112.039E-03    -55.7393E-03     65.8918E-03
             927     7.66119E-03     97.0715E-03    -26.9379E+06    -114.472E+06    -16.1973E+06    -18.2296E+06    -56.6124E-03     112.427E-03    -55.8145E-03     74.3603E-03    -56.6994E-03     112.059E-03    -55.6904E-03     73.6813E-03
             928     8.51240E-03     97.1471E-03    -25.5862E+06    -111.621E+06    -18.4899E+06    -19.6926E+06    -56.8816E-03     112.625E-03    -55.7438E-03     82.4326E-03    -57.0193E-03     112.330E-03    -55.6373E-03     81.6379E-03
             929     9.36492E-03     97.2326E-03    -24.1167E+06    -106.145E+06    -19.4512E+06    -20.4991E+06    -57.2048E-03     112.890E-03    -55.6848E-03     90.6708E-03    -57.4200E-03     112.699E-03    -55.5932E-03     89.7497E-03
             930     10.2158E-03     97.3223E-03    -22.8986E+06    -100.258E+06    -22.8591E+06    -20.5022E+06    -57.3971E-03     113.014E-03    -55.6168E-03     98.6271E-03    -57.7156E-03     112.961E-03    -55.5525E-03     97.5716E-03
             931     11.0683E-03     97.4222E-03    -21.5928E+06    -86.6940E+06    -25.3969E+06    -19.0999E+06    -57.7437E-03     113.288E-03    -55.5446E-03     107.106E-03    -58.2246E-03     113.459E-03    -55.5146E-03     105.904E-03
             932     11.9198E-03     97.5301E-03    -20.5229E+06    -64.6172E+06    -28.5723E+06    -16.0558E+06    -58.5209E-03     113.994E-03    -55.4733E-03     119.587E-03    -59.2845E-03     114.538E-03    -55.4927E-03     118.203E-03
             933     12.7707E-03     97.6535E-03    -20.2254E+06    -22.8294E+06    -36.8148E+06    -10.1659E+06    -60.0121E-03     115.383E-03    -55.3714E-03     143.448E-03    -61.3794E-03     116.705E-03    -55.4930E-03     141.799E-03
             934     13.6216E-03     97.8105E-03    -20.3517E+06     46.2640E+06    -31.2353E+06    -3.46864E+06    -62.9471E-03     118.249E-03    -55.3019E-03     191.665E-03    -65.8396E-03     121.324E-03    -55.4956E-03     189.578E-03
             935     14.4751E-03     98.0321E-03    -18.1403E+06     114.570E+06     23.1599E+06     166.994E+03    -70.8564E-03     126.299E-03    -55.4428E-03     287.183E-03    -78.7772E-03     134.495E-03    -55.4668E-03     284.289E-03
             936     15.3263E-03     98.3871E-03    -12.7403E+06     163.337E+06     96.8011E+06     632.074E+03    -81.2027E-03     136.845E-03    -55.6427E-03     412.688E-03    -103.329E-03     159.226E-03    -55.3770E-03     410.891E-03
             937     16.1836E-03     98.8836E-03    -6.14318E+06     181.718E+06     125.333E+06     795.052E+03    -73.4736E-03     129.125E-03    -55.6518E-03     351.981E-03    -95.0948E-03     151.007E-03    -55.2797E-03     356.701E-03
             938     851.558E-06     97.8038E-03    -42.9345E+06    -136.244E+06    -42.8161E+06    -3.16909E+06    -56.2027E-03     111.907E-03    -55.7043E-03     9.77607E-03    -56.1589E-03     111.352E-03    -55.6585E-03     9.70105E-03
             939     1.70147E-03     97.8132E-03    -41.3612E+06    -134.171E+06    -40.3085E+06    -6.66068E+06    -55.9357E-03     111.865E-03    -55.9293E-03     17.4633E-03    -55.8941E-03     111.317E-03    -55.8763E-03     17.3113E-03
             940     2.55362E-03     97.8373E-03    -39.4870E+06    -129.605E+06    -35.8849E+06    -8.90623E+06    -55.8415E-03     111.731E-03    -55.8896E-03     26.0995E-03    -55.8090E-03     111.202E-03    -55.8239E-03     25.8856E-03
             941     3.40453E-03     97.8642E-03    -37.8157E+06    -127.460E+06    -31.1048E+06    -10.9099E+06    -55.8150E-03     111.652E-03    -55.8370E-03     34.4665E-03    -55.7924E-03     111.133E-03    -55.7528E-03     34.1891E-03
             942     4.25649E-03     97.9037E-03    -34.7729E+06    -122.199E+06    -25.9329E+06    -12.3732E+06    -55.7271E-03     111.495E-03    -55.7680E-03     42.7680E-03    -55.7161E-03     111.002E-03    -55.6701E-03     42.4295E-03
             943     5.10754E-03     97.9470E-03    -31.8759E+06    -117.908E+06    -20.1209E+06    -14.1955E+06    -55.7198E-03     111.413E-03    -55.6931E-03     50.8972E-03    -55.7251E-03     110.945E-03    -55.5765E-03     50.4868E-03
             944     5.95997E-03     98.0024E-03    -29.1792E+06    -114.260E+06    -16.6540E+06    -15.8472E+06    -55.9072E-03     111.524E-03    -55.6164E-03     59.0802E-03    -55.9317E-03     111.087E-03    -55.4917E-03     58.5904E-03
             945     6.81168E-03     98.0617E-03    -26.4966E+06    -110.365E+06    -14.1557E+06    -17.3560E+06    -56.1869E-03     111.742E-03    -55.5549E-03     67.1775E-03    -56.2379E-03     111.348E-03    -55.4272E-03     66.5991E-03
             946     7.66327E-03     98.1306E-03    -24.6982E+06    -110.403E+06    -13.9084E+06    -18.7021E+06    -56.4064E-03     111.908E-03    -55.5014E-03     75.4846E-03    -56.4901E-03     111.552E-03    -55.3750E-03     74.8088E-03
             947     8.51535E-03     98.2065E-03    -22.9706E+06    -106.485E+06    -15.8182E+06    -20.0798E+06    -56.5006E-03     111.929E-03    -55.4281E-03     83.6528E-03    -56.6341E-03     111.648E-03    -55.3195E-03     82.8665E-03
             948     9.36721E-03     98.2903E-03    -21.9898E+06    -104.007E+06    -17.8723E+06    -21.4067E+06    -56.5592E-03     111.906E-03    -55.3464E-03     91.6936E-03    -56.7641E-03     111.715E-03    -55.2530E-03     90.7807E-03
             949     10.2203E-03     98.3822E-03    -21.1645E+06     -98.508E+06    -21.2209E+06    -21.4377E+06    -57.1176E-03     112.381E-03    -55.2633E-03     100.013E-03    -57.4292E-03     112.329E-03    -55.1958E-03     98.9606E-03
             950     11.0712E-03     98.4809E-03    -20.5049E+06    -86.8208E+06    -24.4536E+06    -20.4350E+06    -57.7656E-03     112.967E-03    -55.2019E-03     108.683E-03    -58.2415E-03     113.133E-03    -55.1685E-03     107.474E-03
             951     11.9236E-03     98.5892E-03    -20.3237E+06    -68.1765E+06    -28.4765E+06    -17.6831E+06    -58.5221E-03     113.673E-03    -55.1505E-03     121.464E-03    -59.2810E-03     114.200E-03    -55.1646E-03     120.069E-03
             952     12.7751E-03     98.7144E-03    -20.2218E+06    -31.8375E+06    -37.2802E+06    -11.5995E+06    -60.0426E-03     115.110E-03    -55.0672E-03     145.575E-03    -61.4008E-03     116.391E-03    -55.1781E-03     143.918E-03
             953     13.6267E-03     98.8705E-03    -19.2704E+06     39.2612E+06    -36.0475E+06    -4.86245E+06    -63.1749E-03     118.164E-03    -54.9891E-03     193.035E-03    -66.0480E-03     121.213E-03    -55.1984E-03     190.934E-03
             954     14.4772E-03     99.0917E-03    -17.4697E+06     113.658E+06     15.3240E+06    -1.16869E+06    -71.2346E-03     126.371E-03    -55.1361E-03     287.434E-03    -79.1412E-03     134.574E-03    -55.1990E-03     284.530E-03
             955     15.3314E-03     99.4471E-03    -13.0029E+06     162.964E+06     92.7246E+06     408.182E+03    -82.9134E-03     138.335E-03    -55.4215E-03     413.291E-03    -105.083E-03     160.767E-03    -55.1753E-03     411.186E-03
             956     16.1757E-03     99.9434E-03    -6.79860E+06     181.478E+06     125.019E+06     925.593E+03    -73.3192E-03     128.808E-03    -55.4887E-03     356.070E-03    -95.2233E-03     150.970E-03    -55.1169E-03     360.849E-03
             957     850.464E-06     98.8601E-03    -38.0430E+06    -127.154E+06    -38.3784E+06    -3.99021E+06    -55.6297E-03     111.374E-03    -55.7444E-03     9.92970E-03    -55.5814E-03     110.850E-03    -55.6968E-03     9.84461E-03
             958     1.70318E-03     98.8756E-03    -37.5758E+06    -126.090E+06    -36.7512E+06    -7.50036E+06    -55.4584E-03     111.076E-03    -55.6175E-03     17.7241E-03    -55.4146E-03     110.558E-03    -55.5639E-03     17.5636E-03
             959     2.55396E-03     98.8940E-03    -36.4624E+06    -123.353E+06    -33.2421E+06    -9.51699E+06    -55.4665E-03     110.998E-03    -55.5311E-03     26.3083E-03    -55.4314E-03     110.492E-03    -55.4656E-03     26.0902E-03
             960     3.40605E-03     98.9258E-03    -34.1180E+06    -120.818E+06    -27.7714E+06    -11.7424E+06    -55.4184E-03     110.891E-03    -55.4721E-03     34.6406E-03    -55.3914E-03     110.394E-03    -55.3863E-03     34.3562E-03
             961     4.25746E-03     98.9602E-03    -31.5506E+06    -116.618E+06    -23.5707E+06    -13.9255E+06    -55.3920E-03     110.790E-03    -55.3982E-03     43.1206E-03    -55.3758E-03     110.316E-03    -55.3012E-03     42.7674E-03
             962     5.11000E-03     99.0081E-03    -28.6118E+06    -112.931E+06    -18.6956E+06    -15.0944E+06    -55.3478E-03     110.667E-03    -55.3192E-03     51.5720E-03    -55.3451E-03     110.216E-03    -55.2074E-03     51.1575E-03
             963     5.96169E-03     99.0583E-03    -26.0587E+06    -109.321E+06    -14.4073E+06    -16.7500E+06    -55.3194E-03     110.547E-03    -55.2280E-03     59.9254E-03    -55.3369E-03     110.126E-03    -55.1037E-03     59.4354E-03
             964     6.81463E-03     99.1218E-03    -24.0084E+06    -106.853E+06    -12.4052E+06    -17.9696E+06    -55.4818E-03     110.612E-03    -55.1305E-03     68.1217E-03    -55.5251E-03     110.227E-03    -55.0027E-03     67.5507E-03
             965     7.66687E-03     99.1878E-03    -22.0617E+06    -105.922E+06    -11.4424E+06    -19.2170E+06    -55.8231E-03     110.872E-03    -55.0489E-03     76.6811E-03    -55.9003E-03     110.528E-03    -54.9205E-03     76.0153E-03
             966     8.51923E-03     99.2658E-03    -20.5995E+06    -102.360E+06    -13.3941E+06    -20.7075E+06    -55.9552E-03     110.915E-03    -54.9596E-03     85.0124E-03    -56.0824E-03     110.644E-03    -54.8482E-03     84.2362E-03
             967     9.37192E-03     99.3475E-03    -19.4634E+06    -100.469E+06    -14.7624E+06    -21.6202E+06    -56.1919E-03     111.068E-03    -54.8760E-03     93.5322E-03    -56.3904E-03     110.883E-03    -54.7759E-03     92.6347E-03
             968     10.2242E-03     99.4402E-03    -19.0408E+06    -96.2983E+06    -18.8837E+06    -21.5489E+06    -56.8048E-03     111.599E-03    -54.7938E-03     102.280E-03    -57.1078E-03     111.547E-03    -54.7210E-03     101.248E-03
             969     11.0775E-03     99.5400E-03    -19.3938E+06    -86.8805E+06    -23.1217E+06    -20.6382E+06    -57.6545E-03     112.397E-03    -54.7426E-03     110.747E-03    -58.1236E-03     112.556E-03    -54.7041E-03     109.553E-03
             970     11.9284E-03     99.6484E-03    -19.6317E+06    -70.6489E+06    -27.2142E+06    -18.4288E+06    -58.5329E-03     113.248E-03    -54.7149E-03     123.653E-03    -59.2833E-03     113.757E-03    -54.7201E-03     122.267E-03
             971     12.7803E-03     99.7736E-03    -18.5573E+06    -39.5938E+06    -36.4697E+06    -13.7558E+06    -60.0823E-03     114.738E-03    -54.6553E-03     147.920E-03    -61.4169E-03     115.971E-03    -54.7533E-03     146.254E-03
             972     13.6315E-03     99.9308E-03    -17.9540E+06     31.4880E+06    -38.9419E+06    -6.90696E+06    -63.6767E-03     118.265E-03    -54.5881E-03     195.288E-03    -66.5300E-03     121.279E-03    -54.8025E-03     193.163E-03
             973     14.4831E-03     100.153E-03    -16.8374E+06     111.236E+06     5.89606E+06    -1.76962E+06    -72.1911E-03     126.936E-03    -54.7451E-03     289.546E-03    -80.1393E-03     135.202E-03    -54.8525E-03     286.593E-03
             974     15.3327E-03     100.506E-03    -13.0279E+06     161.583E+06     85.8353E+06     273.523E+03    -82.6073E-03     137.667E-03    -55.0599E-03     415.978E-03    -104.929E-03     160.267E-03    -54.8461E-03     413.983E-03
             975     16.1948E-03     101.011E-03    -6.49924E+06     181.116E+06     125.090E+06     966.251E+03    -72.9938E-03     128.137E-03    -55.1435E-03     356.071E-03    -94.8682E-03     150.269E-03    -54.7712E-03     360.870E-03
             976     852.145E-06     99.9214E-03    -34.1716E+06    -118.189E+06    -34.2508E+06    -4.88062E+06    -55.1703E-03     110.254E-03    -55.0834E-03     9.70049E-03    -55.1216E-03     109.763E-03    -55.0337E-03     9.60418E-03
             977     1.70320E-03     99.9318E-03    -33.9180E+06    -117.355E+06    -32.3155E+06    -7.58512E+06    -55.0338E-03     110.121E-03    -55.0874E-03     17.9888E-03    -54.9906E-03     109.635E-03    -55.0296E-03     17.8306E-03
             978     2.55559E-03     99.9550E-03    -32.3954E+06    -116.264E+06    -29.3234E+06    -10.5693E+06    -54.9549E-03     109.981E-03    -55.0257E-03     26.5376E-03    -54.9152E-03     109.498E-03    -54.9568E-03     26.3096E-03
             979     3.40749E-03     99.9814E-03    -29.8798E+06    -113.827E+06    -25.2705E+06    -13.1523E+06    -54.8745E-03     109.827E-03    -54.9521E-03     35.2416E-03    -54.8394E-03     109.355E-03    -54.8701E-03     34.9460E-03
             980     4.26001E-03     100.021E-03    -27.0041E+06    -110.620E+06    -20.0295E+06    -14.9530E+06    -54.8202E-03     109.692E-03    -54.8721E-03     43.7848E-03    -54.7941E-03     109.236E-03    -54.7726E-03     43.4269E-03
             981     5.11222E-03     100.063E-03    -24.2344E+06    -108.012E+06    -15.4758E+06    -16.4138E+06    -54.7487E-03     109.528E-03    -54.7793E-03     52.4092E-03    -54.7344E-03     109.089E-03    -54.6649E-03     51.9883E-03
             982     5.96541E-03     100.118E-03    -21.6184E+06    -104.955E+06    -11.6039E+06    -17.4962E+06    -54.7070E-03     109.379E-03    -54.6724E-03     60.9776E-03    -54.7105E-03     108.967E-03    -54.5468E-03     60.4914E-03
             983     6.81796E-03     100.176E-03    -19.5015E+06    -102.848E+06    -8.81096E+06    -18.3636E+06    -54.7918E-03     109.353E-03    -54.5610E-03     69.5912E-03    -54.8206E-03     108.973E-03    -54.4276E-03     69.0322E-03
             984     7.67155E-03     100.247E-03    -17.6200E+06    -101.135E+06    -7.57708E+06    -19.3904E+06    -54.8571E-03     109.302E-03    -54.4452E-03     78.0936E-03    -54.9194E-03     108.965E-03    -54.3108E-03     77.4493E-03
             985     8.52464E-03     100.321E-03    -16.8412E+06    -99.1373E+06    -9.78828E+06    -20.7123E+06    -55.1045E-03     109.424E-03    -54.3198E-03     86.7956E-03    -55.2170E-03     109.153E-03    -54.2006E-03     86.0454E-03
             986     9.37829E-03     100.406E-03    -16.4112E+06    -96.8952E+06    -11.4539E+06    -21.4385E+06    -55.7968E-03     110.024E-03    -54.2271E-03     95.8458E-03    -55.9843E-03     109.842E-03    -54.1201E-03     94.9746E-03
             987     10.2312E-03     100.497E-03    -16.0908E+06    -94.4313E+06    -15.4996E+06    -21.4155E+06    -56.5634E-03     110.728E-03    -54.1650E-03     104.863E-03    -56.8540E-03     110.672E-03    -54.0823E-03     103.857E-03
             988     11.0830E-03     100.598E-03    -16.0776E+06    -86.6781E+06    -20.4680E+06    -20.2494E+06    -57.2840E-03     111.409E-03    -54.1248E-03     113.932E-03    -57.7329E-03     111.552E-03    -54.0781E-03     112.775E-03
             989     11.9358E-03     100.707E-03    -16.0541E+06     -71.864E+06    -24.0557E+06    -18.2241E+06    -58.4425E-03     112.556E-03    -54.1137E-03     127.067E-03    -59.1731E-03     113.044E-03    -54.1065E-03     125.711E-03
             990     12.7875E-03     100.832E-03    -17.2210E+06    -44.8570E+06    -35.2490E+06    -14.7067E+06    -60.5619E-03     114.651E-03    -54.0889E-03     151.765E-03    -61.8903E-03     115.861E-03    -54.1751E-03     150.099E-03
             991     13.6388E-03     100.992E-03    -17.9095E+06     24.2179E+06    -40.6829E+06    -8.69756E+06    -64.3812E-03     118.446E-03    -54.0645E-03     198.684E-03    -67.2424E-03     121.447E-03    -54.2771E-03     196.533E-03
             992     14.4895E-03     101.214E-03    -16.8192E+06     105.455E+06    -1.53843E+06    -3.14479E+06    -72.6865E-03     126.922E-03    -54.2357E-03     292.247E-03    -80.6542E-03     135.209E-03    -54.3719E-03     289.270E-03
             993     15.3425E-03     101.571E-03    -12.9708E+06     160.147E+06     79.9784E+06    -154.100E+03    -82.8728E-03     137.461E-03    -54.5883E-03     416.365E-03    -105.194E-03     160.073E-03    -54.4018E-03     414.435E-03
             994     16.1900E-03     102.060E-03    -6.12658E+06     181.358E+06     125.570E+06     1.02543E+06    -72.9906E-03     127.727E-03    -54.7362E-03     354.783E-03    -94.8069E-03     149.801E-03    -54.3625E-03     359.635E-03
             995     852.179E-06     100.977E-03    -30.7895E+06    -108.773E+06    -30.0524E+06    -4.86665E+06    -54.5081E-03     108.718E-03    -54.2098E-03     9.83243E-03    -54.4621E-03     108.264E-03    -54.1577E-03     9.73862E-03
             996     1.70489E-03     100.992E-03    -29.4744E+06    -107.964E+06    -28.0582E+06    -8.21862E+06    -54.3797E-03     108.722E-03    -54.3425E-03     18.2487E-03    -54.3339E-03     108.270E-03    -54.2835E-03     18.0863E-03
             997     2.55719E-03     101.010E-03    -27.8283E+06    -107.760E+06    -25.4921E+06    -11.7955E+06    -54.2528E-03     108.556E-03    -54.3031E-03     27.0854E-03    -54.2077E-03     108.103E-03    -54.2339E-03     26.8478E-03
             998     3.41006E-03     101.041E-03    -25.8740E+06    -105.717E+06    -22.0448E+06    -14.6448E+06    -54.1357E-03     108.362E-03    -54.2261E-03     35.7869E-03    -54.0962E-03     107.919E-03    -54.1455E-03     35.4805E-03
             999     4.26297E-03     101.075E-03    -23.4331E+06    -105.364E+06    -17.8695E+06    -16.8660E+06    -54.0117E-03     108.144E-03    -54.1326E-03     44.6333E-03    -53.9772E-03     107.704E-03    -54.0352E-03     44.2617E-03
            1000     5.11633E-03     101.122E-03    -20.4968E+06    -102.561E+06    -13.8055E+06    -18.2057E+06    -53.9044E-03     107.922E-03    -54.0173E-03     53.4413E-03    -53.8797E-03     107.500E-03    -53.9079E-03     53.0113E-03
            1001     5.96960E-03     101.172E-03    -17.9389E+06    -101.306E+06    -9.84464E+06    -18.3799E+06    -53.8465E-03     107.740E-03    -53.8937E-03     62.3832E-03    -53.8365E-03     107.335E-03    -53.7700E-03     61.9033E-03
            1002     6.82384E-03     101.234E-03    -16.1808E+06    -98.8141E+06    -7.37062E+06    -18.6997E+06    -53.8161E-03     107.572E-03    -53.7557E-03     71.4004E-03    -53.8319E-03     107.201E-03    -53.6258E-03     70.8599E-03
            1003     7.67709E-03     101.301E-03    -14.5558E+06    -97.0888E+06    -5.64061E+06    -19.8066E+06    -53.7939E-03     107.404E-03    -53.6099E-03     80.2377E-03    -53.8438E-03     107.074E-03    -53.4763E-03     79.6158E-03
            1004     8.53245E-03     101.377E-03    -13.4601E+06    -96.0320E+06    -7.01196E+06    -20.0544E+06    -54.3317E-03     107.802E-03    -53.4699E-03     89.4566E-03    -54.4289E-03     107.530E-03    -53.3462E-03     88.7449E-03
            1005     9.38575E-03     101.461E-03    -13.3347E+06    -93.1421E+06    -8.87367E+06    -20.8056E+06    -55.0337E-03     108.405E-03    -53.3713E-03     98.6860E-03    -55.2069E-03     108.226E-03    -53.2613E-03     97.8563E-03
            1006     10.2394E-03     101.553E-03    -13.5386E+06    -93.2308E+06    -12.6939E+06    -21.1055E+06    -55.7754E-03     109.083E-03    -53.3073E-03     108.637E-03    -56.0500E-03     109.015E-03    -53.2159E-03     107.674E-03
            1007     11.0931E-03     101.655E-03    -13.5706E+06    -86.4302E+06    -18.6444E+06    -20.0003E+06    -56.8555E-03     110.120E-03    -53.2649E-03     118.339E-03    -57.2870E-03     110.251E-03    -53.2131E-03     117.224E-03
            1008     11.9461E-03     101.764E-03    -13.9845E+06    -72.8948E+06    -21.4145E+06    -18.1779E+06    -58.6373E-03     111.930E-03    -53.2929E-03     131.643E-03    -59.3600E-03     112.407E-03    -53.2740E-03     130.311E-03
            1009     12.7977E-03     101.893E-03    -14.7572E+06    -48.6886E+06    -31.8073E+06    -14.3104E+06    -61.2166E-03     114.555E-03    -53.3380E-03     155.870E-03    -62.5390E-03     115.744E-03    -53.4050E-03     154.220E-03
            1010     13.6481E-03     102.052E-03    -15.6196E+06     17.5329E+06    -37.0540E+06    -9.25986E+06    -65.2361E-03     118.626E-03    -53.3899E-03     202.996E-03    -68.1169E-03     121.621E-03    -53.5780E-03     200.828E-03
            1011     14.4981E-03     102.278E-03    -15.5965E+06     100.980E+06    -4.22797E+06    -3.98074E+06    -73.3510E-03     126.939E-03    -53.5881E-03     295.480E-03    -81.3320E-03     135.236E-03    -53.7331E-03     292.503E-03
            1012     15.3496E-03     102.629E-03    -12.1730E+06     159.284E+06     75.2999E+06     16.3049E+03    -83.6700E-03     137.644E-03    -53.9736E-03     419.476E-03    -106.199E-03     160.477E-03    -53.8104E-03     417.522E-03
            1013     16.2062E-03     103.132E-03    -6.40142E+06     180.956E+06     125.736E+06     1.18121E+06    -74.4198E-03     128.629E-03    -54.2093E-03     356.369E-03    -96.4204E-03     150.885E-03    -53.8337E-03     361.146E-03
            1014     853.480E-06     102.035E-03    -26.3121E+06    -98.1552E+06    -26.3367E+06    -4.52386E+06    -53.4327E-03     106.734E-03    -53.3012E-03     10.4546E-03    -53.3850E-03     106.321E-03    -53.2524E-03     10.3702E-03
            1015     1.70630E-03     102.045E-03    -25.6378E+06    -98.3482E+06    -24.5820E+06    -8.94105E+06    -53.4226E-03     106.777E-03    -53.3546E-03     18.5697E-03    -53.3764E-03     106.362E-03    -53.2977E-03     18.4026E-03
            1016     2.55990E-03     102.067E-03    -24.3902E+06    -97.9036E+06    -22.3036E+06    -12.8905E+06    -53.3468E-03     106.677E-03    -53.3304E-03     27.5458E-03    -53.3029E-03     106.264E-03    -53.2645E-03     27.3016E-03
            1017     3.41315E-03     102.094E-03    -22.4695E+06    -97.7268E+06    -19.7586E+06    -16.1950E+06    -53.0972E-03     106.349E-03    -53.2515E-03     36.4387E-03    -53.0545E-03     105.937E-03    -53.1760E-03     36.1222E-03
            1018     4.26716E-03     102.131E-03    -20.7480E+06    -98.5367E+06    -17.0510E+06    -18.4173E+06    -52.9038E-03     106.033E-03    -53.1294E-03     45.7373E-03    -52.8650E-03     105.620E-03    -53.0417E-03     45.3602E-03
            1019     5.12124E-03     102.175E-03    -18.8029E+06    -97.4243E+06    -14.2990E+06    -19.9938E+06    -52.7495E-03     105.733E-03    -52.9837E-03     54.7459E-03    -52.7203E-03     105.333E-03    -52.8867E-03     54.3109E-03
            1020     5.97614E-03     102.227E-03    -16.5639E+06    -98.2038E+06    -10.8151E+06    -20.0525E+06    -52.6060E-03     105.436E-03    -52.8300E-03     64.1865E-03    -52.5882E-03     105.042E-03    -52.7177E-03     63.7080E-03
            1021     6.83034E-03     102.287E-03    -14.3934E+06    -95.4422E+06    -8.19417E+06    -20.0591E+06    -52.4033E-03     105.053E-03    -52.6502E-03     73.4682E-03    -52.4077E-03     104.692E-03    -52.5319E-03     72.9399E-03
            1022     7.68711E-03     102.354E-03    -12.9617E+06    -93.6838E+06    -5.86068E+06    -20.0883E+06    -52.7542E-03     105.236E-03    -52.4816E-03     83.0118E-03    -52.7938E-03     104.914E-03    -52.3563E-03     82.4176E-03
            1023     8.54087E-03     102.431E-03    -11.9848E+06    -93.5383E+06    -5.99925E+06    -19.6586E+06    -53.2945E-03     105.639E-03    -52.3447E-03     92.8119E-03    -53.3802E-03     105.367E-03    -52.2216E-03     92.1429E-03
            1024     9.39638E-03     102.515E-03    -11.5820E+06    -89.9173E+06    -7.33594E+06    -19.7022E+06    -53.8586E-03     106.092E-03    -52.2338E-03     102.756E-03    -54.0194E-03     105.914E-03    -52.1233E-03     101.985E-03
            1025     10.2517E-03     102.608E-03    -11.9763E+06    -90.6563E+06    -10.0152E+06    -20.2292E+06    -54.9566E-03     107.127E-03    -52.1704E-03     112.850E-03    -55.2194E-03     107.054E-03    -52.0716E-03     111.943E-03
            1026     11.1061E-03     102.710E-03    -12.9742E+06    -85.9574E+06    -17.1147E+06    -19.8806E+06    -56.5845E-03     108.738E-03    -52.1535E-03     122.656E-03    -57.0062E-03     108.858E-03    -52.0956E-03     121.580E-03
            1027     11.9585E-03     102.822E-03    -13.6042E+06    -73.8913E+06    -19.6256E+06    -18.4006E+06    -58.8001E-03     111.039E-03    -52.2392E-03     136.808E-03    -59.5166E-03     111.502E-03    -52.2105E-03     135.506E-03
            1028     12.8096E-03     102.952E-03    -13.4493E+06    -53.4437E+06    -29.2981E+06    -14.9900E+06    -61.8398E-03     114.202E-03    -52.3618E-03     161.642E-03    -63.1641E-03     115.373E-03    -52.4113E-03     159.998E-03
            1029     13.6603E-03     103.113E-03    -14.5353E+06     11.5959E+06    -32.7594E+06    -8.55790E+06    -66.2281E-03     118.734E-03    -52.5063E-03     208.143E-03    -69.1231E-03     121.714E-03    -52.6659E-03     205.985E-03
            1030     14.5112E-03     103.340E-03    -15.3112E+06     97.9627E+06    -3.72047E+06    -3.41729E+06    -74.8819E-03     127.663E-03    -52.7811E-03     298.885E-03    -82.9580E-03     136.043E-03    -52.9196E-03     295.849E-03
            1031     15.3621E-03     103.693E-03    -13.8579E+06     156.281E+06     69.5461E+06    -490.404E+03    -84.1855E-03     137.415E-03    -53.2295E-03     419.668E-03    -106.717E-03     160.250E-03    -53.0883E-03     417.795E-03
            1032     16.2141E-03     104.189E-03    -6.95281E+06     179.654E+06     124.472E+06     577.552E+03    -75.9888E-03     129.571E-03    -53.5823E-03     356.189E-03    -97.9814E-03     151.816E-03    -53.2104E-03     360.885E-03
            1033     853.890E-06     103.087E-03    -23.0853E+06    -86.3241E+06    -22.8787E+06    -5.02031E+06    -52.2997E-03     104.401E-03    -52.1014E-03     10.3581E-03    -52.2579E-03     104.037E-03    -52.0572E-03     10.2695E-03
            1034     1.70890E-03     103.100E-03    -22.3323E+06    -86.8379E+06    -21.7419E+06    -9.64308E+06    -52.1595E-03     104.325E-03    -52.1657E-03     18.9315E-03    -52.1173E-03     103.958E-03    -52.1161E-03     18.7612E-03
            1035     2.56248E-03     103.120E-03    -20.9531E+06    -87.2724E+06    -19.8491E+06    -13.7214E+06    -51.9057E-03     103.992E-03    -52.0862E-03     27.9952E-03    -51.8628E-03     103.622E-03    -52.0285E-03     27.7492E-03
            1036     3.41770E-03     103.148E-03    -20.2947E+06    -89.7901E+06    -19.0177E+06    -17.3245E+06    -51.6803E-03     103.632E-03    -51.9520E-03     37.5333E-03    -51.6380E-03     103.254E-03    -51.8875E-03     37.2157E-03
            1037     4.27260E-03     103.183E-03    -18.7915E+06    -90.7797E+06    -17.1600E+06    -19.6126E+06    -51.4700E-03     103.265E-03    -51.7949E-03     47.0127E-03    -51.4302E-03     102.886E-03    -51.7218E-03     46.6375E-03
            1038     5.12835E-03     103.227E-03    -17.5187E+06    -92.3891E+06    -14.9315E+06    -20.9765E+06    -51.2297E-03     102.850E-03    -51.6206E-03     56.5303E-03    -51.1969E-03     102.470E-03    -51.5359E-03     56.1049E-03
            1039     5.98375E-03     103.278E-03    -16.2366E+06    -94.4983E+06    -13.0864E+06    -22.1975E+06    -50.9325E-03     102.353E-03    -51.4210E-03     66.1236E-03    -50.9098E-03     101.975E-03    -51.3259E-03     65.6454E-03
            1040     6.84134E-03     103.337E-03    -14.1014E+06    -93.0678E+06    -10.2916E+06    -21.5753E+06    -50.9571E-03     102.171E-03    -51.2139E-03     75.9406E-03    -50.9535E-03     101.817E-03    -51.1100E-03     75.4245E-03
            1041     7.69655E-03     103.405E-03    -12.9977E+06    -90.9225E+06    -7.15044E+06    -20.3609E+06    -51.2780E-03     102.312E-03    -51.0339E-03     86.2880E-03    -51.3104E-03     101.996E-03    -50.9190E-03     85.7295E-03
            1042     8.55398E-03     103.482E-03    -12.3666E+06    -92.0000E+06    -6.19493E+06    -19.8796E+06    -51.6542E-03     102.534E-03    -50.8795E-03     96.5652E-03    -51.7317E-03     102.258E-03    -50.7591E-03     95.9395E-03
            1043     9.41075E-03     103.565E-03    -12.1162E+06    -87.5595E+06    -7.30823E+06    -18.8720E+06    -52.7487E-03     103.508E-03    -50.7588E-03     107.402E-03    -52.9024E-03     103.328E-03    -50.6508E-03     106.689E-03
            1044     10.2660E-03     103.661E-03    -13.0125E+06    -87.6898E+06    -8.79779E+06    -18.9039E+06    -54.4853E-03     105.223E-03    -50.7372E-03     117.752E-03    -54.7482E-03     105.153E-03    -50.6352E-03     116.903E-03
            1045     11.1203E-03     103.763E-03    -14.1167E+06    -84.9533E+06    -15.6711E+06    -18.6823E+06    -56.3747E-03     107.161E-03    -50.7864E-03     128.219E-03    -56.7953E-03     107.275E-03    -50.7211E-03     127.201E-03
            1046     11.9742E-03     103.879E-03    -15.1174E+06    -72.7832E+06    -17.6573E+06    -17.9791E+06    -58.6894E-03     109.626E-03    -50.9362E-03     142.815E-03    -59.4094E-03     110.085E-03    -50.8970E-03     141.562E-03
            1047     12.8270E-03     104.009E-03    -16.6932E+06    -59.1166E+06    -29.0866E+06    -15.5681E+06    -62.5780E-03     113.717E-03    -51.1390E-03     168.144E-03    -63.9189E-03     114.873E-03    -51.1745E-03     166.512E-03
            1048     13.6762E-03     104.177E-03    -18.0002E+06     5.47647E+06    -30.0571E+06    -8.89248E+06    -68.0297E-03     119.451E-03    -51.4216E-03     212.957E-03    -70.9784E-03     122.443E-03    -51.5537E-03     210.760E-03
            1049     14.5246E-03     104.401E-03    -18.2658E+06     94.9226E+06    -1.42283E+06    -3.23394E+06    -77.1350E-03     128.982E-03    -51.8467E-03     302.104E-03    -85.3581E-03     137.481E-03    -51.9650E-03     298.954E-03
            1050     15.3724E-03     104.761E-03    -14.9603E+06     154.462E+06     67.0932E+06    -1.61284E+06    -87.3987E-03     139.872E-03    -52.4736E-03     417.603E-03    -109.939E-03     162.714E-03    -52.3404E-03     415.307E-03
            1051     16.2263E-03     105.245E-03    -6.63591E+06     178.427E+06     124.389E+06    -1.09358E+06    -78.5459E-03     131.612E-03    -53.0657E-03     352.777E-03    -100.575E-03     153.890E-03    -52.6928E-03     357.141E-03
            1052     855.834E-06     104.138E-03    -18.8672E+06    -72.8267E+06    -18.8375E+06    -5.33598E+06    -50.7716E-03     101.501E-03    -50.7289E-03     10.5302E-03    -50.7341E-03     101.192E-03    -50.6901E-03     10.4399E-03
            1053     1.71012E-03     104.151E-03    -18.6428E+06    -74.3734E+06    -19.0131E+06    -10.2189E+06    -50.3577E-03     100.997E-03    -50.6390E-03     19.5168E-03    -50.3187E-03     100.682E-03    -50.5992E-03     19.3465E-03
            1054     2.56729E-03     104.170E-03    -18.7666E+06    -77.4894E+06    -19.1230E+06    -14.2527E+06    -50.0886E-03     100.540E-03    -50.4512E-03     28.9199E-03    -50.0491E-03     100.214E-03    -50.4072E-03     28.6780E-03
            1055     3.42321E-03     104.198E-03    -18.4937E+06    -80.2664E+06    -18.1203E+06    -17.5203E+06    -49.9502E-03     100.226E-03    -50.2761E-03     38.6346E-03    -49.9123E-03     99.8900E-03    -50.2235E-03     38.3298E-03
            1056     4.28000E-03     104.232E-03    -18.2792E+06    -83.7253E+06    -17.7927E+06    -20.5918E+06    -49.5829E-03     99.6698E-03    -50.0869E-03     48.2699E-03    -49.5471E-03     99.3232E-03    -50.0280E-03     47.9015E-03
            1057     5.13687E-03     104.275E-03    -17.8443E+06    -87.6863E+06    -17.5437E+06    -21.9767E+06    -49.1996E-03     99.0593E-03    -49.8598E-03     58.4409E-03    -49.1669E-03     98.7025E-03    -49.7945E-03     58.0288E-03
            1058     5.99514E-03     104.326E-03    -17.2234E+06    -89.0391E+06    -15.9219E+06    -22.8584E+06    -49.1046E-03     98.7296E-03    -49.6249E-03     68.4052E-03    -49.0845E-03     98.3780E-03    -49.5504E-03     67.9488E-03
            1059     6.85226E-03     104.384E-03    -17.1162E+06    -91.5249E+06    -14.1371E+06    -22.2045E+06    -49.2103E-03     98.6218E-03    -49.4114E-03     79.0167E-03    -49.2102E-03     98.2766E-03    -49.3246E-03     78.5282E-03
            1060     7.71125E-03     104.453E-03    -16.7976E+06    -89.1901E+06    -11.8814E+06    -20.6029E+06    -49.3180E-03     98.5286E-03    -49.2106E-03     89.6971E-03    -49.3536E-03     98.2221E-03    -49.1164E-03     89.1792E-03
            1061     8.56970E-03     104.527E-03    -17.2255E+06    -90.5658E+06    -9.67385E+06    -19.4991E+06    -49.9968E-03     99.0471E-03    -49.0504E-03     100.576E-03    -50.0820E-03     98.7774E-03    -48.9424E-03     100.003E-03
            1062     9.42725E-03     104.615E-03    -18.3504E+06     -86.853E+06    -10.7601E+06    -18.1568E+06    -51.5422E-03     100.492E-03    -48.9499E-03     112.508E-03    -51.7079E-03     100.315E-03    -48.8511E-03     111.855E-03
            1063     10.2845E-03     104.710E-03    -19.2379E+06    -85.0897E+06    -10.3919E+06    -17.7451E+06    -53.7467E-03     102.728E-03    -48.9808E-03     123.882E-03    -54.0288E-03     102.669E-03    -48.8815E-03     123.097E-03
            1064     11.1397E-03     104.817E-03    -19.9604E+06    -83.4625E+06    -15.2594E+06    -17.5673E+06    -56.1876E-03     105.302E-03    -49.1146E-03     134.447E-03    -56.6309E-03     105.423E-03    -49.0409E-03     133.485E-03
            1065     11.9935E-03     104.931E-03    -20.5040E+06    -70.0231E+06    -15.9104E+06    -17.5993E+06    -59.4138E-03     108.793E-03    -49.3791E-03     149.263E-03    -60.1709E-03     109.275E-03    -49.3274E-03     148.035E-03
            1066     12.8445E-03     105.069E-03    -20.7154E+06    -63.3982E+06    -25.7039E+06    -16.3153E+06    -64.0033E-03     113.746E-03    -49.7429E-03     174.239E-03    -65.3844E-03     114.904E-03    -49.7495E-03     172.592E-03
            1067     13.6938E-03     105.238E-03    -19.8256E+06    -2.25650E+06    -25.2755E+06    -9.89433E+06    -70.3369E-03     120.541E-03    -50.2044E-03     218.604E-03    -73.3700E-03     123.570E-03    -50.2987E-03     216.320E-03
            1068     14.5398E-03     105.470E-03    -18.2163E+06     92.5960E+06     1.53213E+06    -3.71665E+06    -80.1907E-03     131.004E-03    -50.8128E-03     304.988E-03    -88.5319E-03     139.605E-03    -50.9130E-03     301.638E-03
            1069     15.3887E-03     105.825E-03    -13.2169E+06     155.983E+06     68.7912E+06    -2.98356E+06    -92.2643E-03     143.947E-03    -51.6824E-03     420.533E-03    -115.465E-03     167.455E-03    -51.5455E-03     417.479E-03
            1070     16.2232E-03     106.320E-03    -7.91238E+06     176.472E+06     124.608E+06    -2.47581E+06    -83.2801E-03     135.841E-03    -52.5608E-03     350.782E-03    -105.704E-03     158.502E-03    -52.1822E-03     354.414E-03
            1071     856.227E-06     105.187E-03    -16.1283E+06    -60.6974E+06    -17.6555E+06    -6.04356E+06    -48.5733E-03     97.2576E-03    -48.6843E-03     11.1032E-03    -48.5414E-03     97.0037E-03    -48.6612E-03     11.0086E-03
            1072     1.71522E-03     105.197E-03    -16.9606E+06    -63.2593E+06    -18.0711E+06    -10.0907E+06    -48.2842E-03     96.8072E-03    -48.5230E-03     20.1680E-03    -48.2538E-03     96.5441E-03    -48.4971E-03     20.0072E-03
            1073     2.57210E-03     105.216E-03    -17.6687E+06    -66.7218E+06    -18.4484E+06    -14.2521E+06    -48.1864E-03     96.5579E-03    -48.3715E-03     29.8192E-03    -48.1570E-03     96.2820E-03    -48.3414E-03     29.5891E-03
            1074     3.43027E-03     105.243E-03    -18.1487E+06    -71.1318E+06    -19.0039E+06    -17.6154E+06    -47.7417E-03     95.9430E-03    -48.2013E-03     39.5562E-03    -47.7120E-03     95.6511E-03    -48.1669E-03     39.2661E-03
            1075     4.28867E-03     105.278E-03    -19.0073E+06    -76.2566E+06    -19.9699E+06    -20.1624E+06    -47.2263E-03     95.1910E-03    -47.9647E-03     49.6592E-03    -47.1985E-03     94.8825E-03    -47.9264E-03     49.3178E-03
            1076     5.14836E-03     105.319E-03    -20.4027E+06    -81.7377E+06    -21.0893E+06    -21.6920E+06    -46.8851E-03     94.5790E-03    -47.6940E-03     60.1320E-03    -46.8636E-03     94.2557E-03    -47.6513E-03     59.7502E-03
            1077     6.00780E-03     105.370E-03    -22.3869E+06    -85.0808E+06    -21.5364E+06    -21.6505E+06    -46.8063E-03     94.2341E-03    -47.4278E-03     70.9978E-03    -46.8022E-03     93.9104E-03    -47.3797E-03     70.5904E-03
            1078     6.86792E-03     105.429E-03    -24.2522E+06    -89.0779E+06    -20.5012E+06    -21.3170E+06    -46.9468E-03     94.1420E-03    -47.1952E-03     82.1814E-03    -46.9669E-03     93.8188E-03    -47.1334E-03     81.7434E-03
            1079     7.72800E-03     105.495E-03    -25.6464E+06    -88.9280E+06    -19.0265E+06    -19.6250E+06    -47.4055E-03     94.4035E-03    -46.9980E-03     93.3262E-03    -47.4632E-03     94.1093E-03    -46.9270E-03     92.8635E-03
            1080     8.58781E-03     105.573E-03    -27.0075E+06    -88.9841E+06    -15.4919E+06    -18.1247E+06    -48.4931E-03     95.3722E-03    -46.8791E-03     104.960E-03    -48.6068E-03     95.1188E-03    -46.7884E-03     104.450E-03
            1081     9.44788E-03     105.658E-03    -27.3984E+06    -85.7943E+06    -13.3568E+06    -17.3803E+06    -50.3348E-03     97.1848E-03    -46.8501E-03     117.552E-03    -50.5285E-03     97.0152E-03    -46.7527E-03     116.956E-03
            1082     10.3057E-03     105.759E-03    -27.0012E+06    -82.7456E+06    -11.0855E+06    -17.0771E+06    -52.8398E-03     99.7918E-03    -46.9521E-03     129.336E-03    -53.1465E-03     99.7410E-03    -46.8484E-03     128.610E-03
            1083     11.1618E-03     105.866E-03    -26.4693E+06    -81.9782E+06    -14.3839E+06    -18.1581E+06    -56.2699E-03     103.461E-03    -47.1915E-03     140.334E-03    -56.7419E-03     103.590E-03    -47.1061E-03     139.398E-03
            1084     12.0153E-03     105.987E-03    -25.6425E+06    -67.8888E+06    -13.7607E+06    -18.3133E+06    -60.7559E-03     108.373E-03    -47.6168E-03     156.013E-03    -61.5580E-03     108.883E-03    -47.5500E-03     154.778E-03
            1085     12.8652E-03     106.128E-03    -23.9710E+06    -63.7779E+06    -20.6499E+06    -18.0339E+06    -66.2123E-03     114.409E-03    -48.1964E-03     181.033E-03    -67.6603E-03     115.606E-03    -48.1724E-03     179.324E-03
            1086     13.7125E-03     106.301E-03    -20.6307E+06    -11.5761E+06    -21.3444E+06    -13.1883E+06    -73.3715E-03     122.254E-03    -48.8824E-03     224.920E-03    -76.4930E-03     125.324E-03    -48.9424E-03     222.480E-03
            1087     14.5576E-03     106.539E-03    -15.8912E+06     88.8196E+06     3.94027E+06    -6.16269E+06    -84.4532E-03     134.184E-03    -49.7312E-03     308.093E-03    -93.0048E-03     142.984E-03    -49.8172E-03     304.375E-03
            1088     15.3968E-03     106.894E-03    -11.2685E+06     157.285E+06     71.0517E+06    -4.02343E+06    -95.0775E-03     145.908E-03    -50.8310E-03     422.893E-03    -118.686E-03     169.829E-03    -50.6875E-03     419.607E-03
            1089     16.2481E-03     107.404E-03    -7.24665E+06     173.399E+06     124.864E+06    -2.02275E+06    -88.3097E-03     140.246E-03    -51.9363E-03     351.658E-03    -110.861E-03     163.026E-03    -51.5529E-03     354.764E-03
            1090     860.253E-06     106.228E-03    -16.9865E+06    -48.8355E+06    -17.2523E+06    -6.50390E+06    -46.0978E-03     92.0050E-03    -45.9073E-03     10.8749E-03    -46.0878E-03     91.8109E-03    -45.8981E-03     10.7774E-03
            1091     1.71874E-03     106.239E-03    -17.3766E+06    -51.9777E+06    -18.6929E+06    -10.1237E+06    -46.0191E-03     91.9871E-03    -45.9680E-03     20.5114E-03    -46.0057E-03     91.7812E-03    -45.9609E-03     20.3578E-03
            1092     2.57861E-03     106.259E-03    -18.0942E+06    -56.4206E+06    -19.9265E+06    -13.8175E+06    -45.6392E-03     91.5146E-03    -45.8754E-03     30.4848E-03    -45.6236E-03     91.2916E-03    -45.8670E-03     30.2724E-03
            1093     3.43859E-03     106.284E-03    -19.7612E+06    -62.8483E+06    -22.2871E+06    -16.5997E+06    -45.0401E-03     90.7077E-03    -45.6677E-03     40.6278E-03    -45.0235E-03     90.4620E-03    -45.6593E-03     40.3674E-03
            1094     4.30001E-03     106.318E-03    -22.6199E+06    -69.7234E+06    -24.9146E+06    -17.9916E+06    -44.6356E-03     90.0355E-03    -45.3998E-03     51.1569E-03    -44.6246E-03     89.7683E-03    -45.3905E-03     50.8651E-03
            1095     5.16104E-03     106.359E-03    -26.3508E+06    -76.3507E+06    -26.5618E+06    -18.4905E+06    -44.3779E-03     89.5068E-03    -45.1290E-03     61.8945E-03    -44.3807E-03     89.2215E-03    -45.1128E-03     61.5800E-03
            1096     6.02316E-03     106.408E-03    -30.5280E+06    -82.1499E+06    -27.8081E+06    -18.1813E+06    -44.1687E-03     89.0294E-03    -44.8606E-03     73.1221E-03    -44.1926E-03     88.7334E-03    -44.8363E-03     72.7914E-03
            1097     6.88594E-03     106.466E-03    -35.0135E+06    -86.5155E+06    -27.1926E+06    -17.8342E+06    -44.4447E-03     89.0683E-03    -44.6236E-03     84.7684E-03    -44.5020E-03     88.7725E-03    -44.5834E-03     84.4129E-03
            1098     7.74784E-03     106.535E-03    -37.7899E+06     -88.251E+06    -24.1922E+06    -17.6513E+06    -45.3826E-03     89.8460E-03    -44.4634E-03     96.7913E-03    -45.4820E-03     89.5676E-03    -44.4016E-03     96.3945E-03
            1099     8.60992E-03     106.611E-03    -37.3996E+06    -86.1295E+06    -18.9569E+06    -17.5426E+06    -47.1509E-03     91.5694E-03    -44.4185E-03     109.461E-03    -47.3025E-03     91.3371E-03    -44.3341E-03     109.000E-03
            1100     9.46951E-03     106.701E-03    -35.8191E+06    -84.0162E+06    -14.6854E+06    -17.5029E+06    -49.5408E-03     94.0477E-03    -44.5069E-03     122.327E-03    -49.7641E-03     93.8880E-03    -44.4066E-03     121.769E-03
            1101     10.3287E-03     106.802E-03    -33.6229E+06    -80.7335E+06    -12.0517E+06    -17.9766E+06    -52.4143E-03     97.1448E-03    -44.7305E-03     134.507E-03    -52.7429E-03     97.1025E-03    -44.6250E-03     133.808E-03
            1102     11.1858E-03     106.915E-03    -30.9014E+06    -78.8271E+06    -13.3419E+06    -19.5546E+06    -56.6973E-03     101.814E-03    -45.1162E-03     146.752E-03    -57.1931E-03     101.959E-03    -45.0238E-03     145.825E-03
            1103     12.0381E-03     107.040E-03    -28.4408E+06    -67.5769E+06    -12.5675E+06    -19.7800E+06    -62.1638E-03     107.885E-03    -45.7215E-03     162.620E-03    -62.9928E-03     108.410E-03    -45.6451E-03     161.368E-03
            1104     12.8880E-03     107.186E-03    -26.2874E+06    -60.6629E+06    -16.9773E+06    -20.0119E+06    -68.8840E-03     115.414E-03    -46.5298E-03     187.880E-03    -70.4022E-03     116.673E-03    -46.4886E-03     186.086E-03
            1105     13.7322E-03     107.368E-03    -23.3344E+06    -17.9918E+06    -17.2764E+06    -18.5184E+06    -77.4835E-03     124.987E-03    -47.5034E-03     231.245E-03    -80.7393E-03     128.147E-03    -47.5298E-03     228.561E-03
            1106     14.5726E-03     107.609E-03    -18.7669E+06     81.1118E+06     3.55186E+06    -12.3069E+06    -89.3378E-03     137.972E-03    -48.6343E-03     313.150E-03    -98.1894E-03     147.036E-03    -48.7070E-03     308.976E-03
            1107     15.4121E-03     107.975E-03    -13.7969E+06     153.913E+06     68.4246E+06    -6.39090E+06    -99.6409E-03     149.680E-03    -50.0395E-03     418.580E-03    -122.956E-03     173.295E-03    -49.9005E-03     414.703E-03
            1108     16.2504E-03     108.460E-03    -7.25092E+06     169.254E+06     123.036E+06    -1.93296E+06    -92.2861E-03     143.742E-03    -51.4561E-03     348.605E-03    -114.587E-03     166.263E-03    -51.0759E-03     351.146E-03
            1109     861.576E-06     107.265E-03    -17.5359E+06    -36.0608E+06    -17.6168E+06     -5.6784E+06    -43.3951E-03     86.4139E-03    -43.0188E-03     11.1991E-03    -43.4056E-03     86.2848E-03    -43.0292E-03     11.1167E-03
            1110     1.72369E-03     107.277E-03    -19.0461E+06    -40.9640E+06    -20.5687E+06    -9.78422E+06    -43.0209E-03     86.1498E-03    -43.1289E-03     20.8812E-03    -43.0287E-03     86.0034E-03    -43.1448E-03     20.7394E-03
            1111     2.58600E-03     107.294E-03    -21.3203E+06    -48.3454E+06    -24.8840E+06    -12.4164E+06    -42.4289E-03     85.3689E-03    -42.9401E-03     30.9998E-03    -42.4327E-03     85.1968E-03    -42.9635E-03     30.8170E-03
            1112     3.44940E-03     107.320E-03    -25.2461E+06    -56.9032E+06    -29.2035E+06    -13.6533E+06    -42.0665E-03     84.7479E-03    -42.6814E-03     41.4869E-03    -42.0737E-03     84.5474E-03    -42.7083E-03     41.2804E-03
            1113     4.31239E-03     107.351E-03    -30.6059E+06    -65.6736E+06    -32.6092E+06    -13.3113E+06    -41.7962E-03     84.2243E-03    -42.4282E-03     52.3864E-03    -41.8161E-03     83.9962E-03    -42.4516E-03     52.1752E-03
            1114     5.17653E-03     107.393E-03    -36.9447E+06    -73.4764E+06    -34.6322E+06    -12.4093E+06    -41.5470E-03     83.7291E-03    -42.1820E-03     63.5424E-03    -41.5898E-03     83.4795E-03    -42.1951E-03     63.3310E-03
            1115     6.04077E-03     107.441E-03    -42.9125E+06    -79.4255E+06    -33.9125E+06    -12.2094E+06    -41.6774E-03     83.6412E-03    -41.9638E-03     75.2064E-03    -41.7509E-03     83.3781E-03    -41.9559E-03     74.9805E-03
            1116     6.90482E-03     107.500E-03    -46.2996E+06    -82.7184E+06    -29.9690E+06    -13.1128E+06    -42.1728E-03     83.9745E-03    -41.8018E-03     87.1601E-03    -42.2783E-03     83.7084E-03    -41.7645E-03     86.8971E-03
            1117     7.76987E-03     107.568E-03    -47.1110E+06    -83.9362E+06    -25.2385E+06    -15.7145E+06    -43.5122E-03     85.2357E-03    -41.7235E-03     99.7026E-03    -43.6513E-03     84.9824E-03    -41.6597E-03     99.3649E-03
            1118     8.63265E-03     107.648E-03    -45.9277E+06    -83.2304E+06    -20.9069E+06    -17.8820E+06    -45.7998E-03     87.5753E-03    -41.7755E-03     113.152E-03    -45.9824E-03     87.3598E-03    -41.6928E-03     112.722E-03
            1119     9.49442E-03     107.740E-03    -43.0109E+06    -82.0463E+06    -17.3623E+06    -19.2963E+06    -48.7104E-03     90.6922E-03    -41.9819E-03     126.908E-03    -48.9552E-03     90.5433E-03    -41.8874E-03     126.364E-03
            1120     10.3535E-03     107.843E-03    -38.3895E+06    -76.6154E+06    -13.7984E+06    -20.9532E+06    -52.6765E-03     95.0388E-03    -42.3624E-03     140.251E-03    -53.0251E-03     95.0195E-03    -42.2646E-03     139.540E-03
            1121     11.2096E-03     107.961E-03    -33.7208E+06    -75.3514E+06    -13.2070E+06    -21.9139E+06    -57.6150E-03     100.563E-03    -42.9476E-03     153.319E-03    -58.1286E-03     100.728E-03    -42.8555E-03     152.379E-03
            1122     12.0628E-03     108.093E-03    -30.2207E+06    -66.8326E+06    -12.5500E+06    -22.0297E+06    -63.7613E-03     107.518E-03    -43.7566E-03     169.944E-03    -64.6144E-03     108.064E-03    -43.6786E-03     168.659E-03
            1123     12.9095E-03     108.246E-03    -26.8556E+06    -57.4292E+06    -14.9322E+06    -22.8463E+06    -72.0322E-03     116.838E-03    -44.8053E-03     196.281E-03    -73.6324E-03     118.183E-03    -44.7578E-03     194.371E-03
            1124     13.7525E-03     108.435E-03    -23.5418E+06    -19.7765E+06    -12.2760E+06    -22.3471E+06    -82.2101E-03     128.305E-03    -46.0947E-03     238.945E-03    -85.6325E-03     131.611E-03    -46.0932E-03     235.991E-03
            1125     14.5894E-03     108.686E-03    -20.8742E+06     71.8927E+06    -60.9157E+03    -16.3267E+06    -94.3004E-03     141.811E-03    -47.5105E-03     317.926E-03    -103.285E-03     150.978E-03    -47.5848E-03     313.349E-03
            1126     15.4235E-03     109.053E-03    -16.3021E+06     146.500E+06     61.6837E+06    -8.91026E+06    -107.211E-03     156.469E-03    -49.2585E-03     422.043E-03    -130.977E-03     180.521E-03    -49.1389E-03     416.867E-03
            1127     16.2490E-03     109.547E-03    -7.13639E+06     164.309E+06     121.505E+06    -4.19411E+06    -98.1623E-03     149.220E-03    -51.0580E-03     349.761E-03    -120.912E-03     172.175E-03    -50.6784E-03     351.200E-03
            1128     864.539E-06     108.297E-03    -20.5855E+06    -24.6628E+06    -20.5319E+06    -3.99042E+06    -40.0211E-03     80.0144E-03    -39.9933E-03     11.8127E-03    -40.0592E-03     79.9506E-03    -40.0304E-03     11.7569E-03
            1129     1.72931E-03     108.306E-03    -23.5103E+06    -31.7974E+06    -25.7755E+06    -7.68117E+06    -39.4831E-03     79.3400E-03    -39.8569E-03     21.0060E-03    -39.5185E-03     79.2528E-03    -39.9056E-03     20.8979E-03
            1130     2.59484E-03     108.324E-03    -28.7294E+06    -42.4647E+06    -32.4344E+06    -8.78793E+06    -39.1396E-03     78.7460E-03    -39.6064E-03     31.2928E-03    -39.1769E-03     78.6237E-03    -39.6654E-03     31.1668E-03
            1131     3.46047E-03     108.347E-03    -35.5104E+06    -54.3119E+06     -38.443E+06    -7.77324E+06    -38.8815E-03     78.2537E-03    -39.3723E-03     41.9945E-03    -38.9281E-03     78.0921E-03    -39.4343E-03     41.8775E-03
            1132     4.32677E-03     108.381E-03    -43.3385E+06    -65.4857E+06    -42.0425E+06    -5.64147E+06    -38.6181E-03     77.7709E-03    -39.1528E-03     53.0994E-03    -38.6847E-03     77.5722E-03    -39.2052E-03     53.0045E-03
            1133     5.19332E-03     108.419E-03    -50.2360E+06    -71.9264E+06    -41.2218E+06    -4.78544E+06    -38.6933E-03     77.6567E-03    -38.9634E-03     64.6964E-03    -38.7900E-03     77.4385E-03    -38.9923E-03     64.6039E-03
            1134     6.06009E-03     108.470E-03    -54.1673E+06    -75.8116E+06    -36.3398E+06    -6.10164E+06    -39.1893E-03     78.0278E-03    -38.8385E-03     76.8088E-03    -39.3141E-03     77.7959E-03    -38.8318E-03     76.6850E-03
            1135     6.92663E-03     108.527E-03    -54.7120E+06    -76.5175E+06    -30.4368E+06    -10.1429E+06    -40.3251E-03     79.1202E-03    -38.7951E-03     89.3816E-03    -40.4728E-03     78.8899E-03    -38.7570E-03     89.1814E-03
            1136     7.79170E-03     108.597E-03    -53.1344E+06    -77.4904E+06    -25.3927E+06    -14.1821E+06    -42.1596E-03     81.0221E-03    -38.8626E-03     102.725E-03    -42.3282E-03     80.8004E-03    -38.8001E-03     102.434E-03
            1137     8.65613E-03     108.679E-03    -50.8928E+06    -77.8652E+06    -21.7319E+06    -18.1997E+06    -44.5274E-03     83.5799E-03    -39.0526E-03     116.556E-03    -44.7294E-03     83.3877E-03    -38.9745E-03     116.153E-03
            1138     9.51910E-03     108.774E-03    -46.7372E+06    -76.9692E+06    -18.6105E+06    -22.3972E+06    -48.0303E-03     87.4230E-03    -39.3927E-03     131.129E-03    -48.2866E-03     87.2941E-03    -39.3064E-03     130.577E-03
            1139     10.3793E-03     108.883E-03    -41.2692E+06    -72.1150E+06    -15.0915E+06    -24.9522E+06    -52.8215E-03     92.7563E-03    -39.9348E-03     145.906E-03    -53.1798E-03     92.7560E-03    -39.8458E-03     145.171E-03
            1140     11.2349E-03     109.006E-03    -36.3936E+06    -73.4301E+06    -14.1284E+06    -25.9330E+06    -58.5961E-03     99.3102E-03    -40.7141E-03     160.496E-03    -59.1263E-03     99.4920E-03    -40.6255E-03     159.518E-03
            1141     12.0862E-03     109.144E-03    -30.4885E+06    -64.3571E+06    -12.5115E+06    -26.6139E+06    -65.7889E-03     107.526E-03    -41.7376E-03     178.760E-03    -66.6751E-03     108.113E-03    -41.6626E-03     177.396E-03
            1142     12.9341E-03     109.307E-03    -25.3109E+06    -56.3160E+06    -13.7305E+06    -26.6924E+06    -75.2844E-03     118.318E-03    -43.0334E-03     206.643E-03    -76.9566E-03     119.742E-03    -42.9837E-03     204.600E-03
            1143     13.7721E-03     109.507E-03    -22.3415E+06    -20.5209E+06    -9.15944E+06    -24.0097E+06    -86.6665E-03     131.270E-03    -44.6034E-03     249.929E-03    -90.2491E-03     134.729E-03    -44.5870E-03     246.749E-03
            1144     14.6054E-03     109.765E-03    -19.0017E+06     64.1155E+06    -2.46787E+06    -18.1779E+06    -99.9316E-03     146.231E-03    -46.2996E-03     326.037E-03    -109.126E-03     155.594E-03    -46.3773E-03     320.968E-03
            1145     15.4373E-03     110.137E-03    -13.0642E+06     137.386E+06     58.2322E+06    -10.5229E+06    -112.397E-03     160.709E-03    -48.3120E-03     431.939E-03    -136.827E-03     185.413E-03    -48.2011E-03     425.979E-03
            1146     16.2680E-03     110.650E-03    -7.01588E+06     160.101E+06     121.427E+06    -5.43819E+06    -105.957E-03     156.377E-03    -50.4203E-03     352.449E-03    -128.952E-03     179.565E-03    -50.0352E-03     352.691E-03
            1147     867.562E-06     109.319E-03    -26.9296E+06    -17.8816E+06    -28.8701E+06    -2.51072E+06    -36.2297E-03     72.6074E-03    -36.3777E-03     11.4988E-03    -36.2972E-03     72.5984E-03    -36.4571E-03     11.4646E-03
            1148     1.73573E-03     109.330E-03    -32.2209E+06    -27.0214E+06    -34.3067E+06    -2.83143E+06    -35.9427E-03     72.1301E-03    -36.1874E-03     20.9540E-03    -36.0158E-03     72.0913E-03    -36.2730E-03     20.9140E-03
            1149     2.60427E-03     109.345E-03    -40.5407E+06    -40.8491E+06    -41.3288E+06    -1.08247E+06    -35.7988E-03     71.8207E-03    -36.0219E-03     31.3960E-03    -35.8835E-03     71.7353E-03    -36.1105E-03     31.3776E-03
            1150     3.47260E-03     109.371E-03    -50.0829E+06    -55.8309E+06    -47.1781E+06     1.70363E+06    -35.5447E-03     71.4123E-03    -35.8675E-03     42.0888E-03    -35.6475E-03     71.2749E-03    -35.9499E-03     42.1047E-03
            1151     4.34187E-03     109.400E-03    -57.2788E+06    -66.2336E+06    -47.7116E+06     2.76550E+06    -35.5462E-03     71.2740E-03    -35.7278E-03     53.4586E-03    -35.6701E-03     71.0969E-03    -35.7872E-03     53.4853E-03
            1152     5.21100E-03     109.442E-03    -59.8772E+06    -69.3179E+06    -42.4979E+06     1.12741E+06    -36.0317E-03     71.6782E-03    -35.6465E-03     65.3823E-03    -36.1743E-03     71.4846E-03    -35.6717E-03     65.3813E-03
            1153     6.07959E-03     109.490E-03    -59.2435E+06    -70.2832E+06    -36.0938E+06    -2.76686E+06    -36.9643E-03     72.6088E-03    -35.6445E-03     77.6845E-03    -37.1171E-03     72.4060E-03    -35.6372E-03     77.6209E-03
            1154     6.94804E-03     109.551E-03    -58.2657E+06    -69.1426E+06    -30.4786E+06    -7.79837E+06    -38.5648E-03     74.3050E-03    -35.7401E-03     91.0581E-03    -38.7337E-03     74.1095E-03    -35.7078E-03     90.9083E-03
            1155     7.81479E-03     109.623E-03    -56.4182E+06    -70.7095E+06    -25.9784E+06    -13.5386E+06    -40.7368E-03     76.6942E-03    -35.9575E-03     105.143E-03    -40.9219E-03     76.5030E-03    -35.9030E-03     104.883E-03
            1156     8.68044E-03     109.706E-03    -52.1280E+06    -68.5488E+06    -21.1479E+06    -19.6074E+06    -43.6863E-03     79.9927E-03    -36.3065E-03     120.025E-03    -43.8986E-03     79.8380E-03    -36.2372E-03     119.629E-03
            1157     9.54355E-03     109.805E-03    -47.3911E+06    -68.9311E+06    -17.6733E+06    -25.1616E+06    -47.7509E-03     84.5729E-03    -36.8220E-03     135.801E-03    -48.0131E-03     84.4735E-03    -36.7417E-03     135.238E-03
            1158     10.4035E-03     109.919E-03    -43.3253E+06    -68.4168E+06    -15.9340E+06    -28.4105E+06    -52.7522E-03     90.2812E-03    -37.5290E-03     151.610E-03    -53.1139E-03     90.2928E-03    -37.4467E-03     150.859E-03
            1159     11.2610E-03     110.049E-03    -37.4076E+06    -68.7251E+06    -13.9111E+06    -31.4162E+06    -59.1729E-03     97.6430E-03    -38.4701E-03     167.747E-03    -59.7113E-03     97.8457E-03    -38.3857E-03     166.721E-03
            1160     12.1126E-03     110.196E-03    -30.7865E+06    -62.2241E+06    -13.0991E+06    -33.2886E+06    -67.6870E-03     107.366E-03    -39.6793E-03     188.459E-03    -68.5993E-03     107.988E-03    -39.6099E-03     186.998E-03
            1161     12.9558E-03     110.368E-03    -25.8461E+06    -59.0534E+06    -14.0528E+06    -30.3465E+06    -78.0982E-03     119.295E-03    -41.1966E-03     218.473E-03    -79.8366E-03     120.774E-03    -41.1438E-03     216.319E-03
            1162     13.7960E-03     110.580E-03    -21.7863E+06    -21.0007E+06    -7.36658E+06    -26.7146E+06    -90.5118E-03     133.507E-03    -42.9953E-03     262.486E-03    -94.2507E-03     137.118E-03    -42.9701E-03     259.088E-03
            1163     14.6283E-03     110.850E-03    -17.0448E+06     57.1099E+06     978.422E+03    -22.1392E+06    -105.322E-03     150.289E-03    -44.9674E-03     336.076E-03    -114.771E-03     159.880E-03    -45.0206E-03     330.467E-03
            1164     15.4526E-03     111.229E-03    -12.4755E+06     124.876E+06     58.6133E+06    -13.0992E+06    -117.489E-03     164.744E-03    -47.2556E-03     436.203E-03    -141.879E-03     189.365E-03    -47.1255E-03     429.414E-03
            1165     16.2820E-03     111.736E-03    -5.95815E+06     153.426E+06     119.254E+06    -5.45997E+06    -115.226E-03     164.934E-03    -49.7078E-03     357.915E-03    -138.298E-03     188.187E-03    -49.3254E-03     356.764E-03
            1166     871.203E-06     110.336E-03    -43.0790E+06    -17.6693E+06    -42.6393E+06     949.549E+03    -32.4559E-03     64.8233E-03    -32.3674E-03     11.0685E-03    -32.5845E-03     64.8587E-03    -32.4925E-03     11.0806E-03
            1167     1.74274E-03     110.345E-03    -49.3216E+06    -29.6129E+06    -48.5817E+06     4.57376E+06    -32.4495E-03     64.8380E-03    -32.3885E-03     20.6946E-03    -32.5832E-03     64.8313E-03    -32.5169E-03     20.7541E-03
            1168     2.61348E-03     110.362E-03    -56.9012E+06    -46.4595E+06    -52.1516E+06     9.33442E+06    -32.3265E-03     64.6895E-03    -32.3630E-03     30.9609E-03    -32.4683E-03     64.6146E-03    -32.4739E-03     31.0825E-03
            1169     3.48556E-03     110.384E-03    -62.4533E+06    -59.1297E+06    -51.6127E+06     10.9115E+06    -32.3825E-03     64.7062E-03    -32.3237E-03     41.8437E-03    -32.5343E-03     64.5752E-03    -32.4055E-03     41.9857E-03
            1170     4.35691E-03     110.416E-03    -64.2021E+06    -64.1710E+06    -46.7779E+06     8.69355E+06    -32.8818E-03     65.2090E-03    -32.3272E-03     53.4562E-03    -33.0424E-03     65.0488E-03    -32.3750E-03     53.5681E-03
            1171     5.22810E-03     110.456E-03    -63.7155E+06    -65.5540E+06    -42.1702E+06     4.23153E+06    -33.6796E-03     66.0693E-03    -32.3898E-03     65.5369E-03    -33.8440E-03     65.8966E-03    -32.4132E-03     65.5865E-03
            1172     6.09916E-03     110.507E-03    -61.2195E+06    -63.9516E+06    -36.5882E+06    -1.78566E+06    -35.0448E-03     67.5800E-03    -32.5352E-03     78.3913E-03    -35.2115E-03     67.4080E-03    -32.5366E-03     78.3530E-03
            1173     6.96816E-03     110.569E-03    -57.0950E+06    -61.4400E+06    -29.8267E+06    -7.18187E+06    -36.8309E-03     69.6140E-03    -32.7830E-03     92.2645E-03    -36.9998E-03     69.4482E-03    -32.7603E-03     92.1385E-03
            1174     7.83730E-03     110.643E-03    -53.0653E+06    -61.1905E+06    -23.9491E+06    -13.4830E+06    -39.3172E-03     72.4589E-03    -33.1417E-03     106.969E-03    -39.4938E-03     72.2992E-03    -33.0958E-03     106.729E-03
            1175     8.70372E-03     110.730E-03    -49.6176E+06    -57.8163E+06    -18.9669E+06    -20.7315E+06    -42.8320E-03     76.4710E-03    -33.6390E-03     122.978E-03    -43.0401E-03     76.3527E-03    -33.5780E-03     122.590E-03
            1176     9.56772E-03     110.833E-03    -46.4579E+06    -61.0047E+06    -16.0079E+06    -26.6315E+06    -47.2499E-03     81.5617E-03    -34.3118E-03     140.228E-03    -47.5092E-03     81.4860E-03    -34.2360E-03     139.674E-03
            1177     10.4289E-03     110.953E-03    -41.9243E+06    -61.3879E+06    -13.9527E+06    -31.4994E+06    -52.7449E-03     87.9160E-03    -35.1711E-03     157.674E-03    -53.1013E-03     87.9465E-03    -35.0911E-03     156.912E-03
            1178     11.2849E-03     111.089E-03    -36.5582E+06    -61.3029E+06    -12.0005E+06    -36.1458E+06    -59.7994E-03     96.0646E-03    -36.2652E-03     175.876E-03    -60.3415E-03     96.2950E-03    -36.1833E-03     174.812E-03
            1179     12.1365E-03     111.245E-03    -32.8244E+06    -60.5047E+06    -12.7736E+06    -37.3522E+06    -68.9300E-03     106.564E-03    -37.6339E-03     198.707E-03    -69.8677E-03     107.209E-03    -37.5625E-03     197.200E-03
            1180     12.9829E-03     111.430E-03    -28.7412E+06    -61.9822E+06    -13.7108E+06    -36.2064E+06    -80.6199E-03     119.953E-03    -39.3333E-03     230.129E-03    -82.4321E-03     121.485E-03    -39.2703E-03     227.839E-03
            1181     13.8187E-03     111.653E-03    -20.9909E+06    -22.7294E+06    -6.06271E+06    -33.9650E+06    -94.9547E-03     136.313E-03    -41.3583E-03     274.360E-03    -98.8565E-03     140.080E-03    -41.3253E-03     270.631E-03
            1182     14.6469E-03     111.938E-03    -14.5914E+06     46.1685E+06     4.30366E+06    -25.7290E+06    -110.524E-03     154.152E-03    -43.6279E-03     343.504E-03    -119.998E-03     163.728E-03    -43.6522E-03     337.418E-03
            1183     15.4734E-03     112.324E-03    -10.6097E+06     114.190E+06     60.4726E+06    -13.3644E+06    -125.348E-03     171.616E-03    -46.2678E-03     437.307E-03    -149.397E-03     195.861E-03    -46.1156E-03     429.044E-03
            1184     16.2890E-03     112.836E-03    -7.52051E+06     146.666E+06     116.279E+06    -5.71966E+06    -124.956E-03     174.095E-03    -49.1395E-03     367.078E-03    -148.385E-03     197.685E-03    -48.7598E-03     364.133E-03
            1185     874.765E-06     111.343E-03    -62.2383E+06    -29.0219E+06    -56.4789E+06     11.5508E+06    -28.8693E-03     57.5013E-03    -28.6321E-03     10.7639E-03    -29.0569E-03     57.5278E-03    -28.7821E-03     10.9143E-03
            1186     1.74847E-03     111.353E-03    -70.7693E+06    -40.5478E+06    -61.0910E+06     16.4009E+06    -28.9341E-03     57.7236E-03    -28.7896E-03     20.0744E-03    -29.1407E-03     57.7112E-03    -28.9336E-03     20.2888E-03
            1187     2.62336E-03     111.369E-03    -74.0900E+06    -53.6825E+06    -60.5612E+06     16.6323E+06    -29.0992E-03     57.9633E-03    -28.8642E-03     30.2080E-03    -29.3036E-03     57.8891E-03    -28.9817E-03     30.4267E-03
            1188     3.49740E-03     111.392E-03    -70.8196E+06    -59.8324E+06    -54.2327E+06     13.8027E+06    -29.6667E-03     58.6376E-03    -28.9708E-03     41.2436E-03    -29.8545E-03     58.5182E-03    -29.0526E-03     41.4268E-03
            1189     4.37113E-03     111.425E-03    -65.7979E+06    -61.7436E+06    -48.0248E+06     9.92862E+06    -30.4896E-03     59.6204E-03    -29.1308E-03     52.9012E-03    -30.6584E-03     59.4751E-03    -29.1860E-03     53.0341E-03
            1190     5.24444E-03     111.466E-03    -60.8615E+06    -60.0244E+06    -41.6145E+06     4.70567E+06    -31.6706E-03     61.0246E-03    -29.3539E-03     65.3240E-03    -31.8273E-03     60.8723E-03    -29.3867E-03     65.3863E-03
            1191     6.11625E-03     111.519E-03    -57.0635E+06    -56.2751E+06    -34.9798E+06    -1.48043E+06    -33.2049E-03     62.8572E-03    -29.6523E-03     78.6259E-03    -33.3608E-03     62.7118E-03    -29.6628E-03     78.6006E-03
            1192     6.98829E-03     111.582E-03    -53.5485E+06    -53.6051E+06    -28.6594E+06    -8.08017E+06    -35.2787E-03     65.3166E-03    -30.0378E-03     92.8491E-03    -35.4379E-03     65.1782E-03    -30.0258E-03     92.7234E-03
            1193     7.85749E-03     111.659E-03    -49.3663E+06    -50.7699E+06    -22.3029E+06    -14.7778E+06    -38.0620E-03     68.5929E-03    -30.5309E-03     108.478E-03    -38.2300E-03     68.4700E-03    -30.4972E-03     108.238E-03
            1194     8.72542E-03     111.750E-03    -45.5140E+06    -48.2794E+06    -16.2913E+06    -20.6392E+06    -41.7193E-03     72.8766E-03    -31.1573E-03     125.598E-03    -41.9137E-03     72.7852E-03    -31.1027E-03     125.234E-03
            1195     9.59071E-03     111.858E-03    -42.5578E+06    -51.5442E+06    -12.6340E+06    -26.8603E+06    -46.3769E-03     78.3193E-03    -31.9424E-03     143.957E-03    -46.6205E-03     78.2656E-03    -31.8691E-03     143.430E-03
            1196     10.4523E-03     111.983E-03    -38.9217E+06    -51.0600E+06    -9.89061E+06    -34.0869E+06    -52.4371E-03     85.3522E-03    -32.9151E-03     163.382E-03    -52.7833E-03     85.4081E-03    -32.8341E-03     162.619E-03
            1197     11.3105E-03     112.128E-03    -35.5469E+06    -54.4373E+06    -8.72014E+06    -38.1951E+06    -60.3223E-03     94.4635E-03    -34.1411E-03     183.717E-03    -60.8643E-03     94.7122E-03    -34.0542E-03     182.653E-03
            1198     12.1617E-03     112.293E-03    -32.0494E+06    -57.6234E+06    -9.51394E+06    -40.2148E+06    -70.2943E-03     105.958E-03    -35.6636E-03     208.388E-03    -71.2480E-03     106.622E-03    -35.5811E-03     206.847E-03
            1199     13.0054E-03     112.489E-03    -25.9576E+06    -58.8071E+06    -8.94512E+06    -42.8919E+06    -83.4259E-03     120.968E-03    -37.5423E-03     241.912E-03    -85.2868E-03     122.557E-03    -37.4642E-03     239.472E-03
            1200     13.8412E-03     112.729E-03    -19.9983E+06    -27.1651E+06    -4.55724E+06    -41.2023E+06    -99.5762E-03     139.362E-03    -39.7863E-03     287.496E-03    -103.599E-03     143.234E-03    -39.7407E-03     283.450E-03
            1201     14.6669E-03     113.029E-03    -14.6171E+06     29.4975E+06     6.37706E+06     -29.265E+06    -117.602E-03     159.985E-03    -42.3828E-03     352.699E-03    -127.127E-03     169.549E-03    -42.3725E-03     345.921E-03
            1202     15.4837E-03     113.419E-03    -10.0890E+06     100.944E+06     53.6993E+06    -14.7766E+06    -135.403E-03     180.801E-03    -45.3978E-03     442.176E-03    -159.360E-03     204.929E-03    -45.2611E-03     431.946E-03
            1203     16.2949E-03     113.952E-03    -4.25033E+06     138.532E+06     109.824E+06    -4.16856E+06    -132.480E-03     181.147E-03    -48.6673E-03     374.736E-03    -156.158E-03     204.986E-03    -48.3129E-03     370.011E-03
            1204     877.144E-06     112.344E-03    -89.1111E+06    -55.7452E+06    -87.5191E+06     16.0854E+06    -25.6115E-03     51.0906E-03    -25.4791E-03     10.4353E-03    -25.8495E-03     51.0675E-03    -25.7066E-03     10.6451E-03
            1205     1.75475E-03     112.355E-03    -81.1701E+06    -54.1878E+06    -72.5810E+06     21.2519E+06    -25.7897E-03     51.4182E-03    -25.6286E-03     19.2014E-03    -26.0116E-03     51.3694E-03    -25.7952E-03     19.4792E-03
            1206     2.63154E-03     112.370E-03    -73.7275E+06    -56.1244E+06    -60.8422E+06     18.0364E+06    -26.4751E-03     52.2774E-03    -25.8023E-03     29.4018E-03    -26.6733E-03     52.1906E-03    -25.9182E-03     29.6400E-03
            1207     3.50758E-03     112.396E-03    -69.5362E+06    -59.1474E+06    -56.0584E+06     13.3101E+06    -27.3683E-03     53.4116E-03    -26.0433E-03     40.3773E-03    -27.5475E-03     53.2960E-03    -26.1370E-03     40.5560E-03
            1208     4.38353E-03     112.428E-03    -65.8132E+06    -57.8130E+06    -51.3264E+06     8.13462E+06    -28.4505E-03     54.7918E-03    -26.3413E-03     52.0428E-03    -28.6193E-03     54.6702E-03    -26.4187E-03     52.1550E-03
            1209     5.25814E-03     112.472E-03    -60.3390E+06    -53.6744E+06    -44.1485E+06     1.76146E+06    -29.7910E-03     56.4894E-03    -26.6985E-03     64.5839E-03    -29.9491E-03     56.3705E-03    -26.7539E-03     64.6120E-03
            1210     6.13257E-03     112.525E-03    -53.1867E+06    -48.7468E+06    -35.4241E+06    -4.11963E+06    -31.5380E-03     58.6586E-03    -27.1206E-03     78.1921E-03    -31.6822E-03     58.5435E-03    -27.1499E-03     78.1388E-03
            1211     7.00456E-03     112.592E-03    -47.2085E+06    -45.8294E+06    -27.3968E+06    -9.45932E+06    -33.8655E-03     61.4907E-03    -27.6253E-03     92.9652E-03    -34.0016E-03     61.3759E-03    -27.6273E-03     92.8311E-03
            1212     7.87599E-03     112.671E-03    -43.3198E+06    -41.1711E+06    -19.5004E+06    -15.2434E+06    -36.8147E-03     65.0466E-03    -28.2319E-03     109.200E-03    -36.9637E-03     64.9521E-03    -28.2069E-03     108.968E-03
            1213     8.74505E-03     112.767E-03    -40.6543E+06    -40.4585E+06    -13.3339E+06    -20.5539E+06    -40.4791E-03     69.4324E-03    -28.9533E-03     127.222E-03    -40.6536E-03     69.3576E-03    -28.9024E-03     126.880E-03
            1214     9.61124E-03     112.878E-03    -37.1070E+06    -39.5907E+06    -7.64411E+06    -27.0739E+06    -45.3890E-03     75.2064E-03    -29.8174E-03     146.954E-03    -45.6133E-03     75.1809E-03    -29.7444E-03     146.452E-03
            1215     10.4748E-03     113.010E-03    -34.4364E+06    -39.7207E+06    -3.56790E+06    -33.9385E+06    -52.0833E-03     82.9678E-03    -30.8846E-03     168.076E-03    -52.4122E-03     83.0445E-03    -30.7949E-03     167.349E-03
            1216     11.3319E-03     113.163E-03    -32.8562E+06    -48.4790E+06    -3.85992E+06    -38.6195E+06    -60.4853E-03     92.6985E-03    -32.2131E-03     190.095E-03    -61.0076E-03     92.9442E-03    -32.1145E-03     189.062E-03
            1217     12.1840E-03     113.339E-03    -29.5515E+06    -49.8162E+06    -3.49526E+06    -42.9293E+06    -71.6396E-03     105.498E-03    -33.8585E-03     217.699E-03    -72.5893E-03     106.178E-03    -33.7609E-03     216.140E-03
            1218     13.0282E-03     113.549E-03    -27.1849E+06    -52.9224E+06    -4.32402E+06    -46.4092E+06    -86.1687E-03     122.061E-03    -35.8922E-03     254.197E-03    -88.0655E-03     123.689E-03    -35.7977E-03     251.676E-03
            1219     13.8619E-03     113.805E-03    -25.8805E+06    -29.5091E+06    -2.34129E+06    -45.6131E+06    -103.841E-03     142.171E-03    -38.3299E-03     301.187E-03    -107.958E-03     146.102E-03    -38.2613E-03     296.903E-03
            1220     14.6863E-03     114.121E-03    -22.2869E+06     8.23947E+06     6.60888E+06    -37.2082E+06    -125.093E-03     166.303E-03    -41.2095E-03     366.394E-03    -134.750E-03     175.896E-03    -41.1561E-03     358.809E-03
            1221     15.4967E-03     114.533E-03    -16.0905E+06     79.6599E+06     44.2856E+06    -21.1881E+06    -145.073E-03     189.597E-03    -44.5233E-03     455.316E-03    -169.351E-03     213.976E-03    -44.3940E-03     443.064E-03
            1222     16.2992E-03     115.066E-03    -8.11451E+06     127.698E+06     103.089E+06    -7.81034E+06    -140.783E-03     188.928E-03    -48.1452E-03     384.347E-03    -164.965E-03     213.238E-03    -47.8031E-03     377.547E-03
            1223     879.313E-06     113.340E-03    -127.068E+06    -75.5846E+06    -129.053E+06     4.14638E+06    -23.1435E-03     46.2132E-03    -23.0697E-03     9.67621E-03    -23.4822E-03     46.2064E-03    -23.4211E-03     9.73125E-03
            1224     1.75898E-03     113.349E-03    -108.588E+06    -63.9353E+06    -108.531E+06     6.11036E+06    -23.5158E-03     46.7188E-03    -23.2030E-03     18.0391E-03    -23.8084E-03     46.7134E-03    -23.4954E-03     18.1208E-03
            1225     2.63769E-03     113.368E-03    -89.4681E+06    -57.7817E+06    -87.8415E+06     6.99534E+06    -24.2647E-03     47.6985E-03    -23.4338E-03     27.8440E-03    -24.5001E-03     47.6657E-03    -23.6595E-03     27.9391E-03
            1226     3.51633E-03     113.392E-03    -73.1943E+06    -58.1156E+06    -71.4802E+06     5.25489E+06    -25.3371E-03     49.0886E-03    -23.7515E-03     38.7656E-03    -25.5136E-03     49.0060E-03    -23.9185E-03     38.8402E-03
            1227     4.39304E-03     113.428E-03    -60.0143E+06    -52.7008E+06    -56.1994E+06     1.30356E+06    -26.6488E-03     50.7899E-03    -24.1411E-03     50.5836E-03    -26.7887E-03     50.6924E-03    -24.2586E-03     50.6082E-03
            1228     5.26964E-03     113.471E-03    -51.0781E+06    -47.0861E+06    -44.8078E+06    -3.29819E+06    -28.1824E-03     52.7660E-03    -24.5836E-03     63.2514E-03    -28.3019E-03     52.6669E-03    -24.6653E-03     63.2160E-03
            1229     6.14455E-03     113.529E-03    -46.4324E+06    -43.6221E+06    -35.9821E+06    -7.28867E+06    -30.1376E-03     55.2285E-03    -25.0909E-03     77.0678E-03    -30.2529E-03     55.1284E-03    -25.1403E-03     76.9773E-03
            1230     7.01900E-03     113.596E-03    -42.6544E+06    -38.1636E+06    -26.3347E+06    -11.7350E+06    -32.5667E-03     58.2493E-03    -25.6826E-03     92.1026E-03    -32.6896E-03     58.1616E-03    -25.6970E-03     91.9455E-03
            1231     7.89089E-03     113.680E-03    -38.4509E+06    -33.0121E+06    -16.8835E+06    -16.1592E+06    -35.5397E-03     61.9030E-03    -26.3633E-03     108.838E-03    -35.6737E-03     61.8322E-03    -26.3441E-03     108.606E-03
            1232     8.76067E-03     113.778E-03    -33.8935E+06    -31.9339E+06    -8.67957E+06    -20.9126E+06    -39.3559E-03     66.5054E-03    -27.1495E-03     127.502E-03    -39.5048E-03     66.4459E-03    -27.0975E-03     127.174E-03
            1233     9.62914E-03     113.895E-03    -31.2635E+06    -28.7453E+06    -1.37684E+06    -26.1715E+06    -44.6482E-03     72.7310E-03    -28.0828E-03     148.455E-03    -44.8505E-03     72.7247E-03    -28.0027E-03     147.992E-03
            1234     10.4920E-03     114.034E-03    -30.9240E+06    -29.9372E+06     2.90928E+06    -31.2186E+06    -51.4344E-03     80.6518E-03    -29.2174E-03     171.099E-03    -51.7418E-03     80.7353E-03    -29.1146E-03     170.446E-03
            1235     11.3513E-03     114.195E-03    -29.7092E+06    -38.2197E+06     3.40021E+06    -38.1342E+06    -60.3801E-03     90.9861E-03    -30.6060E-03     195.852E-03    -60.8761E-03     91.2322E-03    -30.4905E-03     194.874E-03
            1236     12.2038E-03     114.382E-03    -26.4408E+06    -40.5174E+06     4.48061E+06    -44.2600E+06    -72.7001E-03     105.035E-03    -32.3345E-03     226.454E-03    -73.6161E-03     105.702E-03    -32.2150E-03     224.922E-03
            1237     13.0469E-03     114.608E-03    -22.7787E+06    -48.1711E+06     3.88259E+06    -44.8000E+06    -88.3722E-03     122.855E-03    -34.4829E-03     264.975E-03    -90.2207E-03     124.444E-03    -34.3606E-03     262.488E-03
            1238     13.8811E-03     114.879E-03    -21.6186E+06    -28.0564E+06     6.09384E+06    -43.2952E+06    -107.895E-03     144.963E-03    -37.0678E-03     314.918E-03    -111.996E-03     148.874E-03    -36.9653E-03     310.525E-03
            1239     14.7016E-03     115.219E-03    -21.8859E+06    -4.54553E+06     13.7200E+06    -37.7958E+06    -130.739E-03     170.873E-03    -40.1347E-03     382.044E-03    -140.355E-03     180.361E-03    -40.0277E-03     373.996E-03
            1240     15.5136E-03     115.647E-03    -18.4387E+06     59.2881E+06     41.4781E+06    -26.6907E+06    -151.607E-03     195.200E-03    -43.5933E-03     469.103E-03    -175.768E-03     219.391E-03    -43.4451E-03     455.471E-03
            1241     16.3177E-03     116.201E-03    -8.17051E+06     110.633E+06     99.1163E+06    -13.9280E+06    -151.582E-03     199.095E-03    -47.5128E-03     395.311E-03    -176.008E-03     223.604E-03    -47.1658E-03     386.113E-03
            1242     880.866E-06     114.330E-03    -129.691E+06    -72.0141E+06    -129.176E+06    -7.09122E+06    -22.0452E-03     43.9215E-03    -21.8763E-03     8.69615E-03    -22.4019E-03     43.9368E-03    -22.2297E-03     8.60492E-03
            1243     1.76047E-03     114.342E-03    -123.029E+06    -63.3452E+06    -120.558E+06    -10.2856E+06    -22.4012E-03     44.4474E-03    -22.0462E-03     16.5493E-03    -22.7496E-03     44.4838E-03    -22.3787E-03     16.4175E-03
            1244     2.64093E-03     114.359E-03    -110.616E+06    -56.7451E+06    -108.585E+06    -11.4971E+06    -22.9700E-03     45.2168E-03    -22.2467E-03     25.4551E-03    -23.2831E-03     45.2505E-03    -22.5470E-03     25.3086E-03
            1245     3.52006E-03     114.387E-03    -94.3647E+06    -54.2354E+06    -94.3071E+06    -13.4403E+06    -23.8260E-03     46.3340E-03    -22.5080E-03     35.6229E-03    -24.0816E-03     46.3355E-03    -22.7641E-03     35.4529E-03
            1246     4.39953E-03     114.423E-03    -77.3990E+06    -48.2036E+06    -81.9193E+06    -15.5874E+06    -24.9769E-03     47.7920E-03    -22.8151E-03     46.9972E-03    -25.1737E-03     47.7804E-03    -23.0426E-03     46.8010E-03
            1247     5.27709E-03     114.470E-03    -61.3022E+06    -43.0688E+06    -65.9082E+06    -16.3208E+06    -26.6572E-03     49.8823E-03    -23.2251E-03     59.8377E-03    -26.8035E-03     49.8492E-03    -23.4033E-03     59.6329E-03
            1248     6.15365E-03     114.527E-03    -47.2416E+06    -39.8358E+06    -45.2811E+06    -15.9223E+06    -28.7818E-03     52.5468E-03    -23.7650E-03     73.9786E-03    -28.8928E-03     52.4800E-03    -23.8651E-03     73.7773E-03
            1249     7.02797E-03     114.599E-03    -36.4485E+06    -33.0646E+06    -27.0321E+06    -16.3687E+06    -31.2971E-03     55.6878E-03    -24.3907E-03     89.4825E-03    -31.3931E-03     55.6156E-03    -24.4251E-03     89.2697E-03
            1250     7.90119E-03     114.685E-03    -30.5396E+06    -28.4708E+06    -13.9545E+06    -17.4101E+06    -34.4131E-03     59.5140E-03    -25.1009E-03     106.525E-03    -34.5133E-03     59.4452E-03    -25.0851E-03     106.285E-03
            1251     8.77315E-03     114.787E-03    -28.9432E+06    -24.0856E+06    -3.22693E+06    -19.8410E+06    -38.5836E-03     64.5166E-03    -25.9330E-03     125.728E-03    -38.7172E-03     64.4716E-03    -25.8723E-03     125.429E-03
            1252     9.63999E-03     114.910E-03    -28.1244E+06    -19.3658E+06     5.65623E+06    -24.0745E+06    -43.8988E-03     70.8153E-03    -26.9165E-03     147.817E-03    -44.0898E-03     70.8217E-03    -26.8194E-03     147.408E-03
            1253     10.5051E-03     115.055E-03    -25.5295E+06    -21.2677E+06     11.1455E+06    -28.7101E+06    -50.6639E-03     78.7450E-03    -28.0810E-03     171.699E-03    -50.9337E-03     78.8170E-03    -27.9574E-03     171.124E-03
            1254     11.3654E-03     115.224E-03    -23.4151E+06    -24.1615E+06     14.7570E+06    -35.4442E+06    -60.2001E-03     89.7024E-03    -29.5024E-03     198.753E-03    -60.6463E-03     89.9384E-03    -29.3596E-03     197.872E-03
            1255     12.2176E-03     115.425E-03    -23.2266E+06    -29.6465E+06     15.0135E+06    -43.1712E+06    -73.1100E-03     104.384E-03    -31.2743E-03     232.102E-03    -73.9560E-03     105.001E-03    -31.1226E-03     230.668E-03
            1256     13.0620E-03     115.663E-03    -21.3243E+06    -47.2080E+06     11.1946E+06    -46.2721E+06    -89.7982E-03     123.270E-03    -33.4715E-03     273.811E-03    -91.5271E-03     124.726E-03    -33.3161E-03     271.388E-03
            1257     13.8948E-03     115.954E-03    -17.1474E+06    -29.5981E+06     14.0483E+06    -41.9345E+06    -110.750E-03     146.873E-03    -36.1229E-03     327.045E-03    -114.663E-03     150.584E-03    -35.9849E-03     322.683E-03
            1258     14.7177E-03     116.313E-03    -13.0396E+06    -11.7678E+06     22.4234E+06    -34.0656E+06    -135.252E-03     174.540E-03    -39.2875E-03     394.426E-03    -144.489E-03     183.629E-03    -39.1394E-03     386.171E-03
            1259     15.5265E-03     116.763E-03    -9.06125E+06     47.4369E+06     39.2807E+06    -23.6232E+06    -157.027E-03     199.847E-03    -42.8196E-03     477.154E-03    -179.934E-03     222.781E-03    -42.6788E-03     462.859E-03
            1260     16.3257E-03     117.327E-03    -3.90237E+06     93.9267E+06     96.0613E+06    -14.3393E+06    -161.779E-03     208.767E-03    -46.9888E-03     412.336E-03    -186.176E-03     233.217E-03    -46.6390E-03     400.984E-03
            1261     879.987E-06     115.321E-03    -96.2677E+06    -56.7778E+06    -93.6971E+06    -8.59369E+06    -22.3119E-03     44.4869E-03    -22.1750E-03     7.79351E-03    -22.5752E-03     44.4785E-03    -22.4215E-03     7.68163E-03
            1262     1.76084E-03     115.332E-03    -94.1813E+06    -52.3233E+06    -88.2599E+06    -13.8078E+06    -22.6628E-03     45.0006E-03    -22.3378E-03     14.5758E-03    -22.9301E-03     45.0036E-03    -22.5667E-03     14.3958E-03
            1263     2.64006E-03     115.351E-03    -92.1341E+06    -47.8672E+06    -84.0348E+06    -18.8773E+06    -23.1989E-03     45.7247E-03    -22.5258E-03     22.4731E-03    -23.4687E-03     45.7411E-03    -22.7430E-03     22.2271E-03
            1264     3.51980E-03     115.378E-03    -89.4167E+06    -44.8901E+06    -81.6906E+06    -23.9399E+06    -23.7527E-03     46.4842E-03    -22.7316E-03     31.2153E-03    -24.0169E-03     46.5084E-03    -22.9453E-03     30.9037E-03
            1265     4.39853E-03     115.416E-03    -84.6967E+06    -40.4346E+06    -79.2535E+06    -28.6300E+06    -24.5376E-03     47.4896E-03    -22.9520E-03     41.2691E-03    -24.7882E-03     47.5257E-03    -23.1669E-03     40.8974E-03
            1266     5.27748E-03     115.464E-03    -76.9812E+06    -38.5373E+06    -71.0252E+06    -31.3173E+06    -25.7270E-03     48.9746E-03    -23.2476E-03     53.0246E-03    -25.9536E-03     48.9970E-03    -23.4352E-03     52.6191E-03
            1267     6.15491E-03     115.525E-03    -64.5021E+06    -37.4953E+06    -57.6266E+06    -32.0563E+06    -27.4204E-03     51.0559E-03    -23.6355E-03     66.7442E-03    -27.6053E-03     51.0458E-03    -23.7757E-03     66.3298E-03
            1268     7.03132E-03     115.598E-03    -49.5470E+06    -31.6676E+06    -43.1613E+06    -30.3335E+06    -29.8309E-03     53.9476E-03    -24.1167E-03     82.4715E-03    -29.9713E-03     53.9249E-03    -24.2148E-03     82.0778E-03
            1269     7.90563E-03     115.687E-03    -34.5941E+06    -28.6717E+06    -21.5816E+06    -26.3440E+06    -33.2797E-03     58.0556E-03    -24.7760E-03     100.155E-03    -33.3859E-03     58.0001E-03    -24.7921E-03     99.8044E-03
            1270     8.77586E-03     115.794E-03    -23.5429E+06    -22.5754E+06     679.286E+03    -21.1313E+06    -37.7067E-03     63.3173E-03    -25.6106E-03     120.228E-03    -37.8121E-03     63.2573E-03    -25.5403E-03     119.925E-03
            1271     9.64547E-03     115.921E-03    -19.2160E+06    -12.5617E+06     14.8478E+06    -19.9077E+06    -42.9793E-03     69.5646E-03    -26.5854E-03     142.719E-03    -43.1283E-03     69.5581E-03    -26.4651E-03     142.390E-03
            1272     10.5105E-03     116.072E-03    -20.3818E+06    -11.1171E+06     21.9954E+06    -24.3936E+06    -50.0253E-03     77.7724E-03    -27.7471E-03     168.069E-03    -50.2596E-03     77.8319E-03    -27.5915E-03     167.597E-03
            1273     11.3695E-03     116.250E-03    -21.5356E+06    -9.76932E+06     26.4914E+06    -32.0448E+06    -59.8088E-03     88.9785E-03    -29.1697E-03     197.762E-03    -60.2093E-03     89.1923E-03    -28.9919E-03     197.005E-03
            1274     12.2235E-03     116.462E-03    -20.6090E+06    -18.4950E+06     26.9876E+06    -38.5454E+06    -73.0406E-03     103.985E-03    -30.9446E-03     233.214E-03    -73.7740E-03     104.503E-03    -30.7530E-03     231.965E-03
            1275     13.0681E-03     116.716E-03    -21.7693E+06    -38.7088E+06     21.2370E+06    -44.7121E+06    -90.2656E-03     123.408E-03    -33.1421E-03     276.761E-03    -91.7847E-03     124.653E-03    -32.9482E-03     274.544E-03
            1276     13.9028E-03     117.025E-03    -23.4778E+06    -36.6459E+06     18.7104E+06    -43.9515E+06    -111.839E-03     147.637E-03    -35.7983E-03     332.274E-03    -115.337E-03     150.872E-03    -35.6176E-03     328.139E-03
            1277     14.7236E-03     117.404E-03    -24.9891E+06    -18.9962E+06     24.5885E+06    -39.2452E+06    -137.841E-03     176.799E-03    -38.9583E-03     402.694E-03    -146.328E-03     185.064E-03    -38.7716E-03     394.530E-03
            1278     15.5311E-03     117.876E-03    -20.8808E+06     30.0385E+06     36.8605E+06    -38.0248E+06    -161.548E-03     204.048E-03    -42.5000E-03     484.067E-03    -182.198E-03     224.628E-03    -42.3290E-03     469.349E-03
            1279     16.3330E-03     118.451E-03    -7.25475E+06     62.7864E+06     90.2685E+06    -20.1094E+06    -170.467E-03     217.217E-03    -46.7501E-03     439.644E-03    -194.845E-03     241.544E-03    -46.3793E-03     426.103E-03
            1280     879.345E-06     116.313E-03    -61.6503E+06    -41.4084E+06    -59.8523E+06    -6.98623E+06    -24.0128E-03     47.9486E-03    -23.9358E-03     6.45898E-03    -24.1746E-03     47.9177E-03    -24.0857E-03     6.36588E-03
            1281     1.75750E-03     116.325E-03    -61.3528E+06    -38.8731E+06    -56.8784E+06    -12.1695E+06    -24.4112E-03     48.4835E-03    -24.0723E-03     12.0846E-03    -24.5799E-03     48.4609E-03    -24.2114E-03     11.9220E-03
            1282     2.63631E-03     116.344E-03    -59.7984E+06    -35.1968E+06    -51.6461E+06    -17.3451E+06    -24.9248E-03     49.2067E-03    -24.2819E-03     18.4809E-03    -25.0993E-03     49.1932E-03    -24.4024E-03     18.2485E-03
            1283     3.51389E-03     116.372E-03    -57.4253E+06    -31.7207E+06    -45.3549E+06    -23.2208E+06    -25.5265E-03     50.0561E-03    -24.5297E-03     25.6276E-03    -25.7042E-03     50.0484E-03    -24.6272E-03     25.3165E-03
            1284     4.39165E-03     116.410E-03    -56.2904E+06    -29.4209E+06    -39.9524E+06    -28.2818E+06    -26.1623E-03     50.9583E-03    -24.7960E-03     33.9509E-03    -26.3466E-03     50.9536E-03    -24.8715E-03     33.5722E-03
            1285     5.26826E-03     116.459E-03    -56.4053E+06    -28.8268E+06    -37.2314E+06    -32.8504E+06    -26.7871E-03     51.8438E-03    -25.0567E-03     43.6957E-03    -26.9779E-03     51.8394E-03    -25.1193E-03     43.2569E-03
            1286     6.14537E-03     116.520E-03    -56.9132E+06    -30.2765E+06    -38.1137E+06    -37.4990E+06    -27.7235E-03     53.0363E-03    -25.3128E-03     55.3131E-03    -27.9143E-03     53.0275E-03    -25.3769E-03     54.8142E-03
            1287     7.02174E-03     116.596E-03    -54.1287E+06    -28.3200E+06    -35.7866E+06    -40.6086E+06    -29.3641E-03     54.9910E-03    -25.6269E-03     69.3058E-03    -29.5480E-03     54.9856E-03    -25.6863E-03     68.7669E-03
            1288     7.89621E-03     116.688E-03    -46.2074E+06    -29.9325E+06    -25.4576E+06    -39.9994E+06    -32.0695E-03     58.1547E-03    -26.0853E-03     86.6425E-03    -32.2281E-03     58.1168E-03    -26.1022E-03     86.1102E-03
            1289     8.76955E-03     116.799E-03    -31.3237E+06    -28.3251E+06    -9.76867E+06    -34.9194E+06    -36.0901E-03     62.8048E-03    -26.7146E-03     107.181E-03    -36.2051E-03     62.7366E-03    -26.6770E-03     106.707E-03
            1290     9.63737E-03     116.931E-03    -15.3258E+06    -18.1780E+06     12.1969E+06    -24.1310E+06    -41.6043E-03     69.1708E-03    -27.5665E-03     130.484E-03    -41.7026E-03     69.1154E-03    -27.4569E-03     130.125E-03
            1291     10.5023E-03     117.087E-03    -7.63779E+06    -3.95898E+06     33.7360E+06    -17.6092E+06    -49.0467E-03     77.7231E-03    -28.6765E-03     157.235E-03    -49.2022E-03     77.7402E-03    -28.4910E-03     156.900E-03
            1292     11.3636E-03     117.274E-03    -7.88261E+06     6.49657E+06     43.3205E+06    -22.8513E+06    -58.9118E-03     88.9665E-03    -30.0548E-03     187.902E-03    -59.2038E-03     89.1289E-03    -29.8361E-03     187.358E-03
            1293     12.2163E-03     117.496E-03    -13.0652E+06    -8.44945E+06      40.708E+06    -28.9990E+06    -72.0959E-03     103.881E-03    -31.7855E-03     225.257E-03    -72.6466E-03     104.239E-03    -31.5507E-03     224.309E-03
            1294     13.0599E-03     117.764E-03    -18.4159E+06    -20.8556E+06     37.1178E+06    -35.2499E+06    -89.2571E-03     123.186E-03    -33.9293E-03     271.502E-03    -90.4500E-03     124.135E-03    -33.6867E-03     269.724E-03
            1295     13.8934E-03     118.087E-03    -21.7543E+06    -40.8417E+06     31.2306E+06    -37.1121E+06    -111.120E-03     147.645E-03    -36.5251E-03     329.533E-03    -113.909E-03     150.125E-03    -36.2782E-03     326.011E-03
            1296     14.7176E-03     118.487E-03    -13.4511E+06    -10.2586E+06     48.3709E+06    -39.0578E+06    -137.987E-03     177.614E-03    -39.6270E-03     401.437E-03    -145.053E-03     184.460E-03    -39.3508E-03     393.979E-03
            1297     15.5313E-03     118.983E-03     4.29415E+06     21.7254E+06     51.9738E+06    -34.7181E+06    -162.306E-03     205.378E-03    -43.0713E-03     476.823E-03    -179.303E-03     222.319E-03    -42.8491E-03     462.830E-03
            1298     16.3307E-03     119.571E-03     6.03904E+06     27.3946E+06     92.4140E+06    -10.3527E+06    -170.072E-03     217.236E-03    -47.1632E-03     459.112E-03    -193.187E-03     240.213E-03    -46.7496E-03     444.490E-03
            1299     875.835E-06     117.310E-03    -31.1996E+06    -28.4776E+06    -30.1987E+06    -5.53991E+06    -27.5134E-03     54.8606E-03    -27.3471E-03     4.76538E-03    -27.5854E-03     54.8067E-03    -27.4116E-03     4.68805E-03
            1300     1.75221E-03     117.322E-03    -30.5212E+06    -26.2022E+06    -27.2541E+06    -10.5946E+06    -27.8656E-03     55.4045E-03    -27.5389E-03     8.87694E-03    -27.9423E-03     55.3573E-03    -27.5929E-03     8.72919E-03
            1301     2.62721E-03     117.342E-03    -29.3090E+06    -23.3486E+06    -21.1989E+06    -15.5923E+06    -28.4069E-03     56.1821E-03    -27.7752E-03     13.4895E-03    -28.4914E-03     56.1395E-03    -27.8049E-03     13.2713E-03
            1302     3.50246E-03     117.372E-03    -28.5039E+06    -19.8420E+06    -14.7891E+06    -19.7943E+06    -29.0865E-03     57.1538E-03    -28.0673E-03     18.7416E-03    -29.1829E-03     57.1197E-03    -28.0711E-03     18.4628E-03
            1303     4.37623E-03     117.410E-03    -28.3474E+06    -18.7244E+06    -10.4352E+06    -23.4095E+06    -29.7658E-03     58.1560E-03    -28.3902E-03     24.8600E-03    -29.8713E-03     58.1228E-03    -28.3741E-03     24.5282E-03
            1304     5.25039E-03     117.459E-03    -28.0189E+06    -17.8937E+06    -6.50295E+06    -27.1490E+06    -30.4341E-03     59.1612E-03    -28.7271E-03     32.0063E-03    -30.5475E-03     59.1282E-03    -28.6930E-03     31.6202E-03
            1305     6.12346E-03     117.520E-03    -27.6232E+06    -18.5498E+06    -1.88189E+06    -31.5647E+06    -31.0368E-03     60.1077E-03    -29.0710E-03     40.6274E-03    -31.1567E-03     60.0669E-03    -29.0134E-03     40.1794E-03
            1306     6.99591E-03     117.596E-03    -29.6063E+06    -19.7932E+06    -215.229E+03    -35.5711E+06    -31.7483E-03     61.1492E-03    -29.4009E-03     51.7231E-03    -31.8814E-03     61.1052E-03    -29.3303E-03     51.2214E-03
            1307     7.86889E-03     117.689E-03    -32.8148E+06    -23.6491E+06    -2.70477E+06    -39.5373E+06    -33.0716E-03     62.8105E-03    -29.7389E-03     65.9797E-03    -33.2136E-03     62.7577E-03    -29.6706E-03     65.4273E-03
            1308     8.73974E-03     117.802E-03    -33.8660E+06    -28.5530E+06    -5.54590E+06    -42.8427E+06    -35.4201E-03     65.5682E-03    -30.1481E-03     83.9127E-03    -35.5580E-03     65.4989E-03    -30.0853E-03     83.3193E-03
            1309     9.61046E-03     117.938E-03    -27.2010E+06    -30.5481E+06     3.10119E+06    -38.8821E+06    -39.8379E-03     70.5943E-03    -30.7563E-03     106.403E-03    -39.9573E-03     70.4986E-03    -30.6571E-03     105.856E-03
            1310     10.4757E-03     118.101E-03    -12.6566E+06    -11.1378E+06     24.4944E+06    -27.2269E+06    -46.7636E-03     78.4080E-03    -31.6444E-03     133.471E-03    -46.8866E-03     78.3760E-03    -31.4875E-03     133.050E-03
            1311     11.3330E-03     118.294E-03    -5.30111E+06     8.73607E+06     46.1116E+06    -15.0658E+06    -56.3675E-03     89.2451E-03    -32.8776E-03     165.858E-03    -56.5652E-03     89.3225E-03    -32.6520E-03     165.520E-03
            1312     12.1855E-03     118.525E-03    -7.13255E+06     6.77124E+06     58.4034E+06    -15.7700E+06    -69.4346E-03     103.942E-03    -34.5075E-03     204.783E-03    -69.8072E-03     104.145E-03    -34.2149E-03     204.223E-03
            1313     13.0313E-03     118.805E-03    -5.39923E+06    -4.20839E+06     59.0402E+06    -25.4094E+06    -85.8748E-03     122.404E-03    -36.5289E-03     250.774E-03    -86.6270E-03     122.952E-03    -36.2197E-03     249.560E-03
            1314     13.8672E-03     119.143E-03     5.23986E+06    -37.2636E+06     51.0990E+06    -29.6274E+06    -107.677E-03     146.685E-03    -39.0082E-03     307.692E-03    -109.438E-03     148.186E-03    -38.7063E-03     305.060E-03
            1315     14.6900E-03     119.558E-03     12.7173E+06     1.39253E+06     65.7855E+06    -32.4897E+06    -136.069E-03     178.150E-03    -42.0807E-03     375.667E-03    -141.013E-03     182.956E-03    -41.7723E-03     369.561E-03
            1316     15.4946E-03     120.072E-03    -2.99054E+06     9.53223E+06     42.7870E+06    -30.3587E+06    -157.859E-03     203.382E-03    -45.5228E-03     439.824E-03    -169.767E-03     215.188E-03    -45.3184E-03     428.324E-03
            1317     16.2962E-03     120.661E-03    -19.1010E+06    -4.63581E+06     49.7380E+06    -18.3228E+06    -144.832E-03     193.670E-03    -48.8379E-03     454.786E-03    -162.980E-03     211.597E-03    -48.5548E-03     443.593E-03
            1318     871.740E-06     118.316E-03    -3.30083E+06    -17.3323E+06    -2.00928E+06    -4.90292E+06    -32.9828E-03     65.8280E-03    -32.8452E-03     2.73925E-03    -32.9733E-03     65.7475E-03    -32.8254E-03     2.66640E-03
            1319     1.74237E-03     118.328E-03     -2.5504E+06    -15.3050E+06     1.80775E+06    -8.94933E+06    -33.3467E-03     66.3958E-03    -33.0490E-03     5.00908E-03    -33.3426E-03     66.3193E-03    -33.0141E-03     4.87528E-03
            1320     2.61352E-03     118.350E-03    -2.28235E+06    -13.0890E+06     6.36310E+06    -12.4939E+06    -33.9901E-03     67.3104E-03    -33.3203E-03     7.63892E-03    -33.9954E-03     67.2389E-03    -33.2662E-03     7.44965E-03
            1321     3.48301E-03     118.379E-03    -2.02459E+06    -11.4474E+06     11.1972E+06    -15.2490E+06    -34.8008E-03     68.4823E-03    -33.6815E-03     10.5197E-03    -34.8158E-03     68.4130E-03    -33.6060E-03     10.2839E-03
            1322     4.35270E-03     118.419E-03     -1.5177E+06    -9.33122E+06     16.9738E+06    -18.1833E+06    -35.6967E-03     69.8131E-03    -34.1163E-03     13.8644E-03    -35.7230E-03     69.7471E-03    -34.0157E-03     13.5786E-03
            1323     5.22039E-03     118.468E-03    -2.42058E+06    -9.11728E+06     21.4993E+06    -20.7789E+06    -36.5501E-03     71.1473E-03    -34.5972E-03     18.1125E-03    -36.5907E-03     71.0800E-03    -34.4730E-03     17.7809E-03
            1324     6.08729E-03     118.530E-03    -4.60272E+06    -9.45167E+06     24.0418E+06     -23.119E+06    -37.2108E-03     72.2998E-03    -35.0890E-03     23.4916E-03    -37.2693E-03     72.2334E-03    -34.9484E-03     23.1181E-03
            1325     6.95448E-03     118.605E-03    -7.21931E+06    -11.0779E+06     25.2979E+06    -25.5280E+06    -37.8646E-03     73.4468E-03    -35.5822E-03     30.6933E-03    -37.9403E-03     73.3780E-03    -35.4291E-03     30.2785E-03
            1326     7.81978E-03     118.698E-03    -9.95900E+06    -12.3437E+06     26.3203E+06    -29.1189E+06    -38.4346E-03     74.5135E-03    -36.0790E-03     40.0684E-03    -38.5282E-03     74.4450E-03    -35.9150E-03     39.6005E-03
            1327     8.68566E-03     118.809E-03    -15.5153E+06    -19.4493E+06     23.5326E+06    -32.5357E+06    -39.2737E-03     75.8565E-03    -36.5828E-03     52.5728E-03    -39.3853E-03     75.7684E-03    -36.4144E-03     52.0583E-03
            1328     9.54954E-03     118.946E-03    -23.4613E+06    -27.6960E+06     17.4066E+06    -36.5399E+06    -41.2359E-03     78.3726E-03    -37.1367E-03     70.1457E-03    -41.3696E-03     78.2675E-03    -36.9754E-03     69.5835E-03
            1329     10.4115E-03     119.112E-03    -26.4038E+06    -22.5965E+06     19.0023E+06    -36.9046E+06    -44.9908E-03     82.8317E-03    -37.8409E-03     93.3104E-03    -45.1519E-03     82.7581E-03    -37.6749E-03     92.7494E-03
            1330     11.2727E-03     119.310E-03    -15.8046E+06    -9.88387E+06     41.3174E+06    -24.7193E+06    -52.1943E-03     91.0671E-03    -38.8727E-03     123.209E-03    -52.3655E-03     91.0226E-03    -38.6289E-03     122.793E-03
            1331     12.1247E-03     119.551E-03     1.27307E+06     10.1733E+06     75.7152E+06    -12.3707E+06    -63.6770E-03     104.022E-03    -40.3448E-03     159.997E-03    -63.8930E-03     104.057E-03    -39.9828E-03     159.662E-03
            1332     12.9642E-03     119.838E-03     7.40664E+06     15.4793E+06     84.7874E+06    -17.0700E+06    -79.0968E-03     121.326E-03    -42.2289E-03     202.740E-03    -79.4737E-03     121.536E-03    -41.8382E-03     202.077E-03
            1333     13.7958E-03     120.183E-03    -1.18672E+06    -24.1760E+06     60.9452E+06    -28.5627E+06    -101.407E-03     146.075E-03    -44.6675E-03     254.718E-03    -102.325E-03     146.722E-03    -44.3260E-03     253.008E-03
            1334     14.6118E-03     120.614E-03    -15.8616E+06    -5.54389E+06     64.2497E+06    -32.9506E+06    -130.037E-03     178.027E-03    -47.9900E-03     312.219E-03    -132.870E-03     180.589E-03    -47.6377E-03     307.938E-03
            1335     15.4108E-03     121.139E-03    -22.9460E+06     11.3472E+06     65.1532E+06    -28.2098E+06    -137.460E-03     189.035E-03    -51.5742E-03     364.865E-03    -143.665E-03     195.007E-03    -51.2316E-03     357.799E-03
            1336     16.2088E-03     121.710E-03    -14.1265E+06    -18.0061E+06     25.6425E+06    -22.8994E+06    -85.8456E-03     139.001E-03    -53.1552E-03     399.274E-03    -94.6621E-03     147.652E-03    -52.9804E-03     394.612E-03
            1337     864.535E-06     119.335E-03     22.3785E+06    -8.29466E+06     24.1798E+06    -3.55143E+06    -40.7930E-03     81.3505E-03    -40.5576E-03     592.450E-06    -40.7075E-03     81.2384E-03    -40.4571E-03     533.593E-06
            1338     1.72958E-03     119.349E-03     22.3489E+06    -7.11420E+06     26.7084E+06    -6.10173E+06    -41.2769E-03     82.1470E-03    -40.8701E-03     661.753E-06    -41.1976E-03     82.0372E-03    -40.7586E-03     557.848E-06
            1339     2.59297E-03     119.370E-03     22.0630E+06    -5.83166E+06     30.3468E+06    -8.29747E+06    -42.0592E-03     83.3025E-03    -41.2433E-03     778.797E-06    -41.9891E-03     83.1946E-03    -41.1151E-03     632.708E-06
            1340     3.45624E-03     119.402E-03     21.6331E+06    -4.35277E+06     35.1708E+06    -10.4767E+06    -43.0711E-03     84.8030E-03    -41.7318E-03     1.05207E-03    -43.0133E-03     84.6967E-03    -41.5810E-03     862.379E-06
            1341     4.31714E-03     119.441E-03     20.5093E+06    -3.50892E+06     39.8744E+06    -11.6692E+06    -44.2010E-03     86.5219E-03    -42.3209E-03     1.58576E-03    -44.1581E-03     86.4157E-03    -42.1462E-03     1.36350E-03
            1342     5.17749E-03     119.493E-03     19.0308E+06    -3.07270E+06     43.5767E+06    -12.4290E+06    -45.2417E-03     88.2195E-03    -42.9778E-03     2.56908E-03    -45.2144E-03     88.1135E-03    -42.7830E-03     2.31858E-03
            1343     6.03702E-03     119.554E-03     16.6569E+06    -3.49623E+06     46.0096E+06    -13.5789E+06    -46.5474E-03     90.2507E-03    -43.7033E-03     4.22370E-03    -46.5377E-03     90.1440E-03    -43.4923E-03     3.93820E-03
            1344     6.89338E-03     119.631E-03     14.2289E+06    -3.83640E+06     48.9944E+06    -15.2294E+06    -47.8143E-03     92.3317E-03    -44.5173E-03     6.60891E-03    -47.8243E-03     92.2246E-03    -44.2874E-03     6.28035E-03
            1345     7.74909E-03     119.721E-03     10.4473E+06    -5.82807E+06     50.1319E+06    -16.3328E+06    -48.6436E-03     94.0300E-03    -45.3864E-03     10.0638E-03    -48.6760E-03     93.9192E-03    -45.1425E-03     9.70009E-03
            1346     8.60284E-03     119.833E-03     6.55534E+06    -9.87749E+06     49.9909E+06    -18.0917E+06    -49.3577E-03     95.6554E-03    -46.2977E-03     15.6255E-03    -49.4094E-03     95.5336E-03    -46.0429E-03     15.2210E-03
            1347     9.45506E-03     119.966E-03     3.78659E+06    -16.3737E+06     49.6732E+06    -20.9003E+06    -49.6219E-03     96.8727E-03    -47.2508E-03     24.3054E-03    -49.6837E-03     96.7260E-03    -46.9842E-03     23.8528E-03
            1348     10.3074E-03     120.128E-03     1.76648E+06    -17.8074E+06     51.9126E+06    -25.4409E+06    -50.3035E-03     98.5710E-03    -48.2675E-03     37.4826E-03    -50.3830E-03     98.4208E-03    -47.9847E-03     36.9665E-03
            1349     11.1543E-03     120.326E-03     4.21266E+06    -18.9601E+06     59.8144E+06    -29.4949E+06    -53.1318E-03     102.600E-03    -49.4682E-03     56.9853E-03    -53.2157E-03     102.435E-03    -49.1478E-03     56.4199E-03
            1350     11.9976E-03     120.568E-03     10.4640E+06    -9.63306E+06     83.6457E+06    -19.3762E+06    -58.7575E-03     109.787E-03    -51.0296E-03     83.5669E-03    -58.8670E-03     109.633E-03    -50.6125E-03     83.1381E-03
            1351     12.8369E-03     120.860E-03     16.8337E+06     22.4978E+06     97.4037E+06    -7.36655E+06    -69.0211E-03     121.994E-03    -52.9727E-03     116.877E-03    -69.2028E-03     122.009E-03    -52.5427E-03     116.546E-03
            1352     13.6589E-03     121.213E-03     16.3538E+06     2.44973E+06     89.1888E+06     882.253E+03    -89.5491E-03     145.244E-03    -55.6949E-03     159.610E-03    -89.8926E-03     145.372E-03    -55.2762E-03     158.979E-03
            1353     14.4566E-03     121.649E-03     15.4126E+06     7.69368E+06     108.795E+06    -1.90381E+06    -111.942E-03     171.415E-03    -59.4723E-03     209.534E-03    -112.956E-03     172.177E-03    -58.9618E-03     207.713E-03
            1354     15.2268E-03     122.173E-03     30.8549E+06     31.1495E+06     113.627E+06    -3.95022E+06    -95.0355E-03     157.801E-03    -62.7655E-03     248.625E-03    -96.7856E-03     159.428E-03    -62.2873E-03     246.231E-03
            1355     16.0760E-03     122.668E-03     27.4039E+06    -4.48472E+06     66.6628E+06     5.09884E+06    -20.7394E-03     83.7820E-03    -63.0426E-03     244.305E-03    -22.4629E-03     85.3482E-03    -62.7425E-03     243.604E-03
            1356     856.493E-06     120.374E-03     43.6225E+06    -2.79647E+06     44.4173E+06    -1.63095E+06    -51.1005E-03     102.330E-03    -51.2298E-03    -2.50684E-03    -50.9486E-03     102.183E-03    -51.0669E-03    -2.54035E-03
            1357     1.71149E-03     120.386E-03     42.9526E+06    -2.36182E+06     46.5255E+06    -2.79190E+06    -51.8493E-03     103.264E-03    -51.4148E-03    -4.56537E-03    -51.7045E-03     103.116E-03    -51.2411E-03    -4.62499E-03
            1358     2.56618E-03     120.411E-03     42.2330E+06    -1.21254E+06      50.417E+06    -3.82059E+06    -52.7862E-03     104.668E-03    -51.8818E-03    -6.83208E-03    -52.6523E-03     104.521E-03    -51.6892E-03    -6.91800E-03
            1359     3.41905E-03     120.441E-03     40.9129E+06    -438.774E+03     54.3961E+06    -4.15356E+06    -53.9904E-03     106.487E-03    -52.4968E-03    -9.04514E-03    -53.8700E-03     106.340E-03    -52.2835E-03    -9.14935E-03
            1360     4.27113E-03     120.485E-03     39.3587E+06    -711.788E+03     57.8368E+06    -4.20500E+06    -55.4954E-03     108.753E-03    -53.2580E-03    -11.4608E-03    -55.3878E-03     108.601E-03    -53.0249E-03    -11.5818E-03
            1361     5.12106E-03     120.535E-03     38.1610E+06    -572.791E+03     62.2945E+06    -4.18883E+06    -57.4794E-03     111.676E-03    -54.1962E-03    -14.3852E-03    -57.3852E-03     111.518E-03    -53.9392E-03    -14.5255E-03
            1362     5.96788E-03     120.601E-03     36.8674E+06     458.835E+03     67.5787E+06    -4.24411E+06    -59.6743E-03     115.003E-03    -55.3289E-03    -17.3432E-03    -59.5964E-03     114.844E-03    -55.0451E-03    -17.5058E-03
            1363     6.81246E-03     120.678E-03     34.1346E+06    -465.505E+03     70.5723E+06    -4.02172E+06    -61.8816E-03     118.518E-03    -56.6359E-03    -20.6991E-03    -61.8213E-03     118.351E-03    -56.3319E-03    -20.8839E-03
            1364     7.65346E-03     120.771E-03     32.1715E+06    -2.04412E+06     74.0122E+06    -4.06621E+06    -64.1215E-03     122.246E-03    -58.1242E-03    -24.4107E-03    -64.0751E-03     122.065E-03    -57.7978E-03    -24.6257E-03
            1365     8.49056E-03     120.881E-03     30.5500E+06    -3.56448E+06     77.8069E+06    -5.29997E+06    -65.7900E-03     125.575E-03    -59.7849E-03    -28.0885E-03    -65.7566E-03     125.379E-03    -59.4350E-03    -28.3523E-03
            1366     9.32431E-03     121.013E-03     28.8991E+06    -6.86265E+06     80.8770E+06    -8.45953E+06    -66.7042E-03     128.305E-03    -61.6003E-03    -31.7743E-03    -66.6815E-03     128.084E-03    -61.2279E-03    -32.1149E-03
            1367     10.1531E-03     121.170E-03     26.4084E+06    -9.58985E+06     81.3725E+06    -10.9125E+06    -66.8923E-03     130.470E-03    -63.5778E-03    -33.9759E-03    -66.8834E-03     130.231E-03    -63.1953E-03    -34.3822E-03
            1368     10.9795E-03     121.363E-03     19.6724E+06    -6.44344E+06     79.7928E+06    -16.2853E+06    -66.0928E-03     131.855E-03    -65.7620E-03    -33.3094E-03    -66.1245E-03     131.633E-03    -65.3822E-03    -33.8147E-03
            1369     11.8003E-03     121.595E-03     9.76381E+06    -22.0234E+06     77.8221E+06    -15.6284E+06    -64.9812E-03     133.263E-03    -68.2817E-03    -29.7646E-03    -65.0410E-03     132.967E-03    -67.8748E-03    -30.2845E-03
            1370     12.6098E-03     121.879E-03     12.1516E+06     1.78661E+06     81.3956E+06    -12.3020E+06    -65.2710E-03     136.534E-03    -71.2632E-03    -23.0260E-03    -65.3671E-03     136.332E-03    -70.8764E-03    -23.5138E-03
            1371     13.4117E-03     122.224E-03     17.6740E+06     1.83301E+06     86.2452E+06     2.97715E+06    -68.3231E-03     143.335E-03    -75.0122E-03    -465.864E-06    -68.4330E-03     143.150E-03    -74.6093E-03    -799.445E-06
            1372     14.1813E-03     122.668E-03     22.7230E+06     8.55388E+06     107.190E+06     4.03161E+06    -62.0040E-03     141.034E-03    -79.0297E-03     51.8521E-03    -62.2085E-03     140.968E-03    -78.5391E-03     51.4412E-03
            1373     14.9739E-03     123.154E-03     12.7871E+06     28.9684E+06     76.4261E+06    -4.99952E+06    -27.0278E-03     108.287E-03    -81.2592E-03     94.1517E-03    -27.2713E-03     108.439E-03    -80.9376E-03     93.7607E-03
            1374     15.8018E-03     123.581E-03     1.08904E+06    -2.66123E+06     27.8538E+06     10.8691E+06     23.4447E-03     57.1839E-03    -80.6286E-03     74.2534E-03     23.3536E-03     57.1731E-03    -80.4870E-03     74.3225E-03
            1375     16.1671E-03     61.7653E-03    -6.19575E+06     160.715E+06     116.538E+06     540.342E+03    -74.9985E-03     131.454E-03    -56.4556E-03     355.442E-03    -96.9571E-03     153.623E-03    -56.0970E-03     360.049E-03
            1376     15.3157E-03     61.2607E-03    -13.3082E+06     141.619E+06     105.530E+06     842.810E+03    -83.0403E-03     139.521E-03    -56.4808E-03     410.343E-03    -105.230E-03     161.860E-03    -56.1392E-03     408.213E-03
            1377     14.4653E-03     60.9043E-03    -17.7248E+06     103.097E+06     66.8646E+06    -345.453E+03    -71.2648E-03     127.650E-03    -56.3850E-03     282.456E-03    -79.1992E-03     135.693E-03    -56.1745E-03     279.497E-03
            1378     13.6128E-03     60.6839E-03    -22.5010E+06     66.4765E+06     15.4545E+06    -428.101E+03    -62.2528E-03     118.483E-03    -56.2304E-03     186.860E-03    -65.2314E-03     121.573E-03    -56.2169E-03     184.808E-03
            1379     12.7591E-03     60.5265E-03    -27.4138E+06     29.5215E+06    -12.1227E+06     368.339E+03    -59.7213E-03     115.916E-03    -56.1947E-03     138.571E-03    -61.2368E-03     117.474E-03    -56.2584E-03     137.031E-03
            1380     11.9111E-03     60.4052E-03    -28.5517E+06    -14.3359E+06    -12.9276E+06     478.816E+03    -59.0537E-03     115.320E-03    -56.2666E-03     114.748E-03    -59.9648E-03     116.117E-03    -56.2691E-03     113.526E-03
            1381     11.0599E-03     60.2964E-03    -27.6152E+06    -58.0453E+06    -10.9858E+06     199.736E+03    -58.4925E-03     114.833E-03    -56.3406E-03     102.627E-03    -59.0743E-03     115.143E-03    -56.2713E-03     101.628E-03
            1382     10.2093E-03     60.1979E-03    -27.5701E+06    -88.9543E+06    -10.5085E+06     139.778E+03    -58.1542E-03     114.556E-03    -56.4015E-03     94.7758E-03    -58.5368E-03     114.555E-03    -56.2851E-03     93.9488E-03
            1383     9.35801E-03     60.1069E-03    -29.1096E+06    -110.540E+06    -10.4737E+06     387.344E+03    -57.9965E-03     114.450E-03    -56.4531E-03     87.6055E-03    -58.2492E-03     114.237E-03    -56.3030E-03     86.9216E-03
            1384     8.50707E-03     60.0219E-03    -30.9800E+06    -127.270E+06    -10.7138E+06     330.676E+03    -57.8968E-03     114.385E-03    -56.4885E-03     79.8941E-03    -58.0559E-03     114.014E-03    -56.3126E-03     79.3270E-03
            1385     7.65655E-03     59.9453E-03    -33.0899E+06    -138.054E+06    -12.3065E+06     606.914E+03    -57.6328E-03     114.136E-03    -56.5031E-03     72.2678E-03    -57.7265E-03     113.658E-03    -56.3164E-03     71.8063E-03
            1386     6.80575E-03     59.8766E-03     -35.492E+06    -145.743E+06    -14.9592E+06     840.407E+03    -57.4456E-03     113.952E-03    -56.5069E-03     65.0112E-03    -57.4938E-03     113.401E-03    -56.3189E-03     64.6393E-03
            1387     5.95524E-03     59.8149E-03    -37.9830E+06    -151.052E+06    -18.0044E+06     638.467E+03    -57.2157E-03     113.719E-03    -56.5033E-03     57.2568E-03    -57.2323E-03     113.117E-03    -56.3192E-03     56.9568E-03
            1388     5.10429E-03     59.7611E-03    -41.2906E+06    -155.848E+06    -23.0093E+06     735.771E+03    -56.9267E-03     113.425E-03    -56.4980E-03     49.6083E-03    -56.9221E-03     112.787E-03    -56.3272E-03     49.3735E-03
            1389     4.25326E-03     59.7137E-03    -44.2731E+06    -160.731E+06    -29.2721E+06     671.853E+03    -56.7850E-03     113.278E-03    -56.4929E-03     41.7796E-03    -56.7622E-03     112.612E-03    -56.3420E-03     41.5975E-03
            1390     3.40289E-03     59.6783E-03    -46.6487E+06    -164.537E+06    -36.1387E+06     758.045E+03    -56.6247E-03     113.112E-03    -56.4870E-03     33.9152E-03    -56.5857E-03     112.428E-03    -56.3615E-03     33.7818E-03
            1391     2.55168E-03     59.6450E-03    -49.0640E+06    -168.786E+06    -43.2240E+06    -165.389E+03    -56.5165E-03     113.009E-03    -56.4930E-03     25.4809E-03    -56.4646E-03     112.310E-03    -56.3932E-03     25.3747E-03
            1392     1.70139E-03     59.6272E-03    -50.7690E+06    -171.210E+06    -47.2409E+06    -373.127E+03    -56.6158E-03     113.094E-03    -56.4782E-03     17.1447E-03    -56.5576E-03     112.385E-03    -56.3926E-03     17.0713E-03
            1393     850.401E-06     59.6101E-03    -52.4038E+06    -173.356E+06    -50.7141E+06    -38.7649E+03    -56.7488E-03     112.911E-03    -56.1619E-03     9.38978E-03    -56.6870E-03     112.195E-03    -56.0881E-03     9.35149E-03
            1394     16.1673E-03     60.7043E-03    -5.52197E+06     160.525E+06     116.495E+06     845.542E+03    -75.4163E-03     131.837E-03    -56.4211E-03     352.614E-03    -97.2932E-03     153.927E-03    -56.0633E-03     357.033E-03
            1395     15.3167E-03     60.1997E-03    -11.7513E+06     142.769E+06     105.933E+06     15.0496E+03    -82.9811E-03     139.421E-03    -56.4396E-03     412.227E-03    -105.357E-03     161.955E-03    -56.0999E-03     410.059E-03
            1396     14.4638E-03     59.8442E-03    -17.7652E+06     102.382E+06     66.9533E+06    -155.150E+03    -71.0109E-03     127.376E-03    -56.3651E-03     282.859E-03    -78.9397E-03     135.411E-03    -56.1531E-03     279.922E-03
            1397     13.6131E-03     59.6231E-03    -21.8186E+06     64.6912E+06     20.9960E+06     1.88658E+06    -62.5493E-03     118.787E-03    -56.2375E-03     186.927E-03    -65.5341E-03     121.863E-03    -56.1946E-03     184.896E-03
            1398     12.7637E-03     59.4677E-03    -23.5323E+06     31.1177E+06    -5.69197E+06     2.28933E+06    -59.7246E-03     115.911E-03    -56.1864E-03     138.680E-03    -61.2298E-03     117.460E-03    -56.2259E-03     137.166E-03
            1399     11.9102E-03     59.3422E-03    -25.1208E+06    -12.7913E+06    -11.1795E+06    -279.228E+03    -58.8058E-03     115.049E-03    -56.2433E-03     114.488E-03    -59.6977E-03     115.839E-03    -56.2442E-03     113.266E-03
            1400     11.0603E-03     59.2367E-03    -26.3758E+06    -59.1299E+06    -10.9578E+06    -862.553E+03    -58.2208E-03     114.555E-03    -56.3338E-03     102.434E-03    -58.7923E-03     114.854E-03    -56.2646E-03     101.428E-03
            1401     10.2082E-03     59.1370E-03    -27.7751E+06    -90.0431E+06    -11.1813E+06     56.2050E+03    -58.0629E-03     114.471E-03    -56.4083E-03     95.0998E-03    -58.4433E-03     114.466E-03    -56.2934E-03     94.2754E-03
            1402     9.35781E-03     59.0460E-03    -29.3302E+06    -110.210E+06    -10.3115E+06     304.409E+03    -58.2769E-03     114.731E-03    -56.4544E-03     87.6889E-03    -58.5325E-03     114.521E-03    -56.3036E-03     86.9995E-03
            1403     8.50767E-03     58.9606E-03    -31.1852E+06    -127.253E+06    -11.0775E+06     439.788E+03    -57.8680E-03     114.344E-03    -56.4756E-03     79.8005E-03    -58.0276E-03     113.973E-03    -56.3013E-03     79.2350E-03
            1404     7.65637E-03     58.8854E-03    -33.4871E+06    -138.762E+06    -12.9930E+06     650.454E+03    -57.4524E-03     113.953E-03    -56.5008E-03     72.3802E-03    -57.5455E-03     113.472E-03    -56.3160E-03     71.9222E-03
            1405     6.80535E-03     58.8151E-03    -35.5691E+06    -145.715E+06    -15.0086E+06     568.932E+03    -57.4136E-03     113.933E-03    -56.5197E-03     65.1690E-03    -57.4622E-03     113.382E-03    -56.3318E-03     64.7942E-03
            1406     5.95493E-03     58.7540E-03    -37.9875E+06    -150.293E+06    -17.3325E+06     785.004E+03    -57.3317E-03     113.846E-03    -56.5144E-03     57.5310E-03    -57.3507E-03     113.247E-03    -56.3281E-03     57.2322E-03
            1407     5.10467E-03     58.7000E-03    -41.2663E+06    -155.873E+06    -23.6411E+06     589.983E+03    -56.9430E-03     113.438E-03    -56.4954E-03     49.6840E-03    -56.9374E-03     112.802E-03    -56.3278E-03     49.4471E-03
            1408     4.25317E-03     58.6547E-03    -44.2101E+06    -160.952E+06    -29.8080E+06     380.513E+03    -56.7077E-03     113.206E-03    -56.4988E-03     41.8131E-03    -56.6832E-03     112.540E-03    -56.3503E-03     41.6281E-03
            1409     3.40258E-03     58.6148E-03    -46.5224E+06    -163.733E+06    -35.1089E+06     251.276E+03    -56.7600E-03     113.250E-03    -56.4901E-03     33.6249E-03    -56.7233E-03     112.569E-03    -56.3608E-03     33.4830E-03
            1410     2.55227E-03     58.5874E-03    -48.8902E+06    -167.930E+06    -42.2076E+06     384.231E+03    -56.5196E-03     112.992E-03    -56.4726E-03     25.3235E-03    -56.4696E-03     112.295E-03    -56.3693E-03     25.2243E-03
            1411     1.70096E-03     58.5629E-03    -51.7292E+06    -172.055E+06    -48.6248E+06     117.227E+03    -56.4939E-03     112.970E-03    -56.4763E-03     17.5402E-03    -56.4371E-03     112.260E-03    -56.3950E-03     17.4742E-03
            1412     851.561E-06     58.5525E-03    -52.6821E+06    -174.175E+06    -52.4097E+06    -503.055E+03    -56.4510E-03     112.973E-03    -56.5223E-03     9.27508E-03    -56.3876E-03     112.256E-03    -56.4554E-03     9.23000E-03
            1413     16.1713E-03     59.6512E-03    -6.04785E+06     160.264E+06     116.728E+06    -379.374E+03    -75.7966E-03     132.238E-03    -56.4415E-03     352.849E-03    -97.7594E-03     154.410E-03    -56.0815E-03     357.199E-03
            1414     15.3152E-03     59.1375E-03    -10.8603E+06     143.425E+06     106.423E+06     800.947E+03    -83.4688E-03     139.911E-03    -56.4421E-03     412.707E-03    -105.902E-03     162.506E-03    -56.1022E-03     410.430E-03
            1415     14.4652E-03     58.7849E-03    -17.6568E+06     102.172E+06     66.5485E+06     1.22356E+06    -70.7830E-03     127.145E-03    -56.3624E-03     282.836E-03    -78.6797E-03     135.149E-03    -56.1522E-03     279.953E-03
            1416     13.6131E-03     58.5616E-03    -21.9906E+06     62.9126E+06     25.8329E+06     1.19006E+06    -62.7753E-03     119.041E-03    -56.2658E-03     187.988E-03    -65.7796E-03     122.116E-03    -56.1960E-03     185.939E-03
            1417     12.7610E-03     58.4063E-03    -22.4520E+06     32.3166E+06     818.801E+03     1.12385E+06    -59.9593E-03     116.167E-03    -56.2072E-03     139.735E-03    -61.4742E-03     117.714E-03    -56.2174E-03     138.199E-03
            1418     11.9120E-03     58.2825E-03    -22.3286E+06    -10.8491E+06    -9.08404E+06     807.886E+03    -58.6498E-03     114.890E-03    -56.2400E-03     115.140E-03    -59.5344E-03     115.683E-03    -56.2373E-03     113.936E-03
            1419     11.0595E-03     58.1753E-03    -24.8669E+06    -59.8198E+06    -10.1643E+06     519.307E+03    -58.2650E-03     114.600E-03    -56.3349E-03     102.198E-03    -58.8290E-03     114.893E-03    -56.2629E-03     101.209E-03
            1420     10.2090E-03     58.0778E-03    -27.5168E+06    -89.4675E+06    -10.6640E+06     381.150E+03    -58.2636E-03     114.660E-03    -56.3967E-03     94.9208E-03    -58.6451E-03     114.657E-03    -56.2804E-03     94.0961E-03
            1421     9.35814E-03     57.9830E-03    -29.1053E+06    -110.892E+06    -10.3525E+06     321.721E+03    -57.9952E-03     114.440E-03    -56.4448E-03     87.5747E-03    -58.2470E-03     114.225E-03    -56.2935E-03     86.8908E-03
            1422     8.50719E-03     57.9012E-03    -30.8828E+06    -127.744E+06    -11.1362E+06     393.488E+03    -57.7514E-03     114.236E-03    -56.4842E-03     79.7990E-03    -57.9081E-03     113.861E-03    -56.3098E-03     79.2348E-03
            1423     7.65636E-03     57.8236E-03    -32.7870E+06    -138.720E+06    -12.5229E+06     422.677E+03    -57.6482E-03     114.155E-03    -56.5069E-03     72.5738E-03    -57.7393E-03     113.674E-03    -56.3208E-03     72.1106E-03
            1424     6.80588E-03     57.7551E-03    -35.3636E+06    -145.699E+06    -14.3879E+06     686.438E+03    -57.3337E-03     113.855E-03    -56.5218E-03     64.9404E-03    -57.3819E-03     113.303E-03    -56.3312E-03     64.5679E-03
            1425     5.95457E-03     57.6925E-03    -38.0150E+06    -150.938E+06    -17.8476E+06     529.442E+03    -57.0601E-03     113.598E-03    -56.5378E-03     57.5073E-03    -57.0771E-03     112.996E-03    -56.3531E-03     57.2076E-03
            1426     5.10372E-03     57.6393E-03    -40.2943E+06    -155.360E+06    -22.4766E+06     301.672E+03    -57.1319E-03     113.664E-03    -56.5325E-03     49.6348E-03    -57.1242E-03     113.027E-03    -56.3612E-03     49.3924E-03
            1427     4.25388E-03     57.5935E-03    -43.6485E+06    -159.924E+06    -28.5463E+06     450.735E+03    -56.9645E-03     113.462E-03    -56.4971E-03     41.9070E-03    -56.9407E-03     112.798E-03    -56.3447E-03     41.7215E-03
            1428     3.40274E-03     57.5549E-03    -46.9153E+06    -163.991E+06     -35.487E+06     196.082E+03    -56.6110E-03     113.085E-03    -56.4743E-03     33.6829E-03    -56.5753E-03     112.404E-03    -56.3459E-03     33.5411E-03
            1429     2.55211E-03     57.5249E-03    -49.6649E+06    -168.294E+06    -42.3838E+06     567.619E+03    -56.5221E-03     112.997E-03    -56.4749E-03     25.4888E-03    -56.4752E-03     112.299E-03    -56.3708E-03     25.3928E-03
            1430     1.70154E-03     57.5047E-03    -51.6100E+06    -172.016E+06    -48.7078E+06     731.142E+03    -56.3024E-03     112.844E-03    -56.5421E-03     17.6998E-03    -56.2450E-03     112.134E-03    -56.4613E-03     17.6422E-03
            1431     849.291E-06     57.4884E-03    -52.4201E+06    -173.795E+06    -52.1460E+06    -332.681E+03    -56.4487E-03     113.237E-03    -56.7888E-03     9.69507E-03    -56.3851E-03     112.521E-03    -56.7215E-03     9.65381E-03
            1432     16.1605E-03     58.5765E-03    -6.71405E+06     159.100E+06     115.282E+06    -1.00618E+06    -74.8366E-03     131.284E-03    -56.4472E-03     350.991E-03    -96.6395E-03     153.293E-03    -56.0917E-03     355.454E-03
            1433     15.3183E-03     58.0803E-03    -13.8766E+06     140.244E+06     103.749E+06    -726.242E+03    -83.1446E-03     139.603E-03    -56.4584E-03     411.139E-03    -105.412E-03     162.018E-03    -56.1228E-03     408.929E-03
            1434     14.4637E-03     57.7236E-03    -18.7707E+06     101.788E+06     66.8130E+06     1.35899E+06    -71.1200E-03     127.502E-03    -56.3822E-03     284.219E-03    -79.0768E-03     135.560E-03    -56.1686E-03     281.317E-03
            1435     13.6125E-03     57.5019E-03    -22.4890E+06     65.0486E+06     22.4380E+06     390.101E+03    -62.9093E-03     119.164E-03    -56.2549E-03     187.547E-03    -65.9050E-03     122.246E-03    -56.2044E-03     185.478E-03
            1436     12.7624E-03     57.3444E-03    -24.4133E+06     31.2828E+06    -4.28302E+06    -1.31671E+06    -59.6248E-03     115.825E-03    -56.1999E-03     139.197E-03    -61.1331E-03     117.370E-03    -56.2313E-03     137.641E-03
            1437     11.9100E-03     57.2218E-03    -25.7387E+06    -12.7677E+06    -10.7091E+06     768.117E+03    -58.7099E-03     114.972E-03    -56.2618E-03     115.171E-03    -59.6096E-03     115.766E-03    -56.2595E-03     113.964E-03
            1438     11.0599E-03     57.1151E-03    -26.5113E+06    -58.1378E+06    -10.0652E+06     1.21866E+06    -58.6334E-03     114.976E-03    -56.3422E-03     102.689E-03    -59.2139E-03     115.285E-03    -56.2698E-03     101.698E-03
            1439     10.2095E-03     57.0154E-03    -27.0566E+06    -88.7556E+06    -10.2390E+06     562.488E+03    -58.3590E-03     114.746E-03    -56.3867E-03     95.1612E-03    -58.7413E-03     114.747E-03    -56.2700E-03     94.3365E-03
            1440     9.35836E-03     56.9245E-03    -28.7815E+06    -111.490E+06    -10.6578E+06     446.565E+03    -57.7750E-03     114.215E-03    -56.4397E-03     87.7382E-03    -58.0235E-03     113.996E-03    -56.2896E-03     87.0596E-03
            1441     8.50672E-03     56.8392E-03    -30.7326E+06    -127.866E+06    -11.0909E+06     368.626E+03    -57.7098E-03     114.204E-03    -56.4938E-03     80.0127E-03    -57.8650E-03     113.828E-03    -56.3193E-03     79.4506E-03
            1442     7.65642E-03     56.7634E-03    -33.1187E+06    -138.878E+06    -12.9042E+06     431.436E+03    -57.7095E-03     114.225E-03    -56.5153E-03     72.5327E-03    -57.8017E-03     113.744E-03    -56.3304E-03     72.0682E-03
            1443     6.80565E-03     56.6933E-03    -35.4355E+06    -145.833E+06    -14.9721E+06     409.223E+03    -57.3864E-03     113.909E-03    -56.5228E-03     65.0406E-03    -57.4341E-03     113.357E-03    -56.3349E-03     64.6637E-03
            1444     5.95498E-03     56.6333E-03    -38.2104E+06    -150.455E+06    -17.7313E+06     505.608E+03    -57.0932E-03     113.629E-03    -56.5360E-03     57.3937E-03    -57.1121E-03     113.030E-03    -56.3511E-03     57.0932E-03
            1445     5.10382E-03     56.5773E-03    -41.5994E+06    -155.721E+06    -23.1686E+06     530.360E+03    -56.9779E-03     113.518E-03    -56.5397E-03     49.6149E-03    -56.9748E-03     112.881E-03    -56.3694E-03     49.3769E-03
            1446     4.25320E-03     56.5325E-03    -44.1010E+06    -160.172E+06    -29.1203E+06     224.628E+03    -56.9530E-03     113.473E-03    -56.5198E-03     41.7739E-03    -56.9305E-03     112.810E-03    -56.3692E-03     41.5845E-03
            1447     3.40305E-03     56.4940E-03    -46.8499E+06    -163.957E+06    -35.7651E+06     294.982E+03    -56.6134E-03     113.118E-03    -56.5043E-03     33.7964E-03    -56.5769E-03     112.437E-03    -56.3774E-03     33.6563E-03
            1448     2.55148E-03     56.4652E-03    -49.4703E+06    -168.063E+06    -42.3709E+06     327.771E+03    -56.5505E-03     113.063E-03    -56.5122E-03     25.7392E-03    -56.5029E-03     112.366E-03    -56.4086E-03     25.6407E-03
            1449     1.70115E-03     56.4417E-03    -51.1228E+06    -171.017E+06    -47.2225E+06     173.143E+03    -56.7203E-03     113.180E-03    -56.4596E-03     17.0817E-03    -56.6642E-03     112.472E-03    -56.3736E-03     17.0147E-03
            1450     850.978E-06     56.4314E-03    -52.9030E+06    -173.676E+06    -51.5665E+06     217.021E+03    -56.6851E-03     112.804E-03    -56.1187E-03     9.24748E-03    -56.6243E-03     112.089E-03    -56.0480E-03     9.21344E-03
            1451     16.1758E-03     57.5244E-03    -5.81741E+06     159.751E+06     115.752E+06     190.896E+03    -74.3877E-03     130.817E-03    -56.4294E-03     351.906E-03    -96.1838E-03     152.824E-03    -56.0738E-03     356.527E-03
            1452     15.3131E-03     57.0194E-03    -13.0598E+06     140.595E+06     104.347E+06     418.158E+03    -82.5630E-03     139.045E-03    -56.4821E-03     412.348E-03    -104.859E-03     161.491E-03    -56.1453E-03     410.313E-03
            1453     14.4634E-03     56.6624E-03    -19.8071E+06     100.583E+06     66.9260E+06    -191.353E+03    -71.8601E-03     128.271E-03    -56.4113E-03     284.140E-03    -79.8316E-03     136.336E-03    -56.1938E-03     281.141E-03
            1454     13.6141E-03     56.4395E-03    -22.9647E+06     66.6772E+06     19.3126E+06    -207.793E+03    -62.9356E-03     119.175E-03    -56.2398E-03     187.180E-03    -65.9363E-03     122.275E-03    -56.2066E-03     185.098E-03
            1455     12.7615E-03     56.2860E-03    -25.7000E+06     30.9763E+06    -9.68337E+06     48.7652E+03    -59.5424E-03     115.721E-03    -56.1782E-03     139.334E-03    -61.0539E-03     117.279E-03    -56.2342E-03     137.798E-03
            1456     11.9105E-03     56.1602E-03    -27.1225E+06    -14.5215E+06    -12.5425E+06    -506.003E+03    -58.6281E-03     114.895E-03    -56.2665E-03     115.174E-03    -59.5267E-03     115.682E-03    -56.2688E-03     113.954E-03
            1457     11.0597E-03     56.0537E-03    -26.6513E+06    -57.7414E+06    -10.5312E+06     63.0291E+03    -58.4740E-03     114.833E-03    -56.3595E-03     102.891E-03    -59.0525E-03     115.143E-03    -56.2898E-03     101.892E-03
            1458     10.2085E-03     55.9547E-03    -27.5967E+06    -89.4141E+06    -11.0559E+06     468.916E+03    -58.3219E-03     114.737E-03    -56.4147E-03     95.2703E-03    -58.7058E-03     114.737E-03    -56.3003E-03     94.4438E-03
            1459     9.35792E-03     55.8635E-03    -29.1308E+06    -110.966E+06    -10.8641E+06     468.501E+03    -58.1053E-03     114.563E-03    -56.4574E-03     87.7442E-03    -58.3571E-03     114.349E-03    -56.3086E-03     87.0605E-03
            1460     8.50737E-03     55.7793E-03    -30.9079E+06    -127.673E+06    -11.6111E+06     608.813E+03    -57.8031E-03     114.295E-03    -56.4919E-03     80.2666E-03    -57.9592E-03     113.922E-03    -56.3200E-03     79.7067E-03
            1461     7.65627E-03     55.7014E-03    -32.8564E+06    -139.445E+06    -13.3207E+06     488.981E+03    -57.5380E-03     114.058E-03    -56.5202E-03     72.4522E-03    -57.6267E-03     113.574E-03    -56.3369E-03     71.9912E-03
            1462     6.80524E-03     55.6339E-03    -35.5126E+06    -145.772E+06    -15.1302E+06     477.852E+03    -57.4504E-03     113.986E-03    -56.5352E-03     64.9889E-03    -57.4986E-03     113.434E-03    -56.3480E-03     64.6117E-03
            1463     5.95481E-03     55.5703E-03    -38.4393E+06    -149.999E+06    -17.7333E+06     594.373E+03    -57.2712E-03     113.804E-03    -56.5324E-03     57.3893E-03    -57.2922E-03     113.207E-03    -56.3478E-03     57.0883E-03
            1464     5.10449E-03     55.5188E-03    -41.2301E+06    -155.123E+06    -22.9526E+06     633.397E+03    -56.9204E-03     113.448E-03    -56.5271E-03     49.8033E-03    -56.9166E-03     112.813E-03    -56.3572E-03     49.5677E-03
            1465     4.25314E-03     55.4698E-03    -44.3287E+06    -160.287E+06    -29.7608E+06     221.967E+03    -56.6756E-03     113.214E-03    -56.5388E-03     41.6475E-03    -56.6529E-03     112.552E-03    -56.3910E-03     41.4592E-03
            1466     3.40214E-03     55.4346E-03    -47.0538E+06    -164.113E+06    -36.1474E+06    -86.5000E+03    -56.7825E-03     113.319E-03    -56.5368E-03     33.5613E-03    -56.7463E-03     112.638E-03    -56.4113E-03     33.4149E-03
            1467     2.55219E-03     55.4027E-03    -49.4340E+06    -167.813E+06    -42.1537E+06    -48.8383E+03    -56.8477E-03     113.320E-03    -56.4725E-03     25.5678E-03    -56.8008E-03     112.624E-03    -56.3682E-03     25.4625E-03
            1468     1.70137E-03     55.3825E-03    -51.3498E+06    -170.876E+06    -47.2058E+06     215.030E+03    -56.7723E-03     113.084E-03    -56.3121E-03     17.0603E-03    -56.7175E-03     112.378E-03    -56.2259E-03     16.9949E-03
            1469     852.056E-06     55.3667E-03    -53.7328E+06    -174.311E+06    -52.2941E+06     276.616E+03    -56.5657E-03     112.404E-03    -55.8386E-03     9.27542E-03    -56.5071E-03     111.688E-03    -55.7694E-03     9.24156E-03
            1470     16.1609E-03     56.4624E-03    -6.54424E+06     159.133E+06     114.834E+06     151.573E+03    -74.4338E-03     130.933E-03    -56.4995E-03     353.348E-03    -96.3917E-03     153.100E-03    -56.1465E-03     357.930E-03
            1471     15.3155E-03     55.9587E-03    -12.8019E+06     141.236E+06     105.429E+06     762.848E+03    -84.1616E-03     140.681E-03    -56.5199E-03     412.087E-03    -106.524E-03     163.194E-03    -56.1790E-03     409.773E-03
            1472     14.4648E-03     55.6002E-03    -18.0610E+06     101.545E+06     67.1339E+06    -425.159E+03    -71.4796E-03     127.886E-03    -56.4065E-03     283.482E-03    -79.4227E-03     135.931E-03    -56.1919E-03     280.500E-03
            1473     13.6116E-03     55.3799E-03    -21.5270E+06     64.8909E+06     22.5505E+06    -85.1882E+03    -62.6712E-03     118.943E-03    -56.2719E-03     187.268E-03    -65.6636E-03     122.024E-03    -56.2220E-03     185.208E-03
            1474     12.7618E-03     55.2239E-03    -22.4114E+06     31.5777E+06    -3.28541E+06     1.08631E+06    -59.9041E-03     116.122E-03    -56.2174E-03     139.199E-03    -61.4103E-03     117.670E-03    -56.2471E-03     137.665E-03
            1475     11.9110E-03     55.1005E-03    -23.4901E+06    -13.0276E+06    -10.4967E+06     181.442E+03    -58.6075E-03     114.880E-03    -56.2722E-03     115.355E-03    -59.4921E-03     115.665E-03    -56.2718E-03     114.147E-03
            1476     11.0590E-03     54.9929E-03    -26.0211E+06    -59.8155E+06    -11.2847E+06    -100.552E+03    -58.2660E-03     114.638E-03    -56.3717E-03     103.046E-03    -58.8343E-03     114.934E-03    -56.3037E-03     102.052E-03
            1477     10.2085E-03     54.8937E-03    -27.8168E+06    -89.9034E+06    -11.2317E+06     401.085E+03    -58.3704E-03     114.806E-03    -56.4358E-03     94.7193E-03    -58.7536E-03     114.804E-03    -56.3212E-03     93.8903E-03
            1478     9.35758E-03     54.8025E-03    -29.2380E+06    -110.485E+06    -10.8731E+06     603.681E+03    -58.1974E-03     114.668E-03    -56.4710E-03     87.3726E-03    -58.4501E-03     114.457E-03    -56.3228E-03     86.6890E-03
            1479     8.50720E-03     54.7176E-03    -31.1017E+06    -127.869E+06    -11.8478E+06     501.138E+03    -57.8664E-03     114.364E-03    -56.4979E-03     80.1544E-03    -58.0234E-03     113.991E-03    -56.3266E-03     79.5912E-03
            1480     7.65608E-03     54.6422E-03    -33.2057E+06    -139.395E+06    -13.2903E+06     528.264E+03    -57.6156E-03     114.136E-03    -56.5200E-03     72.5638E-03    -57.7064E-03     113.652E-03    -56.3362E-03     72.1028E-03
            1481     6.80578E-03     54.5711E-03    -35.5182E+06    -145.760E+06    -15.1325E+06     613.515E+03    -57.4169E-03     113.949E-03    -56.5319E-03     64.8844E-03    -57.4649E-03     113.397E-03    -56.3447E-03     64.5096E-03
            1482     5.95475E-03     54.5115E-03    -38.1476E+06    -150.444E+06    -18.1644E+06     574.266E+03    -57.1691E-03     113.706E-03    -56.5366E-03     57.3286E-03    -57.1873E-03     113.107E-03    -56.3540E-03     57.0278E-03
            1483     5.10377E-03     54.4554E-03    -40.8467E+06    -154.942E+06    -22.9128E+06     362.185E+03    -56.9697E-03     113.507E-03    -56.5374E-03     49.7701E-03    -56.9645E-03     112.873E-03    -56.3680E-03     49.5299E-03
            1484     4.25353E-03     54.4118E-03    -43.6677E+06    -159.214E+06    -28.7797E+06     253.324E+03    -56.8012E-03     113.337E-03    -56.5360E-03     41.7340E-03    -56.7782E-03     112.677E-03    -56.3858E-03     41.5460E-03
            1485     3.40249E-03     54.3714E-03    -47.0026E+06    -163.830E+06    -36.0580E+06     407.278E+03    -56.8495E-03     113.356E-03    -56.5068E-03     33.6458E-03    -56.8136E-03     112.677E-03    -56.3814E-03     33.5059E-03
            1486     2.55217E-03     54.3430E-03    -49.8802E+06    -168.600E+06    -43.3591E+06     27.9689E+03    -56.8230E-03     113.246E-03    -56.4230E-03     25.5699E-03    -56.7754E-03     112.549E-03    -56.3230E-03     25.4659E-03
            1487     1.70220E-03     54.3198E-03    -51.6315E+06    -171.587E+06    -48.6020E+06    -212.293E+03    -56.2927E-03     112.695E-03    -56.4028E-03     17.2428E-03    -56.2362E-03     111.988E-03    -56.3221E-03     17.1720E-03
            1488     849.361E-06     54.3097E-03    -51.4839E+06    -172.317E+06    -51.0136E+06     42.0737E+03    -56.3177E-03     112.893E-03    -56.5757E-03     9.57052E-03    -56.2530E-03     112.182E-03    -56.5063E-03     9.53476E-03
            1489     16.1655E-03     55.3959E-03    -6.12489E+06     159.235E+06     115.510E+06     607.323E+03    -74.4451E-03     130.937E-03    -56.4920E-03     351.516E-03    -96.2387E-03     152.939E-03    -56.1364E-03     356.032E-03
            1490     15.3159E-03     54.8966E-03    -13.2947E+06     140.281E+06     103.684E+06    -975.511E+03    -83.4078E-03     139.903E-03    -56.4952E-03     409.664E-03    -105.589E-03     162.235E-03    -56.1610E-03     407.405E-03
            1491     14.4635E-03     54.5408E-03    -18.4821E+06     101.073E+06     65.9589E+06    -510.683E+03    -71.2060E-03     127.604E-03    -56.3983E-03     283.753E-03    -79.1592E-03     135.659E-03    -56.1883E-03     280.803E-03
            1492     13.6131E-03     54.3192E-03    -22.2594E+06     63.8924E+06     21.6753E+06    -227.398E+03    -62.7296E-03     119.003E-03    -56.2735E-03     187.080E-03    -65.7120E-03     122.070E-03    -56.2255E-03     185.014E-03
            1493     12.7614E-03     54.1622E-03    -24.0686E+06     31.1775E+06    -4.59267E+06    -508.275E+03    -59.6678E-03     115.891E-03    -56.2228E-03     138.919E-03    -61.1733E-03     117.435E-03    -56.2560E-03     137.370E-03
            1494     11.9100E-03     54.0404E-03    -24.9086E+06    -13.0239E+06    -10.8645E+06     437.700E+03    -58.7484E-03     115.032E-03    -56.2835E-03     115.264E-03    -59.6431E-03     115.823E-03    -56.2828E-03     114.052E-03
            1495     11.0596E-03     53.9319E-03    -25.9734E+06    -60.0973E+06    -11.0843E+06     704.381E+03    -58.5382E-03     114.906E-03    -56.3679E-03     102.921E-03    -59.1098E-03     115.204E-03    -56.2986E-03     101.928E-03
            1496     10.2086E-03     53.8328E-03    -27.5177E+06    -90.2953E+06    -11.1612E+06     485.032E+03    -58.2908E-03     114.714E-03    -56.4228E-03     94.6144E-03    -58.6703E-03     114.707E-03    -56.3078E-03     93.7894E-03
            1497     9.35822E-03     53.7411E-03    -29.1938E+06    -110.576E+06    -10.4944E+06     684.259E+03    -58.0542E-03     114.522E-03    -56.4681E-03     87.2034E-03    -58.3070E-03     114.309E-03    -56.3179E-03     86.5217E-03
            1498     8.50666E-03     53.6577E-03    -31.2265E+06    -127.610E+06    -11.5842E+06     688.061E+03    -57.8848E-03     114.383E-03    -56.4985E-03     79.9183E-03    -58.0430E-03     114.011E-03    -56.3261E-03     79.3569E-03
            1499     7.65662E-03     53.5798E-03    -33.4433E+06    -139.141E+06    -13.3856E+06     463.171E+03    -57.6571E-03     114.172E-03    -56.5146E-03     72.4930E-03    -57.7492E-03     113.690E-03    -56.3313E-03     72.0308E-03
            1500     6.80539E-03     53.5118E-03    -35.6085E+06    -146.083E+06    -15.6460E+06     279.137E+03    -57.3348E-03     113.862E-03    -56.5275E-03     65.0061E-03    -57.3817E-03     113.310E-03    -56.3423E-03     64.6286E-03
            1501     5.95484E-03     53.4489E-03    -37.9752E+06    -150.624E+06    -18.2096E+06     287.914E+03    -57.1539E-03     113.695E-03    -56.5410E-03     57.4041E-03    -57.1709E-03     113.095E-03    -56.3585E-03     57.0996E-03
            1502     5.10413E-03     53.3966E-03    -40.8303E+06    -154.622E+06    -22.7741E+06     507.515E+03    -57.0092E-03     113.549E-03    -56.5402E-03     49.5459E-03    -57.0046E-03     112.917E-03    -56.3706E-03     49.3070E-03
            1503     4.25293E-03     53.3486E-03    -44.3132E+06    -159.720E+06    -29.4149E+06     424.112E+03    -56.9544E-03     113.471E-03    -56.5161E-03     41.7283E-03    -56.9330E-03     112.810E-03    -56.3673E-03     41.5421E-03
            1504     3.40313E-03     53.3123E-03    -46.9790E+06    -163.840E+06    -36.3488E+06     531.647E+03    -56.7517E-03     113.231E-03    -56.4790E-03     33.8573E-03    -56.7152E-03     112.551E-03    -56.3550E-03     33.7198E-03
            1505     2.55206E-03     53.2803E-03    -49.0050E+06    -167.881E+06    -43.1763E+06     243.106E+03    -56.3633E-03     112.858E-03    -56.4943E-03     25.6687E-03    -56.3125E-03     112.162E-03    -56.3957E-03     25.5689E-03
            1506     1.70058E-03     53.2614E-03    -50.7571E+06    -170.971E+06    -48.0352E+06    -670.566E+03    -56.4044E-03     112.988E-03    -56.5833E-03     17.1716E-03    -56.3453E-03     112.281E-03    -56.5020E-03     17.0931E-03
            1507     850.951E-06     53.2470E-03    -51.9735E+06    -172.711E+06    -51.1446E+06    -8.70044E+03    -56.6203E-03     113.288E-03    -56.6679E-03     9.66328E-03    -56.5571E-03     112.576E-03    -56.5979E-03     9.62790E-03
            1508     16.1718E-03     54.3419E-03    -5.86548E+06     160.050E+06     117.062E+06     581.068E+03    -75.1228E-03     131.563E-03    -56.4404E-03     353.911E-03    -97.0358E-03     153.684E-03    -56.0787E-03     358.487E-03
            1509     15.3150E-03     53.8365E-03    -10.9556E+06     142.332E+06     106.218E+06     1.05543E+06    -82.5788E-03     139.052E-03    -56.4735E-03     411.862E-03    -104.837E-03     161.468E-03    -56.1329E-03     409.797E-03
            1510     14.4640E-03     53.4800E-03    -18.3472E+06     100.484E+06     65.0325E+06     819.668E+03    -71.3819E-03     127.780E-03    -56.3977E-03     283.827E-03    -79.3240E-03     135.825E-03    -56.1916E-03     280.879E-03
            1511     13.6128E-03     53.2572E-03    -23.3360E+06     64.9495E+06     18.0163E+06    -61.1337E+03    -62.6967E-03     118.952E-03    -56.2553E-03     187.231E-03    -65.6887E-03     122.040E-03    -56.2256E-03     185.162E-03
            1512     12.7616E-03     53.1036E-03    -25.4089E+06     31.0375E+06    -7.70400E+06    -1.11403E+06    -59.6499E-03     115.862E-03    -56.2116E-03     139.103E-03    -61.1628E-03     117.417E-03    -56.2583E-03     137.548E-03
            1513     11.9102E-03     52.9782E-03    -26.4307E+06    -15.1259E+06    -12.3002E+06    -474.999E+03    -58.9609E-03     115.237E-03    -56.2765E-03     115.141E-03    -59.8603E-03     116.025E-03    -56.2778E-03     113.910E-03
            1514     11.0599E-03     52.8712E-03    -27.0589E+06    -59.8629E+06    -11.4287E+06     609.792E+03    -58.5380E-03     114.891E-03    -56.3529E-03     102.676E-03    -59.1151E-03     115.193E-03    -56.2840E-03     101.680E-03
            1515     10.2090E-03     52.7720E-03    -27.9639E+06    -90.3018E+06    -11.5063E+06     552.890E+03    -58.1270E-03     114.540E-03    -56.4129E-03     94.9222E-03    -58.5078E-03     114.534E-03    -56.2989E-03     94.1021E-03
            1516     9.35747E-03     52.6806E-03    -29.5403E+06    -111.212E+06    -10.8852E+06     594.555E+03    -58.1018E-03     114.566E-03    -56.4642E-03     87.5310E-03    -58.3552E-03     114.351E-03    -56.3145E-03     86.8481E-03
            1517     8.50764E-03     52.5962E-03    -31.1496E+06    -126.965E+06    -11.2382E+06     796.278E+03    -57.9473E-03     114.438E-03    -56.4905E-03     79.8958E-03    -58.1070E-03     114.069E-03    -56.3174E-03     79.3343E-03
            1518     7.65614E-03     52.5196E-03    -33.0428E+06    -138.979E+06    -13.4671E+06     435.500E+03    -57.5353E-03     114.043E-03    -56.5074E-03     72.3955E-03    -57.6251E-03     113.561E-03    -56.3253E-03     71.9345E-03
            1519     6.80567E-03     52.4504E-03    -35.5245E+06    -146.313E+06    -15.5698E+06     179.800E+03    -57.3171E-03     113.847E-03    -56.5296E-03     64.9756E-03    -57.3634E-03     113.293E-03    -56.3438E-03     64.5969E-03
            1520     5.95454E-03     52.3890E-03    -38.2791E+06    -150.296E+06    -18.2216E+06     256.570E+03    -57.2242E-03     113.762E-03    -56.5383E-03     57.4244E-03    -57.2432E-03     113.165E-03    -56.3559E-03     57.1194E-03
            1521     5.10404E-03     52.3344E-03    -41.0971E+06    -154.768E+06    -23.1210E+06     395.619E+03    -57.1297E-03     113.649E-03    -56.5193E-03     49.5187E-03    -57.1257E-03     113.017E-03    -56.3509E-03     49.2776E-03
            1522     4.25386E-03     52.2892E-03    -43.9570E+06    -159.716E+06    -29.5087E+06     716.730E+03    -56.8491E-03     113.341E-03    -56.4920E-03     41.7005E-03    -56.8257E-03     112.680E-03    -56.3442E-03     41.5189E-03
            1523     3.40246E-03     52.2496E-03    -46.7091E+06    -163.678E+06    -36.1795E+06     3.71679E+03    -56.4960E-03     112.995E-03    -56.4986E-03     33.6963E-03    -56.4586E-03     112.315E-03    -56.3745E-03     33.5523E-03
            1524     2.55174E-03     52.2219E-03    -48.7004E+06    -167.439E+06    -42.7132E+06     56.7076E+03    -56.3275E-03     112.894E-03    -56.5664E-03     25.4717E-03    -56.2766E-03     112.200E-03    -56.4666E-03     25.3685E-03
            1525     1.70079E-03     52.1986E-03    -51.0068E+06    -171.295E+06    -48.2944E+06     255.939E+03    -56.5571E-03     113.207E-03    -56.6502E-03     17.4859E-03    -56.4983E-03     112.499E-03    -56.5693E-03     17.4216E-03
            1526     850.647E-06     52.1859E-03    -52.8089E+06    -173.344E+06    -51.4553E+06    -572.219E+03    -56.9098E-03     113.381E-03    -56.4710E-03     9.82359E-03    -56.8494E-03     112.667E-03    -56.4003E-03     9.77900E-03
            1527     16.1633E-03     53.2769E-03    -6.88276E+06     158.216E+06     114.694E+06    -574.260E+03    -74.5593E-03     131.028E-03    -56.4688E-03     353.302E-03    -96.4811E-03     153.155E-03    -56.1148E-03     357.883E-03
            1528     15.3158E-03     52.7772E-03    -13.2943E+06     140.420E+06     104.673E+06     17.6598E+03    -83.5346E-03     140.032E-03    -56.4976E-03     412.184E-03    -105.855E-03     162.500E-03    -56.1586E-03     409.964E-03
            1529     14.4640E-03     52.4181E-03    -17.7289E+06     101.715E+06     67.5992E+06     1.01754E+06    -71.3818E-03     127.791E-03    -56.4095E-03     283.838E-03    -79.3344E-03     135.846E-03    -56.1932E-03     280.880E-03
            1530     13.6123E-03     52.1979E-03    -20.9586E+06     66.4340E+06     20.1205E+06     460.412E+03    -62.5984E-03     118.863E-03    -56.2647E-03     186.959E-03    -65.5834E-03     121.951E-03    -56.2301E-03     184.907E-03
            1531     12.7610E-03     52.0414E-03    -23.6600E+06     30.7550E+06    -7.63522E+06     187.437E+03    -59.9615E-03     116.168E-03    -56.2066E-03     139.207E-03    -61.4712E-03     117.725E-03    -56.2551E-03     137.657E-03
            1532     11.9111E-03     51.9178E-03    -25.8886E+06    -15.7575E+06    -12.4085E+06     341.146E+03    -58.8808E-03     115.147E-03    -56.2659E-03     115.305E-03    -59.7751E-03     115.929E-03    -56.2676E-03     114.088E-03
            1533     11.0597E-03     51.8100E-03    -27.1310E+06    -60.2975E+06    -11.8882E+06     163.151E+03    -58.3067E-03     114.660E-03    -56.3538E-03     102.910E-03    -58.8805E-03     114.958E-03    -56.2865E-03     101.916E-03
            1534     10.2085E-03     51.7118E-03    -28.3022E+06    -90.2956E+06    -11.7502E+06     467.539E+03    -58.3144E-03     114.731E-03    -56.4168E-03     95.0672E-03    -58.6976E-03     114.727E-03    -56.3036E-03     94.2427E-03
            1535     9.35803E-03     51.6195E-03    -29.6939E+06    -111.225E+06    -11.3113E+06     443.128E+03    -58.1685E-03     114.625E-03    -56.4561E-03     87.4311E-03    -58.4212E-03     114.410E-03    -56.3083E-03     86.7465E-03
            1536     8.50688E-03     51.5348E-03    -31.2891E+06    -127.290E+06    -11.4951E+06     306.550E+03    -57.8530E-03     114.337E-03    -56.4844E-03     79.7583E-03    -58.0117E-03     113.966E-03    -56.3119E-03     79.1923E-03
            1537     7.65669E-03     51.4594E-03    -33.2447E+06    -138.639E+06    -13.1312E+06     499.831E+03    -57.5935E-03     114.097E-03    -56.5037E-03     72.2984E-03    -57.6857E-03     113.617E-03    -56.3201E-03     71.8365E-03
            1538     6.80535E-03     51.3892E-03    -35.3684E+06    -145.894E+06    -15.4827E+06     386.155E+03    -57.3892E-03     113.904E-03    -56.5147E-03     64.9429E-03    -57.4354E-03     113.351E-03    -56.3292E-03     64.5667E-03
            1539     5.95506E-03     51.3282E-03    -38.1810E+06    -150.446E+06    -18.2433E+06     299.232E+03    -57.2338E-03     113.750E-03    -56.5157E-03     57.3232E-03    -57.2518E-03     113.151E-03    -56.3334E-03     57.0191E-03
            1540     5.10420E-03     51.2733E-03    -41.4773E+06    -155.356E+06    -23.5241E+06     199.624E+03    -56.9948E-03     113.499E-03    -56.5038E-03     49.5586E-03    -56.9912E-03     112.864E-03    -56.3360E-03     49.3161E-03
            1541     4.25343E-03     51.2280E-03    -43.9796E+06    -159.469E+06    -29.0981E+06     203.069E+03    -56.7559E-03     113.255E-03    -56.4987E-03     41.7609E-03    -56.7336E-03     112.594E-03    -56.3492E-03     41.5727E-03
            1542     3.40277E-03     51.1901E-03    -46.5122E+06    -163.442E+06    -35.9079E+06     79.6003E+03    -56.5360E-03     113.046E-03    -56.5102E-03     33.5353E-03    -56.4984E-03     112.367E-03    -56.3853E-03     33.3919E-03
            1543     2.55161E-03     51.1601E-03    -49.3388E+06    -167.835E+06    -42.9558E+06     178.319E+03    -56.5130E-03     113.050E-03    -56.5372E-03     25.4206E-03    -56.4643E-03     112.355E-03    -56.4371E-03     25.3192E-03
            1544     1.70139E-03     51.1384E-03    -50.8510E+06    -170.941E+06    -48.0870E+06     669.964E+03    -56.4967E-03     113.080E-03    -56.5830E-03     17.5678E-03    -56.4380E-03     112.373E-03    -56.5019E-03     17.5097E-03
            1545     849.794E-06     51.1242E-03    -51.8840E+06    -172.924E+06    -51.7564E+06    -434.639E+03    -56.6783E-03     113.243E-03    -56.5646E-03     9.59813E-03    -56.6135E-03     112.530E-03    -56.4974E-03     9.55508E-03
            1546     16.1685E-03     52.2195E-03    -5.62652E+06     158.854E+06     115.776E+06     660.875E+03    -74.5470E-03     131.018E-03    -56.4712E-03     352.332E-03    -96.3921E-03     153.071E-03    -56.1145E-03     356.840E-03
            1547     15.3143E-03     51.7136E-03    -13.0722E+06     140.241E+06     104.006E+06     3.78516E+03    -83.3559E-03     139.846E-03    -56.4906E-03     411.154E-03    -105.655E-03     162.295E-03    -56.1550E-03     408.924E-03
            1548     14.4641E-03     51.3587E-03    -18.6203E+06     100.744E+06     66.2489E+06    -1.08591E+06    -71.2658E-03     127.666E-03    -56.3997E-03     283.022E-03    -79.2031E-03     135.702E-03    -56.1876E-03     280.053E-03
            1549     13.6127E-03     51.1366E-03    -21.7924E+06     65.5139E+06     19.4956E+06     342.260E+03    -62.6823E-03     118.937E-03    -56.2550E-03     187.165E-03    -65.6681E-03     122.022E-03    -56.2209E-03     185.109E-03
            1550     12.7621E-03     50.9809E-03    -24.3397E+06     30.7986E+06    -8.03007E+06     1.64167E+06    -59.8530E-03     116.051E-03    -56.1978E-03     139.333E-03    -61.3617E-03     117.606E-03    -56.2473E-03     137.806E-03
            1551     11.9102E-03     50.8563E-03    -25.3178E+06    -14.9796E+06    -11.9429E+06     874.819E+03    -58.6648E-03     114.935E-03    -56.2700E-03     115.134E-03    -59.5545E-03     115.716E-03    -56.2713E-03     113.930E-03
            1552     11.0593E-03     50.7504E-03    -26.7706E+06    -60.3085E+06    -11.7916E+06     583.853E+03    -58.4823E-03     114.841E-03    -56.3585E-03     102.838E-03    -59.0542E-03     115.138E-03    -56.2912E-03     101.847E-03
            1553     10.2085E-03     50.6498E-03    -28.5407E+06    -90.2818E+06    -11.9239E+06     350.033E+03    -58.4962E-03     114.902E-03    -56.4057E-03     94.7980E-03    -58.8801E-03     114.899E-03    -56.2931E-03     93.9690E-03
            1554     9.35843E-03     50.5585E-03    -29.8075E+06    -110.897E+06    -11.1781E+06     114.365E+03    -58.0873E-03     114.527E-03    -56.4396E-03     87.1356E-03    -58.3401E-03     114.313E-03    -56.2914E-03     86.4486E-03
            1555     8.50734E-03     50.4750E-03    -31.4538E+06    -127.773E+06    -11.8160E+06     113.539E+03    -57.7423E-03     114.216E-03    -56.4742E-03     79.7784E-03    -57.9000E-03     113.843E-03    -56.3024E-03     79.2121E-03
            1556     7.65622E-03     50.3972E-03    -33.3527E+06    -138.676E+06    -12.8707E+06     210.923E+03    -57.6631E-03     114.159E-03    -56.4964E-03     72.2845E-03    -57.7561E-03     113.679E-03    -56.3113E-03     71.8184E-03
            1557     6.80607E-03     50.3298E-03    -35.8346E+06    -145.292E+06    -15.0275E+06     574.190E+03    -57.4900E-03     113.986E-03    -56.4957E-03     64.9731E-03    -57.5401E-03     113.436E-03    -56.3082E-03     64.5984E-03
            1558     5.95498E-03     50.2659E-03    -38.5732E+06    -151.145E+06    -18.9308E+06     216.168E+03    -57.1480E-03     113.638E-03    -56.4896E-03     57.3870E-03    -57.1658E-03     113.037E-03    -56.3091E-03     57.0830E-03
            1559     5.10441E-03     50.2140E-03    -41.3659E+06    -155.653E+06    -23.5817E+06     12.4688E+03    -56.8768E-03     113.370E-03    -56.4930E-03     49.5149E-03    -56.8719E-03     112.734E-03    -56.3252E-03     49.2711E-03
            1560     4.25310E-03     50.1664E-03    -44.0307E+06    -159.372E+06    -29.2539E+06    -44.2599E+03    -56.7222E-03     113.221E-03    -56.4989E-03     41.5059E-03    -56.7000E-03     112.562E-03    -56.3502E-03     41.3144E-03
            1561     3.40263E-03     50.1296E-03    -46.6755E+06    -163.186E+06    -35.5893E+06     222.116E+03    -56.6935E-03     113.187E-03    -56.4931E-03     33.4735E-03    -56.6575E-03     112.509E-03    -56.3668E-03     33.3317E-03
            1562     2.55222E-03     50.0991E-03    -49.4099E+06    -167.689E+06    -42.4570E+06     259.106E+03    -56.7059E-03     113.158E-03    -56.4519E-03     25.5238E-03    -56.6584E-03     112.463E-03    -56.3494E-03     25.4236E-03
            1563     1.70108E-03     50.0776E-03    -51.6242E+06    -171.115E+06    -47.7389E+06     291.978E+03    -56.6471E-03     113.002E-03    -56.3544E-03     17.1638E-03    -56.5926E-03     112.295E-03    -56.2701E-03     17.0994E-03
            1564     851.418E-06     50.0631E-03    -53.2671E+06    -173.539E+06    -51.9251E+06     754.914E+03    -56.4549E-03     112.578E-03    -56.1234E-03     9.16064E-03    -56.3957E-03     111.865E-03    -56.0542E-03     9.13377E-03
            1565     16.1668E-03     51.1598E-03    -6.14775E+06     158.747E+06     116.299E+06     135.991E+03    -75.2575E-03     131.717E-03    -56.4594E-03     353.330E-03    -97.1910E-03     153.855E-03    -56.0992E-03     357.774E-03
            1566     15.3167E-03     50.6537E-03    -11.3896E+06     141.508E+06     105.913E+06     394.499E+03    -83.2463E-03     139.715E-03    -56.4689E-03     411.494E-03    -105.554E-03     162.178E-03    -56.1280E-03     409.256E-03
            1567     14.4643E-03     50.2979E-03    -18.0235E+06     100.220E+06     64.1285E+06     597.099E+03    -71.0622E-03     127.436E-03    -56.3736E-03     283.308E-03    -78.9848E-03     135.464E-03    -56.1721E-03     280.390E-03
            1568     13.6129E-03     50.0764E-03    -23.3829E+06     63.9578E+06     17.3411E+06     562.548E+03    -62.8669E-03     119.102E-03    -56.2349E-03     187.377E-03    -65.8548E-03     122.183E-03    -56.2070E-03     185.312E-03
            1569     12.7613E-03     49.9193E-03    -24.1315E+06     30.9146E+06    -6.23398E+06     862.410E+03    -59.6329E-03     115.826E-03    -56.1932E-03     138.909E-03    -61.1344E-03     117.370E-03    -56.2342E-03     137.381E-03
            1570     11.9107E-03     49.7968E-03    -25.2890E+06    -14.7065E+06    -11.3777E+06     1.41664E+06    -58.7585E-03     115.020E-03    -56.2611E-03     114.962E-03    -59.6489E-03     115.801E-03    -56.2600E-03     113.763E-03
            1571     11.0596E-03     49.6883E-03    -27.2677E+06    -59.6606E+06    -11.4665E+06     912.073E+03    -58.7243E-03     115.057E-03    -56.3331E-03     102.495E-03    -59.3018E-03     115.360E-03    -56.2644E-03     101.501E-03
            1572     10.2097E-03     49.5890E-03    -28.1241E+06    -89.8294E+06    -11.3661E+06     180.100E+03    -58.2025E-03     114.582E-03    -56.3798E-03     94.4798E-03    -58.5832E-03     114.577E-03    -56.2656E-03     93.6550E-03
            1573     9.35779E-03     49.4982E-03    -29.5391E+06    -111.195E+06    -10.9532E+06    -72.7443E+03    -57.9380E-03     114.369E-03    -56.4306E-03     87.3854E-03    -58.1891E-03     114.152E-03    -56.2813E-03     86.6988E-03
            1574     8.50750E-03     49.4133E-03    -31.2293E+06    -127.747E+06    -11.3119E+06    -55.8887E+03    -57.8675E-03     114.334E-03    -56.4665E-03     79.7998E-03    -58.0254E-03     113.960E-03    -56.2925E-03     79.2294E-03
            1575     7.65658E-03     49.3379E-03    -33.3730E+06    -138.967E+06    -12.8852E+06     201.790E+03    -57.6489E-03     114.129E-03    -56.4804E-03     72.4108E-03    -57.7410E-03     113.647E-03    -56.2949E-03     71.9464E-03
            1576     6.80575E-03     49.2667E-03    -35.8820E+06    -145.710E+06    -14.9081E+06     299.385E+03    -57.4551E-03     113.937E-03    -56.4818E-03     64.8726E-03    -57.5050E-03     113.385E-03    -56.2931E-03     64.4943E-03
            1577     5.95530E-03     49.2075E-03    -38.5559E+06    -150.630E+06    -18.5055E+06     515.092E+03    -57.1570E-03     113.632E-03    -56.4747E-03     57.2522E-03    -57.1759E-03     113.033E-03    -56.2929E-03     56.9523E-03
            1578     5.10402E-03     49.1512E-03    -41.0867E+06    -155.419E+06    -24.1553E+06    -128.968E+03    -56.9466E-03     113.409E-03    -56.4627E-03     49.3801E-03    -56.9398E-03     112.775E-03    -56.2986E-03     49.1341E-03
            1579     4.25407E-03     49.1074E-03    -44.0538E+06    -159.414E+06    -29.5333E+06    -252.608E+03    -56.7383E-03     113.195E-03    -56.4567E-03     41.3665E-03    -56.7158E-03     112.536E-03    -56.3093E-03     41.1722E-03
            1580     3.40261E-03     49.0675E-03    -47.1790E+06    -163.145E+06    -35.4145E+06     213.798E+03    -56.7411E-03     113.175E-03    -56.4341E-03     33.5422E-03    -56.7079E-03     112.498E-03    -56.3062E-03     33.4009E-03
            1581     2.55209E-03     49.0390E-03    -49.9324E+06    -167.586E+06    -41.8318E+06     254.440E+03    -56.8372E-03     113.176E-03    -56.3390E-03     25.3020E-03    -56.7935E-03     112.482E-03    -56.2327E-03     25.2006E-03
            1582     1.70242E-03     49.0156E-03    -52.7373E+06    -171.901E+06    -48.3993E+06     609.522E+03    -56.5786E-03     112.742E-03    -56.1631E-03     17.1484E-03    -56.5275E-03     112.033E-03    -56.0794E-03     17.0890E-03
            1583     851.072E-06     49.0042E-03    -54.4007E+06    -174.569E+06    -52.9268E+06     7.45346E+03    -56.3688E-03     112.130E-03    -55.7612E-03     9.07128E-03    -56.3122E-03     111.414E-03    -55.6938E-03     9.03344E-03
            1584     16.1662E-03     50.0927E-03    -6.32614E+06     158.306E+06     115.990E+06    -363.769E+03    -74.9306E-03     131.380E-03    -56.4493E-03     352.328E-03    -96.7733E-03     153.426E-03    -56.0897E-03     356.845E-03
            1585     15.3163E-03     49.5952E-03    -12.7364E+06     139.700E+06     104.611E+06    -145.378E+03    -83.0360E-03     139.502E-03    -56.4657E-03     411.346E-03    -105.276E-03     161.889E-03    -56.1267E-03     409.177E-03
            1586     14.4637E-03     49.2372E-03    -18.2001E+06     100.253E+06     66.4977E+06     1.24298E+06    -71.3684E-03     127.752E-03    -56.3840E-03     284.212E-03    -79.3201E-03     135.803E-03    -56.1705E-03     281.270E-03
            1587     13.6132E-03     49.0147E-03    -21.8863E+06     64.6424E+06     18.4303E+06     1.47327E+06    -62.7890E-03     119.023E-03    -56.2336E-03     187.496E-03    -65.7742E-03     122.106E-03    -56.2035E-03     185.444E-03
            1588     12.7627E-03     48.8596E-03    -25.3109E+06     29.7705E+06    -9.43531E+06     1.13227E+06    -59.8730E-03     116.045E-03    -56.1723E-03     139.264E-03    -61.3808E-03     117.596E-03    -56.2259E-03     137.731E-03
            1589     11.9105E-03     48.7360E-03    -26.6412E+06    -14.0228E+06    -11.9526E+06     1.19517E+06    -59.0967E-03     115.327E-03    -56.2307E-03     115.319E-03    -59.9993E-03     116.120E-03    -56.2315E-03     114.107E-03
            1590     11.0610E-03     48.6260E-03    -26.5154E+06    -58.4000E+06    -10.5758E+06     468.295E+03    -58.4208E-03     114.725E-03    -56.3042E-03     102.516E-03    -58.9953E-03     115.029E-03    -56.2339E-03     101.524E-03
            1591     10.2089E-03     48.5302E-03    -27.5131E+06    -89.8023E+06    -11.0480E+06     25.1830E+03    -58.0542E-03     114.421E-03    -56.3668E-03     94.7055E-03    -58.4314E-03     114.414E-03    -56.2519E-03     93.8826E-03
            1592     9.35842E-03     48.4363E-03    -28.9679E+06    -111.254E+06    -10.6494E+06    -29.7541E+03    -57.9932E-03     114.415E-03    -56.4213E-03     87.4672E-03    -58.2421E-03     114.196E-03    -56.2712E-03     86.7805E-03
            1593     8.50719E-03     48.3535E-03    -31.0182E+06    -127.933E+06    -11.2396E+06    -14.1899E+03    -57.9075E-03     114.359E-03    -56.4511E-03     79.6837E-03    -58.0634E-03     113.983E-03    -56.2768E-03     79.1146E-03
            1594     7.65694E-03     48.2756E-03    -33.3042E+06    -139.284E+06    -13.1123E+06     76.9063E+03    -57.7185E-03     114.174E-03    -56.4555E-03     72.2862E-03    -57.8096E-03     113.690E-03    -56.2708E-03     71.8192E-03
            1595     6.80601E-03     48.2078E-03    -35.5398E+06    -146.275E+06    -15.4517E+06     116.443E+03    -57.4079E-03     113.859E-03    -56.4508E-03     64.6392E-03    -57.4539E-03     113.304E-03    -56.2645E-03     64.2597E-03
            1596     5.95512E-03     48.1445E-03    -37.8463E+06    -150.202E+06    -17.9002E+06     196.031E+03    -57.1769E-03     113.621E-03    -56.4440E-03     56.9601E-03    -57.1937E-03     113.022E-03    -56.2609E-03     56.6555E-03
            1597     5.10502E-03     48.0925E-03    -40.9058E+06    -154.548E+06    -23.1593E+06     338.202E+03    -56.8928E-03     113.324E-03    -56.4314E-03     49.3974E-03    -56.8877E-03     112.692E-03    -56.2638E-03     49.1581E-03
            1598     4.25333E-03     48.0446E-03    -44.5018E+06    -159.738E+06    -29.9639E+06     62.6273E+03    -56.8483E-03     113.255E-03    -56.4067E-03     41.5143E-03    -56.8268E-03     112.595E-03    -56.2604E-03     41.3243E-03
            1599     3.40336E-03     48.0089E-03    -47.7540E+06    -163.903E+06    -36.1784E+06     316.579E+03    -56.8315E-03     113.177E-03    -56.3457E-03     33.6699E-03    -56.7989E-03     112.498E-03    -56.2197E-03     33.5305E-03
            1600     2.55294E-03     47.9756E-03    -50.4928E+06    -168.087E+06    -42.7623E+06     513.430E+03    -56.5550E-03     112.817E-03    -56.2622E-03     25.3349E-03    -56.5119E-03     112.122E-03    -56.1591E-03     25.2383E-03
            1601     1.70156E-03     47.9578E-03    -52.0719E+06    -171.255E+06    -48.1868E+06     294.572E+03    -56.2732E-03     112.486E-03    -56.2131E-03     17.2222E-03    -56.2199E-03     111.780E-03    -56.1302E-03     17.1588E-03
            1602     850.905E-06     47.9414E-03    -52.5043E+06    -173.577E+06    -52.7647E+06    -107.518E+03    -56.1839E-03     112.416E-03    -56.2324E-03     9.14644E-03    -56.1192E-03     111.703E-03    -56.1684E-03     9.10725E-03
            1603     16.1706E-03     49.0398E-03    -6.22742E+06     158.155E+06     115.416E+06    -183.943E+03    -74.5493E-03     131.003E-03    -56.4536E-03     352.980E-03    -96.4552E-03     153.113E-03    -56.0968E-03     357.547E-03
            1604     15.3140E-03     48.5321E-03    -13.0644E+06     139.188E+06     104.338E+06     9.71653E+03    -83.3161E-03     139.807E-03    -56.4905E-03     412.781E-03    -105.691E-03     162.327E-03    -56.1516E-03     410.600E-03
            1605     14.4649E-03     48.1770E-03    -18.5548E+06     99.0251E+06     66.7641E+06    -438.072E+03    -71.6742E-03     128.077E-03    -56.4032E-03     283.785E-03    -79.6195E-03     136.115E-03    -56.1861E-03     280.783E-03
            1606     13.6128E-03     47.9538E-03    -21.2326E+06     62.7191E+06     22.3276E+06     1.61330E+06    -62.7089E-03     118.972E-03    -56.2631E-03     187.623E-03    -65.6934E-03     122.039E-03    -56.2117E-03     185.582E-03
            1607     12.7603E-03     47.7994E-03    -22.8947E+06     30.9298E+06    -4.35792E+06     3.25706E+06    -60.2321E-03     116.425E-03    -56.1928E-03     139.669E-03    -61.7426E-03     117.977E-03    -56.2262E-03     138.153E-03
            1608     11.9124E-03     47.6723E-03    -24.4629E+06    -12.0882E+06    -10.6768E+06     1.07154E+06    -59.0648E-03     115.286E-03    -56.2215E-03     115.263E-03    -59.9604E-03     116.083E-03    -56.2218E-03     114.051E-03
            1609     11.0597E-03     47.5686E-03    -25.4420E+06    -58.5586E+06    -10.3787E+06     28.5219E+03    -58.2514E-03     114.553E-03    -56.3021E-03     102.625E-03    -58.8175E-03     114.851E-03    -56.2322E-03     101.634E-03
            1610     10.2092E-03     47.4668E-03    -26.7717E+06    -89.6012E+06    -10.6509E+06     219.704E+03    -58.2754E-03     114.639E-03    -56.3637E-03     94.8644E-03    -58.6508E-03     114.632E-03    -56.2482E-03     94.0402E-03
            1611     9.35852E-03     47.3775E-03    -28.6513E+06    -111.315E+06    -10.7100E+06     243.055E+03    -58.2159E-03     114.612E-03    -56.3965E-03     87.2792E-03    -58.4631E-03     114.394E-03    -56.2471E-03     86.5932E-03
            1612     8.50784E-03     47.2911E-03    -30.5110E+06    -128.148E+06    -11.2603E+06     277.193E+03    -57.8841E-03     114.298E-03    -56.4141E-03     79.5237E-03    -58.0364E-03     113.920E-03    -56.2403E-03     78.9595E-03
            1613     7.65687E-03     47.2161E-03    -32.7929E+06    -139.493E+06    -12.9862E+06     276.340E+03    -57.6577E-03     114.077E-03    -56.4195E-03     72.0918E-03    -57.7456E-03     113.591E-03    -56.2346E-03     71.6285E-03
            1614     6.80651E-03     47.1454E-03    -35.5371E+06    -146.255E+06    -15.2537E+06     187.605E+03    -57.4170E-03     113.831E-03    -56.4137E-03     64.6410E-03    -57.4632E-03     113.276E-03    -56.2264E-03     64.2628E-03
            1615     5.95588E-03     47.0855E-03    -38.4565E+06    -150.536E+06    -18.3769E+06     159.348E+03    -57.1026E-03     113.507E-03    -56.4045E-03     57.0172E-03    -57.1211E-03     112.908E-03    -56.2224E-03     56.7130E-03
            1616     5.10430E-03     47.0302E-03    -41.6892E+06    -154.969E+06    -23.4697E+06     394.403E+03    -56.9528E-03     113.339E-03    -56.3862E-03     49.2124E-03    -56.9504E-03     112.707E-03    -56.2184E-03     48.9737E-03
            1617     4.25420E-03     46.9860E-03    -44.4612E+06    -159.378E+06    -29.5673E+06     808.989E+03    -56.8383E-03     113.187E-03    -56.3482E-03     41.4983E-03    -56.8175E-03     112.528E-03    -56.2005E-03     41.3192E-03
            1618     3.40349E-03     46.9451E-03    -47.2388E+06    -163.724E+06    -36.5800E+06     497.369E+03    -56.5872E-03     112.891E-03    -56.3038E-03     33.6833E-03    -56.5516E-03     112.213E-03    -56.1808E-03     33.5471E-03
            1619     2.55235E-03     46.9186E-03    -49.6052E+06    -168.177E+06    -43.6206E+06     95.7046E+03    -56.3275E-03     112.616E-03    -56.2887E-03     25.5454E-03    -56.2785E-03     111.921E-03    -56.1910E-03     25.4452E-03
            1620     1.70163E-03     46.8941E-03    -51.2667E+06    -170.884E+06    -48.1843E+06    -348.563E+03    -56.2271E-03     112.557E-03    -56.3298E-03     16.9866E-03    -56.1704E-03     111.851E-03    -56.2486E-03     16.9136E-03
            1621     850.461E-06     46.8851E-03    -52.4818E+06    -172.409E+06    -50.6051E+06    -93.9740E+03    -56.2941E-03     112.739E-03    -56.4450E-03     9.33305E-03    -56.2343E-03     112.028E-03    -56.3719E-03     9.29508E-03
            1622     16.1628E-03     47.9759E-03    -6.01964E+06     158.520E+06     115.214E+06     150.681E+03    -74.6182E-03     131.115E-03    -56.4972E-03     353.467E-03    -96.6092E-03     153.314E-03    -56.1423E-03     357.952E-03
            1623     15.3155E-03     47.4718E-03    -12.9895E+06     139.540E+06     104.055E+06    -426.886E+03    -83.9550E-03     140.463E-03    -56.5083E-03     411.762E-03    -106.307E-03     162.963E-03    -56.1715E-03     409.408E-03
            1624     14.4634E-03     47.1136E-03    -18.6897E+06     98.1703E+06     66.3852E+06    -518.269E+03    -71.4474E-03     127.851E-03    -56.4038E-03     282.932E-03    -79.3540E-03     135.847E-03    -56.1871E-03     279.965E-03
            1625     13.6124E-03     46.8960E-03    -22.4934E+06     59.5045E+06     24.7249E+06     398.864E+03    -63.1078E-03     119.379E-03    -56.2717E-03     187.121E-03    -66.0979E-03     122.429E-03    -56.2018E-03     185.047E-03
            1626     12.7635E-03     46.7348E-03    -23.1641E+06     30.8179E+06    -767.987E+03     1.41629E+06    -59.9478E-03     116.143E-03    -56.1949E-03     139.437E-03    -61.4561E-03     117.680E-03    -56.2099E-03     137.907E-03
            1627     11.9100E-03     46.6145E-03    -22.8616E+06    -10.0001E+06    -8.95851E+06     1.30789E+06    -58.7355E-03     114.964E-03    -56.2280E-03     114.862E-03    -59.6229E-03     115.760E-03    -56.2251E-03     113.663E-03
            1628     11.0604E-03     46.5051E-03    -24.3710E+06    -58.7593E+06    -9.84208E+06     713.533E+03    -58.5872E-03     114.892E-03    -56.3047E-03     102.355E-03    -59.1505E-03     115.189E-03    -56.2333E-03     101.364E-03
            1629     10.2094E-03     46.4086E-03    -26.3390E+06    -89.5404E+06    -10.2955E+06     761.723E+03    -58.4648E-03     114.808E-03    -56.3435E-03     94.7057E-03    -58.8394E-03     114.801E-03    -56.2270E-03     93.8848E-03
            1630     9.35864E-03     46.3139E-03    -28.2619E+06    -110.968E+06    -10.2221E+06     695.925E+03    -58.2555E-03     114.619E-03    -56.3640E-03     87.1387E-03    -58.5013E-03     114.401E-03    -56.2132E-03     86.4587E-03
            1631     8.50845E-03     46.2323E-03    -30.4135E+06    -128.291E+06    -11.0604E+06     519.286E+03    -57.9684E-03     114.340E-03    -56.3711E-03     79.4271E-03    -58.1206E-03     113.960E-03    -56.1963E-03     78.8649E-03
            1632     7.65746E-03     46.1539E-03    -32.8364E+06    -139.640E+06    -12.6667E+06     700.723E+03    -57.5758E-03     113.948E-03    -56.3724E-03     71.9870E-03    -57.6633E-03     113.460E-03    -56.1856E-03     71.5314E-03
            1633     6.80647E-03     46.0860E-03    -35.5227E+06    -146.410E+06    -15.1088E+06     554.395E+03    -57.2819E-03     113.655E-03    -56.3726E-03     64.4339E-03    -57.3274E-03     113.098E-03    -56.1844E-03     64.0625E-03
            1634     5.95542E-03     46.0237E-03    -38.2898E+06    -150.612E+06    -18.3108E+06     462.616E+03    -57.1309E-03     113.494E-03    -56.3629E-03     56.8880E-03    -57.1483E-03     112.894E-03    -56.1806E-03     56.5881E-03
            1635     5.10546E-03     45.9708E-03    -41.1919E+06    -154.829E+06    -23.6541E+06     611.120E+03    -56.9733E-03     113.305E-03    -56.3316E-03     49.3018E-03    -56.9682E-03     112.673E-03    -56.1657E-03     49.0669E-03
            1636     4.25453E-03     45.9236E-03    -44.6191E+06    -159.630E+06    -29.8997E+06     529.270E+03    -56.7003E-03     112.998E-03    -56.2979E-03     41.6065E-03    -56.6793E-03     112.339E-03    -56.1513E-03     41.4250E-03
            1637     3.40313E-03     45.8872E-03    -47.1148E+06    -163.584E+06    -36.6869E+06     275.810E+03    -56.4085E-03     112.691E-03    -56.2821E-03     33.4179E-03    -56.3723E-03     112.013E-03    -56.1600E-03     33.2790E-03
            1638     2.55232E-03     45.8556E-03    -48.7951E+06    -167.550E+06    -43.2417E+06    -41.6736E+03    -56.2404E-03     112.544E-03    -56.3033E-03     25.1312E-03    -56.1888E-03     111.849E-03    -56.2058E-03     25.0282E-03
            1639     1.70141E-03     45.8363E-03    -50.5232E+06    -170.771E+06    -48.4841E+06    -158.108E+03    -56.2563E-03     112.616E-03    -56.3602E-03     17.0895E-03    -56.1955E-03     111.911E-03    -56.2817E-03     17.0202E-03
            1640     850.818E-06     45.8212E-03    -52.5967E+06    -172.596E+06    -51.2547E+06    -1.15381E+06    -56.6660E-03     112.809E-03    -56.1431E-03     9.52903E-03    -56.6058E-03     112.098E-03    -56.0729E-03     9.47742E-03
            1641     16.1669E-03     46.9119E-03    -6.25857E+06     158.609E+06     115.365E+06     345.693E+03    -74.9063E-03     131.385E-03    -56.4786E-03     353.598E-03    -96.8131E-03     153.498E-03    -56.1227E-03     358.103E-03
            1642     15.3164E-03     46.4108E-03    -12.2865E+06     140.535E+06     104.437E+06     383.916E+03    -83.4593E-03     139.939E-03    -56.4801E-03     409.965E-03    -105.625E-03     162.257E-03    -56.1439E-03     407.703E-03
            1643     14.4640E-03     46.0559E-03    -18.5187E+06     97.9635E+06     66.8236E+06     178.653E+03    -71.4798E-03     127.861E-03    -56.3813E-03     283.288E-03    -79.4071E-03     135.877E-03    -56.1623E-03     280.334E-03
            1644     13.6143E-03     45.8306E-03    -22.4064E+06     58.9618E+06     25.0929E+06    -421.581E+03    -63.0934E-03     119.342E-03    -56.2486E-03     187.160E-03    -66.0836E-03     122.389E-03    -56.1761E-03     185.073E-03
            1645     12.7615E-03     45.6782E-03    -23.7372E+06     29.7712E+06    -2.01925E+06    -1.02981E+06    -59.7650E-03     115.935E-03    -56.1705E-03     139.318E-03    -61.2714E-03     117.469E-03    -56.1893E-03     137.762E-03
            1646     11.9117E-03     45.5510E-03    -24.0937E+06    -11.1327E+06    -10.0900E+06     255.672E+03    -58.7174E-03     114.928E-03    -56.2102E-03     114.875E-03    -59.6063E-03     115.721E-03    -56.2095E-03     113.664E-03
            1647     11.0602E-03     45.4462E-03    -25.4028E+06    -58.0553E+06    -9.85511E+06     1.49158E+06    -58.7215E-03     115.005E-03    -56.2830E-03     102.221E-03    -59.2927E-03     115.308E-03    -56.2112E-03     101.236E-03
            1648     10.2099E-03     45.3453E-03    -26.9808E+06    -89.2666E+06    -10.5770E+06     1.27729E+06    -58.6084E-03     114.914E-03    -56.3058E-03     94.4394E-03    -58.9863E-03     114.910E-03    -56.1901E-03     93.6223E-03
            1649     9.35950E-03     45.2552E-03    -28.8242E+06    -111.001E+06    -10.3928E+06     1.10446E+06    -58.1326E-03     114.455E-03    -56.3220E-03     86.8928E-03    -58.3796E-03     114.235E-03    -56.1712E-03     86.2209E-03
            1650     8.50806E-03     45.1696E-03    -31.3226E+06    -128.052E+06    -11.3769E+06     998.969E+03    -57.8822E-03     114.216E-03    -56.3340E-03     79.5145E-03    -58.0380E-03     113.839E-03    -56.1598E-03     78.9613E-03
            1651     7.65815E-03     45.0946E-03    -33.4636E+06    -139.606E+06    -13.1549E+06     612.819E+03    -57.6776E-03     114.006E-03    -56.3286E-03     71.9443E-03    -57.7677E-03     113.520E-03    -56.1434E-03     71.4867E-03
            1652     6.80699E-03     45.0249E-03    -35.5168E+06    -146.153E+06    -15.2487E+06     622.983E+03    -57.3364E-03     113.650E-03    -56.3141E-03     64.3763E-03    -57.3816E-03     113.095E-03    -56.1269E-03     64.0067E-03
            1653     5.95651E-03     44.9636E-03    -38.3507E+06    -150.569E+06    -18.3539E+06     553.835E+03    -57.0393E-03     113.339E-03    -56.2997E-03     56.6824E-03    -57.0565E-03     112.739E-03    -56.1176E-03     56.3852E-03
            1654     5.10500E-03     44.9095E-03    -41.3989E+06    -154.911E+06    -23.4653E+06     812.095E+03    -56.7843E-03     113.067E-03    -56.2830E-03     49.2459E-03    -56.7800E-03     112.434E-03    -56.1157E-03     49.0155E-03
            1655     4.25404E-03     44.8641E-03    -43.9794E+06    -159.357E+06    -29.8235E+06     357.721E+03    -56.6777E-03     112.934E-03    -56.2563E-03     41.3668E-03    -56.6539E-03     112.275E-03    -56.1105E-03     41.1831E-03
            1656     3.40390E-03     44.8256E-03    -46.9395E+06    -163.405E+06    -36.4023E+06    -36.5538E+03    -56.4596E-03     112.686E-03    -56.2260E-03     33.1379E-03    -56.4230E-03     112.008E-03    -56.1030E-03     32.9946E-03
            1657     2.55282E-03     44.7968E-03     -49.593E+06    -167.674E+06    -43.0893E+06     167.020E+03    -56.1888E-03     112.418E-03    -56.2292E-03     25.0172E-03    -56.1412E-03     111.724E-03    -56.1296E-03     24.9168E-03
            1658     1.70139E-03     44.7748E-03    -51.1249E+06    -171.108E+06    -48.7235E+06    -36.3481E+03    -56.2193E-03     112.483E-03    -56.2635E-03     17.1451E-03    -56.1607E-03     111.777E-03    -56.1849E-03     17.0781E-03
            1659     850.573E-06     44.7613E-03    -51.5076E+06    -172.521E+06    -52.4495E+06    -84.7045E+03    -56.3476E-03     112.584E-03    -56.2364E-03     9.39005E-03    -56.2804E-03     111.874E-03    -56.1738E-03     9.35312E-03
            1660     16.1687E-03     45.8526E-03    -6.44231E+06     157.792E+06     114.378E+06    -3.56740E+03    -75.0093E-03     131.431E-03    -56.4217E-03     353.900E-03    -96.9336E-03     153.561E-03    -56.0693E-03     358.431E-03
            1661     15.3148E-03     45.3507E-03    -12.6831E+06     139.682E+06     104.079E+06    -126.190E+03    -83.0194E-03     139.471E-03    -56.4518E-03     411.986E-03    -105.339E-03     161.940E-03    -56.1155E-03     409.841E-03
            1662     14.4654E-03     44.9930E-03    -17.8226E+06     98.1943E+06     66.5475E+06     371.547E+03    -71.8184E-03     128.181E-03    -56.3626E-03     283.614E-03    -79.7605E-03     136.215E-03    -56.1464E-03     280.618E-03
            1663     13.6127E-03     44.7721E-03    -21.4765E+06     60.5165E+06     22.0750E+06    -732.277E+03    -62.9027E-03     119.113E-03    -56.2106E-03     187.166E-03    -65.8780E-03     122.163E-03    -56.1568E-03     185.083E-03
            1664     12.7633E-03     44.6151E-03    -23.6581E+06     29.5582E+06    -4.93958E+06    -872.201E+03    -59.8775E-03     116.015E-03    -56.1376E-03     138.892E-03    -61.3792E-03     117.552E-03    -56.1708E-03     137.335E-03
            1665     11.9114E-03     44.4923E-03    -25.9424E+06    -13.8613E+06    -12.1119E+06     329.372E+03    -58.9050E-03     115.080E-03    -56.1752E-03     115.047E-03    -59.7969E-03     115.866E-03    -56.1781E-03     113.834E-03
            1666     11.0607E-03     44.3837E-03    -27.3084E+06    -58.3002E+06    -10.9581E+06     1.00575E+06    -58.6889E-03     114.930E-03    -56.2415E-03     102.399E-03    -59.2658E-03     115.235E-03    -56.1722E-03     101.410E-03
            1667     10.2105E-03     44.2850E-03    -28.2574E+06    -89.0160E+06    -11.2795E+06     1.33706E+06    -58.4991E-03     114.766E-03    -56.2670E-03     94.2279E-03    -58.8809E-03     114.764E-03    -56.1534E-03     93.4149E-03
            1668     9.35953E-03     44.1938E-03    -29.6230E+06    -111.114E+06    -11.1010E+06     1.19947E+06    -58.1340E-03     114.418E-03    -56.2836E-03     86.8929E-03    -58.3834E-03     114.200E-03    -56.1350E-03     86.2231E-03
            1669     8.50916E-03     44.1101E-03    -31.1452E+06    -127.401E+06    -11.4151E+06     1.07472E+06    -57.8641E-03     114.158E-03    -56.2936E-03     79.5064E-03    -58.0191E-03     113.783E-03    -56.1208E-03     78.9558E-03
            1670     7.65746E-03     44.0328E-03    -33.0749E+06    -139.212E+06    -13.0689E+06     712.485E+03    -57.6586E-03     113.945E-03    -56.2861E-03     71.6686E-03    -57.7467E-03     113.459E-03    -56.1016E-03     71.2133E-03
            1671     6.80764E-03     43.9647E-03    -35.7254E+06    -146.023E+06    -15.3083E+06     701.722E+03    -57.3883E-03     113.652E-03    -56.2639E-03     64.3926E-03    -57.4346E-03     113.098E-03    -56.0769E-03     64.0240E-03
            1672     5.95644E-03     43.9029E-03    -38.8601E+06    -150.694E+06    -18.7542E+06     656.562E+03    -57.0841E-03     113.319E-03    -56.2345E-03     56.7622E-03    -57.1029E-03     112.719E-03    -56.0535E-03     56.4673E-03
            1673     5.10582E-03     43.8500E-03    -41.3372E+06    -154.704E+06    -23.3322E+06     407.426E+03    -56.8352E-03     113.035E-03    -56.1994E-03     48.8451E-03    -56.8308E-03     112.402E-03    -56.0318E-03     48.6092E-03
            1674     4.25507E-03     43.8028E-03    -44.0171E+06    -158.977E+06    -29.5245E+06     473.567E+03    -56.4791E-03     112.651E-03    -56.1715E-03     41.0240E-03    -56.4562E-03     111.993E-03    -56.0248E-03     40.8430E-03
            1675     3.40364E-03     43.7660E-03    -46.8913E+06    -163.326E+06    -36.4814E+06     230.038E+03    -56.2843E-03     112.449E-03    -56.1643E-03     33.1068E-03    -56.2474E-03     111.771E-03    -56.0419E-03     32.9682E-03
            1676     2.55263E-03     43.7362E-03    -49.4913E+06    -167.429E+06    -42.5587E+06    -82.4842E+03    -56.3642E-03     112.504E-03    -56.1403E-03     25.2057E-03    -56.3172E-03     111.811E-03    -56.0385E-03     25.1025E-03
            1677     1.70225E-03     43.7149E-03    -52.0693E+06    -170.879E+06    -47.6663E+06     228.417E+03    -56.2343E-03     112.317E-03    -56.0825E-03     17.0484E-03    -56.1823E-03     111.611E-03    -55.9975E-03     16.9846E-03
            1678     851.250E-06     43.7008E-03    -53.8517E+06    -174.015E+06    -52.9169E+06     1.72473E+06    -55.9502E-03     112.098E-03    -56.1474E-03     9.36210E-03    -55.8917E-03     111.384E-03    -56.0816E-03     9.35042E-03
            1679     16.1687E-03     44.8003E-03    -5.74148E+06     158.331E+06     115.308E+06     269.682E+03    -75.2966E-03     131.739E-03    -56.4427E-03     353.445E-03    -97.3065E-03     153.957E-03    -56.0874E-03     357.860E-03
            1680     15.3158E-03     44.2869E-03    -11.9895E+06     139.418E+06     104.342E+06     339.749E+03    -83.7783E-03     140.227E-03    -56.4490E-03     412.816E-03    -106.210E-03     162.809E-03    -56.1121E-03     410.506E-03
            1681     14.4641E-03     43.9332E-03    -18.1201E+06     98.4449E+06     65.4384E+06     96.8399E+03    -71.5613E-03     127.904E-03    -56.3428E-03     282.894E-03    -79.4463E-03     135.884E-03    -56.1321E-03     279.922E-03
            1682     13.6148E-03     43.7101E-03    -22.8822E+06     61.8618E+06     18.0207E+06     8.39070E+03    -62.9698E-03     119.148E-03    -56.1785E-03     187.274E-03    -65.9524E-03     122.217E-03    -56.1449E-03     185.198E-03
            1683     12.7623E-03     43.5555E-03    -26.3088E+06     28.3981E+06    -9.21792E+06    -151.753E+03    -60.0642E-03     116.165E-03    -56.1006E-03     139.104E-03    -61.5735E-03     117.708E-03    -56.1497E-03     137.551E-03
            1684     11.9120E-03     43.4305E-03    -27.0669E+06    -14.4485E+06    -12.8365E+06     129.740E+03    -59.1359E-03     115.272E-03    -56.1365E-03     114.897E-03    -60.0318E-03     116.058E-03    -56.1405E-03     113.676E-03
            1685     11.0617E-03     43.3233E-03    -27.5235E+06    -59.4156E+06    -11.8027E+06     724.345E+03    -58.5503E-03     114.745E-03    -56.1952E-03     102.298E-03    -59.1216E-03     115.042E-03    -56.1281E-03     101.313E-03
            1686     10.2104E-03     43.2239E-03    -28.8338E+06    -89.1640E+06    -11.5086E+06     909.593E+03    -58.2327E-03     114.469E-03    -56.2364E-03     94.2995E-03    -58.6144E-03     114.465E-03    -56.1229E-03     93.4881E-03
            1687     9.35977E-03     43.1334E-03    -29.8918E+06    -110.330E+06    -11.1959E+06     770.255E+03    -58.2916E-03     114.545E-03    -56.2533E-03     86.9090E-03    -58.5435E-03     114.331E-03    -56.1059E-03     86.2318E-03
            1688     8.50891E-03     43.0487E-03    -30.9254E+06    -127.550E+06    -11.4990E+06     620.313E+03    -58.0688E-03     114.311E-03    -56.2420E-03     79.1413E-03    -58.2225E-03     113.935E-03    -56.0697E-03     78.5820E-03
            1689     7.65918E-03     42.9730E-03    -33.0497E+06    -139.048E+06    -12.8302E+06     835.981E+03    -57.5455E-03     113.770E-03    -56.2246E-03     71.4211E-03    -57.6330E-03     113.284E-03    -56.0392E-03     70.9700E-03
            1690     6.80731E-03     42.9037E-03    -35.4294E+06    -146.038E+06    -15.0900E+06     846.137E+03    -57.2786E-03     113.486E-03    -56.2071E-03     64.0486E-03    -57.3230E-03     112.930E-03    -56.0194E-03     63.6836E-03
            1691     5.95687E-03     42.8430E-03    -37.6539E+06    -150.357E+06    -18.3052E+06     569.094E+03    -57.1984E-03     113.365E-03    -56.1666E-03     56.5815E-03    -57.2120E-03     112.764E-03    -55.9855E-03     56.2855E-03
            1692     5.10644E-03     42.7884E-03    -40.9255E+06    -154.506E+06    -23.2493E+06     234.722E+03    -56.8798E-03     112.986E-03    -56.1063E-03     48.7414E-03    -56.8737E-03     112.354E-03    -55.9392E-03     48.5032E-03
            1693     4.25530E-03     42.7442E-03    -44.1882E+06    -158.846E+06    -29.3357E+06     451.244E+03    -56.3462E-03     112.417E-03    -56.0711E-03     40.8609E-03    -56.3245E-03     111.760E-03    -55.9234E-03     40.6804E-03
            1694     3.40390E-03     42.7055E-03    -46.8932E+06    -163.348E+06    -36.4309E+06     454.271E+03    -56.1610E-03     112.230E-03    -56.0692E-03     33.0665E-03    -56.1240E-03     111.552E-03    -55.9465E-03     32.9321E-03
            1695     2.55312E-03     42.6762E-03    -49.4861E+06    -167.618E+06    -43.0947E+06     340.597E+03    -56.2515E-03     112.302E-03    -56.0502E-03     25.2151E-03    -56.2034E-03     111.608E-03    -55.9509E-03     25.1183E-03
            1696     1.70225E-03     42.6539E-03    -51.9089E+06    -170.691E+06    -47.8772E+06     621.943E+03    -56.1951E-03     112.178E-03    -55.9833E-03     17.0391E-03    -56.1422E-03     111.474E-03    -55.9000E-03     16.9811E-03
            1697     850.897E-06     42.6427E-03    -53.6023E+06    -172.908E+06    -51.1154E+06     1.06276E+06    -56.2363E-03     111.879E-03    -55.6424E-03     9.49857E-03    -56.1805E-03     111.168E-03    -55.5695E-03     9.47883E-03
            1698     16.1634E-03     43.7285E-03    -6.40119E+06     157.946E+06     115.637E+06    -313.717E+03    -75.2635E-03     131.719E-03    -56.4553E-03     352.637E-03    -97.1801E-03     153.838E-03    -56.0969E-03     357.058E-03
            1699     15.3174E-03     43.2300E-03    -12.2834E+06     139.127E+06     104.802E+06     361.510E+03    -84.0425E-03     140.478E-03    -56.4357E-03     411.032E-03    -106.287E-03     162.869E-03    -56.0957E-03     408.680E-03
            1700     14.4657E-03     42.8708E-03    -18.6574E+06     98.2908E+06     64.1083E+06     1.18981E+06    -71.3144E-03     127.627E-03    -56.3127E-03     283.414E-03    -79.2196E-03     135.629E-03    -56.1076E-03     280.479E-03
            1701     13.6129E-03     42.6506E-03    -23.2406E+06     62.3335E+06     17.7831E+06     1.07797E+06    -62.9956E-03     119.156E-03    -56.1600E-03     187.015E-03    -65.9727E-03     122.220E-03    -56.1278E-03     184.956E-03
            1702     12.7633E-03     42.4932E-03    -24.9663E+06     28.7855E+06    -7.71316E+06     313.743E+03    -60.2842E-03     116.362E-03    -56.0781E-03     139.010E-03    -61.7873E-03     117.901E-03    -56.1222E-03     137.458E-03
            1703     11.9129E-03     42.3700E-03    -26.5215E+06    -15.0481E+06    -12.9398E+06     268.649E+03    -59.1813E-03     115.278E-03    -56.0971E-03     114.704E-03    -60.0718E-03     116.059E-03    -56.1016E-03     113.485E-03
            1704     11.0618E-03     42.2621E-03    -27.7833E+06    -59.7192E+06    -12.0825E+06     345.327E+03    -58.4669E-03     114.620E-03    -56.1534E-03     102.013E-03    -59.0373E-03     114.915E-03    -56.0870E-03     101.025E-03
            1705     10.2109E-03     42.1645E-03    -28.2886E+06    -89.4311E+06    -11.4635E+06     171.814E+03    -58.3342E-03     114.524E-03    -56.1898E-03     94.1626E-03    -58.7118E-03     114.517E-03    -56.0764E-03     93.3417E-03
            1706     9.35995E-03     42.0714E-03    -29.4218E+06    -110.266E+06    -10.7452E+06     315.169E+03    -58.3470E-03     114.543E-03    -56.1960E-03     86.5124E-03    -58.5963E-03     114.328E-03    -56.0472E-03     85.8295E-03
            1707     8.51029E-03     41.9883E-03    -31.5112E+06    -127.848E+06    -11.6851E+06     472.490E+03    -57.9561E-03     114.135E-03    -56.1789E-03     78.6049E-03    -58.1106E-03     113.758E-03    -56.0062E-03     78.0458E-03
            1708     7.65861E-03     41.9122E-03    -33.4794E+06    -139.147E+06    -13.3070E+06     571.447E+03    -57.6101E-03     113.763E-03    -56.1531E-03     71.3634E-03    -57.6986E-03     113.277E-03    -55.9693E-03     70.9094E-03
            1709     6.80859E-03     41.8440E-03    -35.4036E+06    -145.471E+06    -14.8769E+06     512.068E+03    -57.4019E-03     113.518E-03    -56.1158E-03     63.8394E-03    -57.4469E-03     112.964E-03    -55.9279E-03     63.4699E-03
            1710     5.95760E-03     41.7817E-03    -38.2962E+06    -150.285E+06    -18.1829E+06     680.085E+03    -56.9906E-03     113.060E-03    -56.0693E-03     56.2118E-03    -57.0071E-03     112.460E-03    -55.8868E-03     55.9194E-03
            1711     5.10645E-03     41.7291E-03    -41.4446E+06    -155.110E+06    -24.1885E+06     365.201E+03    -56.6141E-03     112.640E-03    -56.0264E-03     48.4498E-03    -56.6079E-03     112.007E-03    -55.8623E-03     48.2154E-03
            1712     4.25564E-03     41.6834E-03    -43.9395E+06    -158.868E+06    -29.3273E+06     225.860E+03    -56.4679E-03     112.456E-03    -55.9885E-03     40.7585E-03    -56.4449E-03     111.798E-03    -55.8410E-03     40.5748E-03
            1713     3.40484E-03     41.6467E-03    -46.7112E+06    -162.777E+06    -35.7022E+06     828.799E+03    -56.2545E-03     112.195E-03    -55.9408E-03     33.1127E-03    -56.2183E-03     111.519E-03    -55.8155E-03     32.9839E-03
            1714     2.55332E-03     41.6156E-03    -49.6157E+06    -167.653E+06    -43.4539E+06     919.408E+03    -55.9791E-03     111.891E-03    -55.9120E-03     25.0357E-03    -55.9308E-03     111.198E-03    -55.8142E-03     24.9480E-03
            1715     1.70181E-03     41.5953E-03    -50.7811E+06    -170.372E+06    -48.4528E+06     283.855E+03    -55.9176E-03     111.837E-03    -55.9194E-03     16.8200E-03    -55.8587E-03     111.134E-03    -55.8410E-03     16.7577E-03
            1716     851.648E-06     41.5806E-03    -51.2152E+06    -171.443E+06    -50.7813E+06    -673.308E+03    -55.9871E-03     111.878E-03    -55.8909E-03     9.72347E-03    -55.9220E-03     111.171E-03    -55.8219E-03     9.67955E-03
            1717     16.1708E-03     42.6699E-03    -6.09966E+06     157.570E+06     115.628E+06     207.795E+03    -75.0985E-03     131.491E-03    -56.3924E-03     352.135E-03    -96.8911E-03     153.486E-03    -56.0339E-03     356.583E-03
            1718     15.3162E-03     42.1679E-03    -13.5406E+06     137.702E+06     103.662E+06     126.035E+03    -83.0483E-03     139.455E-03    -56.4069E-03     411.785E-03    -105.312E-03     161.859E-03    -56.0686E-03     409.633E-03
            1719     14.4648E-03     41.8111E-03    -18.6947E+06     97.8598E+06     65.9065E+06     665.711E+03    -71.8248E-03     128.136E-03    -56.3107E-03     283.595E-03    -79.7565E-03     136.157E-03    -56.0960E-03     280.608E-03
            1720     13.6152E-03     41.5892E-03    -21.4994E+06     62.5370E+06     18.9555E+06     1.23626E+06    -63.2202E-03     119.349E-03    -56.1286E-03     186.979E-03    -66.1882E-03     122.408E-03    -56.0933E-03     184.911E-03
            1721     12.7637E-03     41.4326E-03    -24.1103E+06     29.2761E+06    -8.55504E+06     1.47290E+06    -60.1711E-03     116.203E-03    -56.0324E-03     138.956E-03    -61.6662E-03     117.742E-03    -56.0827E-03     137.423E-03
            1722     11.9128E-03     41.3084E-03    -25.8178E+06    -14.3943E+06    -12.2078E+06     799.988E+03    -59.0274E-03     115.094E-03    -56.0661E-03     114.656E-03    -59.9154E-03     115.874E-03    -56.0688E-03     113.447E-03
            1723     11.0623E-03     41.2021E-03    -26.4383E+06    -59.1227E+06    -11.1568E+06    -307.357E+03    -58.8140E-03     114.925E-03    -56.1114E-03     101.750E-03    -59.3818E-03     115.222E-03    -56.0431E-03     100.745E-03
            1724     10.2117E-03     41.1032E-03    -27.5306E+06    -89.7666E+06    -11.3977E+06    -75.0568E+03    -58.6479E-03     114.761E-03    -56.1136E-03     93.9392E-03    -59.0215E-03     114.752E-03    -56.0005E-03     93.1104E-03
            1725     9.36178E-03     41.0108E-03    -29.1940E+06    -111.376E+06    -10.8725E+06     260.703E+03    -58.1190E-03     114.229E-03    -56.1104E-03     86.2772E-03    -58.3631E-03     114.006E-03    -55.9609E-03     85.5991E-03
            1726     8.50997E-03     40.9279E-03    -30.9608E+06    -127.807E+06    -11.3506E+06     457.732E+03    -57.8190E-03     113.921E-03    -56.1023E-03     78.4318E-03    -57.9698E-03     113.541E-03    -55.9288E-03     77.8765E-03
            1727     7.65987E-03     40.8520E-03    -32.9281E+06    -139.034E+06    -13.1162E+06     377.888E+03    -57.7574E-03     113.822E-03    -56.0647E-03     70.9967E-03    -57.8431E-03     113.335E-03    -55.8809E-03     70.5394E-03
            1728     6.80901E-03     40.7827E-03    -35.5277E+06    -145.896E+06    -15.1176E+06     651.297E+03    -57.3370E-03     113.347E-03    -56.0100E-03     63.5192E-03    -57.3810E-03     112.791E-03    -55.8226E-03     63.1531E-03
            1729     5.95845E-03     40.7226E-03    -38.2676E+06    -150.099E+06    -18.1962E+06     834.452E+03    -56.8035E-03     112.770E-03    -55.9662E-03     56.0747E-03    -56.8196E-03     112.170E-03    -55.7840E-03     55.7867E-03
            1730     5.10714E-03     40.6689E-03    -40.9456E+06    -154.527E+06    -23.8222E+06     502.932E+03    -56.5277E-03     112.456E-03    -55.9284E-03     48.2888E-03    -56.5200E-03     111.823E-03    -55.7640E-03     48.0580E-03
            1731     4.25571E-03     40.6241E-03    -44.3074E+06    -159.623E+06    -30.4315E+06     238.892E+03    -56.4502E-03     112.326E-03    -55.8754E-03     40.4650E-03    -56.4260E-03     111.666E-03    -55.7319E-03     40.2821E-03
            1732     3.40487E-03     40.5858E-03    -47.0928E+06    -162.875E+06    -35.7029E+06     620.351E+03    -56.2601E-03     112.064E-03    -55.8034E-03     32.7022E-03    -56.2257E-03     111.387E-03    -55.6775E-03     32.5704E-03
            1733     2.55404E-03     40.5574E-03    -48.8219E+06    -166.136E+06    -41.6504E+06      877.62E+03    -55.9198E-03     111.660E-03    -55.7402E-03     24.8550E-03    -55.8723E-03     110.970E-03    -55.6368E-03     24.7673E-03
            1734     1.70301E-03     40.5344E-03    -50.7642E+06    -170.027E+06    -47.8968E+06    -151.301E+03    -55.6345E-03     111.386E-03    -55.7518E-03     16.7224E-03    -55.5767E-03     110.684E-03    -55.6711E-03     16.6549E-03
            1735     850.204E-06     40.5233E-03    -51.9766E+06    -172.509E+06    -52.2496E+06     300.627E+03    -55.8341E-03     111.586E-03    -55.7521E-03     9.28061E-03    -55.7690E-03     110.877E-03    -55.6879E-03     9.25008E-03
            1736     16.1702E-03     41.6189E-03    -5.94342E+06     157.015E+06     115.148E+06     532.563E+03    -75.5991E-03     132.010E-03    -56.4108E-03     353.275E-03    -97.5446E-03     154.158E-03    -56.0541E-03     357.611E-03
            1737     15.3154E-03     41.1045E-03    -12.0551E+06     138.978E+06     104.651E+06     1.09169E+06    -83.9177E-03     140.332E-03    -56.4141E-03     413.651E-03    -106.376E-03     162.937E-03    -56.0749E-03     411.326E-03
            1738     14.4661E-03     40.7508E-03    -17.4711E+06     97.6987E+06     67.4607E+06    -186.024E+03    -72.0103E-03     128.313E-03    -56.3026E-03     283.128E-03    -79.9061E-03     136.298E-03    -56.0816E-03     280.120E-03
            1739     13.6143E-03     40.5269E-03    -21.0020E+06     60.1890E+06     22.9843E+06     1.13280E+06    -63.3706E-03     119.495E-03    -56.1240E-03     187.224E-03    -66.3492E-03     122.546E-03    -56.0659E-03     185.145E-03
            1740     12.7645E-03     40.3725E-03    -22.7260E+06     30.0219E+06    -4.22717E+06     2.51929E+06    -60.1662E-03     116.184E-03    -56.0179E-03     138.996E-03    -61.6622E-03     117.718E-03    -56.0496E-03     137.477E-03
            1741     11.9133E-03     40.2475E-03    -23.6522E+06    -12.3444E+06    -10.8369E+06     874.745E+03    -59.2156E-03     115.240E-03    -56.0245E-03     114.453E-03    -60.0979E-03     116.026E-03    -56.0265E-03     113.242E-03
            1742     11.0626E-03     40.1409E-03    -25.0952E+06    -58.9872E+06    -10.6208E+06     344.187E+03    -58.9724E-03     115.025E-03    -56.0526E-03     101.526E-03    -59.5328E-03     115.318E-03    -55.9838E-03     100.528E-03
            1743     10.2131E-03     40.0415E-03    -27.2159E+06    -89.7879E+06    -11.1992E+06     529.504E+03    -58.6044E-03     114.650E-03    -56.0452E-03     93.9173E-03    -58.9762E-03     114.639E-03    -55.9316E-03     93.0983E-03
            1744     9.36163E-03     39.9514E-03    -29.0162E+06    -111.574E+06    -11.2664E+06     395.440E+03    -58.2021E-03     114.234E-03    -56.0314E-03     86.2811E-03    -58.4439E-03     114.009E-03    -55.8838E-03     85.6057E-03
            1745     8.51128E-03     39.8673E-03    -30.8957E+06    -127.907E+06    -11.3701E+06     364.978E+03    -58.0360E-03     114.038E-03    -56.0019E-03     78.2706E-03    -58.1859E-03     113.657E-03    -55.8284E-03     77.7130E-03
            1746     7.66071E-03     39.7909E-03    -33.2309E+06    -139.308E+06    -13.0743E+06     574.787E+03    -57.6117E-03     113.562E-03    -55.9500E-03     70.5697E-03    -57.6973E-03     113.073E-03    -55.7652E-03     70.1180E-03
            1747     6.81002E-03     39.7234E-03    -35.2689E+06    -146.197E+06    -15.2970E+06     613.799E+03    -57.0862E-03     112.989E-03    -55.9026E-03     63.2095E-03    -57.1273E-03     112.430E-03    -55.7160E-03     62.8463E-03
            1748     5.95843E-03     39.6623E-03    -37.5854E+06    -150.087E+06    -18.2601E+06     523.138E+03    -56.8096E-03     112.668E-03    -55.8581E-03     55.7124E-03    -56.8218E-03     112.067E-03    -55.6773E-03     55.4208E-03
            1749     5.10763E-03     39.6096E-03    -40.5343E+06    -154.265E+06    -23.5523E+06     878.850E+03    -56.6343E-03     112.427E-03    -55.7927E-03     48.0296E-03    -56.6250E-03     111.795E-03    -55.6280E-03     47.8038E-03
            1750     4.25708E-03     39.5638E-03    -43.7437E+06    -158.848E+06    -29.8770E+06     783.552E+03    -56.3467E-03     112.060E-03    -55.7129E-03     40.1326E-03    -56.3213E-03     111.402E-03    -55.5686E-03     39.9579E-03
            1751     3.40567E-03     39.5271E-03    -46.8300E+06    -162.726E+06    -35.8650E+06     202.521E+03    -56.0401E-03     111.679E-03    -55.6387E-03     32.4049E-03    -56.0041E-03     111.003E-03    -55.5142E-03     32.2686E-03
            1752     2.55434E-03     39.4970E-03    -49.2402E+06    -166.419E+06    -41.9413E+06     257.985E+03    -55.8134E-03     111.385E-03    -55.5720E-03     24.6304E-03    -55.7671E-03     110.695E-03    -55.4690E-03     24.5347E-03
            1753     1.70247E-03     39.4770E-03    -51.5418E+06    -169.845E+06    -47.4143E+06     474.962E+03    -55.7798E-03     111.246E-03    -55.4664E-03     16.6537E-03    -55.7268E-03     110.545E-03    -55.3825E-03     16.5952E-03
            1754     852.371E-06     39.4623E-03    -53.4128E+06    -172.523E+06    -51.4556E+06     822.640E+03    -55.6736E-03     110.786E-03    -55.1122E-03     8.94534E-03    -55.6166E-03     110.077E-03    -55.0419E-03     8.92197E-03
            1755     16.1616E-03     40.5453E-03    -6.04103E+06     156.562E+06     114.646E+06    -19.4868E+03    -75.3865E-03     131.849E-03    -56.4624E-03     351.864E-03    -97.2533E-03     153.918E-03    -56.1074E-03     356.182E-03
            1756     15.3184E-03     40.0470E-03    -12.4189E+06     138.808E+06     104.062E+06    -216.922E+03    -84.7327E-03     141.154E-03    -56.4215E-03     411.299E-03    -107.022E-03     163.591E-03    -56.0845E-03     408.817E-03
            1757     14.4649E-03     39.6875E-03    -18.0854E+06     97.2422E+06     66.1164E+06     294.646E+03    -71.9167E-03     128.192E-03    -56.2751E-03     283.464E-03    -79.8329E-03     136.197E-03    -56.0593E-03     280.465E-03
            1758     13.6158E-03     39.4672E-03    -22.0221E+06     58.2685E+06     25.1337E+06     341.635E+03    -63.3284E-03     119.449E-03    -56.1205E-03     186.889E-03    -66.3050E-03     122.481E-03    -56.0474E-03     184.808E-03
            1759     12.7639E-03     39.3106E-03    -23.1564E+06     29.6492E+06    -1.18324E+06     865.042E+03    -60.4923E-03     116.495E-03    -56.0027E-03     138.892E-03    -61.9953E-03     118.024E-03    -56.0180E-03     137.343E-03
            1760     11.9143E-03     39.1867E-03    -23.8103E+06    -11.1469E+06    -10.6187E+06     1.72812E+06    -59.5095E-03     115.477E-03    -55.9673E-03     114.302E-03    -60.3934E-03     116.267E-03    -55.9697E-03     113.096E-03
            1761     11.0642E-03     39.0795E-03    -25.6701E+06    -58.8951E+06    -10.8477E+06     1.38462E+06    -58.8433E-03     114.828E-03    -55.9844E-03     101.320E-03    -59.4029E-03     115.119E-03    -55.9160E-03     100.342E-03
            1762     10.2125E-03     38.9815E-03    -27.2392E+06    -89.7477E+06    -11.2349E+06     870.299E+03    -58.5606E-03     114.538E-03    -55.9772E-03     93.3825E-03    -58.9304E-03     114.525E-03    -55.8638E-03     92.5700E-03
            1763     9.36252E-03     38.8903E-03    -29.0557E+06    -110.888E+06    -10.9678E+06     765.043E+03    -58.5485E-03     114.489E-03    -55.9410E-03     85.7718E-03    -58.7916E-03     114.268E-03    -55.7929E-03     85.0971E-03
            1764     8.51258E-03     38.8062E-03    -31.2333E+06    -128.032E+06    -11.7167E+06     577.044E+03    -58.0515E-03     113.933E-03    -55.8810E-03     77.7571E-03    -58.2012E-03     113.551E-03    -55.7086E-03     77.2035E-03
            1765     7.66169E-03     38.7316E-03    -33.2124E+06    -139.314E+06    -12.9217E+06     693.288E+03    -57.3875E-03     113.215E-03    -55.8280E-03     70.2287E-03    -57.4719E-03     112.725E-03    -55.6424E-03     69.7827E-03
            1766     6.81031E-03     38.6631E-03    -35.8174E+06    -146.009E+06    -15.3829E+06     426.140E+03    -57.1013E-03     112.876E-03    -55.7749E-03     62.8063E-03    -57.1446E-03     112.319E-03    -55.5882E-03     62.4417E-03
            1767     5.95989E-03     38.6031E-03    -38.7235E+06    -150.588E+06    -18.4207E+06     245.159E+03    -56.8237E-03     112.532E-03    -55.7088E-03     55.2178E-03    -56.8401E-03     111.930E-03    -55.5264E-03     54.9232E-03
            1768     5.10879E-03     38.5494E-03    -41.5176E+06    -154.726E+06    -23.8280E+06     643.846E+03    -56.4562E-03     112.086E-03    -55.6295E-03     47.7695E-03    -56.4503E-03     111.452E-03    -55.4641E-03     47.5427E-03
            1769     4.25732E-03     38.5049E-03    -43.6916E+06    -158.013E+06    -29.0124E+06     870.853E+03    -56.1653E-03     111.719E-03    -55.5540E-03     40.1111E-03    -56.1419E-03     111.064E-03    -55.4066E-03     39.9397E-03
            1770     3.40621E-03     38.4676E-03    -46.3648E+06    -162.230E+06    -35.8830E+06     418.236E+03    -55.9304E-03     111.400E-03    -55.4697E-03     32.2993E-03    -55.8926E-03     110.726E-03    -55.3467E-03     32.1668E-03
            1771     2.55459E-03     38.4389E-03    -49.3465E+06    -166.933E+06    -42.8882E+06     188.894E+03    -55.7624E-03     111.131E-03    -55.3682E-03     24.2868E-03    -55.7145E-03     110.439E-03    -55.2691E-03     24.1906E-03
            1772     1.70382E-03     38.4172E-03    -51.4551E+06    -169.629E+06    -47.7237E+06     892.417E+03    -55.5202E-03     110.771E-03    -55.2506E-03     16.6901E-03    -55.4666E-03     110.071E-03    -55.1686E-03     16.6383E-03
            1773     852.081E-06     38.4040E-03    -52.5018E+06    -171.812E+06    -51.4199E+06    -672.090E+03    -55.1469E-03     110.384E-03    -55.2375E-03     8.95360E-03    -55.0863E-03     109.678E-03    -55.1693E-03     8.90861E-03
            1774     16.1716E-03     39.4869E-03    -5.98704E+06     157.106E+06     115.211E+06     92.0938E+03    -75.5333E-03     131.956E-03    -56.4231E-03     352.446E-03    -97.3663E-03     153.992E-03    -56.0662E-03     356.785E-03
            1775     15.3152E-03     38.9839E-03    -12.5339E+06     138.234E+06     103.838E+06     230.633E+03    -84.0086E-03     140.403E-03    -56.3949E-03     410.969E-03    -106.254E-03     162.794E-03    -56.0580E-03     408.645E-03
            1776     14.4673E-03     38.6273E-03    -18.6766E+06     96.7177E+06     65.7193E+06     591.872E+03    -72.1885E-03     128.444E-03    -56.2553E-03     283.001E-03    -80.1014E-03     136.443E-03    -56.0399E-03     279.985E-03
            1777     13.6144E-03     38.4057E-03    -23.1267E+06     59.0587E+06     20.6644E+06     153.329E+03    -63.5463E-03     119.606E-03    -56.0602E-03     186.670E-03    -66.5136E-03     122.641E-03    -56.0090E-03     184.581E-03
            1778     12.7656E-03     38.2492E-03    -25.8851E+06     28.2909E+06    -6.46440E+06    -352.979E+03    -60.7561E-03     116.679E-03    -55.9232E-03     138.276E-03    -62.2594E-03     118.210E-03    -55.9590E-03     136.703E-03
            1779     11.9148E-03     38.1254E-03    -26.1928E+06    -12.1043E+06    -11.4704E+06     732.704E+03    -59.4708E-03     115.364E-03    -55.8935E-03     113.604E-03    -60.3589E-03     116.150E-03    -55.8953E-03     112.389E-03
            1780     11.0641E-03     38.0186E-03    -26.2419E+06    -58.2076E+06    -10.5397E+06     1.35950E+06    -58.9897E-03     114.887E-03    -55.8975E-03     100.510E-03    -59.5518E-03     115.180E-03    -55.8277E-03     99.5293E-03
            1781     10.2145E-03     37.9214E-03    -27.7725E+06    -89.2915E+06    -11.1715E+06     1.11468E+06    -58.8325E-03     114.693E-03    -55.8605E-03     92.6094E-03    -59.2043E-03     114.682E-03    -55.7467E-03     91.7965E-03
            1782     9.36417E-03     37.8285E-03    -29.3839E+06    -110.884E+06    -10.8647E+06     917.313E+03    -58.3580E-03     114.166E-03    -55.8081E-03     85.1195E-03    -58.6001E-03     113.942E-03    -55.6590E-03     84.4516E-03
            1783     8.51339E-03     37.7469E-03    -31.0795E+06    -128.087E+06    -11.6003E+06     700.695E+03    -57.7601E-03     113.516E-03    -55.7560E-03     77.2278E-03    -57.9068E-03     113.131E-03    -55.5832E-03     76.6816E-03
            1784     7.66242E-03     37.6713E-03    -33.2898E+06    -139.499E+06    -13.0848E+06     541.186E+03    -57.4734E-03     113.170E-03    -55.6967E-03     69.9686E-03    -57.5571E-03     112.678E-03    -55.5116E-03     69.5209E-03
            1785     6.81201E-03     37.6039E-03    -35.7763E+06    -145.762E+06    -14.7748E+06     733.298E+03    -57.1676E-03     112.787E-03    -55.6194E-03     62.4627E-03    -57.2113E-03     112.229E-03    -55.4300E-03     62.1029E-03
            1786     5.96074E-03     37.5428E-03    -38.8635E+06    -150.367E+06    -18.5671E+06     544.600E+03    -56.6900E-03     112.221E-03    -55.5312E-03     54.9124E-03    -56.7065E-03     111.620E-03    -55.3496E-03     54.6239E-03
            1787     5.10949E-03     37.4912E-03    -41.8249E+06    -154.577E+06    -23.7715E+06     376.385E+03    -56.2214E-03     111.675E-03    -55.4536E-03     47.4530E-03    -56.2168E-03     111.042E-03    -55.2877E-03     47.2254E-03
            1788     4.25809E-03     37.4454E-03    -44.3857E+06    -158.562E+06    -30.0773E+06     269.881E+03    -55.9542E-03     111.336E-03    -55.3815E-03     39.8156E-03    -55.9314E-03     110.680E-03    -55.2376E-03     39.6387E-03
            1789     3.40663E-03     37.4091E-03    -46.7155E+06    -162.391E+06    -36.1191E+06     439.509E+03    -55.8307E-03     111.124E-03    -55.2934E-03     31.9707E-03    -55.7939E-03     110.450E-03    -55.1708E-03     31.8391E-03
            1790     2.55566E-03     37.3797E-03    -49.1527E+06    -166.488E+06    -42.7373E+06     422.854E+03    -55.5611E-03     110.746E-03    -55.1847E-03     24.2968E-03    -55.5129E-03     110.056E-03    -55.0857E-03     24.2048E-03
            1791     1.70363E-03     37.3593E-03    -50.5650E+06    -169.348E+06    -47.9924E+06     50.9391E+03    -55.1654E-03     110.291E-03    -55.1261E-03     16.3244E-03    -55.1073E-03     109.592E-03    -55.0472E-03     16.2616E-03
            1792     850.593E-06     37.3472E-03    -51.2576E+06    -170.854E+06    -50.9990E+06    -604.838E+03    -55.2565E-03     110.260E-03    -55.0031E-03     8.52908E-03    -55.1915E-03     109.556E-03    -54.9361E-03     8.48546E-03
            1793     16.1665E-03     38.4304E-03    -6.63804E+06     156.463E+06     114.409E+06    -284.316E+03    -76.1269E-03     132.545E-03    -56.4181E-03     354.090E-03    -98.0956E-03     154.714E-03    -56.0633E-03     358.380E-03
            1794     15.3178E-03     37.9202E-03    -12.5050E+06     137.544E+06     104.017E+06     487.549E+03    -84.5057E-03     140.880E-03    -56.3747E-03     411.302E-03    -106.786E-03     163.303E-03    -56.0359E-03     408.883E-03
            1795     14.4656E-03     37.5668E-03    -18.0409E+06     96.8036E+06     66.1521E+06     1.07058E+06    -72.4493E-03     128.661E-03    -56.2113E-03     282.070E-03    -80.3192E-03     136.618E-03    -55.9947E-03     279.060E-03
            1796     13.6172E-03     37.3439E-03    -21.7116E+06     60.0544E+06     21.6587E+06     825.808E+03    -63.9839E-03     119.970E-03    -55.9858E-03     185.876E-03    -66.9453E-03     123.004E-03    -55.9332E-03     183.771E-03
            1797     12.7662E-03     37.1877E-03    -23.6277E+06     28.6130E+06    -5.12975E+06     426.767E+03    -60.6900E-03     116.520E-03    -55.8299E-03     137.635E-03    -62.1782E-03     118.041E-03    -55.8628E-03     136.077E-03
            1798     11.9165E-03     37.0644E-03    -25.6870E+06    -13.5115E+06    -11.9262E+06     308.999E+03    -59.5039E-03     115.292E-03    -55.7880E-03     112.966E-03    -60.3841E-03     116.068E-03    -55.7908E-03     111.746E-03
            1799     11.0662E-03     36.9580E-03    -27.2558E+06    -58.4302E+06    -11.1530E+06     878.833E+03    -59.1382E-03     114.913E-03    -55.7746E-03     100.220E-03    -59.7021E-03     115.205E-03    -55.7061E-03     99.2329E-03
            1800     10.2161E-03     36.8594E-03    -28.0658E+06    -88.4981E+06    -10.9267E+06     1.10636E+06    -58.8166E-03     114.539E-03    -55.7229E-03     92.5142E-03    -59.1897E-03     114.530E-03    -55.6085E-03     91.7041E-03
            1801     9.36561E-03     36.7694E-03    -29.4648E+06    -111.047E+06    -11.2066E+06     879.928E+03    -58.1151E-03     113.783E-03    -55.6675E-03     84.8196E-03    -58.3546E-03     113.556E-03    -55.5198E-03     84.1573E-03
            1802     8.51432E-03     36.6866E-03    -31.3761E+06    -127.911E+06    -11.6428E+06     721.677E+03    -57.7557E-03     113.369E-03    -55.6132E-03     76.9247E-03    -57.9026E-03     112.984E-03    -55.4405E-03     76.3812E-03
            1803     7.66378E-03     36.6118E-03    -33.6106E+06    -139.331E+06    -13.4346E+06     628.435E+03    -57.4979E-03     113.031E-03    -55.5331E-03     69.3039E-03    -57.5818E-03     112.540E-03    -55.3495E-03     68.8585E-03
            1804     6.81283E-03     36.5436E-03    -36.2701E+06    -146.167E+06    -15.7375E+06     529.807E+03    -56.9623E-03     112.405E-03    -55.4431E-03     62.0658E-03    -57.0053E-03     111.846E-03    -55.2573E-03     61.7069E-03
            1805     5.96192E-03     36.4846E-03    -38.5812E+06    -149.815E+06    -18.9557E+06     739.478E+03    -56.5638E-03     111.916E-03    -55.3525E-03     54.6238E-03    -56.5785E-03     111.317E-03    -55.1741E-03     54.3405E-03
            1806     5.11059E-03     36.4316E-03    -41.1521E+06    -154.082E+06    -24.4684E+06     499.588E+03    -56.1895E-03     111.444E-03    -55.2546E-03     46.9712E-03    -56.1808E-03     110.813E-03    -55.0939E-03     46.7459E-03
            1807     4.25911E-03     36.3877E-03    -44.2668E+06    -158.592E+06    -30.6048E+06     441.202E+03    -55.7877E-03     110.953E-03    -55.1655E-03     39.5220E-03    -55.7631E-03     110.297E-03    -55.0244E-03     39.3489E-03
            1808     3.40753E-03     36.3499E-03    -47.3536E+06    -162.730E+06    -36.9490E+06     185.394E+03    -55.4813E-03     110.572E-03    -55.0902E-03     31.7606E-03    -55.4457E-03     109.897E-03    -54.9703E-03     31.6282E-03
            1809     2.55545E-03     36.3221E-03    -49.2642E+06    -166.360E+06    -42.8233E+06    -152.863E+03    -55.2550E-03     110.280E-03    -55.0252E-03     23.8718E-03    -55.2074E-03     109.591E-03    -54.9267E-03     23.7727E-03
            1810     1.70357E-03     36.3012E-03    -50.4604E+06    -169.065E+06    -47.5286E+06    -259.659E+03    -55.2517E-03     110.169E-03    -54.9170E-03     15.9945E-03    -55.1941E-03     109.470E-03    -54.8363E-03     15.9273E-03
            1811     853.593E-06     36.2886E-03    -51.5693E+06    -170.941E+06    -51.0089E+06         377.281    -55.0068E-03     109.685E-03    -54.6786E-03     8.37571E-03    -54.9437E-03     108.981E-03    -54.6110E-03     8.34107E-03
            1812     16.1657E-03     37.3570E-03    -5.85586E+06     156.402E+06     114.792E+06     315.907E+03    -76.0117E-03     132.394E-03    -56.3827E-03     350.575E-03    -97.6864E-03     154.271E-03    -56.0271E-03     354.831E-03
            1813     15.3182E-03     36.8636E-03    -13.0502E+06     136.499E+06     103.321E+06     28.9702E+03    -84.4572E-03     140.776E-03    -56.3187E-03     409.784E-03    -106.592E-03     163.049E-03    -55.9811E-03     407.409E-03
            1814     14.4680E-03     36.5028E-03    -18.5364E+06     96.2655E+06     65.7541E+06     199.300E+03    -72.7815E-03     128.917E-03    -56.1356E-03     282.128E-03    -80.6739E-03     136.895E-03    -55.9195E-03     279.057E-03
            1815     13.6181E-03     36.2826E-03    -21.6511E+06     60.1316E+06     21.9904E+06     695.184E+03    -63.9943E-03     119.891E-03    -55.8965E-03     185.666E-03    -66.9544E-03     122.924E-03    -55.8423E-03     183.561E-03
            1816     12.7682E-03     36.1271E-03    -24.0872E+06     28.5628E+06    -5.74302E+06     1.22762E+06    -60.8147E-03     116.540E-03    -55.7255E-03     137.710E-03    -62.3022E-03     118.060E-03    -55.7607E-03     136.162E-03
            1817     11.9174E-03     36.0028E-03    -25.6953E+06    -13.1675E+06    -12.1324E+06     1.27856E+06    -59.6376E-03     115.305E-03    -55.6679E-03     112.762E-03    -60.5146E-03     116.080E-03    -55.6722E-03     111.555E-03
            1818     11.0674E-03     35.8975E-03    -26.8974E+06    -58.5072E+06    -11.3149E+06     678.204E+03    -59.0456E-03     114.690E-03    -55.6440E-03     100.090E-03    -59.6038E-03     114.977E-03    -55.5767E-03     99.1055E-03
            1819     10.2169E-03     35.7986E-03    -28.1107E+06    -89.1703E+06    -11.4726E+06     622.099E+03    -58.5936E-03     114.187E-03    -55.5937E-03     92.1305E-03    -58.9619E-03     114.173E-03    -55.4810E-03     91.3215E-03
            1820     9.36631E-03     35.7097E-03    -29.4184E+06    -110.517E+06    -11.0106E+06     851.214E+03    -58.2712E-03     113.800E-03    -55.5286E-03     84.1290E-03    -58.5099E-03     113.574E-03    -55.3808E-03     83.4660E-03
            1821     8.51608E-03     35.6267E-03    -31.1501E+06    -127.574E+06    -11.8215E+06     865.426E+03    -57.8804E-03     113.323E-03    -55.4423E-03     76.5908E-03    -58.0255E-03     112.939E-03    -55.2713E-03     76.0498E-03
            1822     7.66562E-03     35.5517E-03    -33.1971E+06    -139.185E+06    -13.4843E+06     804.850E+03    -57.3390E-03     112.684E-03    -55.3452E-03     68.8360E-03    -57.4194E-03     112.192E-03    -55.1627E-03     68.3969E-03
            1823     6.81427E-03     35.4856E-03    -35.5543E+06    -145.856E+06    -16.0278E+06     583.400E+03    -56.8074E-03     112.055E-03    -55.2476E-03     61.4697E-03    -56.8457E-03     111.496E-03    -55.0647E-03     61.1145E-03
            1824     5.96271E-03     35.4247E-03    -38.1440E+06    -149.869E+06    -19.0102E+06     462.372E+03    -56.3913E-03     111.544E-03    -55.1529E-03     54.1394E-03    -56.4026E-03     110.943E-03    -54.9753E-03     53.8556E-03
            1825     5.11166E-03     35.3737E-03    -41.0192E+06    -154.224E+06    -24.6557E+06     606.311E+03    -56.0587E-03     111.104E-03    -55.0450E-03     46.5895E-03    -56.0484E-03     110.472E-03    -54.8852E-03     46.3671E-03
            1826     4.26013E-03     35.3289E-03    -44.2608E+06    -158.510E+06    -30.3908E+06     790.219E+03    -55.6395E-03     110.582E-03    -54.9423E-03     39.2219E-03    -55.6151E-03     109.926E-03    -54.8002E-03     39.0546E-03
            1827     3.40818E-03     35.2928E-03    -46.6028E+06    -162.088E+06    -36.7292E+06     268.084E+03    -55.2342E-03     110.093E-03    -54.8585E-03     31.4025E-03    -55.1956E-03     109.420E-03    -54.7395E-03     31.2734E-03
            1828     2.55629E-03     35.2640E-03    -48.8553E+06    -166.233E+06    -43.1325E+06    -293.652E+03    -55.0374E-03     109.828E-03    -54.7909E-03     23.5510E-03    -54.9872E-03     109.140E-03    -54.6947E-03     23.4511E-03
            1829     1.70471E-03     35.2436E-03    -51.0461E+06    -169.123E+06    -47.5342E+06     51.4865E+03    -54.8034E-03     109.557E-03    -54.7535E-03     16.0652E-03    -54.7487E-03     108.858E-03    -54.6719E-03     16.0031E-03
            1830     851.182E-06     35.2311E-03    -52.1718E+06    -171.350E+06    -51.4467E+06    -187.120E+03    -54.6812E-03     109.495E-03    -54.8138E-03     8.37030E-03    -54.6203E-03     108.790E-03    -54.7469E-03     8.33320E-03
            1831     16.1757E-03     36.3125E-03    -5.81330E+06     156.147E+06     114.960E+06     490.242E+03    -77.0614E-03     133.380E-03    -56.3189E-03     350.113E-03    -98.7087E-03     155.228E-03    -55.9621E-03     354.086E-03
            1832     15.3173E-03     35.7957E-03    -11.8431E+06     137.561E+06     104.511E+06     806.052E+03    -84.6423E-03     140.885E-03    -56.2431E-03     412.012E-03    -106.986E-03     163.372E-03    -55.9028E-03     409.550E-03
            1833     14.4699E-03     35.4437E-03    -17.4163E+06     96.0646E+06     66.5244E+06     220.080E+03    -72.7022E-03     128.765E-03    -56.0632E-03     281.752E-03    -80.5670E-03     136.717E-03    -55.8446E-03     278.686E-03
            1834     13.6183E-03     35.2202E-03    -22.0053E+06     58.8071E+06     21.2945E+06     1.08695E+06    -64.0091E-03     119.826E-03    -55.8169E-03     185.952E-03    -66.9590E-03     122.845E-03    -55.7638E-03     183.856E-03
            1835     12.7688E-03     35.0657E-03    -24.4319E+06     28.5746E+06    -6.02950E+06     1.85488E+06    -61.0875E-03     116.719E-03    -55.6317E-03     137.283E-03    -62.5716E-03     118.236E-03    -55.6679E-03     135.736E-03
            1836     11.9193E-03     34.9420E-03    -25.0861E+06    -12.3481E+06    -11.6410E+06     1.13132E+06    -59.7605E-03     115.314E-03    -55.5537E-03     112.600E-03    -60.6325E-03     116.087E-03    -55.5576E-03     111.393E-03
            1837     11.0691E-03     34.8365E-03    -25.8240E+06    -58.1177E+06    -10.7480E+06     757.169E+03    -59.1219E-03     114.634E-03    -55.5123E-03     99.4554E-03    -59.6736E-03     114.919E-03    -55.4444E-03     98.4728E-03
            1838     10.2186E-03     34.7392E-03    -27.4110E+06    -89.3740E+06    -11.4582E+06     786.211E+03    -58.6965E-03     114.136E-03    -55.4394E-03     91.2670E-03    -59.0575E-03     114.116E-03    -55.3273E-03     90.4620E-03
            1839     9.36824E-03     34.6489E-03    -29.0677E+06    -110.505E+06    -10.8476E+06     752.019E+03    -58.2623E-03     113.616E-03    -55.3540E-03     83.3889E-03    -58.4965E-03     113.386E-03    -55.2059E-03     82.7280E-03
            1840     8.51788E-03     34.5671E-03    -30.9265E+06    -127.619E+06    -11.7507E+06     962.080E+03    -57.7072E-03     112.964E-03    -55.2568E-03     75.9697E-03    -57.8490E-03     112.577E-03    -55.0856E-03     75.4347E-03
            1841     7.66628E-03     34.4930E-03    -32.9625E+06    -139.265E+06    -13.5830E+06     761.124E+03    -57.2412E-03     112.392E-03    -55.1511E-03     68.4966E-03    -57.3185E-03     111.898E-03    -54.9693E-03     68.0611E-03
            1842     6.81583E-03     34.4259E-03    -35.1642E+06    -145.215E+06    -15.3318E+06     728.646E+03    -56.8381E-03     111.872E-03    -55.0338E-03     60.8855E-03    -56.8755E-03     111.313E-03    -54.8489E-03     60.5335E-03
            1843     5.96470E-03     34.3675E-03    -38.1751E+06    -150.414E+06    -19.4028E+06     760.950E+03    -56.1892E-03     111.105E-03    -54.9158E-03     53.5410E-03    -56.1983E-03     110.501E-03    -54.7393E-03     53.2641E-03
            1844     5.11259E-03     34.3147E-03    -40.9623E+06    -154.291E+06    -24.2554E+06     821.956E+03    -55.7520E-03     110.565E-03    -54.8126E-03     46.1784E-03    -55.7411E-03     109.931E-03    -54.6507E-03     45.9626E-03
            1845     4.26099E-03     34.2719E-03    -43.2448E+06    -157.668E+06    -29.6317E+06     578.112E+03    -55.4702E-03     110.177E-03    -54.7064E-03     38.6329E-03    -55.4425E-03     109.522E-03    -54.5632E-03     38.4644E-03
            1846     3.40918E-03     34.2348E-03    -46.0861E+06    -161.759E+06    -36.2111E+06     378.681E+03    -55.0426E-03     109.649E-03    -54.6068E-03     31.0687E-03    -55.0025E-03     108.976E-03    -54.4864E-03     30.9421E-03
            1847     2.55707E-03     34.2074E-03    -48.7150E+06    -166.204E+06    -43.3626E+06     339.641E+03    -54.6667E-03     109.217E-03    -54.5503E-03     23.5616E-03    -54.6154E-03     108.528E-03    -54.4555E-03     23.4723E-03
            1848     1.70423E-03     34.1863E-03    -50.6428E+06    -169.413E+06    -48.4126E+06    -86.6857E+03    -54.4215E-03     109.009E-03    -54.5873E-03     15.7360E-03    -54.3629E-03     108.309E-03    -54.5103E-03     15.6729E-03
            1849     852.228E-06     34.1755E-03    -51.8196E+06    -170.675E+06    -50.7279E+06    -516.158E+03    -54.6411E-03     109.283E-03    -54.6420E-03     8.49755E-03    -54.5806E-03     108.580E-03    -54.5731E-03     8.45685E-03
            1850     16.1635E-03     35.2421E-03    -6.22801E+06     155.516E+06     114.459E+06    -273.651E+03    -77.8001E-03     134.157E-03    -56.3567E-03     349.429E-03    -99.4742E-03     156.029E-03    -56.0009E-03     353.217E-03
            1851     15.3222E-03     34.7366E-03    -12.0929E+06     137.283E+06     104.056E+06     45.2007E+03    -85.9171E-03     142.136E-03    -56.2187E-03     411.661E-03    -108.208E-03     164.569E-03    -55.8799E-03     408.895E-03
            1852     14.4689E-03     34.3810E-03    -17.8828E+06     95.9195E+06     66.4475E+06     925.553E+03    -72.8154E-03     128.816E-03    -56.0011E-03     282.049E-03    -80.6728E-03     136.758E-03    -55.7820E-03     279.006E-03
            1853     13.6205E-03     34.1593E-03    -21.7159E+06     57.7083E+06     24.4751E+06     1.25603E+06    -64.3524E-03     120.107E-03    -55.7544E-03     185.455E-03    -67.2955E-03     123.107E-03    -55.6842E-03     183.346E-03
            1854     12.7703E-03     34.0036E-03    -23.2728E+06     28.8640E+06    -2.55425E+06     1.25015E+06    -61.0040E-03     116.556E-03    -55.5521E-03     137.080E-03    -62.4804E-03     118.060E-03    -55.5730E-03     135.533E-03
            1855     11.9202E-03     33.8812E-03    -24.1779E+06    -11.5492E+06    -11.2661E+06     1.27239E+06    -59.9780E-03     115.424E-03    -55.4456E-03     112.388E-03    -60.8466E-03     116.198E-03    -55.4501E-03     111.179E-03
            1856     11.0703E-03     33.7755E-03    -25.7184E+06    -58.3585E+06    -10.9645E+06     1.12430E+06    -59.4663E-03     114.839E-03    -55.3727E-03     99.0073E-03    -60.0161E-03     115.122E-03    -55.3056E-03     98.0246E-03
            1857     10.2208E-03     33.6787E-03    -26.9784E+06    -88.5377E+06    -10.9788E+06     1.16013E+06    -58.8689E-03     114.135E-03    -55.2665E-03     90.7770E-03    -59.2277E-03     114.116E-03    -55.1539E-03     89.9767E-03
            1858     9.37035E-03     33.5893E-03    -28.6972E+06    -110.718E+06    -11.0141E+06     1.07250E+06    -58.1908E-03     113.349E-03    -55.1581E-03     83.0563E-03    -58.4203E-03     113.115E-03    -55.0110E-03     82.4043E-03
            1859     8.51902E-03     33.5081E-03    -30.6859E+06    -127.676E+06    -11.4112E+06     984.918E+03    -57.6653E-03     112.712E-03    -55.0472E-03     75.1136E-03    -57.8040E-03     112.322E-03    -54.8746E-03     74.5822E-03
            1860     7.66877E-03     33.4339E-03    -32.9137E+06    -138.755E+06    -13.3340E+06     895.650E+03    -57.1471E-03     112.068E-03    -54.9211E-03     67.6455E-03    -57.2231E-03     111.573E-03    -54.7388E-03     67.2157E-03
            1861     6.81716E-03     33.3676E-03    -35.6617E+06    -146.003E+06    -16.0623E+06     680.199E+03    -56.5760E-03     111.368E-03    -54.7920E-03     60.1516E-03    -56.6119E-03     110.806E-03    -54.6089E-03     59.8039E-03
            1862     5.96591E-03     33.3090E-03    -38.0165E+06    -150.016E+06    -18.9754E+06     1.12235E+06    -56.0850E-03     110.750E-03    -54.6653E-03     53.0123E-03    -56.0936E-03     110.147E-03    -54.4876E-03     52.7424E-03
            1863     5.11429E-03     33.2584E-03    -40.9712E+06    -153.881E+06    -24.7355E+06     823.876E+03    -55.6049E-03     110.140E-03    -54.5347E-03     45.7344E-03    -55.5930E-03     109.508E-03    -54.3758E-03     45.5218E-03
            1864     4.26222E-03     33.2133E-03    -43.8758E+06    -157.762E+06    -30.1034E+06     451.797E+03    -55.0875E-03     109.515E-03    -54.4276E-03     38.0171E-03    -55.0615E-03     108.861E-03    -54.2857E-03     37.8500E-03
            1865     3.41006E-03     33.1791E-03    -46.4363E+06    -161.552E+06    -36.2737E+06     699.809E+03    -54.6833E-03     109.033E-03    -54.3499E-03     30.7142E-03    -54.6449E-03     108.362E-03    -54.2297E-03     30.5936E-03
            1866     2.55736E-03     33.1499E-03    -48.8131E+06    -165.820E+06    -42.9100E+06     660.899E+03    -54.4360E-03     108.739E-03    -54.3032E-03     23.1917E-03    -54.3861E-03     108.052E-03    -54.2065E-03     23.1077E-03
            1867     1.70505E-03     33.1311E-03    -50.5475E+06    -169.154E+06    -48.1863E+06     158.370E+03    -54.4069E-03     108.661E-03    -54.2544E-03     15.5072E-03    -54.3484E-03     107.963E-03    -54.1767E-03     15.4482E-03
            1868     852.630E-06     33.1167E-03    -52.0258E+06    -170.969E+06    -51.4437E+06    -524.482E+03    -54.4359E-03     108.452E-03    -54.0165E-03     8.37480E-03    -54.3749E-03     107.749E-03    -53.9504E-03     8.33466E-03
            1869     16.1707E-03     34.1704E-03    -6.27909E+06     155.377E+06     114.338E+06    -280.584E+03    -76.9717E-03     133.336E-03    -56.3647E-03     348.641E-03    -98.5291E-03     155.092E-03    -56.0092E-03     352.632E-03
            1870     15.3187E-03     33.6773E-03    -12.7500E+06     136.579E+06     103.562E+06     234.790E+03    -86.0507E-03     142.276E-03    -56.2251E-03     409.740E-03    -108.158E-03     164.523E-03    -55.8869E-03     407.103E-03
            1871     14.4709E-03     33.3169E-03    -18.8594E+06     94.7754E+06     65.5628E+06     913.211E+03    -73.8649E-03     129.827E-03    -55.9624E-03     282.140E-03    -81.7400E-03     137.782E-03    -55.7446E-03     278.989E-03
            1872     13.6213E-03     33.0980E-03    -22.8746E+06     58.3023E+06     22.1930E+06     908.373E+03    -64.5898E-03     120.254E-03    -55.6646E-03     184.883E-03    -67.5294E-03     123.255E-03    -55.6050E-03     182.766E-03
            1873     12.7712E-03     32.9426E-03    -24.9741E+06     28.8453E+06    -5.42535E+06     352.318E+03    -61.2759E-03     116.711E-03    -55.4355E-03     136.600E-03    -62.7537E-03     118.219E-03    -55.4682E-03     135.037E-03
            1874     11.9215E-03     32.8197E-03    -25.7495E+06    -12.2965E+06    -12.6848E+06     819.094E+03    -60.1076E-03     115.420E-03    -55.3124E-03     111.584E-03    -60.9746E-03     116.189E-03    -55.3207E-03     110.371E-03
            1875     11.0723E-03     32.7142E-03    -26.3540E+06    -58.0474E+06    -11.3397E+06     1.10846E+06    -59.5144E-03     114.736E-03    -55.2216E-03     98.1730E-03    -60.0621E-03     115.017E-03    -55.1559E-03     97.1937E-03
            1876     10.2221E-03     32.6186E-03    -27.4337E+06    -88.8109E+06    -11.5610E+06     1.16748E+06    -58.9135E-03     114.009E-03    -55.0954E-03     90.0862E-03    -59.2706E-03     113.987E-03    -54.9846E-03     89.2883E-03
            1877     9.37162E-03     32.5298E-03    -28.8575E+06    -110.182E+06    -11.0052E+06     1.34279E+06    -58.3812E-03     113.340E-03    -54.9591E-03     82.4055E-03    -58.6106E-03     113.108E-03    -54.8125E-03     81.7571E-03
            1878     8.52190E-03     32.4487E-03    -30.8557E+06    -126.966E+06    -11.5372E+06     1.22685E+06    -57.7894E-03     112.598E-03    -54.8089E-03     74.4602E-03    -57.9279E-03     112.210E-03    -54.6377E-03     73.9337E-03
            1879     7.67049E-03     32.3756E-03    -33.0722E+06    -138.653E+06    -13.4786E+06     1.11287E+06    -56.9826E-03     111.640E-03    -54.6573E-03     66.9332E-03    -57.0574E-03     111.144E-03    -54.4757E-03     66.5109E-03
            1880     6.81948E-03     32.3096E-03    -35.4013E+06    -146.011E+06    -16.1159E+06     1.11317E+06    -56.3191E-03     110.839E-03    -54.5194E-03     59.5825E-03    -56.3517E-03     110.274E-03    -54.3369E-03     59.2462E-03
            1881     5.96725E-03     32.2520E-03    -38.1336E+06    -149.979E+06    -19.1161E+06     866.564E+03    -55.9350E-03     110.315E-03    -54.3795E-03     52.2314E-03    -55.9429E-03     109.710E-03    -54.2023E-03     51.9613E-03
            1882     5.11589E-03     32.1999E-03    -40.8441E+06    -153.332E+06    -24.0725E+06     1.01793E+06    -55.3601E-03     109.594E-03    -54.2339E-03     44.9833E-03    -55.3486E-03     108.963E-03    -54.0727E-03     44.7758E-03
            1883     4.26371E-03     32.1585E-03    -44.1455E+06    -158.192E+06    -30.9744E+06     666.893E+03    -54.7575E-03     108.873E-03    -54.1160E-03     37.5673E-03    -54.7303E-03     108.218E-03    -53.9775E-03     37.4063E-03
            1884     3.41073E-03     32.1217E-03    -46.6817E+06    -161.727E+06    -36.6394E+06     622.461E+03    -54.4088E-03     108.444E-03    -54.0356E-03     30.1264E-03    -54.3705E-03     107.772E-03    -53.9166E-03     30.0067E-03
            1885     2.55842E-03     32.0951E-03    -48.4900E+06    -164.921E+06    -41.9609E+06     827.221E+03    -54.2509E-03     108.210E-03    -53.9586E-03     22.7692E-03    -54.2020E-03     107.525E-03    -53.8590E-03     22.6886E-03
            1886     1.70579E-03     32.0735E-03    -50.7913E+06    -168.459E+06    -47.2047E+06     442.428E+03    -54.0173E-03     107.903E-03    -53.8859E-03     15.4030E-03    -53.9624E-03     107.207E-03    -53.8040E-03     15.3492E-03
            1887     853.116E-06     32.0629E-03    -52.5712E+06    -171.253E+06    -52.2609E+06     882.866E+03    -53.9125E-03     107.711E-03    -53.7980E-03     8.77261E-03    -53.8526E-03     107.007E-03    -53.7348E-03     8.75351E-03
            1888     16.1687E-03     33.1183E-03    -6.68562E+06     154.651E+06     113.371E+06    -93.0088E+03    -77.3612E-03     133.707E-03    -56.3462E-03     350.335E-03    -98.9994E-03     155.542E-03    -55.9939E-03     354.172E-03
            1889     15.3181E-03     32.6061E-03    -12.8378E+06     135.773E+06     102.985E+06     395.345E+03    -86.3183E-03     142.520E-03    -56.2018E-03     409.354E-03    -108.497E-03     164.836E-03    -55.8651E-03     406.632E-03
            1890     14.4715E-03     32.2569E-03    -18.1360E+06     94.9578E+06     66.5892E+06     708.608E+03    -74.1073E-03     130.024E-03    -55.9171E-03     279.670E-03    -81.8912E-03     137.888E-03    -55.6955E-03     276.513E-03
            1891     13.6215E-03     32.0342E-03    -22.0100E+06     58.5724E+06     22.8350E+06     864.741E+03    -65.1314E-03     120.707E-03    -55.5755E-03     184.057E-03    -68.0646E-03     123.704E-03    -55.5144E-03     181.919E-03
            1892     12.7736E-03     31.8817E-03    -23.9446E+06     29.1519E+06    -5.35282E+06     952.807E+03    -61.8928E-03     117.186E-03    -55.2930E-03     134.968E-03    -63.3583E-03     118.685E-03    -55.3273E-03     133.396E-03
            1893     11.9241E-03     31.7581E-03    -25.3054E+06    -12.5315E+06    -12.8281E+06     601.525E+03    -60.0798E-03     115.214E-03    -55.1342E-03     110.453E-03    -60.9332E-03     115.970E-03    -55.1435E-03     109.245E-03
            1894     11.0739E-03     31.6540E-03    -26.4849E+06    -58.7664E+06    -11.7945E+06     803.268E+03    -59.2245E-03     114.263E-03    -55.0383E-03     97.2254E-03    -59.7624E-03     114.532E-03    -54.9737E-03     96.2554E-03
            1895     10.2239E-03     31.5583E-03    -27.7395E+06    -88.7563E+06    -11.7575E+06     1.25620E+06    -58.9389E-03     113.843E-03    -54.9043E-03     89.1972E-03    -59.2930E-03     113.818E-03    -54.7941E-03     88.4045E-03
            1896     9.37433E-03     31.4701E-03    -29.3891E+06    -110.246E+06    -11.5843E+06     1.26417E+06    -58.4752E-03     113.215E-03    -54.7400E-03     81.5609E-03    -58.7036E-03     112.982E-03    -54.5954E-03     80.9136E-03
            1897     8.52319E-03     31.3898E-03    -30.8903E+06    -126.684E+06    -11.7645E+06     1.37902E+06    -57.6858E-03     112.252E-03    -54.5662E-03     73.7291E-03    -57.8217E-03     111.863E-03    -54.3966E-03     73.2099E-03
            1898     7.67296E-03     31.3173E-03    -32.7619E+06    -138.351E+06    -13.3293E+06     1.38358E+06    -56.9541E-03     111.347E-03    -54.3933E-03     66.2107E-03    -57.0261E-03     110.851E-03    -54.2119E-03     65.7952E-03
            1899     6.82077E-03     31.2530E-03    -35.4558E+06    -145.559E+06    -15.6833E+06     1.31212E+06    -56.3774E-03     110.596E-03    -54.2188E-03     58.9185E-03    -56.4103E-03     110.032E-03    -54.0348E-03     58.5871E-03
            1900     5.97012E-03     31.1936E-03    -38.2310E+06    -149.709E+06    -19.1431E+06     1.05232E+06    -55.6738E-03     109.720E-03    -54.0465E-03     51.4680E-03    -55.6810E-03     109.116E-03    -53.8697E-03     51.2050E-03
            1901     5.11737E-03     31.1453E-03    -41.1445E+06    -153.744E+06    -24.4597E+06     944.727E+03    -54.9842E-03     108.879E-03    -53.8950E-03     44.1117E-03    -54.9719E-03     108.246E-03    -53.7347E-03     43.9071E-03
            1902     4.26473E-03     31.1009E-03    -43.2484E+06    -157.036E+06    -29.9644E+06     984.104E+03    -54.5645E-03     108.329E-03    -53.7640E-03     36.8955E-03    -54.5354E-03     107.675E-03    -53.6234E-03     36.7409E-03
            1903     3.41271E-03     31.0677E-03    -46.2919E+06    -161.164E+06    -36.2611E+06     685.488E+03    -54.2130E-03     107.851E-03    -53.6383E-03     29.5661E-03    -54.1737E-03     107.181E-03    -53.5188E-03     29.4491E-03
            1904     2.55944E-03     31.0382E-03    -49.2202E+06    -165.440E+06    -42.5260E+06     610.606E+03    -53.7628E-03     107.308E-03    -53.5450E-03     22.4528E-03    -53.7157E-03     106.622E-03    -53.4464E-03     22.3719E-03
            1905     1.70647E-03     31.0200E-03    -50.7170E+06    -168.222E+06    -47.3472E+06     499.917E+03    -53.4322E-03     106.977E-03    -53.5445E-03     15.1859E-03    -53.3770E-03     106.282E-03    -53.4638E-03     15.1342E-03
            1906     852.544E-06     31.0067E-03    -51.5709E+06    -169.687E+06    -50.7030E+06     1.70591E+06    -53.4764E-03     107.156E-03    -53.6798E-03     8.94640E-03    -53.4159E-03     106.457E-03    -53.6124E-03     8.93999E-03
            1907     16.1673E-03     32.0500E-03    -5.82816E+06     155.008E+06     113.965E+06     639.827E+03    -78.6627E-03     134.999E-03    -56.3365E-03     349.392E-03    -100.194E-03     156.730E-03    -55.9830E-03     352.980E-03
            1908     15.3228E-03     31.5456E-03    -12.8655E+06     135.324E+06     102.900E+06     383.259E+03    -86.9584E-03     143.077E-03    -56.1181E-03     406.812E-03    -108.917E-03     165.172E-03    -55.7812E-03     403.883E-03
            1909     14.4718E-03     31.1923E-03    -19.1000E+06     94.7062E+06     65.0998E+06     92.7686E+03    -73.8260E-03     129.621E-03    -55.7953E-03     278.256E-03    -81.5726E-03     137.447E-03    -55.5795E-03     275.140E-03
            1910     13.6246E-03     30.9728E-03    -22.4364E+06     58.5271E+06     20.9998E+06     625.876E+03    -65.5912E-03     121.019E-03    -55.4280E-03     182.752E-03    -68.5009E-03     123.996E-03    -55.3754E-03     180.591E-03
            1911     12.7755E-03     30.8178E-03    -24.3241E+06     29.0687E+06    -6.02741E+06     822.660E+03    -61.9690E-03     117.088E-03    -55.1186E-03     133.888E-03    -63.4189E-03     118.572E-03    -55.1556E-03     132.320E-03
            1912     11.9267E-03     30.6987E-03    -25.3271E+06    -12.2310E+06    -12.8677E+06     1.13111E+06    -60.1435E-03     115.084E-03    -54.9407E-03     109.573E-03    -60.9902E-03     115.835E-03    -54.9506E-03     108.376E-03
            1913     11.0765E-03     30.5935E-03    -26.5221E+06    -59.2249E+06    -12.2178E+06     1.15406E+06    -59.2301E-03     114.054E-03    -54.8238E-03     96.6416E-03    -59.7620E-03     114.317E-03    -54.7606E-03     95.6821E-03
            1914     10.2265E-03     30.4987E-03    -27.9222E+06    -88.6828E+06    -11.7992E+06     1.08236E+06    -58.8311E-03     113.506E-03    -54.6753E-03     88.4701E-03    -59.1810E-03     113.477E-03    -54.5653E-03     87.6829E-03
            1915     9.37587E-03     30.4102E-03    -29.0540E+06    -110.198E+06    -11.6186E+06     1.16965E+06    -58.3251E-03     112.823E-03    -54.4982E-03     80.6689E-03    -58.5478E-03     112.585E-03    -54.3544E-03     80.0274E-03
            1916     8.52616E-03     30.3315E-03    -30.9023E+06    -127.052E+06    -11.9643E+06     1.18860E+06    -57.6035E-03     111.912E-03    -54.3081E-03     72.5561E-03    -57.7354E-03     111.517E-03    -54.1389E-03     72.0389E-03
            1917     7.67402E-03     30.2597E-03    -32.9781E+06    -138.183E+06    -13.4188E+06     1.53527E+06    -57.0106E-03     111.114E-03    -54.1031E-03     65.2656E-03    -57.0818E-03     110.616E-03    -53.9220E-03     64.8548E-03
            1918     6.82427E-03     30.1947E-03    -35.1652E+06    -145.158E+06    -15.5361E+06     1.45818E+06    -56.2952E-03     110.186E-03    -53.8903E-03     57.9130E-03    -56.3258E-03     109.621E-03    -53.7065E-03     57.5865E-03
            1919     5.97130E-03     30.1386E-03    -37.8760E+06    -149.334E+06    -19.1314E+06     1.25976E+06    -55.4499E-03     109.139E-03    -53.6889E-03     50.6442E-03    -55.4544E-03     108.534E-03    -53.5131E-03     50.3885E-03
            1920     5.11958E-03     30.0882E-03    -40.5980E+06    -153.235E+06    -24.3480E+06     1.03740E+06    -54.8167E-03     108.323E-03    -53.5067E-03     43.2664E-03    -54.8016E-03     107.691E-03    -53.3473E-03     43.0659E-03
            1921     4.26706E-03     30.0473E-03    -43.8906E+06    -156.947E+06    -29.8241E+06     1.05800E+06    -54.2268E-03     107.575E-03    -53.3486E-03     36.2455E-03    -54.2006E-03     106.923E-03    -53.2065E-03     36.0946E-03
            1922     3.41363E-03     30.0109E-03    -46.4619E+06    -160.712E+06    -36.1635E+06     1.00405E+06    -53.7994E-03     107.008E-03    -53.2090E-03     29.1796E-03    -53.7611E-03     106.339E-03    -53.0894E-03     29.0704E-03
            1923     2.56093E-03     29.9859E-03    -48.6179E+06    -164.931E+06    -42.5366E+06     383.049E+03    -53.4106E-03     106.505E-03    -53.0941E-03     21.8872E-03    -53.3610E-03     105.820E-03    -52.9971E-03     21.8046E-03
            1924     1.70662E-03     29.9646E-03    -50.6276E+06    -167.835E+06    -47.0189E+06     445.841E+03    -53.1670E-03     106.177E-03    -53.0103E-03     14.5992E-03    -53.1122E-03     105.483E-03    -52.9286E-03     14.5479E-03
            1925     853.806E-06     29.9538E-03    -52.2378E+06    -169.701E+06    -50.4625E+06     954.283E+03    -53.2671E-03     105.943E-03    -52.6764E-03     8.29377E-03    -53.2099E-03     105.245E-03    -52.6069E-03     8.27731E-03
            1926     16.1697E-03     30.9770E-03    -5.78052E+06     154.884E+06     114.283E+06     656.875E+03    -79.3185E-03     135.544E-03    -56.2257E-03     346.838E-03    -100.555E-03     156.979E-03    -55.8705E-03     350.379E-03
            1927     15.3229E-03     30.4846E-03    -12.0857E+06     135.275E+06     103.141E+06     504.191E+03    -86.1374E-03     142.125E-03    -55.9876E-03     405.397E-03    -107.866E-03     163.992E-03    -55.6506E-03     402.678E-03
            1928     14.4754E-03     30.1293E-03    -17.9746E+06     93.6898E+06     64.8683E+06     1.21853E+06    -74.3178E-03     129.980E-03    -55.6622E-03     279.207E-03    -82.0623E-03     137.805E-03    -55.4476E-03     276.049E-03
            1929     13.6266E-03     29.9094E-03    -22.6393E+06     59.2095E+06     19.0408E+06     1.33008E+06    -65.6252E-03     120.893E-03    -55.2676E-03     182.691E-03    -68.5160E-03     123.858E-03    -55.2255E-03     180.545E-03
            1930     12.7780E-03     29.7569E-03    -24.9753E+06     29.1985E+06    -8.72913E+06     789.558E+03    -61.9410E-03     116.887E-03    -54.9457E-03     133.356E-03    -63.3816E-03     118.368E-03    -54.9954E-03     131.793E-03
            1931     11.9281E-03     29.6370E-03    -26.5996E+06    -13.0057E+06    -13.9406E+06     1.00643E+06    -60.3576E-03     115.115E-03    -54.7571E-03     108.825E-03    -61.2041E-03     115.861E-03    -54.7694E-03     107.625E-03
            1932     11.0792E-03     29.5338E-03    -26.9109E+06    -58.2404E+06    -12.2707E+06     1.01150E+06    -59.5493E-03     114.153E-03    -54.6040E-03     96.0552E-03    -60.0823E-03     114.420E-03    -54.5419E-03     95.0911E-03
            1933     10.2289E-03     29.4391E-03    -27.6370E+06    -89.2371E+06    -12.1805E+06     791.699E+03    -58.8754E-03     113.295E-03    -54.4198E-03     87.7963E-03    -59.2183E-03     113.259E-03    -54.3112E-03     87.0102E-03
            1934     9.37911E-03     29.3514E-03    -29.1311E+06    -110.369E+06    -11.6778E+06     1.11797E+06    -58.2162E-03     112.437E-03    -54.2209E-03     79.5060E-03    -58.4343E-03     112.194E-03    -54.0770E-03     78.8706E-03
            1935     8.52757E-03     29.2733E-03    -30.9553E+06    -126.750E+06    -12.1391E+06     1.27625E+06    -57.6841E-03     111.682E-03    -53.9977E-03     71.3281E-03    -57.8134E-03     111.286E-03    -53.8297E-03     70.8155E-03
            1936     7.67819E-03     29.2019E-03    -33.4118E+06    -138.532E+06    -13.8668E+06     1.44589E+06    -56.9311E-03     110.684E-03    -53.7533E-03     63.8589E-03    -57.0005E-03     110.184E-03    -53.5733E-03     63.4512E-03
            1937     6.82523E-03     29.1383E-03    -35.4276E+06    -145.044E+06    -15.9965E+06     1.46474E+06    -55.9650E-03     109.481E-03    -53.5165E-03     56.5407E-03    -55.9938E-03     108.916E-03    -53.3348E-03     56.2204E-03
            1938     5.97448E-03     29.0824E-03    -37.8064E+06    -148.682E+06    -18.7929E+06     1.34047E+06    -55.1826E-03     108.484E-03    -53.3017E-03     49.5820E-03    -55.1868E-03     107.881E-03    -53.1252E-03     49.3312E-03
            1939     5.12157E-03     29.0335E-03    -41.0617E+06    -152.854E+06    -24.0291E+06     1.16372E+06    -54.5401E-03     107.637E-03    -53.0972E-03     42.7155E-03    -54.5274E-03     107.006E-03    -52.9361E-03     42.5209E-03
            1940     4.26877E-03     28.9923E-03    -43.7210E+06    -156.661E+06    -29.8132E+06     1.07503E+06    -53.9640E-03     106.869E-03    -52.9051E-03     35.5993E-03    -53.9366E-03     106.217E-03    -52.7637E-03     35.4519E-03
            1941     3.41552E-03     28.9583E-03    -46.1970E+06    -160.470E+06    -36.2231E+06     880.203E+03    -53.3837E-03     106.122E-03    -52.7380E-03     28.5256E-03    -53.3439E-03     105.453E-03    -52.6194E-03     28.4175E-03
            1942     2.56156E-03     28.9308E-03    -48.3358E+06    -164.080E+06    -41.8820E+06     699.215E+03    -53.1594E-03     105.730E-03    -52.5707E-03     21.2848E-03    -53.1103E-03     105.048E-03    -52.4722E-03     21.2078E-03
            1943     1.70897E-03     28.9128E-03    -50.9244E+06    -167.528E+06    -46.8288E+06     577.131E+03    -52.9518E-03     105.270E-03    -52.3186E-03     14.2992E-03    -52.8992E-03     104.578E-03    -52.2360E-03     14.2509E-03
            1944     854.704E-06     28.8991E-03    -52.7785E+06    -170.135E+06    -51.6467E+06     297.366E+03    -52.3829E-03     104.311E-03    -51.9286E-03     7.76277E-03    -52.3260E-03     103.614E-03    -51.8636E-03     7.73778E-03
            1945     16.1784E-03     29.9273E-03    -6.01961E+06     154.276E+06     114.164E+06     423.601E+03    -80.3222E-03     136.511E-03    -56.1893E-03     347.662E-03    -101.606E-03     157.991E-03    -55.8334E-03     350.999E-03
            1946     15.3239E-03     29.4172E-03    -11.7095E+06     135.135E+06     103.374E+06     1.51078E+06    -87.0702E-03     142.995E-03    -55.9248E-03     407.722E-03    -108.939E-03     165.002E-03    -55.5869E-03     404.854E-03
            1947     14.4760E-03     29.0681E-03    -17.0281E+06     94.6161E+06     66.9310E+06     1.86956E+06    -74.8922E-03     130.466E-03    -55.5737E-03     278.829E-03    -82.5848E-03     138.240E-03    -55.3515E-03     275.636E-03
            1948     13.6277E-03     28.8449E-03    -21.1414E+06     59.0383E+06     23.3820E+06     1.78372E+06    -65.8489E-03     121.008E-03    -55.1592E-03     182.139E-03    -68.7305E-03     123.956E-03    -55.0972E-03     179.993E-03
            1949     12.7793E-03     28.6961E-03    -23.7479E+06     29.3745E+06    -5.30093E+06     1.81195E+06    -62.2606E-03     117.062E-03    -54.8018E-03     131.892E-03    -63.6877E-03     118.525E-03    -54.8365E-03     130.340E-03
            1950     11.9310E-03     28.5751E-03    -24.6405E+06    -11.7298E+06    -12.3552E+06     1.15703E+06    -60.6039E-03     115.168E-03    -54.5643E-03     107.528E-03    -61.4354E-03     115.907E-03    -54.5734E-03     106.331E-03
            1951     11.0811E-03     28.4743E-03    -25.8508E+06    -58.0816E+06    -11.6814E+06     758.823E+03    -59.8054E-03     114.176E-03    -54.3702E-03     94.8059E-03    -60.3276E-03     114.434E-03    -54.3069E-03     93.8394E-03
            1952     10.2320E-03     28.3787E-03    -27.3120E+06    -89.0898E+06    -11.9962E+06     941.991E+03    -59.1532E-03     113.292E-03    -54.1383E-03     86.4775E-03    -59.4909E-03     113.251E-03    -54.0295E-03     85.6934E-03
            1953     9.38152E-03     28.2939E-03    -28.9329E+06    -110.812E+06    -11.6579E+06     981.777E+03    -58.3606E-03     112.250E-03    -53.8898E-03     78.1388E-03    -58.5726E-03     112.000E-03    -53.7455E-03     77.5053E-03
            1954     8.53193E-03     28.2144E-03    -30.5400E+06    -127.123E+06    -12.1034E+06     1.41626E+06    -57.5684E-03     111.196E-03    -53.6273E-03     70.1072E-03    -57.6911E-03     110.794E-03    -53.4592E-03     69.6032E-03
            1955     7.68008E-03     28.1451E-03    -32.3461E+06    -138.748E+06    -13.3428E+06     1.56493E+06    -56.6737E-03     110.033E-03    -53.3594E-03     62.5169E-03    -56.7351E-03     109.526E-03    -53.1781E-03     62.1172E-03
            1956     6.82976E-03     28.0827E-03    -35.0725E+06    -144.251E+06    -15.2142E+06     1.77829E+06    -55.6798E-03     108.783E-03    -53.1033E-03     55.4165E-03    -55.7068E-03     108.218E-03    -52.9194E-03     55.1064E-03
            1957     5.97629E-03     28.0272E-03    -38.2280E+06    -148.614E+06    -19.2694E+06     1.38310E+06    -54.8134E-03     107.681E-03    -52.8675E-03     48.5382E-03    -54.8174E-03     107.078E-03    -52.6930E-03     48.2933E-03
            1958     5.12373E-03     27.9797E-03    -40.5151E+06    -152.812E+06    -24.4343E+06     1.23514E+06    -54.1865E-03     106.832E-03    -52.6458E-03     41.7201E-03    -54.1693E-03     106.200E-03    -52.4877E-03     41.5308E-03
            1959     4.27059E-03     27.9380E-03    -43.1800E+06    -156.162E+06    -30.0834E+06     1.00185E+06    -53.6591E-03     106.084E-03    -52.4254E-03     34.6326E-03    -53.6285E-03     105.433E-03    -52.2868E-03     34.4877E-03
            1960     3.41745E-03     27.9055E-03    -46.0156E+06    -159.532E+06    -35.5193E+06     1.11782E+06    -53.1022E-03     105.314E-03    -52.2115E-03     27.7468E-03    -53.0635E-03     104.648E-03    -52.0910E-03     27.6435E-03
            1961     2.56361E-03     27.8786E-03    -48.9300E+06    -163.997E+06    -42.2874E+06     1.28339E+06    -52.5854E-03     104.595E-03    -52.0101E-03     21.0641E-03    -52.5384E-03     103.915E-03    -51.9128E-03     20.9985E-03
            1962     1.70909E-03     27.8595E-03    -50.6432E+06    -167.172E+06    -47.4753E+06     566.645E+03    -52.1846E-03     104.012E-03    -51.8270E-03     14.1099E-03    -52.1300E-03     103.321E-03    -51.7485E-03     14.0635E-03
            1963     855.013E-06     27.8496E-03    -51.6988E+06    -168.753E+06    -50.7171E+06     73.1659E+03    -51.7214E-03     103.479E-03    -51.7571E-03     7.38418E-03    -51.6626E-03     102.784E-03    -51.6911E-03     7.35592E-03
            1964     16.1625E-03     28.8472E-03    -6.51278E+06     152.940E+06     112.526E+06     82.7253E+03    -80.1283E-03     136.401E-03    -56.2726E-03     346.807E-03    -101.348E-03     157.814E-03    -55.9223E-03     350.022E-03
            1965     15.3245E-03     28.3545E-03    -13.6843E+06     133.976E+06     102.373E+06     366.178E+03    -89.2256E-03     145.167E-03    -55.9412E-03     405.165E-03    -110.945E-03     167.017E-03    -55.6037E-03     401.911E-03
            1966     14.4776E-03     28.0018E-03    -18.3862E+06     94.0479E+06     66.6721E+06     917.499E+03    -75.8885E-03     131.371E-03    -55.4826E-03     276.858E-03    -83.5532E-03     139.111E-03    -55.2590E-03     273.574E-03
            1967     13.6302E-03     27.7844E-03    -21.2722E+06     58.6057E+06     23.0320E+06     1.81150E+06    -66.3258E-03     121.328E-03    -55.0019E-03     180.064E-03    -69.1690E-03     124.237E-03    -54.9409E-03     177.909E-03
            1968     12.7823E-03     27.6315E-03    -23.1788E+06     29.7727E+06    -4.64214E+06     1.76705E+06    -62.4597E-03     117.065E-03    -54.6057E-03     130.302E-03    -63.8642E-03     118.507E-03    -54.6384E-03     128.755E-03
            1969     11.9334E-03     27.5162E-03    -24.3364E+06    -10.4255E+06    -11.9474E+06     1.47608E+06    -60.9315E-03     115.258E-03    -54.3266E-03     105.927E-03    -61.7529E-03     115.991E-03    -54.3360E-03     104.735E-03
            1970     11.0847E-03     27.4122E-03    -26.0332E+06    -57.8645E+06    -12.0093E+06     1.38822E+06    -60.0236E-03     114.110E-03    -54.0860E-03     93.3838E-03    -60.5391E-03     114.362E-03    -54.0244E-03     92.4286E-03
            1971     10.2351E-03     27.3208E-03    -27.6951E+06    -88.7523E+06    -12.1865E+06     1.20862E+06    -59.3137E-03     113.124E-03    -53.8099E-03     84.9392E-03    -59.6473E-03     113.079E-03    -53.7020E-03     84.1626E-03
            1972     9.38587E-03     27.2339E-03    -29.3548E+06    -110.897E+06    -12.1223E+06     1.09288E+06    -58.4314E-03     111.946E-03    -53.5151E-03     76.8902E-03    -58.6399E-03     111.692E-03    -53.3723E-03     76.2636E-03
            1973     8.53487E-03     27.1583E-03    -31.1018E+06    -127.857E+06    -12.3601E+06     1.28182E+06    -57.3606E-03     110.581E-03    -53.2200E-03     68.8760E-03    -57.4802E-03     110.172E-03    -53.0514E-03     68.3788E-03
            1974     7.68405E-03     27.0883E-03    -33.0353E+06    -138.501E+06    -13.7501E+06     1.77973E+06    -56.2891E-03     109.222E-03    -52.9332E-03     61.2127E-03    -56.3499E-03     108.714E-03    -52.7532E-03     60.8252E-03
            1975     6.83134E-03     27.0274E-03    -35.1369E+06    -144.038E+06    -15.5308E+06     1.71054E+06    -55.4086E-03     108.068E-03    -52.6590E-03     54.2187E-03    -55.4332E-03     107.501E-03    -52.4768E-03     53.9140E-03
            1976     5.97970E-03     26.9735E-03    -37.4487E+06    -148.016E+06    -19.2434E+06     1.28469E+06    -54.6703E-03     107.054E-03    -52.3842E-03     47.4025E-03    -54.6696E-03     106.451E-03    -52.2115E-03     47.1604E-03
            1977     5.12670E-03     26.9255E-03    -40.1205E+06    -152.383E+06    -24.3605E+06     1.47924E+06    -53.8296E-03     105.951E-03    -52.1213E-03     40.4575E-03    -53.8098E-03     105.318E-03    -51.9640E-03     40.2754E-03
            1978     4.27318E-03     26.8861E-03    -43.3196E+06    -155.797E+06    -30.0783E+06     1.69133E+06    -53.0814E-03     104.969E-03    -51.8875E-03     33.7957E-03    -53.0511E-03     104.319E-03    -51.7491E-03     33.6647E-03
            1979     3.41900E-03     26.8525E-03    -46.5058E+06    -159.934E+06    -36.5889E+06     1.10164E+06    -52.5823E-03     104.251E-03    -51.6685E-03     27.1046E-03    -52.5433E-03     103.585E-03    -51.5521E-03     27.0049E-03
            1980     2.56499E-03     26.8280E-03    -48.2059E+06    -163.177E+06    -42.1544E+06     922.991E+03    -51.9166E-03     103.407E-03    -51.4905E-03     20.5149E-03    -51.8671E-03     102.729E-03    -51.3947E-03     20.4469E-03
            1981     1.70992E-03     26.8088E-03    -49.6840E+06    -166.258E+06    -47.6789E+06     818.152E+03    -51.3581E-03     102.799E-03    -51.4407E-03     13.6521E-03    -51.2995E-03     102.112E-03    -51.3660E-03     13.6110E-03
            1982     854.361E-06     26.7990E-03    -50.5323E+06    -167.426E+06    -49.9456E+06    -466.116E+03    -51.5068E-03     102.937E-03    -51.4301E-03     7.15168E-03    -51.4451E-03     102.247E-03    -51.3638E-03     7.11645E-03
            1983     16.1732E-03     27.7816E-03    -6.07560E+06     153.241E+06     113.010E+06     953.577E+03    -80.5121E-03     136.763E-03    -56.2505E-03     345.682E-03    -101.502E-03     157.948E-03    -55.8989E-03     348.835E-03
            1984     15.3235E-03     27.2858E-03    -12.6199E+06     133.596E+06     101.774E+06     31.6019E+03    -89.0504E-03     144.925E-03    -55.8742E-03     400.814E-03    -110.390E-03     166.399E-03    -55.5408E-03     397.598E-03
            1985     14.4792E-03     26.9364E-03    -18.5212E+06     92.5948E+06     65.9582E+06     466.644E+03    -76.7867E-03     132.150E-03    -55.3637E-03     274.641E-03    -84.3783E-03     139.814E-03    -55.1413E-03     271.282E-03
            1986     13.6334E-03     26.7202E-03    -21.8304E+06     57.8608E+06     23.8154E+06     1.23138E+06    -66.9925E-03     121.814E-03    -54.8211E-03     178.039E-03    -69.8075E-03     124.688E-03    -54.7543E-03     175.856E-03
            1987     12.7848E-03     26.5713E-03    -23.3836E+06     30.1072E+06    -5.07174E+06     1.69721E+06    -62.7821E-03     117.145E-03    -54.3631E-03     128.889E-03    -64.1719E-03     118.574E-03    -54.3982E-03     127.340E-03
            1988     11.9369E-03     26.4530E-03    -25.3091E+06    -10.3452E+06    -13.0924E+06     1.86811E+06    -61.1418E-03     115.182E-03    -54.0398E-03     104.359E-03    -61.9560E-03     115.907E-03    -54.0536E-03     103.175E-03
            1989     11.0883E-03     26.3537E-03    -26.6403E+06    -56.9618E+06    -12.3706E+06     1.73125E+06    -60.1999E-03     113.959E-03    -53.7589E-03     91.9648E-03    -60.7118E-03     114.210E-03    -53.6996E-03     91.0179E-03
            1990     10.2391E-03     26.2602E-03    -28.0483E+06    -88.7459E+06    -12.9258E+06     1.56565E+06    -59.3122E-03     112.755E-03    -53.4428E-03     83.7232E-03    -59.6397E-03     112.705E-03    -53.3380E-03     82.9597E-03
            1991     9.38900E-03     26.1770E-03    -29.7718E+06    -110.716E+06    -12.5498E+06     1.61357E+06    -58.3168E-03     111.433E-03    -53.1167E-03     75.4272E-03    -58.5214E-03     111.176E-03    -52.9757E-03     74.8158E-03
            1992     8.53875E-03     26.1007E-03    -32.1300E+06    -127.953E+06    -13.4937E+06     1.61478E+06    -57.1651E-03     109.955E-03    -52.7898E-03     67.4288E-03    -57.2833E-03     109.544E-03    -52.6252E-03     66.9449E-03
            1993     7.68737E-03     26.0333E-03    -33.9828E+06    -138.397E+06    -15.1333E+06     1.14165E+06    -56.0802E-03     108.551E-03    -52.4707E-03     59.8465E-03    -56.1402E-03     108.043E-03    -52.2965E-03     59.4587E-03
            1994     6.83546E-03     25.9735E-03    -35.3721E+06    -143.426E+06    -16.5500E+06     1.03021E+06    -55.1866E-03     107.347E-03    -52.1609E-03     52.8547E-03    -55.2092E-03     106.783E-03    -51.9844E-03     52.5475E-03
            1995     5.98260E-03     25.9187E-03    -37.8655E+06    -148.237E+06    -19.5419E+06     1.60652E+06    -54.3472E-03     106.202E-03    -51.8547E-03     46.1471E-03    -54.3460E-03     105.597E-03    -51.6825E-03     45.9148E-03
            1996     5.12961E-03     25.8742E-03    -41.1193E+06    -152.195E+06    -24.5430E+06     1.86210E+06    -53.4022E-03     104.965E-03    -51.5623E-03     39.4045E-03    -53.3860E-03     104.333E-03    -51.4047E-03     39.2327E-03
            1997     4.27547E-03     25.8337E-03    -43.5854E+06    -155.312E+06    -29.9585E+06     1.72074E+06    -52.5337E-03     103.844E-03    -51.3106E-03     32.9497E-03    -52.5046E-03     103.196E-03    -51.1719E-03     32.8241E-03
            1998     3.42114E-03     25.8027E-03    -45.4740E+06    -159.200E+06    -36.6794E+06     1.22181E+06    -51.8448E-03     102.949E-03    -51.1047E-03     26.2835E-03    -51.8009E-03     102.285E-03    -50.9913E-03     26.1895E-03
            1999     2.56598E-03     25.7765E-03    -47.9567E+06    -163.037E+06    -42.6577E+06     532.620E+03    -51.3102E-03     102.269E-03    -50.9593E-03     19.5757E-03    -51.2587E-03     101.593E-03    -50.8666E-03     19.5040E-03
            2000     1.71077E-03     25.7609E-03    -49.2753E+06    -164.939E+06    -46.3119E+06     658.414E+03    -50.9519E-03     101.841E-03    -50.8896E-03     13.2105E-03    -50.8950E-03     101.158E-03    -50.8105E-03     13.1685E-03
            2001     855.511E-06     25.7474E-03    -49.7074E+06    -166.771E+06    -50.3248E+06     489.085E+03    -50.8280E-03     101.748E-03    -50.9198E-03     7.09708E-03    -50.7625E-03     101.060E-03    -50.8575E-03     7.07632E-03
            2002     16.1706E-03     26.7148E-03    -5.73547E+06     153.145E+06     113.613E+06     904.029E+03    -82.4368E-03     138.615E-03    -56.1785E-03     346.332E-03    -103.396E-03     159.769E-03    -55.8242E-03     349.234E-03
            2003     15.3276E-03     26.2201E-03    -10.8918E+06     134.441E+06     103.568E+06     1.74374E+06    -89.4885E-03     145.232E-03    -55.7431E-03     400.217E-03    -110.697E-03     166.579E-03    -55.4044E-03     396.947E-03
            2004     14.4813E-03     25.8699E-03    -17.4237E+06     93.0869E+06     66.1927E+06     1.42872E+06    -76.9467E-03     132.142E-03    -55.1952E-03     272.211E-03    -84.4254E-03     139.697E-03    -54.9740E-03     268.865E-03
            2005     13.6350E-03     25.6559E-03    -22.1185E+06     57.1617E+06     22.3995E+06     1.00261E+06    -67.3888E-03     121.994E-03    -54.6056E-03     175.308E-03    -70.1590E-03     124.824E-03    -54.5444E-03     173.115E-03
            2006     12.7894E-03     25.5087E-03    -24.6291E+06     29.3345E+06    -6.00158E+06     1.82010E+06    -63.2376E-03     117.335E-03    -54.0978E-03     127.191E-03    -64.6150E-03     118.747E-03    -54.1346E-03     125.641E-03
            2007     11.9407E-03     25.3928E-03    -25.3265E+06    -9.59074E+06    -13.0309E+06     2.11829E+06    -61.2954E-03     115.025E-03    -53.7296E-03     103.249E-03    -62.0985E-03     115.742E-03    -53.7441E-03     102.075E-03
            2008     11.0922E-03     25.2928E-03    -26.1555E+06    -56.3881E+06    -12.3031E+06     1.97832E+06    -60.2869E-03     113.698E-03    -53.4112E-03     90.6623E-03    -60.7885E-03     113.942E-03    -53.3530E-03     89.7259E-03
            2009     10.2430E-03     25.2023E-03    -27.5023E+06    -88.3704E+06    -12.8130E+06     1.99862E+06    -59.3494E-03     112.406E-03    -53.0568E-03     82.3059E-03    -59.6680E-03     112.351E-03    -52.9529E-03     81.5554E-03
            2010     9.39336E-03     25.1187E-03    -29.0335E+06    -110.677E+06    -12.7186E+06     2.05013E+06    -58.2364E-03     110.928E-03    -52.6915E-03     73.7989E-03    -58.4309E-03     110.663E-03    -52.5525E-03     73.2021E-03
            2011     8.54262E-03     25.0451E-03    -30.5150E+06    -127.314E+06    -13.0940E+06     1.90444E+06    -56.9754E-03     109.306E-03    -52.3309E-03     65.5624E-03    -57.0819E-03     108.891E-03    -52.1675E-03     65.0907E-03
            2012     7.69078E-03     24.9785E-03    -32.8283E+06    -137.709E+06    -15.1072E+06     1.37764E+06    -55.9010E-03     107.876E-03    -51.9746E-03     58.4533E-03    -55.9527E-03     107.366E-03    -51.8028E-03     58.0762E-03
            2013     6.83910E-03     24.9190E-03    -36.3715E+06    -143.908E+06    -17.3931E+06     1.33696E+06    -54.9493E-03     106.574E-03    -51.6247E-03     51.6064E-03    -54.9724E-03     106.008E-03    -51.4503E-03     51.3097E-03
            2014     5.98617E-03     24.8676E-03    -38.9349E+06    -148.499E+06    -20.4474E+06     1.85978E+06    -53.8372E-03     105.128E-03    -51.2911E-03     44.8829E-03    -53.8373E-03     104.522E-03    -51.1216E-03     44.6619E-03
            2015     5.13231E-03     24.8213E-03    -40.8507E+06    -151.628E+06    -25.0375E+06     1.55739E+06    -52.9581E-03     103.936E-03    -50.9783E-03     38.1775E-03    -52.9392E-03     103.307E-03    -50.8244E-03     38.0074E-03
            2016     4.27835E-03     24.7848E-03    -43.2185E+06    -154.921E+06    -30.5230E+06     1.17201E+06    -52.0641E-03     102.761E-03    -50.6968E-03     31.7091E-03    -52.0320E-03     102.114E-03    -50.5621E-03     31.5799E-03
            2017     3.42317E-03     24.7518E-03    -45.7548E+06    -158.506E+06    -36.4170E+06     1.26620E+06    -51.1796E-03     101.662E-03    -50.4829E-03     25.3464E-03    -51.1379E-03     101.001E-03    -50.3688E-03     25.2566E-03
            2018     2.56767E-03     24.7296E-03    -47.6881E+06    -162.082E+06    -42.4565E+06     914.584E+03    -50.7319E-03     101.061E-03    -50.3293E-03     18.8653E-03    -50.6803E-03     100.388E-03    -50.2374E-03     18.8014E-03
            2019     1.71202E-03     24.7101E-03    -49.6216E+06    -164.670E+06    -46.5893E+06     270.924E+03    -50.4807E-03     100.672E-03    -50.1913E-03     12.6826E-03    -50.4254E-03     99.9911E-03    -50.1136E-03     12.6369E-03
            2020     856.186E-06     24.7018E-03    -51.0651E+06    -166.178E+06    -49.0389E+06     961.117E+03    -50.1875E-03     100.235E-03    -50.0474E-03     6.97896E-03    -50.1315E-03     99.5504E-03    -49.9776E-03     6.96604E-03
            2021     16.1721E-03     25.6423E-03    -6.61723E+06     151.538E+06     111.842E+06    -58.3491E+03    -83.3578E-03     139.479E-03    -56.1207E-03     343.700E-03    -104.086E-03     160.397E-03    -55.7717E-03     346.318E-03
            2022     15.3289E-03     25.1529E-03    -13.0174E+06     133.027E+06     102.212E+06     335.172E+03    -90.6425E-03     146.258E-03    -55.6158E-03     398.531E-03    -111.713E-03     167.458E-03    -55.2788E-03     395.066E-03
            2023     14.4850E-03     24.8040E-03    -17.9256E+06     92.9875E+06     66.9853E+06     1.80753E+06    -77.4986E-03     132.504E-03    -55.0057E-03     270.414E-03    -84.9120E-03     139.990E-03    -54.7796E-03     267.032E-03
            2024     13.6398E-03     24.5921E-03    -21.8687E+06     56.7744E+06     22.8936E+06     2.21341E+06    -67.5075E-03     121.879E-03    -54.3716E-03     173.529E-03    -70.2279E-03     124.657E-03    -54.3077E-03     171.368E-03
            2025     12.7916E-03     24.4460E-03    -24.3714E+06     29.4118E+06    -6.29460E+06     1.84651E+06    -63.5282E-03     117.351E-03    -53.8223E-03     125.410E-03    -64.8822E-03     118.741E-03    -53.8611E-03     123.863E-03
            2026     11.9447E-03     24.3318E-03    -25.4139E+06    -9.17541E+06    -13.6909E+06     1.83673E+06    -61.5520E-03     114.959E-03    -53.4073E-03     101.810E-03    -62.3427E-03     115.667E-03    -53.4256E-03     100.638E-03
            2027     11.0960E-03     24.2332E-03    -26.2396E+06    -56.1469E+06    -12.7934E+06     2.17799E+06    -60.4294E-03     113.475E-03    -53.0455E-03     89.2904E-03    -60.9218E-03     113.712E-03    -52.9900E-03     88.3639E-03
            2028     10.2473E-03     24.1434E-03    -27.5669E+06    -88.0955E+06    -13.4052E+06     2.24444E+06    -59.4112E-03     112.058E-03    -52.6466E-03     80.6165E-03    -59.7221E-03     111.997E-03    -52.5459E-03     79.8765E-03
            2029     9.39735E-03     24.0621E-03    -28.8138E+06    -110.460E+06    -13.2933E+06     2.10946E+06    -58.1656E-03     110.405E-03    -52.2389E-03     72.1541E-03    -58.3520E-03     110.135E-03    -52.1034E-03     71.5674E-03
            2030     8.54682E-03     23.9892E-03    -30.3785E+06    -126.771E+06    -13.2355E+06     1.97995E+06    -56.9140E-03     108.750E-03    -51.8357E-03     63.7845E-03    -57.0156E-03     108.332E-03    -51.6740E-03     63.3213E-03
            2031     7.69559E-03     23.9249E-03    -32.7818E+06    -137.247E+06    -15.0192E+06     2.61320E+06    -55.6398E-03     107.078E-03    -51.4383E-03     56.8065E-03    -55.6879E-03     106.566E-03    -51.2668E-03     56.4541E-03
            2032     6.84257E-03     23.8659E-03    -35.2467E+06    -143.913E+06    -17.5276E+06     2.17921E+06    -54.4910E-03     105.551E-03    -51.0596E-03     50.0561E-03    -54.5050E-03     104.979E-03    -50.8875E-03     49.7796E-03
            2033     5.98971E-03     23.8159E-03    -37.7777E+06    -147.748E+06    -20.2411E+06     1.62090E+06    -53.5180E-03     104.214E-03    -50.6960E-03     43.3731E-03    -53.5116E-03     103.608E-03    -50.5282E-03     43.1549E-03
            2034     5.13563E-03     23.7717E-03    -40.5562E+06    -151.305E+06    -25.7021E+06     1.44479E+06    -52.4609E-03     102.807E-03    -50.3458E-03     36.8316E-03    -52.4384E-03     102.178E-03    -50.1961E-03     36.6657E-03
            2035     4.28100E-03     23.7344E-03    -43.4112E+06    -154.677E+06    -31.0784E+06     1.23645E+06    -51.4608E-03     101.507E-03    -50.0458E-03     30.3655E-03    -51.4282E-03     100.861E-03    -49.9140E-03     30.2412E-03
            2036     3.42554E-03     23.7054E-03    -45.9157E+06    -157.770E+06    -36.4004E+06     1.26811E+06    -50.6814E-03     100.484E-03    -49.8026E-03     24.4359E-03    -50.6410E-03     99.8261E-03    -49.6893E-03     24.3497E-03
            2037     2.56956E-03     23.6802E-03    -48.0401E+06    -161.173E+06    -42.0658E+06     802.045E+03    -50.1141E-03     99.7213E-03    -49.6072E-03     18.2460E-03    -50.0658E-03     99.0523E-03    -49.5142E-03     18.1837E-03
            2038     1.71334E-03     23.6648E-03    -49.6063E+06    -164.247E+06    -47.4640E+06     959.729E+03    -49.7306E-03     99.1762E-03    -49.4456E-03     12.2608E-03    -49.6744E-03     98.4984E-03    -49.3729E-03     12.2266E-03
            2039     856.761E-06     23.6528E-03    -51.2005E+06    -165.930E+06    -50.1991E+06    -832.735E+03    -49.5414E-03     98.7507E-03    -49.2094E-03     6.63253E-03    -49.4847E-03     98.0691E-03    -49.1455E-03     6.59669E-03
            2040     16.1746E-03     24.5781E-03    -6.11571E+06     151.692E+06     112.523E+06     837.720E+03    -84.6645E-03     140.720E-03    -56.0559E-03     341.458E-03    -105.173E-03     161.420E-03    -55.7044E-03     343.765E-03
            2041     15.3299E-03     24.0803E-03    -12.5217E+06     133.095E+06     101.944E+06     1.23228E+06    -91.2659E-03     146.758E-03    -55.4921E-03     397.668E-03    -112.269E-03     167.893E-03    -55.1572E-03     394.098E-03
            2042     14.4877E-03     23.7384E-03    -18.6963E+06     91.8651E+06     66.0324E+06     1.19421E+06    -78.0991E-03     132.929E-03    -54.8296E-03     267.866E-03    -85.4112E-03     140.309E-03    -54.6055E-03     264.444E-03
            2043     13.6413E-03     23.5273E-03    -21.8640E+06     56.4032E+06     24.1510E+06     1.91024E+06    -68.0477E-03     122.192E-03    -54.1447E-03     171.866E-03    -70.7342E-03     124.932E-03    -54.0741E-03     169.692E-03
            2044     12.7965E-03     23.3836E-03    -23.2878E+06     30.2019E+06    -4.77107E+06     2.16984E+06    -63.8272E-03     117.370E-03    -53.5431E-03     123.415E-03    -65.1547E-03     118.736E-03    -53.5770E-03     121.878E-03
            2045     11.9483E-03     23.2709E-03    -24.7669E+06    -9.11310E+06    -14.0305E+06     2.20069E+06    -61.8671E-03     114.939E-03    -53.0716E-03     100.129E-03    -62.6418E-03     115.634E-03    -53.0926E-03     98.9650E-03
            2046     11.1006E-03     23.1735E-03    -26.2651E+06    -56.0941E+06    -13.7229E+06     2.46513E+06    -60.6638E-03     113.319E-03    -52.6555E-03     87.6111E-03    -61.1456E-03     113.549E-03    -52.6047E-03     86.6938E-03
            2047     10.2516E-03     23.0853E-03    -27.5161E+06    -87.6538E+06    -14.0157E+06     2.52690E+06    -59.4197E-03     111.629E-03    -52.2096E-03     78.7094E-03    -59.7211E-03     111.563E-03    -52.1127E-03     77.9829E-03
            2048     9.40202E-03     23.0055E-03    -29.3379E+06    -110.028E+06    -14.1069E+06     2.48306E+06    -58.0684E-03     109.828E-03    -51.7599E-03     70.2216E-03    -58.2497E-03     109.556E-03    -51.6284E-03     69.6499E-03
            2049     8.55119E-03     22.9344E-03    -31.5170E+06    -126.835E+06    -14.6875E+06     2.52386E+06    -56.7839E-03     108.097E-03    -51.3126E-03     62.1203E-03    -56.8835E-03     107.677E-03    -51.1564E-03     61.6739E-03
            2050     7.69956E-03     22.8712E-03    -33.1780E+06    -137.047E+06    -16.1067E+06     2.43831E+06    -55.4839E-03     106.352E-03    -50.8678E-03     54.9836E-03    -55.5287E-03     105.839E-03    -50.7015E-03     54.6366E-03
            2051     6.84720E-03     22.8150E-03    -34.9151E+06    -142.390E+06    -17.8114E+06     2.46526E+06    -54.1416E-03     104.587E-03    -50.4455E-03     48.3850E-03    -54.1524E-03     104.020E-03    -50.2775E-03     48.1208E-03
            2052     5.99318E-03     22.7648E-03    -37.7651E+06    -147.621E+06    -21.1422E+06     2.27531E+06    -53.0379E-03     103.086E-03    -50.0481E-03     41.7507E-03    -53.0278E-03     102.479E-03    -49.8850E-03     41.5488E-03
            2053     5.13952E-03     22.7226E-03    -40.7392E+06    -151.321E+06    -25.9746E+06     1.80373E+06    -51.9025E-03     101.578E-03    -49.6754E-03     35.2317E-03    -51.8788E-03     100.948E-03    -49.5268E-03     35.0764E-03
            2054     4.28371E-03     22.6873E-03    -43.0941E+06    -153.809E+06    -31.0157E+06     1.46146E+06    -50.8682E-03     100.219E-03    -49.3512E-03     29.1386E-03    -50.8342E-03     99.5763E-03    -49.2208E-03     29.0228E-03
            2055     3.42806E-03     22.6575E-03    -45.5426E+06    -156.973E+06    -36.4772E+06     1.40257E+06    -50.1193E-03     99.1922E-03    -49.0729E-03     23.3583E-03    -50.0774E-03     98.5371E-03    -48.9617E-03     23.2775E-03
            2056     2.57169E-03     22.6353E-03    -47.9492E+06    -160.667E+06    -42.5269E+06     1.14519E+06    -49.4192E-03     98.2609E-03    -48.8417E-03     17.5251E-03    -49.3701E-03     97.5945E-03    -48.7518E-03     17.4707E-03
            2057     1.71456E-03     22.6182E-03    -49.6351E+06    -163.338E+06    -47.0649E+06     902.057E+03    -48.9154E-03     97.5988E-03    -48.6833E-03     11.7957E-03    -48.8611E-03     96.9248E-03    -48.6099E-03     11.7632E-03
            2058     857.408E-06     22.6089E-03    -50.3466E+06    -165.095E+06    -50.9567E+06     302.021E+03    -48.6264E-03     97.2445E-03    -48.6181E-03     6.20584E-03    -48.5657E-03     96.5668E-03    -48.5605E-03     6.18568E-03
            2059     16.1741E-03     23.5072E-03    -5.92018E+06     150.498E+06     112.014E+06     800.148E+03    -86.1697E-03     142.185E-03    -56.0155E-03     338.229E-03    -106.431E-03     162.635E-03    -55.6650E-03     340.143E-03
            2060     15.3332E-03     23.0111E-03    -11.8683E+06     133.048E+06     102.342E+06     1.68076E+06    -92.3324E-03     147.707E-03    -55.3742E-03     396.109E-03    -113.202E-03     168.710E-03    -55.0382E-03     392.326E-03
            2061     14.4888E-03     22.6704E-03    -17.1642E+06     91.9850E+06     66.5049E+06     1.99663E+06    -78.5090E-03     133.155E-03    -54.6463E-03     264.374E-03    -85.6801E-03     140.399E-03    -54.4222E-03     260.951E-03
            2062     13.6464E-03     22.4624E-03    -21.9576E+06     56.3273E+06     20.3978E+06     1.78471E+06    -68.5123E-03     122.398E-03    -53.8859E-03     169.009E-03    -71.1401E-03     125.089E-03    -53.8337E-03     166.828E-03
            2063     12.7990E-03     22.3210E-03    -24.4192E+06     30.0230E+06    -9.00026E+06     2.07092E+06    -64.2461E-03     117.474E-03    -53.2275E-03     121.519E-03    -65.5506E-03     118.824E-03    -53.2806E-03     119.983E-03
            2064     11.9528E-03     22.2098E-03    -25.1576E+06    -9.06744E+06    -14.9692E+06     2.66622E+06    -62.3056E-03     115.018E-03    -52.7125E-03     98.1937E-03    -63.0665E-03     115.701E-03    -52.7377E-03     97.0373E-03
            2065     11.1049E-03     22.1138E-03    -26.0487E+06    -55.6772E+06    -14.2226E+06     2.97893E+06    -60.8369E-03     113.077E-03    -52.2401E-03     85.5568E-03    -61.3057E-03     113.297E-03    -52.1927E-03     84.6541E-03
            2066     10.2565E-03     22.0277E-03    -27.4451E+06    -87.3873E+06    -14.4816E+06     3.06271E+06    -59.4660E-03     111.211E-03    -51.7447E-03     76.6561E-03    -59.7573E-03     111.136E-03    -51.6506E-03     75.9465E-03
            2067     9.40658E-03     21.9494E-03    -28.9964E+06    -109.559E+06    -14.4492E+06     3.05490E+06    -58.0032E-03     109.250E-03    -51.2470E-03     68.0173E-03    -58.1748E-03     108.972E-03    -51.1184E-03     67.4637E-03
            2068     8.55593E-03     21.8804E-03    -30.4391E+06    -126.293E+06    -14.7689E+06     2.85247E+06    -56.5771E-03     107.333E-03    -50.7559E-03     60.0612E-03    -56.6654E-03     106.908E-03    -50.6025E-03     59.6306E-03
            2069     7.70420E-03     21.8184E-03    -32.5453E+06    -136.372E+06    -16.1889E+06     2.64638E+06    -55.3020E-03     105.567E-03    -50.2648E-03     52.8486E-03    -55.3397E-03     105.052E-03    -50.1008E-03     52.5134E-03
            2070     6.85145E-03     21.7642E-03    -35.3806E+06    -142.174E+06    -18.2846E+06     2.86262E+06    -53.9035E-03     103.690E-03    -49.7870E-03     46.3267E-03    -53.9127E-03     103.122E-03    -49.6209E-03     46.0755E-03
            2071     5.99802E-03     21.7157E-03    -37.8112E+06    -147.018E+06    -21.6965E+06     2.82035E+06    -52.4222E-03     101.772E-03    -49.3502E-03     40.0361E-03    -52.4094E-03     101.166E-03    -49.1907E-03     39.8512E-03
            2072     5.14236E-03     21.6749E-03    -39.9749E+06    -150.387E+06    -25.9559E+06     2.06982E+06    -51.2794E-03     100.240E-03    -48.9607E-03     33.5837E-03    -51.2513E-03     99.6114E-03    -48.8144E-03     33.4397E-03
            2073     4.28737E-03     21.6406E-03    -42.7911E+06    -153.068E+06    -30.9736E+06     1.93200E+06    -50.3309E-03     98.9358E-03    -48.6050E-03     27.7882E-03    -50.2952E-03     98.2947E-03    -48.4758E-03     27.6844E-03
            2074     3.43067E-03     21.6124E-03    -45.5315E+06    -156.757E+06    -37.3962E+06     1.69035E+06    -49.3957E-03     97.6877E-03    -48.2920E-03     22.1694E-03    -49.3519E-03     97.0342E-03    -48.1857E-03     22.0971E-03
            2075     2.57353E-03     21.5904E-03    -47.6022E+06    -159.779E+06    -42.4160E+06     1.51312E+06    -48.6659E-03     96.7142E-03    -48.0483E-03     16.6364E-03    -48.6160E-03     96.0511E-03    -47.9597E-03     16.5905E-03
            2076     1.71610E-03     21.5748E-03    -49.6518E+06    -162.394E+06    -46.5525E+06     1.10582E+06    -48.1273E-03     96.0059E-03    -47.8786E-03     11.1789E-03    -48.0750E-03     95.3358E-03    -47.8039E-03     11.1513E-03
            2077     857.961E-06     21.5649E-03    -51.2444E+06    -164.344E+06    -49.8866E+06     1.21020E+06    -47.8111E-03     95.6176E-03    -47.8065E-03     5.97010E-03    -47.7574E-03     94.9433E-03    -47.7433E-03     5.96352E-03
            2078     16.1748E-03     22.4323E-03    -5.77630E+06     149.528E+06     111.555E+06     893.652E+03    -87.5882E-03     143.575E-03    -55.9871E-03     335.235E-03    -107.535E-03     163.709E-03    -55.6377E-03     336.783E-03
            2079     15.3339E-03     21.9404E-03    -12.0159E+06     132.126E+06     101.793E+06     1.19421E+06    -93.7538E-03     148.998E-03    -55.2445E-03     392.567E-03    -114.305E-03     169.681E-03    -54.9097E-03     388.506E-03
            2080     14.4940E-03     21.6019E-03    -17.2945E+06     91.9010E+06     67.1483E+06     2.20269E+06    -78.9341E-03     133.371E-03    -54.4373E-03     261.061E-03    -85.9667E-03     140.474E-03    -54.2098E-03     257.616E-03
            2081     13.6482E-03     21.3980E-03    -21.5586E+06     56.4310E+06     21.6833E+06     3.05784E+06    -68.8614E-03     122.486E-03    -53.6247E-03     166.112E-03    -71.4268E-03     125.113E-03    -53.5669E-03     163.956E-03
            2082     12.8039E-03     21.2579E-03    -24.4478E+06     30.2145E+06    -10.1901E+06     2.70022E+06    -64.8165E-03     117.711E-03    -52.8945E-03     118.987E-03    -66.0919E-03     119.036E-03    -52.9538E-03     117.457E-03
            2083     11.9574E-03     21.1480E-03    -25.7471E+06     -8.9757E+06    -17.0820E+06     2.70504E+06    -62.6105E-03     114.923E-03    -52.3125E-03     95.5886E-03    -63.3513E-03     115.590E-03    -52.3476E-03     94.4408E-03
            2084     11.1101E-03     21.0551E-03    -26.7322E+06    -55.4356E+06    -15.2941E+06     3.25121E+06    -60.9654E-03     112.756E-03    -51.7906E-03     83.2423E-03    -61.4219E-03     112.965E-03    -51.7480E-03     82.3547E-03
            2085     10.2613E-03     20.9698E-03    -27.8442E+06    -86.9063E+06    -15.5296E+06     3.37600E+06    -59.5745E-03     110.815E-03    -51.2401E-03     74.3132E-03    -59.8559E-03     110.734E-03    -51.1514E-03     73.6186E-03
            2086     9.41208E-03     20.8944E-03    -28.9843E+06    -108.929E+06    -14.8371E+06     3.19062E+06    -58.0170E-03     108.703E-03    -50.6860E-03     65.3903E-03    -58.1796E-03     108.419E-03    -50.5602E-03     64.8496E-03
            2087     8.56112E-03     20.8267E-03    -30.7963E+06    -125.714E+06    -15.3387E+06     3.27913E+06    -56.3897E-03     106.529E-03    -50.1396E-03     57.5945E-03    -56.4723E-03     106.101E-03    -49.9893E-03     57.1820E-03
            2088     7.70925E-03     20.7669E-03    -32.8967E+06    -136.181E+06    -16.8267E+06     3.35516E+06    -54.9135E-03     104.519E-03    -49.6053E-03     50.6715E-03    -54.9464E-03     104.000E-03    -49.4443E-03     50.3589E-03
            2089     6.85651E-03     20.7138E-03    -34.8350E+06    -141.483E+06    -18.5398E+06     3.24117E+06    -53.4962E-03     102.584E-03    -49.0882E-03     44.1729E-03    -53.4990E-03     102.015E-03    -48.9253E-03     43.9374E-03
            2090     6.00193E-03     20.6684E-03    -36.9251E+06    -146.095E+06    -21.9729E+06     2.87693E+06    -51.9704E-03     100.576E-03    -48.6061E-03     37.9021E-03    -51.9511E-03     99.9712E-03    -48.4505E-03     37.7266E-03
            2091     5.14705E-03     20.6283E-03    -39.6670E+06    -149.765E+06    -26.8174E+06     2.76424E+06    -50.6206E-03     98.8000E-03    -48.1794E-03     31.9428E-03    -50.5883E-03     98.1730E-03    -48.0388E-03     31.8170E-03
            2092     4.29033E-03     20.5955E-03    -42.4690E+06    -152.718E+06    -31.6638E+06     2.47076E+06    -49.6388E-03     97.4388E-03    -47.8000E-03     26.2566E-03    -49.5996E-03     96.7985E-03    -47.6753E-03     26.1664E-03
            2093     3.43363E-03     20.5685E-03    -44.9264E+06    -155.488E+06    -36.7651E+06     2.21730E+06    -48.6858E-03     96.1477E-03    -47.4619E-03     20.7809E-03    -48.6408E-03     95.4979E-03    -47.3552E-03     20.7203E-03
            2094     2.57585E-03     20.5477E-03    -47.4017E+06    -158.623E+06    -42.0582E+06     1.90685E+06    -47.8242E-03     95.0214E-03    -47.1973E-03     15.5965E-03    -47.7750E-03     94.3628E-03    -47.1088E-03     15.5595E-03
            2095     1.71741E-03     20.5324E-03    -49.2576E+06    -161.305E+06    -46.4955E+06     1.45682E+06    -47.2701E-03     94.2924E-03    -47.0223E-03     10.5549E-03    -47.2172E-03     93.6267E-03    -46.9494E-03     10.5346E-03
            2096     858.961E-06     20.5236E-03    -50.2451E+06    -162.812E+06    -49.7782E+06     825.387E+03    -46.9942E-03     93.9070E-03    -46.9128E-03     5.84953E-03    -46.9379E-03     93.2387E-03    -46.8528E-03     5.83995E-03
            2097     16.1743E-03     21.3560E-03    -5.64971E+06     148.659E+06     111.205E+06     794.590E+03    -89.2113E-03     145.153E-03    -55.9417E-03     332.619E-03    -108.812E-03     164.939E-03    -55.5931E-03     333.817E-03
            2098     15.3381E-03     20.8666E-03    -12.0549E+06     131.347E+06     101.516E+06     1.54785E+06    -94.7118E-03     149.817E-03    -55.1048E-03     388.355E-03    -114.845E-03     170.080E-03    -54.7702E-03     384.105E-03
            2099     14.4955E-03     20.5346E-03    -18.2700E+06     91.0661E+06     66.5980E+06     2.35212E+06    -79.6201E-03     133.836E-03    -54.2159E-03     257.440E-03    -86.4883E-03     140.770E-03    -53.9885E-03     253.968E-03
            2100     13.6536E-03     20.3321E-03    -22.1888E+06     56.7516E+06     22.8413E+06     2.89431E+06    -69.6855E-03     123.016E-03    -53.3305E-03     162.977E-03    -72.1946E-03     125.582E-03    -53.2664E-03     160.806E-03
            2101     12.8085E-03     20.1944E-03    -23.6602E+06     30.7089E+06    -8.72658E+06     3.61009E+06    -65.2311E-03     117.757E-03    -52.5264E-03     116.022E-03    -66.4686E-03     119.045E-03    -52.5802E-03     114.512E-03
            2102     11.9626E-03     20.0872E-03    -25.1698E+06    -8.97628E+06    -17.9761E+06     3.86930E+06    -62.7707E-03     114.648E-03    -51.8777E-03     93.0343E-03    -63.4839E-03     115.293E-03    -51.9180E-03     91.9171E-03
            2103     11.1151E-03     19.9960E-03    -26.9411E+06    -55.0350E+06    -16.6533E+06     3.76273E+06    -61.2220E-03     112.519E-03    -51.2971E-03     80.7011E-03    -61.6624E-03     112.717E-03    -51.2615E-03     79.8311E-03
            2104     10.2673E-03     19.9129E-03    -28.2762E+06    -85.9583E+06    -16.5340E+06     3.57941E+06    -59.6854E-03     110.370E-03    -50.6841E-03     71.6231E-03    -59.9559E-03     110.282E-03    -50.6011E-03     70.9445E-03
            2105     9.41761E-03     19.8392E-03    -29.7681E+06    -108.417E+06    -16.0987E+06     3.58875E+06    -57.9837E-03     108.052E-03    -50.0680E-03     62.6770E-03    -58.1385E-03     107.763E-03    -49.9481E-03     62.1559E-03
            2106     8.56717E-03     19.7744E-03    -31.4933E+06    -125.313E+06    -16.4338E+06     3.86555E+06    -56.2141E-03     105.678E-03    -49.4635E-03     54.9401E-03    -56.2910E-03     105.246E-03    -49.3183E-03     54.5494E-03
            2107     7.71487E-03     19.7163E-03    -33.4084E+06    -135.994E+06    -18.8309E+06     3.47445E+06    -54.4657E-03     103.343E-03    -48.8777E-03     48.1806E-03    -54.4921E-03     102.823E-03    -48.7262E-03     47.8844E-03
            2108     6.86107E-03     19.6655E-03    -35.1541E+06    -140.918E+06    -20.0534E+06     3.15417E+06    -52.9144E-03     101.244E-03    -48.3296E-03     41.7770E-03    -52.9127E-03     100.675E-03    -48.1746E-03     41.5536E-03
            2109     6.00719E-03     19.6211E-03    -37.3139E+06    -145.255E+06    -22.6037E+06     3.29817E+06    -51.4742E-03     99.2876E-03    -47.8134E-03     35.6451E-03    -51.4539E-03     98.6848E-03    -47.6617E-03     35.4848E-03
            2110     5.15096E-03     19.5842E-03    -39.8591E+06    -149.109E+06    -27.4621E+06     3.36304E+06    -50.0741E-03     97.4094E-03    -47.3353E-03     30.0659E-03    -50.0406E-03     96.7848E-03    -47.1986E-03     29.9560E-03
            2111     4.29434E-03     19.5515E-03    -42.1776E+06    -151.733E+06    -31.9665E+06     3.05625E+06    -48.8074E-03     95.7302E-03    -46.9228E-03     24.5452E-03    -48.7662E-03     95.0933E-03    -46.8014E-03     24.4701E-03
            2112     3.43663E-03     19.5265E-03    -44.6364E+06    -154.288E+06    -36.4819E+06     2.61539E+06    -47.8100E-03     94.3877E-03    -46.5777E-03     19.3952E-03    -47.7649E-03     93.7422E-03    -46.4717E-03     19.3453E-03
            2113     2.57820E-03     19.5066E-03    -46.7301E+06    -156.929E+06    -41.4244E+06     2.29959E+06    -47.0005E-03     93.2968E-03    -46.2963E-03     14.6031E-03    -46.9509E-03     92.6443E-03    -46.2081E-03     14.5749E-03
            2114     1.71909E-03     19.4925E-03    -48.3806E+06    -159.552E+06    -46.1446E+06     1.70136E+06    -46.3796E-03     92.4759E-03    -46.0963E-03     9.86198E-03    -46.3252E-03     91.8170E-03    -46.0255E-03     9.84750E-03
            2115     859.385E-06     19.4832E-03    -49.6347E+06    -161.083E+06    -48.9732E+06     1.02659E+06    -46.0514E-03     92.0395E-03    -45.9881E-03     5.40165E-03    -45.9956E-03     91.3776E-03    -45.9274E-03     5.39589E-03
            2116     16.1773E-03     20.2771E-03    -6.22603E+06     147.605E+06     110.357E+06     738.467E+03    -90.7962E-03     146.686E-03    -55.8902E-03     330.305E-03    -110.047E-03     166.119E-03    -55.5434E-03     331.202E-03
            2117     15.3383E-03     19.7931E-03    -12.4297E+06     130.069E+06     100.862E+06     1.69018E+06    -95.6518E-03     150.614E-03    -54.9621E-03     383.810E-03    -115.326E-03     170.413E-03    -54.6283E-03     379.407E-03
            2118     14.5000E-03     19.4648E-03    -17.6499E+06     90.8276E+06     67.4956E+06     2.51917E+06    -80.7241E-03     134.706E-03    -53.9820E-03     253.102E-03    -87.4010E-03     141.447E-03    -53.7506E-03     249.576E-03
            2119     13.6576E-03     19.2654E-03    -21.5639E+06     56.5932E+06     23.2997E+06     2.79678E+06    -70.5109E-03     123.510E-03    -52.9992E-03     159.452E-03    -72.9444E-03     126.001E-03    -52.9335E-03     157.270E-03
            2120     12.8141E-03     19.1314E-03    -23.7749E+06     29.5013E+06    -9.19818E+06     4.09272E+06    -65.6071E-03     117.726E-03    -52.1187E-03     112.811E-03    -66.8005E-03     118.966E-03    -52.1730E-03     111.322E-03
            2121     11.9679E-03     19.0265E-03    -25.0535E+06    -8.41609E+06    -18.1491E+06     5.33179E+06    -63.1011E-03     114.506E-03    -51.4048E-03     90.2381E-03    -63.7887E-03     115.127E-03    -51.4470E-03     89.1538E-03
            2122     11.1214E-03     18.9369E-03    -26.3997E+06    -53.3868E+06    -17.2635E+06     4.81548E+06    -61.4687E-03     112.222E-03    -50.7532E-03     77.9067E-03    -61.8896E-03     112.410E-03    -50.7239E-03     77.0646E-03
            2123     10.2733E-03     18.8563E-03    -27.8484E+06    -85.3215E+06    -17.3345E+06     4.17877E+06    -59.7875E-03     109.861E-03    -50.0735E-03     68.6669E-03    -60.0407E-03     109.763E-03    -49.9961E-03     68.0122E-03
            2124     9.42405E-03     18.7852E-03    -29.4125E+06    -108.125E+06    -17.0131E+06     4.26744E+06    -57.8847E-03     107.279E-03    -49.3943E-03     59.6592E-03    -58.0248E-03     106.980E-03    -49.2799E-03     59.1645E-03
            2125     8.57307E-03     18.7222E-03    -31.0281E+06    -124.557E+06    -17.2742E+06     4.15576E+06    -56.0204E-03     104.749E-03    -48.7289E-03     51.9360E-03    -56.0859E-03     104.313E-03    -48.5897E-03     51.5647E-03
            2126     7.72093E-03     18.6674E-03    -32.6485E+06    -134.671E+06    -19.2217E+06     3.87279E+06    -54.1521E-03     102.235E-03    -48.0832E-03     45.2132E-03    -54.1693E-03     101.714E-03    -47.9366E-03     44.9360E-03
            2127     6.86748E-03     18.6179E-03    -34.7742E+06    -140.802E+06    -21.3574E+06     3.68130E+06    -52.2691E-03     99.7563E-03    -47.4872E-03     39.0040E-03    -52.2586E-03     99.1844E-03    -47.3394E-03     38.8016E-03
            2128     6.01151E-03     18.5765E-03    -37.1495E+06    -145.240E+06    -23.8501E+06     3.71001E+06    -50.7708E-03     97.7124E-03    -46.9416E-03     33.2344E-03    -50.7443E-03     97.1076E-03    -46.7964E-03     33.0912E-03
            2129     5.15596E-03     18.5399E-03    -39.4961E+06    -147.927E+06    -27.6600E+06     3.86974E+06    -49.4118E-03     95.8409E-03    -46.4291E-03     27.7935E-03    -49.3757E-03     95.2197E-03    -46.2957E-03     27.6984E-03
            2130     4.29859E-03     18.5107E-03    -42.0136E+06    -150.268E+06    -32.0147E+06     3.62943E+06    -47.9459E-03     93.9303E-03    -45.9844E-03     22.7732E-03    -47.9043E-03     93.2990E-03    -45.8657E-03     22.7132E-03
            2131     3.43966E-03     18.4860E-03    -44.1869E+06    -153.008E+06    -36.9098E+06     2.97048E+06    -46.8410E-03     92.4700E-03    -45.6290E-03     18.0449E-03    -46.7939E-03     91.8298E-03    -45.5276E-03     18.0058E-03
            2132     2.58051E-03     18.4674E-03    -46.0397E+06    -155.280E+06    -41.0887E+06     2.32745E+06    -46.1072E-03     91.4475E-03    -45.3404E-03     13.4101E-03    -46.0566E-03     90.8013E-03    -45.2539E-03     13.3858E-03
            2133     1.72080E-03     18.4540E-03    -47.7538E+06    -157.247E+06    -44.6530E+06     2.16336E+06    -45.4987E-03     90.6018E-03    -45.1030E-03     9.09220E-03    -45.4465E-03     89.9512E-03    -45.0290E-03     9.08601E-03
            2134     860.777E-06     18.4456E-03    -49.3412E+06    -159.724E+06    -48.7887E+06     1.57707E+06    -45.0432E-03     89.9819E-03    -44.9388E-03     5.00655E-03    -44.9881E-03     89.3261E-03    -44.8796E-03     5.00950E-03
            2135     16.1757E-03     19.1963E-03    -6.27257E+06     146.935E+06     109.893E+06     1.01681E+06    -92.4611E-03     148.313E-03    -55.8518E-03     327.585E-03    -111.335E-03     167.367E-03    -55.5063E-03     328.132E-03
            2136     15.3422E-03     18.7175E-03    -11.3889E+06     129.175E+06     100.919E+06     1.57777E+06    -97.2126E-03     152.020E-03    -54.8077E-03     378.361E-03    -116.383E-03     171.317E-03    -54.4739E-03     373.703E-03
            2137     14.5033E-03     18.3938E-03    -16.4810E+06     89.9758E+06     67.3855E+06     2.40804E+06    -81.7807E-03     135.489E-03    -53.7082E-03     247.966E-03    -88.2370E-03     142.011E-03    -53.4778E-03     244.383E-03
            2138     13.6631E-03     18.1984E-03    -20.8078E+06     55.6567E+06     23.8729E+06     3.86424E+06    -71.0940E-03     123.732E-03    -52.6381E-03     155.102E-03    -73.4286E-03     126.121E-03    -52.5693E-03     152.946E-03
            2139     12.8192E-03     18.0680E-03    -23.8582E+06     27.9896E+06    -8.49064E+06     5.33994E+06    -66.1639E-03     117.847E-03    -51.6835E-03     109.162E-03    -67.3087E-03     119.032E-03    -51.7319E-03     107.703E-03
            2140     11.9747E-03     17.9655E-03    -25.2126E+06    -7.25756E+06    -18.2277E+06     5.96413E+06    -63.5596E-03     114.444E-03    -50.8840E-03     87.2277E-03    -64.2215E-03     115.043E-03    -50.9280E-03     86.1661E-03
            2141     11.1278E-03     17.8784E-03    -26.0389E+06    -51.3260E+06    -18.0808E+06     5.65520E+06    -61.7412E-03     111.892E-03    -50.1504E-03     74.8675E-03    -62.1412E-03     112.070E-03    -50.1286E-03     74.0538E-03
            2142     10.2801E-03     17.8001E-03    -27.4221E+06    -84.7814E+06    -18.3572E+06     5.07389E+06    -59.9428E-03     109.338E-03    -49.3956E-03     65.1750E-03    -60.1762E-03     109.227E-03    -49.3247E-03     64.5502E-03
            2143     9.43101E-03     17.7316E-03    -28.9761E+06    -107.599E+06    -17.8720E+06     4.85008E+06    -57.8493E-03     106.491E-03    -48.6412E-03     55.9288E-03    -57.9733E-03     106.182E-03    -48.5325E-03     55.4603E-03
            2144     8.58009E-03     17.6719E-03    -30.5575E+06    -123.538E+06    -18.0174E+06     4.69505E+06    -55.7361E-03     103.644E-03    -47.9075E-03     48.3824E-03    -55.7896E-03     103.202E-03    -47.7741E-03     48.0362E-03
            2145     7.72779E-03     17.6183E-03    -32.5054E+06    -133.467E+06    -19.6475E+06     4.65457E+06    -53.7079E-03     100.912E-03    -47.2042E-03     41.8242E-03    -53.7182E-03     100.390E-03    -47.0618E-03     41.5734E-03
            2146     6.87333E-03     17.5733E-03    -34.7887E+06    -139.740E+06    -21.9657E+06     4.58295E+06    -51.7777E-03     98.3255E-03    -46.5478E-03     35.8772E-03    -51.7626E-03     97.7547E-03    -46.4046E-03     35.7001E-03
            2147     6.01819E-03     17.5323E-03    -37.1910E+06    -144.985E+06    -25.6078E+06     4.49676E+06    -49.9508E-03     95.9019E-03    -45.9511E-03     30.4098E-03    -49.9187E-03     95.2973E-03    -45.8150E-03     30.2892E-03
            2148     5.16076E-03     17.4986E-03    -39.4579E+06    -147.548E+06    -29.2118E+06     4.23217E+06    -48.3345E-03     93.7629E-03    -45.4284E-03     25.2778E-03    -48.2940E-03     93.1432E-03    -45.3033E-03     25.1981E-03
            2149     4.30237E-03     17.4708E-03    -41.2308E+06    -148.566E+06    -32.1572E+06     3.87053E+06    -47.0723E-03     92.0486E-03    -44.9763E-03     20.7002E-03    -47.0277E-03     91.4235E-03    -44.8619E-03     20.6504E-03
            2150     3.44357E-03     17.4480E-03     -43.273E+06    -150.930E+06    -36.4185E+06     3.41386E+06    -45.9378E-03     90.5268E-03    -44.5891E-03     16.3448E-03    -45.8890E-03     89.8942E-03    -44.4896E-03     16.3167E-03
            2151     2.58326E-03     17.4301E-03    -45.5795E+06    -153.738E+06    -41.1170E+06     2.76570E+06    -45.0147E-03     89.3004E-03    -44.2857E-03     12.1907E-03    -44.9635E-03     88.6607E-03    -44.2023E-03     12.1764E-03
            2152     1.72258E-03     17.4176E-03    -47.2821E+06    -155.656E+06    -44.6512E+06     2.05343E+06    -44.4275E-03     88.4881E-03    -44.0606E-03     8.24782E-03    -44.3750E-03     87.8446E-03    -43.9895E-03     8.24262E-03
            2153     861.280E-06     17.4099E-03    -47.8147E+06    -156.478E+06    -46.6786E+06     1.73082E+06    -44.0527E-03     87.9188E-03    -43.8661E-03     4.59474E-03    -43.9977E-03     87.2739E-03    -43.8033E-03     4.60106E-03
            2154     16.1777E-03     18.1130E-03    -5.51978E+06     146.220E+06     109.449E+06     870.006E+03    -94.4761E-03     150.273E-03    -55.7966E-03     324.362E-03    -112.934E-03     168.913E-03    -55.4534E-03     324.469E-03
            2155     15.3437E-03     17.6388E-03    -10.6336E+06     128.072E+06     100.405E+06     1.06747E+06    -98.7455E-03     153.368E-03    -54.6225E-03     372.081E-03    -117.354E-03     172.103E-03    -54.2907E-03     367.139E-03
            2156     14.5089E-03     17.3218E-03    -16.5427E+06     88.0863E+06     66.6167E+06     3.03100E+06    -82.6675E-03     136.073E-03    -53.4059E-03     242.220E-03    -88.8608E-03     142.328E-03    -53.1765E-03     238.619E-03
            2157     13.6681E-03     17.1314E-03    -21.2671E+06     54.3786E+06     24.1742E+06     5.16008E+06    -71.8606E-03     124.107E-03    -52.2460E-03     150.683E-03    -74.0914E-03     126.385E-03    -52.1731E-03     148.556E-03
            2158     12.8260E-03     17.0041E-03    -23.5952E+06     27.5793E+06    -7.09508E+06     6.20104E+06    -66.8514E-03     118.057E-03    -51.2055E-03     105.232E-03    -67.9437E-03     119.184E-03    -51.2468E-03     103.799E-03
            2159     11.9809E-03     16.9048E-03    -24.7562E+06    -6.45499E+06    -18.0579E+06     6.66233E+06    -64.1963E-03     114.501E-03    -50.3052E-03     83.6502E-03    -64.8260E-03     115.073E-03    -50.3503E-03     82.6125E-03
            2160     11.1353E-03     16.8200E-03    -26.1130E+06    -49.5500E+06    -19.1897E+06     6.52894E+06    -62.2747E-03     111.740E-03    -49.4651E-03     70.9577E-03    -62.6527E-03     111.905E-03    -49.4514E-03     70.1713E-03
            2161     10.2881E-03     16.7442E-03    -27.4376E+06    -83.5643E+06    -19.3875E+06     5.91508E+06    -60.1398E-03     108.754E-03    -48.6138E-03     60.7817E-03    -60.3540E-03     108.630E-03    -48.5498E-03     60.1885E-03
            2162     9.43899E-03     16.6792E-03    -28.7669E+06    -106.633E+06    -18.7768E+06     5.51020E+06    -57.7831E-03     105.555E-03    -47.7724E-03     51.5113E-03    -57.8911E-03     105.237E-03    -47.6699E-03     51.0729E-03
            2163     8.58832E-03     16.6218E-03    -30.4656E+06    -122.793E+06    -18.9651E+06     5.38726E+06    -55.3843E-03     102.347E-03    -46.9627E-03     44.0944E-03    -55.4261E-03     101.900E-03    -46.8353E-03     43.7771E-03
            2164     7.73505E-03     16.5724E-03    -32.1909E+06    -132.864E+06    -20.3625E+06     5.57569E+06    -53.1572E-03     99.3532E-03    -46.1960E-03     37.7896E-03    -53.1578E-03     98.8270E-03    -46.0585E-03     37.5687E-03
            2165     6.88091E-03     16.5282E-03    -34.3171E+06    -138.503E+06    -22.2723E+06     5.72596E+06    -51.1260E-03     96.6064E-03    -45.4803E-03     32.1240E-03    -51.1045E-03     96.0359E-03    -45.3411E-03     31.9765E-03
            2166     6.02465E-03     16.4913E-03    -36.7911E+06    -143.676E+06    -25.9973E+06     5.27286E+06    -49.0341E-03     93.8693E-03    -44.8352E-03     27.0434E-03    -48.9975E-03     93.2675E-03    -44.7035E-03     26.9455E-03
            2167     5.16657E-03     16.4596E-03    -38.8342E+06    -146.055E+06    -29.5894E+06     4.75739E+06    -47.2637E-03     91.5490E-03    -44.2853E-03     22.4586E-03    -47.2190E-03     90.9338E-03    -44.1652E-03     22.3967E-03
            2168     4.30756E-03     16.4329E-03    -41.0540E+06    -147.336E+06    -32.7156E+06     4.20604E+06    -45.9321E-03     89.7525E-03    -43.8203E-03     18.1867E-03    -45.8860E-03     89.1323E-03    -43.7108E-03     18.1492E-03
            2169     3.44729E-03     16.4117E-03    -43.0859E+06    -149.413E+06    -36.7557E+06     3.76712E+06    -44.7822E-03     88.2091E-03    -43.4269E-03     14.4100E-03    -44.7332E-03     87.5833E-03    -43.3316E-03     14.3923E-03
            2170     2.58634E-03     16.3956E-03    -44.6857E+06    -151.484E+06    -40.7040E+06     3.25357E+06    -43.8632E-03     86.9823E-03    -43.1191E-03     10.9151E-03    -43.8109E-03     86.3515E-03    -43.0381E-03     10.9117E-03
            2171     1.72443E-03     16.3834E-03    -45.9099E+06    -153.110E+06    -44.2713E+06     2.08295E+06    -43.2323E-03     86.1299E-03    -42.8976E-03     7.25107E-03    -43.1770E-03     85.4964E-03    -42.8304E-03     7.24894E-03
            2172     862.431E-06     16.3765E-03    -46.5302E+06    -153.877E+06    -46.1179E+06     790.001E+03    -42.9336E-03     85.6142E-03    -42.6807E-03     3.91658E-03    -42.8767E-03     84.9795E-03    -42.6207E-03     3.91153E-03
            2173     16.1780E-03     17.0276E-03    -5.17765E+06     145.558E+06     109.157E+06     454.027E+03    -96.6627E-03     152.373E-03    -55.7104E-03     321.025E-03    -114.638E-03     170.530E-03    -55.3682E-03     320.678E-03
            2174     15.3486E-03     16.5581E-03    -10.9565E+06     126.294E+06     98.8087E+06     1.49438E+06    -99.9084E-03     154.319E-03    -54.4108E-03     365.865E-03    -117.856E-03     172.391E-03    -54.0840E-03     360.717E-03
            2175     14.5125E-03     16.2496E-03    -17.8794E+06     85.5446E+06     65.9229E+06     3.66646E+06    -83.7698E-03     136.859E-03    -53.0893E-03     235.927E-03    -89.6598E-03     142.799E-03    -52.8578E-03     232.314E-03
            2176     13.6742E-03     16.0626E-03    -21.4489E+06     53.5952E+06     26.1327E+06     5.31783E+06    -72.9219E-03     124.747E-03    -51.8254E-03     145.536E-03    -75.0470E-03     126.911E-03    -51.7413E-03     143.415E-03
            2177     12.8324E-03     15.9403E-03    -23.4387E+06     26.8322E+06    -6.52267E+06     6.65033E+06    -67.9243E-03     118.585E-03    -50.6612E-03     100.643E-03    -68.9605E-03     119.653E-03    -50.6987E-03     99.2237E-03
            2178     11.9892E-03     15.8436E-03    -25.1348E+06    -5.80716E+06    -19.1062E+06     7.77885E+06    -65.2346E-03     114.859E-03    -49.6244E-03     79.0600E-03    -65.8309E-03     115.401E-03    -49.6751E-03     78.0461E-03
            2179     11.1443E-03     15.7613E-03    -26.3568E+06    -47.2733E+06    -20.0878E+06     7.50822E+06    -62.9134E-03     111.567E-03    -48.6539E-03     65.9811E-03    -63.2681E-03     111.719E-03    -48.6476E-03     65.2249E-03
            2180     10.2975E-03     15.6895E-03    -27.2218E+06    -81.9354E+06    -20.1222E+06     6.61879E+06    -60.3513E-03     108.040E-03    -47.6885E-03     55.4829E-03    -60.5442E-03     107.904E-03    -47.6308E-03     54.9221E-03
            2181     9.44871E-03     15.6273E-03    -28.4918E+06    -105.560E+06    -19.6171E+06     6.25217E+06    -57.6194E-03     104.368E-03    -46.7489E-03     46.3054E-03    -57.7102E-03     104.040E-03    -46.6526E-03     45.9006E-03
            2182     8.59739E-03     15.5741E-03    -30.1859E+06    -121.909E+06    -19.5637E+06     6.16866E+06    -55.0469E-03     100.898E-03    -45.8516E-03     38.9534E-03    -55.0762E-03     100.445E-03    -45.7289E-03     38.6669E-03
            2183     7.74465E-03     15.5270E-03    -32.1274E+06    -132.287E+06    -21.3581E+06     6.47376E+06    -52.5200E-03     97.5233E-03    -45.0033E-03     32.9986E-03    -52.5115E-03     96.9932E-03    -44.8717E-03     32.8081E-03
            2184     6.88931E-03     15.4863E-03    -33.7992E+06    -137.721E+06    -23.2911E+06     6.58225E+06    -50.0814E-03     94.3152E-03    -44.2338E-03     27.7975E-03    -50.0510E-03     93.7435E-03    -44.1015E-03     27.6787E-03
            2185     6.03208E-03     15.4520E-03    -35.6456E+06    -141.792E+06    -25.6421E+06     6.13316E+06    -48.0295E-03     91.5817E-03    -43.5522E-03     23.1130E-03    -47.9866E-03     90.9833E-03    -43.4232E-03     23.0391E-03
            2186     5.17366E-03     15.4225E-03    -38.1223E+06    -144.099E+06    -29.2173E+06     5.78469E+06    -46.1645E-03     89.1210E-03    -42.9565E-03     19.1826E-03    -46.1172E-03     88.5115E-03    -42.8384E-03     19.1444E-03
            2187     4.31335E-03     15.3979E-03    -40.5378E+06    -145.719E+06    -33.3515E+06     5.04413E+06    -44.5228E-03     86.9912E-03    -42.4684E-03     15.5900E-03    -44.4739E-03     86.3777E-03    -42.3651E-03     15.5728E-03
            2188     3.45181E-03     15.3784E-03    -42.5377E+06    -147.709E+06    -37.3435E+06     4.05706E+06    -43.3935E-03     85.4762E-03    -42.0827E-03     12.2661E-03    -43.3426E-03     84.8581E-03    -41.9936E-03     12.2587E-03
            2189     2.58956E-03     15.3628E-03    -43.8512E+06    -148.982E+06    -40.4254E+06     3.39156E+06    -42.5752E-03     84.3453E-03    -41.7700E-03     9.17091E-03    -42.5223E-03     83.7249E-03    -41.6926E-03     9.17343E-03
            2190     1.72696E-03     15.3522E-03    -45.0633E+06    -150.185E+06    -43.3746E+06     2.35849E+06    -41.9160E-03     83.4395E-03    -41.5235E-03     6.10934E-03    -41.8618E-03     82.8178E-03    -41.4573E-03     6.11369E-03
            2191     863.531E-06     15.3451E-03    -46.2090E+06    -151.279E+06    -45.8055E+06     1.03183E+06    -41.5094E-03     82.8293E-03    -41.3198E-03     3.23068E-03    -41.4551E-03     82.2065E-03    -41.2625E-03     3.23028E-03
            2192     16.1818E-03     15.9393E-03    -5.29938E+06     143.825E+06     107.835E+06     99.7255E+03    -98.9004E-03     154.518E-03    -55.6171E-03     317.587E-03    -116.249E-03     172.045E-03    -55.2788E-03     316.733E-03
            2193     15.3501E-03     15.4776E-03    -11.6394E+06     123.731E+06     97.1685E+06     2.75814E+06    -101.413E-03     155.601E-03    -54.1883E-03     359.080E-03    -118.566E-03     172.871E-03    -53.8649E-03     353.714E-03
            2194     14.5182E-03     15.1732E-03    -17.2495E+06     84.7465E+06     66.6271E+06     4.17288E+06    -85.1830E-03     137.925E-03    -52.7424E-03     229.029E-03    -90.7761E-03     143.566E-03    -52.5071E-03     225.387E-03
            2195     13.6809E-03     14.9950E-03    -21.3666E+06     52.2532E+06     27.2823E+06     5.17442E+06    -74.5870E-03     125.922E-03    -51.3353E-03     139.210E-03    -76.6008E-03     127.967E-03    -51.2437E-03     137.069E-03
            2196     12.8406E-03     14.8744E-03    -24.1666E+06     25.1932E+06    -5.75628E+06     7.53350E+06    -69.4551E-03     119.467E-03    -50.0115E-03     94.9440E-03    -70.4348E-03     120.467E-03    -50.0418E-03     93.5353E-03
            2197     11.9990E-03     14.7819E-03    -25.4456E+06    -4.80057E+06    -19.1137E+06     8.54817E+06    -66.4291E-03     115.236E-03    -48.8072E-03     73.4295E-03    -66.9909E-03     115.747E-03    -48.8589E-03     72.4345E-03
            2198     11.1549E-03     14.7031E-03    -26.0743E+06    -44.7688E+06    -20.7761E+06     7.97607E+06    -63.6090E-03     111.290E-03    -47.6809E-03     60.0286E-03    -63.9366E-03     111.427E-03    -47.6821E-03     59.2969E-03
            2199     10.3089E-03     14.6350E-03    -26.9048E+06    -80.2781E+06    -20.8815E+06     7.40644E+06    -60.5344E-03     107.120E-03    -46.5853E-03     49.2480E-03    -60.7046E-03     106.970E-03    -46.5343E-03     48.7221E-03
            2200     9.45994E-03     14.5774E-03    -28.1276E+06    -104.176E+06    -20.3264E+06     7.20322E+06    -57.4705E-03     103.002E-03    -45.5313E-03     40.2844E-03    -57.5444E-03     102.665E-03    -45.4411E-03     39.9159E-03
            2201     8.60900E-03     14.5271E-03    -29.9019E+06    -120.992E+06    -20.3465E+06     7.28665E+06    -54.5671E-03     99.0992E-03    -44.5321E-03     33.2699E-03    -54.5835E-03     98.6392E-03    -44.4151E-03     33.0204E-03
            2202     7.75540E-03     14.4840E-03    -31.8123E+06    -131.500E+06    -22.0928E+06     7.35403E+06    -51.6414E-03     95.2439E-03    -43.6025E-03     27.5357E-03    -51.6230E-03     94.7100E-03    -43.4762E-03     27.3766E-03
            2203     6.89926E-03     14.4472E-03    -33.6326E+06    -136.535E+06    -24.1143E+06     7.29926E+06    -48.9791E-03     91.7500E-03    -42.7709E-03     23.0087E-03    -48.9427E-03     91.1795E-03    -42.6448E-03     22.9161E-03
            2204     6.04134E-03     14.4148E-03    -35.6256E+06    -140.462E+06    -26.3804E+06     7.02218E+06    -46.7461E-03     88.7888E-03    -42.0427E-03     18.8949E-03    -46.7001E-03     88.1941E-03    -41.9193E-03     18.8467E-03
            2205     5.18152E-03     14.3884E-03    -37.5214E+06    -142.274E+06    -29.3789E+06     6.62586E+06    -44.7105E-03     86.1285E-03    -41.4180E-03     15.4877E-03    -44.6601E-03     85.5250E-03    -41.3042E-03     15.4712E-03
            2206     4.31991E-03     14.3661E-03    -39.3658E+06    -143.143E+06    -33.0792E+06     5.95060E+06    -43.0951E-03     83.9990E-03    -40.9039E-03     12.7381E-03    -43.0430E-03     83.3948E-03    -40.8047E-03     12.7413E-03
            2207     3.45738E-03     14.3477E-03    -41.3060E+06    -144.924E+06    -36.7403E+06     4.88000E+06    -41.9230E-03     82.4088E-03    -40.4857E-03     9.90499E-03    -41.8699E-03     81.8009E-03    -40.3994E-03     9.91479E-03
            2208     2.59393E-03     14.3337E-03    -43.1674E+06    -146.480E+06    -39.9444E+06     3.68594E+06    -40.9782E-03     81.1285E-03    -40.1503E-03     7.26552E-03    -40.9258E-03     80.5184E-03    -40.0750E-03     7.27633E-03
            2209     1.72959E-03     14.3234E-03    -44.3663E+06    -147.586E+06    -42.8654E+06     2.60219E+06    -40.2794E-03     80.1798E-03    -39.9003E-03     4.81564E-03    -40.2260E-03     79.5690E-03    -39.8363E-03     4.82598E-03
            2210     865.031E-06     14.3177E-03    -45.0953E+06    -147.873E+06    -44.4948E+06     1.27686E+06    -39.8726E-03     79.5887E-03    -39.7161E-03     2.53227E-03    -39.8195E-03     78.9794E-03    -39.6588E-03     2.53664E-03
            2211     16.1798E-03     14.8466E-03    -4.93663E+06     142.261E+06     106.500E+06     803.264E+03    -101.542E-03     157.087E-03    -55.5448E-03     314.101E-03    -118.246E-03     173.970E-03    -55.2115E-03     312.649E-03
            2212     15.3560E-03     14.3939E-03    -12.0397E+06     121.714E+06     95.9179E+06     2.44862E+06    -103.798E-03     157.749E-03    -53.9516E-03     351.464E-03    -120.209E-03     174.273E-03    -53.6311E-03     345.740E-03
            2213     14.5232E-03     14.0980E-03    -16.7976E+06     83.1439E+06     66.3400E+06     3.89083E+06    -87.4687E-03     139.786E-03    -52.3172E-03     220.672E-03    -92.7670E-03     145.128E-03    -52.0817E-03     216.910E-03
            2214     13.6886E-03     13.9223E-03    -21.3137E+06     50.1946E+06     28.1355E+06     6.21484E+06    -76.7245E-03     127.442E-03    -50.7174E-03     131.181E-03    -78.6097E-03     129.349E-03    -50.6186E-03     129.024E-03
            2215     12.8517E-03     13.8094E-03    -24.0594E+06     24.2595E+06    -3.57521E+06     8.11444E+06    -71.1635E-03     120.369E-03    -49.2052E-03     87.6954E-03    -72.0804E-03     121.297E-03    -49.2234E-03     86.2898E-03
            2216     12.0104E-03     13.7190E-03    -24.8800E+06    -3.85937E+06    -18.7948E+06     8.37964E+06    -67.4909E-03     115.304E-03    -47.8136E-03     66.7712E-03    -68.0117E-03     115.778E-03    -47.8659E-03     65.7886E-03
            2217     11.1681E-03     13.6453E-03    -25.3393E+06    -42.8949E+06    -21.7318E+06     8.45555E+06    -64.2150E-03     110.739E-03    -46.5238E-03     53.1352E-03    -64.5108E-03     110.856E-03    -46.5335E-03     52.4309E-03
            2218     10.3221E-03     13.5817E-03    -26.3855E+06    -78.5992E+06    -21.5497E+06     8.49971E+06    -60.7235E-03     106.011E-03    -45.2872E-03     42.4433E-03    -60.8710E-03     105.849E-03    -45.2427E-03     41.9555E-03
            2219     9.47373E-03     13.5285E-03    -27.9967E+06    -102.896E+06    -21.2003E+06     8.41838E+06    -57.2377E-03     101.343E-03    -44.1050E-03     33.8035E-03    -57.2958E-03     100.998E-03    -44.0212E-03     33.4753E-03
            2220     8.62220E-03     13.4824E-03    -29.6055E+06    -120.060E+06    -20.9713E+06     8.39793E+06    -53.7850E-03     96.7900E-03    -43.0050E-03     27.1632E-03    -53.7892E-03     96.3240E-03    -42.8928E-03     26.9520E-03
            2221     7.76787E-03     13.4438E-03    -31.2266E+06    -130.016E+06    -22.1214E+06     8.34109E+06    -50.6293E-03     92.6265E-03    -41.9972E-03     21.9858E-03    -50.6024E-03     92.0915E-03    -41.8740E-03     21.8596E-03
            2222     6.91115E-03     13.4102E-03    -33.2254E+06    -135.129E+06    -24.3049E+06     8.30385E+06    -47.7806E-03     88.8744E-03    -41.0938E-03     18.0761E-03    -47.7389E-03     88.3056E-03    -40.9712E-03     18.0124E-03
            2223     6.05195E-03     13.3812E-03    -35.2094E+06    -138.962E+06    -26.9255E+06     7.87412E+06    -45.1500E-03     85.4675E-03    -40.3175E-03     14.6903E-03    -45.0998E-03     84.8770E-03    -40.1996E-03     14.6675E-03
            2224     5.19050E-03     13.3576E-03    -37.0556E+06    -140.046E+06    -29.3501E+06     7.19808E+06    -43.1350E-03     82.7996E-03    -39.6646E-03     11.9425E-03    -43.0835E-03     82.2044E-03    -39.5546E-03     11.9440E-03
            2225     4.32786E-03     13.3371E-03    -38.8267E+06    -140.415E+06    -32.0741E+06     6.73141E+06    -41.5516E-03     80.6604E-03    -39.1089E-03     9.74954E-03    -41.5009E-03     80.0663E-03    -39.0093E-03     9.77022E-03
            2226     3.46387E-03     13.3205E-03    -40.5416E+06    -141.895E+06    -35.8177E+06     5.60075E+06    -40.1828E-03     78.8298E-03    -38.6470E-03     7.59631E-03    -40.1308E-03     78.2339E-03    -38.5616E-03     7.62146E-03
            2227     2.59880E-03     13.3078E-03    -41.8922E+06    -143.448E+06    -39.0004E+06     4.10360E+06    -39.1257E-03     77.4207E-03    -38.2950E-03     5.59717E-03    -39.0723E-03     76.8221E-03    -38.2212E-03     5.61767E-03
            2228     1.73301E-03     13.2988E-03    -42.9725E+06    -144.539E+06    -41.6031E+06     2.78383E+06    -38.4071E-03     76.4566E-03    -38.0495E-03     3.73006E-03    -38.3528E-03     75.8570E-03    -37.9856E-03     3.74551E-03
            2229     866.509E-06     13.2931E-03    -43.6284E+06    -144.885E+06    -43.4561E+06     1.30317E+06    -38.0496E-03     75.8954E-03    -37.8458E-03     1.86755E-03    -37.9950E-03     75.2973E-03    -37.7897E-03     1.87347E-03
            2230     16.1841E-03     13.7551E-03    -4.52865E+06     141.537E+06     106.611E+06     1.52189E+06    -105.707E-03     161.212E-03    -55.5048E-03     310.251E-03    -121.821E-03     177.503E-03    -55.1704E-03     307.988E-03
            2231     15.3564E-03     13.3043E-03    -10.7764E+06     121.052E+06     95.8456E+06     2.60677E+06    -107.462E-03     161.118E-03    -53.6564E-03     341.311E-03    -123.053E-03     176.824E-03    -53.3370E-03     335.018E-03
            2232     14.5326E-03     13.0183E-03    -17.1091E+06     80.4751E+06     65.6413E+06     4.24027E+06    -90.2752E-03     142.039E-03    -51.7637E-03     210.159E-03    -95.2175E-03     147.017E-03    -51.5273E-03     206.274E-03
            2233     13.7007E-03     12.8503E-03    -21.4213E+06     48.0959E+06     28.7108E+06     6.44495E+06    -78.9572E-03     128.895E-03    -49.9378E-03     122.785E-03    -80.7128E-03     130.663E-03    -49.8329E-03     120.608E-03
            2234     12.8641E-03     12.7412E-03    -22.6006E+06     24.1065E+06    -2.45588E+06     7.88562E+06    -72.8016E-03     121.021E-03    -48.2197E-03     79.8878E-03    -73.6461E-03     121.879E-03    -48.2342E-03     78.4835E-03
            2235     12.0257E-03     12.6577E-03    -23.4347E+06    -3.56164E+06    -19.1939E+06     8.84518E+06    -68.3914E-03     115.035E-03    -46.6433E-03     59.8124E-03    -68.8645E-03     115.468E-03    -46.7001E-03     58.8556E-03
            2236     11.1826E-03     12.5873E-03    -24.9462E+06    -41.4764E+06    -23.1025E+06     9.67115E+06    -64.6311E-03     109.827E-03    -45.1955E-03     46.4098E-03    -64.8973E-03     109.925E-03    -45.2147E-03     45.7468E-03
            2237     10.3377E-03     12.5301E-03    -26.4653E+06    -77.0232E+06    -22.5193E+06     9.89866E+06    -60.7668E-03     104.588E-03    -43.8209E-03     35.5513E-03    -60.8951E-03     104.415E-03    -43.7834E-03     35.1069E-03
            2238     9.48903E-03     12.4809E-03    -28.0512E+06    -101.415E+06    -21.9462E+06     9.81749E+06    -56.6749E-03     99.1962E-03    -42.5213E-03     27.6577E-03    -56.7205E-03     98.8463E-03    -42.4433E-03     27.3737E-03
            2239     8.63714E-03     12.4409E-03    -29.6597E+06    -118.409E+06    -21.2578E+06     9.58387E+06    -52.9300E-03     94.2581E-03    -41.3281E-03     21.5016E-03    -52.9270E-03     93.7915E-03    -41.2197E-03     21.3280E-03
            2240     7.78175E-03     12.4060E-03    -31.4047E+06    -128.661E+06    -22.3076E+06     9.20376E+06    -49.4568E-03     89.6981E-03    -40.2413E-03     16.9552E-03    -49.4263E-03     89.1642E-03    -40.1207E-03     16.8588E-03
            2241     6.92406E-03     12.3763E-03    -32.9759E+06    -133.814E+06    -24.1934E+06     8.79322E+06    -46.2608E-03     85.5435E-03    -39.2826E-03     13.6769E-03    -46.2160E-03     84.9767E-03    -39.1617E-03     13.6345E-03
            2242     6.06328E-03     12.3518E-03    -34.4413E+06    -136.704E+06    -26.1689E+06     8.65414E+06    -43.5892E-03     82.0531E-03    -38.4639E-03     11.1062E-03    -43.5372E-03     81.4694E-03    -38.3465E-03     11.1046E-03
            2243     5.20068E-03     12.3299E-03    -36.2794E+06    -137.308E+06    -28.3008E+06     8.06581E+06    -41.4907E-03     79.2566E-03    -37.7658E-03     9.08689E-03    -41.4394E-03     78.6709E-03    -37.6556E-03     9.10820E-03
            2244     4.33662E-03     12.3120E-03    -38.0802E+06    -137.692E+06    -30.6860E+06     6.95963E+06    -39.7283E-03     76.9045E-03    -37.1762E-03     7.39056E-03    -39.6791E-03     76.3201E-03    -37.0748E-03     7.42031E-03
            2245     3.47088E-03     12.2974E-03    -39.3813E+06    -138.828E+06    -34.3921E+06     5.78620E+06    -38.2439E-03     74.9426E-03    -36.6986E-03     5.88377E-03    -38.1923E-03     74.3578E-03    -36.6122E-03     5.91588E-03
            2246     2.60401E-03     12.2859E-03    -40.5040E+06    -140.234E+06    -37.7657E+06     4.35067E+06    -37.1579E-03     73.5033E-03    -36.3454E-03     4.38627E-03    -37.1038E-03     72.9168E-03    -36.2722E-03     4.41314E-03
            2247     1.73634E-03     12.2779E-03    -41.4138E+06    -141.245E+06    -40.0437E+06     2.94746E+06    -36.4641E-03     72.5665E-03    -36.1024E-03     3.02163E-03    -36.4090E-03     71.9788E-03    -36.0378E-03     3.04124E-03
            2248     868.432E-06     12.2727E-03    -42.1848E+06    -141.648E+06    -41.6530E+06     1.50962E+06    -36.0849E-03     71.9988E-03    -35.9139E-03     1.45117E-03    -36.0303E-03     71.4122E-03    -35.8557E-03     1.46088E-03
            2249     16.1789E-03     12.6484E-03    -4.92080E+06     139.710E+06     105.421E+06     1.01164E+06    -110.453E-03     165.853E-03    -55.3999E-03     303.872E-03    -125.804E-03     181.377E-03    -55.0683E-03     300.714E-03
            2250     15.3681E-03     12.2138E-03    -10.3801E+06     119.099E+06     95.3116E+06     3.28023E+06    -111.432E-03     164.691E-03    -53.2587E-03     329.379E-03    -126.017E-03     179.387E-03    -52.9398E-03     322.549E-03
            2251     14.5418E-03     11.9357E-03    -16.0624E+06     79.6379E+06     67.3233E+06     5.15196E+06    -93.3224E-03     144.413E-03    -51.0905E-03     199.573E-03    -97.9083E-03     149.031E-03    -50.8461E-03     195.594E-03
            2252     13.7125E-03     11.7757E-03    -19.6848E+06     47.2705E+06     29.9064E+06     6.05489E+06    -81.0678E-03     130.090E-03    -49.0224E-03     113.380E-03    -82.6789E-03     131.714E-03    -48.9128E-03     111.192E-03
            2253     12.8795E-03     11.6730E-03    -21.7838E+06     21.9273E+06    -3.60296E+06     8.01998E+06    -73.8675E-03     120.977E-03    -47.1092E-03     72.4930E-03    -74.6360E-03     121.757E-03    -47.1274E-03     71.1184E-03
            2254     12.0405E-03     11.5961E-03    -23.9137E+06    -3.92438E+06    -21.0409E+06     10.6519E+06    -69.2796E-03     114.647E-03    -45.3679E-03     53.5293E-03    -69.7162E-03     115.047E-03    -45.4327E-03     52.6180E-03
            2255     11.1993E-03     11.5311E-03    -25.7503E+06    -39.6896E+06    -24.9622E+06     11.6193E+06    -64.9282E-03     108.694E-03    -43.7661E-03     40.0551E-03    -65.1731E-03     108.780E-03    -43.7960E-03     39.4439E-03
            2256     10.3541E-03     11.4787E-03    -27.4445E+06    -75.1191E+06    -23.4489E+06     11.3411E+06    -60.2870E-03     102.566E-03    -42.2788E-03     29.4718E-03    -60.4038E-03     102.387E-03    -42.2473E-03     29.0763E-03
            2257     9.50487E-03     11.4374E-03    -28.8528E+06    -99.4220E+06    -22.2454E+06     10.8999E+06    -55.8474E-03     96.7434E-03    -40.8960E-03     22.3347E-03    -55.8884E-03     96.3940E-03    -40.8212E-03     22.0894E-03
            2258     8.65182E-03     11.4006E-03    -30.2411E+06    -116.844E+06    -21.1919E+06     10.5733E+06    -51.8111E-03     91.4475E-03    -39.6364E-03     17.2401E-03    -51.8066E-03     90.9826E-03    -39.5290E-03     17.1002E-03
            2259     7.79649E-03     11.3719E-03    -31.6728E+06    -126.636E+06    -21.2619E+06     9.87647E+06    -48.1356E-03     86.6346E-03    -38.4990E-03     13.3020E-03    -48.1069E-03     86.1058E-03    -38.3757E-03     13.2295E-03
            2260     6.93650E-03     11.3464E-03    -33.2077E+06    -131.875E+06    -23.1083E+06     9.11178E+06    -44.7677E-03     82.2649E-03    -37.4971E-03     10.5699E-03    -44.7261E-03     81.7043E-03    -37.3733E-03     10.5428E-03
            2261     6.07484E-03     11.3250E-03    -34.6523E+06    -134.591E+06    -24.9740E+06     8.83521E+06    -42.0313E-03     78.6711E-03    -36.6398E-03     8.75671E-03    -41.9839E-03     78.0952E-03    -36.5193E-03     8.76574E-03
            2262     5.21096E-03     11.3063E-03    -35.8148E+06    -134.408E+06    -26.5829E+06     8.09762E+06    -39.7242E-03     75.6393E-03    -35.9151E-03     7.37347E-03    -39.6766E-03     75.0644E-03    -35.8012E-03     7.40144E-03
            2263     4.34479E-03     11.2909E-03    -36.8841E+06    -134.860E+06    -29.1791E+06     6.74909E+06    -37.8267E-03     73.1475E-03    -35.3208E-03     6.18230E-03    -37.7775E-03     72.5730E-03    -35.2177E-03     6.21393E-03
            2264     3.47748E-03     11.2780E-03    -37.9276E+06    -135.834E+06    -32.3213E+06     5.52708E+06    -36.3841E-03     71.2357E-03    -34.8517E-03     4.97529E-03    -36.3324E-03     70.6607E-03    -34.7613E-03     5.00692E-03
            2265     2.60899E-03     11.2683E-03    -38.7876E+06    -136.835E+06    -35.4130E+06     4.35439E+06    -35.2986E-03     69.8015E-03    -34.5028E-03     3.86127E-03    -35.2442E-03     69.2260E-03    -34.4253E-03     3.89021E-03
            2266     1.73976E-03     11.2608E-03    -39.4862E+06    -137.916E+06    -38.0253E+06     2.93846E+06    -34.5803E-03     68.8549E-03    -34.2746E-03     2.73208E-03    -34.5233E-03     68.2781E-03    -34.2075E-03     2.75273E-03
            2267     869.895E-06     11.2565E-03    -39.6462E+06    -138.389E+06    -39.6576E+06     1.58272E+06    -34.1821E-03     68.3736E-03    -34.1914E-03     1.50003E-03    -34.1225E-03     67.7967E-03    -34.1316E-03     1.51147E-03
            2268     16.1900E-03     11.5433E-03    -5.09199E+06     138.014E+06     103.769E+06     1.15624E+06    -115.564E-03     170.775E-03    -55.2112E-03     299.359E-03    -130.187E-03     185.570E-03    -54.8851E-03     295.298E-03
            2269     15.3702E-03     11.1155E-03    -11.2841E+06     116.472E+06     93.8752E+06     2.83838E+06    -115.406E-03     168.191E-03    -52.7857E-03     318.126E-03    -129.076E-03     181.965E-03    -52.4688E-03     310.834E-03
            2270     14.5539E-03     10.8498E-03    -15.9561E+06     78.7848E+06     68.1726E+06     4.16479E+06    -96.5694E-03     146.906E-03    -50.3369E-03     187.688E-03    -100.785E-03     151.149E-03    -50.0871E-03     183.592E-03
            2271     13.7287E-03     10.6987E-03    -19.2705E+06     46.1110E+06     30.5420E+06     6.33840E+06    -82.8721E-03     130.899E-03    -48.0271E-03     103.369E-03    -84.3402E-03     132.376E-03    -47.9133E-03     101.206E-03
            2272     12.8937E-03     10.6075E-03    -22.7300E+06     18.1747E+06    -4.20306E+06     10.0143E+06    -74.7701E-03     120.709E-03    -45.9384E-03     64.4628E-03    -75.4694E-03     121.405E-03    -45.9528E-03     63.1507E-03
            2273     12.0564E-03     10.5327E-03    -25.8831E+06    -4.60663E+06    -22.3040E+06     12.9449E+06    -69.4862E-03     113.543E-03    -44.0568E-03     47.1744E-03    -69.8944E-03     113.909E-03    -44.1241E-03     46.3298E-03
            2274     11.2160E-03     10.4761E-03    -27.9799E+06    -37.2702E+06    -26.6525E+06     13.5832E+06    -64.4549E-03     106.807E-03    -42.3518E-03     34.1299E-03    -64.6879E-03     106.886E-03    -42.3905E-03     33.5817E-03
            2275     10.3695E-03     10.4311E-03    -29.7946E+06    -72.6287E+06    -23.9930E+06     12.6163E+06    -59.3416E-03     100.150E-03    -40.8085E-03     25.0040E-03    -59.4595E-03     99.9747E-03    -40.7800E-03     24.6571E-03
            2276     9.51984E-03     10.3942E-03    -30.8527E+06    -96.5217E+06    -21.5063E+06     11.2607E+06    -54.6718E-03     94.0642E-03    -39.3924E-03     18.5061E-03    -54.7203E-03     93.7234E-03    -39.3152E-03     18.2893E-03
            2277     8.66607E-03     10.3654E-03    -31.4730E+06    -114.771E+06    -19.9969E+06     10.3544E+06    -50.3147E-03     88.4332E-03    -38.1185E-03     14.5741E-03    -50.3169E-03     87.9745E-03    -38.0064E-03     14.4503E-03
            2278     7.80768E-03     10.3393E-03    -32.2682E+06    -124.983E+06    -19.7077E+06     9.67822E+06    -46.6434E-03     83.6241E-03    -36.9807E-03     11.4282E-03    -46.6204E-03     83.1002E-03    -36.8512E-03     11.3660E-03
            2279     6.94832E-03     10.3201E-03    -33.2641E+06    -129.282E+06    -20.4403E+06     9.43913E+06    -43.4403E-03     79.4098E-03    -35.9695E-03     9.33391E-03    -43.4057E-03     78.8577E-03    -35.8360E-03     9.31886E-03
            2280     6.08476E-03     10.3013E-03    -34.4523E+06    -131.814E+06    -22.3888E+06     8.47941E+06    -40.5181E-03     75.6161E-03    -35.0980E-03     8.20189E-03    -40.4772E-03     75.0500E-03    -34.9688E-03     8.21218E-03
            2281     5.21915E-03     10.2866E-03    -35.4455E+06    -131.906E+06    -24.6794E+06     6.91267E+06    -38.1282E-03     72.5023E-03    -34.3741E-03     7.05792E-03    -38.0851E-03     71.9367E-03    -34.2549E-03     7.07463E-03
            2282     4.35186E-03     10.2730E-03    -36.0548E+06    -132.184E+06    -27.1420E+06     5.91205E+06    -36.2500E-03     70.0403E-03    -33.7904E-03     6.11973E-03    -36.2034E-03     69.4752E-03    -33.6821E-03     6.14313E-03
            2283     3.48300E-03     10.2625E-03    -36.5492E+06    -132.998E+06    -30.0341E+06     4.71755E+06    -34.8058E-03     68.1407E-03    -33.3349E-03     4.99112E-03    -34.7547E-03     67.5747E-03    -33.2392E-03     5.01397E-03
            2284     2.61306E-03     10.2538E-03    -36.9842E+06    -133.836E+06    -32.7464E+06     3.56055E+06    -33.7736E-03     66.7723E-03    -32.9988E-03     4.02545E-03    -33.7183E-03     66.2055E-03    -32.9148E-03     4.04516E-03
            2285     1.74239E-03     10.2476E-03    -37.2323E+06    -134.740E+06    -35.2549E+06     2.45825E+06    -33.0759E-03     65.8505E-03    -32.7746E-03     2.83930E-03    -33.0162E-03     65.2824E-03    -32.7015E-03     2.85445E-03
            2286     871.179E-06     10.2436E-03    -37.5371E+06    -135.527E+06    -36.9039E+06     1.42950E+06    -32.6985E-03     65.3734E-03    -32.6749E-03     1.58723E-03    -32.6364E-03     64.8038E-03    -32.6085E-03     1.59713E-03
            2287     16.1862E-03     10.4347E-03    -6.12716E+06     136.493E+06     103.026E+06     1.40268E+06    -122.290E-03     177.326E-03    -55.0363E-03     295.293E-03    -136.277E-03     191.477E-03    -54.7102E-03     290.092E-03
            2288     15.3821E-03     10.0093E-03    -11.1664E+06     114.989E+06     93.7308E+06     2.58722E+06    -120.860E-03     173.091E-03    -52.2313E-03     302.881E-03    -133.536E-03     185.867E-03    -51.9132E-03     294.900E-03
            2289     14.5665E-03     9.76199E-03    -15.4930E+06     77.1117E+06     67.5640E+06     3.74812E+06    -98.4719E-03     147.937E-03    -49.4651E-03     171.037E-03    -102.222E-03     151.713E-03    -49.2166E-03     166.967E-03
            2290     13.7402E-03     9.62077E-03    -21.6515E+06     42.0138E+06     28.7969E+06     7.77058E+06    -83.4873E-03     130.463E-03    -46.9754E-03     92.1204E-03    -84.7980E-03     131.764E-03    -46.8609E-03     90.0670E-03
            2291     12.9111E-03     9.53986E-03    -26.3852E+06     14.3828E+06    -5.51302E+06     12.5286E+06    -75.0662E-03     119.837E-03    -44.7708E-03     57.1396E-03    -75.7126E-03     120.458E-03    -44.7810E-03     55.9175E-03
            2292     12.0734E-03     9.47299E-03    -28.8595E+06    -4.90199E+06    -23.0933E+06     15.4368E+06    -68.6296E-03     111.446E-03    -42.8162E-03     42.2059E-03    -69.0174E-03     111.782E-03    -42.8827E-03     41.4533E-03
            2293     11.2295E-03     9.42315E-03    -31.0688E+06    -34.0564E+06    -26.4406E+06     15.5582E+06    -63.0440E-03     104.144E-03    -41.1002E-03     30.0795E-03    -63.2773E-03     104.224E-03    -41.1380E-03     29.6094E-03
            2294     10.3833E-03     9.38509E-03    -32.5766E+06    -68.0209E+06    -22.3528E+06     13.0989E+06    -57.7978E-03     97.3767E-03    -39.5789E-03     21.6838E-03    -57.9273E-03     97.2146E-03    -39.5448E-03     21.3791E-03
            2295     9.53154E-03     9.35506E-03    -32.9689E+06    -93.0720E+06    -18.9986E+06     10.4214E+06    -52.8444E-03     91.0540E-03    -38.2096E-03     16.9696E-03    -52.9073E-03     90.7250E-03    -38.1218E-03     16.7685E-03
            2296     8.67597E-03     9.33169E-03    -32.8800E+06    -112.322E+06    -17.1067E+06     9.08402E+06    -48.7804E-03     85.7686E-03    -36.9882E-03     13.8628E-03    -48.7958E-03     85.3186E-03    -36.8632E-03     13.7378E-03
            2297     7.81778E-03     9.31138E-03    -33.5043E+06    -123.689E+06    -17.6600E+06     8.42640E+06    -45.0601E-03     80.9572E-03    -35.8970E-03     11.5370E-03    -45.0475E-03     80.4380E-03    -35.7574E-03     11.4700E-03
            2298     6.95497E-03     9.29505E-03    -33.8008E+06    -127.725E+06    -17.9173E+06     7.94181E+06    -42.0243E-03     76.9650E-03    -34.9407E-03     10.0342E-03    -41.9987E-03     76.4181E-03    -34.7961E-03     10.0065E-03
            2299     6.09131E-03     9.28127E-03    -33.8108E+06    -128.533E+06    -18.0461E+06     7.16878E+06    -39.3929E-03     73.5026E-03    -34.1096E-03     9.07761E-03    -39.3603E-03     72.9461E-03    -33.9644E-03     9.07421E-03
            2300     5.22463E-03     9.26896E-03    -34.4131E+06    -128.941E+06    -21.0183E+06     5.61381E+06    -37.0798E-03     70.4792E-03    -33.3994E-03     8.18928E-03    -37.0414E-03     69.9220E-03    -33.2677E-03     8.19140E-03
            2301     4.35633E-03     9.25819E-03    -34.9293E+06    -129.891E+06    -24.4269E+06     4.13794E+06    -35.2368E-03     68.0607E-03    -32.8240E-03     7.09443E-03    -35.1921E-03     67.5018E-03    -32.7071E-03     7.09614E-03
            2302     3.48648E-03     9.24946E-03    -35.1745E+06    -130.502E+06    -27.2798E+06     3.13397E+06    -33.8187E-03     66.1963E-03    -32.3775E-03     5.98538E-03    -33.7685E-03     65.6370E-03    -32.2737E-03     5.98872E-03
            2303     2.61570E-03     9.24208E-03    -35.5259E+06    -131.647E+06    -30.3898E+06     2.12038E+06    -32.8564E-03     64.8929E-03    -32.0365E-03     4.70258E-03    -32.8005E-03     64.3316E-03    -31.9460E-03     4.70424E-03
            2304     1.74417E-03     9.23681E-03    -35.7225E+06    -132.560E+06    -32.9136E+06     1.32468E+06    -32.1802E-03     63.9596E-03    -31.7794E-03     3.26343E-03    -32.1195E-03     63.3969E-03    -31.6999E-03     3.26424E-03
            2305     872.401E-06     9.23308E-03    -35.8784E+06    -133.304E+06    -34.8698E+06     844.612E+03    -31.7494E-03     63.3268E-03    -31.5774E-03     1.88112E-03    -31.6851E-03     62.7631E-03    -31.5065E-03     1.88366E-03
            2306     16.1909E-03     9.30217E-03    -6.50040E+06     135.168E+06     102.923E+06     898.177E+03    -129.605E-03     184.332E-03    -54.7268E-03     284.784E-03    -142.638E-03     197.525E-03    -54.3987E-03     278.536E-03
            2307     15.3931E-03     8.90161E-03    -10.4904E+06     112.773E+06     93.1374E+06     1.91809E+06    -123.854E-03     175.394E-03    -51.5391E-03     283.469E-03    -135.229E-03     186.866E-03    -51.2217E-03     275.272E-03
            2308     14.5826E-03     8.66979E-03    -15.7776E+06     72.7277E+06     66.0454E+06     6.20295E+06    -99.2736E-03     147.816E-03    -48.5428E-03     156.081E-03    -102.560E-03     151.117E-03    -48.2952E-03     152.222E-03
            2309     13.7592E-03     8.54851E-03    -23.2142E+06     37.3144E+06     29.2868E+06     11.6942E+06    -83.0521E-03     129.013E-03    -45.9612E-03     82.0246E-03    -84.1979E-03     130.127E-03    -45.8352E-03     80.1712E-03
            2310     12.9229E-03     8.47048E-03    -29.0386E+06     11.7411E+06    -3.22008E+06     15.2360E+06    -73.3986E-03     117.152E-03    -43.7535E-03     51.5296E-03    -73.9927E-03     117.695E-03    -43.7445E-03     50.4600E-03
            2311     12.0850E-03     8.41713E-03    -32.6777E+06    -5.28352E+06    -20.0472E+06     17.4145E+06    -67.0176E-03     108.857E-03    -41.8399E-03     38.6438E-03    -67.3979E-03     109.162E-03    -41.8851E-03     37.9925E-03
            2312     11.2414E-03     8.37226E-03    -34.1562E+06    -28.4215E+06    -21.4556E+06     16.4476E+06    -60.9092E-03     101.100E-03    -40.1905E-03     27.9588E-03    -61.1571E-03     101.189E-03    -40.2071E-03     27.5585E-03
            2313     10.3924E-03     8.34184E-03    -34.0481E+06    -61.2988E+06    -17.3506E+06     11.6084E+06    -55.3628E-03     94.1410E-03    -38.7783E-03     20.8168E-03    -55.5082E-03     93.9989E-03    -38.7268E-03     20.5376E-03
            2314     9.53833E-03     8.32025E-03    -33.3662E+06    -90.0245E+06    -14.0846E+06     8.30208E+06    -50.8775E-03     88.4158E-03    -37.5383E-03     17.4935E-03    -50.9513E-03     88.0929E-03    -37.4298E-03     17.2907E-03
            2315     8.68145E-03     8.29889E-03    -33.4963E+06    -110.604E+06    -12.2542E+06     7.33985E+06    -46.9309E-03     83.3734E-03    -36.4425E-03     15.0160E-03    -46.9581E-03     82.9250E-03    -36.2948E-03     14.8854E-03
            2316     7.82083E-03     8.28660E-03    -33.6051E+06    -121.813E+06    -12.9511E+06     6.32860E+06    -43.6747E-03     79.1421E-03    -35.4674E-03     13.6589E-03    -43.6727E-03     78.6262E-03    -35.3068E-03     13.5743E-03
            2317     6.95830E-03     8.27196E-03    -33.6992E+06    -126.037E+06    -14.2446E+06     5.10342E+06    -40.9483E-03     75.5534E-03    -34.6052E-03     12.3647E-03    -40.9306E-03     75.0102E-03    -34.4448E-03     12.3058E-03
            2318     6.09276E-03     8.26280E-03    -33.7113E+06    -126.310E+06    -13.9439E+06     4.25125E+06    -38.6526E-03     72.5084E-03    -33.8558E-03     11.2468E-03    -38.6293E-03     71.9576E-03    -33.6935E-03     11.2079E-03
            2319     5.22597E-03     8.25234E-03    -33.3521E+06    -126.194E+06    -16.5103E+06     3.39466E+06    -36.6755E-03     69.8713E-03    -33.1958E-03     10.4009E-03    -36.6429E-03     69.3204E-03    -33.0470E-03     10.3753E-03
            2320     4.35737E-03     8.24507E-03    -33.6451E+06    -127.876E+06    -21.1812E+06     1.99867E+06    -34.9784E-03     67.6164E-03    -32.6380E-03     9.11997E-03    -34.9353E-03     67.0614E-03    -32.5097E-03     9.09478E-03
            2321     3.48733E-03     8.23726E-03    -34.2625E+06    -128.943E+06    -24.6154E+06     951.606E+03    -33.6952E-03     65.8837E-03    -32.1885E-03     7.74528E-03    -33.6467E-03     65.3272E-03    -32.0749E-03     7.72090E-03
            2322     2.61647E-03     8.23183E-03    -34.7148E+06    -130.400E+06    -28.2191E+06     329.938E+03    -32.7171E-03     64.5412E-03    -31.8242E-03     6.01763E-03    -32.6622E-03     63.9820E-03    -31.7259E-03     5.99663E-03
            2323     1.74488E-03     8.22689E-03    -35.0402E+06    -131.800E+06    -31.6537E+06    -76.9956E+03    -31.9545E-03     63.5036E-03    -31.5491E-03     4.19913E-03    -31.8933E-03     62.9420E-03    -31.4655E-03     4.18221E-03
            2324     872.516E-06     8.22461E-03    -35.2620E+06    -132.676E+06    -34.0985E+06    -75.1879E+03    -31.4947E-03     62.8593E-03    -31.3645E-03     2.46706E-03    -31.4294E-03     62.2967E-03    -31.2915E-03     2.45798E-03
            2325     16.2061E-03     8.17415E-03    -5.26031E+06     134.134E+06     102.424E+06     609.673E+03    -136.764E-03     191.076E-03    -54.3116E-03     277.107E-03    -148.792E-03     203.268E-03    -53.9863E-03     269.966E-03
            2326     15.4062E-03     7.79094E-03    -9.70420E+06     108.744E+06     90.8435E+06     3.60245E+06    -124.395E-03     175.236E-03    -50.8407E-03     265.739E-03    -134.375E-03     185.310E-03    -50.5301E-03     257.841E-03
            2327     14.5923E-03     7.57854E-03    -18.0927E+06     65.8225E+06     63.7745E+06     10.1849E+06    -98.6555E-03     146.412E-03    -47.7569E-03     142.769E-03    -101.477E-03     149.222E-03    -47.5072E-03     139.290E-03
            2328     13.7682E-03     7.47141E-03    -25.2347E+06     33.9126E+06     32.8152E+06     15.5629E+06    -81.7314E-03     126.916E-03    -45.1850E-03     72.6483E-03    -82.7325E-03     127.856E-03    -45.0336E-03     71.0336E-03
            2329     12.9358E-03     7.41120E-03    -30.1657E+06     11.1247E+06     5.66432E+06     18.2455E+06    -70.8315E-03     113.899E-03    -43.0678E-03     48.1557E-03    -71.3846E-03     114.370E-03    -43.0119E-03     47.2630E-03
            2330     12.0925E-03     7.35948E-03    -33.1947E+06    -3.57791E+06    -7.35548E+06     18.0905E+06    -64.1338E-03     105.443E-03    -41.3093E-03     37.6371E-03    -64.5124E-03     105.713E-03    -41.2928E-03     37.0890E-03
            2331     11.2474E-03     7.32578E-03    -33.0998E+06    -20.7018E+06    -8.86796E+06     14.0470E+06    -57.9670E-03     97.7924E-03    -39.8253E-03     27.5681E-03    -58.2244E-03     97.8854E-03    -39.7916E-03     27.2034E-03
            2332     10.3937E-03     7.30413E-03    -32.3449E+06    -54.3042E+06    -8.05008E+06     9.09674E+06    -52.7490E-03     91.3412E-03    -38.5922E-03     22.7272E-03    -52.9046E-03     91.2130E-03    -38.5068E-03     22.4588E-03
            2333     9.53957E-03     7.28312E-03    -32.8821E+06    -87.7624E+06    -6.69513E+06     6.09214E+06    -48.7515E-03     86.2972E-03    -37.5457E-03     19.7745E-03    -48.8345E-03     85.9718E-03    -37.4042E-03     19.5703E-03
            2334     8.68019E-03     7.27345E-03    -33.0827E+06    -108.453E+06    -5.00471E+06     4.46091E+06    -45.2190E-03     81.8563E-03    -36.6373E-03     18.2358E-03    -45.2575E-03     81.4072E-03    -36.4571E-03     18.0847E-03
            2335     7.81825E-03     7.25882E-03    -32.8584E+06    -119.895E+06    -6.12031E+06     3.27045E+06    -42.5655E-03     78.3980E-03    -35.8325E-03     17.1147E-03    -42.5731E-03     77.8814E-03    -35.6416E-03     16.9991E-03
            2336     6.95487E-03     7.25243E-03    -32.6680E+06    -124.199E+06    -8.85825E+06     1.98782E+06    -40.3846E-03     75.4914E-03    -35.1068E-03     15.9699E-03    -40.3728E-03     74.9486E-03    -34.9236E-03     15.8754E-03
            2337     6.08935E-03     7.24253E-03    -32.5878E+06    -124.764E+06    -10.2931E+06     551.361E+03    -38.5194E-03     72.9846E-03    -34.4651E-03     14.8641E-03    -38.4988E-03     72.4353E-03    -34.2885E-03     14.7795E-03
            2338     5.22249E-03     7.23731E-03    -32.5550E+06    -125.213E+06    -13.6231E+06    -179.314E+03    -36.9236E-03     70.8134E-03    -33.8898E-03     13.4219E-03    -36.8932E-03     70.2624E-03    -33.7292E-03     13.3508E-03
            2339     4.35398E-03     7.22991E-03    -32.6927E+06    -126.667E+06    -18.3114E+06    -588.850E+03    -35.5607E-03     68.9425E-03    -33.3819E-03     11.9087E-03    -35.5191E-03     68.3882E-03    -33.2423E-03     11.8505E-03
            2340     3.48496E-03     7.22564E-03    -33.4516E+06    -128.321E+06    -22.4677E+06    -1.20029E+06    -34.4070E-03     67.3564E-03    -32.9495E-03     10.1144E-03    -34.3586E-03     66.7989E-03    -32.8273E-03     10.0630E-03
            2341     2.61454E-03     7.21998E-03    -34.1870E+06     -130.46E+06    -26.8179E+06    -1.60183E+06    -33.4093E-03     66.0103E-03    -32.6010E-03     7.95055E-03    -33.3539E-03     65.4480E-03    -32.4963E-03     7.90545E-03
            2342     1.74348E-03     7.21771E-03    -34.9556E+06    -132.302E+06    -31.0568E+06    -1.45846E+06    -32.7076E-03     65.0541E-03    -32.3465E-03     5.55552E-03    -32.6462E-03     64.4889E-03    -32.2592E-03     5.52156E-03
            2343     871.725E-06     7.21464E-03    -35.4415E+06    -133.834E+06    -34.4059E+06    -1.01276E+06    -32.2736E-03     64.4688E-03    -32.1952E-03     3.10451E-03    -32.2071E-03     63.9011E-03    -32.1218E-03     3.08362E-03
            2344     16.2035E-03     7.02270E-03    -4.45451E+06     131.470E+06     99.3808E+06     1.39063E+06    -142.198E-03     196.235E-03    -54.0378E-03     264.721E-03    -152.863E-03     207.069E-03    -53.7250E-03     257.109E-03
            2345     15.4146E-03     6.68122E-03    -12.4366E+06     102.002E+06     85.3113E+06     7.19031E+06    -124.785E-03     175.125E-03    -50.3396E-03     245.807E-03    -133.239E-03     183.656E-03    -50.0430E-03     238.401E-03
            2346     14.6030E-03     6.48799E-03    -21.4054E+06     59.3785E+06     61.2844E+06     13.6917E+06    -96.3069E-03     143.549E-03    -47.2417E-03     128.992E-03    -98.6917E-03     145.895E-03    -46.9903E-03     125.953E-03
            2347     13.7771E-03     6.39821E-03    -27.2426E+06     31.0948E+06     38.1268E+06     17.9095E+06    -78.0370E-03     122.867E-03    -44.8301E-03     65.3890E-03    -78.9021E-03     123.638E-03    -44.6451E-03     64.0692E-03
            2348     12.9369E-03     6.35307E-03    -31.1503E+06     13.1228E+06     18.3183E+06     18.7983E+06    -67.9932E-03     110.915E-03    -42.9221E-03     48.0512E-03    -68.5290E-03     111.335E-03    -42.8044E-03     47.2975E-03
            2349     12.0945E-03     6.30620E-03    -31.2289E+06     2.49850E+06     8.27195E+06     15.1789E+06    -60.6853E-03     102.062E-03    -41.3766E-03     39.0025E-03    -61.0639E-03     102.316E-03    -41.2936E-03     38.5145E-03
            2350     11.2425E-03     6.28491E-03    -30.7575E+06    -14.2922E+06     4.51444E+06     10.6469E+06    -54.6869E-03     94.8226E-03    -40.1357E-03     29.4982E-03    -54.9469E-03     94.9103E-03    -40.0478E-03     29.1605E-03
            2351     10.3907E-03     6.26367E-03    -31.5441E+06    -48.5172E+06     3.30657E+06     6.94080E+06    -50.1081E-03     89.2661E-03    -39.1580E-03     26.3337E-03    -50.2793E-03     89.1442E-03    -39.0254E-03     26.0789E-03
            2352     9.53132E-03     6.25448E-03    -32.0808E+06    -84.5974E+06     3.51399E+06     2.94105E+06    -46.5824E-03     84.9520E-03    -38.3697E-03     24.3446E-03    -46.6786E-03     84.6242E-03    -38.1829E-03     24.1280E-03
            2353     8.67117E-03     6.24201E-03    -31.9700E+06    -106.790E+06     3.42115E+06     587.145E+03    -44.1504E-03     81.8370E-03    -37.6866E-03     23.1586E-03    -44.1976E-03     81.3820E-03    -37.4683E-03     22.9719E-03
            2354     7.80959E-03     6.23682E-03    -31.9853E+06    -118.020E+06     776.882E+03    -587.782E+03    -42.0253E-03     79.0952E-03    -37.0699E-03     22.0343E-03    -42.0415E-03     78.5768E-03    -36.8485E-03     21.8777E-03
            2355     6.94470E-03     6.22790E-03    -31.7592E+06    -122.908E+06    -4.01185E+06    -2.12853E+06    -40.4000E-03     76.9122E-03    -36.5121E-03     20.6139E-03    -40.3930E-03     76.3677E-03    -36.3079E-03     20.4718E-03
            2356     6.08008E-03     6.22413E-03    -31.3929E+06    -124.120E+06    -7.76381E+06    -3.44405E+06    -39.1351E-03     75.1411E-03    -36.0059E-03     19.0279E-03    -39.1134E-03     74.5897E-03    -35.8193E-03     18.8950E-03
            2357     5.21351E-03     6.21767E-03    -31.4088E+06    -125.556E+06    -12.3022E+06    -3.82677E+06    -37.9847E-03     73.5209E-03    -35.5362E-03     17.0917E-03    -37.9502E-03     72.9647E-03    -35.3701E-03     16.9751E-03
            2358     4.34683E-03     6.21474E-03    -31.7954E+06    -126.974E+06    -16.9583E+06    -3.47616E+06    -36.9109E-03     72.0221E-03    -35.1112E-03     14.9768E-03    -36.8665E-03     71.4629E-03    -34.9658E-03     14.8829E-03
            2359     3.47832E-03     6.20951E-03    -32.3900E+06    -128.539E+06    -20.8995E+06    -3.26197E+06    -35.9133E-03     70.6636E-03    -34.7503E-03     12.6539E-03    -35.8617E-03     70.1010E-03    -34.6214E-03     12.5775E-03
            2360     2.60969E-03     6.20756E-03    -33.6839E+06    -131.681E+06    -26.2459E+06    -3.13809E+06    -35.1248E-03     69.5807E-03    -34.4559E-03     9.84416E-03    -35.0660E-03     69.0105E-03    -34.3473E-03     9.78059E-03
            2361     1.73984E-03     6.20407E-03    -35.2219E+06    -134.351E+06    -31.4491E+06    -2.41131E+06    -34.5559E-03     68.7846E-03    -34.2288E-03     6.85165E-03    -34.4925E-03     68.2100E-03    -34.1401E-03     6.80638E-03
            2362     870.505E-06     6.20320E-03    -36.0792E+06    -136.268E+06    -35.0961E+06    -1.34509E+06    -34.1569E-03     68.2474E-03    -34.0905E-03     3.80463E-03    -34.0892E-03     67.6693E-03    -34.0161E-03     3.78006E-03
            2363     16.2151E-03     5.88106E-03    -5.73471E+06     126.352E+06     93.4421E+06     4.11217E+06    -145.722E-03     199.773E-03    -54.0509E-03     248.751E-03    -154.880E-03     209.097E-03    -53.7586E-03     241.106E-03
            2364     15.4167E-03     5.56326E-03    -16.2353E+06     94.0195E+06     78.1544E+06     11.0122E+06    -123.305E-03     173.561E-03    -50.2552E-03     229.906E-03    -130.549E-03     180.860E-03    -49.9772E-03     223.241E-03
            2365     14.6060E-03     5.39872E-03    -21.9702E+06     53.9929E+06     59.6203E+06     15.8125E+06    -93.5494E-03     140.797E-03    -47.2480E-03     115.877E-03    -95.4961E-03     142.691E-03    -46.9964E-03     113.267E-03
            2366     13.7710E-03     5.33609E-03    -25.8279E+06     30.2508E+06     45.5083E+06     18.2663E+06    -73.7856E-03     118.853E-03    -45.0676E-03     61.9657E-03    -74.5257E-03     119.479E-03    -44.8465E-03     60.9161E-03
            2367     12.9325E-03     5.29014E-03    -27.0633E+06     19.1585E+06     34.3687E+06     15.2721E+06    -64.3341E-03     107.790E-03    -43.4563E-03     49.1576E-03    -64.8394E-03     108.169E-03    -43.2730E-03     48.4975E-03
            2368     12.0844E-03     5.26247E-03    -27.7786E+06     7.85011E+06     22.1389E+06     11.4058E+06    -57.2593E-03     99.4397E-03    -42.1804E-03     40.8521E-03    -57.6205E-03     99.6671E-03    -42.0408E-03     40.4095E-03
            2369     11.2334E-03     5.24011E-03    -29.4476E+06    -9.13560E+06     16.3330E+06     8.54839E+06    -51.2659E-03     92.5104E-03    -41.2445E-03     34.3879E-03    -51.5299E-03     92.5909E-03    -41.1069E-03     34.0933E-03
            2370     10.3746E-03     5.23167E-03    -30.1179E+06    -42.4220E+06     16.0233E+06     2.94155E+06    -47.6374E-03     88.2303E-03    -40.5929E-03     32.2500E-03    -47.8225E-03     88.1118E-03    -40.4076E-03     31.9870E-03
            2371     9.51586E-03     5.22023E-03    -29.8396E+06    -81.4744E+06     15.2754E+06    -1.46240E+06    -45.3631E-03     85.4480E-03    -40.0849E-03     30.6857E-03    -45.4667E-03     85.1124E-03    -39.8472E-03     30.4382E-03
            2372     8.65496E-03     5.21521E-03    -30.3839E+06    -105.693E+06     12.3887E+06    -3.59590E+06    -43.6742E-03     83.3073E-03    -39.6332E-03     29.0580E-03    -43.7261E-03     82.8403E-03    -39.3739E-03     28.8350E-03
            2373     7.79165E-03     5.20833E-03    -30.3327E+06    -116.877E+06     6.36871E+06    -5.42069E+06    -42.4469E-03     81.6509E-03    -39.2041E-03     27.4741E-03    -42.4633E-03     81.1262E-03    -38.9588E-03     27.2660E-03
            2374     6.92949E-03     5.20479E-03    -30.0015E+06    -121.973E+06    -774.647E+03    -6.84209E+06    -41.4375E-03     80.2361E-03    -38.7986E-03     25.4862E-03    -41.4271E-03     79.6881E-03    -38.5821E-03     25.2904E-03
            2375     6.06453E-03     5.19955E-03    -29.7644E+06    -124.597E+06    -7.07223E+06    -7.52769E+06    -40.5733E-03     78.9964E-03    -38.4231E-03     23.0304E-03    -40.5432E-03     78.4383E-03    -38.2346E-03     22.8505E-03
            2376     5.20041E-03     5.19681E-03    -29.8047E+06    -127.361E+06    -13.2491E+06    -7.01606E+06    -39.8162E-03     77.8875E-03    -38.0713E-03     20.4188E-03    -39.7693E-03     77.3206E-03    -37.9097E-03     20.2652E-03
            2377     4.33450E-03     5.19318E-03    -30.2326E+06    -128.849E+06    -17.3517E+06    -5.99730E+06    -39.0670E-03     76.8206E-03    -37.7536E-03     17.6421E-03    -39.0113E-03     76.2498E-03    -37.6097E-03     17.5186E-03
            2378     3.46890E-03     5.19126E-03    -31.3271E+06    -130.441E+06    -20.7787E+06    -4.98161E+06    -38.3530E-03     75.8307E-03    -37.4776E-03     14.6193E-03    -38.2935E-03     75.2563E-03    -37.3470E-03     14.5227E-03
            2379     2.60183E-03     5.18834E-03    -33.0605E+06    -134.128E+06    -26.5746E+06    -3.84989E+06    -37.7844E-03     75.0207E-03    -37.2363E-03     11.2623E-03    -37.7185E-03     74.4376E-03    -37.1267E-03     11.1909E-03
            2380     1.73542E-03     5.18718E-03    -34.8284E+06    -137.267E+06    -31.9068E+06    -2.58142E+06    -37.3186E-03     74.3601E-03    -37.0415E-03     7.71826E-03    -37.2485E-03     73.7707E-03    -36.9515E-03     7.67165E-03
            2381     867.114E-06     5.18577E-03    -36.2393E+06    -139.389E+06    -35.3474E+06    -1.45198E+06    -36.9991E-03     73.9009E-03    -36.9018E-03     4.20956E-03    -36.9275E-03     73.3076E-03    -36.8239E-03     4.18401E-03
            2382     16.2007E-03     4.73810E-03    -6.71321E+06     120.218E+06     86.6746E+06     8.06195E+06    -150.469E-03     205.244E-03    -54.7750E-03     244.866E-03    -158.684E-03     213.616E-03    -54.5062E-03     236.792E-03
            2383     15.4075E-03     4.43758E-03    -14.1245E+06     88.3779E+06      74.564E+06     13.2306E+06    -125.649E-03     176.462E-03    -50.8139E-03     207.132E-03    -131.581E-03     182.453E-03    -50.5487E-03     200.637E-03
            2384     14.5927E-03     4.31590E-03    -18.0382E+06     51.0160E+06     61.1248E+06     16.3777E+06    -88.9303E-03     136.802E-03    -47.8722E-03     95.2252E-03    -90.3104E-03     138.129E-03    -47.6144E-03     93.2015E-03
            2385     13.7631E-03     4.27014E-03    -20.4535E+06     34.3637E+06     54.9218E+06     14.9569E+06    -68.7589E-03     114.777E-03    -46.0181E-03     59.7644E-03    -69.3773E-03     115.288E-03    -45.7637E-03     58.9191E-03
            2386     12.9156E-03     4.23826E-03    -22.1605E+06     24.3685E+06     45.2279E+06     11.4649E+06    -59.9248E-03     104.698E-03    -44.7736E-03     54.1238E-03    -60.3850E-03     105.036E-03    -44.5506E-03     53.5600E-03
            2387     12.0668E-03     4.21285E-03    -24.1575E+06     11.6160E+06     32.9147E+06     9.02847E+06    -53.5097E-03     97.3796E-03    -43.8699E-03     45.8836E-03    -53.8401E-03     97.5712E-03    -43.6872E-03     45.5168E-03
            2388     11.2092E-03     4.20530E-03    -24.3729E+06    -2.65357E+06     29.3698E+06     4.19056E+06    -48.8516E-03     92.1389E-03    -43.2873E-03     42.0500E-03    -49.1037E-03     92.2102E-03    -43.1013E-03     41.7658E-03
            2389     10.3511E-03     4.19321E-03    -24.8659E+06    -36.9430E+06     27.2540E+06    -1.28574E+06    -46.7679E-03     89.6851E-03    -42.9172E-03     39.3908E-03    -46.9411E-03     89.5598E-03    -42.6913E-03     39.1168E-03
            2390     9.49134E-03     4.18878E-03    -26.9043E+06    -79.3098E+06     23.7223E+06    -5.28320E+06    -45.4476E-03     88.0828E-03    -42.6352E-03     36.7255E-03    -45.5448E-03     87.7339E-03    -42.3626E-03     36.4591E-03
            2391     8.62987E-03     4.18238E-03    -27.8915E+06    -104.129E+06     18.7757E+06    -8.64462E+06    -44.5892E-03     86.9550E-03    -42.3658E-03     34.2815E-03    -44.6354E-03     86.4776E-03    -42.0805E-03     34.0151E-03
            2392     7.76974E-03     4.17906E-03    -27.9747E+06    -116.526E+06     8.75125E+06    -10.8601E+06    -44.0201E-03     86.0927E-03    -42.0726E-03     31.4510E-03    -44.0250E-03     85.5587E-03    -41.8193E-03     31.1890E-03
            2393     6.90688E-03     4.17454E-03    -27.2017E+06    -122.708E+06    -1.26267E+06    -11.4693E+06    -43.4707E-03     85.2503E-03    -41.7796E-03     28.6049E-03    -43.4419E-03     84.6924E-03    -41.5686E-03     28.3612E-03
            2394     6.04594E-03     4.17209E-03    -27.0196E+06    -126.933E+06    -9.38643E+06    -10.5745E+06    -42.9348E-03     84.4408E-03    -41.5060E-03     25.5118E-03    -42.8825E-03     83.8684E-03    -41.3297E-03     25.3013E-03
            2395     5.18258E-03     4.16906E-03    -27.7328E+06    -130.534E+06    -15.9787E+06    -9.17997E+06    -42.4192E-03     83.6732E-03    -41.2540E-03     22.1765E-03    -42.3523E-03     83.0899E-03    -41.1044E-03     22.0015E-03
            2396     4.32019E-03     4.16732E-03    -28.6567E+06    -132.266E+06    -19.3872E+06    -7.63742E+06    -41.9466E-03     82.9758E-03    -41.0292E-03     18.7836E-03    -41.8745E-03     82.3878E-03    -40.8928E-03     18.6427E-03
            2397     3.45641E-03     4.16526E-03    -30.2004E+06    -134.172E+06    -22.6274E+06    -5.61168E+06    -41.4953E-03     82.3163E-03    -40.8211E-03     15.3670E-03    -41.4217E-03     81.7239E-03    -40.6959E-03     15.2647E-03
            2398     2.59327E-03     4.16407E-03    -32.0889E+06    -137.482E+06    -27.4508E+06    -3.57649E+06    -41.0492E-03     81.6818E-03    -40.6325E-03     11.7605E-03    -40.9723E-03     81.0814E-03    -40.5239E-03     11.6940E-03
            2399     1.72843E-03     4.16276E-03    -33.7631E+06    -140.216E+06    -31.5952E+06    -2.18207E+06    -40.6929E-03     81.1750E-03    -40.4821E-03     7.98059E-03    -40.6137E-03     80.5687E-03    -40.3878E-03     7.93968E-03
            2400     865.163E-06     4.16234E-03    -35.1005E+06    -142.129E+06    -34.5808E+06    -972.737E+03    -40.4606E-03     80.8198E-03    -40.3592E-03     4.38295E-03    -40.3805E-03     80.2099E-03    -40.2751E-03     4.36393E-03
            2401     16.1618E-03     3.53134E-03    -6.43096E+06     112.388E+06     81.9517E+06     11.2176E+06    -155.791E-03     211.624E-03    -55.8333E-03     219.568E-03    -162.175E-03     218.151E-03    -55.5771E-03     211.667E-03
            2402     15.3980E-03     3.31638E-03    -9.00838E+06     83.3510E+06     75.3617E+06     13.3296E+06    -121.956E-03     173.730E-03    -51.7743E-03     154.806E-03    -125.664E-03     177.501E-03    -51.5053E-03     149.430E-03
            2403     14.5826E-03     3.23506E-03    -10.9512E+06     52.6828E+06     67.6290E+06     13.7667E+06    -77.9097E-03     127.112E-03    -49.2027E-03     79.3864E-03    -78.7872E-03     127.950E-03    -48.9250E-03     78.0577E-03
            2404     13.7346E-03     3.21648E-03    -13.3464E+06     38.9720E+06     62.9095E+06     11.9565E+06    -62.4289E-03     110.352E-03    -47.9230E-03     68.7878E-03    -62.9454E-03     110.779E-03    -47.6456E-03     68.1506E-03
            2405     12.8874E-03     3.18042E-03    -16.6047E+06     27.6658E+06     52.5521E+06     9.56042E+06    -56.9494E-03     104.043E-03    -47.0941E-03     61.7328E-03    -57.3400E-03     104.322E-03    -46.8474E-03     61.2926E-03
            2406     12.0324E-03     3.17369E-03    -18.5344E+06     17.8935E+06     38.2936E+06     4.98799E+06    -51.7105E-03     98.2030E-03    -46.4925E-03     52.4630E-03    -51.9908E-03     98.3700E-03    -46.3001E-03     52.1559E-03
            2407     11.1759E-03     3.16136E-03    -19.6629E+06     2.55666E+06     28.8088E+06    -225.662E+03    -49.5485E-03     95.6589E-03    -46.1103E-03     47.9494E-03    -49.7624E-03     95.7278E-03    -45.9415E-03     47.6718E-03
            2408     10.3188E-03     3.15630E-03    -21.3083E+06    -33.9587E+06     23.5491E+06    -3.61256E+06    -48.2473E-03     94.1138E-03    -45.8665E-03     43.1184E-03    -48.3850E-03     93.9863E-03    -45.6686E-03     42.8644E-03
            2409     9.45976E-03     3.15022E-03    -22.9610E+06    -75.4215E+06     18.3499E+06    -8.58508E+06    -47.5110E-03     93.1894E-03    -45.6784E-03     39.0390E-03    -47.5748E-03     92.8498E-03    -45.4440E-03     38.7676E-03
            2410     8.60217E-03     3.14646E-03    -23.6116E+06    -102.056E+06     11.5643E+06    -13.5932E+06    -47.1139E-03     92.5923E-03    -45.4784E-03     35.1593E-03    -47.1229E-03     92.1208E-03    -45.2383E-03     34.8572E-03
            2411     7.74223E-03     3.14234E-03    -23.3330E+06    -117.682E+06     1.91754E+06    -15.6230E+06    -46.6852E-03     91.9399E-03    -45.2547E-03     31.5270E-03    -46.6494E-03     91.3972E-03    -45.0407E-03     31.2254E-03
            2412     6.88442E-03     3.13995E-03    -23.5024E+06    -126.499E+06    -7.68941E+06    -14.5010E+06    -46.2874E-03     91.3189E-03    -45.0315E-03     27.9939E-03    -46.2211E-03     90.7415E-03    -44.8524E-03     27.7280E-03
            2413     6.02364E-03     3.13711E-03    -24.3633E+06    -131.523E+06    -15.0857E+06    -11.8769E+06    -45.8862E-03     90.7106E-03    -44.8245E-03     24.5022E-03    -45.8028E-03     90.1168E-03    -44.6738E-03     24.2871E-03
            2414     5.16486E-03     3.13550E-03    -25.5961E+06    -134.548E+06    -19.5794E+06    -9.45747E+06    -45.5184E-03     90.1576E-03    -44.6392E-03     21.0287E-03    -45.4280E-03     89.5546E-03    -44.5049E-03     20.8583E-03
            2415     4.30416E-03     3.13391E-03    -27.3621E+06    -136.488E+06    -22.4152E+06    -7.33225E+06    -45.1489E-03     89.6210E-03    -44.4721E-03     17.6570E-03    -45.0587E-03     89.0132E-03    -44.3466E-03     17.5259E-03
            2416     3.44427E-03     3.13282E-03    -29.2715E+06    -138.596E+06    -25.3456E+06    -5.12993E+06    -44.8006E-03     89.1204E-03    -44.3198E-03     14.2743E-03    -44.7115E-03     88.5079E-03    -44.2031E-03     14.1814E-03
            2417     2.58300E-03     3.13190E-03    -30.9698E+06    -141.016E+06    -28.5557E+06    -3.01768E+06    -44.4682E-03     88.6579E-03    -44.1897E-03     10.8494E-03    -44.3786E-03     88.0396E-03    -44.0831E-03     10.7919E-03
            2418     1.72287E-03     3.13138E-03    -32.1878E+06    -142.867E+06    -30.9811E+06    -1.48368E+06    -44.1987E-03     88.2993E-03    -44.1006E-03     7.41477E-03    -44.1085E-03     87.6765E-03    -44.0017E-03     7.38403E-03
            2419     860.543E-06     3.13108E-03    -32.9824E+06    -143.933E+06    -32.6052E+06    -537.797E+03    -44.0766E-03     88.1260E-03    -44.0495E-03     4.06747E-03    -43.9860E-03     87.5012E-03    -43.9560E-03     4.05462E-03
            2420     16.1802E-03     2.35091E-03    -7.15731E+06     105.011E+06     83.9420E+06     8.80682E+06    -161.508E-03     218.849E-03    -57.3415E-03     200.775E-03    -166.155E-03     223.622E-03    -57.0637E-03     193.147E-03
            2421     15.3830E-03     2.18988E-03    -704.514E+03     79.2038E+06     81.9680E+06     9.57349E+06    -102.328E-03     155.964E-03    -53.6360E-03     123.461E-03    -104.260E-03     157.958E-03    -53.3400E-03     120.255E-03
            2422     14.5408E-03     2.19312E-03    -2.80465E+06     54.4154E+06     74.4694E+06     12.1383E+06    -69.1538E-03     120.994E-03    -51.8397E-03     88.6524E-03    -69.7248E-03     121.533E-03    -51.5422E-03     87.8850E-03
            2423     13.6897E-03     2.14369E-03    -7.55086E+06     42.1970E+06     68.6811E+06     9.87129E+06    -63.2292E-03     114.156E-03    -50.9265E-03     79.1746E-03    -63.6347E-03     114.483E-03    -50.6334E-03     78.7165E-03
            2424     12.8437E-03     2.13421E-03    -9.42542E+06     33.0578E+06     57.3005E+06     5.74025E+06    -58.4082E-03     108.606E-03    -50.1983E-03     60.6618E-03    -58.6968E-03     108.812E-03    -49.9461E-03     60.3403E-03
            2425     11.9902E-03     2.12223E-03    -10.0788E+06     23.5590E+06     36.4172E+06     1.66285E+06    -54.8747E-03     104.482E-03    -49.6069E-03     51.2272E-03    -55.0747E-03     104.622E-03    -49.4444E-03     50.9821E-03
            2426     11.1386E-03     2.11569E-03    -12.9225E+06     4.47997E+06     13.7749E+06    -661.626E+03    -53.2248E-03     102.371E-03    -49.1462E-03     43.9338E-03    -53.3559E-03     102.431E-03    -49.0651E-03     43.7274E-03
            2427     10.2837E-03     2.11076E-03    -15.0490E+06    -29.9938E+06     200.431E+03    -4.49856E+06    -51.9758E-03     100.792E-03    -48.8160E-03     38.1128E-03    -52.0337E-03     100.688E-03    -48.7497E-03     37.9063E-03
            2428     9.43001E-03     2.10622E-03    -15.4771E+06    -69.9789E+06    -6.85183E+06    -10.7607E+06    -51.1880E-03     99.7555E-03    -48.5674E-03     33.4137E-03    -51.1716E-03     99.4547E-03    -48.4778E-03     33.1589E-03
            2429     8.57388E-03     2.10287E-03    -15.9034E+06    -100.609E+06    -12.2698E+06    -15.4343E+06    -50.4442E-03     98.7890E-03    -48.3448E-03     29.2900E-03    -50.3721E-03     98.3381E-03    -48.2372E-03     29.0001E-03
            2430     7.71907E-03     2.10016E-03    -17.3619E+06    -120.885E+06    -15.7551E+06    -16.0800E+06    -49.8333E-03     97.9804E-03    -48.1471E-03     25.7185E-03    -49.7304E-03     97.4317E-03    -48.0254E-03     25.4389E-03
            2431     6.86138E-03     2.09782E-03    -19.9099E+06    -132.409E+06    -19.9646E+06    -13.8696E+06    -49.2937E-03     97.2521E-03    -47.9584E-03     22.4178E-03    -49.1782E-03     96.6532E-03    -47.8374E-03     22.1813E-03
            2432     6.00598E-03     2.09623E-03    -22.1654E+06    -137.147E+06    -23.7717E+06    -10.6421E+06    -48.8036E-03     96.5884E-03    -47.7848E-03     19.4229E-03    -48.6852E-03     95.9728E-03    -47.6727E-03     19.2398E-03
            2433     5.14771E-03     2.09480E-03    -24.2153E+06    -139.162E+06    -24.8170E+06    -7.66781E+06    -48.3842E-03     96.0279E-03    -47.6437E-03     16.5405E-03    -48.2704E-03     95.4055E-03    -47.5309E-03     16.4055E-03
            2434     4.29090E-03     2.09395E-03    -26.3548E+06    -140.564E+06    -25.7733E+06    -5.35791E+06    -48.0474E-03     95.5698E-03    -47.5224E-03     13.8080E-03    -47.9400E-03     94.9439E-03    -47.4092E-03     13.7108E-03
            2435     3.43260E-03     2.09325E-03    -28.4338E+06    -142.375E+06    -27.7220E+06    -3.48713E+06    -47.7369E-03     95.1555E-03    -47.4186E-03     11.1337E-03    -47.6338E-03     94.5257E-03    -47.3095E-03     11.0679E-03
            2436     2.57517E-03     2.09285E-03    -29.8254E+06    -143.806E+06    -29.4274E+06    -2.03797E+06    -47.4964E-03     94.8387E-03    -47.3423E-03     8.43076E-03    -47.3952E-03     94.2058E-03    -47.2376E-03     8.38964E-03
            2437     1.71605E-03     2.09266E-03    -30.6841E+06    -144.749E+06    -30.3433E+06    -1.10193E+06    -47.3475E-03     94.6443E-03    -47.2968E-03     5.73997E-03    -47.2477E-03     94.0089E-03    -47.1941E-03     5.71617E-03
            2438     858.936E-06     2.09230E-03    -31.1859E+06    -145.328E+06    -31.0309E+06    -541.014E+03    -47.2759E-03     94.5564E-03    -47.2805E-03     3.14606E-03    -47.1764E-03     93.9199E-03    -47.1797E-03     3.13417E-03
            2439     16.1206E-03     1.13736E-03     2.30599E+06     98.3529E+06     91.6513E+06     5.25593E+06    -157.039E-03     218.050E-03    -61.0113E-03     180.295E-03    -159.857E-03     220.999E-03    -60.6990E-03     174.672E-03
            2440     15.3129E-03     1.14252E-03     968.372E+03     72.3234E+06     83.3252E+06     9.24776E+06    -101.795E-03     159.240E-03    -57.4446E-03     115.374E-03    -102.678E-03     160.142E-03    -57.1342E-03     114.031E-03
            2441     14.4676E-03     1.10147E-03    -801.492E+03     56.7014E+06     78.7611E+06     9.69464E+06    -82.0870E-03     137.513E-03    -55.4257E-03     81.2824E-03    -82.4439E-03     137.833E-03    -55.1130E-03     80.9080E-03
            2442     13.6445E-03     1.08042E-03    -1.13721E+06     47.6541E+06     73.0734E+06     5.01360E+06    -72.2012E-03     126.248E-03    -54.0464E-03     56.9306E-03    -72.4642E-03     126.462E-03    -53.7485E-03     56.6578E-03
            2443     12.7986E-03     1.07077E-03    -1.96451E+06     37.3323E+06     54.0350E+06     1.34028E+06    -64.2384E-03     117.240E-03    -53.0017E-03     40.1755E-03    -64.4176E-03     117.387E-03    -52.7828E-03     39.9890E-03
            2444     11.9569E-03     1.06478E-03    -2.88536E+06     24.5435E+06     26.9308E+06     614.164E+03    -60.5212E-03     112.710E-03    -52.1885E-03     32.4406E-03    -60.6326E-03     112.819E-03    -52.0853E-03     32.3021E-03
            2445     11.1074E-03     1.06125E-03    -3.68090E+06     5.66053E+06    -530.126E+03     245.265E+03    -57.7885E-03     109.316E-03    -51.5272E-03     26.5994E-03    -57.8276E-03     109.363E-03    -51.5328E-03     26.4988E-03
            2446     10.2588E-03     1.05747E-03    -4.64718E+06    -24.6905E+06    -23.2715E+06    -3.20390E+06    -56.0027E-03     107.011E-03    -51.0083E-03     22.5263E-03    -55.9651E-03     106.936E-03    -51.0821E-03     22.4050E-03
            2447     9.40692E-03     1.05547E-03    -6.13680E+06    -64.9733E+06    -35.9513E+06    -8.12827E+06    -54.5438E-03     105.172E-03    -50.6279E-03     19.3040E-03    -54.4339E-03     104.913E-03    -50.7046E-03     19.1383E-03
            2448     8.55518E-03     1.05327E-03    -9.10864E+06    -100.890E+06    -39.7903E+06    -10.7576E+06    -53.3574E-03     103.708E-03    -50.3509E-03     16.7108E-03    -53.2030E-03     103.278E-03    -50.3903E-03     16.5236E-03
            2449     7.70077E-03     1.05177E-03    -13.5839E+06    -124.816E+06    -37.9295E+06    -10.2136E+06    -52.3797E-03     102.521E-03    -50.1412E-03     14.4274E-03    -52.2144E-03     101.974E-03    -50.1302E-03     14.2572E-03
            2450     6.84784E-03     1.05051E-03    -17.8713E+06    -137.309E+06    -35.0668E+06    -8.49716E+06    -51.5568E-03     101.525E-03    -49.9682E-03     12.4869E-03    -51.3982E-03     100.917E-03    -49.9185E-03     12.3465E-03
            2451     5.99157E-03     1.04959E-03    -21.3406E+06    -142.079E+06    -32.8195E+06    -6.48417E+06    -50.9058E-03     100.729E-03    -49.8237E-03     10.7350E-03    -50.7603E-03     100.099E-03    -49.7508E-03     10.6266E-03
            2452     5.13727E-03     1.04893E-03    -24.1085E+06    -143.112E+06    -30.0192E+06    -4.37907E+06    -50.3966E-03     100.111E-03    -49.7144E-03     9.15492E-03    -50.2670E-03     99.4747E-03    -49.6221E-03     9.07883E-03
            2453     4.28079E-03     1.04844E-03    -26.3134E+06    -143.769E+06    -28.3605E+06    -2.57631E+06    -50.0308E-03     99.6627E-03    -49.6319E-03     7.60943E-03    -49.9134E-03     99.0236E-03    -49.5271E-03     7.56093E-03
            2454     3.42532E-03     1.04822E-03    -27.8403E+06    -144.545E+06    -28.4539E+06    -1.42628E+06    -49.7855E-03     99.3524E-03    -49.5669E-03     6.09791E-03    -49.6744E-03     98.7116E-03    -49.4592E-03     6.06775E-03
            2455     2.56848E-03     1.04808E-03    -28.8935E+06    -145.282E+06    -29.1005E+06    -955.776E+03    -49.6369E-03     99.1546E-03    -49.5178E-03     4.60050E-03    -49.5288E-03     98.5124E-03    -49.4107E-03     4.57964E-03
            2456     1.71319E-03     1.04789E-03    -29.6510E+06    -145.887E+06    -29.5331E+06    -620.278E+03    -49.5461E-03     99.0257E-03    -49.4796E-03     3.11816E-03    -49.4402E-03     98.3820E-03    -49.3727E-03     3.10456E-03
            2457     855.727E-06     1.04786E-03    -30.0123E+06    -146.357E+06    -30.1570E+06    -371.521E+03    -49.5160E-03     98.9206E-03    -49.4045E-03     1.72501E-03    -49.4102E-03     98.2761E-03    -49.2996E-03     1.71728E-03


