********************************************************************************
Field Output Report, written Mon Aug 12 21:24:22 2024

Source 1
---------

   ODB: G:/Abaqus_calc_2019/1740/Vel_40/odb/zeides_2a_24_red_250_cal_75_vel_40_fric_025.odb
   Step: Step-1
   Frame: Increment   1772457: Step Time =   0.2281

Loc 1 : Nodal values from source 1

Output sorted by column "Nodal Label".

Field Output reported at nodes for region: DIE_2A_24_D0_36-1.Region_1
   Computation algorithm: EXTRAPOLATE_COMPUTE_AVERAGE
   Averaged at nodes
   Averaging regions: ODB_REGIONS

      Node Label     COORD.COOR1     COORD.COOR2
                          @Loc 1          @Loc 1
-------------------------------------------------
               1     21.1989E-03     111.135E-03


Field Output reported at nodes for region: DIE_2A_24_D0_36-1.Region_2
   Computation algorithm: EXTRAPOLATE_COMPUTE_AVERAGE
   Averaged at nodes
   Averaging regions: ODB_REGIONS

      Node Label     COORD.COOR1     COORD.COOR2
                          @Loc 1          @Loc 1
-------------------------------------------------
               1     21.1989E-03     111.135E-03


Field Output reported at nodes for part: WIRE-1
   Computation algorithm: EXTRAPOLATE_COMPUTE_AVERAGE
   Averaged at nodes
   Averaging regions: ODB_REGIONS

      Node Label     COORD.COOR1     COORD.COOR2           S.S11           S.S22           S.S33           S.S12         PE.PE11         PE.PE22         PE.PE33         PE.PE12         LE.LE11         LE.LE22         LE.LE33         LE.LE12
                          @Loc 1          @Loc 1          @Loc 1          @Loc 1          @Loc 1          @Loc 1          @Loc 1          @Loc 1          @Loc 1          @Loc 1          @Loc 1          @Loc 1          @Loc 1          @Loc 1
-------------------------------------------------------------------------------------------------------------------------------------------------------------------------------------------------------------------------------------------------
               1    -104.035E-09     57.4803E-03    -22.9231E+06    -112.262E+06    -23.1634E+06    -49.3245E+03    -26.7193E-03     53.4062E-03    -26.6869E-03     3.38216E-03    -26.6376E-03     52.9118E-03    -26.6067E-03     3.37987E-03
               2     17.5341E-03     58.6319E-03    -1.63718E+06     155.895E+06     105.058E+06    -114.951E+03    -22.7269E-03     49.4647E-03    -26.7378E-03     87.1039E-03    -24.4826E-03     51.4649E-03    -26.4362E-03     89.0716E-03
               3     17.2564E-03     116.891E-03    -861.086E+03    -10.9622E+06    -4.75276E+06     8.80413E+06     18.7039E-03     17.9826E-03    -36.6865E-03     1.76603E-03     18.7123E-03     17.9259E-03    -36.6931E-03     1.87960E-03
               4    -1.44121E-06     115.212E-03     30.8965E+06     149.564E+03     29.6205E+06    -1.23276E+06    -28.6690E-03     58.1817E-03    -29.5128E-03    -889.399E-06    -28.5590E-03     58.0933E-03    -29.4097E-03    -906.118E-06
               5     89.5209E-09     104.083E-18    -10.4634E+06    -91.9975E+06    -10.2743E+06     12.1847E+03    -20.1265E-03     40.1266E-03    -20.0001E-03     36.2302E-06    -20.0305E-03     39.6968E-03    -19.9029E-03     36.3535E-06
               6     17.4142E-03     104.083E-18     22.4984E+06     101.972E+06     97.1036E+06    -279.794E+03    -54.0641E-03     85.6023E-03    -31.5382E-03     72.4563E-03    -54.4037E-03     86.1156E-03    -31.2331E-03     72.0675E-03
               7     876.456E-06     57.4836E-03    -22.7551E+06    -112.532E+06    -22.3401E+06     37.8818E+03    -26.7181E-03     53.4159E-03    -26.6978E-03     5.66807E-03    -26.6364E-03     52.9188E-03    -26.6134E-03     5.66579E-03
               8     1.75262E-03     57.4911E-03    -22.2213E+06    -112.513E+06    -20.6613E+06     154.277E+03    -26.7261E-03     53.4369E-03    -26.7108E-03     10.4586E-03    -26.6445E-03     52.9369E-03    -26.6188E-03     10.4553E-03
               9     2.62917E-03     57.5035E-03    -21.4192E+06    -111.328E+06    -18.2548E+06     253.903E+03    -26.7472E-03     53.4638E-03    -26.7166E-03     15.5244E-03    -26.6674E-03     52.9656E-03    -26.6154E-03     15.5195E-03
              10     3.50538E-03     57.5206E-03    -20.3004E+06    -109.087E+06    -15.1619E+06     351.314E+03    -26.7765E-03     53.4984E-03    -26.7219E-03     20.6701E-03    -26.6996E-03     53.0061E-03    -26.6101E-03     20.6631E-03
              11     4.38193E-03     57.5428E-03    -18.8797E+06    -106.377E+06    -11.2552E+06     484.324E+03    -26.8244E-03     53.5536E-03    -26.7292E-03     25.8530E-03    -26.7512E-03     53.0684E-03    -26.6039E-03     25.8436E-03
              12     5.25820E-03     57.5698E-03    -17.4890E+06    -104.253E+06    -6.97917E+06     486.554E+03    -26.8795E-03     53.6184E-03    -26.7389E-03     31.0544E-03    -26.8106E-03     53.1375E-03    -26.5973E-03     31.0399E-03
              13     6.13473E-03     57.6019E-03    -15.8478E+06    -102.079E+06    -2.68458E+06     471.628E+03    -26.9206E-03     53.6662E-03    -26.7455E-03     36.2588E-03    -26.8556E-03     53.1902E-03    -26.5880E-03     36.2378E-03
              14     7.01115E-03     57.6387E-03    -14.0056E+06    -99.6997E+06     1.50425E+06     491.886E+03    -27.0248E-03     53.7751E-03    -26.7504E-03     41.4134E-03    -26.9639E-03     53.3063E-03    -26.5780E-03     41.3847E-03
              15     7.88766E-03     57.6806E-03    -12.2391E+06    -96.3235E+06     3.83288E+06     601.069E+03    -27.1253E-03     53.8716E-03    -26.7463E-03     46.5197E-03    -27.0695E-03     53.4193E-03    -26.5697E-03     46.4825E-03
              16     8.76405E-03     57.7271E-03    -10.7046E+06    -91.2651E+06     4.66520E+06     705.506E+03    -27.2046E-03     53.9363E-03    -26.7317E-03     51.5473E-03    -27.1576E-03     53.5138E-03    -26.5605E-03     51.4992E-03
              17     9.64054E-03     57.7787E-03    -9.39578E+06    -86.2149E+06     4.24021E+06     656.166E+03    -27.3560E-03     54.0679E-03    -26.7119E-03     56.4451E-03    -27.3208E-03     53.6810E-03    -26.5520E-03     56.3810E-03
              18     10.5173E-03     57.8340E-03    -8.28552E+06    -79.4068E+06     1.69323E+06     593.552E+03    -27.4040E-03     54.0823E-03    -26.6783E-03     61.2582E-03    -27.3859E-03     53.7480E-03    -26.5427E-03     61.1753E-03
              19     11.3933E-03     57.8951E-03    -7.29448E+06    -66.2266E+06     1.77136E+06     655.336E+03    -27.4242E-03     54.0661E-03    -26.6419E-03     67.0153E-03    -27.4459E-03     53.8217E-03    -26.5264E-03     66.9114E-03
              20     12.2710E-03     57.9614E-03    -7.16765E+06    -53.6346E+06     4.50007E+03     655.940E+03    -27.6958E-03     54.2934E-03    -26.5976E-03     74.2870E-03    -27.7750E-03     54.1568E-03    -26.5094E-03     74.1551E-03
              21     13.1462E-03     58.0362E-03    -6.98432E+06    -39.3345E+06    -5.86514E+06     765.902E+03    -27.8954E-03     54.4331E-03    -26.5377E-03     78.8078E-03    -28.0490E-03     54.4393E-03    -26.4999E-03     78.6458E-03
              22     14.0242E-03     58.1118E-03    -6.66876E+06    -7.03139E+06    -9.66097E+06     647.652E+03    -28.2031E-03     54.6687E-03    -26.4656E-03     89.3904E-03    -28.5250E-03     54.9700E-03    -26.4940E-03     89.2007E-03
              23     14.8992E-03     58.2055E-03    -7.99203E+06     49.5278E+06    -17.7650E+06     302.824E+03    -29.8697E-03     56.2133E-03    -26.3436E-03     124.041E-03    -30.7726E-03     57.3152E-03    -26.4927E-03     123.861E-03
              24     15.7769E-03     58.3486E-03    -9.04899E+06     113.360E+06     3.43289E+06     420.885E+03    -32.8096E-03     59.1835E-03    -26.3739E-03     179.654E-03    -35.8773E-03     62.6109E-03    -26.5080E-03     180.125E-03
              25     16.6408E-03     58.5496E-03    -5.36447E+06     149.174E+06     68.1046E+06     196.392E+03    -28.5662E-03     55.1771E-03    -26.6109E-03     148.843E-03    -31.8312E-03     58.7552E-03    -26.4789E-03     150.376E-03
              26     17.5302E-03     59.6257E-03    -2.31861E+06     155.126E+06     105.103E+06    -854.249E+03    -25.6253E-03     52.2870E-03    -26.6617E-03     82.2293E-03    -27.3118E-03     54.2126E-03    -26.3578E-03     84.0376E-03
              27     17.5340E-03     60.6330E-03    -3.41614E+06     154.361E+06     104.034E+06    -126.613E+03    -26.7708E-03     53.3990E-03    -26.6282E-03     82.7762E-03    -28.4714E-03     55.3348E-03    -26.3269E-03     84.5496E-03
              28     17.5305E-03     61.6282E-03    -3.22349E+06     155.035E+06     104.460E+06     365.045E+03    -25.9730E-03     52.6285E-03    -26.6555E-03     83.3122E-03    -27.6822E-03     54.5747E-03    -26.3533E-03     85.1296E-03
              29     17.5333E-03     62.6320E-03    -2.54945E+06     155.873E+06     104.848E+06     164.559E+03    -25.0227E-03     51.7003E-03    -26.6776E-03     82.9798E-03    -26.7245E-03     53.6434E-03    -26.3757E-03     84.8191E-03
              30     17.5313E-03     63.6236E-03    -3.13142E+06     155.604E+06     104.562E+06     219.636E+03    -25.7499E-03     52.4151E-03    -26.6652E-03     83.7105E-03    -27.4597E-03     54.3639E-03    -26.3635E-03     85.5377E-03
              31     17.5321E-03     64.6328E-03    -1.93307E+06     156.873E+06     105.252E+06     247.215E+03    -24.8301E-03     51.5189E-03    -26.6888E-03     79.8511E-03    -26.4867E-03     53.4210E-03    -26.3872E-03     81.6620E-03
              32     17.5323E-03     65.6147E-03    -3.94866E+06     155.231E+06     103.543E+06    -1.79406E+06    -26.3340E-03     52.9746E-03    -26.6406E-03     77.7010E-03    -27.9646E-03     54.8425E-03    -26.3423E-03     79.4317E-03
              33     17.5315E-03     66.6267E-03    -3.01862E+06     156.256E+06     104.678E+06    -190.780E+03    -28.1387E-03     54.7381E-03    -26.5995E-03     76.3471E-03    -29.7491E-03     56.5892E-03    -26.2983E-03     78.0146E-03
              34     17.5326E-03     67.6311E-03    -2.73615E+06     157.516E+06     105.000E+06     445.607E+03    -25.5127E-03     52.1843E-03    -26.6716E-03     83.5091E-03    -27.2252E-03     54.1419E-03    -26.3710E-03     85.3430E-03
              35     17.5311E-03     68.6248E-03    -1.89200E+06     158.586E+06     105.549E+06    -215.457E+03    -24.5791E-03     51.2675E-03    -26.6885E-03     82.5495E-03    -26.2750E-03     53.2137E-03    -26.3879E-03     84.3966E-03
              36     17.5335E-03     69.6223E-03    -3.15939E+06     157.711E+06     104.574E+06    -183.257E+03    -26.5995E-03     53.2356E-03    -26.6361E-03     84.1836E-03    -28.3200E-03     55.2017E-03    -26.3373E-03     85.9794E-03
              37     17.5303E-03     70.6327E-03    -2.12279E+06     159.111E+06     105.310E+06     1.87790E+06    -25.7117E-03     52.3846E-03    -26.6729E-03     86.5546E-03    -27.4675E-03     54.3929E-03    -26.3740E-03     88.4173E-03
              38     17.5335E-03     71.6246E-03    -2.10114E+06     159.593E+06     104.994E+06     321.561E+03    -23.2729E-03     50.0002E-03    -26.7272E-03     85.6919E-03    -25.0146E-03     51.9976E-03    -26.4306E-03     87.6205E-03
              39     17.5307E-03     72.6144E-03    -2.83336E+06     158.967E+06     104.848E+06    -1.46023E+06    -26.0655E-03     52.7145E-03    -26.6490E-03     80.5265E-03    -27.7338E-03     54.6338E-03    -26.3512E-03     82.2925E-03
              40     17.5334E-03     73.6236E-03    -3.68786E+06     158.524E+06     103.922E+06     327.375E+03    -28.2539E-03     54.8500E-03    -26.5961E-03     81.8038E-03    -29.9455E-03     56.7902E-03    -26.3010E-03     83.5193E-03
              41     17.5304E-03     74.6269E-03    -2.83889E+06     160.250E+06     104.519E+06     1.13973E+06    -25.8692E-03     52.5358E-03    -26.6666E-03     84.2505E-03    -27.6008E-03     54.5236E-03    -26.3723E-03     86.0842E-03
              42     17.5331E-03     75.6206E-03    -1.79113E+06     162.129E+06     105.450E+06     442.038E+03    -24.4510E-03     51.1478E-03    -26.6969E-03     83.6100E-03    -26.1663E-03     53.1275E-03    -26.4021E-03     85.4824E-03
              43     17.5311E-03     76.6178E-03    -2.65676E+06     161.877E+06     104.794E+06    -256.363E+03    -25.8296E-03     52.4876E-03    -26.6580E-03     82.1152E-03    -27.5237E-03     54.4440E-03    -26.3649E-03     83.9145E-03
              44     17.5324E-03     77.6236E-03    -3.58758E+06     161.816E+06     103.919E+06    -278.937E+03    -25.9267E-03     52.5814E-03    -26.6547E-03     82.3485E-03    -27.6338E-03     54.5497E-03    -26.3646E-03     84.1455E-03
              45     17.5317E-03     78.6148E-03    -3.70532E+06     162.484E+06     104.277E+06     339.968E+03    -26.8153E-03     53.4609E-03    -26.6456E-03     81.6319E-03    -28.5084E-03     55.4159E-03    -26.3545E-03     83.4091E-03
              46     17.5310E-03     79.6234E-03    -606.586E+03     165.472E+06     106.100E+06     794.414E+03    -25.2549E-03     51.9322E-03    -26.6774E-03     76.0357E-03    -26.8609E-03     53.8163E-03    -26.3859E-03     77.8002E-03
              47     17.5334E-03     80.6081E-03    -2.84375E+06     164.780E+06     104.433E+06    -1.15266E+06    -26.5389E-03     53.1672E-03    -26.6283E-03     81.1155E-03    -28.2217E-03     55.1227E-03    -26.3409E-03     82.8751E-03
              48     17.5303E-03     81.6286E-03    -2.49709E+06     165.740E+06     105.229E+06     755.548E+03    -27.5616E-03     54.1858E-03    -26.6242E-03     84.7625E-03    -29.3032E-03     56.2030E-03    -26.3347E-03     86.5317E-03
              49     17.5328E-03     82.6254E-03    -2.95352E+06     165.698E+06     104.056E+06     592.956E+03    -22.9315E-03     49.6698E-03    -26.7383E-03     86.5439E-03    -24.7010E-03     51.7169E-03    -26.4540E-03     88.4961E-03
              50     17.5310E-03     83.6044E-03    -3.25042E+06     165.057E+06     103.631E+06    -1.88710E+06    -25.4271E-03     52.0787E-03    -26.6515E-03     78.2810E-03    -27.0749E-03     54.0013E-03    -26.3680E-03     80.0487E-03
              51     17.5333E-03     84.6161E-03    -3.52864E+06     164.923E+06     103.623E+06     15.0862E+03    -29.9150E-03     56.4591E-03    -26.5441E-03     79.3013E-03    -31.5769E-03     58.3937E-03    -26.2600E-03     80.9268E-03
              52     17.5301E-03     85.6306E-03    -1.82242E+06     167.055E+06     104.110E+06     2.56595E+06    -25.7442E-03     52.4065E-03    -26.6623E-03     86.9623E-03    -27.5146E-03     54.4625E-03    -26.3813E-03     88.8237E-03
              53     17.5336E-03     86.6163E-03    -1.32776E+06     167.780E+06     104.030E+06    -175.795E+03    -22.1443E-03     48.8770E-03    -26.7327E-03     85.5912E-03    -23.8881E-03     50.9117E-03    -26.4539E-03     87.5495E-03
              54     17.5310E-03     87.6062E-03    -2.67086E+06     165.928E+06     103.195E+06    -1.76140E+06    -26.1605E-03     52.7674E-03    -26.6070E-03     79.2571E-03    -27.8137E-03     54.7022E-03    -26.3277E-03     80.9988E-03
              55     17.5339E-03     88.6182E-03    -3.77636E+06     165.001E+06     102.081E+06     468.541E+03    -28.6265E-03     55.1653E-03    -26.5388E-03     81.1765E-03    -30.3166E-03     57.1322E-03    -26.2622E-03     82.8671E-03
              56     17.5310E-03     89.6199E-03    -2.36400E+06     166.335E+06     102.420E+06     776.583E+03    -25.8800E-03     52.4816E-03    -26.6016E-03     84.1317E-03    -27.6114E-03     54.4987E-03    -26.3273E-03     85.9478E-03
              57     17.5345E-03     90.6147E-03    -2.71449E+06     166.010E+06     101.888E+06    -664.505E+03    -24.6256E-03     51.2302E-03    -26.6046E-03     83.2841E-03    -26.3386E-03     53.2285E-03    -26.3319E-03     85.1289E-03
              58     17.5322E-03     91.6108E-03    -2.41870E+06     165.327E+06     101.283E+06    -246.146E+03    -26.3046E-03     52.8299E-03    -26.5253E-03     81.1425E-03    -27.9813E-03     54.7923E-03    -26.2551E-03     82.9107E-03
              59     17.5354E-03     92.6171E-03    -2.28288E+06     165.623E+06     100.959E+06     403.365E+03    -26.6238E-03     53.1074E-03    -26.4836E-03     81.2660E-03    -28.3096E-03     55.0811E-03    -26.2157E-03     83.0294E-03
              60     17.5334E-03     93.6111E-03    -1.73707E+06     166.556E+06     101.239E+06     786.342E+03    -26.2922E-03     52.7478E-03    -26.4556E-03     81.9273E-03    -27.9865E-03     54.7344E-03    -26.1884E-03     83.7175E-03
              61     17.5367E-03     94.6168E-03    -2.38195E+06     167.739E+06     101.632E+06    -113.436E+03    -25.2418E-03     51.6623E-03    -26.4205E-03     77.9252E-03    -26.8847E-03     53.5981E-03    -26.1521E-03     79.6997E-03
              62     17.5363E-03     95.6017E-03    -3.64859E+06     167.423E+06     101.216E+06    -1.51310E+06    -27.2903E-03     53.5709E-03    -26.2805E-03     74.6355E-03    -28.8948E-03     55.4637E-03    -26.0119E-03     76.3093E-03
              63     17.5397E-03     96.6123E-03    -3.93162E+06     167.676E+06     101.582E+06    -766.710E+03    -31.2274E-03     57.3324E-03    -26.1051E-03     78.3222E-03    -32.8921E-03     59.2843E-03    -25.8346E-03     79.9006E-03
              64     17.5387E-03     97.6304E-03    -2.40002E+06     168.577E+06     102.993E+06     2.00781E+06    -28.3069E-03     54.4341E-03    -26.1272E-03     88.9490E-03    -30.1266E-03     56.5457E-03    -25.8531E-03     90.7653E-03
              65     17.5417E-03     98.6232E-03    -1.42119E+06     168.724E+06     103.028E+06     608.439E+03    -23.6603E-03     49.8045E-03    -26.1442E-03     84.8390E-03    -25.4200E-03     51.8604E-03    -25.8716E-03     86.7740E-03
              66     17.5433E-03     99.5986E-03    -2.15191E+06     163.857E+06     102.520E+06    -3.59729E+06    -29.6660E-03     55.5432E-03    -25.8771E-03     74.6334E-03    -31.2696E-03     57.4251E-03    -25.5990E-03     76.2359E-03
              67     17.5447E-03     100.625E-03    -3.92909E+06     160.213E+06     102.994E+06    -1.54100E+06    -35.7214E-03     61.3790E-03    -25.6576E-03     74.7051E-03    -37.3453E-03     63.2602E-03    -25.3693E-03     76.1118E-03
              68     17.5455E-03     101.637E-03    -2.15070E+06     158.050E+06     102.308E+06    -80.5186E+03    -32.7843E-03     58.4481E-03    -25.6638E-03     81.5589E-03    -34.5137E-03     60.4344E-03    -25.3783E-03     83.1594E-03
              69     17.5474E-03     102.629E-03    -3.19536E+06     155.105E+06     101.141E+06    -2.34719E+06    -33.7159E-03     59.2834E-03    -25.5675E-03     78.6654E-03    -35.4082E-03     61.2217E-03    -25.2821E-03     80.1973E-03
              70     17.5476E-03     103.642E-03    -1.04501E+06     150.665E+06     101.173E+06    -1.92554E+06    -39.0056E-03     64.3805E-03    -25.3749E-03     76.7048E-03    -40.6575E-03     66.2707E-03    -25.0860E-03     78.0162E-03
              71     17.5494E-03     104.660E-03    -3.73358E+06     146.379E+06     99.3164E+06    -1.62646E+06    -41.4171E-03     66.6764E-03    -25.2592E-03     80.7643E-03    -43.1530E-03     68.6309E-03    -24.9695E-03     82.0046E-03
              72     17.5495E-03     105.674E-03     -24.373E+03     141.918E+06     100.125E+06    -1.47764E+06    -43.1354E-03     68.2960E-03    -25.1606E-03     83.7896E-03    -44.9166E-03     70.2905E-03    -24.8657E-03     84.9762E-03
              73     17.5518E-03     106.690E-03    -4.35230E+06     136.135E+06     99.8827E+06    -2.45587E+06    -47.7320E-03     72.7345E-03    -25.0025E-03     85.3120E-03    -49.5784E-03     74.7595E-03    -24.6942E-03     86.2856E-03
              74     17.5510E-03     107.716E-03     788.497E+03     130.164E+06     103.004E+06    -2.64708E+06    -54.1214E-03     78.9379E-03    -24.8165E-03     88.0659E-03    -56.0214E-03     81.0047E-03    -24.4914E-03     88.7730E-03
              75     17.5534E-03     108.747E-03    -7.37433E+06     120.927E+06     101.926E+06    -5.26699E+06    -62.4104E-03     87.0095E-03    -24.5991E-03     98.1550E-03    -64.5206E-03     89.2300E-03    -24.2541E-03     98.5151E-03
              76     17.5522E-03     109.799E-03     1.17303E+06     116.545E+06     107.201E+06     2.33458E+06    -72.8373E-03     97.1805E-03    -24.3432E-03     119.048E-03    -75.2656E-03     99.7217E-03    -23.9779E-03     119.057E-03
              77     17.5553E-03     110.864E-03    -18.8770E+06     108.868E+06     98.1511E+06    -2.98083E+06    -77.9155E-03     102.100E-03    -24.1840E-03     141.365E-03    -80.7921E-03     105.016E-03    -23.8237E-03     140.999E-03
              78     17.5543E-03     111.920E-03     7.56017E+06     103.336E+06     96.7106E+06    -1.62582E+06    -75.6540E-03     99.7923E-03    -24.1383E-03     165.815E-03    -78.7435E-03     102.999E-03    -23.8155E-03     165.384E-03
              79     17.5607E-03     112.973E-03    -7.62758E+06     81.1612E+06     67.9206E+06    -13.7495E+06    -72.4349E-03     96.5269E-03    -24.0920E-03     196.160E-03    -75.7997E-03     99.9617E-03    -23.8590E-03     195.353E-03
              80     17.5558E-03     114.030E-03    -23.5895E+06     33.1419E+06     24.5506E+06    -21.8556E+06    -51.8163E-03     76.2948E-03    -24.4785E-03     209.215E-03    -54.3548E-03     78.8051E-03    -24.3696E-03     208.566E-03
              81     17.5627E-03     115.003E-03     30.1391E+06     6.12390E+06     22.5331E+06    -6.59918E+06    -11.2285E-03     37.7566E-03    -26.5281E-03     169.634E-03    -11.9288E-03     38.5248E-03    -26.4680E-03     169.618E-03
              82     17.4744E-03     115.940E-03    -4.05735E+06    -5.28019E+06     3.46770E+06    -3.43928E+06     14.3882E-03     18.0361E-03    -32.4243E-03     67.0629E-03     14.3076E-03     18.0627E-03    -32.3934E-03     67.0482E-03
              83     16.3708E-03     116.683E-03    -1.21671E+06     13.4194E+06     32.7217E+06    -780.621E+03     15.0067E-03     22.6270E-03    -37.6337E-03     12.4798E-03     14.9271E-03     22.6422E-03    -37.4878E-03     12.4695E-03
              84     15.4811E-03     116.488E-03    -5.31192E+06    -6.07787E+06     58.0049E+06    -370.504E+03    -6.29625E-03     45.1596E-03    -38.8633E-03     20.0142E-03    -6.40330E-03     45.0527E-03    -38.5568E-03     19.9941E-03
              85     14.6206E-03     116.284E-03    -7.25665E+06     4.28628E+06     57.5310E+06    -7.54334E+06    -27.3532E-03     66.1790E-03    -38.8257E-03     7.61267E-03    -27.4968E-03     66.1161E-03    -38.5338E-03     7.48077E-03
              86     13.7882E-03     116.097E-03     1.88739E+06    -2.90954E+06     59.4629E+06    -13.2898E+06    -31.5499E-03     69.7851E-03    -38.2352E-03    -4.21586E-03    -31.6408E-03     69.6649E-03    -37.9364E-03    -4.42295E-03
              87     12.9344E-03     115.959E-03     12.8558E+06    -9.36258E+06     64.9097E+06    -3.59731E+06    -36.0291E-03     73.6417E-03    -37.6125E-03    -9.89004E-03    -36.0545E-03     73.4723E-03    -37.2930E-03    -9.97269E-03
              88     12.0889E-03     115.834E-03     19.0207E+06     3.14803E+06     68.1158E+06    -2.55964E+06    -41.1756E-03     77.9491E-03    -36.7735E-03    -13.1245E-03    -41.1918E-03     77.8288E-03    -36.4651E-03    -13.1978E-03
              89     11.2402E-03     115.730E-03     22.2187E+06    -5.63307E+06     63.9349E+06     151.867E+03    -42.7424E-03     78.4865E-03    -35.7441E-03    -12.6372E-03    -42.7218E-03     78.3257E-03    -35.4485E-03    -12.6734E-03
              90     10.3910E-03     115.636E-03     23.5912E+06     2.42977E+06     64.4474E+06    -15.9441E+03    -42.0863E-03     76.7669E-03    -34.6806E-03    -11.0913E-03    -42.0703E-03     76.6450E-03    -34.3961E-03    -11.1249E-03
              91     9.53691E-03     115.558E-03     24.5723E+06    -2.10224E+06     62.4627E+06    -258.775E+03    -40.2503E-03     73.9373E-03    -33.6870E-03    -9.33256E-03    -40.2190E-03     73.7956E-03    -33.4073E-03    -9.36343E-03
              92     8.68038E-03     115.489E-03     24.8343E+06     1.51702E+06     59.7844E+06    -364.961E+03    -38.1381E-03     70.9340E-03    -32.7959E-03    -7.55598E-03    -38.1062E-03     70.8148E-03    -32.5352E-03    -7.58227E-03
              93     7.81954E-03     115.433E-03     24.7041E+06    -1.28586E+06     54.5034E+06    -311.908E+03    -36.2488E-03     68.2733E-03    -32.0245E-03    -6.05939E-03    -36.2051E-03     68.1490E-03    -31.7859E-03    -6.08028E-03
              94     6.95628E-03     115.383E-03     24.5245E+06     1.45904E+06     51.5960E+06    -790.381E+03    -34.7054E-03     66.0647E-03    -31.3593E-03    -4.98243E-03    -34.6620E-03     65.9591E-03    -31.1390E-03    -5.00605E-03
              95     6.09081E-03     115.342E-03     24.7640E+06    -1.33046E+06     45.6311E+06    -1.10057E+06    -33.2894E-03     64.0652E-03    -30.7759E-03    -4.13863E-03    -33.2318E-03     63.9544E-03    -30.5817E-03    -4.16364E-03
              96     5.22351E-03     115.306E-03     25.1678E+06     599.341E+03     41.6639E+06    -1.16234E+06    -32.0692E-03     62.3541E-03    -30.2849E-03    -3.45075E-03    -32.0064E-03     62.2583E-03    -30.1139E-03    -3.47446E-03
              97     4.35490E-03     115.278E-03     25.5968E+06    -579.985E+03     38.1735E+06    -1.42331E+06    -31.0639E-03     60.9507E-03    -29.8868E-03    -2.82880E-03    -30.9921E-03     60.8536E-03    -29.7322E-03    -2.85405E-03
              98     3.48498E-03     115.254E-03     26.5865E+06     228.709E+03     35.3518E+06    -1.73433E+06    -30.2651E-03     59.8371E-03    -29.5719E-03    -2.28673E-03    -30.1853E-03     59.7468E-03    -29.4341E-03    -2.31442E-03
              99     2.61444E-03     115.237E-03     27.7882E+06    -1.06046E+06     32.2571E+06    -1.62449E+06    -29.6872E-03     59.0260E-03    -29.3388E-03    -1.82218E-03    -29.5950E-03     58.9321E-03    -29.2163E-03    -1.84706E-03
             100     1.74293E-03     115.224E-03     28.9743E+06    -114.088E+03     31.1635E+06    -1.39560E+06    -29.3029E-03     58.4926E-03    -29.1897E-03    -1.40055E-03    -29.2046E-03     58.4033E-03    -29.0757E-03    -1.42118E-03
             101     871.550E-06     115.216E-03     30.2659E+06    -1.47696E+06     29.8992E+06    -1.40934E+06    -28.9136E-03     58.2385E-03    -29.3249E-03    -1.03936E-03    -28.8051E-03     58.1423E-03    -29.2171E-03    -1.05894E-03
             102     707.102E-09     114.208E-03     26.4612E+06    -4.01029E+06     25.9176E+06    -1.41849E+06    -26.2126E-03     52.6649E-03    -26.4523E-03    -8.05419E-06    -26.1132E-03     52.5678E-03    -26.3553E-03    -27.3516E-06
             103    -382.132E-09     113.213E-03     16.8742E+06    -8.70391E+06     17.6894E+06    -1.22494E+06    -21.7775E-03     43.3711E-03    -21.5936E-03     1.03734E-03    -21.7067E-03     43.2770E-03    -21.5170E-03     1.02039E-03
             104     395.044E-09     112.228E-03     2.80552E+06    -14.8573E+06     3.29514E+06    -2.18260E+06    -18.5061E-03     36.9968E-03    -18.4908E-03     1.55403E-03    -18.4755E-03     36.9135E-03    -18.4568E-03     1.52491E-03
             105    -373.662E-09     111.246E-03    -15.8553E+06    -22.4204E+06    -15.8001E+06    -2.11539E+06    -16.4191E-03     32.8188E-03    -16.3997E-03     2.16380E-03    -16.4430E-03     32.7526E-03    -16.4232E-03     2.13584E-03
             106     386.172E-09     110.268E-03    -37.6330E+06    -30.4502E+06    -37.0090E+06    -2.55073E+06    -15.2416E-03     30.4753E-03    -15.2336E-03     2.61663E-03    -15.3320E-03     30.4313E-03    -15.3200E-03     2.58328E-03
             107    -380.259E-09     109.291E-03    -59.7779E+06    -39.7835E+06    -60.0577E+06    -2.63497E+06    -14.7685E-03     29.5470E-03    -14.7784E-03     2.93261E-03    -14.9226E-03     29.5219E-03    -14.9343E-03     2.89834E-03
             108     349.779E-09     108.315E-03     -84.534E+06    -48.0403E+06    -84.2113E+06    -2.38420E+06    -14.7806E-03     29.5875E-03    -14.8068E-03     3.13746E-03    -15.0115E-03     29.5920E-03    -15.0357E-03     3.10655E-03
             109    -366.490E-09     107.337E-03    -100.046E+06    -52.8749E+06    -101.505E+06    -316.504E+03    -15.1411E-03     30.3115E-03    -15.1704E-03     3.27758E-03    -15.4174E-03     30.3394E-03    -15.4562E-03     3.27343E-03
             110     309.610E-09     106.360E-03    -82.7829E+06    -46.1729E+06    -84.0456E+06     4.47756E+06    -15.8670E-03     31.7656E-03    -15.8986E-03     3.38770E-03    -16.0921E-03     31.7767E-03    -16.1319E-03     3.44549E-03
             111    -328.328E-09     105.380E-03    -46.7278E+06    -26.7798E+06    -47.0121E+06     7.38512E+06    -16.9185E-03     33.8635E-03    -16.9450E-03     3.50121E-03    -17.0452E-03     33.8656E-03    -17.0735E-03     3.59655E-03
             112     291.537E-09     104.398E-03    -24.0801E+06    -6.17993E+06    -22.1741E+06     5.01463E+06    -18.1796E-03     36.3672E-03    -18.1876E-03     3.62475E-03    -18.2589E-03     36.4034E-03    -18.2546E-03     3.68947E-03
             113    -252.811E-09     103.413E-03    -8.70463E+06     2.43962E+06    -7.90115E+06     392.593E+03    -19.5273E-03     39.0490E-03    -19.5217E-03     3.70056E-03    -19.5630E-03     39.0853E-03    -19.5521E-03     3.70553E-03
             114     227.629E-09     102.426E-03    -124.203E+03     528.381E+03     171.888E+03    -1.39003E+06    -20.8139E-03     41.6148E-03    -20.8009E-03     3.72439E-03    -20.8155E-03     41.6174E-03    -20.8007E-03     3.70620E-03
             115    -182.044E-09     101.436E-03     3.85035E+06    -6.15337E+06     4.00654E+06    -2.28729E+06    -21.9630E-03     43.9132E-03    -21.9502E-03     3.69012E-03    -21.9407E-03     43.8711E-03    -21.9269E-03     3.66016E-03
             116     155.004E-09     100.444E-03     5.07873E+06    -14.1236E+06     4.92747E+06    -2.31441E+06    -22.9542E-03     45.9046E-03    -22.9504E-03     3.63217E-03    -22.9155E-03     45.8195E-03    -22.9127E-03     3.60166E-03
             117    -128.620E-09     99.4502E-03     3.87421E+06    -22.5077E+06     4.04999E+06    -2.60920E+06    -23.7918E-03     47.5805E-03    -23.7888E-03     3.59129E-03    -23.7457E-03     47.4565E-03    -23.7415E-03     3.55678E-03
             118     103.953E-09     98.4550E-03     2.03758E+06    -31.4270E+06     1.81305E+06    -2.56814E+06    -24.4715E-03     48.9361E-03    -24.4645E-03     3.56004E-03    -24.4184E-03     48.7734E-03    -24.4129E-03     3.52590E-03
             119    -75.1197E-09     97.4588E-03    -1.18368E+06    -40.4847E+06    -1.04906E+06    -2.58084E+06    -25.0077E-03     50.0097E-03    -25.0020E-03     3.51710E-03    -24.9534E-03     49.8106E-03    -24.9468E-03     3.48263E-03
             120     52.3606E-09     96.4616E-03    -4.02075E+06    -49.1300E+06    -4.34872E+06    -2.37747E+06    -25.4257E-03     50.8564E-03    -25.4307E-03     3.47143E-03    -25.3683E-03     50.6230E-03    -25.3754E-03     3.43944E-03
             121    -47.3715E-09     95.4637E-03    -7.71096E+06    -57.0166E+06    -7.60439E+06    -2.14043E+06    -25.7559E-03     51.5077E-03    -25.7517E-03     3.45047E-03    -25.7008E-03     51.2449E-03    -25.6959E-03     3.42143E-03
             122     45.6592E-09     94.4652E-03    -11.1002E+06    -64.0858E+06    -11.3527E+06    -1.83818E+06    -25.9916E-03     51.9743E-03    -25.9826E-03     3.45121E-03    -25.9378E-03     51.6865E-03    -25.9304E-03     3.42601E-03
             123    -36.3620E-09     93.4665E-03    -14.7408E+06    -70.5491E+06    -14.4586E+06    -1.86830E+06    -26.1609E-03     52.3156E-03    -26.1547E-03     3.43523E-03    -26.1114E-03     52.0053E-03    -26.1033E-03     3.40958E-03
             124     35.8677E-09     92.4675E-03    -16.7677E+06    -76.8539E+06    -17.2795E+06    -1.55293E+06    -26.2849E-03     52.5615E-03    -26.2767E-03     3.41059E-03    -26.2323E-03     52.2267E-03    -26.2273E-03     3.38897E-03
             125    -31.9779E-09     91.4683E-03    -19.6373E+06    -82.1596E+06    -19.2577E+06    -1.33371E+06    -26.3754E-03     52.7490E-03    -26.3736E-03     3.42592E-03    -26.3266E-03     52.3947E-03    -26.3222E-03     3.40711E-03
             126     30.3292E-09     90.4689E-03    -21.3711E+06    -87.4329E+06    -21.6826E+06    -1.56111E+06    -26.4387E-03     52.8757E-03    -26.4370E-03     3.41906E-03    -26.3874E-03     52.5011E-03    -26.3876E-03     3.39726E-03
             127    -34.3597E-09     89.4694E-03    -23.6034E+06    -91.8861E+06    -23.6632E+06    -902.667E+03    -26.4853E-03     52.9523E-03    -26.4670E-03     3.39474E-03    -26.4358E-03     52.5616E-03    -26.4179E-03     3.38142E-03
             128     64.6253E-09     88.4700E-03    -25.1051E+06    -95.3211E+06    -24.9646E+06    -1.05892E+06    -26.5105E-03     53.0239E-03    -26.5135E-03     3.38839E-03    -26.4616E-03     52.6200E-03    -26.4637E-03     3.37305E-03
             129    -103.752E-09     87.4704E-03    -25.5656E+06    -98.7971E+06    -25.8720E+06    -751.232E+03    -26.5400E-03     53.0766E-03    -26.5366E-03     3.40023E-03    -26.4871E-03     52.6573E-03    -26.4856E-03     3.38889E-03
             130     140.162E-09     86.4708E-03    -26.3879E+06    -101.721E+06    -26.1213E+06    -674.825E+03    -26.5551E-03     53.0901E-03    -26.5350E-03     3.39679E-03    -26.5018E-03     52.6578E-03    -26.4798E-03     3.38641E-03
             131    -143.409E-09     85.4714E-03    -26.7207E+06    -103.986E+06    -26.9552E+06    -644.717E+03    -26.5576E-03     53.1111E-03    -26.5535E-03     3.39171E-03    -26.5014E-03     52.6691E-03    -26.4988E-03     3.38170E-03
             132     145.878E-09     84.4717E-03    -27.0595E+06    -105.811E+06    -26.9849E+06     -391.89E+03    -26.5673E-03     53.1360E-03    -26.5687E-03     3.37499E-03    -26.5101E-03     52.6854E-03    -26.5109E-03     3.36825E-03
             133    -155.046E-09     83.4723E-03    -27.0846E+06    -107.795E+06    -27.1273E+06    -493.509E+03    -26.5708E-03     53.1481E-03    -26.5774E-03     3.38770E-03    -26.5106E-03     52.6879E-03    -26.5174E-03     3.37967E-03
             134     146.954E-09     82.4725E-03    -26.6892E+06    -109.399E+06    -26.6818E+06    -400.308E+03    -26.5980E-03     53.1793E-03    -26.5813E-03     3.38895E-03    -26.5341E-03     52.7098E-03    -26.5174E-03     3.38212E-03
             135    -114.769E-09     81.4731E-03    -27.1856E+06    -110.876E+06    -27.2410E+06    -322.572E+03    -26.5924E-03     53.1739E-03    -26.5815E-03     3.40162E-03    -26.5281E-03     52.6986E-03    -26.5175E-03     3.39581E-03
             136     95.9282E-09     80.4733E-03    -27.2727E+06    -111.745E+06    -27.2593E+06    -155.198E+03    -26.5869E-03     53.1814E-03    -26.5945E-03     3.40946E-03    -26.5217E-03     52.7018E-03    -26.5292E-03     3.40582E-03
             137    -95.5675E-09     79.4740E-03    -27.5961E+06    -112.733E+06    -27.6587E+06    -127.613E+03    -26.5833E-03     53.1815E-03    -26.5981E-03     3.38541E-03    -26.5178E-03     52.6980E-03    -26.5329E-03     3.38211E-03
             138     63.3456E-09     78.4740E-03    -27.1707E+06    -113.060E+06    -27.0985E+06     28.9214E+03    -26.5990E-03     53.1867E-03    -26.5877E-03     3.40950E-03    -26.5317E-03     52.7002E-03    -26.5199E-03     3.40825E-03
             139    -15.7789E-09     77.4748E-03    -26.8828E+06    -113.500E+06    -26.8798E+06    -145.778E+03    -26.6064E-03     53.1881E-03    -26.5817E-03     3.39286E-03    -26.5373E-03     52.6987E-03    -26.5125E-03     3.38933E-03
             140     6.36502E-09     76.4749E-03    -26.5145E+06    -113.597E+06    -26.5851E+06     149.548E+03    -26.5998E-03     53.1942E-03    -26.5944E-03     3.38246E-03    -26.5291E-03     52.7033E-03    -26.5242E-03     3.38274E-03
             141     6.36594E-09     75.4756E-03    -26.3192E+06    -113.813E+06    -26.2096E+06    -74.2418E+03    -26.5879E-03     53.2124E-03    -26.6245E-03     3.39676E-03    -26.5165E-03     52.7196E-03    -26.5523E-03     3.39417E-03
             142    -87.1728E-09     74.4757E-03    -25.6799E+06    -113.719E+06    -25.9694E+06     248.814E+03    -26.6134E-03     53.2410E-03    -26.6277E-03     3.39853E-03    -26.5393E-03     52.7474E-03    -26.5554E-03     3.40013E-03
             143     134.407E-09     73.4764E-03    -25.5221E+06    -113.290E+06    -25.1617E+06     29.7163E+03    -26.6424E-03     53.2690E-03    -26.6266E-03     3.37140E-03    -26.5693E-03     52.7762E-03    -26.5511E-03     3.37010E-03
             144    -154.962E-09     72.4764E-03    -25.1108E+06    -113.338E+06    -25.3806E+06      40.725E+03    -26.6449E-03     53.2773E-03    -26.6323E-03     3.39319E-03    -26.5694E-03     52.7839E-03    -26.5585E-03     3.39208E-03
             145     189.303E-09     71.4769E-03    -24.9183E+06    -113.066E+06    -24.7335E+06     148.774E+03    -26.6632E-03     53.2869E-03    -26.6237E-03     3.40922E-03    -26.5880E-03     52.7937E-03    -26.5473E-03     3.40952E-03
             146    -157.629E-09     70.4772E-03    -24.8689E+06    -113.067E+06    -25.0073E+06     139.116E+03    -26.6493E-03     53.2803E-03    -26.6309E-03     3.42506E-03    -26.5735E-03     52.7874E-03    -26.5560E-03     3.42524E-03
             147     151.270E-09     69.4775E-03    -24.7033E+06    -112.764E+06    -24.4856E+06     64.0647E+03    -26.6477E-03     53.2949E-03    -26.6472E-03     3.40029E-03    -26.5723E-03     52.8025E-03    -26.5703E-03     3.39949E-03
             148    -146.894E-09     68.4779E-03    -24.0232E+06    -113.017E+06    -24.2383E+06     19.2535E+03    -26.6508E-03     53.3081E-03    -26.6574E-03     3.37712E-03    -26.5719E-03     52.8131E-03    -26.5798E-03     3.37574E-03
             149     123.305E-09     67.4780E-03    -23.9139E+06    -112.928E+06    -23.8035E+06     126.798E+03    -26.6668E-03     53.3285E-03    -26.6617E-03     3.38091E-03    -26.5881E-03     52.8331E-03    -26.5823E-03     3.38093E-03
             150    -94.8790E-09     66.4785E-03    -23.9478E+06    -113.062E+06    -24.0278E+06    -7.55481E+03    -26.6697E-03     53.3292E-03    -26.6595E-03     3.38079E-03    -26.5907E-03     52.8336E-03    -26.5810E-03     3.37906E-03
             151     78.1907E-09     65.4785E-03    -23.6634E+06    -112.633E+06    -23.5714E+06     231.771E+03    -26.6841E-03     53.3489E-03    -26.6648E-03     3.41193E-03    -26.6050E-03     52.8543E-03    -26.5850E-03     3.41329E-03
             152    -31.9744E-09     64.4790E-03    -23.8113E+06    -112.628E+06    -23.7441E+06    -117.016E+03    -26.6820E-03     53.3550E-03    -26.6730E-03     3.39481E-03    -26.6034E-03     52.8609E-03    -26.5938E-03     3.39163E-03
             153    -2.81658E-09     63.4790E-03    -23.5074E+06    -112.629E+06    -23.5842E+06     137.053E+03    -26.6840E-03     53.3715E-03    -26.6875E-03     3.39438E-03    -26.6041E-03     52.8767E-03    -26.6080E-03     3.39450E-03
             154     25.4410E-09     62.4795E-03    -23.6703E+06    -112.427E+06    -23.6604E+06     6.11628E+03    -26.6968E-03     53.3923E-03    -26.6954E-03     3.37689E-03    -26.6179E-03     52.8989E-03    -26.6164E-03     3.37531E-03
             155    -50.7028E-09     61.4794E-03    -23.3471E+06    -112.191E+06    -23.3164E+06     74.2698E+03    -26.6894E-03     53.3960E-03    -26.7066E-03     3.41032E-03    -26.6097E-03     52.9028E-03    -26.6266E-03     3.40963E-03
             156     40.8599E-09     60.4799E-03    -23.2987E+06    -112.282E+06    -23.2337E+06    -88.5824E+03    -26.6869E-03     53.4038E-03    -26.7169E-03     3.41248E-03    -26.6069E-03     52.9100E-03    -26.6365E-03     3.40972E-03
             157    -88.2044E-09     59.4799E-03    -23.3264E+06    -112.369E+06    -23.5465E+06     266.468E+03    -26.6972E-03     53.4024E-03    -26.7053E-03     3.41389E-03    -26.6167E-03     52.9086E-03    -26.6262E-03     3.41573E-03
             158     113.541E-09     58.4803E-03    -23.0573E+06    -112.092E+06    -22.7684E+06    -17.7945E+03    -26.7142E-03     53.4075E-03    -26.6932E-03     3.39205E-03    -26.6340E-03     52.9136E-03    -26.6111E-03     3.39019E-03
             159     143.245E-09     56.4806E-03    -23.1971E+06    -112.304E+06    -22.9377E+06     54.2712E+03    -26.6997E-03     53.3988E-03    -26.6991E-03     3.40453E-03    -26.6196E-03     52.9043E-03    -26.6173E-03     3.40359E-03
             160    -183.865E-09     55.4807E-03    -23.0827E+06    -112.438E+06    -23.3339E+06     78.4081E+03    -26.6826E-03     53.3717E-03    -26.6891E-03     3.40156E-03    -26.6012E-03     52.8769E-03    -26.6093E-03     3.40096E-03
             161     204.890E-09     54.4811E-03    -23.1267E+06    -112.107E+06    -22.8692E+06     17.5663E+03    -26.6854E-03     53.3524E-03    -26.6670E-03     3.39623E-03    -26.6054E-03     52.8587E-03    -26.5852E-03     3.39480E-03
             162    -195.964E-09     53.4813E-03    -23.1422E+06    -112.431E+06    -23.2481E+06    -114.425E+03    -26.6662E-03     53.3210E-03    -26.6548E-03     3.39452E-03    -26.5852E-03     52.8262E-03    -26.5744E-03     3.39140E-03
             163     200.620E-09     52.4816E-03    -23.1746E+06    -112.425E+06    -23.0855E+06     103.006E+03    -26.6591E-03     53.2955E-03    -26.6364E-03     3.39673E-03    -26.5785E-03     52.8006E-03    -26.5553E-03     3.39643E-03
             164    -169.911E-09     51.4820E-03    -23.1520E+06    -112.438E+06    -23.2515E+06    -27.8344E+03    -26.6355E-03     53.2609E-03    -26.6254E-03     3.38305E-03    -26.5546E-03     52.7661E-03    -26.5450E-03     3.38105E-03
             165     150.659E-09     50.4822E-03    -23.4083E+06    -112.502E+06    -23.3737E+06     93.0363E+03    -26.6087E-03     53.2341E-03    -26.6254E-03     3.40488E-03    -26.5287E-03     52.7396E-03    -26.5452E-03     3.40447E-03
             166    -165.669E-09     49.4827E-03    -23.4248E+06    -112.498E+06    -23.4111E+06    -51.7717E+03    -26.5907E-03     53.2060E-03    -26.6153E-03     3.37901E-03    -26.5108E-03     52.7115E-03    -26.5352E-03     3.37670E-03
             167     132.596E-09     48.4831E-03    -23.1860E+06    -112.223E+06    -23.1942E+06     96.2144E+03    -26.5890E-03     53.1792E-03    -26.5902E-03     3.39345E-03    -26.5087E-03     52.6855E-03    -26.5098E-03     3.39306E-03
             168    -106.869E-09     47.4835E-03    -23.3043E+06    -112.398E+06    -23.2262E+06    -91.2341E+03    -26.5478E-03     53.1387E-03    -26.5909E-03     3.40685E-03    -26.4677E-03     52.6443E-03    -26.5102E-03     3.40405E-03
             169     1.22976E-09     46.4841E-03    -23.0996E+06    -112.494E+06    -23.2281E+06     124.692E+03    -26.5348E-03     53.1066E-03    -26.5719E-03     3.39165E-03    -26.4535E-03     52.6114E-03    -26.4914E-03     3.39166E-03
             170     32.7124E-09     45.4845E-03    -23.2735E+06    -112.430E+06    -23.1574E+06     50.1406E+03    -26.5297E-03     53.0519E-03    -26.5222E-03     3.39788E-03    -26.4495E-03     52.5572E-03    -26.4412E-03     3.39693E-03
             171    -57.4166E-09     44.4852E-03    -23.2074E+06    -112.353E+06    -23.2506E+06     80.8599E+03    -26.5142E-03     52.9976E-03    -26.4835E-03     3.37913E-03    -26.4336E-03     52.5033E-03    -26.4032E-03     3.37855E-03
             172     130.213E-09     43.4858E-03    -23.2803E+06    -112.225E+06    -23.1966E+06    -74.9662E+03    -26.4963E-03     52.9546E-03    -26.4583E-03     3.37682E-03    -26.4164E-03     52.4610E-03    -26.3778E-03     3.37421E-03
             173    -140.690E-09     42.4864E-03    -23.2978E+06    -112.190E+06    -23.4281E+06     180.634E+03    -26.4243E-03     52.8614E-03    -26.4371E-03     3.38742E-03    -26.3442E-03     52.3683E-03    -26.3578E-03     3.38817E-03
             174     122.075E-09     41.4873E-03    -23.2468E+06    -111.989E+06    -23.0331E+06    -25.3608E+03    -26.3706E-03     52.7679E-03    -26.3973E-03     3.33988E-03    -26.2911E-03     52.2752E-03    -26.3164E-03     3.33796E-03
             175    -153.023E-09     40.4882E-03    -23.1746E+06    -112.074E+06    -23.4249E+06    -21.2597E+03    -26.3205E-03     52.6511E-03    -26.3306E-03     3.30072E-03    -26.2399E-03     52.1584E-03    -26.2516E-03     3.29884E-03
             176     158.462E-09     39.4892E-03    -23.3010E+06    -111.881E+06    -23.1219E+06     139.359E+03    -26.2546E-03     52.5083E-03    -26.2538E-03     3.30250E-03    -26.1754E-03     52.0163E-03    -26.1733E-03     3.30273E-03
             177    -165.407E-09     38.4904E-03    -23.3496E+06    -111.964E+06    -23.4644E+06     10.5532E+03    -26.1587E-03     52.3290E-03    -26.1703E-03     3.29286E-03    -26.0792E-03     51.8372E-03    -26.0914E-03     3.29145E-03
             178     145.884E-09     37.4917E-03    -23.4485E+06    -111.822E+06    -23.3978E+06     124.558E+03    -26.0554E-03     52.1220E-03    -26.0666E-03     3.29163E-03    -25.9766E-03     51.6309E-03    -25.9875E-03     3.29173E-03
             179    -150.423E-09     36.4933E-03    -23.6539E+06    -111.813E+06    -23.6335E+06    -45.0685E+03    -25.9288E-03     51.8789E-03    -25.9501E-03     3.25023E-03    -25.8507E-03     51.3885E-03    -25.8718E-03     3.24814E-03
             180     112.975E-09     35.4953E-03    -23.6738E+06    -111.780E+06    -23.7597E+06     26.8223E+03    -25.8064E-03     51.6298E-03    -25.8233E-03     3.21826E-03    -25.7283E-03     51.1397E-03    -25.7457E-03     3.21711E-03
             181    -110.867E-09     34.4972E-03    -23.5991E+06    -111.602E+06    -23.6542E+06     128.804E+03    -25.6566E-03     51.3257E-03    -25.6690E-03     3.18118E-03    -25.5786E-03     50.8363E-03    -25.5913E-03     3.18138E-03
             182     81.7717E-09     33.4999E-03    -23.5282E+06    -111.234E+06    -23.4285E+06     146.880E+03    -25.4941E-03     50.9834E-03    -25.4893E-03     3.14354E-03    -25.4165E-03     50.4954E-03    -25.4110E-03     3.14400E-03
             183    -47.5607E-09     32.5024E-03    -23.3418E+06    -110.945E+06    -23.4334E+06    -17.1118E+03    -25.2954E-03     50.5998E-03    -25.3044E-03     3.10323E-03    -25.2173E-03     50.1130E-03    -25.2268E-03     3.10159E-03
             184    -7.84097E-09     31.5060E-03    -23.5417E+06    -110.874E+06    -23.4835E+06     128.035E+03    -25.0724E-03     50.1712E-03    -25.0988E-03     3.06485E-03    -24.9953E-03     49.6851E-03    -25.0214E-03     3.06513E-03
             185     13.1505E-09     30.5093E-03    -23.3289E+06    -110.471E+06    -23.4570E+06     157.803E+03    -24.8432E-03     49.6954E-03    -24.8522E-03     2.99555E-03    -24.7657E-03     49.2109E-03    -24.7755E-03     2.99625E-03
             186    -39.8057E-09     29.5138E-03    -23.1716E+06    -109.820E+06    -23.1680E+06     242.816E+03    -24.5660E-03     49.1579E-03    -24.5919E-03     2.91650E-03    -24.4891E-03     48.6761E-03    -24.5149E-03     2.91831E-03
             187     17.2790E-09     28.5183E-03    -22.7503E+06    -109.122E+06    -22.7710E+06     4.75977E+03    -24.2861E-03     48.5960E-03    -24.3099E-03     2.82043E-03    -24.2087E-03     48.1165E-03    -24.2325E-03     2.81922E-03
             188    -40.2540E-09     27.5238E-03    -22.5577E+06    -108.603E+06    -22.7448E+06     354.906E+03    -23.9778E-03     47.9532E-03    -23.9754E-03     2.76591E-03    -23.9002E-03     47.4759E-03    -23.8989E-03     2.76931E-03
             189     62.0256E-09     26.5296E-03    -22.4255E+06    -107.605E+06    -22.1854E+06     302.514E+03    -23.6392E-03     47.2573E-03    -23.6182E-03     2.71153E-03    -23.5631E-03     46.7841E-03    -23.5405E-03     2.71429E-03
             190    -47.4219E-09     25.5366E-03    -22.2839E+06    -106.760E+06    -22.5102E+06     289.084E+03    -23.2458E-03     46.4841E-03    -23.2383E-03     2.57413E-03    -23.1698E-03     46.0153E-03    -23.1638E-03     2.57677E-03
             191     40.4601E-09     24.5439E-03    -21.9565E+06    -105.648E+06    -21.7629E+06     388.037E+03    -22.8365E-03     45.6830E-03    -22.8465E-03     2.48660E-03    -22.7616E-03     45.2182E-03    -22.7703E-03     2.49058E-03
             192    -51.6520E-09     23.5524E-03    -21.1051E+06    -104.498E+06    -21.2575E+06     336.878E+03    -22.4259E-03     44.8601E-03    -22.4342E-03     2.43628E-03    -22.3491E-03     44.3991E-03    -22.3584E-03     2.43964E-03
             193     43.9192E-09     22.5611E-03    -20.4955E+06    -103.070E+06     -20.473E+06     434.304E+03    -21.9523E-03     43.9287E-03    -21.9764E-03     2.33150E-03    -21.8757E-03     43.4728E-03    -21.8996E-03     2.33617E-03
             194    -80.8619E-09     21.5719E-03    -19.9040E+06    -102.124E+06    -20.1017E+06     350.289E+03    -21.4496E-03     42.9192E-03    -21.4696E-03     2.17155E-03    -21.3720E-03     42.4666E-03    -21.3931E-03     2.17522E-03
             195     78.4195E-09     20.5824E-03    -18.9333E+06    -100.612E+06    -18.8235E+06     536.348E+03    -20.9838E-03     41.9237E-03    -20.9398E-03     2.04996E-03    -20.9053E-03     41.4754E-03    -20.8606E-03     2.05609E-03
             196     996.267E-12     19.5952E-03    -17.7335E+06    -99.0008E+06    -17.7401E+06     345.594E+03    -20.4349E-03     40.8339E-03    -20.3989E-03     1.82259E-03    -20.3544E-03     40.3904E-03    -20.3184E-03     1.82633E-03
             197    -18.3873E-09     18.6079E-03    -16.9712E+06    -97.5753E+06    -17.0726E+06     565.879E+03    -19.8138E-03     39.6407E-03    -19.8268E-03     1.67662E-03    -19.7325E-03     39.2022E-03    -19.7461E-03     1.68329E-03
             198     10.5010E-09     17.6230E-03    -15.4003E+06    -95.5477E+06    -15.3670E+06     586.912E+03    -19.1857E-03     38.3899E-03    -19.2042E-03     1.54414E-03    -19.1019E-03     37.9568E-03    -19.1202E-03     1.55113E-03
             199    -35.7804E-09     16.6381E-03    -14.3850E+06    -93.7731E+06    -14.5401E+06     738.865E+03    -18.4732E-03     36.9824E-03    -18.5091E-03     1.39382E-03    -18.3881E-03     36.5555E-03    -18.4250E-03     1.40285E-03
             200    -4.82732E-09     15.6560E-03    -12.9679E+06    -91.1668E+06    -13.1288E+06     899.415E+03    -17.7153E-03     35.4796E-03    -17.7643E-03     1.15201E-03    -17.6289E-03     35.0616E-03    -17.6790E-03     1.16320E-03
             201    -43.5518E-09     14.6742E-03    -10.8450E+06    -88.0220E+06    -11.0989E+06     1.12053E+06    -16.9638E-03     33.9056E-03    -16.9418E-03     957.875E-06    -16.8744E-03     33.4974E-03    -16.8539E-03     971.961E-06
             202     128.046E-09     13.6949E-03    -8.39276E+06    -84.6206E+06    -8.24018E+06     901.521E+03    -16.1474E-03     32.2018E-03    -16.0544E-03     744.850E-06    -16.0548E-03     31.8029E-03    -15.9607E-03     756.150E-06
             203    -45.8448E-09     12.7168E-03    -7.16258E+06    -82.6700E+06    -7.11855E+06     347.233E+03    -15.1515E-03     30.2386E-03    -15.0871E-03     448.045E-06    -15.0571E-03     29.8459E-03    -14.9924E-03     452.237E-06
             204     78.6369E-09     11.7409E-03    -9.28502E+06    -81.8265E+06    -9.07634E+06    -42.1717E+03    -14.0769E-03     28.0791E-03    -14.0022E-03     276.001E-06    -13.9915E-03     27.6966E-03    -13.9155E-03     275.151E-06
             205     23.9171E-09     10.7673E-03    -13.6372E+06    -82.1497E+06    -13.6035E+06    -308.748E+03    -13.1364E-03     26.1712E-03    -13.0348E-03     271.563E-06    -13.0658E-03     25.8000E-03    -12.9639E-03     267.235E-06
             206     54.7472E-09     9.79497E-03    -16.7656E+06    -82.7193E+06    -16.5711E+06    -345.427E+03    -12.5385E-03     25.0389E-03    -12.5004E-03     437.323E-06    -12.4783E-03     24.6737E-03    -12.4390E-03     432.504E-06
             207    -63.6025E-09     8.82361E-03    -18.0521E+06    -84.0561E+06    -17.9058E+06    -366.118E+03    -12.4918E-03     25.0418E-03    -12.5500E-03     799.167E-06    -12.4343E-03     24.6738E-03    -12.4915E-03     794.112E-06
             208    -29.4815E-09     7.85093E-03    -16.8606E+06    -85.1529E+06    -16.7051E+06    -227.231E+03    -13.1253E-03     26.2613E-03    -13.1360E-03     1.07978E-03    -13.0619E-03     25.8843E-03    -13.0716E-03     1.07657E-03
             209     104.984E-09     6.87750E-03    -13.8399E+06    -86.3118E+06    -13.7850E+06    -308.237E+03    -14.1478E-03     28.3257E-03    -14.1779E-03     1.24791E-03    -14.0719E-03     27.9342E-03    -14.1016E-03     1.24370E-03
             210    -233.174E-09     5.90064E-03    -11.8750E+06    -87.8171E+06    -12.1316E+06    -504.364E+03    -15.3604E-03     30.8035E-03    -15.4431E-03     1.27116E-03    -15.2748E-03     30.3992E-03    -15.3592E-03     1.26445E-03
             211     211.633E-09     4.92248E-03    -12.4461E+06    -89.9405E+06    -12.2853E+06    -677.152E+03    -16.6752E-03     33.3412E-03    -16.6660E-03     1.20019E-03    -16.5892E-03     32.9274E-03    -16.5789E-03     1.19127E-03
             212    -172.032E-09     3.94060E-03    -12.4444E+06    -91.5832E+06    -12.4077E+06    -353.629E+03    -17.8259E-03     35.6674E-03    -17.8415E-03     1.11043E-03    -17.7374E-03     35.2455E-03    -17.7527E-03     1.10573E-03
             213     105.322E-09     2.95796E-03    -11.7439E+06    -92.3231E+06    -12.0107E+06    -57.2231E+03    -18.7946E-03     37.6036E-03    -18.8090E-03     822.913E-06    -18.7020E-03     37.1765E-03    -18.7182E-03     822.041E-06
             214    -67.3706E-09     1.97235E-03    -11.4830E+06    -92.5660E+06    -11.3909E+06     129.560E+03    -19.5009E-03     39.0059E-03    -19.5050E-03     686.972E-06    -19.4075E-03     38.5763E-03    -19.4111E-03     688.597E-06
             215     23.0651E-09     986.673E-06    -10.4945E+06    -91.8115E+06    -10.2160E+06     136.585E+03    -19.9438E-03     39.8505E-03    -19.9068E-03     333.389E-06    -19.8482E-03     39.4216E-03    -19.8095E-03     335.160E-06
             216     882.168E-06     104.083E-18    -10.3408E+06    -92.8574E+06    -10.1712E+06    -52.6966E+03    -20.1888E-03     40.2533E-03    -20.0644E-03     230.959E-06    -20.0911E-03     39.8187E-03    -19.9656E-03     230.258E-06
             217     1.76412E-03     104.083E-18    -10.2709E+06    -93.6835E+06    -10.2336E+06    -101.695E+03    -20.3919E-03     40.5726E-03    -20.1807E-03     494.713E-06    -20.2925E-03     40.1339E-03    -20.0812E-03     493.343E-06
             218     2.64584E-03     104.083E-18    -10.2577E+06    -94.0163E+06    -10.7346E+06    -86.7507E+03    -20.7493E-03     41.0543E-03    -20.3050E-03     743.468E-06    -20.6486E-03     40.6146E-03    -20.2075E-03     742.255E-06
             219     3.52720E-03     104.083E-18    -10.0616E+06    -94.9544E+06    -11.7862E+06    -396.203E+03    -21.2588E-03     41.7301E-03    -20.4713E-03     1.06743E-03    -21.1543E-03     41.2870E-03    -20.3780E-03     1.06218E-03
             220     4.40791E-03     104.083E-18    -9.72456E+06    -95.8716E+06    -13.3966E+06    -595.136E+03    -21.9173E-03     42.5995E-03    -20.6822E-03     1.40607E-03    -21.8075E-03     42.1536E-03    -20.5960E-03     1.39819E-03
             221     5.28819E-03     104.083E-18    -9.31930E+06    -97.3385E+06    -16.2853E+06    -943.283E+03    -22.7512E-03     43.6888E-03    -20.9376E-03     1.83726E-03    -22.6331E-03     43.2392E-03    -20.8643E-03     1.82484E-03
             222     6.16727E-03     104.083E-18    -8.33710E+06    -98.7674E+06    -20.4397E+06    -1.62733E+06    -23.7049E-03     44.9402E-03    -21.2353E-03     2.22584E-03    -23.5738E-03     44.4881E-03    -21.1822E-03     2.20450E-03
             223     7.04598E-03     104.083E-18    -7.02493E+06    -100.158E+06    -26.3263E+06    -2.27516E+06    -24.8244E-03     46.3961E-03    -21.5718E-03     2.82236E-03    -24.6761E-03     45.9437E-03    -21.5480E-03     2.79242E-03
             224     7.92289E-03     104.083E-18    -4.33673E+06    -100.622E+06    -32.9008E+06    -3.84463E+06    -26.0945E-03     48.0449E-03    -21.9504E-03     3.33554E-03    -25.9226E-03     47.5959E-03    -21.9627E-03     3.28517E-03
             225     8.79958E-03     104.083E-18    -1.04266E+06    -99.6590E+06    -39.4127E+06    -4.15833E+06    -27.5551E-03     49.9322E-03    -22.3771E-03     4.28867E-03    -27.3587E-03     49.4926E-03    -22.4282E-03     4.23373E-03
             226     9.67332E-03     104.083E-18     3.14868E+06    -94.4396E+06     -44.897E+06    -5.02255E+06    -29.1068E-03     51.9582E-03    -22.8515E-03     5.07516E-03    -28.8890E-03     51.5466E-03    -22.9436E-03     5.00882E-03
             227     10.5478E-03     104.083E-18     7.87945E+06    -81.9195E+06    -46.5847E+06    -5.39572E+06    -30.8044E-03     54.1856E-03    -23.3812E-03     6.35445E-03    -30.5788E-03     53.8323E-03    -23.5067E-03     6.28174E-03
             228     11.4178E-03     104.083E-18     11.9962E+06    -62.3076E+06    -42.3420E+06    -4.68909E+06    -32.6004E-03     56.5790E-03    -23.9786E-03     7.63110E-03    -32.3888E-03     56.3117E-03    -24.1174E-03     7.56663E-03
             229     12.2892E-03     104.083E-18     14.5535E+06    -32.4099E+06    -33.9058E+06    -2.76103E+06    -34.6777E-03     59.3144E-03    -24.6367E-03     9.60192E-03    -34.5092E-03     59.1809E-03    -24.7803E-03     9.55940E-03
             230     13.1553E-03     104.083E-18     14.4386E+06     5.77447E+06    -22.8810E+06    -460.212E+03    -37.6671E-03     63.0491E-03    -25.3820E-03     13.1223E-03    -37.5708E-03     63.0910E-03    -25.5258E-03     13.1070E-03
             231     14.0190E-03     104.083E-18     13.1521E+06     39.5647E+06     1.87728E+06    -64.3665E+03    -41.8144E-03     68.1509E-03    -26.3365E-03     17.6869E-03    -41.8103E-03     68.3287E-03    -26.4035E-03     17.6689E-03
             232     14.8785E-03     104.083E-18     9.04019E+06     62.7686E+06     40.4892E+06     4.80983E+06    -50.4592E-03     78.1085E-03    -27.6494E-03     31.5835E-03    -50.5672E-03     78.3534E-03    -27.5510E-03     31.6216E-03
             233     15.7162E-03     104.083E-18    -2.13785E+06     68.5549E+06     60.1898E+06     7.66492E+06    -57.5330E-03     86.7615E-03    -29.2285E-03     51.8282E-03    -57.7450E-03     87.0259E-03    -29.0239E-03     51.8788E-03
             234     16.5448E-03     104.083E-18     6.11857E+06     83.3223E+06     78.2208E+06     3.00388E+06    -56.2179E-03     87.0096E-03    -30.7918E-03     66.8741E-03    -56.5156E-03     87.3969E-03    -30.5303E-03     66.6828E-03
             235     17.4580E-03     1.03847E-03    -930.607E+03     96.1479E+06     82.4115E+06     3.14693E+06    -67.7283E-03     97.6937E-03    -29.9654E-03     77.4292E-03    -68.3346E-03     98.4124E-03    -29.6914E-03     76.7746E-03
             236     17.4972E-03     2.12363E-03    -16.1498E+06     98.8766E+06     74.9630E+06     9.94489E+06    -78.9001E-03     106.505E-03    -27.6047E-03     82.3367E-03    -79.8405E-03     107.530E-03    -27.3499E-03     81.4557E-03
             237     17.5176E-03     3.18643E-03    -1.78940E+06     116.224E+06     88.0493E+06     9.37076E+06    -70.8092E-03     97.3582E-03    -26.5490E-03     85.3618E-03    -71.9395E-03     98.6406E-03    -26.2747E-03     84.6540E-03
             238     17.5255E-03     4.22408E-03     458.419E+03     127.024E+06     95.9485E+06     2.18210E+06    -67.7211E-03     93.8033E-03    -26.0822E-03     86.0819E-03    -69.0242E-03     95.2803E-03    -25.7873E-03     85.4218E-03
             239     17.5277E-03     5.26603E-03    -3.87214E+06     129.133E+06     98.2603E+06     41.1148E+03    -70.7759E-03     96.6351E-03    -25.8593E-03     76.7373E-03    -72.0904E-03     98.1096E-03    -25.5496E-03     76.0469E-03
             240     17.5259E-03     6.31270E-03    -4.67278E+06     129.513E+06     98.0429E+06     1.96570E+06    -69.3097E-03     95.2355E-03    -25.9259E-03     71.6933E-03    -70.6307E-03     96.7153E-03    -25.6167E-03     71.1473E-03
             241     17.5248E-03     7.35092E-03    -4.23107E+06     130.154E+06     96.9330E+06     1.45026E+06    -64.7880E-03     90.8586E-03    -26.0706E-03     70.5156E-03    -66.1241E-03     92.3599E-03    -25.7686E-03     70.1506E-03
             242     17.5259E-03     8.38512E-03    -1.41255E+06     133.466E+06     99.0333E+06    -747.815E+03    -59.9430E-03     86.1252E-03    -26.1822E-03     68.4047E-03    -61.2629E-03     87.6265E-03    -25.8785E-03     68.2344E-03
             243     17.5253E-03     9.41755E-03     1.51109E+06     137.658E+06     102.160E+06    -353.516E+03    -56.2028E-03     82.4791E-03    -26.2763E-03     70.6310E-03    -57.5515E-03     84.0260E-03    -25.9673E-03     70.6487E-03
             244     17.5257E-03     10.4488E-03     1.24589E+06     138.551E+06     101.800E+06    -904.835E+03    -53.3263E-03     79.6673E-03    -26.3410E-03     73.7238E-03    -54.7280E-03     81.2703E-03    -26.0347E-03     73.8858E-03
             245     17.5259E-03     11.4728E-03    -1.83682E+06     137.248E+06     99.7502E+06    -1.91003E+06    -51.2134E-03     77.5864E-03    -26.3730E-03     75.2830E-03    -52.6649E-03     79.2293E-03    -26.0706E-03     75.5791E-03
             246     17.5264E-03     12.4984E-03    -1.90667E+06     137.803E+06     99.8487E+06     37.2698E+03    -48.9724E-03     75.3898E-03    -26.4173E-03     76.5523E-03    -50.4548E-03     77.0655E-03    -26.1152E-03     77.0180E-03
             247     17.5261E-03     13.5224E-03    -1.46489E+06     138.789E+06     100.220E+06     723.954E+03    -45.4322E-03     71.9298E-03    -26.4976E-03     80.4967E-03    -46.9739E-03     73.6687E-03    -26.1956E-03     81.1507E-03
             248     17.5269E-03     14.5390E-03    -2.40739E+06     138.723E+06     99.3811E+06     533.340E+03    -41.3716E-03     67.9338E-03    -26.5622E-03     81.1179E-03    -42.9334E-03     69.6912E-03    -26.2630E-03     81.9722E-03
             249     17.5279E-03     15.5487E-03    -2.09403E+06     139.623E+06     99.7113E+06     191.573E+03    -39.1955E-03     65.7688E-03    -26.5733E-03     79.1734E-03    -40.7437E-03     67.5159E-03    -26.2742E-03     80.1479E-03
             250     17.5279E-03     16.5614E-03    -2.96491E+06     139.294E+06     99.3132E+06     120.960E+03    -39.4855E-03     66.0286E-03    -26.5431E-03     79.7714E-03    -41.0520E-03     67.7913E-03    -26.2442E-03     80.7643E-03
             251     17.5285E-03     17.5791E-03    -2.61805E+06     140.062E+06     99.4697E+06     1.01125E+06    -36.9057E-03     63.4797E-03    -26.5740E-03     80.8524E-03    -38.4906E-03     65.2643E-03    -26.2760E-03     81.9891E-03
             252     17.5297E-03     18.5841E-03    -2.08497E+06     141.336E+06     99.9843E+06     57.4762E+03    -34.1615E-03     60.7650E-03    -26.6035E-03     80.1219E-03    -35.7485E-03     62.5562E-03    -26.3055E-03     81.3879E-03
             253     17.5294E-03     19.5861E-03    -3.40003E+06     140.529E+06     99.2408E+06    -302.729E+03    -36.4913E-03     63.0218E-03    -26.5305E-03     79.4097E-03    -38.0768E-03     64.8068E-03    -26.2331E-03     80.6042E-03
             254     17.5297E-03     20.6093E-03    -2.33553E+06     141.880E+06     100.471E+06     1.32101E+06    -34.4233E-03     60.9999E-03    -26.5766E-03     80.7910E-03    -36.0283E-03     62.8097E-03    -26.2766E-03     82.1051E-03
             255     17.5301E-03     21.6096E-03    -1.89885E+06     142.830E+06     100.247E+06     295.573E+03    -29.7516E-03     56.4088E-03    -26.6571E-03     80.7156E-03    -31.3642E-03     58.2312E-03    -26.3603E-03     82.2198E-03
             256     17.5313E-03     22.5995E-03    -4.03332E+06     141.352E+06     98.8342E+06    -964.408E+03    -33.9042E-03     60.4427E-03    -26.5385E-03     77.2801E-03    -35.4761E-03     62.2165E-03    -26.2435E-03     78.6246E-03
             257     17.5290E-03     23.6292E-03    -2.18288E+06     143.562E+06     100.802E+06     1.24696E+06    -33.3163E-03     59.8768E-03    -26.5605E-03     78.4535E-03    -34.9082E-03     61.6796E-03    -26.2615E-03     79.8507E-03
             258     17.5322E-03     24.6263E-03    -2.17995E+06     144.176E+06     100.600E+06     128.411E+03    -27.5927E-03     54.2771E-03    -26.6844E-03     82.0482E-03    -29.2405E-03     56.1382E-03    -26.3873E-03     83.6967E-03
             259     17.5296E-03     25.6161E-03    -2.65441E+06     143.926E+06     100.660E+06    -957.764E+03    -29.8957E-03     56.4982E-03    -26.6025E-03     76.1949E-03    -31.4638E-03     58.2766E-03    -26.3040E-03     77.7202E-03
             260     17.5331E-03     26.6320E-03    -3.64346E+06     144.259E+06     100.461E+06    -35.3629E+03    -32.4957E-03     59.0275E-03    -26.5317E-03     79.1091E-03    -34.1138E-03     60.8538E-03    -26.2333E-03     80.5809E-03
             261     17.5293E-03     27.6431E-03    -3.48373E+06     145.591E+06     100.915E+06     937.278E+03    -28.9642E-03     55.5943E-03    -26.6301E-03     85.3978E-03    -30.6806E-03     57.5230E-03    -26.3316E-03     87.0740E-03
             262     17.5331E-03     28.6373E-03    -2.32066E+06     146.812E+06     101.831E+06     1.26584E+06    -26.3980E-03     53.0861E-03    -26.6881E-03     85.8042E-03    -28.1105E-03     55.0171E-03    -26.3885E-03     87.5930E-03
             263     17.5298E-03     29.6353E-03    -1.39273E+06     147.718E+06     102.902E+06     344.321E+03    -27.0387E-03     53.6988E-03    -26.6601E-03     80.9777E-03    -28.6803E-03     55.5623E-03    -26.3578E-03     82.6849E-03
             264     17.5333E-03     30.6385E-03    -2.24985E+06     147.245E+06     102.205E+06    -364.251E+03    -27.5314E-03     54.1610E-03    -26.6295E-03     80.9447E-03    -29.1779E-03     56.0267E-03    -26.3287E-03     82.6348E-03
             265     17.5307E-03     31.6367E-03    -2.56832E+06     147.393E+06     102.331E+06     134.047E+03    -28.0853E-03     54.6948E-03    -26.6096E-03     81.6409E-03    -29.7445E-03     56.5725E-03    -26.3079E-03     83.3323E-03
             266     17.5329E-03     32.6458E-03    -3.21878E+06     147.485E+06     101.815E+06     47.2097E+03    -27.2489E-03     53.8817E-03    -26.6328E-03     83.0111E-03    -28.9399E-03     55.7905E-03    -26.3329E-03     84.7524E-03
             267     17.5310E-03     33.6381E-03    -3.20816E+06     147.806E+06     102.169E+06     453.526E+03    -26.8725E-03     53.5261E-03    -26.6535E-03     83.8800E-03    -28.5721E-03     55.4434E-03    -26.3524E-03     85.6577E-03
             268     17.5320E-03     34.6464E-03    -1.28356E+06     149.302E+06     103.214E+06     329.695E+03    -25.5542E-03     52.2311E-03    -26.6770E-03     79.0525E-03    -27.1792E-03     54.0829E-03    -26.3755E-03     80.8196E-03
             269     17.5324E-03     35.6295E-03    -3.86559E+06     147.422E+06     101.323E+06    -1.64076E+06    -27.4297E-03     54.0494E-03    -26.6197E-03     77.5969E-03    -29.0420E-03     55.8780E-03    -26.3212E-03     79.2824E-03
             270     17.5310E-03     36.6459E-03    -3.09822E+06     148.426E+06     102.585E+06    -147.077E+03    -28.5689E-03     55.1679E-03    -26.5990E-03     77.2493E-03    -30.1784E-03     56.9962E-03    -26.2968E-03     78.8999E-03
             271     17.5330E-03     37.6459E-03    -3.35070E+06     148.638E+06     102.363E+06     244.545E+03    -25.6328E-03     52.3060E-03    -26.6732E-03     83.5734E-03    -27.3326E-03     54.2250E-03    -26.3720E-03     85.3989E-03
             272     17.5307E-03     38.6411E-03    -2.07466E+06     149.725E+06     103.304E+06     220.573E+03    -25.4463E-03     52.1157E-03    -26.6694E-03     81.8620E-03    -27.1182E-03     54.0123E-03    -26.3670E-03     83.6777E-03
             273     17.5339E-03     39.6410E-03    -2.30369E+06     149.899E+06     103.271E+06    -33.9336E+03    -27.1752E-03     53.7997E-03    -26.6245E-03     83.7810E-03    -28.8730E-03     55.7222E-03    -26.3221E-03     85.5495E-03
             274     17.5300E-03     40.6497E-03    -2.04523E+06     150.911E+06     103.937E+06     1.23699E+06    -25.8347E-03     52.5087E-03    -26.6740E-03     86.1796E-03    -27.5715E-03     54.4733E-03    -26.3701E-03     88.0270E-03
             275     17.5338E-03     41.6428E-03    -2.13400E+06     150.880E+06     103.525E+06     316.074E+03    -23.5126E-03     50.2327E-03    -26.7202E-03     84.8854E-03    -25.2294E-03     52.1786E-03    -26.4182E-03     86.8032E-03
             276     17.5307E-03     42.6314E-03    -2.27833E+06     150.571E+06     103.737E+06    -861.315E+03    -26.1729E-03     52.8127E-03    -26.6398E-03     79.8873E-03    -27.8176E-03     54.6841E-03    -26.3362E-03     81.6538E-03
             277     17.5338E-03     43.6435E-03    -3.56971E+06     149.712E+06     102.700E+06    -522.063E+03    -28.1080E-03     54.7004E-03    -26.5924E-03     81.8934E-03    -29.7891E-03     56.6029E-03    -26.2908E-03     83.6045E-03
             278     17.5306E-03     44.6431E-03    -3.83609E+06     149.920E+06     102.759E+06     453.593E+03    -26.2656E-03     52.9205E-03    -26.6549E-03     84.8253E-03    -27.9923E-03     54.8683E-03    -26.3529E-03     86.6482E-03
             279     17.5330E-03     45.6419E-03    -2.11086E+06     151.575E+06     103.939E+06     1.00449E+06    -24.3952E-03     51.0914E-03    -26.6962E-03     83.1761E-03    -26.0897E-03     53.0159E-03    -26.3932E-03     85.0533E-03
             280     17.5318E-03     46.6330E-03    -2.42129E+06     151.431E+06     103.791E+06    -289.661E+03    -25.5718E-03     52.2318E-03    -26.6600E-03     81.7091E-03    -27.2401E-03     54.1287E-03    -26.3571E-03     83.5138E-03
             281     17.5321E-03     47.6423E-03    -2.27895E+06     151.822E+06     104.046E+06    -179.627E+03    -25.6863E-03     52.3463E-03    -26.6599E-03     80.2086E-03    -27.3393E-03     54.2287E-03    -26.3566E-03     81.9873E-03
             282     17.5324E-03     48.6309E-03    -3.26692E+06     151.066E+06     103.185E+06    -794.096E+03    -26.4898E-03     53.1261E-03    -26.6363E-03     80.0930E-03    -28.1446E-03     55.0066E-03    -26.3347E-03     81.8468E-03
             283     17.5316E-03     49.6379E-03    -2.48609E+06     151.807E+06     103.910E+06    -770.317E+03    -27.1309E-03     53.7480E-03    -26.6170E-03     77.5425E-03    -28.7495E-03     55.5954E-03    -26.3140E-03     79.2463E-03
             284     17.5331E-03     50.6380E-03    -3.79851E+06     151.657E+06     103.276E+06     149.149E+03    -26.3114E-03     52.9536E-03    -26.6422E-03     84.3709E-03    -28.0302E-03     54.8979E-03    -26.3403E-03     86.1881E-03
             285     17.5309E-03     51.6425E-03    -2.03690E+06     153.574E+06     104.494E+06     1.35712E+06    -25.2630E-03     51.9360E-03    -26.6730E-03     85.1339E-03    -26.9895E-03     53.8977E-03    -26.3702E-03     86.9999E-03
             286     17.5336E-03     52.6344E-03    -2.34093E+06     153.492E+06     104.140E+06    -219.039E+03    -25.0550E-03     51.7320E-03    -26.6770E-03     85.1872E-03    -26.7826E-03     53.6947E-03    -26.3754E-03     87.0479E-03
             287     17.5304E-03     53.6367E-03    -2.85771E+06     153.161E+06     104.242E+06     376.166E+03    -25.7951E-03     52.4650E-03    -26.6699E-03     84.0900E-03    -27.5077E-03     54.4096E-03    -26.3666E-03     85.9165E-03
             288     17.5333E-03     54.6376E-03    -2.53164E+06     153.382E+06     104.153E+06     672.672E+03    -24.2725E-03     50.9734E-03    -26.7009E-03     82.4108E-03    -25.9598E-03     52.8951E-03    -26.3989E-03     84.2788E-03
             289     17.5310E-03     55.6240E-03    -2.89696E+06     153.066E+06     103.980E+06    -1.81359E+06    -26.0045E-03     52.6461E-03    -26.6416E-03     78.5123E-03    -27.6403E-03     54.5140E-03    -26.3395E-03     80.2628E-03
             290     17.5336E-03     56.6327E-03    -3.68125E+06     152.623E+06     103.829E+06    -150.607E+03    -29.0172E-03     55.5955E-03    -26.5783E-03     80.8444E-03    -30.6886E-03     57.4949E-03    -26.2752E-03     82.5253E-03
             291     17.5301E-03     57.6441E-03    -1.82555E+06     155.103E+06     104.933E+06     2.36678E+06    -25.3429E-03     52.0250E-03    -26.6820E-03     86.7650E-03    -27.0973E-03     54.0200E-03    -26.3796E-03     88.6517E-03
             292     876.269E-06     58.4834E-03    -22.8271E+06    -112.606E+06    -22.4131E+06     85.7634E+03    -26.7178E-03     53.4183E-03    -26.7005E-03     5.66969E-03    -26.6363E-03     52.9211E-03    -26.6162E-03     5.66804E-03
             293     1.75280E-03     58.4910E-03    -22.3080E+06    -112.615E+06    -20.8396E+06     240.763E+03    -26.7295E-03     53.4415E-03    -26.7120E-03     10.4614E-03    -26.6479E-03     52.9414E-03    -26.6206E-03     10.4592E-03
             294     2.62899E-03     58.5032E-03    -21.4815E+06    -111.387E+06    -18.3833E+06     328.586E+03    -26.7507E-03     53.4692E-03    -26.7185E-03     15.5278E-03    -26.6709E-03     52.9711E-03    -26.6177E-03     15.5240E-03
             295     3.50553E-03     58.5205E-03    -20.3840E+06    -109.093E+06    -15.2281E+06     365.305E+03    -26.7827E-03     53.5074E-03    -26.7247E-03     20.6705E-03    -26.7061E-03     53.0153E-03    -26.6131E-03     20.6637E-03
             296     4.38178E-03     58.5425E-03    -19.0814E+06    -106.629E+06    -11.4249E+06     510.267E+03    -26.8281E-03     53.5606E-03    -26.7325E-03     25.8609E-03    -26.7554E-03     53.0748E-03    -26.6074E-03     25.8518E-03
             297     5.25830E-03     58.5697E-03    -17.4535E+06    -104.163E+06    -6.82647E+06     712.630E+03    -26.8828E-03     53.6258E-03    -26.7430E-03     31.0591E-03    -26.8141E-03     53.1451E-03    -26.6008E-03     31.0476E-03
             298     6.13461E-03     58.6015E-03    -15.8336E+06    -101.870E+06    -2.49735E+06     617.264E+03    -26.9438E-03     53.6949E-03    -26.7510E-03     36.2265E-03    -26.8793E-03     53.2197E-03    -26.5929E-03     36.2073E-03
             299     7.01118E-03     58.6385E-03    -14.1491E+06    -99.7713E+06     1.14244E+06     559.773E+03    -27.0274E-03     53.7823E-03    -26.7549E-03     41.4376E-03    -26.9667E-03     53.3138E-03    -26.5840E-03     41.4097E-03
             300     7.88749E-03     58.6804E-03    -12.2160E+06    -96.4262E+06     3.62239E+06     562.745E+03    -27.1115E-03     53.8617E-03    -26.7501E-03     46.5100E-03    -27.0551E-03     53.4091E-03    -26.5745E-03     46.4723E-03
             301     8.76404E-03     58.7268E-03    -10.6530E+06    -91.3987E+06     4.45789E+06     672.426E+03    -27.1870E-03     53.9204E-03    -26.7334E-03     51.5659E-03    -27.1393E-03     53.4975E-03    -26.5631E-03     51.5175E-03
             302     9.64080E-03     58.7782E-03    -9.43714E+06    -85.9377E+06     4.22245E+06     749.413E+03    -27.3126E-03     54.0237E-03    -26.7110E-03     56.4678E-03    -27.2779E-03     53.6381E-03    -26.5516E-03     56.4052E-03
             303     10.5168E-03     58.8343E-03    -8.38680E+06    -78.9776E+06     1.90875E+06     710.498E+03    -27.4272E-03     54.1049E-03    -26.6777E-03     61.1809E-03    -27.4105E-03     53.7726E-03    -26.5415E-03     61.0994E-03
             304     11.3941E-03     58.8940E-03    -7.71775E+06    -66.6162E+06     1.43176E+06     655.852E+03    -27.5210E-03     54.1659E-03    -26.6450E-03     67.0149E-03    -27.5438E-03     53.9207E-03    -26.5300E-03     66.9105E-03
             305     12.2698E-03     58.9615E-03    -6.83554E+06    -53.3549E+06     208.092E+03     711.945E+03    -27.7378E-03     54.3437E-03    -26.6058E-03     74.4968E-03    -27.8162E-03     54.2078E-03    -26.5175E-03     74.3655E-03
             306     13.1473E-03     59.0358E-03    -6.51814E+06    -39.1254E+06    -5.63720E+06     696.647E+03    -27.8175E-03     54.3611E-03    -26.5437E-03     79.0199E-03    -27.9689E-03     54.3668E-03    -26.5057E-03     78.8577E-03
             307     14.0229E-03     59.1110E-03    -6.95569E+06    -7.10564E+06    -9.97112E+06     751.435E+03    -28.1554E-03     54.6206E-03    -26.4651E-03     89.7435E-03    -28.4779E-03     54.9220E-03    -26.4946E-03     89.5552E-03
             308     14.9006E-03     59.2064E-03    -7.65681E+06     49.5433E+06    -17.6304E+06     1.29591E+06    -29.7162E-03     56.0518E-03    -26.3355E-03     125.308E-03    -30.6249E-03     57.1603E-03    -26.4844E-03     125.143E-03
             309     15.7750E-03     59.3486E-03    -7.20732E+06     114.086E+06     4.08338E+06     812.738E+03    -31.4467E-03     57.7646E-03    -26.3179E-03     181.464E-03    -34.5239E-03     61.2086E-03    -26.4525E-03     182.023E-03
             310     16.6661E-03     59.5532E-03    -4.25129E+06     150.178E+06     68.8121E+06    -400.953E+03    -28.8271E-03     55.3512E-03    -26.5241E-03     147.285E-03    -32.0629E-03     58.9056E-03    -26.3917E-03     148.815E-03
             311     876.435E-06     59.4833E-03    -23.2431E+06    -112.626E+06    -22.9096E+06     148.061E+03    -26.7082E-03     53.4142E-03    -26.7060E-03     5.67888E-03    -26.6280E-03     52.9182E-03    -26.6235E-03     5.67804E-03
             312     1.75263E-03     59.4907E-03    -22.7010E+06    -112.787E+06    -21.2718E+06     211.137E+03    -26.7274E-03     53.4375E-03    -26.7101E-03     10.4577E-03    -26.6469E-03     52.9377E-03    -26.6200E-03     10.4552E-03
             313     2.62916E-03     59.5032E-03    -21.7385E+06    -111.370E+06    -18.6302E+06     312.749E+03    -26.7519E-03     53.4692E-03    -26.7173E-03     15.5299E-03    -26.6730E-03     52.9718E-03    -26.6175E-03     15.5258E-03
             314     3.50538E-03     59.5202E-03    -20.5229E+06    -109.179E+06    -15.2705E+06     379.626E+03    -26.7870E-03     53.5124E-03    -26.7254E-03     20.6758E-03    -26.7109E-03     53.0202E-03    -26.6137E-03     20.6692E-03
             315     4.38189E-03     59.5424E-03    -19.0906E+06    -106.870E+06    -11.2887E+06     581.184E+03    -26.8255E-03     53.5598E-03    -26.7344E-03     25.8669E-03    -26.7526E-03     53.0725E-03    -26.6082E-03     25.8588E-03
             316     5.25819E-03     59.5693E-03    -17.5069E+06    -104.302E+06    -7.00340E+06     699.996E+03    -26.8755E-03     53.6177E-03    -26.7422E-03     31.0663E-03    -26.8065E-03     53.1366E-03    -26.6006E-03     31.0546E-03
             317     6.13473E-03     59.6014E-03    -15.6184E+06    -101.684E+06    -2.34877E+06     816.559E+03    -26.9692E-03     53.7212E-03    -26.7520E-03     36.2742E-03    -26.9041E-03     53.2465E-03    -26.5937E-03     36.2576E-03
             318     7.01096E-03     59.6381E-03    -13.8734E+06    -99.5386E+06     1.50654E+06     768.295E+03    -27.0204E-03     53.7782E-03    -26.7578E-03     41.4444E-03    -26.9591E-03     53.3099E-03    -26.5859E-03     41.4193E-03
             319     7.88765E-03     59.6801E-03    -12.2785E+06    -96.6096E+06     3.52548E+06     614.042E+03    -27.0764E-03     53.8256E-03    -26.7493E-03     46.5387E-03    -27.0198E-03     53.3723E-03    -26.5738E-03     46.5018E-03
             320     8.76416E-03     59.7264E-03    -10.5224E+06    -91.2150E+06     4.76970E+06     724.353E+03    -27.2141E-03     53.9473E-03    -26.7332E-03     51.5928E-03    -27.1664E-03     53.5247E-03    -26.5619E-03     51.5450E-03
             321     9.64029E-03     59.7781E-03    -9.27958E+06    -85.7763E+06     4.51480E+06     804.449E+03    -27.2720E-03     53.9823E-03    -26.7104E-03     56.4672E-03    -27.2370E-03     53.5968E-03    -26.5499E-03     56.4056E-03
             322     10.5176E-03     59.8335E-03    -8.38238E+06    -79.0829E+06     1.96888E+06     707.845E+03    -27.4096E-03     54.0837E-03    -26.6741E-03     61.2345E-03    -27.3928E-03     53.7507E-03    -26.5374E-03     61.1531E-03
             323     11.3932E-03     59.8942E-03    -7.46268E+06    -66.4724E+06     1.68705E+06     708.655E+03    -27.5860E-03     54.2294E-03    -26.6435E-03     67.0337E-03    -27.6082E-03     53.9843E-03    -26.5278E-03     66.9297E-03
             324     12.2706E-03     59.9606E-03    -6.89306E+06    -53.3990E+06     237.795E+03     651.986E+03    -27.6739E-03     54.2779E-03    -26.6041E-03     74.6161E-03    -27.7524E-03     54.1417E-03    -26.5155E-03     74.4845E-03
             325     13.1466E-03     60.0355E-03    -6.63227E+06    -38.8645E+06    -5.24664E+06     720.730E+03    -27.7265E-03     54.2646E-03    -26.5380E-03     79.1785E-03    -27.8795E-03     54.2713E-03    -26.4983E-03     79.0170E-03
             326     14.0240E-03     60.1108E-03    -6.69014E+06    -7.31582E+06    -9.83626E+06     824.849E+03    -27.9883E-03     54.4385E-03    -26.4502E-03     90.0570E-03    -28.3102E-03     54.7391E-03    -26.4791E-03     89.8712E-03
             327     14.8999E-03     60.2056E-03    -6.17737E+06     49.2391E+06    -16.8341E+06     848.957E+03    -29.0075E-03     55.3052E-03    -26.2977E-03     125.155E-03    -29.9067E-03     56.4061E-03    -26.4444E-03     125.001E-03
             328     15.7802E-03     60.3480E-03    -5.59192E+06     115.674E+06     7.44364E+06     548.202E+03    -31.0049E-03     57.2685E-03    -26.2636E-03     179.897E-03    -34.0411E-03     60.6733E-03    -26.3860E-03     180.456E-03
             329     16.6461E-03     60.5459E-03    -4.53440E+06     150.885E+06     70.3192E+06     30.8308E+03    -29.5120E-03     55.9908E-03    -26.4788E-03     146.414E-03    -32.7214E-03     59.5158E-03    -26.3394E-03     147.916E-03
             330     876.294E-06     60.4829E-03    -23.0420E+06    -112.672E+06    -22.6486E+06     99.9241E+03    -26.7004E-03     53.4115E-03    -26.7111E-03     5.68088E-03    -26.6195E-03     52.9145E-03    -26.6276E-03     5.67943E-03
             331     1.75279E-03     60.4906E-03    -22.4702E+06    -112.874E+06    -20.8742E+06     220.019E+03    -26.7273E-03     53.4371E-03    -26.7099E-03     10.4610E-03    -26.6461E-03     52.9360E-03    -26.6180E-03     10.4586E-03
             332     2.62901E-03     60.5028E-03    -21.6329E+06    -111.497E+06    -18.4178E+06     328.863E+03    -26.7503E-03     53.4670E-03    -26.7167E-03     15.5330E-03    -26.6711E-03     52.9685E-03    -26.6157E-03     15.5292E-03
             333     3.50552E-03     60.5202E-03    -20.5398E+06    -109.223E+06    -15.1014E+06     428.019E+03    -26.7811E-03     53.5052E-03    -26.7241E-03     20.6841E-03    -26.7053E-03     53.0126E-03    -26.6115E-03     20.6781E-03
             334     4.38179E-03     60.5420E-03    -19.1217E+06    -107.095E+06    -11.3380E+06     543.687E+03    -26.8212E-03     53.5529E-03    -26.7317E-03     25.8635E-03    -26.7481E-03     53.0646E-03    -26.6053E-03     25.8549E-03
             335     5.25831E-03     60.5693E-03    -17.4090E+06    -104.389E+06    -7.08855E+06     707.461E+03    -26.8756E-03     53.6145E-03    -26.7389E-03     31.0715E-03    -26.8058E-03     53.1330E-03    -26.5978E-03     31.0599E-03
             336     6.13464E-03     60.6010E-03    -15.7271E+06    -101.893E+06    -2.66215E+06     832.833E+03    -26.9370E-03     53.6832E-03    -26.7462E-03     36.3178E-03    -26.8716E-03     53.2080E-03    -26.5890E-03     36.3015E-03
             337     7.01121E-03     60.6382E-03    -13.8347E+06    -99.3327E+06     1.51838E+06     956.121E+03    -27.0161E-03     53.7671E-03    -26.7510E-03     41.4319E-03    -26.9549E-03     53.2997E-03    -26.5793E-03     41.4092E-03
             338     7.88759E-03     60.6794E-03    -12.1219E+06    -96.0584E+06     3.96700E+06     778.417E+03    -27.1153E-03     53.8618E-03    -26.7465E-03     46.5361E-03    -27.0595E-03     53.4104E-03    -26.5698E-03     46.5011E-03
             339     8.76403E-03     60.7266E-03    -10.6263E+06    -91.1935E+06     4.86753E+06     835.041E+03    -27.1633E-03     53.8933E-03    -26.7300E-03     51.5687E-03    -27.1163E-03     53.4707E-03    -26.5580E-03     51.5225E-03
             340     9.64095E-03     60.7773E-03    -9.22171E+06    -86.1359E+06     4.46908E+06     827.495E+03    -27.2548E-03     53.9587E-03    -26.7039E-03     56.4505E-03    -27.2189E-03     53.5714E-03    -26.5433E-03     56.3892E-03
             341     10.5168E-03     60.8335E-03    -8.26318E+06    -78.9008E+06     2.02019E+06     729.263E+03    -27.3997E-03     54.0661E-03    -26.6664E-03     61.3939E-03    -27.3826E-03     53.7338E-03    -26.5300E-03     61.3129E-03
             342     11.3942E-03     60.8937E-03    -7.64424E+06    -66.1365E+06     1.77058E+06     720.209E+03    -27.5228E-03     54.1567E-03    -26.6338E-03     67.0904E-03    -27.5466E-03     53.9134E-03    -26.5180E-03     66.9868E-03
             343     12.2701E-03     60.9603E-03    -7.07718E+06    -53.4903E+06     126.315E+03     802.207E+03    -27.6680E-03     54.2604E-03    -26.5924E-03     74.5483E-03    -27.7473E-03     54.1243E-03    -26.5039E-03     74.4186E-03
             344     13.1475E-03     61.0349E-03    -6.77526E+06    -38.8190E+06    -5.44779E+06     621.865E+03    -27.7011E-03     54.2266E-03    -26.5255E-03     79.1682E-03    -27.8550E-03     54.2344E-03    -26.4866E-03     79.0056E-03
             345     14.0237E-03     61.1102E-03    -6.50670E+06    -7.06749E+06    -9.39062E+06     467.961E+03    -27.8247E-03     54.2605E-03    -26.4358E-03     89.6082E-03    -28.1453E-03     54.5602E-03    -26.4631E-03     89.4200E-03
             346     14.9017E-03     61.2050E-03    -6.81682E+06     49.6687E+06    -17.0813E+06     168.542E+03    -29.0524E-03     55.3337E-03    -26.2813E-03     123.836E-03    -29.9468E-03     56.4297E-03    -26.4288E-03     123.671E-03
             347     15.7772E-03     61.3450E-03    -6.77387E+06     115.705E+06     5.95078E+06     205.730E+03    -31.5757E-03     57.8410E-03    -26.2652E-03     178.656E-03    -34.6076E-03     61.2418E-03    -26.3934E-03     179.174E-03
             348     16.6649E-03     61.5520E-03    -4.65834E+06     151.250E+06     70.0306E+06     568.216E+03    -29.5061E-03     56.0093E-03    -26.5033E-03     146.310E-03    -32.7188E-03     59.5393E-03    -26.3657E-03     147.805E-03
             349     876.409E-06     61.4829E-03    -23.1565E+06    -112.815E+06    -22.6754E+06     140.093E+03    -26.7016E-03     53.4068E-03    -26.7053E-03     5.68013E-03    -26.6210E-03     52.9094E-03    -26.6215E-03     5.67918E-03
             350     1.75267E-03     61.4903E-03    -22.5519E+06    -112.984E+06    -20.8889E+06     307.586E+03    -26.7211E-03     53.4282E-03    -26.7071E-03     10.4616E-03    -26.6402E-03     52.9267E-03    -26.6150E-03     10.4604E-03
             351     2.62915E-03     61.5028E-03    -21.6218E+06    -111.633E+06    -18.2078E+06     410.258E+03    -26.7447E-03     53.4586E-03    -26.7139E-03     15.5349E-03    -26.6655E-03     52.9591E-03    -26.6117E-03     15.5321E-03
             352     3.50542E-03     61.5197E-03    -20.4702E+06    -109.383E+06    -14.9961E+06     599.298E+03    -26.7728E-03     53.4927E-03    -26.7200E-03     20.6796E-03    -26.6965E-03     52.9990E-03    -26.6067E-03     20.6758E-03
             353     4.38192E-03     61.5420E-03    -19.1565E+06    -107.035E+06    -11.2953E+06     600.748E+03    -26.8146E-03     53.5411E-03    -26.7265E-03     25.8599E-03    -26.7418E-03     53.0531E-03    -26.6000E-03     25.8521E-03
             354     5.25825E-03     61.5687E-03    -17.6048E+06    -104.633E+06    -7.34217E+06     655.207E+03    -26.8671E-03     53.5997E-03    -26.7326E-03     31.0827E-03    -26.7976E-03     53.1176E-03    -26.5921E-03     31.0705E-03
             355     6.13475E-03     61.6011E-03    -15.7843E+06    -101.980E+06    -2.73622E+06     871.790E+03    -26.9108E-03     53.6497E-03    -26.7389E-03     36.2731E-03    -26.8455E-03     53.1742E-03    -26.5818E-03     36.2574E-03
             356     7.01124E-03     61.6374E-03    -13.8791E+06    -99.5135E+06     1.39629E+06     890.801E+03    -27.0179E-03     53.7607E-03    -26.7428E-03     41.4438E-03    -26.9565E-03     53.2927E-03    -26.5714E-03     41.4203E-03
             357     7.88763E-03     61.6798E-03    -12.0636E+06    -95.5967E+06     4.03088E+06     995.361E+03    -27.1268E-03     53.8665E-03    -26.7398E-03     46.5250E-03    -27.0714E-03     53.4173E-03    -26.5635E-03     46.4929E-03
             358     8.76419E-03     61.7256E-03    -10.6286E+06    -91.5505E+06     4.80167E+06     857.467E+03    -27.1334E-03     53.8573E-03    -26.7239E-03     51.4553E-03    -27.0858E-03     53.4330E-03    -26.5517E-03     51.4094E-03
             359     9.64057E-03     61.7773E-03    -9.11986E+06    -86.0004E+06     4.42834E+06     913.516E+03    -27.2226E-03     53.9174E-03    -26.6948E-03     56.5050E-03    -27.1863E-03     53.5306E-03    -26.5348E-03     56.4451E-03
             360     10.5177E-03     61.8328E-03    -8.07163E+06    -78.3742E+06     2.31354E+06     949.567E+03    -27.3844E-03     54.0414E-03    -26.6570E-03     61.3590E-03    -27.3675E-03     53.7109E-03    -26.5201E-03     61.2809E-03
             361     11.3937E-03     61.8934E-03    -7.59842E+06    -66.3766E+06     1.60182E+06     780.621E+03    -27.4933E-03     54.1159E-03    -26.6226E-03     66.9804E-03    -27.5161E-03     53.8714E-03    -26.5073E-03     66.8777E-03
             362     12.2709E-03     61.9599E-03    -6.97503E+06    -53.0697E+06     107.817E+03     685.512E+03    -27.6932E-03     54.2749E-03    -26.5817E-03     74.3711E-03    -27.7724E-03     54.1407E-03    -26.4941E-03     74.2397E-03
             363     13.1470E-03     62.0343E-03    -6.61517E+06    -38.6194E+06    -5.42655E+06     661.020E+03    -27.7238E-03     54.2419E-03    -26.5181E-03     78.9660E-03    -27.8769E-03     54.2501E-03    -26.4796E-03     78.8039E-03
             364     14.0240E-03     62.1100E-03    -6.77852E+06    -6.56782E+06    -9.53808E+06     251.675E+03    -27.9258E-03     54.3585E-03    -26.4328E-03     89.2608E-03    -28.2473E-03     54.6603E-03    -26.4611E-03     89.0690E-03
             365     14.9004E-03     62.2032E-03    -7.08677E+06     49.8337E+06    -17.2605E+06     246.480E+03    -29.5059E-03     55.8012E-03    -26.2953E-03     123.700E-03    -30.4027E-03     56.8999E-03    -26.4436E-03     123.526E-03
             366     15.7778E-03     62.3465E-03    -7.37951E+06     115.468E+06     5.67182E+06     447.118E+03    -31.9687E-03     58.2706E-03    -26.3019E-03     179.192E-03    -35.0271E-03     61.6957E-03    -26.4303E-03     179.710E-03
             367     16.6442E-03     62.5449E-03    -5.08463E+06     151.456E+06     69.8326E+06     143.756E+03    -29.0962E-03     55.6330E-03    -26.5367E-03     146.477E-03    -32.3308E-03     59.1846E-03    -26.3998E-03     147.984E-03
             368     876.332E-06     62.4825E-03    -23.4401E+06    -113.064E+06    -23.0245E+06     187.737E+03    -26.7000E-03     53.3971E-03    -26.6971E-03     5.66713E-03    -26.6200E-03     52.8993E-03    -26.6143E-03     5.66679E-03
             369     1.75276E-03     62.4902E-03    -22.8576E+06    -113.110E+06    -21.2775E+06     340.580E+03    -26.7138E-03     53.4150E-03    -26.7011E-03     10.4633E-03    -26.6337E-03     52.9138E-03    -26.6104E-03     10.4625E-03
             370     2.62907E-03     62.5023E-03    -21.9503E+06    -111.777E+06    -18.6079E+06     477.810E+03    -26.7345E-03     53.4414E-03    -26.7069E-03     15.5307E-03    -26.6562E-03     52.9423E-03    -26.6060E-03     15.5288E-03
             371     3.50553E-03     62.5197E-03    -20.7023E+06    -109.593E+06    -15.3309E+06     613.262E+03    -26.7642E-03     53.4767E-03    -26.7125E-03     20.6731E-03    -26.6884E-03     52.9828E-03    -26.6002E-03     20.6695E-03
             372     4.38188E-03     62.5415E-03    -19.2448E+06    -107.058E+06    -11.3259E+06     758.422E+03    -26.8057E-03     53.5254E-03    -26.7196E-03     25.8571E-03    -26.7333E-03     53.0374E-03    -26.5931E-03     25.8513E-03
             373     5.25835E-03     62.5688E-03    -17.6882E+06    -104.617E+06    -7.03569E+06     720.978E+03    -26.8529E-03     53.5797E-03    -26.7268E-03     31.0551E-03    -26.7843E-03     53.0973E-03    -26.5846E-03     31.0437E-03
             374     6.13479E-03     62.6003E-03    -15.8566E+06    -102.130E+06    -2.94572E+06     722.213E+03    -26.9244E-03     53.6561E-03    -26.7317E-03     36.2442E-03    -26.8589E-03     53.1803E-03    -26.5753E-03     36.2265E-03
             375     7.01120E-03     62.6376E-03    -13.9617E+06    -99.5370E+06     1.25493E+06     930.643E+03    -26.9998E-03     53.7363E-03    -26.7365E-03     41.4585E-03    -26.9386E-03     53.2685E-03    -26.5656E-03     41.4356E-03
             376     7.88777E-03     62.6790E-03    -12.1856E+06    -95.9846E+06     3.70249E+06     1.01271E+06    -27.0615E-03     53.7907E-03    -26.7292E-03     46.5088E-03    -27.0056E-03     53.3401E-03    -26.5539E-03     46.4772E-03
             377     8.76418E-03     62.7258E-03    -10.3572E+06    -90.9883E+06     5.03441E+06     939.882E+03    -27.1568E-03     53.8697E-03    -26.7128E-03     51.4223E-03    -27.1090E-03     53.4475E-03    -26.5407E-03     51.3774E-03
             378     9.64103E-03     62.7762E-03    -8.88592E+06    -85.8468E+06     4.70859E+06     875.032E+03    -27.2698E-03     53.9587E-03    -26.6889E-03     56.4784E-03    -27.2331E-03     53.5720E-03    -26.5280E-03     56.4176E-03
             379     10.5171E-03     62.8330E-03    -7.96882E+06    -78.7078E+06     2.08516E+06     978.554E+03    -27.3854E-03     54.0376E-03    -26.6522E-03     61.2486E-03    -27.3671E-03     53.7055E-03    -26.5161E-03     61.1709E-03
             380     11.3942E-03     62.8926E-03    -7.02235E+06    -65.8743E+06     1.99161E+06     877.013E+03    -27.4871E-03     54.1064E-03    -26.6193E-03     66.8202E-03    -27.5081E-03     53.8629E-03    -26.5037E-03     66.7189E-03
             381     12.2704E-03     62.9597E-03    -6.63328E+06    -53.0003E+06     251.301E+03     806.518E+03    -27.6596E-03     54.2368E-03    -26.5771E-03     74.3881E-03    -27.7373E-03     54.1020E-03    -26.4894E-03     74.2587E-03
             382     13.1473E-03     63.0339E-03    -6.73564E+06    -38.3585E+06    -5.33833E+06     766.794E+03    -27.7254E-03     54.2382E-03    -26.5128E-03     78.8972E-03    -27.8788E-03     54.2469E-03    -26.4741E-03     78.7369E-03
             383     14.0241E-03     63.1088E-03    -6.80438E+06    -5.71869E+06    -9.28788E+06     524.852E+03    -27.9974E-03     54.4270E-03    -26.4296E-03     89.5056E-03    -28.3206E-03     54.7327E-03    -26.4579E-03     89.3166E-03
             384     14.9006E-03     63.2041E-03    -7.54333E+06     49.6483E+06    -17.0996E+06     43.1244E+03    -29.6736E-03     55.9728E-03    -26.2992E-03     124.568E-03    -30.5794E-03     57.0776E-03    -26.4457E-03     124.389E-03
             385     15.7767E-03     63.3446E-03    -6.67759E+06     115.522E+06     5.65843E+06     236.621E+03    -31.7350E-03     58.0330E-03    -26.2981E-03     179.838E-03    -34.7900E-03     61.4577E-03    -26.4276E-03     180.369E-03
             386     16.6637E-03     63.5512E-03    -4.18716E+06     152.283E+06     69.7426E+06     483.908E+03    -29.1064E-03     55.6287E-03    -26.5223E-03     147.025E-03    -32.3346E-03     59.1804E-03    -26.3883E-03     148.548E-03
             387     876.375E-06     63.4824E-03    -23.3584E+06    -113.319E+06    -22.9761E+06     163.942E+03    -26.6941E-03     53.3839E-03    -26.6898E-03     5.67108E-03    -26.6134E-03     52.8847E-03    -26.6065E-03     5.67043E-03
             388     1.75274E-03     63.4898E-03    -22.8243E+06    -113.304E+06    -21.3958E+06     342.620E+03    -26.7091E-03     53.4031E-03    -26.6940E-03     10.4602E-03    -26.6283E-03     52.9011E-03    -26.6036E-03     10.4594E-03
             389     2.62913E-03     63.5023E-03    -21.9407E+06    -111.925E+06    -18.8451E+06     472.331E+03    -26.7268E-03     53.4261E-03    -26.6992E-03     15.5235E-03    -26.6479E-03     52.9265E-03    -26.5994E-03     15.5215E-03
             390     3.50552E-03     63.5192E-03    -20.7713E+06    -109.749E+06    -15.3836E+06     602.134E+03    -26.7572E-03     53.4628E-03    -26.7056E-03     20.6651E-03    -26.6814E-03     52.9683E-03    -26.5933E-03     20.6614E-03
             391     4.38194E-03     63.5416E-03    -19.2952E+06    -107.223E+06    -11.4275E+06      724.49E+03    -26.7987E-03     53.5112E-03    -26.7125E-03     25.8406E-03    -26.7261E-03     53.0226E-03    -26.5862E-03     25.8343E-03
             392     5.25837E-03     63.5682E-03    -17.6208E+06    -104.530E+06    -6.91412E+06     840.462E+03    -26.8538E-03     53.5747E-03    -26.7209E-03     31.0265E-03    -26.7852E-03     53.0925E-03    -26.5784E-03     31.0167E-03
             393     6.13479E-03     63.6005E-03    -15.9261E+06    -102.072E+06    -2.79463E+06     728.134E+03    -26.9199E-03     53.6469E-03    -26.7269E-03     36.2340E-03    -26.8551E-03     53.1712E-03    -26.5698E-03     36.2164E-03
             394     7.01131E-03     63.6369E-03    -14.0533E+06    -99.7457E+06     940.375E+03     792.381E+03    -26.9696E-03     53.6981E-03    -26.7285E-03     41.4216E-03    -26.9080E-03     53.2299E-03    -26.5588E-03     41.3970E-03
             395     7.88778E-03     63.6791E-03    -12.0351E+06    -96.0154E+06     3.83718E+06     966.036E+03    -27.0187E-03     53.7384E-03    -26.7197E-03     46.4385E-03    -26.9622E-03     53.2872E-03    -26.5439E-03     46.4064E-03
             396     8.76457E-03     63.7249E-03    -10.3506E+06    -90.7698E+06     5.00684E+06     923.393E+03    -27.1774E-03     53.8795E-03    -26.7022E-03     51.4258E-03    -27.1298E-03     53.4585E-03    -26.5305E-03     51.3806E-03
             397     9.64064E-03     63.7766E-03    -9.07401E+06    -85.8738E+06     4.53883E+06     746.273E+03    -27.3450E-03     54.0285E-03    -26.6835E-03     56.4225E-03    -27.3090E-03     53.6423E-03    -26.5231E-03     56.3597E-03
             398     10.5176E-03     63.8319E-03    -7.73818E+06    -78.7736E+06     2.08155E+06     779.456E+03    -27.3742E-03     54.0245E-03    -26.6503E-03     61.2414E-03    -27.3546E-03     53.6917E-03    -26.5145E-03     61.1613E-03
             399     11.3938E-03     63.8929E-03    -7.04476E+06    -65.5913E+06     2.13279E+06     1.10157E+06    -27.4577E-03     54.0742E-03    -26.6165E-03     66.8855E-03    -27.4794E-03     53.8319E-03    -26.5005E-03     66.7874E-03
             400     12.2708E-03     63.9587E-03    -6.85359E+06    -53.0334E+06     395.115E+03     1.06166E+06    -27.6334E-03     54.2068E-03    -26.5734E-03     74.3255E-03    -27.7121E-03     54.0717E-03    -26.4846E-03     74.1996E-03
             401     13.1475E-03     64.0337E-03    -6.32921E+06    -37.7663E+06    -4.88967E+06     763.877E+03    -27.6721E-03     54.1786E-03    -26.5066E-03     78.8681E-03    -27.8246E-03     54.1889E-03    -26.4671E-03     78.7081E-03
             402     14.0238E-03     64.1084E-03    -6.45464E+06    -5.80061E+06    -9.32024E+06     801.867E+03    -27.9517E-03     54.3711E-03    -26.4193E-03     89.4918E-03    -28.2727E-03     54.6755E-03    -26.4482E-03     89.3068E-03
             403     14.9014E-03     64.2028E-03     -7.2707E+06     50.6053E+06    -17.2182E+06     619.784E+03    -29.3753E-03     55.6520E-03    -26.2767E-03     125.007E-03    -30.2810E-03     56.7615E-03    -26.4257E-03     124.841E-03
             404     15.7776E-03     64.3467E-03    -8.33176E+06     115.874E+06     5.04227E+06    -420.464E+03    -32.2132E-03     58.4963E-03    -26.2830E-03     179.320E-03    -35.2679E-03     61.9179E-03    -26.4138E-03     179.813E-03
             405     16.6474E-03     64.5416E-03    -5.44461E+06     151.470E+06     68.9286E+06    -370.799E+03    -29.3885E-03     55.9224E-03    -26.5339E-03     144.111E-03    -32.5867E-03     59.4392E-03    -26.4009E-03     145.579E-03
             406     876.405E-06     64.4820E-03    -23.4792E+06    -113.431E+06    -23.0695E+06     74.1168E+03    -26.6897E-03     53.3686E-03    -26.6789E-03     5.67080E-03    -26.6093E-03     52.8691E-03    -26.5957E-03     5.66899E-03
             407     1.75273E-03     64.4898E-03    -22.7895E+06    -113.510E+06    -21.4168E+06     277.288E+03    -26.7022E-03     53.3890E-03    -26.6867E-03     10.4511E-03    -26.6210E-03     52.8859E-03    -26.5962E-03     10.4495E-03
             408     2.62917E-03     64.5018E-03    -21.9056E+06    -112.088E+06    -18.8330E+06     468.013E+03    -26.7230E-03     53.4156E-03    -26.6926E-03     15.5162E-03    -26.6437E-03     52.9152E-03    -26.5924E-03     15.5141E-03
             409     3.50552E-03     64.5192E-03    -20.7319E+06    -109.884E+06    -15.4137E+06     604.181E+03    -26.7542E-03     53.4537E-03    -26.6995E-03     20.6526E-03    -26.6779E-03     52.9585E-03    -26.5872E-03     20.6489E-03
             410     4.38198E-03     64.5410E-03    -19.2852E+06    -107.299E+06    -11.5453E+06     685.532E+03    -26.7937E-03     53.5001E-03    -26.7063E-03     25.8231E-03    -26.7209E-03     53.0113E-03    -26.5805E-03     25.8163E-03
             411     5.25837E-03     64.5683E-03    -17.6027E+06    -104.690E+06    -7.22709E+06     803.345E+03    -26.8519E-03     53.5660E-03    -26.7141E-03     31.0278E-03    -26.7825E-03     53.0834E-03    -26.5730E-03     31.0174E-03
             412     6.13486E-03     64.5998E-03    -15.7629E+06    -101.807E+06    -2.44251E+06      857.86E+03    -26.9068E-03     53.6292E-03    -26.7224E-03     36.2051E-03    -26.8420E-03     53.1541E-03    -26.5642E-03     36.1891E-03
             413     7.01130E-03     64.6370E-03    -13.9520E+06    -99.8367E+06     1.38313E+06     745.585E+03    -26.9472E-03     53.6709E-03    -26.7237E-03     41.3328E-03    -26.8856E-03     53.2014E-03    -26.5518E-03     41.3075E-03
             414     7.88795E-03     64.6782E-03    -12.0616E+06    -96.2013E+06     3.68440E+06     803.094E+03    -27.0390E-03     53.7519E-03    -26.7129E-03     46.3926E-03    -26.9821E-03     53.3000E-03    -26.5375E-03     46.3584E-03
             415     8.76426E-03     64.7250E-03    -10.4545E+06    -90.8572E+06     4.87662E+06     921.601E+03    -27.1816E-03     53.8790E-03    -26.6974E-03     51.4628E-03    -27.1342E-03     53.4578E-03    -26.5261E-03     51.4177E-03
             416     9.64114E-03     64.7759E-03    -9.17827E+06    -85.3788E+06     4.59700E+06     768.215E+03    -27.3093E-03     53.9872E-03    -26.6779E-03     56.4193E-03    -27.2746E-03     53.6034E-03    -26.5178E-03     56.3570E-03
             417     10.5172E-03     64.8320E-03    -8.24308E+06    -78.4232E+06     2.18031E+06     704.773E+03    -27.3909E-03     54.0365E-03    -26.6456E-03     61.1428E-03    -27.3745E-03     53.7061E-03    -26.5090E-03     61.0616E-03
             418     11.3943E-03     64.8917E-03    -7.34116E+06    -66.2098E+06     1.79578E+06     925.812E+03    -27.4589E-03     54.0711E-03    -26.6122E-03     66.8191E-03    -27.4806E-03     53.8264E-03    -26.4966E-03     66.7187E-03
             419     12.2706E-03     64.9589E-03    -6.19846E+06    -52.2662E+06     797.120E+03     972.794E+03    -27.5878E-03     54.1561E-03    -26.5683E-03     74.2222E-03    -27.6647E-03     54.0231E-03    -26.4795E-03     74.0954E-03
             420     13.1472E-03     65.0325E-03    -6.05205E+06    -38.0126E+06    -5.16257E+06     843.951E+03    -27.5667E-03     54.0622E-03    -26.4955E-03     78.8802E-03    -27.7166E-03     54.0707E-03    -26.4574E-03     78.7222E-03
             421     14.0248E-03     65.1081E-03    -6.21597E+06    -5.91353E+06    -9.19197E+06     991.218E+03    -27.9316E-03     54.3378E-03    -26.4062E-03     89.7817E-03    -28.2522E-03     54.6420E-03    -26.4345E-03     89.5992E-03
             422     14.9003E-03     65.2025E-03    -6.60463E+06     51.2103E+06    -16.4971E+06     1.11665E+06    -29.0443E-03     55.3006E-03    -26.2563E-03     124.426E-03    -29.9380E-03     56.4005E-03    -26.4035E-03     124.274E-03
             423     15.7798E-03     65.3438E-03    -6.51277E+06     117.328E+06     6.18227E+06     1.11033E+06    -31.8323E-03     58.0671E-03    -26.2348E-03     182.777E-03    -34.9507E-03     61.5610E-03    -26.3646E-03     183.313E-03
             424     16.6574E-03     65.5539E-03    -4.91029E+06     152.466E+06     69.5422E+06    -367.662E+03    -30.1563E-03     56.6344E-03    -26.4781E-03     147.247E-03    -33.4196E-03     60.2201E-03    -26.3443E-03     148.703E-03
             425     876.327E-06     65.4820E-03    -23.5236E+06    -113.412E+06    -23.0309E+06     112.732E+03    -26.6838E-03     53.3552E-03    -26.6714E-03     5.67192E-03    -26.6037E-03     52.8558E-03    -26.5880E-03     5.67062E-03
             426     1.75282E-03     65.4893E-03    -22.9121E+06    -113.670E+06    -21.3588E+06     203.300E+03    -26.6964E-03     53.3774E-03    -26.6810E-03     10.4439E-03    -26.6156E-03     52.8737E-03    -26.5898E-03     10.4413E-03
             427     2.62912E-03     65.5018E-03    -21.9537E+06    -112.316E+06     -18.805E+06      459.71E+03    -26.7196E-03     53.4069E-03    -26.6874E-03     15.5066E-03    -26.6401E-03     52.9054E-03    -26.5867E-03     15.5044E-03
             428     3.50561E-03     65.5187E-03    -20.7919E+06    -109.958E+06    -15.6249E+06     612.197E+03    -26.7484E-03     53.4416E-03    -26.6932E-03     20.6438E-03    -26.6720E-03     52.9464E-03    -26.5818E-03     20.6402E-03
             429     4.38193E-03     65.5410E-03    -19.3766E+06    -107.360E+06    -11.7683E+06     662.085E+03    -26.7910E-03     53.4912E-03    -26.7002E-03     25.8157E-03    -26.7182E-03     53.0026E-03    -26.5753E-03     25.8086E-03
             430     5.25847E-03     65.5676E-03    -17.6868E+06    -104.748E+06    -7.40123E+06     704.629E+03    -26.8393E-03     53.5473E-03    -26.7080E-03     31.0164E-03    -26.7700E-03     53.0648E-03    -26.5674E-03     31.0049E-03
             431     6.13484E-03     65.5999E-03    -15.8109E+06    -101.941E+06    -2.79361E+06     837.944E+03    -26.8942E-03     53.6087E-03    -26.7144E-03     36.1809E-03    -26.8290E-03     53.1335E-03    -26.5577E-03     36.1647E-03
             432     7.01141E-03     65.6362E-03    -13.9456E+06    -99.5160E+06     1.52862E+06     878.393E+03    -26.9630E-03     53.6815E-03    -26.7185E-03     41.2668E-03    -26.9021E-03     53.2134E-03    -26.5463E-03     41.2432E-03
             433     7.88786E-03     65.6782E-03    -12.2243E+06    -96.3771E+06     3.67589E+06     781.584E+03    -27.0629E-03     53.7738E-03    -26.7109E-03     46.3881E-03    -27.0066E-03     53.3213E-03    -26.5350E-03     46.3534E-03
             434     8.76454E-03     65.7243E-03    -10.4876E+06    -90.8336E+06     4.70420E+06     872.892E+03    -27.1657E-03     53.8606E-03    -26.6948E-03     51.4508E-03    -27.1182E-03     53.4397E-03    -26.5244E-03     51.4051E-03
             435     9.64077E-03     65.7759E-03    -9.13657E+06    -84.7974E+06     4.77848E+06     978.627E+03    -27.2764E-03     53.9506E-03    -26.6742E-03     56.3659E-03    -27.2425E-03     53.5694E-03    -26.5141E-03     56.3065E-03
             436     10.5178E-03     65.8313E-03    -8.24623E+06    -78.5174E+06     2.09157E+06     782.403E+03    -27.4122E-03     54.0538E-03    -26.6416E-03     61.0386E-03    -27.3957E-03     53.7232E-03    -26.5053E-03     60.9581E-03
             437     11.3937E-03     65.8917E-03    -7.38006E+06    -65.9622E+06     1.62360E+06     581.149E+03    -27.4349E-03     54.0428E-03    -26.6079E-03     66.7077E-03    -27.4567E-03     53.7996E-03    -26.4934E-03     66.6031E-03
             438     12.2708E-03     65.9578E-03    -6.56104E+06    -52.3983E+06     329.679E+03     575.525E+03    -27.4942E-03     54.0540E-03    -26.5599E-03     74.2010E-03    -27.5718E-03     53.9214E-03    -26.4727E-03     74.0697E-03
             439     13.1480E-03     66.0322E-03    -5.95713E+06    -38.2092E+06    -5.11846E+06     927.329E+03    -27.6127E-03     54.1008E-03    -26.4881E-03     78.6825E-03    -27.7622E-03     54.1083E-03    -26.4496E-03     78.5248E-03
             440     14.0241E-03     66.1069E-03    -6.18340E+06    -5.67656E+06    -9.22767E+06     960.141E+03    -27.8351E-03     54.2325E-03    -26.3975E-03     89.5158E-03    -28.1551E-03     54.5373E-03    -26.4264E-03     89.3341E-03
             441     14.9024E-03     66.2026E-03    -6.27415E+06     51.1613E+06    -16.2955E+06     909.128E+03    -29.1405E-03     55.3919E-03    -26.2513E-03     123.513E-03    -30.0317E-03     56.4896E-03    -26.3979E-03     123.354E-03
             442     15.7777E-03     66.3414E-03    -5.73906E+06     117.505E+06     6.77440E+06     812.198E+03    -30.8847E-03     57.1012E-03    -26.2165E-03     180.110E-03    -33.9536E-03     60.5472E-03    -26.3446E-03     180.703E-03
             443     16.6595E-03     66.5491E-03    -4.25767E+06     153.212E+06     70.1031E+06     171.885E+03    -29.8343E-03     56.2715E-03    -26.4373E-03     144.735E-03    -33.0404E-03     59.8032E-03    -26.3027E-03     146.224E-03
             444     876.466E-06     66.4815E-03    -23.6353E+06    -113.471E+06    -23.1612E+06     147.487E+03    -26.6771E-03     53.3432E-03    -26.6661E-03     5.66023E-03    -26.5972E-03     52.8439E-03    -26.5831E-03     5.65938E-03
             445     1.75271E-03     66.4892E-03    -23.0322E+06    -113.723E+06    -21.3253E+06     239.895E+03    -26.6921E-03     53.3683E-03    -26.6762E-03     10.4435E-03    -26.6119E-03     52.8645E-03    -26.5845E-03     10.4414E-03
             446     2.62923E-03     66.5013E-03    -22.0761E+06    -112.576E+06    -18.8430E+06     387.341E+03    -26.7136E-03     53.3963E-03    -26.6827E-03     15.5006E-03    -26.6343E-03     52.8937E-03    -26.5817E-03     15.4975E-03
             447     3.50552E-03     66.5187E-03    -20.8198E+06    -110.048E+06     -15.686E+06     602.097E+03    -26.7421E-03     53.4299E-03    -26.6878E-03     20.6347E-03    -26.6656E-03     52.9344E-03    -26.5765E-03     20.6310E-03
             448     4.38208E-03     66.5404E-03    -19.4104E+06    -107.340E+06    -11.8966E+06     641.340E+03    -26.7846E-03     53.4787E-03    -26.6941E-03     25.8115E-03    -26.7118E-03     52.9905E-03    -26.5698E-03     25.8042E-03
             449     5.25837E-03     66.5677E-03    -17.8177E+06    -104.722E+06    -7.43757E+06     680.994E+03    -26.8292E-03     53.5313E-03    -26.7021E-03     30.9923E-03    -26.7606E-03     53.0492E-03    -26.5616E-03     30.9804E-03
             450     6.13500E-03     66.5992E-03    -16.0203E+06    -102.125E+06    -3.05672E+06     747.200E+03    -26.8878E-03     53.5955E-03    -26.7076E-03     36.1534E-03    -26.8230E-03     53.1201E-03    -26.5516E-03     36.1360E-03
             451     7.01138E-03     66.6363E-03    -14.0220E+06    -99.3398E+06     1.20017E+06     912.124E+03    -26.9929E-03     53.7058E-03    -26.7129E-03     41.2560E-03    -26.9322E-03     53.2391E-03    -26.5425E-03     41.2328E-03
             452     7.88792E-03     66.6774E-03    -12.2260E+06    -95.9166E+06     3.85510E+06     861.303E+03    -27.0955E-03     53.8068E-03    -26.7113E-03     46.3450E-03    -27.0402E-03     53.3564E-03    -26.5352E-03     46.3111E-03
             453     8.76431E-03     66.7243E-03    -10.5120E+06    -91.0432E+06     4.65342E+06     726.533E+03    -27.1527E-03     53.8491E-03    -26.6964E-03     51.3477E-03    -27.1050E-03     53.4274E-03    -26.5259E-03     51.3000E-03
             454     9.64117E-03     66.7751E-03    -9.04412E+06    -85.1009E+06     4.41762E+06     926.443E+03    -27.2787E-03     53.9523E-03    -26.6736E-03     56.3694E-03    -27.2433E-03     53.5699E-03    -26.5150E-03     56.3093E-03
             455     10.5172E-03     66.8314E-03    -7.89255E+06    -77.8931E+06     2.35282E+06     872.799E+03    -27.3595E-03     53.9998E-03    -26.6403E-03     60.9842E-03    -27.3423E-03     53.6712E-03    -26.5041E-03     60.9053E-03
             456     11.3944E-03     66.8909E-03    -7.29443E+06    -65.8421E+06     1.59873E+06     624.777E+03    -27.3762E-03     53.9785E-03    -26.6023E-03     66.5495E-03    -27.3977E-03     53.7357E-03    -26.4883E-03     66.4457E-03
             457     12.2709E-03     66.9573E-03    -6.93134E+06    -52.8177E+06    -89.0365E+03     610.226E+03    -27.5587E-03     54.1132E-03    -26.5546E-03     74.0456E-03    -27.6368E-03     53.9795E-03    -26.4684E-03     73.9144E-03
             458     13.1473E-03     67.0314E-03    -6.74234E+06    -37.8432E+06    -5.44463E+06     629.676E+03    -27.7227E-03     54.2119E-03    -26.4892E-03     78.6356E-03    -27.8765E-03     54.2232E-03    -26.4518E-03     78.4735E-03
             459     14.0245E-03     67.1068E-03    -6.63593E+06    -5.61942E+06    -9.62437E+06     770.279E+03    -27.9649E-03     54.3715E-03    -26.4066E-03     89.0070E-03    -28.2859E-03     54.6769E-03    -26.4370E-03     88.8218E-03
             460     14.9006E-03     67.2005E-03    -6.84187E+06     51.4375E+06    -17.1739E+06     507.452E+03    -29.4096E-03     55.6799E-03    -26.2703E-03     123.112E-03    -30.3049E-03     56.7833E-03    -26.4209E-03     122.944E-03
             461     15.7786E-03     67.3427E-03    -6.84286E+06     117.606E+06     5.33141E+06     328.640E+03    -32.0096E-03     58.2838E-03    -26.2742E-03     178.917E-03    -35.0600E-03     61.7119E-03    -26.4082E-03     179.434E-03
             462     16.6515E-03     67.5443E-03    -4.55755E+06     153.404E+06     69.5663E+06     489.593E+03    -29.4473E-03     55.9666E-03    -26.5192E-03     146.936E-03    -32.6794E-03     59.5253E-03    -26.3872E-03     148.442E-03
             463     876.299E-06     67.4814E-03    -23.7764E+06    -113.605E+06    -23.3788E+06     130.553E+03    -26.6696E-03     53.3335E-03    -26.6639E-03     5.65763E-03    -26.5900E-03     52.8341E-03    -26.5816E-03     5.65656E-03
             464     1.75287E-03     67.4888E-03    -23.1818E+06    -113.771E+06    -21.6337E+06     273.326E+03    -26.6847E-03     53.3547E-03    -26.6700E-03     10.4422E-03    -26.6047E-03     52.8512E-03    -26.5796E-03     10.4405E-03
             465     2.62911E-03     67.5012E-03    -22.2705E+06    -112.698E+06    -18.9256E+06     366.386E+03    -26.7085E-03     53.3859E-03    -26.6774E-03     15.4948E-03    -26.6299E-03     52.8831E-03    -26.5763E-03     15.4914E-03
             466     3.50568E-03     67.5181E-03    -21.0151E+06    -110.233E+06    -15.7841E+06     499.277E+03    -26.7382E-03     53.4212E-03    -26.6829E-03     20.6256E-03    -26.6623E-03     52.9251E-03    -26.5715E-03     20.6205E-03
             467     4.38194E-03     67.5404E-03    -19.5580E+06    -107.277E+06    -12.0550E+06     625.758E+03    -26.7739E-03     53.4622E-03    -26.6883E-03     25.7959E-03    -26.7017E-03     52.9747E-03    -26.5646E-03     25.7884E-03
             468     5.25858E-03     67.5671E-03    -17.8974E+06    -104.778E+06    -7.62439E+06     647.943E+03    -26.8264E-03     53.5224E-03    -26.6960E-03     30.9651E-03    -26.7578E-03     53.0403E-03    -26.5562E-03     30.9528E-03
             469     6.13487E-03     67.5992E-03    -16.1128E+06    -102.031E+06    -2.90256E+06     757.179E+03    -26.9043E-03     53.6090E-03    -26.7048E-03     36.1308E-03    -26.8402E-03     53.1340E-03    -26.5480E-03     36.1136E-03
             470     7.01148E-03     67.6356E-03    -14.1766E+06    -99.5822E+06     1.04291E+06     782.946E+03    -27.0090E-03     53.7206E-03    -26.7116E-03     41.2605E-03    -26.9485E-03     53.2532E-03    -26.5414E-03     41.2356E-03
             471     7.88784E-03     67.6776E-03    -12.2639E+06    -95.5260E+06     3.64845E+06     905.898E+03    -27.1032E-03     53.8135E-03    -26.7103E-03     46.3267E-03    -27.0484E-03     53.3654E-03    -26.5357E-03     46.2935E-03
             472     8.76441E-03     67.7236E-03    -10.7915E+06    -90.9178E+06     4.48430E+06     715.644E+03    -27.1961E-03     53.8949E-03    -26.6989E-03     51.3157E-03    -27.1498E-03     53.4746E-03    -26.5290E-03     51.2677E-03
             473     9.64077E-03     67.7749E-03    -9.16998E+06    -85.4150E+06     4.06552E+06     628.983E+03    -27.2375E-03     53.9133E-03    -26.6758E-03     56.3252E-03    -27.2017E-03     53.5299E-03    -26.5183E-03     56.2616E-03
             474     10.5177E-03     67.8309E-03    -8.01956E+06    -77.7641E+06     2.04566E+06     797.010E+03    -27.2665E-03     53.9028E-03    -26.6363E-03     60.9152E-03    -27.2493E-03     53.5751E-03    -26.5017E-03     60.8359E-03
             475     11.3940E-03     67.8902E-03    -7.25251E+06    -65.5638E+06     1.80471E+06     870.859E+03    -27.4443E-03     54.0440E-03    -26.5996E-03     66.4775E-03    -27.4664E-03     53.8023E-03    -26.4850E-03     66.3763E-03
             476     12.2708E-03     67.9570E-03    -6.86261E+06    -52.5296E+06     10.3120E+03     890.284E+03    -27.7654E-03     54.3269E-03    -26.5615E-03     73.9053E-03    -27.8441E-03     54.1947E-03    -26.4753E-03     73.7764E-03
             477     13.1478E-03     68.0308E-03    -6.81909E+06    -37.5409E+06    -5.61463E+06     571.861E+03    -27.8229E-03     54.3285E-03    -26.5056E-03     78.2793E-03    -27.9771E-03     54.3415E-03    -26.4693E-03     78.1156E-03
             478     14.0239E-03     68.1065E-03    -6.80821E+06    -5.82072E+06    -9.85526E+06     406.274E+03    -28.0872E-03     54.5173E-03    -26.4301E-03     88.8337E-03    -28.4089E-03     54.8228E-03    -26.4611E-03     88.6420E-03
             479     14.9009E-03     68.2003E-03    -7.36545E+06     51.7129E+06    -17.8176E+06     688.918E+03    -29.6057E-03     55.9048E-03    -26.2990E-03     123.443E-03    -30.5027E-03     57.0109E-03    -26.4524E-03     123.273E-03
             480     15.7763E-03     68.3418E-03    -7.95693E+06     117.985E+06     4.15326E+06     525.606E+03    -32.1956E-03     58.5022E-03    -26.3067E-03     180.082E-03    -35.2800E-03     61.9652E-03    -26.4454E-03     180.597E-03
             481     16.6554E-03     68.5470E-03    -5.02395E+06     153.362E+06     68.8872E+06    -52.4173E+03    -29.1218E-03     55.6663E-03    -26.5444E-03     147.379E-03    -32.3787E-03     59.2500E-03    -26.4151E-03     148.887E-03
             482     876.497E-06     68.4810E-03    -23.8327E+06    -113.619E+06    -23.4871E+06     115.686E+03    -26.6631E-03     53.3228E-03    -26.6597E-03     5.65827E-03    -26.5836E-03     52.8235E-03    -26.5778E-03     5.65701E-03
             483     1.75270E-03     68.4886E-03    -23.3137E+06    -113.924E+06    -21.8082E+06     239.637E+03    -26.6799E-03     53.3444E-03    -26.6645E-03     10.4376E-03    -26.6001E-03     52.8406E-03    -26.5746E-03     10.4355E-03
             484     2.62930E-03     68.5008E-03    -22.3371E+06    -112.746E+06    -19.0531E+06     396.218E+03    -26.7033E-03     53.3754E-03    -26.6720E-03     15.4904E-03    -26.6249E-03     52.8726E-03    -26.5714E-03     15.4874E-03
             485     3.50552E-03     68.5180E-03    -21.1320E+06    -110.342E+06    -15.7145E+06     466.329E+03    -26.7353E-03     53.4143E-03    -26.6790E-03     20.6165E-03    -26.6600E-03     52.9178E-03    -26.5669E-03     20.6110E-03
             486     4.38215E-03     68.5399E-03    -19.6547E+06    -107.303E+06    -12.0210E+06     561.233E+03    -26.7738E-03     53.4586E-03    -26.6847E-03     25.7715E-03    -26.7021E-03     52.9710E-03    -26.5608E-03     25.7631E-03
             487     5.25840E-03     68.5669E-03    -18.0296E+06    -104.767E+06    -7.73644E+06     611.372E+03    -26.8329E-03     53.5259E-03    -26.6930E-03     30.9402E-03    -26.7648E-03     53.0443E-03    -26.5536E-03     30.9274E-03
             488     6.13505E-03     68.5986E-03    -16.1731E+06    -102.168E+06    -3.14402E+06     728.601E+03    -26.9168E-03     53.6198E-03    -26.7030E-03     36.1271E-03    -26.8525E-03     53.1446E-03    -26.5472E-03     36.1094E-03
             489     7.01133E-03     68.6356E-03    -14.3773E+06    -99.5832E+06     954.679E+03     793.348E+03    -27.0018E-03     53.7129E-03    -26.7112E-03     41.2782E-03    -26.9421E-03     53.2459E-03    -26.5412E-03     41.2534E-03
             490     7.88792E-03     68.6770E-03    -12.5084E+06    -95.7514E+06     3.25597E+06     793.492E+03    -27.0949E-03     53.8028E-03    -26.7079E-03     46.3264E-03    -27.0403E-03     53.3544E-03    -26.5346E-03     46.2917E-03
             491     8.76440E-03     68.7235E-03    -10.7437E+06    -90.2264E+06     4.45060E+06     744.842E+03    -27.2239E-03     53.9214E-03    -26.6975E-03     51.3697E-03    -27.1783E-03     53.5045E-03    -26.5289E-03     51.3220E-03
             492     9.64084E-03     68.7746E-03    -9.56124E+06    -85.1529E+06     3.88087E+06     526.173E+03    -27.2393E-03     53.9159E-03    -26.6766E-03     56.1523E-03    -27.2055E-03     53.5346E-03    -26.5199E-03     56.0872E-03
             493     10.5175E-03     68.8299E-03    -8.36924E+06    -78.3586E+06     1.36998E+06     574.883E+03    -27.2821E-03     53.9191E-03    -26.6369E-03     60.7963E-03    -27.2648E-03     53.5899E-03    -26.5043E-03     60.7141E-03
             494     11.3944E-03     68.8903E-03    -7.56420E+06    -65.2604E+06     1.51015E+06     836.006E+03    -27.5890E-03     54.1958E-03    -26.6069E-03     66.4338E-03    -27.6128E-03     53.9568E-03    -26.4937E-03     66.3314E-03
             495     12.2707E-03     68.9562E-03    -6.83484E+06    -51.6718E+06     205.796E+03     762.558E+03    -27.8782E-03     54.4570E-03    -26.5788E-03     73.8167E-03    -27.9587E-03     54.3292E-03    -26.4930E-03     73.6852E-03
             496     13.1464E-03     69.0313E-03    -6.26108E+06    -37.8496E+06    -5.66496E+06     630.683E+03    -27.8555E-03     54.3819E-03    -26.5264E-03     78.3075E-03    -28.0065E-03     54.3927E-03    -26.4907E-03     78.1441E-03
             497     14.0236E-03     69.1050E-03    -6.30310E+06    -5.58678E+06    -9.69804E+06     565.792E+03    -28.0924E-03     54.5428E-03    -26.4504E-03     89.1729E-03    -28.4130E-03     54.8493E-03    -26.4816E-03     88.9828E-03
             498     14.9000E-03     69.2009E-03    -6.51476E+06     51.4650E+06    -17.0008E+06     500.441E+03    -29.5645E-03     55.8840E-03    -26.3195E-03     123.774E-03    -30.4598E-03     56.9881E-03    -26.4697E-03     123.601E-03
             499     15.7776E-03     69.3411E-03    -5.53873E+06     118.504E+06     5.87439E+06     929.402E+03    -31.1228E-03     57.4181E-03    -26.2953E-03     180.510E-03    -34.1970E-03     60.8762E-03    -26.4297E-03     181.092E-03
             500     16.6528E-03     69.5463E-03    -3.82613E+06     154.777E+06     69.7899E+06     517.629E+03    -29.0742E-03     55.5709E-03    -26.4966E-03     148.678E-03    -32.3367E-03     59.1668E-03    -26.3666E-03     150.228E-03
             501     876.301E-06     69.4807E-03    -24.4126E+06    -113.638E+06    -23.8579E+06     97.1150E+03    -26.6565E-03     53.3074E-03    -26.6509E-03     5.66553E-03    -26.5793E-03     52.8094E-03    -26.5701E-03     5.66404E-03
             502     1.75290E-03     69.4882E-03    -23.6323E+06    -114.024E+06    -21.9952E+06     223.930E+03    -26.6774E-03     53.3366E-03    -26.6591E-03     10.4337E-03    -26.5988E-03     52.8330E-03    -26.5695E-03     10.4314E-03
             503     2.62911E-03     69.5005E-03    -22.6394E+06    -112.890E+06    -19.3831E+06     333.518E+03    -26.6988E-03     53.3657E-03    -26.6670E-03     15.4858E-03    -26.6211E-03     52.8632E-03    -26.5674E-03     15.4820E-03
             504     3.50574E-03     69.5176E-03    -21.3302E+06    -110.325E+06    -15.9036E+06     466.039E+03    -26.7333E-03     53.4079E-03    -26.6746E-03     20.6092E-03    -26.6587E-03     52.9121E-03    -26.5632E-03     20.6037E-03
             505     4.38195E-03     69.5397E-03    -19.8460E+06    -107.337E+06    -12.0667E+06     498.707E+03    -26.7822E-03     53.4648E-03    -26.6826E-03     25.7585E-03    -26.7113E-03     52.9775E-03    -26.5586E-03     25.7492E-03
             506     5.25860E-03     69.5665E-03    -18.1239E+06    -104.744E+06    -7.74075E+06     589.821E+03    -26.8428E-03     53.5357E-03    -26.6929E-03     30.9375E-03    -26.7752E-03     53.0544E-03    -26.5535E-03     30.9244E-03
             507     6.13484E-03     69.5984E-03    -16.3850E+06    -102.370E+06    -3.36980E+06     708.168E+03    -26.9116E-03     53.6145E-03    -26.7029E-03     36.1294E-03    -26.8478E-03     53.1388E-03    -26.5475E-03     36.1114E-03
             508     7.01150E-03     69.6351E-03    -14.4251E+06    -99.4699E+06     651.107E+03     795.147E+03    -26.9780E-03     53.6862E-03    -26.7082E-03     41.2533E-03    -26.9183E-03     53.2202E-03    -26.5398E-03     41.2287E-03
             509     7.88792E-03     69.6768E-03    -12.6656E+06    -95.6648E+06     3.04782E+06     742.933E+03    -27.1002E-03     53.8049E-03    -26.7046E-03     46.3754E-03    -27.0463E-03     53.3575E-03    -26.5323E-03     46.3401E-03
             510     8.76434E-03     69.7231E-03    -11.0176E+06    -90.0055E+06     4.01295E+06     697.166E+03    -27.2044E-03     53.8971E-03    -26.6927E-03     51.3621E-03    -27.1598E-03     53.4822E-03    -26.5261E-03     51.3140E-03
             511     9.64099E-03     69.7742E-03    -9.58266E+06    -84.9112E+06     3.62133E+06     510.872E+03    -27.2798E-03     53.9534E-03    -26.6736E-03     56.0396E-03    -27.2462E-03     53.5738E-03    -26.5184E-03     55.9741E-03
             512     10.5174E-03     69.8294E-03    -8.68806E+06    -78.5215E+06     795.881E+03     457.621E+03    -27.4578E-03     54.1001E-03    -26.6423E-03     60.8789E-03    -27.4414E-03     53.7718E-03    -26.5119E-03     60.7942E-03
             513     11.3938E-03     69.8897E-03    -7.59877E+06    -64.8768E+06     1.05728E+06     442.321E+03    -27.6515E-03     54.2716E-03    -26.6201E-03     66.6555E-03    -27.6756E-03     54.0353E-03    -26.5097E-03     66.5479E-03
             514     12.2699E-03     69.9567E-03    -6.63708E+06    -52.0098E+06    -306.526E+03     419.237E+03    -27.7326E-03     54.3207E-03    -26.5881E-03     73.9214E-03    -27.8105E-03     54.1913E-03    -26.5046E-03     73.7864E-03
             515     13.1477E-03     70.0299E-03    -6.20838E+06    -37.7222E+06    -6.04043E+06     611.357E+03    -27.8109E-03     54.3389E-03    -26.5279E-03     78.6625E-03    -27.9616E-03     54.3511E-03    -26.4944E-03     78.4991E-03
             516     14.0235E-03     70.1057E-03    -6.31426E+06    -4.92797E+06    -9.87399E+06     731.289E+03    -28.1339E-03     54.5851E-03    -26.4511E-03     89.4069E-03    -28.4558E-03     54.8957E-03    -26.4842E-03     89.2187E-03
             517     14.9005E-03     70.1995E-03    -6.72906E+06     51.8546E+06    -17.8287E+06     206.507E+03    -29.5390E-03     55.8562E-03    -26.3172E-03     124.112E-03    -30.4417E-03     56.9708E-03    -26.4718E-03     123.939E-03
             518     15.7764E-03     70.3415E-03    -6.68216E+06     118.132E+06     4.98402E+06    -481.684E+03    -31.3648E-03     57.6739E-03    -26.3091E-03     177.075E-03    -34.3704E-03     61.0605E-03    -26.4458E-03     177.609E-03
             519     16.6610E-03     70.5400E-03    -4.19616E+06     154.834E+06     69.8560E+06     718.054E+03    -28.8741E-03     55.4056E-03    -26.5315E-03     145.971E-03    -32.0779E-03     58.9416E-03    -26.4007E-03     147.513E-03
             520     876.511E-06     70.4804E-03    -24.6378E+06    -113.671E+06    -24.1891E+06     116.496E+03    -26.6569E-03     53.2974E-03    -26.6404E-03     5.67551E-03    -26.5804E-03     52.8000E-03    -26.5608E-03     5.67426E-03
             521     1.75272E-03     70.4879E-03    -23.9855E+06    -114.152E+06    -22.2923E+06     186.145E+03    -26.6721E-03     53.3263E-03    -26.6542E-03     10.4310E-03    -26.5946E-03     52.8231E-03    -26.5654E-03     10.4282E-03
             522     2.62932E-03     70.5002E-03    -22.9851E+06    -112.877E+06    -19.6320E+06     304.868E+03    -26.6989E-03     53.3618E-03    -26.6629E-03     15.4820E-03    -26.6227E-03     52.8602E-03    -26.5641E-03     15.4778E-03
             523     3.50553E-03     70.5173E-03    -21.7320E+06    -110.365E+06    -16.4474E+06     314.648E+03    -26.7315E-03     53.4017E-03    -26.6702E-03     20.6074E-03    -26.6580E-03     52.9070E-03    -26.5609E-03     20.5999E-03
             524     4.38217E-03     70.5394E-03    -20.1612E+06    -107.339E+06    -12.4610E+06     446.400E+03    -26.7810E-03     53.4602E-03    -26.6792E-03     25.7711E-03    -26.7112E-03     52.9739E-03    -26.5566E-03     25.7612E-03
             525     5.25839E-03     70.5662E-03    -18.5372E+06    -104.820E+06    -8.07268E+06     568.462E+03    -26.8489E-03     53.5398E-03    -26.6909E-03     30.9537E-03    -26.7828E-03     53.0592E-03    -26.5524E-03     30.9403E-03
             526     6.13505E-03     70.5981E-03    -16.6112E+06    -102.366E+06    -3.48858E+06     649.226E+03    -26.8957E-03     53.5970E-03    -26.7013E-03     36.1142E-03    -26.8328E-03     53.1218E-03    -26.5462E-03     36.0955E-03
             527     7.01135E-03     70.6348E-03    -14.6758E+06    -99.5645E+06     382.726E+03     725.638E+03    -26.9859E-03     53.6916E-03    -26.7057E-03     41.2676E-03    -26.9270E-03     53.2260E-03    -26.5381E-03     41.2419E-03
             528     7.88796E-03     70.6764E-03    -12.7696E+06    -95.3645E+06     2.64158E+06     707.622E+03    -27.0880E-03     53.7887E-03    -26.7007E-03     46.3620E-03    -27.0344E-03     53.3436E-03    -26.5307E-03     46.3263E-03
             529     8.76447E-03     70.7229E-03    -11.1403E+06    -89.8556E+06     3.56878E+06     593.828E+03    -27.1563E-03     53.8425E-03    -26.6862E-03     51.3368E-03    -27.1118E-03     53.4291E-03    -26.5219E-03     51.2876E-03
             530     9.64086E-03     70.7737E-03    -9.63603E+06    -84.6995E+06     3.23293E+06     388.276E+03    -27.3488E-03     54.0170E-03    -26.6681E-03     56.1361E-03    -27.3153E-03     53.6392E-03    -26.5152E-03     56.0687E-03
             531     10.5176E-03     70.8292E-03    -8.36688E+06    -77.8295E+06     877.146E+03     226.177E+03    -27.5381E-03     54.1823E-03    -26.6442E-03     61.0019E-03    -27.5214E-03     53.8570E-03    -26.5148E-03     60.9138E-03
             532     11.3936E-03     70.8899E-03    -7.48812E+06    -65.0172E+06     596.952E+03     266.334E+03    -27.5102E-03     54.1282E-03    -26.6180E-03     66.8873E-03    -27.5326E-03     53.8914E-03    -26.5098E-03     66.7783E-03
             533     12.2709E-03     70.9557E-03    -6.95526E+06    -52.0665E+06    -800.677E+03     304.053E+03    -27.6683E-03     54.2465E-03    -26.5782E-03     74.1538E-03    -27.7469E-03     54.1179E-03    -26.4967E-03     74.0179E-03
             534     13.1466E-03     71.0299E-03    -6.74839E+06    -37.4873E+06    -6.52384E+06     397.729E+03    -27.8614E-03     54.3790E-03    -26.5176E-03     78.7904E-03    -28.0147E-03     54.3942E-03    -26.4861E-03     78.6241E-03
             535     14.0238E-03     71.1052E-03    -6.47850E+06    -5.18975E+06    -10.2136E+06     461.978E+03    -28.0866E-03     54.5290E-03    -26.4424E-03     89.3370E-03    -28.4077E-03     54.8383E-03    -26.4766E-03     89.1464E-03
             536     14.9002E-03     71.1991E-03    -7.12721E+06     53.2129E+06    -18.5499E+06     527.382E+03    -29.6175E-03     55.9230E-03    -26.3054E-03     124.306E-03    -30.5215E-03     57.0443E-03    -26.4650E-03     124.136E-03
             537     15.7777E-03     71.3416E-03    -8.47767E+06     118.928E+06     3.00666E+06     45.9891E+03    -32.7263E-03     59.0555E-03    -26.3292E-03     178.676E-03    -35.7739E-03     62.4860E-03    -26.4743E-03     179.143E-03
             538     16.6431E-03     71.5399E-03    -5.66959E+06     153.956E+06     68.3752E+06    -147.076E+03    -28.9165E-03     55.5033E-03    -26.5868E-03     146.799E-03    -32.1526E-03     59.0676E-03    -26.4599E-03     148.300E-03
             539     876.310E-06     71.4801E-03    -24.6896E+06    -113.693E+06    -24.2049E+06     126.500E+03    -26.6576E-03     53.2925E-03    -26.6350E-03     5.66881E-03    -26.5812E-03     52.7951E-03    -26.5553E-03     5.66769E-03
             540     1.75290E-03     71.4877E-03    -24.0649E+06    -114.227E+06    -22.3783E+06     192.662E+03    -26.6680E-03     53.3193E-03    -26.6514E-03     10.4315E-03    -26.5906E-03     52.8160E-03    -26.5627E-03     10.4288E-03
             541     2.62914E-03     71.4998E-03    -23.0996E+06    -112.846E+06    -19.8029E+06     273.786E+03    -26.6959E-03     53.3552E-03    -26.6592E-03     15.4877E-03    -26.6200E-03     52.8541E-03    -26.5611E-03     15.4831E-03
             542     3.50573E-03     71.5171E-03    -21.8461E+06    -110.158E+06    -16.6554E+06     219.290E+03    -26.7282E-03     53.3944E-03    -26.6662E-03     20.6101E-03    -26.6553E-03     52.9012E-03    -26.5581E-03     20.6014E-03
             543     4.38198E-03     71.5389E-03    -20.4317E+06    -107.561E+06    -12.9057E+06     323.954E+03    -26.7767E-03     53.4514E-03    -26.6747E-03     25.7892E-03    -26.7072E-03     52.9649E-03    -26.5536E-03     25.7778E-03
             544     5.25862E-03     71.5660E-03    -18.6354E+06    -104.806E+06    -8.21003E+06     513.469E+03    -26.8301E-03     53.5161E-03    -26.6860E-03     30.9709E-03    -26.7643E-03     53.0359E-03    -26.5481E-03     30.9569E-03
             545     6.13486E-03     71.5977E-03    -16.8448E+06    -102.447E+06    -3.67590E+06     592.247E+03    -26.9035E-03     53.5997E-03    -26.6962E-03     36.1123E-03    -26.8414E-03     53.1248E-03    -26.5416E-03     36.0928E-03
             546     7.01159E-03     71.6344E-03    -14.9259E+06    -99.3738E+06      10.232E+03     641.851E+03    -27.0007E-03     53.7021E-03    -26.7014E-03     41.3065E-03    -26.9427E-03     53.2384E-03    -26.5356E-03     41.2797E-03
             547     7.88782E-03     71.6762E-03    -12.8802E+06    -95.1377E+06     2.29903E+06     474.267E+03    -27.0597E-03     53.7557E-03    -26.6960E-03     46.3433E-03    -27.0064E-03     53.3123E-03    -26.5279E-03     46.3046E-03
             548     8.76445E-03     71.7223E-03    -11.0316E+06    -89.6754E+06     3.32084E+06     377.514E+03    -27.1457E-03     53.8257E-03    -26.6800E-03     51.3158E-03    -27.1005E-03     53.4134E-03    -26.5174E-03     51.2638E-03
             549     9.64124E-03     71.7735E-03    -9.57546E+06    -84.1323E+06     3.15991E+06     169.596E+03    -27.3566E-03     54.0190E-03    -26.6624E-03     56.3273E-03    -27.3235E-03     53.6440E-03    -26.5107E-03     56.2572E-03
             550     10.5171E-03     71.8293E-03    -8.51038E+06    -77.4499E+06     779.133E+03     14.4026E+03    -27.4585E-03     54.0947E-03    -26.6362E-03     61.0416E-03    -27.4428E-03     53.7716E-03    -26.5077E-03     60.9512E-03
             551     11.3943E-03     71.8888E-03    -7.51109E+06    -65.1983E+06     447.216E+03     27.3018E+03    -27.4304E-03     54.0354E-03    -26.6051E-03     66.6396E-03    -27.4521E-03     53.7978E-03    -26.4974E-03     66.5280E-03
             552     12.2705E-03     71.9555E-03    -6.55081E+06    -51.9184E+06    -776.193E+03     124.074E+03    -27.6724E-03     54.2356E-03    -26.5632E-03     74.2708E-03    -27.7494E-03     54.1073E-03    -26.4823E-03     74.1325E-03
             553     13.1477E-03     72.0297E-03    -6.35206E+06    -37.1962E+06    -6.38254E+06     332.801E+03    -27.8179E-03     54.3201E-03    -26.5022E-03     78.9161E-03    -27.9697E-03     54.3359E-03    -26.4710E-03     78.7494E-03
             554     14.0238E-03     72.1045E-03    -6.83696E+06    -5.39087E+06    -10.7468E+06     414.305E+03    -28.1323E-03     54.5581E-03    -26.4259E-03     89.5566E-03    -28.4547E-03     54.8683E-03    -26.4619E-03     89.3645E-03
             555     14.9008E-03     72.1990E-03    -7.64220E+06     52.8677E+06    -18.9348E+06     949.430E+03    -29.4821E-03     55.7697E-03    -26.2876E-03     124.611E-03    -30.3849E-03     56.8880E-03    -26.4479E-03     124.448E-03
             556     15.7764E-03     72.3413E-03    -7.17653E+06     119.806E+06     3.06231E+06     1.07391E+06    -31.5365E-03     57.8035E-03    -26.2670E-03     181.312E-03    -34.6202E-03     61.2777E-03    -26.4150E-03     181.866E-03
             557     16.6627E-03     72.5462E-03    -4.42758E+06     155.101E+06     68.4636E+06    -354.129E+03    -29.3563E-03     55.8515E-03    -26.4952E-03     146.888E-03    -32.5948E-03     59.4264E-03    -26.3714E-03     148.387E-03
             558     876.491E-06     72.4798E-03    -24.9637E+06    -113.725E+06    -24.5925E+06     113.674E+03    -26.6479E-03     53.2858E-03    -26.6379E-03     5.65984E-03    -26.5722E-03     52.7892E-03    -26.5598E-03     5.65855E-03
             559     1.75275E-03     72.4872E-03    -24.3691E+06    -114.234E+06    -22.7318E+06     186.703E+03    -26.6629E-03     53.3103E-03    -26.6475E-03     10.4386E-03    -26.5866E-03     52.8079E-03    -26.5601E-03     10.4358E-03
             560     2.62930E-03     72.4997E-03    -23.3608E+06    -112.759E+06    -20.2518E+06     193.724E+03    -26.6849E-03     53.3381E-03    -26.6532E-03     15.4905E-03    -26.6098E-03     52.8385E-03    -26.5571E-03     15.4849E-03
             561     3.50559E-03     72.5166E-03    -22.2047E+06    -110.003E+06    -17.1096E+06     228.738E+03    -26.7222E-03     53.3814E-03    -26.6592E-03     20.6244E-03    -26.6507E-03     52.8901E-03    -26.5530E-03     20.6158E-03
             562     4.38218E-03     72.5388E-03    -20.7176E+06    -107.458E+06    -13.1115E+06     189.403E+03    -26.7636E-03     53.4319E-03    -26.6683E-03     25.8003E-03    -26.6953E-03     52.9467E-03    -26.5480E-03     25.7872E-03
             563     5.25845E-03     72.5655E-03    -19.0054E+06    -105.083E+06    -8.69824E+06     319.245E+03    -26.8090E-03     53.4862E-03    -26.6772E-03     30.9720E-03    -26.7439E-03     53.0058E-03    -26.5407E-03     30.9555E-03
             564     6.13520E-03     72.5975E-03    -16.9466E+06    -102.312E+06    -3.75740E+06     528.313E+03    -26.9195E-03     53.6084E-03    -26.6889E-03     36.1703E-03    -26.8580E-03     53.1345E-03    -26.5348E-03     36.1500E-03
             565     7.01128E-03     72.6341E-03    -14.8757E+06    -98.9662E+06     217.425E+03     430.222E+03    -26.9887E-03     53.6849E-03    -26.6962E-03     41.2929E-03    -26.9313E-03     53.2227E-03    -26.5300E-03     41.2635E-03
             566     7.88812E-03     72.6758E-03    -13.0108E+06    -95.0071E+06     2.05091E+06     180.827E+03    -27.0506E-03     53.7393E-03    -26.6888E-03     46.3239E-03    -26.9978E-03     53.2972E-03    -26.5219E-03     46.2814E-03
             567     8.76457E-03     72.7219E-03    -11.2195E+06    -89.4630E+06     2.99986E+06     68.4080E+03    -27.1814E-03     53.8556E-03    -26.6742E-03     51.3524E-03    -27.1371E-03     53.4452E-03    -26.5132E-03     51.2962E-03
             568     9.64075E-03     72.7732E-03    -9.73766E+06    -83.6643E+06     3.03722E+06     26.3245E+03    -27.2545E-03     53.9093E-03    -26.6548E-03     56.3921E-03    -27.2226E-03     53.5369E-03    -26.5042E-03     56.3207E-03
             569     10.5181E-03     72.8288E-03    -8.46394E+06    -77.2068E+06     737.213E+03    -239.676E+03    -27.3507E-03     53.9715E-03    -26.6208E-03     61.0244E-03    -27.3349E-03     53.6494E-03    -26.4929E-03     60.9313E-03
             570     11.3938E-03     72.8887E-03    -7.52586E+06    -65.0704E+06     206.940E+03    -274.437E+03    -27.5322E-03     54.1218E-03    -26.5896E-03     66.6437E-03    -27.5543E-03     53.8856E-03    -26.4833E-03     66.5273E-03
             571     12.2710E-03     72.9547E-03    -7.08082E+06    -51.7832E+06    -1.19114E+06    -151.383E+03    -27.7089E-03     54.2628E-03    -26.5538E-03     74.2392E-03    -27.7883E-03     54.1366E-03    -26.4744E-03     74.0971E-03
             572     13.1473E-03     73.0295E-03    -6.42662E+06    -37.3521E+06    -6.27278E+06     13.1609E+03    -27.7256E-03     54.2203E-03    -26.4947E-03     78.5092E-03    -27.8768E-03     54.2342E-03    -26.4626E-03     78.3389E-03
             573     14.0245E-03     73.1038E-03    -6.19957E+06    -5.47865E+06    -10.4979E+06     418.119E+03    -27.9818E-03     54.3932E-03    -26.4113E-03     89.4716E-03    -28.3011E-03     54.7014E-03    -26.4469E-03     89.2809E-03
             574     14.9004E-03     73.1994E-03    -5.82492E+06     52.1321E+06    -18.0798E+06     640.585E+03    -29.0429E-03     55.3026E-03    -26.2596E-03     124.339E-03    -29.9355E-03     56.4119E-03    -26.4172E-03     124.180E-03
             575     15.7797E-03     73.3390E-03    -4.81034E+06     120.739E+06     6.45155E+06     479.613E+03    -30.6048E-03     56.8214E-03    -26.2166E-03     179.562E-03    -33.6400E-03     60.2492E-03    -26.3524E-03     180.149E-03
             576     16.6520E-03     73.5406E-03    -4.11375E+06     156.330E+06     70.2185E+06     312.463E+03    -29.8382E-03     56.2734E-03    -26.4352E-03     146.247E-03    -33.0488E-03     59.8208E-03    -26.3048E-03     147.751E-03
             577     876.342E-06     73.4793E-03    -25.2394E+06    -113.810E+06    -24.7325E+06     145.043E+03    -26.6448E-03     53.2770E-03    -26.6322E-03     5.65673E-03    -26.5702E-03     52.7805E-03    -26.5542E-03     5.65583E-03
             578     1.75288E-03     73.4871E-03    -24.6042E+06    -114.089E+06    -23.1120E+06     172.967E+03    -26.6516E-03     53.2922E-03    -26.6405E-03     10.4417E-03    -26.5761E-03     52.7913E-03    -26.5550E-03     10.4387E-03
             579     2.62920E-03     73.4991E-03    -23.6937E+06    -112.683E+06    -20.5661E+06     106.376E+03    -26.6756E-03     53.3209E-03    -26.6453E-03     15.4992E-03    -26.6018E-03     52.8226E-03    -26.5504E-03     15.4925E-03
             580     3.50575E-03     73.5164E-03    -22.3786E+06    -109.873E+06    -17.2150E+06     147.619E+03    -26.7097E-03     53.3610E-03    -26.6513E-03     20.6396E-03    -26.6391E-03     52.8708E-03    -26.5456E-03     20.6300E-03
             581     4.38206E-03     73.5383E-03    -20.9591E+06    -107.317E+06    -13.2715E+06     181.050E+03    -26.7457E-03     53.4046E-03    -26.6589E-03     25.7887E-03    -26.6787E-03     52.9207E-03    -26.5393E-03     25.7754E-03
             582     5.25873E-03     73.5653E-03    -19.2331E+06    -104.973E+06    -8.69211E+06     143.238E+03    -26.8206E-03     53.4901E-03    -26.6696E-03     30.9805E-03    -26.7568E-03     53.0106E-03    -26.5329E-03     30.9617E-03
             583     6.13492E-03     73.5970E-03    -17.2257E+06    -102.331E+06    -4.05042E+06     186.745E+03    -26.8871E-03     53.5672E-03    -26.6801E-03     36.1993E-03    -26.8266E-03     53.0940E-03    -26.5270E-03     36.1747E-03
             584     7.01172E-03     73.6340E-03    -15.0754E+06    -98.7347E+06    -16.6954E+03     228.311E+03    -26.9710E-03     53.6561E-03    -26.6850E-03     41.2945E-03    -26.9147E-03     53.1957E-03    -26.5201E-03     41.2625E-03
             585     7.88796E-03     73.6751E-03    -13.0953E+06    -94.1638E+06     2.14756E+06     -50.527E+03    -27.0878E-03     53.7681E-03    -26.6803E-03     46.3490E-03    -27.0369E-03     53.3302E-03    -26.5141E-03     46.3034E-03
             586     8.76447E-03     73.7220E-03    -11.4614E+06    -89.2106E+06     2.71367E+06    -253.608E+03    -27.1613E-03     53.8282E-03    -26.6669E-03     51.3551E-03    -27.1182E-03     53.4199E-03    -26.5074E-03     51.2948E-03
             587     9.64140E-03     73.7724E-03    -9.70181E+06    -83.3317E+06     2.75615E+06    -297.586E+03    -27.2249E-03     53.8704E-03    -26.6455E-03     56.2923E-03    -27.1929E-03     53.5001E-03    -26.4968E-03     56.2167E-03
             588     10.5174E-03     73.8286E-03    -8.35946E+06    -76.4958E+06     758.879E+03    -439.888E+03    -27.3329E-03     53.9442E-03    -26.6113E-03     60.8884E-03    -27.3176E-03     53.6254E-03    -26.4845E-03     60.7927E-03
             589     11.3949E-03     73.8880E-03    -7.87180E+06    -65.2662E+06    -281.068E+03    -557.650E+03    -27.5492E-03     54.1297E-03    -26.5804E-03     66.5078E-03    -27.5721E-03     53.8937E-03    -26.4758E-03     66.3876E-03
             590     12.2706E-03     73.9550E-03    -7.20468E+06    -52.1251E+06    -1.77825E+06    -424.135E+03    -27.7350E-03     54.2815E-03    -26.5465E-03     74.1011E-03    -27.8137E-03     54.1547E-03    -26.4694E-03     73.9553E-03
             591     13.1475E-03     74.0284E-03    -6.72509E+06    -37.1185E+06    -6.86899E+06    -367.966E+03    -27.7539E-03     54.2428E-03    -26.4889E-03     78.6936E-03    -27.9071E-03     54.2603E-03    -26.4597E-03     78.5181E-03
             592     14.0237E-03     74.1038E-03    -6.21360E+06    -5.71672E+06    -10.6972E+06    -303.534E+03    -27.8301E-03     54.2348E-03    -26.4047E-03     89.1521E-03    -28.1479E-03     54.5413E-03    -26.4409E-03     88.9543E-03
             593     14.9022E-03     74.1976E-03    -6.03046E+06     52.3480E+06    -18.3364E+06    -282.061E+03    -29.0251E-03     55.2754E-03    -26.2503E-03     123.099E-03    -29.9121E-03     56.3801E-03    -26.4092E-03     122.928E-03
             594     15.7779E-03     74.3381E-03    -6.45788E+06     120.504E+06     4.88311E+06     204.009E+03    -31.8664E-03     58.1116E-03    -26.2452E-03     177.314E-03    -34.8822E-03     61.5178E-03    -26.3861E-03     177.818E-03
             595     16.6609E-03     74.5407E-03    -4.62658E+06     156.438E+06     69.7263E+06     996.280E+03    -29.7404E-03     56.2460E-03    -26.5057E-03     145.893E-03    -32.9530E-03     59.7954E-03    -26.3772E-03     147.383E-03
             596     876.472E-06     74.4792E-03    -25.5563E+06    -113.928E+06    -25.2493E+06     173.635E+03    -26.6238E-03     53.2501E-03    -26.6263E-03     5.66676E-03    -26.5499E-03     52.7543E-03    -26.5503E-03     5.66626E-03
             597     1.75280E-03     74.4865E-03    -24.9491E+06    -113.905E+06    -23.3912E+06     85.1170E+03    -26.6439E-03     53.2724E-03    -26.6285E-03     10.4421E-03    -26.5700E-03     52.7733E-03    -26.5441E-03     10.4380E-03
             598     2.62933E-03     74.4990E-03    -23.9081E+06    -112.460E+06    -20.6396E+06     38.3197E+03    -26.6679E-03     53.3036E-03    -26.6357E-03     15.5110E-03    -26.5954E-03     52.8068E-03    -26.5411E-03     15.5034E-03
             599     3.50566E-03     74.5159E-03    -22.6810E+06    -109.814E+06    -17.2815E+06     31.7026E+03    -26.6943E-03     53.3362E-03    -26.6419E-03     20.6318E-03    -26.6251E-03     52.8468E-03    -26.5362E-03     20.6207E-03
             600     4.38227E-03     74.5381E-03    -21.0614E+06    -107.199E+06    -13.2077E+06     98.5208E+03    -26.7493E-03     53.3998E-03    -26.6506E-03     25.7833E-03    -26.6830E-03     52.9166E-03    -26.5306E-03     25.7690E-03
             601     5.25854E-03     74.5647E-03    -19.3304E+06    -104.670E+06    -8.51960E+06     78.6990E+03    -26.8133E-03     53.4762E-03    -26.6629E-03     30.9959E-03    -26.7507E-03     52.9981E-03    -26.5257E-03     30.9762E-03
             602     6.13521E-03     74.5969E-03    -17.4254E+06    -102.159E+06    -4.12347E+06    -91.3479E+03    -26.8598E-03     53.5312E-03    -26.6714E-03     36.1551E-03    -26.8004E-03     53.0592E-03    -26.5186E-03     36.1270E-03
             603     7.01158E-03     74.6331E-03    -15.3370E+06    -98.6905E+06    -613.843E+03    -107.441E+03    -26.9560E-03     53.6285E-03    -26.6725E-03     41.3209E-03    -26.9001E-03     53.1696E-03    -26.5102E-03     41.2846E-03
             604     7.88818E-03     74.6754E-03    -13.2372E+06    -93.4533E+06     1.89193E+06    -202.298E+03    -27.0834E-03     53.7518E-03    -26.6684E-03     46.3748E-03    -27.0339E-03     53.3180E-03    -26.5042E-03     46.3273E-03
             605     8.76471E-03     74.7209E-03    -11.3390E+06    -88.3338E+06     2.72565E+06    -628.589E+03    -27.1859E-03     53.8436E-03    -26.6577E-03     51.3201E-03    -27.1435E-03     53.4395E-03    -26.4996E-03     51.2547E-03
             606     9.64092E-03     74.7726E-03    -9.87327E+06    -83.2652E+06     2.06533E+06    -731.409E+03    -27.2725E-03     53.9110E-03    -26.6385E-03     56.1797E-03    -27.2405E-03     53.5424E-03    -26.4932E-03     56.0982E-03
             607     10.5181E-03     74.8276E-03    -8.81358E+06    -76.4847E+06    -105.174E+03    -768.733E+03    -27.3816E-03     53.9902E-03    -26.6086E-03     60.8694E-03    -27.3674E-03     53.6735E-03    -26.4854E-03     60.7692E-03
             608     11.3936E-03     74.8881E-03    -7.52543E+06    -64.7048E+06    -325.719E+03    -880.200E+03    -27.4846E-03     54.0639E-03    -26.5793E-03     66.5865E-03    -27.5064E-03     53.8302E-03    -26.4762E-03     66.4626E-03
             609     12.2712E-03     74.9539E-03    -6.64462E+06    -52.1817E+06    -2.10056E+06    -787.637E+03    -27.6568E-03     54.1960E-03    -26.5393E-03     74.0301E-03    -27.7319E-03     54.0684E-03    -26.4645E-03     73.8801E-03
             610     13.1476E-03     75.0284E-03    -6.32785E+06    -37.1348E+06    -7.16045E+06    -540.556E+03    -27.7448E-03     54.2241E-03    -26.4793E-03     78.6401E-03    -27.8954E-03     54.2412E-03    -26.4521E-03     78.4627E-03
             611     14.0246E-03     75.1032E-03    -6.48383E+06    -5.38871E+06    -11.2751E+06    -540.942E+03    -28.0596E-03     54.4613E-03    -26.4017E-03     88.8579E-03    -28.3776E-03     54.7699E-03    -26.4409E-03     88.6549E-03
             612     14.9001E-03     75.1965E-03    -7.73881E+06     52.3241E+06    -20.0783E+06    -334.004E+03    -29.7064E-03     55.9778E-03    -26.2714E-03     122.885E-03    -30.6004E-03     57.0883E-03    -26.4364E-03     122.701E-03
             613     15.7778E-03     75.3381E-03    -8.25194E+06     119.650E+06     2.07475E+06     341.046E+03    -32.4538E-03     58.7464E-03    -26.2925E-03     179.077E-03    -35.5217E-03     62.2032E-03    -26.4437E-03     179.568E-03
             614     16.6446E-03     75.5408E-03    -4.91209E+06     156.366E+06      68.081E+06     517.987E+03    -29.1847E-03     55.7317E-03    -26.5470E-03     147.267E-03    -32.4356E-03     59.3229E-03    -26.4262E-03     148.771E-03
             615     876.406E-06     75.4786E-03    -26.0242E+06    -113.983E+06    -25.6259E+06     40.5716E+03    -26.6039E-03     53.2209E-03    -26.6170E-03     5.66414E-03    -26.5317E-03     52.7260E-03    -26.5422E-03     5.66190E-03
             616     1.75292E-03     75.4863E-03    -25.3635E+06    -113.588E+06    -23.7624E+06    -1.03548E+03    -26.6359E-03     53.2509E-03    -26.6150E-03     10.4439E-03    -26.5640E-03     52.7546E-03    -26.5323E-03     10.4387E-03
             617     2.62926E-03     75.4984E-03    -24.3242E+06    -112.214E+06    -20.9495E+06    -103.368E+03    -26.6578E-03     53.2822E-03    -26.6244E-03     15.5027E-03    -26.5873E-03     52.7878E-03    -26.5312E-03     15.4933E-03
             618     3.50582E-03     75.5157E-03    -22.9040E+06    -109.686E+06    -17.2958E+06    -48.3410E+03    -26.6927E-03     53.3261E-03    -26.6334E-03     20.6227E-03    -26.6249E-03     52.8378E-03    -26.5276E-03     20.6106E-03
             619     4.38215E-03     75.5374E-03    -21.3364E+06    -106.993E+06    -13.1629E+06    -101.672E+03    -26.7474E-03     53.3914E-03    -26.6440E-03     25.7981E-03    -26.6829E-03     52.9095E-03    -26.5238E-03     25.7811E-03
             620     5.25873E-03     75.5647E-03    -19.4451E+06    -104.441E+06    -8.77809E+06    -81.9924E+03    -26.7941E-03     53.4484E-03    -26.6543E-03     30.9709E-03    -26.7320E-03     52.9720E-03    -26.5186E-03     30.9491E-03
             621     6.13514E-03     75.5961E-03    -17.4518E+06    -101.645E+06    -4.16529E+06    -220.112E+03    -26.8730E-03     53.5369E-03    -26.6639E-03     36.1276E-03    -26.8144E-03     53.0676E-03    -26.5121E-03     36.0977E-03
             622     7.01169E-03     75.6333E-03    -15.3890E+06    -98.3607E+06    -636.375E+03    -481.802E+03    -26.9453E-03     53.6119E-03    -26.6667E-03     41.2759E-03    -26.8901E-03     53.1548E-03    -26.5049E-03     41.2348E-03
             623     7.88823E-03     75.6743E-03    -13.3837E+06    -93.1601E+06     1.07124E+06    -575.647E+03    -27.0465E-03     53.7034E-03    -26.6569E-03     46.3646E-03    -26.9969E-03     53.2725E-03    -26.4971E-03     46.3124E-03
             624     8.76463E-03     75.7213E-03    -11.4296E+06    -87.4784E+06     2.21543E+06    -950.725E+03    -27.1956E-03     53.8418E-03    -26.6462E-03     51.3109E-03    -27.1542E-03     53.4428E-03    -26.4917E-03     51.2414E-03
             625     9.64138E-03     75.7716E-03    -9.90080E+06    -83.0787E+06     1.55358E+06    -1.28036E+06    -27.2952E-03     53.9253E-03    -26.6301E-03     56.2375E-03    -27.2629E-03     53.5584E-03    -26.4875E-03     56.1489E-03
             626     10.5173E-03     75.8277E-03    -8.57802E+06    -76.2334E+06    -737.354E+03    -1.26891E+06    -27.3796E-03     53.9796E-03    -26.6000E-03     61.0420E-03    -27.3637E-03     53.6648E-03    -26.4807E-03     60.9356E-03
             627     11.3949E-03     75.8872E-03    -7.46135E+06    -64.1277E+06    -707.306E+03    -1.30897E+06    -27.4743E-03     54.0456E-03    -26.5714E-03     66.6105E-03    -27.4960E-03     53.8152E-03    -26.4711E-03     66.4811E-03
             628     12.2708E-03     75.9538E-03    -6.63290E+06    -51.8182E+06    -2.37241E+06    -1.09227E+06    -27.7031E-03     54.2369E-03    -26.5338E-03     74.0422E-03    -27.7783E-03     54.1115E-03    -26.4610E-03     73.8881E-03
             629     13.1475E-03     76.0276E-03    -6.21938E+06    -37.6443E+06    -7.74771E+06    -864.653E+03    -27.7896E-03     54.2664E-03    -26.4769E-03     78.4167E-03    -27.9371E-03     54.2808E-03    -26.4520E-03     78.2351E-03
             630     14.0241E-03     76.1026E-03    -6.33354E+06    -5.61941E+06    -11.6324E+06    -209.028E+03    -28.1034E-03     54.5060E-03    -26.4026E-03     89.0279E-03    -28.4195E-03     54.8134E-03    -26.4434E-03     88.8286E-03
             631     14.9011E-03     76.1972E-03    -7.35744E+06     52.2473E+06    -20.2796E+06     442.438E+03    -29.8919E-03     56.1677E-03    -26.2758E-03     124.306E-03    -30.7938E-03     57.2878E-03    -26.4423E-03     124.127E-03
             632     15.7754E-03     76.3381E-03    -7.40667E+06     119.663E+06     1.84457E+06     291.159E+03    -31.7791E-03     58.0570E-03    -26.2779E-03     180.106E-03    -34.8440E-03     61.5145E-03    -26.4314E-03     180.650E-03
             633     16.6639E-03     76.5427E-03    -4.51103E+06     157.069E+06     68.1508E+06    -36.4731E+03    -29.0580E-03     55.5687E-03    -26.5106E-03     146.571E-03    -32.2877E-03     59.1423E-03    -26.3911E-03     148.092E-03
             634     876.453E-06     76.4784E-03    -26.3431E+06    -113.763E+06    -25.8918E+06     16.3673E+03    -26.6081E-03     53.2072E-03    -26.5990E-03     5.66135E-03    -26.5375E-03     52.7143E-03    -26.5253E-03     5.65879E-03
             635     1.75286E-03     76.4857E-03    -25.6763E+06    -113.260E+06    -24.1176E+06    -95.7326E+03    -26.6235E-03     53.2301E-03    -26.6066E-03     10.4423E-03    -26.5531E-03     52.7364E-03    -26.5257E-03     10.4358E-03
             636     2.62936E-03     76.4982E-03    -24.6237E+06    -111.807E+06    -21.1572E+06    -223.383E+03    -26.6514E-03     53.2675E-03    -26.6160E-03     15.4878E-03    -26.5827E-03     52.7758E-03    -26.5240E-03     15.4768E-03
             637     3.50574E-03     76.5150E-03    -23.2284E+06    -109.575E+06    -17.6000E+06    -261.270E+03    -26.6920E-03     53.3183E-03    -26.6263E-03     20.6273E-03    -26.6255E-03     52.8314E-03    -26.5217E-03     20.6124E-03
             638     4.38227E-03     76.5374E-03    -21.5731E+06    -106.645E+06    -13.5005E+06    -179.963E+03    -26.7324E-03     53.3687E-03    -26.6363E-03     25.7890E-03    -26.6691E-03     52.8894E-03    -26.5179E-03     25.7711E-03
             639     5.25869E-03     76.5639E-03    -19.7701E+06    -104.100E+06    -9.04910E+06    -377.358E+03    -26.7991E-03     53.4464E-03    -26.6473E-03     30.9553E-03    -26.7387E-03     52.9726E-03    -26.5129E-03     30.9297E-03
             640     6.13521E-03     76.5961E-03    -17.6328E+06    -101.113E+06    -4.63697E+06    -494.923E+03    -26.8789E-03     53.5361E-03    -26.6573E-03     36.1358E-03    -26.8213E-03     53.0705E-03    -26.5083E-03     36.1023E-03
             641     7.01166E-03     76.6324E-03    -15.4770E+06    -97.6708E+06    -875.973E+03    -838.609E+03    -26.9614E-03     53.6242E-03    -26.6628E-03     41.2298E-03    -26.9074E-03     53.1711E-03    -26.5031E-03     41.1839E-03
             642     7.88818E-03     76.6744E-03    -13.2229E+06    -92.6960E+06     686.674E+03    -1.21529E+06    -27.0159E-03     53.6679E-03    -26.6520E-03     46.3363E-03    -26.9656E-03     53.2396E-03    -26.4950E-03     46.2759E-03
             643     8.76485E-03     76.7204E-03    -11.3361E+06    -87.0838E+06     1.40129E+06    -1.42366E+06    -27.1044E-03     53.7379E-03    -26.6335E-03     51.3786E-03    -27.0618E-03     53.3418E-03    -26.4838E-03     51.3034E-03
             644     9.64113E-03     76.7717E-03    -9.68076E+06    -82.3813E+06     1.27945E+06    -1.71304E+06    -27.2555E-03     53.8693E-03    -26.6138E-03     56.2771E-03    -27.2227E-03     53.5060E-03    -26.4740E-03     56.1831E-03
             645     10.5184E-03     76.8269E-03    -8.51398E+06    -75.7565E+06    -1.18148E+06    -1.74937E+06    -27.3810E-03     53.9638E-03    -26.5828E-03     61.0828E-03    -27.3647E-03     53.6518E-03    -26.4665E-03     60.9702E-03
             646     11.3939E-03     76.8872E-03    -7.64365E+06    -63.8811E+06    -1.24072E+06    -1.76763E+06    -27.5401E-03     54.0980E-03    -26.5579E-03     66.6605E-03    -27.5624E-03     53.8700E-03    -26.4604E-03     66.5249E-03
             647     12.2711E-03     76.9530E-03    -6.70765E+06    -51.8959E+06    -2.75026E+06    -1.61107E+06    -27.7635E-03     54.2901E-03    -26.5266E-03     74.1649E-03    -27.8387E-03     54.1652E-03    -26.4554E-03     74.0038E-03
             648     13.1476E-03     77.0277E-03    -6.38090E+06    -37.8493E+06    -8.31901E+06    -1.06059E+06    -27.8035E-03     54.2750E-03    -26.4715E-03     78.5852E-03    -27.9511E-03     54.2897E-03    -26.4489E-03     78.4007E-03
             649     14.0241E-03     77.1018E-03    -6.47748E+06    -6.41038E+06    -12.5484E+06    -479.164E+03    -28.0938E-03     54.4897E-03    -26.3960E-03     89.3070E-03    -28.4099E-03     54.7965E-03    -26.4400E-03     89.1037E-03
             650     14.9010E-03     77.1966E-03    -6.01487E+06     51.7409E+06    -19.9773E+06     339.701E+03    -29.3900E-03     55.6477E-03    -26.2577E-03     124.374E-03    -30.2823E-03     56.7603E-03    -26.4239E-03     124.205E-03
             651     15.7795E-03     77.3392E-03    -5.86652E+06     120.698E+06     3.99824E+06     502.968E+03    -31.7162E-03     57.9699E-03    -26.2537E-03     179.029E-03    -34.7548E-03     61.4042E-03    -26.4002E-03     179.558E-03
             652     16.6467E-03     77.5358E-03    -4.98887E+06     157.450E+06     68.7008E+06    -99.2113E+03    -29.5222E-03     56.0207E-03    -26.4985E-03     145.776E-03    -32.7415E-03     59.5820E-03    -26.3761E-03     147.266E-03
             653     876.453E-06     77.4778E-03    -26.5674E+06    -113.483E+06    -26.2462E+06    -88.9613E+03    -26.6081E-03     53.1979E-03    -26.5898E-03     5.66693E-03    -26.5385E-03     52.7072E-03    -26.5179E-03     5.66302E-03
             654     1.75289E-03     77.4855E-03    -25.9402E+06    -112.869E+06    -24.3503E+06    -143.549E+03    -26.6186E-03     53.2206E-03    -26.6020E-03     10.4367E-03    -26.5497E-03     52.7296E-03    -26.5225E-03     10.4296E-03
             655     2.62933E-03     77.4976E-03    -24.9989E+06    -111.362E+06    -21.5957E+06    -267.821E+03    -26.6467E-03     53.2572E-03    -26.6105E-03     15.4921E-03    -26.5798E-03     52.7689E-03    -26.5208E-03     15.4805E-03
             656     3.50580E-03     77.5150E-03    -23.6709E+06    -109.132E+06    -18.1385E+06    -465.568E+03    -26.6813E-03     53.3011E-03    -26.6198E-03     20.6206E-03    -26.6169E-03     52.8179E-03    -26.5179E-03     20.6031E-03
             657     4.38225E-03     77.5366E-03    -21.8629E+06    -106.512E+06    -14.0288E+06    -529.817E+03    -26.7296E-03     53.3593E-03    -26.6298E-03     25.7802E-03    -26.6672E-03     52.8819E-03    -26.5138E-03     25.7576E-03
             658     5.25875E-03     77.5639E-03    -19.8106E+06    -103.469E+06    -9.11358E+06    -561.414E+03    -26.7968E-03     53.4392E-03    -26.6424E-03     30.9693E-03    -26.7375E-03     52.9687E-03    -26.5093E-03     30.9413E-03
             659     6.13519E-03     77.5953E-03    -17.7498E+06    -100.590E+06    -4.76611E+06    -943.659E+03    -26.8691E-03     53.5213E-03    -26.6522E-03     36.1438E-03    -26.8127E-03     53.0586E-03    -26.5044E-03     36.1045E-03
             660     7.01173E-03     77.6325E-03    -15.4422E+06    -96.7094E+06    -1.38216E+06    -1.31692E+06    -26.9503E-03     53.6045E-03    -26.6542E-03     41.2973E-03    -26.8968E-03     53.1568E-03    -26.4985E-03     41.2453E-03
             661     7.88815E-03     77.6736E-03    -13.2150E+06    -92.0882E+06     269.616E+03    -1.87013E+06    -27.0056E-03     53.6493E-03    -26.6437E-03     46.3232E-03    -26.9556E-03     53.2247E-03    -26.4897E-03     46.2542E-03
             662     8.76481E-03     77.7201E-03    -11.1435E+06    -86.5798E+06     928.579E+03    -2.12424E+06    -27.0552E-03     53.6777E-03    -26.6224E-03     51.3628E-03    -27.0116E-03     53.2845E-03    -26.4761E-03     51.2788E-03
             663     9.64175E-03     77.7710E-03    -9.50848E+06    -81.5681E+06     1.05890E+06    -2.21004E+06    -27.2088E-03     53.8089E-03    -26.6000E-03     56.2435E-03    -27.1759E-03     53.4496E-03    -26.4627E-03     56.1433E-03
             664     10.5176E-03     77.8266E-03    -8.19888E+06    -75.4890E+06    -1.27049E+06    -2.29686E+06    -27.3713E-03     53.9402E-03    -26.5689E-03     60.9848E-03    -27.3537E-03     53.6292E-03    -26.4539E-03     60.8650E-03
             665     11.3952E-03     77.8866E-03    -7.27745E+06    -63.6256E+06    -1.48235E+06    -2.22613E+06    -27.5358E-03     54.0792E-03    -26.5435E-03     66.7522E-03    -27.5563E-03     53.8524E-03    -26.4481E-03     66.6107E-03
             666     12.2710E-03     77.9530E-03    -6.63610E+06    -51.8448E+06    -3.04838E+06    -1.97411E+06    -27.6931E-03     54.2038E-03    -26.5106E-03     74.2065E-03    -27.7674E-03     54.0793E-03    -26.4411E-03     74.0411E-03
             667     13.1477E-03     78.0269E-03    -6.25074E+06    -38.3052E+06    -8.73766E+06    -1.42256E+06    -27.7922E-03     54.2456E-03    -26.4534E-03     78.7957E-03    -27.9385E-03     54.2590E-03    -26.4324E-03     78.6066E-03
             668     14.0247E-03     78.1016E-03    -6.54320E+06    -6.55844E+06    -12.9706E+06    -841.012E+03    -28.1414E-03     54.5207E-03    -26.3793E-03     89.5143E-03    -28.4580E-03     54.8284E-03    -26.4251E-03     89.3062E-03
             669     14.9006E-03     78.1966E-03    -6.46277E+06     51.2486E+06    -20.1381E+06    -658.633E+03    -29.1563E-03     55.3958E-03    -26.2395E-03     124.051E-03    -30.0467E-03     56.5036E-03    -26.4051E-03     123.876E-03
             670     15.7774E-03     78.3359E-03    -5.35119E+06     120.157E+06     3.14502E+06     273.219E+03    -31.6438E-03     57.8640E-03    -26.2201E-03     180.435E-03    -34.7124E-03     61.3308E-03    -26.3709E-03     180.954E-03
             671     16.6619E-03     78.5439E-03    -4.13742E+06     158.284E+06     68.1646E+06     864.392E+03    -30.1105E-03     56.5818E-03    -26.4713E-03     147.091E-03    -33.3560E-03     60.1768E-03    -26.3540E-03     148.567E-03
             672     876.412E-06     78.4776E-03    -27.0274E+06    -113.084E+06    -26.5285E+06    -133.392E+03    -26.6007E-03     53.1923E-03    -26.5917E-03     5.66600E-03    -26.5335E-03     52.7047E-03    -26.5211E-03     5.66151E-03
             673     1.75291E-03     78.4849E-03    -26.3241E+06    -112.430E+06    -24.8223E+06    -273.047E+03    -26.6156E-03     53.2143E-03    -26.5987E-03     10.4363E-03    -26.5486E-03     52.7267E-03    -26.5216E-03     10.4275E-03
             674     2.62932E-03     78.4974E-03    -25.1833E+06    -110.824E+06    -21.9968E+06    -420.139E+03    -26.6401E-03     53.2465E-03    -26.6064E-03     15.4963E-03    -26.5744E-03     52.7617E-03    -26.5191E-03     15.4827E-03
             675     3.50581E-03     78.5142E-03    -23.7256E+06    -108.523E+06    -18.1526E+06    -650.246E+03    -26.6760E-03     53.2925E-03    -26.6165E-03     20.6194E-03    -26.6128E-03     52.8124E-03    -26.5155E-03     20.5994E-03
             676     4.38226E-03     78.5366E-03    -22.0134E+06    -106.011E+06    -14.0045E+06    -955.747E+03    -26.7282E-03     53.3551E-03    -26.6270E-03     25.7882E-03    -26.6673E-03     52.8804E-03    -26.5113E-03     25.7602E-03
             677     5.25874E-03     78.5631E-03    -19.8953E+06    -103.088E+06    -9.53537E+06    -1.08614E+06    -26.7814E-03     53.4182E-03    -26.6367E-03     30.9741E-03    -26.7225E-03     52.9503E-03    -26.5061E-03     30.9393E-03
             678     6.13526E-03     78.5953E-03    -17.5611E+06    -99.5833E+06    -4.76606E+06    -1.34067E+06    -26.8434E-03     53.4883E-03    -26.6449E-03     36.1536E-03    -26.7875E-03     53.0303E-03    -26.4989E-03     36.1092E-03
             679     7.01174E-03     78.6316E-03    -15.3285E+06    -95.8078E+06    -1.61804E+06    -1.97666E+06    -26.8992E-03     53.5413E-03    -26.6420E-03     41.2921E-03    -26.8461E-03     53.0983E-03    -26.4890E-03     41.2317E-03
             680     7.88844E-03     78.6736E-03    -13.1431E+06    -90.8891E+06    -136.388E+03    -2.53714E+06    -27.0182E-03     53.6473E-03    -26.6291E-03     46.3448E-03    -26.9691E-03     53.2292E-03    -26.4789E-03     46.2672E-03
             681     8.76486E-03     78.7193E-03    -11.1809E+06    -85.7743E+06     562.336E+03    -2.83852E+06    -27.1292E-03     53.7434E-03    -26.6142E-03     51.2667E-03    -27.0866E-03     53.3550E-03    -26.4708E-03     51.1730E-03
             682     9.64130E-03     78.7707E-03    -9.34854E+06    -81.0463E+06     573.579E+03    -2.98008E+06    -27.1740E-03     53.7681E-03    -26.5941E-03     56.1930E-03    -27.1404E-03     53.4119E-03    -26.4601E-03     56.0829E-03
             683     10.5185E-03     78.8261E-03    -8.01540E+06    -75.1391E+06    -1.62191E+06    -3.00125E+06    -27.3354E-03     53.8965E-03    -26.5612E-03     60.9675E-03    -27.3169E-03     53.5875E-03    -26.4487E-03     60.8388E-03
             684     11.3942E-03     78.8860E-03    -7.16992E+06    -63.8530E+06    -2.00934E+06    -2.65501E+06    -27.4557E-03     53.9876E-03    -26.5319E-03     66.6555E-03    -27.4745E-03     53.7600E-03    -26.4389E-03     66.5089E-03
             685     12.2715E-03     78.9526E-03    -6.55912E+06    -52.0541E+06    -3.53972E+06    -2.27245E+06    -27.5790E-03     54.0722E-03    -26.4933E-03     74.0099E-03    -27.6513E-03     53.9468E-03    -26.4260E-03     73.8415E-03
             686     13.1485E-03     79.0259E-03    -6.02569E+06    -38.1809E+06    -8.95527E+06    -1.95847E+06    -27.8528E-03     54.2885E-03    -26.4357E-03     78.9151E-03    -27.9990E-03     54.3038E-03    -26.4164E-03     78.7181E-03
             687     14.0243E-03     79.1021E-03    -5.85461E+06    -6.40538E+06    -12.6401E+06    -1.24277E+06    -28.0822E-03     54.4474E-03    -26.3653E-03     89.1062E-03    -28.3943E-03     54.7527E-03    -26.4107E-03     88.8940E-03
             688     14.9022E-03     79.1947E-03    -7.04170E+06     51.1342E+06    -21.5007E+06    -562.150E+03    -29.2076E-03     55.4294E-03    -26.2218E-03     123.151E-03    -30.0948E-03     56.5355E-03    -26.3932E-03     122.972E-03
             689     15.7798E-03     79.3366E-03    -9.00595E+06     118.249E+06    -352.522E+03    -516.518E+03    -32.3710E-03     58.5959E-03    -26.2248E-03     179.420E-03    -35.4507E-03     62.0643E-03    -26.3850E-03     179.910E-03
             690     16.6509E-03     79.5382E-03    -5.26401E+06     157.570E+06     67.1043E+06     96.8706E+03    -29.8752E-03     56.3780E-03    -26.5028E-03     143.451E-03    -33.0856E-03     59.9346E-03    -26.3881E-03     144.896E-03
             691     876.491E-06     79.4769E-03    -27.2434E+06    -112.475E+06    -26.8969E+06    -202.601E+03    -26.5937E-03     53.1898E-03    -26.5961E-03     5.66220E-03    -26.5279E-03     52.7061E-03    -26.5280E-03     5.65681E-03
             692     1.75284E-03     79.4847E-03    -26.4930E+06    -111.775E+06    -24.9855E+06    -483.403E+03    -26.6112E-03     53.2083E-03    -26.5971E-03     10.4426E-03    -26.5458E-03     52.7245E-03    -26.5215E-03     10.4311E-03
             693     2.62938E-03     79.4967E-03    -25.3121E+06    -110.164E+06    -22.0798E+06    -760.097E+03    -26.6350E-03     53.2390E-03    -26.6040E-03     15.4968E-03    -26.5707E-03     52.7579E-03    -26.5180E-03     15.4789E-03
             694     3.50577E-03     79.5141E-03    -23.7525E+06    -107.872E+06    -18.3015E+06    -984.039E+03    -26.6727E-03     53.2858E-03    -26.6131E-03     20.6280E-03    -26.6103E-03     52.8092E-03    -26.5138E-03     20.6037E-03
             695     4.38230E-03     79.5358E-03    -21.9623E+06    -105.184E+06    -13.8513E+06    -1.22057E+06    -26.7168E-03     53.3407E-03    -26.6239E-03     25.7947E-03    -26.6571E-03     52.8698E-03    -26.5088E-03     25.7632E-03
             696     5.25874E-03     79.5631E-03    -19.9972E+06    -102.355E+06    -9.57217E+06    -1.68618E+06    -26.7668E-03     53.3984E-03    -26.6316E-03     30.9752E-03    -26.7094E-03     52.9344E-03    -26.5020E-03     30.9326E-03
             697     6.13528E-03     79.5945E-03    -17.6345E+06    -98.7401E+06    -5.40451E+06    -2.08103E+06    -26.8157E-03     53.4501E-03    -26.6343E-03     36.1385E-03    -26.7605E-03     52.9974E-03    -26.4926E-03     36.0845E-03
             698     7.01187E-03     79.6316E-03    -15.1841E+06    -94.3933E+06    -1.85395E+06    -2.59728E+06    -26.8980E-03     53.5294E-03    -26.6314E-03     41.2225E-03    -26.8458E-03     53.0937E-03    -26.4818E-03     41.1539E-03
             699     7.88838E-03     79.6725E-03    -13.1378E+06    -89.7139E+06    -636.776E+03    -3.26554E+06    -27.0170E-03     53.6356E-03    -26.6186E-03     46.3153E-03    -26.9688E-03     53.2241E-03    -26.4727E-03     46.2282E-03
             700     8.76494E-03     79.7196E-03    -11.1904E+06    -84.8926E+06    -121.558E+03    -3.61506E+06    -27.1318E-03     53.7359E-03    -26.6041E-03     51.2638E-03    -27.0895E-03     53.3529E-03    -26.4654E-03     51.1600E-03
             701     9.64153E-03     79.7696E-03    -9.74359E+06    -80.6593E+06    -473.731E+03    -3.68728E+06    -27.2367E-03     53.8236E-03    -26.5869E-03     56.1959E-03    -27.2042E-03     53.4715E-03    -26.4582E-03     56.0763E-03
             702     10.5179E-03     79.8258E-03    -8.58191E+06    -74.6744E+06    -2.52264E+06    -3.61870E+06    -27.3175E-03     53.8746E-03    -26.5571E-03     60.9724E-03    -27.3013E-03     53.5702E-03    -26.4490E-03     60.8357E-03
             703     11.3951E-03     79.8856E-03    -7.36605E+06    -63.8499E+06    -2.64530E+06    -3.38677E+06    -27.4227E-03     53.9504E-03    -26.5277E-03     66.4531E-03    -27.4413E-03     53.7239E-03    -26.4377E-03     66.2972E-03
             704     12.2715E-03     79.9515E-03    -6.45180E+06    -52.2568E+06    -4.12175E+06    -2.87279E+06    -27.6902E-03     54.1828E-03    -26.4926E-03     73.7179E-03    -27.7612E-03     54.0573E-03    -26.4280E-03     73.5408E-03
             705     13.1478E-03     80.0259E-03    -6.22189E+06    -38.4134E+06    -9.55934E+06    -2.34954E+06    -27.8269E-03     54.2659E-03    -26.4390E-03     78.5971E-03    -27.9720E-03     54.2803E-03    -26.4221E-03     78.3957E-03
             706     14.0251E-03     80.1014E-03    -5.79323E+06    -7.16316E+06    -13.0076E+06    -1.75203E+06    -28.0985E-03     54.4690E-03    -26.3705E-03     88.5571E-03    -28.4063E-03     54.7686E-03    -26.4168E-03     88.3379E-03
             707     14.9006E-03     80.1942E-03    -6.68156E+06     49.6304E+06    -22.6782E+06    -353.008E+03    -29.7282E-03     55.9686E-03    -26.2404E-03     122.386E-03    -30.6072E-03     57.0659E-03    -26.4161E-03     122.198E-03
             708     15.7770E-03     80.3350E-03    -6.94014E+06     118.669E+06    -1.14217E+06     1.08978E+06    -31.7898E-03     58.0216E-03    -26.2318E-03     181.910E-03    -34.8931E-03     61.5250E-03    -26.3996E-03     182.468E-03
             709     16.6532E-03     80.5465E-03    -4.30112E+06     158.880E+06     66.9843E+06     146.601E+03    -29.5448E-03     56.0164E-03    -26.4716E-03     148.901E-03    -32.8227E-03     59.6492E-03    -26.3608E-03     150.413E-03
             710     876.376E-06     80.4767E-03    -27.1094E+06    -111.666E+06    -26.7570E+06    -355.845E+03    -26.5932E-03     53.1863E-03    -26.5930E-03     5.67232E-03    -26.5282E-03     52.7062E-03    -26.5256E-03     5.66495E-03
             711     1.75295E-03     80.4841E-03    -26.3863E+06    -110.906E+06    -24.8283E+06    -662.891E+03    -26.6099E-03     53.2055E-03    -26.5956E-03     10.4422E-03    -26.5455E-03     52.7257E-03    -26.5206E-03     10.4284E-03
             712     2.62929E-03     80.4965E-03     -25.277E+06    -109.271E+06    -21.9509E+06    -1.03197E+06    -26.6325E-03     53.2350E-03    -26.6025E-03     15.4992E-03    -26.5695E-03     52.7581E-03    -26.5172E-03     15.4777E-03
             713     3.50585E-03     80.5135E-03    -23.7749E+06    -107.017E+06    -18.4058E+06    -1.40786E+06    -26.6619E-03     53.2715E-03    -26.6096E-03     20.6339E-03    -26.6008E-03     52.7994E-03    -26.5120E-03     20.6041E-03
             714     4.38225E-03     80.5357E-03    -21.8564E+06    -104.401E+06    -14.0530E+06    -1.68017E+06    -26.7027E-03     53.3205E-03    -26.6178E-03     25.8003E-03    -26.6433E-03     52.8536E-03    -26.5050E-03     25.7629E-03
             715     5.25883E-03     80.5623E-03    -19.7062E+06    -101.114E+06    -9.27905E+06    -2.11144E+06    -26.7540E-03     53.3795E-03    -26.6255E-03     30.9704E-03    -26.6974E-03     52.9209E-03    -26.4967E-03     30.9223E-03
             716     6.13529E-03     80.5944E-03    -17.5182E+06    -97.5749E+06    -5.58596E+06    -2.85603E+06    -26.8216E-03     53.4482E-03    -26.6266E-03     36.1081E-03    -26.7672E-03     53.0014E-03    -26.4876E-03     36.0441E-03
             717     7.01188E-03     80.6307E-03    -15.2338E+06    -93.1720E+06    -2.84877E+06    -3.37806E+06    -26.9260E-03     53.5486E-03    -26.6226E-03     41.2404E-03    -26.8745E-03     53.1205E-03    -26.4796E-03     41.1616E-03
             718     7.88833E-03     80.6727E-03    -13.1369E+06    -88.3606E+06    -1.30747E+06    -3.88022E+06    -26.9903E-03     53.6021E-03    -26.6118E-03     46.2824E-03    -26.9431E-03     53.1983E-03    -26.4711E-03     46.1874E-03
             719     8.76501E-03     80.7183E-03    -11.4369E+06    -84.2556E+06    -979.232E+03    -4.37533E+06    -27.0944E-03     53.6892E-03    -26.5949E-03     51.2686E-03    -27.0530E-03     53.3110E-03    -26.4610E-03     51.1551E-03
             720     9.64161E-03     80.7698E-03    -9.81993E+06    -79.7307E+06    -1.06791E+06    -4.36647E+06    -27.2890E-03     53.8682E-03    -26.5792E-03     56.1815E-03    -27.2574E-03     53.5219E-03    -26.4547E-03     56.0530E-03
             721     10.5181E-03     80.8250E-03    -8.49019E+06    -74.1836E+06    -3.14363E+06    -4.35962E+06    -27.3655E-03     53.9199E-03    -26.5544E-03     60.8861E-03    -27.3488E-03     53.6188E-03    -26.4503E-03     60.7395E-03
             722     11.3945E-03     80.8850E-03    -7.49570E+06    -63.8711E+06    -3.43335E+06    -4.10153E+06    -27.5035E-03     54.0336E-03    -26.5301E-03     66.4665E-03    -27.5216E-03     53.8084E-03    -26.4438E-03     66.3010E-03
             723     12.2710E-03     80.9514E-03    -6.67096E+06    -52.3105E+06    -4.98857E+06    -3.60844E+06    -27.8387E-03     54.3409E-03    -26.5022E-03     73.8780E-03    -27.9103E-03     54.2176E-03    -26.4416E-03     73.6904E-03
             724     13.1477E-03     81.0253E-03    -6.05068E+06    -39.4903E+06    -10.6310E+06    -2.72699E+06    -27.8276E-03     54.2802E-03    -26.4526E-03     78.5192E-03    -27.9679E-03     54.2897E-03    -26.4397E-03     78.3132E-03
             725     14.0240E-03     81.1007E-03    -6.83810E+06    -8.50388E+06    -15.0525E+06    -1.68284E+06    -28.0862E-03     54.4654E-03    -26.3793E-03     88.9086E-03    -28.3956E-03     54.7641E-03    -26.4323E-03     88.6903E-03
             726     14.9014E-03     81.1945E-03    -7.29151E+06     48.6255E+06    -23.8847E+06    -965.555E+03    -30.0141E-03     56.2705E-03    -26.2564E-03     123.754E-03    -30.9095E-03     57.3819E-03    -26.4357E-03     123.555E-03
             727     15.7763E-03     81.3362E-03    -5.51342E+06     118.316E+06    -1.32468E+06    -234.450E+03    -30.9488E-03     57.1911E-03    -26.2423E-03     177.616E-03    -33.9434E-03     60.5896E-03    -26.4125E-03     178.195E-03
             728     16.6647E-03     81.5350E-03    -3.37984E+06     159.592E+06     66.8056E+06     444.044E+03    -28.9852E-03     55.4508E-03    -26.4656E-03     145.646E-03    -32.1739E-03     59.0006E-03    -26.3581E-03     147.196E-03
             729     876.527E-06     81.4761E-03    -26.8364E+06    -110.650E+06    -26.3905E+06    -474.744E+03    -26.5971E-03     53.1839E-03    -26.5867E-03     5.66916E-03    -26.5327E-03     52.7079E-03    -26.5193E-03     5.66024E-03
             730     1.75282E-03     81.4838E-03    -26.1067E+06    -109.876E+06    -24.5885E+06    -854.505E+03    -26.6075E-03     53.2012E-03    -26.5938E-03     10.4420E-03    -26.5434E-03     52.7258E-03    -26.5195E-03     10.4256E-03
             731     2.62941E-03     81.4959E-03    -24.9939E+06    -108.169E+06    -21.7820E+06    -1.22702E+06    -26.6261E-03     53.2255E-03    -26.5994E-03     15.5041E-03    -26.5636E-03     52.7534E-03    -26.5152E-03     15.4800E-03
             732     3.50575E-03     81.5132E-03    -23.5702E+06    -105.835E+06    -18.1432E+06    -1.74607E+06    -26.6528E-03     53.2584E-03    -26.6056E-03     20.6317E-03    -26.5927E-03     52.7915E-03    -26.5087E-03     20.5976E-03
             733     4.38237E-03     81.5350E-03    -21.7606E+06    -103.381E+06    -14.1330E+06    -2.27815E+06    -26.6912E-03     53.3025E-03    -26.6113E-03     25.7969E-03    -26.6327E-03     52.8407E-03    -26.5005E-03     25.7517E-03
             734     5.25877E-03     81.5621E-03    -19.6473E+06    -99.8833E+06    -9.92086E+06    -2.70351E+06    -26.7479E-03     53.3633E-03    -26.6153E-03     30.9639E-03    -26.6919E-03     52.9117E-03    -26.4916E-03     30.9082E-03
             735     6.13540E-03     81.5936E-03    -17.4443E+06    -95.7772E+06    -6.06580E+06    -3.43450E+06    -26.8354E-03     53.4532E-03    -26.6177E-03     36.1230E-03    -26.7826E-03     53.0160E-03    -26.4839E-03     36.0515E-03
             736     7.01180E-03     81.6306E-03    -15.3075E+06    -91.9808E+06    -3.52249E+06    -4.24805E+06    -26.9005E-03     53.5144E-03    -26.6139E-03     41.2798E-03    -26.8501E-03     53.0933E-03    -26.4759E-03     41.1899E-03
             737     7.88844E-03     81.6718E-03    -13.2263E+06    -87.1258E+06    -2.16085E+06    -4.65832E+06    -27.0068E-03     53.6088E-03    -26.6020E-03     46.3022E-03    -26.9606E-03     53.2126E-03    -26.4673E-03     46.1971E-03
             738     8.76503E-03     81.7182E-03    -11.3232E+06    -82.8246E+06    -1.26797E+06    -5.05708E+06    -27.1467E-03     53.7379E-03    -26.5912E-03     51.2577E-03    -27.1066E-03     53.3672E-03    -26.4610E-03     51.1351E-03
             739     9.64142E-03     81.7692E-03    -9.61445E+06    -79.2765E+06    -1.67414E+06    -5.24386E+06    -27.2322E-03     53.8075E-03    -26.5753E-03     56.1703E-03    -27.1993E-03     53.4639E-03    -26.4548E-03     56.0307E-03
             740     10.5181E-03     81.8247E-03    -8.44194E+06    -74.2251E+06    -4.02817E+06    -5.11456E+06    -27.3918E-03     53.9404E-03    -26.5486E-03     60.9095E-03    -27.3735E-03     53.6403E-03    -26.4488E-03     60.7531E-03
             741     11.3946E-03     81.8846E-03    -7.48955E+06    -63.4413E+06    -4.02139E+06    -4.82383E+06    -27.5747E-03     54.1032E-03    -26.5285E-03     66.7044E-03    -27.5930E-03     53.8813E-03    -26.4458E-03     66.5292E-03
             742     12.2714E-03     81.9510E-03    -6.61241E+06    -52.4299E+06    -5.69746E+06    -4.27570E+06    -27.7796E-03     54.2800E-03    -26.5004E-03     74.2437E-03    -27.8497E-03     54.1570E-03    -26.4432E-03     74.0479E-03
             743     13.1474E-03     82.0253E-03    -6.41566E+06    -40.5819E+06    -11.7883E+06    -3.38750E+06    -27.8534E-03     54.3017E-03    -26.4484E-03     78.7127E-03    -27.9927E-03     54.3084E-03    -26.4392E-03     78.4978E-03
             744     14.0247E-03     82.0996E-03    -5.89686E+06    -9.68071E+06    -15.5320E+06    -1.88961E+06    -28.1554E-03     54.5339E-03    -26.3785E-03     89.4045E-03    -28.4603E-03     54.8285E-03    -26.4335E-03     89.1832E-03
             745     14.9005E-03     82.1948E-03    -6.12979E+06     48.9882E+06    -23.6846E+06    -1.14449E+06    -29.6861E-03     55.9332E-03    -26.2470E-03     124.356E-03    -30.5746E-03     57.0424E-03    -26.4276E-03     124.166E-03
             746     15.7783E-03     82.3363E-03    -7.41746E+06     118.432E+06    -2.14991E+06    -1.19893E+06    -33.2611E-03     59.5466E-03    -26.2854E-03     177.601E-03    -36.2784E-03     62.9636E-03    -26.4572E-03     178.017E-03
             747     16.6414E-03     82.5321E-03    -5.48236E+06     158.523E+06     65.2577E+06    -280.396E+03    -29.3022E-03     55.8783E-03    -26.5761E-03     146.368E-03    -32.5292E-03     59.4596E-03    -26.4718E-03     147.839E-03
             748     876.349E-06     82.4759E-03    -26.5565E+06    -109.356E+06    -26.2654E+06    -611.905E+03    -26.5933E-03     53.1773E-03    -26.5839E-03     5.66419E-03    -26.5296E-03     52.7072E-03    -26.5182E-03     5.65349E-03
             749     1.75298E-03     82.4833E-03    -25.9168E+06    -108.656E+06    -24.4565E+06    -1.02326E+06    -26.5999E-03     53.1892E-03    -26.5893E-03     10.4469E-03    -26.5369E-03     52.7194E-03    -26.5165E-03     10.4284E-03
             750     2.62928E-03     82.4957E-03    -24.8141E+06    -106.908E+06    -21.6505E+06    -1.54819E+06    -26.6184E-03     53.2121E-03    -26.5936E-03     15.5026E-03    -26.5571E-03     52.7459E-03    -26.5109E-03     15.4744E-03
             751     3.50591E-03     82.5126E-03    -23.2912E+06    -104.451E+06    -18.0302E+06    -2.04481E+06    -26.6485E-03     53.2478E-03    -26.5993E-03     20.6302E-03    -26.5892E-03     52.7873E-03    -26.5042E-03     20.5921E-03
             752     4.38225E-03     82.5348E-03    -21.6361E+06    -101.947E+06    -14.1795E+06    -2.67656E+06    -26.6885E-03     53.2933E-03    -26.6048E-03     25.7804E-03    -26.6314E-03     52.8386E-03    -26.4965E-03     25.7300E-03
             753     5.25892E-03     82.5615E-03    -19.6315E+06    -98.4106E+06    -10.5480E+06    -3.46949E+06    -26.7428E-03     53.3491E-03    -26.6063E-03     30.9684E-03    -26.6879E-03     52.9057E-03    -26.4879E-03     30.9028E-03
             754     6.13530E-03     82.5935E-03    -17.3972E+06    -94.0454E+06    -6.80802E+06    -4.20208E+06    -26.8100E-03     53.4163E-03    -26.6063E-03     36.1638E-03    -26.7584E-03     52.9888E-03    -26.4787E-03     36.0825E-03
             755     7.01195E-03     82.6299E-03    -15.2158E+06    -90.2148E+06    -3.84662E+06    -5.03583E+06    -26.8919E-03     53.4949E-03    -26.6030E-03     41.2422E-03    -26.8431E-03     53.0830E-03    -26.4694E-03     41.1421E-03
             756     7.88856E-03     82.6715E-03    -13.1733E+06    -85.8482E+06    -2.56581E+06    -5.57781E+06    -27.0261E-03     53.6190E-03    -26.5928E-03     46.3839E-03    -26.9809E-03     53.2297E-03    -26.4621E-03     46.2670E-03
             757     8.76480E-03     82.7179E-03    -11.3709E+06    -81.6630E+06    -1.94206E+06    -5.91302E+06    -27.1483E-03     53.7309E-03    -26.5825E-03     51.3498E-03    -27.1091E-03     53.3670E-03    -26.4574E-03     51.2163E-03
             758     9.64164E-03     82.7685E-03    -9.80887E+06    -78.7513E+06    -2.33624E+06    -6.12438E+06    -27.2226E-03     53.7904E-03    -26.5678E-03     56.2286E-03    -27.1905E-03     53.4507E-03    -26.4511E-03     56.0776E-03
             759     10.5181E-03     82.8243E-03    -8.37560E+06    -73.7118E+06    -4.52764E+06    -5.97216E+06    -27.3848E-03     53.9256E-03    -26.5408E-03     61.0781E-03    -27.3661E-03     53.6287E-03    -26.4445E-03     60.9107E-03
             760     11.3947E-03     82.8841E-03    -7.25111E+06    -63.1663E+06    -4.41605E+06    -5.68226E+06    -27.5537E-03     54.0742E-03    -26.5205E-03     66.6963E-03    -27.5706E-03     53.8540E-03    -26.4405E-03     66.5101E-03
             761     12.2710E-03     82.9507E-03    -6.56243E+06    -53.2287E+06    -6.27012E+06    -5.06111E+06    -27.6630E-03     54.1518E-03    -26.4888E-03     74.2167E-03    -27.7303E-03     54.0250E-03    -26.4334E-03     74.0116E-03
             762     13.1484E-03     83.0245E-03    -5.84637E+06    -40.9253E+06    -12.0284E+06    -4.20839E+06    -27.8041E-03     54.2358E-03    -26.4318E-03     78.8493E-03    -27.9399E-03     54.2405E-03    -26.4241E-03     78.6242E-03
             763     14.0241E-03     83.0998E-03     -5.2581E+06    -10.9091E+06    -15.8550E+06    -3.13995E+06    -28.2310E-03     54.5945E-03    -26.3635E-03     89.6617E-03    -28.5313E-03     54.8834E-03    -26.4193E-03     89.4232E-03
             764     14.9014E-03     83.1940E-03    -5.46180E+06     47.3891E+06    -24.4379E+06    -758.373E+03    -29.4181E-03     55.6428E-03    -26.2247E-03     124.530E-03    -30.2923E-03     56.7367E-03    -26.4077E-03     124.346E-03
             765     15.7774E-03     83.3359E-03    -6.71703E+06     118.909E+06    -3.08405E+06     698.038E+03    -32.3531E-03     58.5667E-03    -26.2136E-03     183.155E-03    -35.4750E-03     62.0956E-03    -26.3917E-03     183.662E-03
             766     16.6602E-03     83.5451E-03    -5.36356E+06     159.053E+06     64.6023E+06    -715.348E+03    -29.9409E-03     56.4182E-03    -26.4773E-03     147.785E-03    -33.2228E-03     60.0587E-03    -26.3771E-03     149.240E-03
             767     876.543E-06     83.4753E-03    -26.7628E+06    -107.815E+06    -26.3049E+06    -713.610E+03    -26.5804E-03     53.1590E-03    -26.5786E-03     5.66429E-03    -26.5199E-03     52.6970E-03    -26.5150E-03     5.65228E-03
             768     1.75282E-03     83.4830E-03    -25.9798E+06    -107.176E+06    -24.4918E+06    -1.27354E+06    -26.5929E-03     53.1739E-03    -26.5810E-03     10.4453E-03    -26.5323E-03     52.7116E-03    -26.5104E-03     10.4236E-03
             769     2.62945E-03     83.4951E-03    -24.8152E+06    -105.398E+06    -21.7695E+06    -1.85605E+06    -26.6128E-03     53.1982E-03    -26.5855E-03     15.4997E-03    -26.5534E-03     52.7398E-03    -26.5055E-03     15.4675E-03
             770     3.50577E-03     83.5123E-03    -23.3669E+06    -102.997E+06    -18.3635E+06    -2.47300E+06    -26.6417E-03     53.2323E-03    -26.5906E-03     20.6284E-03    -26.5844E-03     52.7796E-03    -26.4991E-03     20.5849E-03
             771     4.38243E-03     83.5342E-03    -21.4247E+06    -100.130E+06    -14.3137E+06    -3.19901E+06    -26.6864E-03     53.2830E-03    -26.5965E-03     25.7879E-03    -26.6307E-03     52.8372E-03    -26.4919E-03     25.7308E-03
             772     5.25877E-03     83.5611E-03    -19.3927E+06    -96.4432E+06    -10.5205E+06    -4.15717E+06    -26.7334E-03     53.3321E-03    -26.5987E-03     30.9736E-03    -26.6802E-03     52.8982E-03    -26.4834E-03     30.8991E-03
             773     6.13548E-03     83.5928E-03    -17.2628E+06    -92.2231E+06    -7.28551E+06    -5.11650E+06    -26.7846E-03     53.3796E-03    -26.5950E-03     36.1460E-03    -26.7342E-03     52.9617E-03    -26.4727E-03     36.0529E-03
             774     7.01198E-03     83.6295E-03    -15.1364E+06    -88.3839E+06    -4.31321E+06    -5.81527E+06    -26.9027E-03     53.4944E-03    -26.5918E-03     41.2870E-03    -26.8555E-03     53.0923E-03    -26.4632E-03     41.1768E-03
             775     7.88834E-03     83.6710E-03    -13.2648E+06    -84.4122E+06    -3.02140E+06    -6.45804E+06    -26.9860E-03     53.5678E-03    -26.5818E-03     46.4043E-03    -26.9427E-03     53.1865E-03    -26.4553E-03     46.2760E-03
             776     8.76536E-03     83.7173E-03    -11.5412E+06    -80.7977E+06    -2.58777E+06    -6.89740E+06    -27.0844E-03     53.6515E-03    -26.5671E-03     51.4206E-03    -27.0463E-03     53.2931E-03    -26.4461E-03     51.2747E-03
             777     9.64152E-03     83.7682E-03    -9.84267E+06    -77.7175E+06    -2.78845E+06    -7.05115E+06    -27.2868E-03     53.8404E-03    -26.5536E-03     56.2638E-03    -27.2559E-03     53.5068E-03    -26.4406E-03     56.1005E-03
             778     10.5183E-03     83.8235E-03    -8.51827E+06    -72.6114E+06    -4.86661E+06    -6.86906E+06    -27.3712E-03     53.9017E-03    -26.5305E-03     61.1061E-03    -27.3545E-03     53.6111E-03    -26.4372E-03     60.9271E-03
             779     11.3947E-03     83.8842E-03    -7.73343E+06    -63.4310E+06    -5.27142E+06    -6.55789E+06    -27.4343E-03     53.9398E-03    -26.5055E-03     66.8414E-03    -27.4519E-03     53.7200E-03    -26.4287E-03     66.6446E-03
             780     12.2717E-03     83.9496E-03    -6.48378E+06    -53.3482E+06    -6.86948E+06    -6.07131E+06    -27.7053E-03     54.1770E-03    -26.4717E-03     74.2830E-03    -27.7716E-03     54.0508E-03    -26.4193E-03     74.0644E-03
             781     13.1478E-03     84.0243E-03    -5.67767E+06    -41.4149E+06    -12.5457E+06    -5.20393E+06    -27.8286E-03     54.2472E-03    -26.4186E-03     78.7997E-03    -27.9624E-03     54.2502E-03    -26.4130E-03     78.5613E-03
             782     14.0253E-03     84.0991E-03    -5.87742E+06    -12.1353E+06    -16.7855E+06    -4.08048E+06    -28.0306E-03     54.3767E-03    -26.3461E-03     89.5465E-03    -28.3305E-03     54.6613E-03    -26.4039E-03     89.2975E-03
             783     14.9011E-03     84.1940E-03    -5.45213E+06     44.0771E+06    -25.8544E+06    -1.93236E+06    -29.2617E-03     55.4604E-03    -26.1987E-03     123.989E-03    -30.1320E-03     56.5427E-03    -26.3839E-03     123.791E-03
             784     15.7800E-03     84.3338E-03    -3.79427E+06     117.918E+06    -3.03577E+06     442.696E+03    -30.2292E-03     56.3626E-03    -26.1334E-03     180.646E-03    -33.2773E-03     59.8247E-03    -26.3140E-03     181.270E-03
             785     16.6565E-03     84.5397E-03    -3.16135E+06     161.055E+06     65.5688E+06     654.813E+03    -30.0727E-03     56.4304E-03    -26.3577E-03     146.285E-03    -33.2932E-03     60.0214E-03    -26.2588E-03     147.794E-03
             786     876.374E-06     84.4750E-03    -26.8053E+06    -106.008E+06    -26.3679E+06    -796.811E+03    -26.5701E-03     53.1390E-03    -26.5689E-03     5.65573E-03    -26.5124E-03     52.6863E-03    -26.5082E-03     5.64262E-03
             787     1.75299E-03     84.4825E-03    -26.0371E+06    -105.402E+06    -24.5584E+06    -1.52903E+06    -26.5849E-03     53.1564E-03    -26.5715E-03     10.4427E-03    -26.5271E-03     52.7032E-03    -26.5037E-03     10.4176E-03
             788     2.62931E-03     84.4947E-03    -24.8191E+06    -103.658E+06    -21.8250E+06    -2.26591E+06    -26.6061E-03     53.1827E-03    -26.5766E-03     15.5026E-03    -26.5492E-03     52.7330E-03    -26.4995E-03     15.4651E-03
             789     3.50595E-03     84.5118E-03    -23.1364E+06    -101.109E+06    -18.2648E+06    -3.05365E+06    -26.6335E-03     53.2156E-03    -26.5822E-03     20.6268E-03    -26.5779E-03     52.7719E-03    -26.4933E-03     20.5757E-03
             790     4.38230E-03     84.5338E-03    -21.2901E+06    -98.1550E+06    -14.5261E+06    -3.95285E+06    -26.6717E-03     53.2576E-03    -26.5859E-03     25.8031E-03    -26.6178E-03     52.8218E-03    -26.4853E-03     25.7363E-03
             791     5.25898E-03     84.5607E-03    -19.2068E+06    -94.1416E+06    -10.8735E+06    -4.90050E+06    -26.7236E-03     53.3098E-03    -26.5861E-03     30.9771E-03    -26.6723E-03     52.8876E-03    -26.4762E-03     30.8930E-03
             792     6.13537E-03     84.5923E-03    -17.1714E+06    -90.1312E+06    -7.52844E+06    -5.87379E+06    -26.7888E-03     53.3731E-03    -26.5843E-03     36.1509E-03    -26.7407E-03     52.9659E-03    -26.4664E-03     36.0479E-03
             793     7.01200E-03     84.6291E-03    -15.1288E+06    -86.6054E+06    -4.78799E+06    -6.71016E+06    -26.8550E-03     53.4339E-03    -26.5789E-03     41.3478E-03    -26.8096E-03     53.0413E-03    -26.4554E-03     41.2262E-03
             794     7.88875E-03     84.6706E-03    -13.1647E+06    -82.5742E+06    -3.33887E+06    -7.26037E+06    -26.9625E-03     53.5290E-03    -26.5665E-03     46.4134E-03    -26.9208E-03     53.1571E-03    -26.4444E-03     46.2749E-03
             795     8.76496E-03     84.7166E-03    -11.4941E+06    -79.3654E+06    -2.87672E+06    -7.82745E+06    -27.0783E-03     53.6306E-03    -26.5523E-03     51.4040E-03    -27.0416E-03     53.2797E-03    -26.4350E-03     51.2460E-03
             796     9.64206E-03     84.7678E-03    -10.1117E+06    -76.8043E+06    -3.46448E+06    -8.04083E+06    -27.2183E-03     53.7542E-03    -26.5359E-03     56.4089E-03    -27.1890E-03     53.4264E-03    -26.4272E-03     56.2331E-03
             797     10.5180E-03     84.8234E-03     -8.8605E+06    -72.4272E+06    -5.75976E+06    -7.81569E+06    -27.3466E-03     53.8565E-03    -26.5099E-03     61.1691E-03    -27.3306E-03     53.5686E-03    -26.4208E-03     60.9781E-03
             798     11.3953E-03     84.8828E-03    -7.43083E+06    -62.8439E+06    -5.68690E+06    -7.55289E+06    -27.4680E-03     53.9553E-03    -26.4873E-03     66.7894E-03    -27.4844E-03     53.7388E-03    -26.4139E-03     66.5794E-03
             799     12.2716E-03     84.9499E-03    -6.73220E+06    -53.3531E+06    -7.87413E+06    -7.10814E+06    -27.7531E-03     54.2094E-03    -26.4563E-03     74.2290E-03    -27.8193E-03     54.0852E-03    -26.4085E-03     73.9967E-03
             800     13.1484E-03     85.0235E-03    -6.25443E+06    -41.9399E+06    -13.5691E+06    -6.16015E+06    -27.8810E-03     54.2896E-03    -26.4086E-03     78.7667E-03    -28.0158E-03     54.2927E-03    -26.4065E-03     78.5156E-03
             801     14.0242E-03     85.0987E-03    -6.06032E+06    -13.3206E+06    -17.7545E+06    -4.69736E+06    -28.0898E-03     54.4311E-03    -26.3413E-03     89.1391E-03    -28.3873E-03     54.7112E-03    -26.4020E-03     88.8821E-03
             802     14.9025E-03     85.1926E-03    -6.53041E+06     42.0979E+06    -27.0558E+06    -3.66885E+06    -29.6811E-03     55.8927E-03    -26.2116E-03     122.965E-03    -30.5526E-03     56.9690E-03    -26.3985E-03     122.741E-03
             803     15.7772E-03     85.3339E-03    -6.72247E+06     115.438E+06     -5.8862E+06    -1.90875E+06    -31.9746E-03     58.1898E-03    -26.2153E-03     175.243E-03    -34.9419E-03     61.5600E-03    -26.4023E-03     175.726E-03
             804     16.6602E-03     85.5326E-03    -4.24177E+06     160.352E+06     63.2889E+06     1.10874E+06    -29.3477E-03     55.8313E-03    -26.4836E-03     145.291E-03    -32.5373E-03     59.3917E-03    -26.3935E-03     146.802E-03
             805     876.531E-06     85.4745E-03    -26.4823E+06    -103.992E+06    -26.2256E+06    -969.822E+03    -26.5641E-03     53.1206E-03    -26.5566E-03     5.66227E-03    -26.5078E-03     52.6773E-03    -26.4985E-03     5.64693E-03
             806     1.75287E-03     85.4820E-03    -25.7548E+06    -103.255E+06    -24.3438E+06    -1.80400E+06    -26.5772E-03     53.1394E-03    -26.5622E-03     10.4453E-03    -26.5214E-03     52.6962E-03    -26.4968E-03     10.4167E-03
             807     2.62947E-03     85.4943E-03    -24.5511E+06    -101.484E+06    -21.5146E+06    -2.75891E+06    -26.5942E-03     53.1619E-03    -26.5677E-03     15.5007E-03    -26.5396E-03     52.7222E-03    -26.4925E-03     15.4568E-03
             808     3.50583E-03     85.5113E-03    -23.0239E+06    -98.9310E+06    -18.3276E+06    -3.72594E+06    -26.6193E-03     53.1900E-03    -26.5707E-03     20.6358E-03    -26.5662E-03     52.7571E-03    -26.4855E-03     20.5760E-03
             809     4.38248E-03     85.5334E-03    -21.1322E+06     -95.767E+06    -14.8696E+06    -4.73493E+06    -26.6552E-03     53.2268E-03    -26.5716E-03     25.8068E-03    -26.6035E-03     52.8033E-03    -26.4765E-03     25.7299E-03
             810     5.25889E-03     85.5601E-03    -19.1751E+06    -91.9608E+06    -11.2911E+06    -5.72698E+06    -26.7044E-03     53.2753E-03    -26.5709E-03     30.9962E-03    -26.6555E-03     52.8646E-03    -26.4662E-03     30.9014E-03
             811     6.13555E-03     85.5920E-03    -17.1278E+06    -87.7128E+06    -7.80766E+06    -6.66416E+06    -26.7724E-03     53.3410E-03    -26.5685E-03     36.1943E-03    -26.7272E-03     52.9462E-03    -26.4556E-03     36.0811E-03
             812     7.01207E-03     85.6284E-03    -15.1433E+06    -84.5124E+06    -5.05424E+06    -7.57467E+06    -26.8358E-03     53.3991E-03    -26.5633E-03     41.3291E-03    -26.7932E-03     53.0174E-03    -26.4441E-03     41.1964E-03
             813     7.88864E-03     85.6700E-03    -13.1554E+06    -81.0943E+06    -3.84398E+06    -8.23668E+06    -26.9295E-03     53.4787E-03    -26.5491E-03     46.4537E-03    -26.8892E-03     53.1150E-03    -26.4317E-03     46.3027E-03
             814     8.76549E-03     85.7163E-03    -11.3445E+06    -77.4682E+06    -3.16440E+06    -8.64676E+06    -27.0531E-03     53.5867E-03    -26.5336E-03     51.4881E-03    -27.0180E-03     53.2455E-03    -26.4207E-03     51.3196E-03
             815     9.64160E-03     85.7671E-03    -9.95558E+06    -75.3898E+06    -3.62756E+06    -8.97074E+06    -27.1322E-03     53.6470E-03    -26.5148E-03     56.4552E-03    -27.1038E-03     53.3262E-03    -26.4092E-03     56.2679E-03
             816     10.5192E-03     85.8228E-03    -8.55926E+06    -72.0329E+06    -6.35088E+06    -8.97667E+06    -27.3376E-03     53.8228E-03    -26.4852E-03     61.2014E-03    -27.3197E-03     53.5372E-03    -26.4001E-03     60.9956E-03
             817     11.3948E-03     85.8828E-03    -7.53240E+06    -62.7600E+06    -6.69269E+06    -8.63167E+06    -27.6087E-03     54.0766E-03    -26.4679E-03     66.8800E-03    -27.6248E-03     53.8625E-03    -26.3994E-03     66.6554E-03
             818     12.2717E-03     85.9489E-03    -6.72282E+06    -53.2429E+06    -8.35635E+06    -7.95013E+06    -27.7710E-03     54.2169E-03    -26.4458E-03     74.3345E-03    -27.8365E-03     54.0937E-03    -26.4007E-03     74.0916E-03
             819     13.1481E-03     86.0234E-03    -6.17586E+06    -42.4912E+06    -14.3081E+06    -7.09173E+06    -27.9112E-03     54.3108E-03    -26.3995E-03     78.8238E-03    -28.0434E-03     54.3116E-03    -26.4005E-03     78.5611E-03
             820     14.0254E-03     86.0982E-03    -5.87782E+06    -14.8110E+06    -18.6609E+06    -5.64494E+06    -28.4755E-03     54.8207E-03    -26.3452E-03     89.2643E-03    -28.7690E-03     55.0948E-03    -26.4085E-03     88.9915E-03
             821     14.8998E-03     86.1926E-03    -7.19536E+06     40.8356E+06    -28.5307E+06    -3.33305E+06    -30.3100E-03     56.5507E-03    -26.2407E-03     123.784E-03    -31.1818E-03     57.6246E-03    -26.4321E-03     123.552E-03
             822     15.7770E-03     86.3345E-03    -9.09126E+06     113.520E+06    -10.4886E+06    -1.37385E+06    -33.5877E-03     59.8689E-03    -26.2813E-03     179.047E-03    -36.6396E-03     63.3214E-03    -26.4851E-03     179.462E-03
             823     16.6406E-03     86.5351E-03    -5.40891E+06     159.058E+06     59.9198E+06    -442.493E+03    -28.8349E-03     55.3997E-03    -26.5648E-03     147.673E-03    -32.0927E-03     59.0293E-03    -26.4880E-03     149.162E-03
             824     876.423E-06     86.4741E-03    -26.0437E+06    -101.664E+06    -25.5483E+06    -1.15519E+06    -26.5599E-03     53.1026E-03    -26.5427E-03     5.66778E-03    -26.5058E-03     52.6692E-03    -26.4852E-03     5.65006E-03
             825     1.75299E-03     86.4816E-03    -25.2370E+06    -100.687E+06    -23.8478E+06    -2.13460E+06    -26.5646E-03     53.1166E-03    -26.5519E-03     10.4441E-03    -26.5107E-03     52.6847E-03    -26.4886E-03     10.4112E-03
             826     2.62937E-03     86.4938E-03    -24.1313E+06    -98.9512E+06    -21.3646E+06    -3.20280E+06    -26.5763E-03     53.1305E-03    -26.5542E-03     15.5074E-03    -26.5234E-03     52.7027E-03    -26.4826E-03     15.4579E-03
             827     3.50599E-03     86.5109E-03    -22.6195E+06    -96.3125E+06    -18.3463E+06    -4.35803E+06    -26.6023E-03     53.1571E-03    -26.5548E-03     20.6437E-03    -26.5510E-03     52.7367E-03    -26.4740E-03     20.5758E-03
             828     4.38241E-03     86.5328E-03    -20.9008E+06    -93.1909E+06    -14.9090E+06    -5.51932E+06    -26.6333E-03     53.1881E-03    -26.5548E-03     25.8175E-03    -26.5841E-03     52.7771E-03    -26.4639E-03     25.7305E-03
             829     5.25906E-03     86.5597E-03    -18.9313E+06    -89.4641E+06    -11.3380E+06    -6.58016E+06    -26.6786E-03     53.2312E-03    -26.5526E-03     31.0244E-03    -26.6321E-03     52.8327E-03    -26.4521E-03     30.9186E-03
             830     6.13558E-03     86.5913E-03    -16.9130E+06    -85.3594E+06    -7.94942E+06    -7.51543E+06    -26.7370E-03     53.2850E-03    -26.5480E-03     36.2165E-03    -26.6939E-03     52.9019E-03    -26.4394E-03     36.0924E-03
             831     7.01220E-03     86.6281E-03    -14.8353E+06    -82.0908E+06    -5.01403E+06    -8.43655E+06    -26.8273E-03     53.3700E-03    -26.5428E-03     41.3807E-03    -26.7867E-03     52.9999E-03    -26.4273E-03     41.2369E-03
             832     7.88884E-03     86.6693E-03    -12.9301E+06    -79.1289E+06    -3.87800E+06    -9.21901E+06    -26.8931E-03     53.4216E-03    -26.5286E-03     46.5025E-03    -26.8544E-03     53.0674E-03    -26.4145E-03     46.3390E-03
             833     8.76536E-03     86.7157E-03    -11.2126E+06    -75.8968E+06    -3.42471E+06    -9.60592E+06    -26.9889E-03     53.4984E-03    -26.5094E-03     51.5424E-03    -26.9550E-03     53.1651E-03    -26.4002E-03     51.3619E-03
             834     9.64255E-03     86.7665E-03    -9.49563E+06    -73.8120E+06    -3.60667E+06    -9.97992E+06    -27.1889E-03     53.6818E-03    -26.4929E-03     56.4183E-03    -27.1606E-03     53.3683E-03    -26.3902E-03     56.2177E-03
             835     10.5182E-03     86.8221E-03    -8.26524E+06    -71.2475E+06    -6.49833E+06    -10.0904E+06    -27.3154E-03     53.7824E-03    -26.4670E-03     61.2472E-03    -27.2968E-03     53.5004E-03    -26.3842E-03     61.0272E-03
             836     11.3959E-03     86.8824E-03    -7.33028E+06    -62.3418E+06    -7.02404E+06    -9.75852E+06    -27.4961E-03     53.9413E-03    -26.4452E-03     67.1123E-03    -27.5109E-03     53.7291E-03    -26.3793E-03     66.8742E-03
             837     12.2718E-03     86.9487E-03    -6.19404E+06    -52.9656E+06    -8.33557E+06    -9.10594E+06    -27.8485E-03     54.2723E-03    -26.4239E-03     74.5775E-03    -27.9120E-03     54.1500E-03    -26.3798E-03     74.3194E-03
             838     13.1486E-03     87.0226E-03    -5.65199E+06    -43.6716E+06    -14.7267E+06    -7.88097E+06    -28.0446E-03     54.4294E-03    -26.3848E-03     79.2053E-03    -28.1723E-03     54.4247E-03    -26.3869E-03     78.9314E-03
             839     14.0241E-03     87.0983E-03    -6.04304E+06    -16.3639E+06    -19.4762E+06    -6.29038E+06    -28.4678E-03     54.8009E-03    -26.3330E-03     90.0937E-03    -28.7596E-03     55.0696E-03    -26.3979E-03     89.8124E-03
             840     14.9018E-03     87.1931E-03    -6.38724E+06     37.4613E+06    -29.4661E+06    -3.17629E+06    -29.9506E-03     56.1650E-03    -26.2144E-03     125.576E-03    -30.8189E-03     57.2291E-03    -26.4068E-03     125.351E-03
             841     15.7763E-03     87.3354E-03    -5.77008E+06     112.373E+06    -10.8392E+06    -529.323E+03    -31.7902E-03     57.9709E-03    -26.1806E-03     182.850E-03    -34.8685E-03     61.4584E-03    -26.3894E-03     183.389E-03
             842     16.6650E-03     87.5408E-03    -3.85351E+06     160.107E+06     59.8897E+06    -941.921E+03    -29.3618E-03     55.7833E-03    -26.4215E-03     147.108E-03    -32.6057E-03     59.4082E-03    -26.3486E-03     148.601E-03
             843     876.514E-06     87.4737E-03    -25.3981E+06    -98.7602E+06    -25.1331E+06    -1.31529E+06    -26.5373E-03     53.0737E-03    -26.5364E-03     5.67053E-03    -26.4847E-03     52.6533E-03    -26.4821E-03     5.65075E-03
             844     1.75292E-03     87.4811E-03    -24.7656E+06    -97.9023E+06    -23.5559E+06    -2.47707E+06    -26.5422E-03     53.0771E-03    -26.5349E-03     10.4496E-03    -26.4903E-03     52.6581E-03    -26.4748E-03     10.4123E-03
             845     2.62952E-03     87.4934E-03    -23.5663E+06    -95.9523E+06    -21.1786E+06    -3.75672E+06    -26.5578E-03     53.0922E-03    -26.5344E-03     15.5157E-03    -26.5067E-03     52.6783E-03    -26.4670E-03     15.4590E-03
             846     3.50595E-03     87.5104E-03    -22.0511E+06    -93.3602E+06    -18.0589E+06    -5.04181E+06    -26.5758E-03     53.1101E-03    -26.5343E-03     20.6571E-03    -26.5263E-03     52.7032E-03    -26.4573E-03     20.5804E-03
             847     4.38258E-03     87.5324E-03    -20.3357E+06    -90.3282E+06    -14.5603E+06    -6.22176E+06    -26.6057E-03     53.1387E-03    -26.5330E-03     25.8336E-03    -26.5583E-03     52.7407E-03    -26.4454E-03     25.7376E-03
             848     5.25910E-03     87.5590E-03    -18.5281E+06    -86.6647E+06    -11.0732E+06    -7.38825E+06    -26.6443E-03     53.1733E-03    -26.5290E-03     31.0500E-03    -26.6002E-03     52.7879E-03    -26.4319E-03     30.9339E-03
             849     6.13573E-03     87.5909E-03    -16.4482E+06    -82.8196E+06    -7.78210E+06    -8.46118E+06    -26.6984E-03     53.2206E-03    -26.5222E-03     36.2612E-03    -26.6569E-03     52.8492E-03    -26.4171E-03     36.1251E-03
             850     7.01240E-03     87.6272E-03    -14.3929E+06    -79.6452E+06    -4.90526E+06    -9.32782E+06    -26.7691E-03     53.2828E-03    -26.5137E-03     41.4586E-03    -26.7300E-03     52.9240E-03    -26.4018E-03     41.3035E-03
             851     7.88898E-03     87.6690E-03    -12.4891E+06    -76.8357E+06    -3.54312E+06    -10.1484E+06    -26.8666E-03     53.3655E-03    -26.4989E-03     46.5499E-03    -26.8295E-03     53.0216E-03    -26.3871E-03     46.3745E-03
             852     8.76588E-03     87.7147E-03    -10.8022E+06    -74.0274E+06    -3.24398E+06    -10.6263E+06    -27.0020E-03     53.4836E-03    -26.4815E-03     51.6619E-03    -26.9690E-03     53.1588E-03    -26.3747E-03     51.4683E-03
             853     9.64199E-03     87.7663E-03    -9.48103E+06    -72.4692E+06    -3.74536E+06    -10.9194E+06    -27.1498E-03     53.6155E-03    -26.4657E-03     56.6379E-03    -27.1232E-03     53.3088E-03    -26.3656E-03     56.4255E-03
             854     10.5194E-03     87.8214E-03    -8.17237E+06    -70.2708E+06    -6.47823E+06    -11.1857E+06    -27.2968E-03     53.7371E-03    -26.4403E-03     61.4540E-03    -27.2794E-03     53.4600E-03    -26.3589E-03     61.2199E-03
             855     11.3952E-03     87.8815E-03    -6.95095E+06    -61.6729E+06    -7.13078E+06    -10.8780E+06    -27.4562E-03     53.8733E-03    -26.4171E-03     67.2832E-03    -27.4696E-03     53.6637E-03    -26.3532E-03     67.0312E-03
             856     12.2727E-03     87.9483E-03    -6.21200E+06    -53.0108E+06    -8.78452E+06    -10.2901E+06    -27.7740E-03     54.1670E-03    -26.3930E-03     74.7395E-03    -27.8367E-03     54.0450E-03    -26.3511E-03     74.4667E-03
             857     13.1485E-03     88.0226E-03    -5.56215E+06    -44.7854E+06    -15.0877E+06    -9.06125E+06    -27.9571E-03     54.3086E-03    -26.3516E-03     79.5621E-03    -28.0827E-03     54.2993E-03    -26.3540E-03     79.2734E-03
             858     14.0259E-03     88.0978E-03    -5.04558E+06    -18.1814E+06    -19.5452E+06    -7.00398E+06    -28.1723E-03     54.4620E-03    -26.2897E-03     90.7189E-03    -28.4580E-03     54.7218E-03    -26.3537E-03     90.4314E-03
             859     14.9014E-03     88.1928E-03    -4.79180E+06     33.8359E+06    -29.4098E+06    -4.61144E+06    -29.2913E-03     55.4389E-03    -26.1476E-03     125.384E-03    -30.1460E-03     56.4819E-03    -26.3368E-03     125.155E-03
             860     15.7817E-03     88.3341E-03    -4.14189E+06     110.768E+06    -10.0086E+06    -1.99818E+06    -30.8683E-03     56.9503E-03    -26.0820E-03     179.762E-03    -33.8659E-03     60.3553E-03    -26.2867E-03     180.310E-03
             861     16.6518E-03     88.5337E-03    -3.75955E+06     160.595E+06     60.0217E+06    -107.147E+03    -30.1078E-03     56.4371E-03    -26.3292E-03     145.542E-03    -33.2999E-03     60.0119E-03    -26.2565E-03     147.022E-03
             862     876.455E-06     88.4731E-03    -24.7439E+06    -95.4964E+06    -24.4852E+06    -1.59229E+06    -26.5125E-03     53.0244E-03    -26.5119E-03     5.67059E-03    -26.4624E-03     52.6185E-03    -26.4600E-03     5.64723E-03
             863     1.75305E-03     88.4807E-03    -23.8829E+06    -94.5663E+06    -22.9524E+06    -2.92335E+06    -26.5192E-03     53.0290E-03    -26.5097E-03     10.4582E-03    -26.4687E-03     52.6245E-03    -26.4527E-03     10.4152E-03
             864     2.62948E-03     88.4928E-03    -22.7401E+06    -92.5921E+06    -20.4969E+06    -4.42176E+06    -26.5276E-03     53.0364E-03    -26.5088E-03     15.5253E-03    -26.4783E-03     52.6371E-03    -26.4441E-03     15.4601E-03
             865     3.50611E-03     88.5099E-03    -21.2763E+06    -90.1509E+06    -17.4082E+06    -5.74922E+06    -26.5400E-03     53.0468E-03    -26.5068E-03     20.6724E-03    -26.4922E-03     52.6540E-03    -26.4323E-03     20.5866E-03
             866     4.38264E-03     88.5317E-03    -19.5467E+06    -87.2052E+06    -13.9792E+06    -7.00456E+06    -26.5687E-03     53.0719E-03    -26.5033E-03     25.8691E-03    -26.5228E-03     52.6876E-03    -26.4184E-03     25.7631E-03
             867     5.25926E-03     88.5586E-03    -17.5828E+06    -83.6500E+06    -10.4185E+06    -8.17650E+06    -26.6010E-03     53.0985E-03    -26.4975E-03     31.0777E-03    -26.5574E-03     52.7258E-03    -26.4028E-03     30.9516E-03
             868     6.13596E-03     88.5900E-03    -15.6575E+06    -80.0289E+06    -7.20440E+06    -9.33611E+06    -26.6424E-03     53.1303E-03    -26.4879E-03     36.3159E-03    -26.6018E-03     52.7709E-03    -26.3852E-03     36.1686E-03
             869     7.01255E-03     88.6269E-03    -13.6987E+06    -77.1926E+06    -4.49277E+06    -10.2483E+06    -26.7082E-03     53.1841E-03    -26.4759E-03     41.5130E-03    -26.6697E-03     52.8359E-03    -26.3666E-03     41.3463E-03
             870     7.88946E-03     88.6679E-03    -11.8500E+06    -74.5193E+06    -3.16287E+06    -10.9685E+06    -26.8369E-03     53.2968E-03    -26.4599E-03     46.6594E-03    -26.8005E-03     52.9630E-03    -26.3505E-03     46.4736E-03
             871     8.76583E-03     88.7146E-03    -10.2027E+06    -72.0614E+06    -2.84836E+06    -11.5524E+06    -26.9493E-03     53.3919E-03    -26.4426E-03     51.7927E-03    -26.9166E-03     53.0754E-03    -26.3375E-03     51.5875E-03
             872     9.64305E-03     88.7652E-03    -8.77059E+06    -71.1227E+06    -3.57176E+06    -11.8922E+06    -27.0310E-03     53.4526E-03    -26.4216E-03     56.8625E-03    -27.0028E-03     53.1512E-03    -26.3236E-03     56.6383E-03
             873     10.5192E-03     88.8210E-03    -7.76711E+06    -68.8476E+06    -6.47329E+06    -12.0202E+06    -27.2571E-03     53.6488E-03    -26.3916E-03     61.7963E-03    -27.2397E-03     53.3781E-03    -26.3129E-03     61.5519E-03
             874     11.3964E-03     88.8810E-03    -7.20718E+06    -60.8078E+06    -7.42226E+06    -11.8376E+06    -27.5201E-03     53.8923E-03    -26.3722E-03     67.6673E-03    -27.5360E-03     53.6883E-03    -26.3107E-03     67.4026E-03
             875     12.2722E-03     88.9476E-03    -6.26533E+06    -53.2782E+06    -9.27700E+06    -11.3402E+06    -27.6848E-03     54.0347E-03    -26.3499E-03     75.1577E-03    -27.7468E-03     53.9123E-03    -26.3100E-03     74.8722E-03
             876     13.1498E-03     89.0221E-03    -5.38834E+06    -44.7386E+06    -15.3354E+06    -10.3737E+06    -27.8144E-03     54.1176E-03    -26.3032E-03     79.7448E-03    -27.9390E-03     54.1087E-03    -26.3072E-03     79.4406E-03
             877     14.0258E-03     89.0971E-03    -5.10846E+06    -20.4224E+06    -20.1996E+06    -8.68809E+06    -28.1856E-03     54.4276E-03    -26.2420E-03     90.2336E-03    -28.4664E-03     54.6764E-03    -26.3060E-03     89.9250E-03
             878     14.9041E-03     89.1921E-03    -5.20376E+06     30.7977E+06    -30.4211E+06    -5.89397E+06    -29.6318E-03     55.7479E-03    -26.1161E-03     123.891E-03    -30.4753E-03     56.7704E-03    -26.3053E-03     123.641E-03
             879     15.7783E-03     89.3323E-03    -6.60644E+06     107.925E+06    -14.1525E+06     -2.7244E+06    -32.3398E-03     58.4370E-03    -26.0972E-03     177.292E-03    -35.3171E-03     61.8148E-03    -26.3149E-03     177.744E-03
             880     16.6625E-03     89.5357E-03    -5.01732E+06     158.975E+06     56.5841E+06    -242.903E+03    -29.8948E-03     56.2808E-03    -26.3859E-03     145.548E-03    -33.0924E-03     59.8607E-03    -26.3263E-03     147.006E-03
             881     876.565E-06     89.4727E-03    -23.3268E+06    -91.6508E+06    -23.0805E+06    -1.86495E+06    -26.4877E-03     52.9604E-03    -26.4727E-03     5.67248E-03    -26.4381E-03     52.5696E-03    -26.4214E-03     5.64561E-03
             882     1.75301E-03     89.4801E-03    -22.5374E+06    -90.7012E+06    -21.6239E+06    -3.53487E+06    -26.4855E-03     52.9626E-03    -26.4771E-03     10.4656E-03    -26.4358E-03     52.5736E-03    -26.4210E-03     10.4148E-03
             883     2.62964E-03     89.4923E-03    -21.3797E+06    -88.8396E+06    -19.2549E+06    -5.05369E+06    -26.4846E-03     52.9586E-03    -26.4741E-03     15.5388E-03    -26.4357E-03     52.5743E-03    -26.4105E-03     15.4654E-03
             884     3.50618E-03     89.5092E-03    -19.9112E+06    -86.6974E+06    -16.1951E+06    -6.50545E+06    -26.4984E-03     52.9685E-03    -26.4701E-03     20.6942E-03    -26.4506E-03     52.5892E-03    -26.3965E-03     20.5988E-03
             885     4.38282E-03     89.5312E-03    -18.1953E+06    -83.8083E+06    -12.8939E+06    -7.80932E+06    -26.5126E-03     52.9760E-03    -26.4634E-03     25.9002E-03    -26.4664E-03     52.6051E-03    -26.3800E-03     25.7839E-03
             886     5.25951E-03     89.5578E-03    -16.3147E+06    -80.4382E+06    -9.54282E+06    -9.11415E+06    -26.5446E-03     52.9984E-03    -26.4538E-03     31.1337E-03    -26.5006E-03     52.6386E-03    -26.3613E-03     30.9957E-03
             887     6.13612E-03     89.5896E-03    -14.3577E+06    -77.0682E+06    -6.26654E+06    -10.1322E+06    -26.5820E-03     53.0243E-03    -26.4423E-03     36.3597E-03    -26.5405E-03     52.6764E-03    -26.3411E-03     36.2024E-03
             888     7.01305E-03     89.6258E-03    -12.5178E+06    -74.5687E+06    -3.58349E+06    -11.0371E+06    -26.6544E-03     53.0832E-03    -26.4289E-03     41.5972E-03    -26.6150E-03     52.7451E-03    -26.3205E-03     41.4205E-03
             889     7.88956E-03     89.6675E-03    -10.6870E+06    -72.1301E+06    -2.37045E+06    -11.7660E+06    -26.7484E-03     53.1579E-03    -26.4096E-03     46.8287E-03    -26.7107E-03     52.8331E-03    -26.3013E-03     46.6332E-03
             890     8.76663E-03     89.7135E-03    -9.13271E+06    -70.2015E+06    -2.29165E+06    -12.3611E+06    -26.8246E-03     53.2104E-03    -26.3857E-03     51.9363E-03    -26.7899E-03     52.9007E-03    -26.2822E-03     51.7212E-03
             891     9.64309E-03     89.7644E-03    -7.75621E+06    -69.5158E+06    -3.06661E+06    -12.8415E+06    -26.9798E-03     53.3411E-03    -26.3613E-03     57.0307E-03    -26.9495E-03     53.0454E-03    -26.2646E-03     56.7947E-03
             892     10.5205E-03     89.8201E-03    -6.69474E+06    -67.1957E+06    -5.77423E+06    -12.8152E+06    -27.1891E-03     53.5205E-03    -26.3314E-03     62.0380E-03    -27.1695E-03     53.2553E-03    -26.2532E-03     61.7841E-03
             893     11.3966E-03     89.8805E-03    -5.86107E+06    -60.1474E+06    -6.71222E+06    -12.5627E+06    -27.4102E-03     53.7203E-03    -26.3101E-03     67.9131E-03    -27.4213E-03     53.5165E-03    -26.2479E-03     67.6400E-03
             894     12.2740E-03     89.9471E-03    -5.56744E+06    -52.6749E+06    -8.96539E+06    -12.1126E+06    -27.7592E-03     54.0482E-03    -26.2890E-03     75.3417E-03    -27.8190E-03     53.9272E-03    -26.2494E-03     75.0463E-03
             895     13.1499E-03     90.0210E-03    -5.56997E+06    -44.8270E+06    -15.3679E+06    -11.4746E+06    -28.0380E-03     54.2943E-03    -26.2563E-03     79.8205E-03    -28.1635E-03     54.2854E-03    -26.2600E-03     79.5011E-03
             896     14.0270E-03     90.0973E-03    -5.25176E+06    -21.9730E+06    -20.4798E+06    -10.0840E+06    -28.4621E-03     54.6767E-03    -26.2146E-03     90.1054E-03    -28.7402E-03     54.9175E-03    -26.2775E-03     89.7769E-03
             897     14.9016E-03     90.1910E-03    -5.90975E+06     26.6577E+06    -31.7095E+06    -6.56623E+06    -30.2237E-03     56.3374E-03    -26.1138E-03     124.440E-03    -31.0661E-03     57.3455E-03    -26.3024E-03     124.169E-03
             898     15.7795E-03     90.3337E-03    -6.35841E+06     104.407E+06    -17.6247E+06    -2.33667E+06    -32.9988E-03     59.1074E-03    -26.1086E-03     180.082E-03    -36.0212E-03     62.5284E-03    -26.3389E-03     180.526E-03
             899     16.6449E-03     90.5344E-03    -4.40166E+06     158.348E+06     53.7539E+06    -613.423E+03    -29.5054E-03     55.8969E-03    -26.3915E-03     147.230E-03    -32.7374E-03     59.5195E-03    -26.3460E-03     148.704E-03
             900     876.529E-06     90.4721E-03    -21.2234E+06    -87.1961E+06    -21.1548E+06    -2.23537E+06    -26.4368E-03     52.8721E-03    -26.4352E-03     5.68853E-03    -26.3860E-03     52.4977E-03    -26.3838E-03     5.65691E-03
             901     1.75316E-03     90.4795E-03    -20.6899E+06    -86.2864E+06    -19.6986E+06    -3.96073E+06    -26.4338E-03     52.8652E-03    -26.4314E-03     10.4721E-03    -26.3840E-03     52.4927E-03    -26.3747E-03     10.4157E-03
             902     2.62972E-03     90.4916E-03    -19.6112E+06    -84.7477E+06    -17.5863E+06    -5.73295E+06    -26.4350E-03     52.8609E-03    -26.4259E-03     15.5567E-03    -26.3856E-03     52.4921E-03    -26.3625E-03     15.4747E-03
             903     3.50637E-03     90.5087E-03    -18.1709E+06    -82.8245E+06    -14.7895E+06    -7.27664E+06    -26.4370E-03     52.8560E-03    -26.4190E-03     20.7218E-03    -26.3881E-03     52.4915E-03    -26.3465E-03     20.6165E-03
             904     4.38305E-03     90.5303E-03    -16.4255E+06    -80.2296E+06    -11.6103E+06    -8.73137E+06    -26.4444E-03     52.8533E-03    -26.4088E-03     25.9357E-03    -26.3964E-03     52.4958E-03    -26.3267E-03     25.8076E-03
             905     5.25975E-03     90.5571E-03    -14.6688E+06    -77.1075E+06    -8.30921E+06    -9.84893E+06    -26.4600E-03     52.8554E-03    -26.3954E-03     31.1973E-03    -26.4143E-03     52.5080E-03    -26.3039E-03     31.0500E-03
             906     6.13662E-03     90.5886E-03    -12.9772E+06    -73.9677E+06    -5.22307E+06    -10.9218E+06    -26.5154E-03     52.8959E-03    -26.3805E-03     36.4597E-03    -26.4730E-03     52.5600E-03    -26.2805E-03     36.2925E-03
             907     7.01324E-03     90.6251E-03    -11.0736E+06    -71.7023E+06    -2.57304E+06    -11.8775E+06    -26.5645E-03     52.9291E-03    -26.3646E-03     41.7303E-03    -26.5234E-03     52.6016E-03    -26.2574E-03     41.5432E-03
             908     7.89033E-03     90.6665E-03    -9.42018E+06    -70.0420E+06    -1.55574E+06    -12.5444E+06    -26.6000E-03     52.9391E-03    -26.3391E-03     46.9811E-03    -26.5600E-03     52.6215E-03    -26.2316E-03     46.7762E-03
             909     8.76707E-03     90.7126E-03    -7.78415E+06    -67.9479E+06    -1.40256E+06    -13.2019E+06    -26.7382E-03     53.0479E-03    -26.3097E-03     52.1417E-03    -26.7012E-03     52.7461E-03    -26.2069E-03     51.9165E-03
             910     9.64431E-03     90.7635E-03    -6.31335E+06    -67.1626E+06    -1.80771E+06    -13.6251E+06    -26.9512E-03     53.2387E-03    -26.2875E-03     57.2961E-03    -26.9188E-03     52.9507E-03    -26.1900E-03     57.0505E-03
             911     10.5205E-03     90.8193E-03    -5.51569E+06    -66.1184E+06    -5.07962E+06    -13.6311E+06    -27.1581E-03     53.4180E-03    -26.2599E-03     62.2901E-03    -27.1350E-03     53.1553E-03    -26.1815E-03     62.0263E-03
             912     11.3979E-03     90.8796E-03    -4.83864E+06    -59.2583E+06    -6.10119E+06    -13.3597E+06    -27.3709E-03     53.6118E-03    -26.2408E-03     68.0157E-03    -27.3786E-03     53.4096E-03    -26.1784E-03     67.7331E-03
             913     12.2742E-03     90.9462E-03    -4.22720E+06    -51.9318E+06    -7.98925E+06    -12.7620E+06    -27.8213E-03     54.0475E-03    -26.2262E-03     75.6139E-03    -27.8768E-03     53.9268E-03    -26.1847E-03     75.3103E-03
             914     13.1508E-03     91.0214E-03    -4.27233E+06    -45.1670E+06    -14.5418E+06    -12.0745E+06    -28.1818E-03     54.3859E-03    -26.2041E-03     80.2860E-03    -28.3019E-03     54.3726E-03    -26.2051E-03     79.9583E-03
             915     14.0264E-03     91.0963E-03    -4.59736E+06    -23.2066E+06    -19.8186E+06    -10.7290E+06    -28.5997E-03     54.7737E-03    -26.1740E-03     90.8995E-03    -28.8755E-03     55.0083E-03    -26.2328E-03     90.5613E-03
             916     14.9044E-03     91.1919E-03    -4.92662E+06     21.9356E+06    -31.7395E+06    -7.43667E+06    -30.2642E-03     56.3425E-03    -26.0783E-03     125.853E-03    -31.1038E-03     57.3345E-03    -26.2617E-03     125.570E-03
             917     15.7784E-03     91.3337E-03    -5.10631E+06     100.387E+06    -19.2050E+06    -3.07407E+06    -32.2122E-03     58.2533E-03    -26.0410E-03     181.064E-03    -35.2243E-03     61.6587E-03    -26.2752E-03     181.549E-03
             918     16.6669E-03     91.5383E-03    -3.72042E+06     158.044E+06     52.2555E+06    -603.751E+03    -29.5966E-03     55.8986E-03    -26.3020E-03     146.340E-03    -32.8030E-03     59.5013E-03    -26.2645E-03     147.823E-03
             919     876.629E-06     91.4714E-03    -19.2561E+06    -82.2020E+06    -18.8689E+06    -2.44841E+06    -26.3711E-03     52.7424E-03    -26.3713E-03     5.69604E-03    -26.3210E-03     52.3869E-03    -26.3186E-03     5.66171E-03
             920     1.75323E-03     91.4788E-03    -18.4581E+06    -81.5549E+06    -17.6374E+06    -4.34692E+06    -26.3673E-03     52.7332E-03    -26.3659E-03     10.4877E-03    -26.3162E-03     52.3782E-03    -26.3091E-03     10.4265E-03
             921     2.62991E-03     91.4910E-03    -17.5346E+06    -80.0863E+06    -15.6812E+06    -6.27009E+06    -26.3622E-03     52.7206E-03    -26.3584E-03     15.5837E-03    -26.3120E-03     52.3693E-03    -26.2952E-03     15.4948E-03
             922     3.50660E-03     91.5078E-03    -16.2249E+06    -78.6673E+06    -13.2323E+06    -8.06965E+06    -26.3543E-03     52.7021E-03    -26.3478E-03     20.7599E-03    -26.3039E-03     52.3532E-03    -26.2764E-03     20.6446E-03
             923     4.38335E-03     91.5296E-03    -14.7232E+06    -76.2851E+06    -10.3503E+06    -9.55981E+06    -26.3508E-03     52.6837E-03    -26.3329E-03     26.0004E-03    -26.3018E-03     52.3416E-03    -26.2527E-03     25.8620E-03
             924     5.26020E-03     91.5561E-03    -13.0089E+06    -73.9704E+06    -7.21551E+06    -10.6882E+06    -26.3609E-03     52.6765E-03    -26.3157E-03     31.2738E-03    -26.3130E-03     52.3408E-03    -26.2256E-03     31.1160E-03
             925     6.13701E-03     91.5877E-03    -11.2716E+06    -70.7058E+06    -4.13821E+06    -11.5140E+06    -26.3874E-03     52.6823E-03    -26.2950E-03     36.6232E-03    -26.3426E-03     52.3585E-03    -26.1968E-03     36.4488E-03
             926     7.01402E-03     91.6241E-03    -9.72028E+06    -68.6850E+06    -1.62985E+06    -12.6816E+06    -26.4311E-03     52.7038E-03    -26.2727E-03     41.8931E-03    -26.3888E-03     52.3880E-03    -26.1672E-03     41.6962E-03
             927     7.89090E-03     91.6652E-03    -7.99848E+06    -67.4099E+06    -531.139E+03    -13.4362E+06    -26.4988E-03     52.7432E-03    -26.2444E-03     47.1377E-03    -26.4568E-03     52.4351E-03    -26.1377E-03     46.9219E-03
             928     8.76813E-03     91.7115E-03    -6.55236E+06    -65.6409E+06    -515.739E+03    -13.9286E+06    -26.6371E-03     52.8507E-03    -26.2136E-03     52.4243E-03    -26.5983E-03     52.5571E-03    -26.1115E-03     52.1904E-03
             929     9.64469E-03     91.7624E-03    -5.48579E+06    -65.5435E+06    -1.21760E+06    -14.3168E+06    -26.8759E-03     53.0671E-03    -26.1912E-03     57.6693E-03    -26.8422E-03     52.7848E-03    -26.0943E-03     57.4157E-03
             930     10.5222E-03     91.8184E-03    -4.54725E+06    -64.7446E+06    -4.36057E+06    -14.4285E+06    -27.1370E-03     53.3042E-03    -26.1672E-03     62.6882E-03    -27.1119E-03     53.0457E-03    -26.0885E-03     62.4149E-03
             931     11.3983E-03     91.8787E-03    -3.89300E+06    -58.1823E+06    -5.58442E+06    -14.2280E+06    -27.4359E-03     53.5908E-03    -26.1549E-03     68.5565E-03    -27.4412E-03     53.3919E-03    -26.0928E-03     68.2630E-03
             932     12.2753E-03     91.9456E-03    -3.19564E+06    -51.2160E+06    -7.33535E+06    -13.6426E+06    -27.7927E-03     53.9398E-03    -26.1471E-03     76.3370E-03    -27.8453E-03     53.8204E-03    -26.1048E-03     76.0229E-03
             933     13.1518E-03     92.0208E-03    -2.94048E+06    -45.3842E+06    -13.6088E+06    -12.4466E+06    -28.0851E-03     54.2114E-03    -26.1264E-03     80.9812E-03    -28.1994E-03     54.1937E-03    -26.1243E-03     80.6501E-03
             934     14.0289E-03     92.0964E-03    -3.49424E+06    -24.1453E+06    -18.5316E+06    -11.0535E+06    -28.6850E-03     54.7869E-03    -26.1018E-03     91.5259E-03    -28.9578E-03     55.0152E-03    -26.1544E-03     91.1830E-03
             935     14.9034E-03     92.1913E-03    -4.28882E+06     17.6832E+06    -31.0330E+06    -8.50179E+06    -30.1359E-03     56.1467E-03    -26.0108E-03     126.127E-03    -30.9690E-03     57.1172E-03    -26.1853E-03     125.838E-03
             936     15.7822E-03     92.3341E-03    -4.68065E+06     95.6027E+06    -22.2712E+06    -3.82599E+06    -32.2638E-03     58.2226E-03    -25.9588E-03     180.244E-03    -35.2491E-03     61.5948E-03    -26.2020E-03     180.710E-03
             937     16.6487E-03     92.5319E-03    -3.45023E+06     156.826E+06     49.1350E+06    -408.942E+03    -30.0257E-03     56.2597E-03    -26.2340E-03     145.604E-03    -33.2164E-03     59.8524E-03    -26.2108E-03     147.067E-03
             938     876.687E-06     92.4706E-03    -16.7837E+06    -76.6462E+06    -16.7476E+06    -2.62053E+06    -26.2829E-03     52.5601E-03    -26.2772E-03     5.69952E-03    -26.2315E-03     52.2256E-03    -26.2254E-03     5.66302E-03
             939     1.75340E-03     92.4780E-03    -16.2911E+06    -76.3850E+06    -15.5631E+06    -4.87060E+06    -26.2728E-03     52.5465E-03    -26.2736E-03     10.5161E-03    -26.2214E-03     52.2111E-03    -26.2171E-03     10.4482E-03
             940     2.63014E-03     92.4900E-03    -15.2163E+06    -75.1669E+06    -13.8105E+06    -6.85023E+06    -26.2557E-03     52.5180E-03    -26.2622E-03     15.6246E-03    -26.2037E-03     52.1851E-03    -26.2002E-03     15.5284E-03
             941     3.50694E-03     92.5069E-03    -14.0992E+06    -74.0305E+06    -11.3832E+06    -8.71349E+06    -26.2418E-03     52.4899E-03    -26.2481E-03     20.8230E-03    -26.1901E-03     52.1584E-03    -26.1772E-03     20.6996E-03
             942     4.38381E-03     92.5285E-03    -12.7608E+06    -72.2454E+06    -8.89943E+06    -10.2808E+06    -26.2276E-03     52.4557E-03    -26.2281E-03     26.0846E-03    -26.1767E-03     52.1288E-03    -26.1494E-03     25.9371E-03
             943     5.26071E-03     92.5551E-03    -11.2295E+06    -70.4255E+06    -6.07527E+06    -11.5446E+06    -26.2252E-03     52.4307E-03    -26.2054E-03     31.4116E-03    -26.1751E-03     52.1083E-03    -26.1174E-03     31.2433E-03
             944     6.13774E-03     92.5864E-03    -9.54848E+06    -67.8656E+06    -3.32270E+06    -12.3607E+06    -26.2160E-03     52.3932E-03    -26.1772E-03     36.7712E-03    -26.1677E-03     52.0797E-03    -26.0815E-03     36.5866E-03
             945     7.01485E-03     92.6228E-03    -7.90741E+06    -65.2638E+06    -426.235E+03    -13.1309E+06    -26.2665E-03     52.4149E-03    -26.1484E-03     42.1250E-03    -26.2217E-03     52.1116E-03    -26.0444E-03     41.9232E-03
             946     7.89196E-03     92.6640E-03    -6.49795E+06    -64.5563E+06     771.177E+03    -14.1978E+06    -26.3866E-03     52.5057E-03    -26.1190E-03     47.4405E-03    -26.3429E-03     52.2075E-03    -26.0122E-03     47.2157E-03
             947     8.76890E-03     92.7100E-03    -5.44276E+06    -63.4226E+06     208.717E+03    -14.6216E+06    -26.5364E-03     52.6241E-03    -26.0877E-03     52.8409E-03    -26.4961E-03     52.3387E-03    -25.9868E-03     52.5992E-03
             948     9.64645E-03     92.7613E-03    -4.29909E+06    -63.4292E+06    -279.449E+03    -14.8940E+06    -26.7590E-03     52.8257E-03    -26.0666E-03     58.1572E-03    -26.7235E-03     52.5505E-03    -25.9698E-03     57.8975E-03
             949     10.5227E-03     92.8172E-03    -3.41746E+06    -63.3626E+06    -3.52559E+06    -15.2001E+06    -27.0351E-03     53.0780E-03    -26.0430E-03     63.2676E-03    -27.0072E-03     52.8233E-03    -25.9638E-03     62.9857E-03
             950     11.4003E-03     92.8777E-03    -2.68331E+06    -56.8799E+06    -4.72460E+06    -15.0428E+06    -27.3855E-03     53.4180E-03    -26.0325E-03     69.3661E-03    -27.3877E-03     53.2224E-03    -25.9697E-03     69.0633E-03
             951     12.2765E-03     92.9450E-03    -2.22500E+06    -50.8964E+06    -6.64207E+06    -14.4220E+06    -27.7741E-03     53.8038E-03    -26.0297E-03     77.0471E-03    -27.8231E-03     53.6834E-03    -25.9858E-03     76.7241E-03
             952     13.1534E-03     93.0199E-03    -2.09173E+06    -46.3466E+06    -13.1819E+06    -13.1039E+06    -28.1126E-03     54.1281E-03    -26.0155E-03     81.8226E-03    -28.2222E-03     54.1040E-03    -26.0112E-03     81.4841E-03
             953     14.0291E-03     93.0963E-03    -2.33399E+06    -24.5943E+06    -17.0058E+06    -11.2379E+06    -28.7181E-03     54.7197E-03    -26.0017E-03     92.3972E-03    -28.9874E-03     54.9428E-03    -26.0477E-03     92.0535E-03
             954     14.9066E-03     93.1918E-03    -3.63610E+06     14.5833E+06    -29.1998E+06    -8.73246E+06    -30.5418E-03     56.4756E-03    -25.9338E-03     126.365E-03    -31.3716E-03     57.4289E-03    -26.0957E-03     126.067E-03
             955     15.7812E-03     93.3325E-03    -4.87264E+06     89.7968E+06    -26.1602E+06    -4.45123E+06    -32.9479E-03     58.8410E-03    -25.8931E-03     180.096E-03    -35.9269E-03     62.1970E-03    -26.1470E-03     180.532E-03
             956     16.6663E-03     93.5387E-03    -3.55390E+06     154.820E+06     44.8019E+06    -492.410E+03    -30.1387E-03     56.3233E-03    -26.1846E-03     145.863E-03    -33.3308E-03     59.9225E-03    -26.1800E-03     147.319E-03
             957     876.803E-06     93.4696E-03    -14.3170E+06    -70.6820E+06    -14.2015E+06    -2.96861E+06    -26.1544E-03     52.3066E-03    -26.1522E-03     5.72621E-03    -26.1031E-03     51.9947E-03    -26.0999E-03     5.68530E-03
             958     1.75362E-03     93.4770E-03    -13.6237E+06    -70.4741E+06    -13.1210E+06    -5.34159E+06    -26.1375E-03     52.2820E-03    -26.1445E-03     10.5514E-03    -26.0848E-03     51.9688E-03    -26.0881E-03     10.4776E-03
             959     2.63048E-03     93.4890E-03    -12.7453E+06    -69.9752E+06    -11.5715E+06    -7.65640E+06    -26.1126E-03     52.2420E-03    -26.1294E-03     15.6824E-03    -26.0590E-03     51.9283E-03    -26.0673E-03     15.5760E-03
             960     3.50743E-03     93.5057E-03    -11.4863E+06    -69.2633E+06    -9.39116E+06    -9.37889E+06    -26.0853E-03     52.1949E-03    -26.1096E-03     20.9106E-03    -26.0304E-03     51.8806E-03    -26.0394E-03     20.7790E-03
             961     4.38439E-03     93.5273E-03    -10.1559E+06    -67.8493E+06    -6.92800E+06    -11.0331E+06    -26.0643E-03     52.1489E-03    -26.0846E-03     26.2153E-03    -26.0095E-03     51.8373E-03    -26.0062E-03     26.0586E-03
             962     5.26151E-03     93.5536E-03    -8.75841E+06     -66.813E+06    -4.40401E+06    -12.2558E+06    -26.0368E-03     52.0922E-03    -26.0554E-03     31.5729E-03    -25.9819E-03     51.7818E-03    -25.9679E-03     31.3960E-03
             963     6.13868E-03     93.5850E-03    -7.32569E+06    -64.7200E+06    -1.85127E+06    -13.1748E+06    -26.0328E-03     52.0537E-03    -26.0208E-03     36.9781E-03    -25.9800E-03     51.7504E-03    -25.9256E-03     36.7839E-03
             964     7.01593E-03     93.6211E-03    -5.75979E+06    -62.2866E+06     756.652E+03    -13.8518E+06    -26.0605E-03     52.0455E-03    -25.9850E-03     42.4360E-03    -26.0108E-03     51.7520E-03    -25.8825E-03     42.2261E-03
             965     7.89326E-03     93.6626E-03    -4.49326E+06    -61.7499E+06     2.38560E+06    -14.4509E+06    -26.1936E-03     52.1462E-03    -25.9526E-03     47.8792E-03    -26.1459E-03     51.8564E-03    -25.8446E-03     47.6524E-03
             966     8.77065E-03     93.7084E-03    -3.42686E+06    -60.7133E+06     2.04813E+06    -15.1785E+06    -26.4152E-03     52.3370E-03    -25.9217E-03     53.3852E-03    -26.3710E-03     52.0591E-03    -25.8185E-03     53.1376E-03
             967     9.64733E-03     93.7599E-03    -2.50378E+06    -60.9269E+06     1.37732E+06    -15.5257E+06    -26.6048E-03     52.5062E-03    -25.9015E-03     58.7967E-03    -26.5659E-03     52.2381E-03    -25.8026E-03     58.5304E-03
             968     10.5253E-03     93.8157E-03    -1.72310E+06    -61.8064E+06    -1.90704E+06    -15.7549E+06    -26.8744E-03     52.7522E-03    -25.8778E-03     64.0513E-03    -26.8420E-03     52.4998E-03    -25.7953E-03     63.7642E-03
             969     11.4016E-03     93.8768E-03    -1.27684E+06    -55.5639E+06    -3.37851E+06    -15.5789E+06    -27.2380E-03     53.1034E-03    -25.8654E-03     70.2628E-03    -27.2364E-03     52.9097E-03    -25.7998E-03     69.9554E-03
             970     12.2789E-03     93.9440E-03    -998.978E+03    -50.8695E+06    -5.49093E+06    -14.9872E+06    -27.7650E-03     53.6323E-03    -25.8673E-03     78.0095E-03    -27.8092E-03     53.5084E-03    -25.8196E-03     77.6807E-03
             971     13.1552E-03     94.0193E-03    -1.18060E+06    -47.6063E+06    -12.6458E+06    -13.5767E+06    -28.2682E-03     54.1334E-03    -25.8652E-03     82.8805E-03    -28.3729E-03     54.1016E-03    -25.8577E-03     82.5363E-03
             972     14.0321E-03     94.0962E-03    -1.97976E+06    -25.6477E+06    -16.0497E+06    -11.3572E+06    -28.9857E-03     54.8597E-03    -25.8740E-03     93.1546E-03    -29.2536E-03     55.0761E-03    -25.9142E-03     92.8085E-03
             973     14.9073E-03     94.1913E-03    -3.23692E+06     11.9566E+06    -26.6276E+06    -8.50114E+06    -30.9223E-03     56.7625E-03    -25.8402E-03     127.317E-03    -31.7555E-03     57.7039E-03    -25.9860E-03     127.016E-03
             974     15.7826E-03     94.3357E-03    -5.14284E+06     84.4231E+06    -28.6414E+06    -4.27135E+06    -33.8392E-03     59.6550E-03    -25.8157E-03     181.159E-03    -36.8280E-03     63.0080E-03    -26.0739E-03     181.572E-03
             975     16.6506E-03     94.5316E-03    -4.22587E+06     152.261E+06     40.8274E+06    -901.833E+03    -30.3100E-03     56.4368E-03    -26.1268E-03     144.173E-03    -33.4818E-03     60.0158E-03    -26.1373E-03     145.602E-03
             976     876.942E-06     94.4684E-03    -11.0696E+06    -64.0782E+06    -11.0674E+06    -3.26173E+06    -25.9797E-03     51.9590E-03    -25.9793E-03     5.74921E-03    -25.9262E-03     51.6709E-03    -25.9257E-03     5.70462E-03
             977     1.75392E-03     94.4757E-03    -10.5804E+06    -64.1242E+06    -10.2988E+06    -5.90509E+06    -25.9522E-03     51.9192E-03    -25.9670E-03     10.5991E-03    -25.8976E-03     51.6292E-03    -25.9102E-03     10.5182E-03
             978     2.63096E-03     94.4876E-03    -9.80379E+06    -64.1579E+06    -8.92479E+06    -8.27446E+06    -25.9181E-03     51.8653E-03    -25.9472E-03     15.7611E-03    -25.8620E-03     51.5725E-03    -25.8846E-03     15.6471E-03
             979     3.50804E-03     94.5042E-03    -8.75907E+06    -64.3436E+06    -7.27049E+06    -10.3729E+06    -25.8774E-03     51.7983E-03    -25.9209E-03     21.0299E-03    -25.8190E-03     51.5014E-03    -25.8512E-03     20.8859E-03
             980     4.38528E-03     94.5257E-03    -7.41965E+06    -63.3699E+06    -5.12290E+06    -11.8116E+06    -25.8320E-03     51.7196E-03    -25.8876E-03     26.3886E-03    -25.7725E-03     51.4237E-03    -25.8106E-03     26.2225E-03
             981     5.26251E-03     94.5520E-03    -6.14849E+06    -63.0922E+06    -2.55113E+06    -12.9747E+06    -25.8074E-03     51.6601E-03    -25.8527E-03     31.7914E-03    -25.7474E-03     51.3617E-03    -25.7651E-03     31.6061E-03
             982     6.13996E-03     94.5830E-03    -4.75608E+06    -61.2416E+06    -243.452E+03    -13.8679E+06    -25.7917E-03     51.6030E-03    -25.8113E-03     37.2820E-03    -25.7332E-03     51.3109E-03    -25.7168E-03     37.0799E-03
             983     7.01739E-03     94.6194E-03    -3.55829E+06    -59.4723E+06     2.17355E+06    -14.4543E+06    -25.8201E-03     51.5906E-03    -25.7705E-03     42.8248E-03    -25.7651E-03     51.3056E-03    -25.6682E-03     42.6084E-03
             984     7.89501E-03     94.6602E-03    -2.45217E+06    -59.0899E+06     3.88645E+06    -14.8432E+06    -25.9647E-03     51.6996E-03    -25.7349E-03     48.4607E-03    -25.9124E-03     51.4176E-03    -25.6263E-03     48.2306E-03
             985     8.77228E-03     94.7070E-03    -1.32343E+06    -57.8905E+06     4.06095E+06    -15.3876E+06    -26.1393E-03     51.8404E-03    -25.7011E-03     54.0300E-03    -26.0909E-03     51.5700E-03    -25.5949E-03     53.7817E-03
             986     9.65020E-03     94.7577E-03    -678.955E+03    -59.0836E+06     3.12148E+06    -15.9903E+06    -26.3646E-03     52.0404E-03    -25.6758E-03     59.6563E-03    -26.3210E-03     51.7756E-03    -25.5735E-03     59.3863E-03
             987     10.5268E-03     94.8142E-03    -274.628E+03    -59.5949E+06     9.36825E+03    -16.0015E+06    -26.7181E-03     52.3709E-03    -25.6527E-03     65.1340E-03    -26.6838E-03     52.1240E-03    -25.5659E-03     64.8460E-03
             988     11.4047E-03     94.8749E-03    -107.381E+03    -54.6926E+06    -1.88496E+06    -15.7721E+06    -27.1437E-03     52.7893E-03    -25.6456E-03     71.2834E-03    -27.1391E-03     52.5956E-03    -25.5755E-03     70.9755E-03
             989     12.2814E-03     94.9430E-03    -342.643E+03    -50.7444E+06    -4.33894E+06    -15.1928E+06    -27.8041E-03     53.4626E-03    -25.6585E-03     79.1513E-03    -27.8467E-03     53.3365E-03    -25.6061E-03     78.8213E-03
             990     13.1580E-03     95.0188E-03    -915.276E+03    -48.2319E+06    -11.5048E+06    -13.7393E+06    -28.5280E-03     54.2069E-03    -25.6790E-03     83.8688E-03    -28.6325E-03     54.1704E-03    -25.6652E-03     83.5223E-03
             991     14.0335E-03     95.0958E-03    -1.59707E+06    -27.3500E+06    -14.2736E+06    -11.5236E+06    -29.3846E-03     55.1063E-03    -25.7217E-03     94.3430E-03    -29.6543E-03     55.3146E-03    -25.7511E-03     93.9918E-03
             992     14.9092E-03     95.1928E-03    -2.50522E+06     8.28102E+06    -23.7398E+06    -7.95395E+06    -30.6977E-03     56.4054E-03    -25.7077E-03     128.252E-03    -31.5250E-03     57.3221E-03    -25.8348E-03     127.967E-03
             993     15.7863E-03     95.3342E-03    -4.08303E+06     80.1152E+06    -29.3754E+06    -3.27977E+06    -33.4857E-03     59.1311E-03    -25.6453E-03     185.406E-03    -36.5406E-03     62.5409E-03    -25.9025E-03     185.860E-03
             994     16.6654E-03     95.5436E-03    -4.33335E+06     150.837E+06     38.5475E+06    -1.25323E+06    -31.4097E-03     57.3633E-03    -25.9536E-03     146.651E-03    -34.6377E-03     60.9998E-03    -25.9733E-03     148.051E-03
             995     877.155E-06     95.4668E-03    -7.50460E+06    -56.8131E+06    -7.54590E+06    -3.54895E+06    -25.7387E-03     51.4825E-03    -25.7438E-03     5.77390E-03    -25.6830E-03     51.2204E-03    -25.6883E-03     5.72573E-03
             996     1.75434E-03     95.4740E-03    -7.19415E+06    -57.2787E+06    -7.09166E+06    -6.36941E+06    -25.7036E-03     51.4293E-03    -25.7257E-03     10.6668E-03    -25.6466E-03     51.1640E-03    -25.6677E-03     10.5801E-03
             997     2.63158E-03     95.4858E-03    -6.58783E+06    -58.0493E+06    -6.20080E+06    -8.91566E+06    -25.6582E-03     51.3581E-03    -25.6999E-03     15.8677E-03    -25.5988E-03     51.0872E-03    -25.6371E-03     15.7458E-03
             998     3.50895E-03     95.5023E-03    -5.73961E+06    -58.6760E+06    -4.83295E+06    -11.1538E+06    -25.6006E-03     51.2674E-03    -25.6668E-03     21.1836E-03    -25.5387E-03     50.9909E-03    -25.5976E-03     21.0301E-03
             999     4.38634E-03     95.5236E-03    -4.80237E+06    -59.2135E+06    -3.39664E+06    -12.7268E+06    -25.5377E-03     51.1630E-03    -25.6253E-03     26.5911E-03    -25.4736E-03     50.8814E-03    -25.5495E-03     26.4141E-03
            1000     5.26401E-03     95.5497E-03    -3.55412E+06    -58.9911E+06    -1.14346E+06    -13.7590E+06    -25.4957E-03     51.0763E-03    -25.5806E-03     32.1026E-03    -25.4305E-03     50.7923E-03    -25.4956E-03     31.9083E-03
            1001     6.14154E-03     95.5808E-03    -2.42598E+06    -58.1541E+06     1.11147E+06    -14.4995E+06    -25.4850E-03     51.0184E-03    -25.5335E-03     37.6676E-03    -25.4209E-03     50.7361E-03    -25.4401E-03     37.4587E-03
            1002     7.01945E-03     95.6166E-03    -1.38178E+06    -56.6240E+06     3.49283E+06    -14.7503E+06    -25.5398E-03     51.0289E-03    -25.4891E-03     43.3575E-03    -25.4795E-03     50.7526E-03    -25.3875E-03     43.1389E-03
            1003     7.89706E-03     95.6581E-03    -466.718E+03    -56.2776E+06     5.44780E+06    -15.1407E+06    -25.6258E-03     51.0758E-03    -25.4501E-03     49.1512E-03    -25.5693E-03     50.8021E-03    -25.3405E-03     48.9194E-03
            1004     8.77508E-03     95.7041E-03     79.0035E+03    -55.6989E+06     5.18784E+06    -15.4288E+06    -25.7698E-03     51.1765E-03    -25.4067E-03     54.8725E-03    -25.7184E-03     50.9126E-03    -25.3002E-03     54.6263E-03
            1005     9.65253E-03     95.7555E-03     479.078E+03    -56.6406E+06     4.58048E+06    -15.8995E+06    -26.0623E-03     51.4391E-03    -25.3768E-03     60.6167E-03    -26.0177E-03     51.1818E-03    -25.2724E-03     60.3506E-03
            1006     10.5309E-03     95.8119E-03     550.811E+03    -58.1098E+06     1.24227E+06    -15.9934E+06    -26.5257E-03     51.8817E-03    -25.3560E-03     66.3053E-03    -26.4903E-03     51.6384E-03    -25.2663E-03     66.0202E-03
            1007     11.4074E-03     95.8734E-03     164.309E+03    -53.2455E+06    -655.108E+03    -15.7798E+06    -27.1872E-03     52.5507E-03    -25.3635E-03     72.5636E-03    -27.1848E-03     52.3618E-03    -25.2898E-03     72.2572E-03
            1008     12.2847E-03     95.9414E-03    -115.724E+03    -50.3778E+06    -2.77674E+06    -15.2775E+06    -27.9879E-03     53.3928E-03    -25.4048E-03     80.4492E-03    -28.0326E-03     53.2662E-03    -25.3455E-03     80.1187E-03
            1009     13.1609E-03     96.0184E-03    -378.331E+03    -49.3536E+06    -10.2261E+06    -13.5158E+06    -28.7530E-03     54.2057E-03    -25.4527E-03     85.3693E-03    -28.8564E-03     54.1622E-03    -25.4317E-03     85.0257E-03
            1010     14.0368E-03     96.0962E-03    -1.19537E+06    -28.5980E+06    -12.3426E+06    -11.4371E+06    -29.5101E-03     55.0308E-03    -25.5206E-03     95.7666E-03    -29.7822E-03     55.2329E-03    -25.5391E-03     95.4175E-03
            1011     14.9127E-03     96.1928E-03    -1.90474E+06     3.63335E+06    -21.0182E+06    -8.00464E+06    -31.1545E-03     56.6976E-03    -25.5431E-03     128.191E-03    -31.9800E-03     57.5902E-03    -25.6507E-03     127.899E-03
            1012     15.7886E-03     96.3333E-03    -2.60885E+06     75.1797E+06    -28.5384E+06    -3.06203E+06    -32.3199E-03     57.7877E-03    -25.4677E-03     183.079E-03    -35.3157E-03     61.1239E-03    -25.7157E-03     183.619E-03
            1013     16.6648E-03     96.5409E-03    -3.55389E+06     150.269E+06     38.0887E+06    -653.677E+03    -31.7425E-03     57.5004E-03    -25.7579E-03     146.877E-03    -34.9466E-03     61.1152E-03    -25.7802E-03     148.324E-03
            1014     877.417E-06     96.4646E-03    -4.11242E+06    -49.0390E+06    -4.37310E+06    -3.82975E+06    -25.4133E-03     50.8342E-03    -25.4209E-03     5.81858E-03    -25.3565E-03     50.6014E-03    -25.3657E-03     5.76697E-03
            1015     1.75491E-03     96.4718E-03    -3.94381E+06    -49.9596E+06    -4.05595E+06    -6.75644E+06    -25.3761E-03     50.7761E-03    -25.4000E-03     10.7539E-03    -25.3178E-03     50.5383E-03    -25.3421E-03     10.6626E-03
            1016     2.63245E-03     96.4835E-03    -3.49851E+06    -51.5081E+06    -3.55460E+06    -9.55699E+06    -25.3159E-03     50.6859E-03    -25.3700E-03     16.0025E-03    -25.2544E-03     50.4394E-03    -25.3080E-03     15.8728E-03
            1017     3.51007E-03     96.4998E-03    -2.94611E+06    -52.8549E+06    -2.82983E+06    -11.7799E+06    -25.2398E-03     50.5686E-03    -25.3288E-03     21.3736E-03    -25.1752E-03     50.3142E-03    -25.2621E-03     21.2128E-03
            1018     4.38790E-03     96.5209E-03    -2.23328E+06    -54.5275E+06    -1.68700E+06    -13.4638E+06    -25.1670E-03     50.4477E-03    -25.2807E-03     26.8602E-03    -25.0991E-03     50.1831E-03    -25.2068E-03     26.6747E-03
            1019     5.26568E-03     96.5469E-03    -1.49106E+06    -55.0994E+06    -383.630E+03    -14.6007E+06    -25.0953E-03     50.3201E-03    -25.2248E-03     32.4620E-03    -25.0262E-03     50.0512E-03    -25.1447E-03     32.2582E-03
            1020     6.14392E-03     96.5777E-03    -645.867E+03    -55.2974E+06     1.69595E+06    -14.9674E+06    -25.0926E-03     50.2631E-03    -25.1706E-03     38.1819E-03    -25.0242E-03     49.9912E-03    -25.0810E-03     37.9687E-03
            1021     7.02177E-03     96.6137E-03     62.1649E+03    -54.1561E+06     3.82295E+06    -15.0150E+06    -25.1334E-03     50.2525E-03    -25.1191E-03     44.0575E-03    -25.0694E-03     49.9854E-03    -25.0215E-03     43.8377E-03
            1022     7.90011E-03     96.6548E-03     627.539E+03    -53.8976E+06     5.89928E+06    -14.9738E+06    -25.1796E-03     50.2522E-03    -25.0726E-03     49.9377E-03    -25.1210E-03     49.9873E-03    -24.9659E-03     49.7107E-03
            1023     8.77827E-03     96.7009E-03     773.395E+03    -53.8516E+06     5.99470E+06    -15.0484E+06    -25.3865E-03     50.4124E-03    -25.0259E-03     55.8984E-03    -25.3345E-03     50.1546E-03    -24.9190E-03     55.6602E-03
            1024     9.65667E-03     96.7526E-03     672.505E+03    -53.8373E+06     5.58043E+06    -15.3571E+06    -25.8054E-03     50.8043E-03    -24.9989E-03     61.7854E-03    -25.7644E-03     50.5584E-03    -24.8940E-03     61.5292E-03
            1025     10.5339E-03     96.8090E-03     366.862E+03    -56.3610E+06     2.65502E+06    -15.6751E+06    -26.3744E-03     51.3683E-03    -24.9939E-03     67.5365E-03    -26.3435E-03     51.1310E-03    -24.8995E-03     67.2583E-03
            1026     11.4121E-03     96.8715E-03    -134.128E+03    -51.9816E+06     275.037E+03    -15.6082E+06    -27.1774E-03     52.1958E-03    -25.0184E-03     74.1426E-03    -27.1792E-03     52.0117E-03    -24.9414E-03     73.8408E-03
            1027     12.2883E-03     96.9402E-03    -408.993E+03    -49.1586E+06    -1.18498E+06    -15.1305E+06    -28.1805E-03     53.2706E-03    -25.0901E-03     82.1457E-03    -28.2312E-03     53.1487E-03    -25.0242E-03     81.8181E-03
            1028     13.1647E-03     97.0177E-03    -846.872E+03    -51.3495E+06    -9.77979E+06    -13.5112E+06    -29.0461E-03     54.2164E-03    -25.1703E-03     87.0359E-03    -29.1509E-03     54.1643E-03    -25.1435E-03     86.6929E-03
            1029     14.0404E-03     97.0963E-03    -1.54437E+06    -29.6321E+06    -10.6997E+06    -11.1122E+06    -30.0794E-03     55.3633E-03    -25.2840E-03     96.5808E-03    -30.3560E-03     55.5604E-03    -25.2923E-03     96.2330E-03
            1030     14.9158E-03     97.1932E-03    -2.30969E+06     93.7643E+03    -17.7071E+06    -8.68360E+06    -32.6292E-03     58.0199E-03    -25.3906E-03     128.555E-03    -33.4722E-03     58.9064E-03    -25.4759E-03     128.232E-03
            1031     15.7887E-03     97.3360E-03    -2.53909E+06     69.1225E+06    -29.8063E+06    -4.22534E+06    -34.4290E-03     59.8459E-03    -25.4169E-03     177.631E-03    -37.3234E-03     63.0630E-03    -25.6625E-03     178.048E-03
            1032     16.6699E-03     97.5330E-03    -2.40068E+06     149.117E+06     36.4851E+06     423.388E+03    -31.3340E-03     57.1036E-03    -25.7695E-03     146.329E-03    -34.5030E-03     60.6878E-03    -25.7999E-03     147.802E-03
            1033     877.827E-06     97.4618E-03    -1.03519E+06    -40.8245E+06    -1.16986E+06    -4.03620E+06    -24.9922E-03     49.9870E-03    -24.9948E-03     5.87570E-03    -24.9366E-03     49.7862E-03    -24.9400E-03     5.82166E-03
            1034     1.75563E-03     97.4688E-03    -892.556E+03    -42.2717E+06    -1.29462E+06    -7.12016E+06    -24.9453E-03     49.9190E-03    -24.9737E-03     10.8552E-03    -24.8869E-03     49.7111E-03    -24.9176E-03     10.7596E-03
            1035     2.63356E-03     97.4804E-03    -767.307E+03    -44.5842E+06    -1.31673E+06    -9.98166E+06    -24.8708E-03     49.8089E-03    -24.9381E-03     16.1659E-03    -24.8088E-03     49.5897E-03    -24.8789E-03     16.0315E-03
            1036     3.51162E-03     97.4966E-03    -592.370E+03    -46.9500E+06    -1.31580E+06    -12.2811E+06    -24.7820E-03     49.6713E-03    -24.8892E-03     21.6132E-03    -24.7163E-03     49.4406E-03    -24.8269E-03     21.4468E-03
            1037     4.38973E-03     97.5175E-03    -385.974E+03    -49.5724E+06    -938.660E+03    -13.9810E+06    -24.6860E-03     49.5179E-03    -24.8319E-03     27.1913E-03    -24.6170E-03     49.2742E-03    -24.7641E-03     27.0004E-03
            1038     5.26819E-03     97.5432E-03    -195.910E+03    -51.1557E+06    -247.605E+03    -14.9621E+06    -24.6158E-03     49.3837E-03    -24.7679E-03     32.9094E-03    -24.5459E-03     49.1321E-03    -24.6947E-03     32.7025E-03
            1039     6.14646E-03     97.5739E-03    -63.4961E+03    -52.7054E+06     1.01976E+06    -15.3273E+06    -24.5722E-03     49.2766E-03    -24.7044E-03     38.8055E-03    -24.5032E-03     49.0172E-03    -24.6228E-03     38.5898E-03
            1040     7.02527E-03     97.6099E-03     211.348E+03    -52.1210E+06     2.84962E+06    -15.0432E+06    -24.5729E-03     49.2140E-03    -24.6411E-03     44.8212E-03    -24.5090E-03     48.9575E-03    -24.5516E-03     44.6037E-03
            1041     7.90383E-03     97.6507E-03     290.090E+03    -51.9043E+06     5.18254E+06    -14.6002E+06    -24.7073E-03     49.2967E-03    -24.5894E-03     50.8651E-03    -24.6513E-03     49.0424E-03    -24.4886E-03     50.6458E-03
            1042     8.78255E-03     97.6970E-03     163.094E+03    -51.9535E+06     6.12213E+06    -14.2786E+06    -24.9943E-03     49.5440E-03    -24.5497E-03     57.0341E-03    -24.9473E-03     49.2953E-03    -24.4440E-03     56.8090E-03
            1043     9.66080E-03     97.7487E-03    -466.772E+03    -51.6405E+06     5.91181E+06    -14.2768E+06    -25.5033E-03     50.0362E-03    -24.5328E-03     63.2564E-03    -25.4705E-03     49.8012E-03    -24.4277E-03     63.0176E-03
            1044     10.5393E-03     97.8063E-03    -1.26709E+06    -54.2107E+06     3.47176E+06    -14.8115E+06    -26.2580E-03     50.8068E-03    -24.5488E-03     69.2963E-03    -26.2387E-03     50.5805E-03    -24.4510E-03     69.0322E-03
            1045     11.4161E-03     97.8685E-03    -1.75996E+06    -50.4451E+06     1.11903E+06    -15.0871E+06    -27.1561E-03     51.7553E-03    -24.5992E-03     76.1584E-03    -27.1687E-03     51.5793E-03    -24.5179E-03     75.8663E-03
            1046     12.2936E-03     97.9392E-03    -2.36166E+06    -48.5154E+06    -533.454E+03    -14.6079E+06    -28.3122E-03     53.0131E-03    -24.7009E-03     84.2127E-03    -28.3745E-03     52.8963E-03    -24.6298E-03     83.8940E-03
            1047     13.1694E-03     98.0168E-03    -3.05586E+06    -52.1148E+06    -9.16882E+06    -13.5992E+06    -29.6147E-03     54.4420E-03    -24.8273E-03     89.0870E-03    -29.7320E-03     54.3901E-03    -24.7932E-03     88.7416E-03
            1048     14.0443E-03     98.0972E-03    -3.23812E+06    -31.5857E+06    -9.70688E+06    -11.4122E+06    -31.2123E-03     56.2251E-03    -25.0128E-03     98.7780E-03    -31.5026E-03     56.4200E-03    -25.0109E-03     98.4174E-03
            1049     14.9175E-03     98.1951E-03    -4.21404E+06    -2.42184E+06    -14.6825E+06    -8.21370E+06    -33.7438E-03     58.9491E-03    -25.2052E-03     131.369E-03    -34.6112E-03     59.8355E-03    -25.2690E-03     131.039E-03
            1050     15.7904E-03     98.3405E-03    -7.02190E+06     64.5957E+06    -32.0162E+06    -4.68589E+06    -37.6645E-03     62.9946E-03    -25.3301E-03     181.427E-03    -40.6789E-03     66.3060E-03    -25.5737E-03     181.686E-03
            1051     16.6534E-03     98.5339E-03    -5.03909E+06     146.165E+06     32.3617E+06    -1.08562E+06    -31.8449E-03     57.6091E-03    -25.7641E-03     146.350E-03    -35.0876E-03     61.2592E-03    -25.8070E-03     147.726E-03
            1052     878.226E-06     98.4580E-03     1.87717E+06    -32.3398E+06     1.60067E+06    -4.16469E+06    -24.4495E-03     48.9054E-03    -24.4559E-03     5.94320E-03    -24.3957E-03     48.7388E-03    -24.4037E-03     5.88776E-03
            1053     1.75659E-03     98.4650E-03     1.66383E+06    -34.3544E+06     1.01161E+06    -7.29546E+06    -24.3903E-03     48.8187E-03    -24.4284E-03     10.9772E-03    -24.3339E-03     48.6433E-03    -24.3760E-03     10.8799E-03
            1054     2.63499E-03     98.4764E-03     1.41831E+06    -37.4513E+06     283.767E+03    -10.1849E+06    -24.3064E-03     48.6917E-03    -24.3852E-03     16.3585E-03    -24.2461E-03     48.5026E-03    -24.3316E-03     16.2222E-03
            1055     3.51351E-03     98.4924E-03     1.04944E+06    -40.9947E+06    -581.676E+03    -12.4313E+06    -24.2005E-03     48.5287E-03    -24.3282E-03     21.8943E-03    -24.1361E-03     48.3242E-03    -24.2732E-03     21.7271E-03
            1056     4.39225E-03     98.5130E-03     522.590E+03    -44.5835E+06    -1.17596E+06    -14.0192E+06    -24.0940E-03     48.3556E-03    -24.2616E-03     27.5754E-03    -24.0270E-03     48.1356E-03    -24.2036E-03     27.3855E-03
            1057     5.27102E-03     98.5385E-03    -155.745E+03    -47.6626E+06    -1.33400E+06    -14.7298E+06    -24.0021E-03     48.1915E-03    -24.1893E-03     33.4500E-03    -23.9350E-03     47.9585E-03    -24.1267E-03     33.2481E-03
            1058     6.15015E-03     98.5691E-03    -894.715E+03    -49.7803E+06    -629.605E+03    -14.9332E+06    -23.9383E-03     48.0548E-03    -24.1165E-03     39.4775E-03    -23.8746E-03     47.8131E-03    -24.0462E-03     39.2692E-03
            1059     7.02921E-03     98.6045E-03    -1.77433E+06    -50.6814E+06     732.332E+03    -14.5038E+06    -23.9623E-03     48.0105E-03    -24.0481E-03     45.6485E-03    -23.9066E-03     47.7663E-03    -23.9684E-03     45.4408E-03
            1060     7.90854E-03     98.6458E-03    -2.35067E+06    -50.2614E+06     3.05462E+06    -13.8867E+06    -24.1490E-03     48.1446E-03    -23.9956E-03     51.9404E-03    -24.1044E-03     47.9044E-03    -23.9041E-03     51.7337E-03
            1061     8.78750E-03     98.6920E-03    -2.86845E+06    -50.5413E+06     4.83674E+06    -13.1716E+06    -24.5312E-03     48.4977E-03    -23.9665E-03     58.4120E-03    -24.4983E-03     48.2611E-03    -23.8649E-03     58.2048E-03
            1062     9.66652E-03     98.7444E-03    -3.78307E+06    -49.8449E+06     5.19500E+06    -12.6413E+06    -25.1339E-03     49.0984E-03    -23.9644E-03     65.0075E-03    -25.1178E-03     48.8768E-03    -23.8607E-03     64.7938E-03
            1063     10.5446E-03     98.8021E-03    -4.67635E+06    -51.4309E+06     3.88864E+06    -13.5444E+06    -26.0342E-03     50.0378E-03    -24.0036E-03     71.3697E-03    -26.0353E-03     49.8285E-03    -23.9028E-03     71.1258E-03
            1064     11.4228E-03     98.8662E-03    -5.41162E+06    -49.1497E+06     1.64060E+06    -14.2443E+06    -27.1799E-03     51.2667E-03    -24.0868E-03     78.4777E-03    -27.2128E-03     51.1011E-03    -23.9995E-03     78.1993E-03
            1065     12.2990E-03     98.9367E-03    -5.59828E+06    -46.9124E+06     511.336E+03    -14.4977E+06    -28.5558E-03     52.7866E-03    -24.2309E-03     86.8050E-03    -28.6385E-03     52.6815E-03    -24.1522E-03     86.4894E-03
            1066     13.1751E-03     99.0171E-03    -5.25225E+06    -52.8298E+06    -7.72470E+06    -13.6958E+06    -30.1414E-03     54.5529E-03    -24.4114E-03     92.0087E-03    -30.2733E-03     54.5010E-03    -24.3658E-03     91.6612E-03
            1067     14.0492E-03     99.0982E-03    -5.24473E+06    -32.9878E+06    -8.03890E+06    -11.9627E+06    -31.8601E-03     56.5133E-03    -24.6531E-03     102.408E-03    -32.1690E-03     56.7097E-03    -24.6379E-03     102.036E-03
            1068     14.9225E-03     99.1992E-03    -5.09405E+06    -7.13408E+06    -11.5600E+06    -7.83743E+06    -34.1647E-03     59.0630E-03    -24.8983E-03     134.924E-03    -35.0492E-03     59.9376E-03    -24.9384E-03     134.595E-03
            1069     15.7965E-03     99.3424E-03    -5.64140E+06     62.2640E+06    -28.6251E+06    -2.75151E+06    -36.8945E-03     61.8972E-03    -25.0028E-03     189.356E-03    -40.0487E-03     65.3354E-03    -25.2280E-03     189.740E-03
            1070     16.6722E-03     99.5526E-03    -4.33487E+06     146.289E+06     33.8831E+06    -2.36353E+06    -33.9426E-03     59.3885E-03    -25.4460E-03     147.704E-03    -37.2445E-03     63.0968E-03    -25.4824E-03     149.026E-03
            1071     878.895E-06     99.4531E-03     3.81136E+06    -23.7492E+06     3.61490E+06    -4.15520E+06    -23.7658E-03     47.5428E-03    -23.7770E-03     6.01096E-03    -23.7176E-03     47.4133E-03    -23.7300E-03     5.95594E-03
            1072     1.75774E-03     99.4599E-03     3.34897E+06    -26.4119E+06     2.37792E+06    -7.25766E+06    -23.7002E-03     47.4436E-03    -23.7435E-03     11.1160E-03    -23.6488E-03     47.3035E-03    -23.6981E-03     11.0198E-03
            1073     2.63678E-03     99.4712E-03     2.51273E+06    -30.4353E+06     749.310E+03    -10.0084E+06    -23.6036E-03     47.2970E-03    -23.6934E-03     16.5732E-03    -23.5486E-03     47.1406E-03    -23.6491E-03     16.4401E-03
            1074     3.51594E-03     99.4869E-03     1.37500E+06    -35.2745E+06    -1.11083E+06    -12.0285E+06    -23.4848E-03     47.1136E-03    -23.6287E-03     22.1977E-03    -23.4262E-03     46.9377E-03    -23.5851E-03     22.0370E-03
            1075     4.39524E-03     99.5073E-03    -189.941E+03    -40.1034E+06    -2.85234E+06    -13.1543E+06    -23.3646E-03     46.9180E-03    -23.5535E-03     28.0105E-03    -23.3049E-03     46.7236E-03    -23.5093E-03     27.8334E-03
            1076     5.27478E-03     99.5326E-03    -2.11789E+06    -44.5632E+06    -3.91590E+06    -13.5432E+06    -23.2547E-03     46.7285E-03    -23.4738E-03     34.0049E-03    -23.1977E-03     46.5171E-03    -23.4257E-03     33.8204E-03
            1077     6.15443E-03     99.5628E-03    -4.30779E+06    -47.3386E+06    -3.86638E+06    -13.2512E+06    -23.2139E-03     46.6101E-03    -23.3961E-03     40.1981E-03    -23.1656E-03     46.3895E-03    -23.3406E-03     40.0141E-03
            1078     7.03425E-03     99.5985E-03    -6.42524E+06    -49.1997E+06    -2.53750E+06    -12.7061E+06    -23.2865E-03     46.6182E-03    -23.3316E-03     46.5909E-03    -23.2505E-03     46.3920E-03    -23.2637E-03     46.4094E-03
            1079     7.91395E-03     99.6392E-03    -8.36855E+06    -48.9809E+06    -384.690E+03    -12.1052E+06    -23.4970E-03     46.7821E-03    -23.2851E-03     53.1806E-03    -23.4782E-03     46.5607E-03    -23.2039E-03     53.0005E-03
            1080     8.79376E-03     99.6862E-03    -9.66801E+06    -49.7993E+06     1.91688E+06    -11.5489E+06    -23.9746E-03     47.2437E-03    -23.2692E-03     59.9622E-03    -23.9710E-03     47.0235E-03    -23.1734E-03     59.7800E-03
            1081     9.67291E-03     99.7386E-03    -9.81147E+06    -47.6987E+06     3.85706E+06    -11.4739E+06    -24.7312E-03     48.0204E-03    -23.2891E-03     66.8915E-03    -24.7449E-03     47.8186E-03    -23.1865E-03     66.6971E-03
            1082     10.5518E-03     99.7979E-03    -10.0944E+06    -48.6455E+06     3.76775E+06    -12.1778E+06    -25.7729E-03     49.1307E-03    -23.3578E-03     73.6442E-03    -25.8036E-03     48.9419E-03    -23.2538E-03     73.4220E-03
            1083     11.4293E-03     99.8622E-03    -10.3656E+06    -46.7908E+06     2.30985E+06    -13.5125E+06    -27.1355E-03     50.6138E-03    -23.4782E-03     81.0386E-03    -27.1968E-03     50.4654E-03    -23.3838E-03     80.7730E-03
            1084     12.3065E-03     99.9354E-03    -9.66063E+06    -44.4419E+06     1.69431E+06    -14.6832E+06    -28.8279E-03     52.4969E-03    -23.6691E-03     89.7466E-03    -28.9374E-03     52.4095E-03    -23.5821E-03     89.4297E-03
            1085     13.1818E-03     100.016E-03    -8.91995E+06    -53.8807E+06    -7.12366E+06    -14.5612E+06    -30.6152E-03     54.5215E-03    -23.9063E-03     95.1905E-03    -30.7685E-03     54.4726E-03    -23.8509E-03     94.8307E-03
            1086     14.0562E-03     100.101E-03    -7.90406E+06    -33.1600E+06    -6.38141E+06    -13.0206E+06    -32.2884E-03     56.4920E-03    -24.2036E-03     104.903E-03    -32.6194E-03     56.6958E-03    -24.1759E-03     104.516E-03
            1087     14.9301E-03     100.201E-03    -6.09219E+06    -13.0907E+06    -9.18005E+06    -9.90980E+06    -34.8972E-03     59.4115E-03    -24.5143E-03     136.135E-03    -35.8018E-03     60.2747E-03    -24.5324E-03     135.770E-03
            1088     15.8019E-03     100.348E-03    -3.34594E+06     57.6396E+06    -24.4174E+06    -4.92912E+06    -36.2790E-03     60.9362E-03    -24.6573E-03     184.717E-03    -39.3203E-03     64.2410E-03    -24.8581E-03     185.137E-03
            1089     16.6807E-03     100.546E-03    -2.78821E+06     147.064E+06     37.7916E+06    -1.83854E+06    -35.8014E-03     60.9660E-03    -25.1646E-03     142.801E-03    -38.9936E-03     64.5612E-03    -25.1848E-03     144.091E-03
            1090     879.520E-06     100.447E-03     4.62538E+06    -15.2910E+06     4.18883E+06    -3.95080E+06    -22.9309E-03     45.8694E-03    -22.9386E-03     6.08381E-03    -22.8917E-03     45.7803E-03    -22.9022E-03     6.03175E-03
            1091     1.75925E-03     100.453E-03     3.58288E+06    -18.8539E+06     2.29059E+06    -6.82867E+06    -22.8605E-03     45.7647E-03    -22.9041E-03     11.2557E-03    -22.8188E-03     45.6620E-03    -22.8705E-03     11.1656E-03
            1092     2.63894E-03     100.464E-03     1.94509E+06    -24.0230E+06    -382.980E+03    -9.14520E+06    -22.7531E-03     45.6023E-03    -22.8492E-03     16.7861E-03    -22.7085E-03     45.4803E-03    -22.8191E-03     16.6650E-03
            1093     3.51887E-03     100.480E-03    -428.907E+03    -30.4142E+06    -3.45423E+06    -10.5542E+06    -22.6269E-03     45.4059E-03    -22.7790E-03     22.5087E-03    -22.5807E-03     45.2602E-03    -22.7515E-03     22.3683E-03
            1094     4.39893E-03     100.500E-03    -3.50726E+06    -36.6830E+06    -6.37274E+06    -10.9569E+06    -22.4952E-03     45.1937E-03    -22.6985E-03     28.4254E-03    -22.4517E-03     45.0259E-03    -22.6721E-03     28.2783E-03
            1095     5.27921E-03     100.525E-03    -7.11391E+06    -42.2083E+06    -8.12846E+06    -10.6683E+06    -22.4069E-03     45.0248E-03    -22.6178E-03     34.5516E-03    -22.3717E-03     44.8380E-03    -22.5870E-03     34.4063E-03
            1096     6.15960E-03     100.555E-03    -10.7885E+06    -45.8155E+06     -8.2556E+06    -10.0039E+06    -22.3954E-03     44.9411E-03    -22.5456E-03     40.9372E-03    -22.3746E-03     44.7431E-03    -22.5048E-03     40.7978E-03
            1097     7.04008E-03     100.591E-03    -13.9189E+06    -47.7559E+06    -6.46931E+06    -9.52010E+06    -22.5007E-03     44.9918E-03    -22.4911E-03     47.5545E-03    -22.4975E-03     44.7884E-03    -22.4340E-03     47.4173E-03
            1098     7.92058E-03     100.632E-03    -16.0343E+06    -47.6021E+06    -3.23448E+06    -9.27705E+06    -22.8186E-03     45.2806E-03    -22.4620E-03     54.4285E-03    -22.8347E-03     45.0801E-03    -22.3859E-03     54.2884E-03
            1099     8.80074E-03     100.679E-03    -16.9913E+06    -47.7566E+06     35.3582E+03    -9.72354E+06    -23.4086E-03     45.8774E-03    -22.4688E-03     61.5576E-03    -23.4404E-03     45.6792E-03    -22.3748E-03     61.4028E-03
            1100     9.68058E-03     100.732E-03    -16.8561E+06    -45.9758E+06     2.34137E+06    -10.7141E+06    -24.2811E-03     46.7966E-03    -22.5154E-03     68.8252E-03    -24.3287E-03     46.6143E-03    -22.4126E-03     68.6447E-03
            1101     10.5595E-03     100.792E-03    -15.9926E+06    -46.4535E+06     3.17640E+06    -11.4993E+06    -25.5096E-03     48.1272E-03    -22.6176E-03     76.0079E-03    -25.5706E-03     47.9573E-03    -22.5112E-03     75.7985E-03
            1102     11.4379E-03     100.859E-03    -14.8124E+06    -42.3327E+06     3.30048E+06    -13.1151E+06    -27.1373E-03     49.9195E-03    -22.7822E-03     83.7662E-03    -27.2283E-03     49.7981E-03    -22.6828E-03     83.5087E-03
            1103     12.3144E-03     100.932E-03    -13.4882E+06    -41.8643E+06     2.56240E+06    -15.2025E+06    -29.1412E-03     52.1698E-03    -23.0285E-03     92.6226E-03    -29.2764E-03     52.1011E-03    -22.9355E-03     92.2996E-03
            1104     13.1898E-03     101.017E-03    -12.2338E+06    -53.4688E+06    -6.85454E+06    -15.7299E+06    -31.2556E-03     54.5878E-03    -23.3322E-03     97.9945E-03    -31.4307E-03     54.5496E-03    -23.2712E-03     97.6175E-03
            1105     14.0631E-03     101.101E-03    -10.5116E+06    -33.1657E+06    -5.43876E+06    -15.1071E+06    -33.4923E-03     57.2110E-03    -23.7188E-03     107.074E-03    -33.8484E-03     57.4280E-03    -23.6826E-03     106.650E-03
            1106     14.9348E-03     101.205E-03    -7.86249E+06    -17.1979E+06    -7.99224E+06    -13.1500E+06    -36.6570E-03     60.8031E-03    -24.1461E-03     137.139E-03    -37.5827E-03     61.6631E-03    -24.1497E-03     136.707E-03
            1107     15.8062E-03     101.352E-03    -6.62296E+06     51.7290E+06    -23.7066E+06    -8.52490E+06    -40.2382E-03     64.7113E-03    -24.4731E-03     182.476E-03    -43.2752E-03     67.9773E-03    -24.6571E-03     182.639E-03
            1108     16.6712E-03     101.548E-03    -4.49721E+06     143.609E+06     37.7471E+06    -2.78312E+06    -37.3299E-03     62.4662E-03    -25.1363E-03     143.819E-03    -40.5629E-03     66.0837E-03    -25.1493E-03     144.988E-03
            1109     880.519E-06     101.439E-03     3.28465E+06    -7.64757E+06     2.87141E+06    -3.39297E+06    -21.9365E-03     43.8759E-03    -21.9395E-03     6.15540E-03    -21.9132E-03     43.8288E-03    -21.9188E-03     6.11088E-03
            1110     1.76089E-03     101.445E-03     1.53547E+06    -12.2961E+06     93.8643E+03    -5.63749E+06    -21.8627E-03     43.7682E-03    -21.9055E-03     11.3702E-03    -21.8375E-03     43.7045E-03    -21.8894E-03     11.2961E-03
            1111     2.64159E-03     101.456E-03    -1.36587E+06    -19.1561E+06    -3.75001E+06    -7.02019E+06    -21.7558E-03     43.6049E-03    -21.8492E-03     16.9718E-03    -21.7297E-03     43.5168E-03    -21.8382E-03     16.8791E-03
            1112     3.52230E-03     101.471E-03    -5.45299E+06    -27.1401E+06    -7.93019E+06    -7.32197E+06    -21.6336E-03     43.4131E-03    -21.7795E-03     22.7684E-03    -21.6106E-03     43.2973E-03    -21.7719E-03     22.6710E-03
            1113     4.40328E-03     101.491E-03    -10.3125E+06    -34.8399E+06    -11.3420E+06    -6.81577E+06    -21.5270E-03     43.2326E-03    -21.7056E-03     28.7727E-03    -21.5126E-03     43.0907E-03    -21.6968E-03     28.6807E-03
            1114     5.28434E-03     101.516E-03    -15.2593E+06    -41.0124E+06    -12.9584E+06    -5.97134E+06    -21.4712E-03     43.1081E-03    -21.6369E-03     35.0373E-03    -21.4709E-03     42.9455E-03    -21.6201E-03     34.9547E-03
            1115     6.16556E-03     101.546E-03    -19.3489E+06    -44.6140E+06    -12.0847E+06    -5.61401E+06    -21.5017E-03     43.0834E-03    -21.5817E-03     41.5868E-03    -21.5190E-03     42.9087E-03    -21.5494E-03     41.5065E-03
            1116     7.04679E-03     101.581E-03    -21.9556E+06    -46.1219E+06    -8.96224E+06    -5.86734E+06    -21.6910E-03     43.2393E-03    -21.5483E-03     48.4231E-03    -21.7258E-03     43.0584E-03    -21.4944E-03     48.3359E-03
            1117     7.92792E-03     101.622E-03    -22.8752E+06    -45.6466E+06    -4.64719E+06    -6.74705E+06    -22.1329E-03     43.6779E-03    -21.5450E-03     55.6241E-03    -22.1827E-03     43.4979E-03    -21.4689E-03     55.5199E-03
            1118     8.80865E-03     101.670E-03    -22.1168E+06    -44.6151E+06    -385.988E+03    -8.34836E+06    -22.8189E-03     44.3990E-03    -21.5800E-03     63.0679E-03    -22.8788E-03     44.2230E-03    -21.4852E-03     62.9346E-03
            1119     9.68890E-03     101.724E-03    -20.9854E+06    -43.5700E+06     2.09970E+06    -9.93734E+06    -23.8424E-03     45.5010E-03    -21.6585E-03     70.8043E-03    -23.9122E-03     45.3355E-03    -21.5544E-03     70.6377E-03
            1120     10.5684E-03     101.786E-03    -19.3532E+06    -43.7311E+06     3.19650E+06    -11.3163E+06    -25.3184E-03     47.1192E-03    -21.8007E-03     78.3890E-03    -25.3989E-03     46.9665E-03    -21.6933E-03     78.1857E-03
            1121     11.4465E-03     101.853E-03    -17.0724E+06    -37.6193E+06     4.40581E+06    -13.7067E+06    -27.2618E-03     49.2815E-03    -22.0197E-03     86.5589E-03    -27.3724E-03     49.1853E-03    -21.9184E-03     86.2961E-03
            1122     12.3232E-03     101.930E-03    -15.0316E+06    -38.9480E+06     3.83142E+06    -15.9067E+06    -29.6214E-03     51.9575E-03    -22.3361E-03     95.6041E-03    -29.7724E-03     51.9058E-03    -22.2386E-03     95.2719E-03
            1123     13.1978E-03     102.015E-03    -13.0762E+06    -51.7570E+06    -6.00427E+06    -17.1903E+06    -32.1937E-03     54.9159E-03    -22.7222E-03     101.064E-03    -32.3819E-03     54.8916E-03    -22.6582E-03     100.664E-03
            1124     14.0706E-03     102.105E-03    -10.6704E+06    -32.2587E+06    -4.17217E+06    -17.5648E+06    -35.0170E-03     58.2325E-03    -23.2155E-03     110.240E-03    -35.3890E-03     58.4643E-03    -23.1741E-03     109.770E-03
            1125     14.9409E-03     102.210E-03    -8.70897E+06    -20.2395E+06    -7.27687E+06    -15.6042E+06    -38.9078E-03     62.6832E-03    -23.7754E-03     140.090E-03    -39.8564E-03     63.5504E-03    -23.7698E-03     139.584E-03
            1126     15.8087E-03     102.359E-03    -7.59252E+06     44.9774E+06    -22.7899E+06    -9.98461E+06    -42.8096E-03     67.0552E-03    -24.2455E-03     187.637E-03    -45.9714E-03     70.4159E-03    -24.4137E-03     187.690E-03
            1127     16.6757E-03     102.563E-03    -5.10865E+06     138.420E+06     38.2247E+06    -4.20763E+06    -39.0239E-03     64.0340E-03    -25.0101E-03     146.086E-03    -42.3495E-03     67.7220E-03    -25.0123E-03     147.160E-03
            1128     881.347E-06     102.428E-03    -1.11526E+06    -1.94754E+06    -1.33372E+06    -2.12599E+06    -20.7858E-03     41.5760E-03    -20.7902E-03     6.19515E-03    -20.7866E-03     41.5698E-03    -20.7925E-03     6.16729E-03
            1129     1.76300E-03     102.435E-03    -4.10497E+06    -8.17547E+06    -5.04922E+06    -2.91487E+06    -20.7183E-03     41.4756E-03    -20.7573E-03     11.4378E-03    -20.7198E-03     41.4481E-03    -20.7648E-03     11.3994E-03
            1130     2.64450E-03     102.445E-03    -8.84602E+06    -16.8553E+06    -9.60824E+06    -2.77773E+06    -20.6328E-03     41.3418E-03    -20.7090E-03     17.0786E-03    -20.6389E-03     41.2844E-03    -20.7198E-03     17.0415E-03
            1131     3.52631E-03     102.460E-03    -14.5149E+06    -26.2514E+06    -13.7661E+06    -1.86175E+06    -20.5480E-03     41.2037E-03    -20.6557E-03     22.9234E-03    -20.5630E-03     41.1137E-03    -20.6654E-03     22.8976E-03
            1132     4.40810E-03     102.480E-03    -20.2164E+06    -34.5638E+06    -16.2921E+06    -839.862E+03    -20.4924E-03     41.0975E-03    -20.6051E-03     29.0101E-03    -20.5204E-03     40.9782E-03    -20.6071E-03     28.9967E-03
            1133     5.29009E-03     102.505E-03    -24.6757E+06    -40.3166E+06    -16.3697E+06    -579.199E+03    -20.4941E-03     41.0573E-03    -20.5632E-03     35.3867E-03    -20.5365E-03     40.9163E-03    -20.5508E-03     35.3754E-03
            1134     6.17207E-03     102.534E-03    -27.3763E+06    -43.0059E+06    -13.9722E+06    -1.29203E+06    -20.5978E-03     41.1334E-03    -20.5356E-03     42.0834E-03    -20.6543E-03     40.9805E-03    -20.5034E-03     42.0609E-03
            1135     7.05408E-03     102.570E-03    -28.0843E+06    -43.5846E+06    -9.75423E+06    -3.11713E+06    -20.9073E-03     41.4388E-03    -20.5316E-03     49.1914E-03    -20.9743E-03     41.2797E-03    -20.4764E-03     49.1422E-03
            1136     7.93576E-03     102.612E-03    -27.0204E+06    -42.4728E+06    -4.91509E+06    -5.45736E+06    -21.4163E-03     41.9740E-03    -20.5577E-03     56.6797E-03    -21.4899E-03     41.8151E-03    -20.4815E-03     56.5952E-03
            1137     8.81719E-03     102.660E-03    -25.0385E+06    -41.4081E+06    -676.268E+03    -7.85206E+06    -22.2211E-03     42.8434E-03    -20.6222E-03     64.5078E-03    -22.2984E-03     42.6867E-03    -20.5293E-03     64.3843E-03
            1138     9.69798E-03     102.715E-03    -22.3424E+06    -40.2160E+06     2.47669E+06    -9.99461E+06    -23.4748E-03     44.2155E-03    -20.7407E-03     72.6891E-03    -23.5553E-03     44.0667E-03    -20.6376E-03     72.5253E-03
            1139     10.5776E-03     102.778E-03    -19.2857E+06    -39.6682E+06      4.2115E+06    -12.1627E+06    -25.1883E-03     46.1207E-03    -20.9324E-03     80.7913E-03    -25.2746E-03     45.9856E-03    -20.8258E-03     80.5803E-03
            1140     11.4559E-03     102.848E-03    -16.4988E+06    -33.4488E+06     5.78669E+06    -14.4294E+06    -27.4191E-03     48.6303E-03    -21.2112E-03     89.6280E-03    -27.5348E-03     48.5520E-03    -21.1098E-03     89.3581E-03
            1141     12.3323E-03     102.927E-03    -14.5605E+06    -35.7429E+06     5.47299E+06    -16.4635E+06    -30.1768E-03     51.7791E-03    -21.6024E-03     99.0656E-03    -30.3346E-03     51.7427E-03    -21.5021E-03     98.7256E-03
            1142     13.2065E-03     103.016E-03    -12.8117E+06    -48.7196E+06    -4.84989E+06    -18.6314E+06    -33.2465E-03     55.3226E-03    -22.0761E-03     105.063E-03    -33.4460E-03     55.3180E-03    -22.0112E-03     104.638E-03
            1143     14.0777E-03     103.108E-03    -10.8553E+06    -30.3558E+06    -2.94115E+06    -20.0022E+06    -36.5047E-03     59.1822E-03    -22.6774E-03     114.406E-03    -36.8961E-03     59.4360E-03    -22.6324E-03     113.889E-03
            1144     14.9472E-03     103.217E-03    -8.20344E+06    -23.8404E+06    -6.58595E+06    -17.8834E+06    -40.6588E-03     64.0113E-03    -23.3525E-03     144.237E-03    -41.6344E-03     64.8925E-03    -23.3390E-03     143.670E-03
            1145     15.8141E-03     103.370E-03    -5.92643E+06     37.5277E+06    -19.6515E+06    -12.0470E+06    -43.4317E-03     67.3470E-03    -23.9153E-03     189.996E-03    -46.6084E-03     70.6929E-03    -24.0594E-03     190.039E-03
            1146     16.6845E-03     103.571E-03    -3.20018E+06     132.692E+06     41.4424E+06    -5.22637E+06    -41.3757E-03     66.1430E-03    -24.7673E-03     145.257E-03    -44.6816E-03     69.7886E-03    -24.7479E-03     146.242E-03
            1147     882.658E-06     103.416E-03    -10.5703E+06    -589.502E+03    -9.78046E+06     936.319E+03    -19.5103E-03     39.0248E-03    -19.5146E-03     6.17412E-03    -19.5482E-03     39.0514E-03    -19.5473E-03     6.18604E-03
            1148     1.76508E-03     103.422E-03    -15.0601E+06    -8.25653E+06    -13.5487E+06     2.15166E+06    -19.4734E-03     38.9704E-03    -19.4969E-03     11.4128E-03    -19.5172E-03     38.9705E-03    -19.5309E-03     11.4403E-03
            1149     2.64788E-03     103.432E-03    -20.5901E+06    -18.0188E+06    -16.8508E+06     3.84968E+06    -19.4386E-03     38.9153E-03    -19.4767E-03     17.0564E-03    -19.4911E-03     38.8795E-03    -19.5050E-03     17.1055E-03
            1150     3.53049E-03     103.447E-03    -26.1079E+06    -27.5851E+06    -18.9807E+06     5.21559E+06    -19.4205E-03     38.8790E-03    -19.4586E-03     22.9380E-03    -19.4837E-03     38.8066E-03    -19.4756E-03     23.0045E-03
            1151     4.41335E-03     103.467E-03    -30.2253E+06    -34.9081E+06    -19.2430E+06     5.40214E+06    -19.4402E-03     38.8849E-03    -19.4446E-03     29.0964E-03    -19.5133E-03     38.7824E-03    -19.4464E-03     29.1647E-03
            1152     5.29610E-03     103.491E-03    -32.3654E+06    -38.8860E+06    -17.5405E+06     3.97752E+06    -19.5228E-03     38.9600E-03    -19.4371E-03     35.5773E-03    -19.6037E-03     38.8386E-03    -19.4215E-03     35.6263E-03
            1153     6.17895E-03     103.521E-03    -32.2892E+06    -40.3595E+06    -14.2113E+06     1.39759E+06    -19.7348E-03     39.1774E-03    -19.4426E-03     42.4518E-03    -19.8188E-03     39.0446E-03    -19.4083E-03     42.4658E-03
            1154     7.06159E-03     103.557E-03    -30.7985E+06    -39.7931E+06    -9.72376E+06    -1.70176E+06    -20.1106E-03     39.5804E-03    -19.4698E-03     49.8294E-03    -20.1959E-03     39.4433E-03    -19.4161E-03     49.8006E-03
            1155     7.94400E-03     103.599E-03    -28.4788E+06    -38.3494E+06    -4.83665E+06    -5.22671E+06    -20.7006E-03     40.2278E-03    -19.5272E-03     57.5733E-03    -20.7865E-03     40.0904E-03    -19.4545E-03     57.4943E-03
            1156     8.82608E-03     103.648E-03    -25.5628E+06    -37.4554E+06    -505.051E+03    -8.31939E+06    -21.6796E-03     41.3079E-03    -19.6284E-03     65.8640E-03    -21.7641E-03     41.1702E-03    -19.5395E-03     65.7374E-03
            1157     9.70716E-03     103.705E-03    -21.9569E+06    -35.9430E+06     2.92036E+06    -11.2764E+06    -23.1061E-03     42.8963E-03    -19.7902E-03     74.5705E-03    -23.1900E-03     42.7661E-03    -19.6916E-03     74.3935E-03
            1158     10.5871E-03     103.769E-03    -18.0372E+06    -35.6028E+06     5.01270E+06    -13.9862E+06    -25.0197E-03     45.0514E-03    -20.0318E-03     83.3573E-03    -25.1055E-03     44.9323E-03    -19.9289E-03     83.1261E-03
            1159     11.4656E-03     103.842E-03    -14.9341E+06    -30.2946E+06     6.96500E+06    -15.1089E+06    -27.5143E-03     47.8833E-03    -20.3691E-03     92.9025E-03    -27.6278E-03     47.8162E-03    -20.2687E-03     92.6266E-03
            1160     12.3419E-03     103.924E-03    -12.6205E+06    -31.8270E+06     7.20240E+06    -16.7897E+06    -30.5914E-03     51.4176E-03    -20.8261E-03     103.060E-03    -30.7495E-03     51.3971E-03    -20.7257E-03     102.717E-03
            1161     13.2156E-03     104.016E-03    -11.2178E+06    -44.5735E+06    -3.02893E+06    -19.5620E+06    -34.1328E-03     55.5119E-03    -21.3791E-03     109.917E-03    -34.3396E-03     55.5297E-03    -21.3134E-03     109.475E-03
            1162     14.0868E-03     104.112E-03    -10.5032E+06    -27.9204E+06    -1.37095E+06    -20.5613E+06    -37.9083E-03     59.9883E-03    -22.0800E-03     119.555E-03    -38.3214E-03     60.2693E-03    -22.0312E-03     119.016E-03
            1163     14.9542E-03     104.225E-03    -9.56207E+06    -25.5578E+06    -6.18799E+06    -20.7271E+06    -42.4494E-03     65.3178E-03    -22.8684E-03     148.512E-03    -43.4587E-03     66.2208E-03    -22.8485E-03     147.878E-03
            1164     15.8213E-03     104.380E-03    -6.73276E+06     28.6042E+06    -17.3541E+06    -15.7318E+06    -45.9674E-03     69.5547E-03    -23.5872E-03     189.892E-03    -49.1082E-03     72.8237E-03    -23.7057E-03     189.760E-03
            1165     16.6850E-03     104.580E-03    -4.18292E+06     124.282E+06     43.1528E+06    -6.04684E+06    -44.1389E-03     68.7329E-03    -24.5939E-03     145.466E-03    -47.4333E-03     72.3287E-03    -24.5523E-03     146.293E-03
            1166     883.620E-06     104.400E-03    -26.0470E+06    -7.78773E+06    -22.8430E+06     6.85269E+06    -18.1867E-03     36.3787E-03    -18.1920E-03     6.06617E-03    -18.2726E-03     36.4106E-03    -18.2571E-03     6.15461E-03
            1167     1.76754E-03     104.407E-03    -30.4134E+06    -13.3726E+06    -23.6530E+06     9.82864E+06    -18.2056E-03     36.4128E-03    -18.2073E-03     11.2555E-03    -18.3040E-03     36.4243E-03    -18.2620E-03     11.3823E-03
            1168     2.65111E-03     104.417E-03    -34.3009E+06    -22.0728E+06    -23.5791E+06     11.2873E+06    -18.2394E-03     36.4690E-03    -18.2296E-03     16.8875E-03    -18.3448E-03     36.4425E-03    -18.2658E-03     17.0331E-03
            1169     3.53494E-03     104.432E-03    -36.2937E+06    -29.8828E+06    -22.3838E+06     11.4859E+06    -18.3041E-03     36.5568E-03    -18.2527E-03     22.8032E-03    -18.4098E-03     36.4924E-03    -18.2687E-03     22.9512E-03
            1170     4.41854E-03     104.451E-03    -36.6419E+06    -34.5991E+06    -20.1471E+06     9.87728E+06    -18.4106E-03     36.6867E-03    -18.2761E-03     29.0300E-03    -18.5146E-03     36.5962E-03    -18.2736E-03     29.1568E-03
            1171     5.30227E-03     104.476E-03    -35.5745E+06    -36.1870E+06    -17.2450E+06     6.65195E+06    -18.5879E-03     36.8902E-03    -18.3023E-03     35.6178E-03    -18.6887E-03     36.7863E-03    -18.2845E-03     35.7023E-03
            1172     6.18579E-03     104.506E-03    -33.6071E+06    -36.2766E+06    -13.7960E+06     2.45025E+06    -18.8821E-03     37.2223E-03    -18.3402E-03     42.6926E-03    -18.9787E-03     37.1107E-03    -18.3078E-03     42.7215E-03
            1173     7.06917E-03     104.542E-03    -30.7553E+06    -35.1208E+06    -9.45419E+06    -1.74388E+06    -19.3070E-03     37.7052E-03    -18.3982E-03     50.2512E-03    -19.3986E-03     37.5903E-03    -18.3499E-03     50.2236E-03
            1174     7.95239E-03     104.585E-03    -27.4607E+06    -33.3068E+06    -4.41830E+06    -5.59227E+06    -20.0269E-03     38.5161E-03    -18.4891E-03     58.3675E-03    -20.1147E-03     38.4009E-03    -18.4231E-03     58.2861E-03
            1175     8.83478E-03     104.635E-03    -24.0640E+06    -32.5840E+06     -8.8205E+03    -9.30017E+06    -21.1288E-03     39.7575E-03    -18.6287E-03     67.1382E-03    -21.2123E-03     39.6399E-03    -18.5466E-03     67.0018E-03
            1176     9.71652E-03     104.693E-03    -20.8434E+06    -30.8863E+06     3.26081E+06    -12.7268E+06    -22.6541E-03     41.4835E-03    -18.8294E-03     76.4636E-03    -22.7385E-03     41.3748E-03    -18.7380E-03     76.2714E-03
            1177     10.5970E-03     104.759E-03    -17.7383E+06    -31.8260E+06     5.21925E+06    -15.5741E+06    -24.7508E-03     43.8656E-03    -19.1148E-03     85.9992E-03    -24.8390E-03     43.7628E-03    -19.0169E-03     85.7516E-03
            1178     11.4755E-03     104.834E-03    -14.2949E+06    -28.4387E+06     7.13485E+06    -16.6764E+06    -27.4097E-03     46.9085E-03    -19.4989E-03     96.4510E-03    -27.5215E-03     46.8481E-03    -19.4012E-03     96.1589E-03
            1179     12.3521E-03     104.920E-03    -11.1921E+06    -27.6399E+06     8.41317E+06    -17.8387E+06    -30.8426E-03     50.8510E-03    -20.0084E-03     107.589E-03    -31.0022E-03     50.8485E-03    -19.9100E-03     107.234E-03
            1180     13.2260E-03     105.016E-03    -9.34079E+06    -40.5272E+06    -685.293E+03    -19.8152E+06    -34.8944E-03     55.5300E-03    -20.6356E-03     115.126E-03    -35.1069E-03     55.5678E-03    -20.5667E-03     114.678E-03
            1181     14.0957E-03     105.117E-03    -8.17638E+06    -25.7649E+06     919.641E+03    -21.0127E+06    -39.1581E-03     60.5849E-03    -21.4268E-03     124.836E-03    -39.5786E-03     60.8827E-03    -21.3730E-03     124.280E-03
            1182     14.9635E-03     105.233E-03    -6.76551E+06    -23.5680E+06    -3.34875E+06    -21.4738E+06    -44.8641E-03     67.2040E-03    -22.3399E-03     153.531E-03    -45.8889E-03     68.1315E-03    -22.3127E-03     152.840E-03
            1183     15.8252E-03     105.393E-03    -6.96231E+06     19.6797E+06    -14.3156E+06    -17.6637E+06    -49.6715E-03     72.9276E-03    -23.2562E-03     193.045E-03    -52.8271E-03     76.1703E-03    -23.3462E-03     192.704E-03
            1184     16.6872E-03     105.594E-03    -3.92014E+06     112.634E+06     44.8889E+06    -7.58124E+06    -47.0458E-03     71.4844E-03    -24.4387E-03     147.626E-03    -50.3669E-03     75.0614E-03    -24.3719E-03     148.262E-03
            1185     884.980E-06     105.383E-03    -46.1548E+06    -24.7424E+06    -43.2831E+06     11.0981E+06    -16.9395E-03     33.8954E-03    -16.9559E-03     5.87998E-03    -17.0717E-03     33.9013E-03    -17.0695E-03     6.02326E-03
            1186     1.76954E-03     105.389E-03    -45.0735E+06    -23.6670E+06    -35.6936E+06     16.2348E+06    -16.9970E-03     33.9915E-03    -16.9945E-03     10.9777E-03    -17.1363E-03     33.9902E-03    -17.0733E-03     11.1873E-03
            1187     2.65443E-03     105.399E-03    -44.1855E+06    -27.0923E+06    -29.3257E+06     17.2079E+06    -17.0969E-03     34.1469E-03    -17.0500E-03     16.5936E-03    -17.2361E-03     34.1179E-03    -17.0932E-03     16.8158E-03
            1188     3.53895E-03     105.414E-03    -42.4687E+06    -31.2577E+06    -24.9898E+06     14.9212E+06    -17.2406E-03     34.3434E-03    -17.1027E-03     22.5418E-03    -17.3714E-03     34.2848E-03    -17.1208E-03     22.7345E-03
            1189     4.42366E-03     105.434E-03    -39.0624E+06    -32.9726E+06    -21.2153E+06     11.1873E+06    -17.4254E-03     34.5781E-03    -17.1527E-03     28.8088E-03    -17.5422E-03     34.5007E-03    -17.1544E-03     28.9531E-03
            1190     5.30807E-03     105.458E-03    -35.1115E+06    -32.6851E+06    -17.3739E+06     6.90976E+06    -17.6808E-03     34.8877E-03    -17.2069E-03     35.4983E-03    -17.7840E-03     34.8006E-03    -17.1955E-03     35.5868E-03
            1191     6.19245E-03     105.489E-03    -31.6160E+06    -31.4556E+06    -13.2917E+06     2.51608E+06    -18.0214E-03     35.2945E-03    -17.2730E-03     42.6944E-03    -18.1154E-03     35.2030E-03    -17.2480E-03     42.7251E-03
            1192     7.07662E-03     105.525E-03    -28.7415E+06    -29.6343E+06    -8.87325E+06    -2.18358E+06    -18.5443E-03     35.9047E-03    -17.3604E-03     50.4602E-03    -18.6340E-03     35.8128E-03    -17.3201E-03     50.4283E-03
            1193     7.96031E-03     105.569E-03    -25.7860E+06    -28.2684E+06    -4.36229E+06    -6.38530E+06    -19.3397E-03     36.8216E-03    -17.4818E-03     58.9707E-03    -19.4255E-03     36.7281E-03    -17.4253E-03     58.8811E-03
            1194     8.84352E-03     105.620E-03    -22.4928E+06    -26.9461E+06     102.425E+03    -10.3197E+06    -20.4896E-03     38.1409E-03    -17.6513E-03     68.2152E-03    -20.5721E-03     38.0476E-03    -17.5791E-03     68.0685E-03
            1195     9.72575E-03     105.679E-03    -19.2545E+06    -26.0560E+06     3.74522E+06    -13.8361E+06    -22.1331E-03     40.0179E-03    -17.8849E-03     78.2095E-03    -22.2152E-03     39.9284E-03    -17.8004E-03     78.0067E-03
            1196     10.6065E-03     105.748E-03    -16.7534E+06    -27.6578E+06     5.79191E+06    -16.1308E+06    -24.2595E-03     42.4603E-03    -18.2007E-03     88.5191E-03    -24.3470E-03     42.3733E-03    -18.1074E-03     88.2691E-03
            1197     11.4859E-03     105.826E-03    -14.8203E+06    -25.9810E+06     6.93212E+06    -18.1568E+06    -27.1087E-03     45.7223E-03    -18.6136E-03     99.9793E-03    -27.2237E-03     45.6725E-03    -18.5198E-03     99.6734E-03
            1198     12.3629E-03     105.915E-03    -11.8418E+06    -23.8168E+06     8.89553E+06    -19.9385E+06    -30.9429E-03     50.1071E-03    -19.1642E-03     112.363E-03    -31.1108E-03     50.1228E-03    -19.0680E-03     111.985E-03
            1199     13.2359E-03     106.016E-03    -8.62328E+06    -37.3074E+06     1.46544E+06    -21.3180E+06    -35.4810E-03     55.3374E-03    -19.8564E-03     120.879E-03    -35.7004E-03     55.3899E-03    -19.7825E-03     120.412E-03
            1200     14.1063E-03     106.122E-03    -6.48502E+06    -23.8448E+06     3.03971E+06    -21.5831E+06    -40.5313E-03     61.2641E-03    -20.7329E-03     131.005E-03    -40.9593E-03     61.5762E-03    -20.6737E-03     130.428E-03
            1201     14.9712E-03     106.244E-03    -5.85912E+06    -20.8581E+06    -171.043E+03    -22.1782E+06    -47.1445E-03     68.9135E-03    -21.7690E-03     160.325E-03    -48.1961E-03     69.8714E-03    -21.7311E-03     159.579E-03
            1202     15.8337E-03     106.411E-03    -5.04987E+06     11.1817E+06    -9.72484E+06    -17.8156E+06    -52.4598E-03     75.3070E-03    -22.8471E-03     198.227E-03    -55.6209E-03     78.5186E-03    -22.9047E-03     197.749E-03
            1203     16.6922E-03     106.612E-03    -4.19627E+06     101.083E+06     47.1158E+06    -7.57583E+06    -50.7809E-03     74.9781E-03    -24.1972E-03     149.873E-03    -54.1214E-03     78.5263E-03    -24.1021E-03     150.308E-03
            1204     885.532E-06     106.362E-03    -78.2335E+06    -42.5246E+06    -77.9186E+06     7.28074E+06    -15.8760E-03     31.7771E-03    -15.9011E-03     5.68394E-03    -16.0926E-03     31.7909E-03    -16.1156E-03     5.77790E-03
            1205     1.77152E-03     106.369E-03    -67.3279E+06    -35.9586E+06    -62.3896E+06     12.3129E+06    -15.9215E-03     31.8557E-03    -15.9343E-03     10.6223E-03    -16.1155E-03     31.8640E-03    -16.0964E-03     10.7813E-03
            1206     2.65704E-03     106.379E-03    -54.8487E+06    -32.4835E+06    -44.9408E+06     14.4411E+06    -16.0399E-03     32.0413E-03    -16.0014E-03     16.1398E-03    -16.2019E-03     32.0235E-03    -16.0994E-03     16.3262E-03
            1207     3.54276E-03     106.394E-03    -44.5385E+06    -31.3991E+06    -32.1312E+06     12.8890E+06    -16.2354E-03     32.3053E-03    -16.0699E-03     22.0753E-03    -16.3659E-03     32.2593E-03    -16.1204E-03     22.2418E-03
            1208     4.42806E-03     106.414E-03    -37.7059E+06    -30.7422E+06    -24.5468E+06     9.40118E+06    -16.4914E-03     32.6273E-03    -16.1359E-03     28.3830E-03    -16.5998E-03     32.5637E-03    -16.1594E-03     28.5044E-03
            1209     5.31344E-03     106.439E-03    -33.2616E+06    -29.2390E+06    -19.1500E+06     5.75268E+06    -16.7977E-03     33.0066E-03    -16.2088E-03     35.1165E-03    -16.8940E-03     32.9364E-03    -16.2140E-03     35.1905E-03
            1210     6.19852E-03     106.470E-03    -29.7671E+06    -26.4622E+06    -13.9950E+06     1.55518E+06    -17.2033E-03     33.4996E-03    -16.2963E-03     42.3733E-03    -17.2940E-03     33.4312E-03    -16.2848E-03     42.3923E-03
            1211     7.08340E-03     106.507E-03    -26.1187E+06    -23.8629E+06    -8.71435E+06    -3.05487E+06    -17.7973E-03     34.2050E-03    -16.4077E-03     50.3631E-03    -17.8821E-03     34.1375E-03    -16.3788E-03     50.3211E-03
            1212     7.96777E-03     106.551E-03    -22.7464E+06    -22.8569E+06    -3.89897E+06    -7.32732E+06    -18.6307E-03     35.1836E-03    -16.5529E-03     59.1402E-03    -18.7090E-03     35.1112E-03    -16.5063E-03     59.0401E-03
            1213     8.85162E-03     106.603E-03    -20.2535E+06    -21.3769E+06     457.951E+03    -10.9037E+06    -19.8160E-03     36.5590E-03    -16.7430E-03     68.8530E-03    -19.8944E-03     36.4882E-03    -16.6803E-03     68.7015E-03
            1214     9.73441E-03     106.665E-03    -18.5152E+06    -21.5166E+06     3.97715E+06    -13.7322E+06    -21.4032E-03     38.3968E-03    -16.9936E-03     79.4636E-03    -21.4860E-03     38.3260E-03    -16.9157E-03     79.2663E-03
            1215     10.6161E-03     106.735E-03    -16.6392E+06    -23.1277E+06     6.20894E+06    -16.4493E+06    -23.5852E-03     40.9052E-03    -17.3200E-03     90.6503E-03    -23.6757E-03     40.8366E-03    -17.2313E-03     90.4017E-03
            1216     11.4960E-03     106.816E-03    -14.0600E+06    -21.9333E+06     8.03061E+06    -19.2050E+06    -26.6803E-03     44.4303E-03    -17.7500E-03     103.289E-03    -26.7946E-03     44.3936E-03    -17.6576E-03     102.977E-03
            1217     12.3729E-03     106.909E-03    -11.3482E+06    -20.0839E+06     9.99953E+06    -21.5076E+06    -30.7181E-03     49.0411E-03    -18.3230E-03     117.031E-03    -30.8857E-03     49.0683E-03    -18.2274E-03     116.640E-03
            1218     13.2476E-03     107.015E-03    -9.79818E+06    -34.7958E+06     2.98119E+06    -22.6633E+06    -35.8037E-03     54.8611E-03    -19.0575E-03     127.033E-03    -36.0328E-03     54.9238E-03    -18.9779E-03     126.552E-03
            1219     14.1163E-03     107.127E-03    -8.58048E+06    -21.6424E+06     4.51053E+06    -23.0130E+06    -41.7818E-03     61.7876E-03    -20.0058E-03     138.070E-03    -42.2318E-03     62.1179E-03    -19.9394E-03     137.464E-03
            1220     14.9817E-03     107.256E-03    -6.57340E+06    -19.2944E+06     2.39369E+06    -22.8338E+06    -48.8270E-03     69.9682E-03    -21.1411E-03     167.713E-03    -49.8950E-03     70.9380E-03    -21.0917E-03     166.928E-03
            1221     15.8411E-03     107.429E-03    -6.62992E+06     1.92838E+06    -12.2696E+06    -18.2914E+06    -55.0894E-03     77.4155E-03    -22.3261E-03     204.233E-03    -58.2058E-03     80.5516E-03    -22.3806E-03     203.605E-03
            1222     16.6996E-03     107.633E-03    -3.44681E+06     89.8429E+06      43.919E+06    -8.26660E+06    -55.7810E-03     79.6473E-03    -23.8663E-03     153.522E-03    -59.1020E-03     83.1485E-03    -23.7720E-03     153.692E-03
            1223     886.422E-06     107.340E-03    -97.1604E+06    -49.2840E+06    -97.7073E+06    -292.511E+03    -15.1394E-03     30.3018E-03    -15.1624E-03     5.49710E-03    -15.4121E-03     30.3380E-03    -15.4386E-03     5.49322E-03
            1224     1.77247E-03     107.347E-03    -88.2683E+06    -42.5818E+06    -86.9833E+06     351.318E+03    -15.1394E-03     30.3039E-03    -15.1645E-03     10.2465E-03    -15.3929E-03     30.3451E-03    -15.4097E-03     10.2509E-03
            1225     2.65907E-03     107.358E-03    -75.0417E+06    -36.2657E+06    -72.4008E+06     1.65861E+06    -15.1783E-03     30.3668E-03    -15.1885E-03     15.5204E-03    -15.3960E-03     30.3993E-03    -15.3891E-03     15.5417E-03
            1226     3.54535E-03     107.373E-03    -60.7184E+06    -31.6813E+06    -57.7174E+06     2.13299E+06    -15.3168E-03     30.5414E-03    -15.2246E-03     21.2494E-03    -15.4908E-03     30.5547E-03    -15.3792E-03     21.2769E-03
            1227     4.43181E-03     107.393E-03    -47.5917E+06    -29.1720E+06    -42.7767E+06     1.48817E+06    -15.5716E-03     30.8598E-03    -15.2882E-03     27.4687E-03    -15.7053E-03     30.8450E-03    -15.3908E-03     27.4879E-03
            1228     5.31777E-03     107.418E-03    -36.4412E+06    -26.6705E+06    -28.7251E+06    -57.3717E+03    -15.9372E-03     31.3141E-03    -15.3769E-03     34.2069E-03    -16.0392E-03     31.2753E-03    -15.4290E-03     34.2059E-03
            1229     6.20367E-03     107.449E-03    -27.9975E+06    -22.5938E+06    -17.8085E+06    -1.94895E+06    -16.4341E-03     31.9149E-03    -15.4808E-03     41.5722E-03    -16.5159E-03     31.8687E-03    -15.4965E-03     41.5463E-03
            1230     7.08905E-03     107.487E-03    -23.4255E+06    -19.0494E+06    -9.99588E+06    -4.46223E+06    -17.0713E-03     32.6786E-03    -15.6073E-03     49.6768E-03    -17.1473E-03     32.6328E-03    -15.5957E-03     49.6174E-03
            1231     7.97421E-03     107.532E-03    -21.2519E+06    -17.4641E+06    -4.31933E+06    -7.67264E+06    -17.9359E-03     33.7020E-03    -15.7661E-03     58.6780E-03    -18.0132E-03     33.6543E-03    -15.7315E-03     58.5748E-03
            1232     8.85848E-03     107.585E-03    -19.4993E+06    -16.4739E+06     476.370E+03    -10.8910E+06    -19.0698E-03     35.0354E-03    -15.9657E-03     68.7669E-03    -19.1500E-03     34.9865E-03    -15.9111E-03     68.6180E-03
            1233     9.74214E-03     107.648E-03    -17.1683E+06    -17.1888E+06     4.76728E+06    -13.4793E+06    -20.6004E-03     36.8188E-03    -16.2184E-03     79.8144E-03    -20.6811E-03     36.7636E-03    -16.1447E-03     79.6244E-03
            1234     10.6247E-03     107.720E-03    -14.6906E+06    -17.3048E+06     8.25399E+06    -16.7157E+06    -22.8306E-03     39.3739E-03    -16.5432E-03     91.8452E-03    -22.9182E-03     39.3239E-03    -16.4556E-03     91.5991E-03
            1235     11.5051E-03     107.805E-03    -13.0950E+06    -17.7919E+06     10.0719E+06    -19.6452E+06    -25.9375E-03     42.9084E-03    -16.9709E-03     105.675E-03    -26.0488E-03     42.8809E-03    -16.8757E-03     105.365E-03
            1236     12.3836E-03     107.901E-03    -12.3217E+06    -15.9266E+06     11.6055E+06    -21.1565E+06    -30.1818E-03     47.7221E-03    -17.5404E-03     120.926E-03    -30.3532E-03     47.7599E-03    -17.4414E-03     120.550E-03
            1237     13.2576E-03     108.013E-03    -10.6592E+06    -30.6668E+06     6.10837E+06    -23.8945E+06    -35.8154E-03     54.1102E-03    -18.2948E-03     132.921E-03    -36.0515E-03     54.1823E-03    -18.2043E-03     132.432E-03
            1238     14.1277E-03     108.133E-03    -6.62920E+06    -19.4223E+06     7.90538E+06    -25.8459E+06    -42.2321E-03     61.5073E-03    -19.2752E-03     145.324E-03    -42.6728E-03     61.8332E-03    -19.1979E-03     144.684E-03
            1239     14.9911E-03     108.269E-03    -3.34353E+06    -21.3030E+06     5.43151E+06    -23.5607E+06    -50.0536E-03     70.5199E-03    -20.4663E-03     175.407E-03    -51.0908E-03     71.4547E-03    -20.4034E-03     174.589E-03
            1240     15.8527E-03     108.447E-03    -2.84354E+06    -6.08667E+06    -16.2670E+06    -16.1935E+06    -57.9429E-03     79.6654E-03    -21.7225E-03     212.351E-03    -60.9388E-03     82.6778E-03    -21.7909E-03     211.582E-03
            1241     16.7045E-03     108.661E-03    -5.23889E+06     80.5588E+06     37.3965E+06    -8.28246E+06    -61.8313E-03     85.2999E-03    -23.4687E-03     162.755E-03    -65.1576E-03     88.7870E-03    -23.3909E-03     162.624E-03
            1242     886.483E-06     108.317E-03    -83.8586E+06    -45.1297E+06    -83.4386E+06    -3.77363E+06    -14.7837E-03     29.5802E-03    -14.7964E-03     5.26427E-03    -15.0166E-03     29.5971E-03    -15.0266E-03     5.21533E-03
            1243     1.77341E-03     108.324E-03    -82.0356E+06    -39.8659E+06    -80.3550E+06    -6.43565E+06    -14.7824E-03     29.5699E-03    -14.7876E-03     9.79131E-03    -15.0183E-03     29.6061E-03    -15.0126E-03     9.70784E-03
            1244     2.65990E-03     108.334E-03    -77.9128E+06    -34.7460E+06    -75.0955E+06    -8.54504E+06    -14.7791E-03     29.5668E-03    -14.7877E-03     14.7535E-03    -15.0095E-03     29.6150E-03    -14.9998E-03     14.6427E-03
            1245     3.54685E-03     108.350E-03    -70.7336E+06    -30.0405E+06    -67.5344E+06    -9.71046E+06    -14.8093E-03     29.6014E-03    -14.7921E-03     20.0908E-03    -15.0216E-03     29.6519E-03    -14.9837E-03     19.9648E-03
            1246     4.43355E-03     108.370E-03    -61.1511E+06    -27.2910E+06    -57.0171E+06    -10.4728E+06    -14.9244E-03     29.7393E-03    -14.8149E-03     25.9239E-03    -15.1081E-03     29.7744E-03    -14.9717E-03     25.7881E-03
            1247     5.32051E-03     108.396E-03    -50.3270E+06    -24.3380E+06    -45.5432E+06    -11.0284E+06    -15.1993E-03     30.0565E-03    -14.8572E-03     32.4395E-03    -15.3499E-03     30.0741E-03    -14.9767E-03     32.2965E-03
            1248     6.20692E-03     108.427E-03    -39.2161E+06    -20.8508E+06    -33.6116E+06    -11.0902E+06    -15.6708E-03     30.6016E-03    -14.9308E-03     39.7671E-03    -15.7884E-03     30.6034E-03    -15.0117E-03     39.6230E-03
            1249     7.09317E-03     108.466E-03    -28.5764E+06    -17.1050E+06    -19.7146E+06    -10.1145E+06    -16.3542E-03     31.4081E-03    -15.0539E-03     47.9427E-03    -16.4446E-03     31.3935E-03    -15.0862E-03     47.8105E-03
            1250     7.97862E-03     108.511E-03    -20.6898E+06    -14.0215E+06    -7.26029E+06    -10.0268E+06    -17.2346E-03     32.4530E-03    -15.2185E-03     57.1171E-03    -17.3092E-03     32.4255E-03    -15.2044E-03     56.9845E-03
            1251     8.86374E-03     108.566E-03    -16.1505E+06    -12.7124E+06     1.54484E+06    -11.2866E+06    -18.3422E-03     33.7602E-03    -15.4180E-03     67.3445E-03    -18.4113E-03     33.7223E-03    -15.3684E-03     67.1925E-03
            1252     9.74807E-03     108.629E-03    -14.7679E+06    -13.0133E+06     6.99890E+06    -12.8306E+06    -19.8654E-03     35.5277E-03    -15.6623E-03     78.8196E-03    -19.9405E-03     35.4839E-03    -15.5870E-03     78.6417E-03
            1253     10.6308E-03     108.704E-03    -14.3131E+06    -10.6745E+06     10.7509E+06    -16.1443E+06    -21.9503E-03     37.9184E-03    -15.9680E-03     91.6524E-03    -22.0437E-03     37.8919E-03    -15.8781E-03     91.4201E-03
            1254     11.5127E-03     108.791E-03    -12.3517E+06    -13.8212E+06     13.3471E+06    -19.3406E+06    -24.9727E-03     41.3466E-03    -16.3739E-03     106.560E-03    -25.0813E-03     41.3236E-03    -16.2692E-03     106.264E-03
            1255     12.3914E-03     108.892E-03    -10.7821E+06    -13.0822E+06     15.5861E+06    -19.8036E+06    -29.4318E-03     46.3517E-03    -16.9199E-03     123.496E-03    -29.5915E-03     46.3817E-03    -16.8073E-03     123.150E-03
            1256     13.2673E-03     109.009E-03    -9.44061E+06    -20.6462E+06     13.4190E+06    -24.8645E+06    -35.1697E-03     52.8282E-03    -17.6585E-03     137.666E-03    -35.4063E-03     52.9195E-03    -17.5478E-03     137.180E-03
            1257     14.1368E-03     109.137E-03    -6.70342E+06    -18.3293E+06     11.6543E+06    -29.3693E+06    -41.9550E-03     60.5762E-03    -18.6213E-03     151.350E-03    -42.3780E-03     60.8773E-03    -18.5267E-03     150.679E-03
            1258     15.0040E-03     109.279E-03    -3.83776E+06    -26.3476E+06     8.06891E+06    -25.7018E+06    -50.6676E-03     70.4969E-03    -19.8293E-03     182.040E-03    -51.6530E-03     71.3526E-03    -19.7452E-03     181.183E-03
            1259     15.8606E-03     109.469E-03    -1.59343E+06    -14.8463E+06    -14.4035E+06    -18.2738E+06    -59.8629E-03     81.0006E-03    -21.1376E-03     220.486E-03    -62.6725E-03     83.7947E-03    -21.1858E-03     219.549E-03
            1260     16.7171E-03     109.687E-03     330.754E+03     69.1254E+06     38.0693E+06    -5.54551E+06    -68.4284E-03     91.4867E-03    -23.0583E-03     177.774E-03    -71.7571E-03     94.9553E-03    -22.9687E-03     177.330E-03
            1261     886.936E-06     109.294E-03    -59.5517E+06    -37.1189E+06    -59.0623E+06    -4.15987E+06    -14.7884E-03     29.5693E-03    -14.7810E-03     4.89952E-03    -14.9467E-03     29.5558E-03    -14.9361E-03     4.84540E-03
            1262     1.77341E-03     109.300E-03    -58.2134E+06    -32.4229E+06    -55.6055E+06    -7.43967E+06    -14.8421E-03     29.6425E-03    -14.8004E-03     9.09276E-03    -15.0056E-03     29.6456E-03    -14.9470E-03     8.99594E-03
            1263     2.66031E-03     109.311E-03    -56.3173E+06    -28.2699E+06    -50.4156E+06    -10.7404E+06    -14.9037E-03     29.7400E-03    -14.8363E-03     13.6733E-03    -15.0714E-03     29.7537E-03    -14.9657E-03     13.5335E-03
            1264     3.54678E-03     109.326E-03    -54.5430E+06    -24.9554E+06    -46.0672E+06    -13.5036E+06    -14.9391E-03     29.8044E-03    -14.8653E-03     18.5465E-03    -15.1092E-03     29.8259E-03    -14.9804E-03     18.3707E-03
            1265     4.43366E-03     109.347E-03    -52.5606E+06    -22.5634E+06    -43.1960E+06    -15.8262E+06    -14.9753E-03     29.8549E-03    -14.8796E-03     23.8332E-03    -15.1433E-03     29.8815E-03    -14.9867E-03     23.6271E-03
            1266     5.32031E-03     109.372E-03    -49.4518E+06    -20.3640E+06    -39.8047E+06    -18.0087E+06    -15.0816E-03     29.9739E-03    -14.8923E-03     29.7433E-03    -15.2423E-03     30.0022E-03    -14.9901E-03     29.5089E-03
            1267     6.20731E-03     109.404E-03    -44.3887E+06    -18.1190E+06    -33.6182E+06    -19.4566E+06    -15.3434E-03     30.2690E-03    -14.9256E-03     36.5102E-03    -15.4913E-03     30.2924E-03    -15.0030E-03     36.2569E-03
            1268     7.09382E-03     109.443E-03    -37.1231E+06    -16.8786E+06    -25.2855E+06    -19.2734E+06    -15.8223E-03     30.8133E-03    -14.9910E-03     44.3505E-03    -15.9481E-03     30.8207E-03    -15.0391E-03     44.0992E-03
            1269     7.98012E-03     109.490E-03    -27.9346E+06    -12.7593E+06    -15.3361E+06    -17.5311E+06    -16.5454E-03     31.6369E-03    -15.0915E-03     53.4079E-03    -16.6463E-03     31.6378E-03    -15.1092E-03     53.1784E-03
            1270     8.86562E-03     109.545E-03    -19.4842E+06    -11.6185E+06    -4.07360E+06    -15.5377E+06    -17.6182E-03     32.8678E-03    -15.2496E-03     63.8218E-03    -17.6964E-03     32.8474E-03    -15.2249E-03     63.6162E-03
            1271     9.75019E-03     109.610E-03    -12.5880E+06    -11.5512E+06     6.98304E+06    -14.0400E+06    -19.0662E-03     34.5341E-03    -15.4679E-03     75.6862E-03    -19.1297E-03     34.4917E-03    -15.3979E-03     75.4959E-03
            1272     10.6343E-03     109.686E-03    -9.18047E+06    -5.45195E+06     15.6184E+06    -14.3053E+06    -21.0414E-03     36.7828E-03    -15.7414E-03     89.0714E-03    -21.1179E-03     36.7621E-03    -15.6421E-03     88.8689E-03
            1273     11.5164E-03     109.776E-03    -9.96886E+06    -8.32129E+06     19.4499E+06    -16.7626E+06    -23.9964E-03     40.1055E-03    -16.1091E-03     104.910E-03    -24.0987E-03     40.0866E-03    -15.9854E-03     104.658E-03
            1274     12.3968E-03     109.881E-03    -9.19223E+06    -10.0821E+06     21.4228E+06    -20.0716E+06    -28.3373E-03     44.9436E-03    -16.6063E-03     123.637E-03    -28.4823E-03     44.9583E-03    -16.4713E-03     123.304E-03
            1275     13.2725E-03     110.005E-03    -8.68820E+06    -11.3156E+06     21.7096E+06    -22.5783E+06    -34.0067E-03     51.2970E-03    -17.2904E-03     139.468E-03    -34.2339E-03     51.3907E-03    -17.1528E-03     139.035E-03
            1276     14.1458E-03     110.138E-03    -12.2972E+06    -11.9356E+06     17.6511E+06    -27.2699E+06    -41.4525E-03     59.6654E-03    -18.2129E-03     154.784E-03    -41.8780E-03     59.9545E-03    -18.0895E-03     154.160E-03
            1277     15.0088E-03     110.291E-03    -13.0730E+06    -30.1162E+06     10.2587E+06    -30.4315E+06    -50.7500E-03     70.1648E-03    -19.4148E-03     185.180E-03    -51.6806E-03     70.9131E-03    -19.3009E-03     184.270E-03
            1278     15.8723E-03     110.485E-03    -10.0850E+06    -26.6304E+06    -9.01684E+06    -22.6551E+06    -62.0228E-03     82.8251E-03    -20.8023E-03     224.314E-03    -64.5921E-03     85.2920E-03    -20.7942E-03     223.157E-03
            1279     16.7219E-03     110.720E-03    -13.8270E+06     54.3374E+06     37.1127E+06    -9.34638E+06    -73.1239E-03     95.9706E-03    -22.8467E-03     191.941E-03    -76.4874E-03     99.3745E-03    -22.7198E-03     191.130E-03
            1280     886.306E-06     110.270E-03    -36.8823E+06    -28.5846E+06    -35.6639E+06    -4.20400E+06    -15.2791E-03     30.5307E-03    -15.2517E-03     4.35656E-03    -15.3704E-03     30.4931E-03    -15.3350E-03     4.30159E-03
            1281     1.77299E-03     110.277E-03    -35.7321E+06    -24.4860E+06    -32.4208E+06    -7.34512E+06    -15.3778E-03     30.6747E-03    -15.2969E-03     8.06947E-03    -15.4742E-03     30.6513E-03    -15.3717E-03     7.97333E-03
            1282     2.65906E-03     110.288E-03    -34.5576E+06    -21.0863E+06    -28.3735E+06    -10.0110E+06    -15.5144E-03     30.8732E-03    -15.3588E-03     12.1044E-03    -15.6158E-03     30.8593E-03    -15.4200E-03     11.9731E-03
            1283     3.54544E-03     110.304E-03    -33.1095E+06    -18.2429E+06    -23.9417E+06    -12.5291E+06    -15.6673E-03     31.0979E-03    -15.4306E-03     16.3612E-03    -15.7723E-03     31.0899E-03    -15.4758E-03     16.1967E-03
            1284     4.43137E-03     110.323E-03    -31.2938E+06    -16.0905E+06    -19.3402E+06    -15.2979E+06    -15.8074E-03     31.3121E-03    -15.5046E-03     20.9620E-03    -15.9135E-03     31.3059E-03    -15.5326E-03     20.7610E-03
            1285     5.31753E-03     110.350E-03    -29.8432E+06    -14.3960E+06    -14.8396E+06    -17.8421E+06    -15.9162E-03     31.4899E-03    -15.5738E-03     26.0680E-03    -16.0244E-03     31.4840E-03    -15.5838E-03     25.8335E-03
            1286     6.20338E-03     110.381E-03    -29.6274E+06    -13.5171E+06    -11.9391E+06    -19.8069E+06    -16.0050E-03     31.6332E-03    -15.6283E-03     31.9207E-03    -16.1180E-03     31.6276E-03    -15.6254E-03     31.6603E-03
            1287     7.08959E-03     110.421E-03    -29.8077E+06    -13.5311E+06    -10.9530E+06    -21.5089E+06    -16.1451E-03     31.8122E-03    -15.6671E-03     38.7813E-03    -16.2609E-03     31.8058E-03    -15.6590E-03     38.4987E-03
            1288     7.97570E-03     110.467E-03    -28.4809E+06    -11.5843E+06    -9.34326E+06    -22.4627E+06    -16.4655E-03     32.1712E-03    -15.7057E-03     46.9834E-03    -16.5804E-03     32.1708E-03    -15.6943E-03     46.6882E-03
            1289     8.86173E-03     110.523E-03    -24.1584E+06    -11.8998E+06    -4.54590E+06    -21.1234E+06    -17.0908E-03     32.8672E-03    -15.7764E-03     56.8904E-03    -17.1914E-03     32.8529E-03    -15.7468E-03     56.6120E-03
            1290     9.74727E-03     110.589E-03    -17.7613E+06    -11.0403E+06     3.29920E+06    -19.8053E+06    -18.1982E-03     34.0934E-03    -15.8952E-03     68.7858E-03    -18.2812E-03     34.0646E-03    -15.8369E-03     68.5228E-03
            1291     10.6313E-03     110.668E-03    -10.4859E+06    -6.08734E+06     14.6685E+06    -16.5467E+06    -20.0508E-03     36.1421E-03    -16.0913E-03     82.7442E-03    -20.1261E-03     36.1161E-03    -15.9940E-03     82.5182E-03
            1292     11.5144E-03     110.759E-03    -6.26112E+06    -4.62951E+06     24.7574E+06    -13.5074E+06    -22.9462E-03     39.3415E-03    -16.3953E-03     99.4658E-03    -23.0309E-03     39.3159E-03    -16.2557E-03     99.2657E-03
            1293     12.3947E-03     110.868E-03    -8.42725E+06    -3.63340E+06     28.6219E+06    -16.0592E+06    -27.0789E-03     43.9013E-03    -16.8224E-03     119.274E-03    -27.2160E-03     43.9128E-03    -16.6618E-03     119.010E-03
            1294     13.2734E-03     110.996E-03    -11.3242E+06    -7.16046E+06     28.3618E+06    -18.9817E+06    -32.7117E-03     50.1433E-03    -17.4315E-03     136.810E-03    -32.9277E-03     50.2117E-03    -17.2629E-03     136.450E-03
            1295     14.1444E-03     111.138E-03    -11.8925E+06    -3.03540E+06     26.9015E+06    -21.1888E+06    -40.3371E-03     58.6177E-03    -18.2806E-03     154.482E-03    -40.7190E-03     58.8692E-03    -18.1244E-03     153.973E-03
            1296     15.0129E-03     111.300E-03    -15.0481E+06    -22.3094E+06     18.8753E+06    -27.7701E+06    -50.8988E-03     70.3490E-03    -19.4502E-03     185.181E-03    -51.7265E-03     70.9904E-03    -19.3016E-03     184.322E-03
            1297     15.8687E-03     111.501E-03    -14.9167E+06    -41.7716E+06    -3.96437E+06    -27.4041E+06    -64.1671E-03     85.0586E-03    -20.8915E-03     228.300E-03    -66.4152E-03     87.1187E-03    -20.8291E-03     226.959E-03
            1298     16.7169E-03     111.756E-03    -2.17293E+06     35.3618E+06     38.7437E+06    -11.7888E+06    -73.4526E-03     96.3478E-03    -22.8952E-03     208.615E-03    -76.6728E-03     99.5765E-03    -22.7496E-03     207.613E-03
            1299     885.703E-06     111.249E-03    -16.0119E+06    -20.3786E+06    -15.1148E+06    -3.70997E+06    -16.4615E-03     32.8834E-03    -16.4220E-03     3.61135E-03    -16.4902E-03     32.8267E-03    -16.4448E-03     3.56237E-03
            1300     1.77086E-03     111.255E-03    -15.7046E+06    -17.1760E+06    -12.9695E+06    -6.55143E+06    -16.5977E-03     33.0787E-03    -16.4811E-03     6.67490E-03    -16.6328E-03     33.0345E-03    -16.4983E-03     6.58827E-03
            1301     2.65638E-03     111.267E-03    -14.6635E+06     -14.455E+06    -9.29216E+06    -9.14862E+06    -16.8232E-03     33.3944E-03    -16.5713E-03     9.96481E-03    -16.8626E-03     33.3572E-03    -16.5755E-03     9.84351E-03
            1302     3.54127E-03     111.282E-03    -13.2052E+06    -12.1245E+06    -4.26065E+06    -11.4047E+06    -17.1069E-03     33.7992E-03    -16.6923E-03     13.4150E-03    -17.1501E-03     33.7645E-03    -16.6768E-03     13.2633E-03
            1303     4.42620E-03     111.303E-03    -12.4537E+06    -10.0557E+06     571.529E+03    -13.2282E+06    -17.3937E-03     34.2228E-03    -16.8291E-03     17.1314E-03    -17.4436E-03     34.1908E-03    -16.7936E-03     16.9549E-03
            1304     5.31061E-03     111.329E-03    -12.6526E+06    -9.13733E+06     3.46280E+06    -14.7209E+06    -17.6195E-03     34.5811E-03    -16.9616E-03     21.2804E-03    -17.6765E-03     34.5504E-03    -16.9127E-03     21.0832E-03
            1305     6.19519E-03     111.361E-03    -12.7927E+06    -8.39593E+06     5.88872E+06    -16.1752E+06    -17.7474E-03     34.8280E-03    -17.0806E-03     26.0360E-03    -17.8104E-03     34.7983E-03    -17.0204E-03     25.8189E-03
            1306     7.07956E-03     111.399E-03    -12.7204E+06    -8.46159E+06     8.96154E+06    -17.9803E+06    -17.7940E-03     34.9772E-03    -17.1832E-03     31.6111E-03    -17.8618E-03     34.9434E-03    -17.1077E-03     31.3697E-03
            1307     7.96412E-03     111.446E-03    -13.8203E+06    -8.20906E+06     11.0016E+06    -19.2048E+06    -17.7945E-03     35.0530E-03    -17.2585E-03     38.3311E-03    -17.8719E-03     35.0198E-03    -17.1715E-03     38.0735E-03
            1308     8.84882E-03     111.502E-03    -15.6286E+06    -9.83530E+06     10.5258E+06    -20.4916E+06    -17.8523E-03     35.1569E-03    -17.3045E-03     46.5785E-03    -17.9365E-03     35.1197E-03    -17.2150E-03     46.3042E-03
            1309     9.73381E-03     111.569E-03    -16.4614E+06    -8.86795E+06     11.2093E+06    -20.9739E+06    -18.2057E-03     35.5504E-03    -17.3447E-03     57.0697E-03    -18.2972E-03     35.5191E-03    -17.2519E-03     56.7893E-03
            1310     10.6190E-03     111.647E-03    -14.7964E+06    -8.35785E+06     15.4507E+06    -20.3618E+06    -19.2665E-03     36.6907E-03    -17.4242E-03     70.4967E-03    -19.3584E-03     36.6554E-03    -17.3134E-03     70.2233E-03
            1311     11.5022E-03     111.741E-03    -8.47559E+06    -7.43814E+06     25.2501E+06    -16.5801E+06    -21.6202E-03     39.2205E-03    -17.6003E-03     87.8450E-03    -21.7024E-03     39.1731E-03    -17.4510E-03     87.6142E-03
            1312     12.3838E-03     111.853E-03    -2.88073E+06    -1.72276E+06     36.9512E+06    -10.6088E+06    -25.6072E-03     43.5276E-03    -17.9204E-03     108.746E-03    -25.7069E-03     43.5041E-03    -17.7290E-03     108.573E-03
            1313     13.2607E-03     111.986E-03    -4.38732E+06    -442.050E+03     39.9860E+06    -11.2055E+06    -31.1030E-03     49.5185E-03    -18.4155E-03     128.320E-03    -31.2653E-03     49.5481E-03    -18.2086E-03     128.093E-03
            1314     14.1361E-03     112.135E-03    -8.77794E+06     2.50853E+06     37.4994E+06    -15.3156E+06    -38.4917E-03     57.6364E-03    -19.1446E-03     147.938E-03    -38.7937E-03     57.8080E-03    -18.9480E-03     147.559E-03
            1315     15.0020E-03     112.305E-03    -12.0054E+06    -8.80217E+06     33.1301E+06    -19.8705E+06    -49.3248E-03     69.5276E-03    -20.2028E-03     181.690E-03    -49.9937E-03     70.0279E-03    -20.0070E-03     181.002E-03
            1316     15.8619E-03     112.521E-03    -13.6694E+06    -42.0155E+06     7.25638E+06    -28.4090E+06    -60.5346E-03     82.0007E-03    -21.4662E-03     230.442E-03    -62.2778E-03     83.5264E-03    -21.3491E-03     229.225E-03
            1317     16.7156E-03     112.783E-03    -10.7055E+06     10.0926E+06     26.3076E+06    -23.6797E+06    -68.8236E-03     91.9228E-03    -23.0992E-03     226.345E-03    -71.7785E-03     94.8026E-03    -22.9668E-03     225.181E-03
            1318     883.615E-06     112.230E-03     2.90962E+06    -13.3055E+06     3.28241E+06    -3.17988E+06    -18.5633E-03     37.0783E-03    -18.5150E-03     2.63234E-03    -18.5345E-03     37.0026E-03    -18.4835E-03     2.58969E-03
            1319     1.76759E-03     112.238E-03     2.94126E+06    -10.4717E+06     4.81023E+06    -5.60113E+06    -18.7546E-03     37.3456E-03    -18.5910E-03     4.87900E-03    -18.7321E-03     37.2819E-03    -18.5561E-03     4.80368E-03
            1320     2.65079E-03     112.248E-03     2.98978E+06    -8.65111E+06     8.39660E+06    -7.75206E+06    -19.0685E-03     37.7876E-03    -18.7191E-03     7.25199E-03    -19.0539E-03     37.7279E-03    -18.6689E-03     7.14728E-03
            1321     3.53404E-03     112.265E-03     2.85304E+06    -7.04149E+06     12.0541E+06    -9.28271E+06    -19.4496E-03     38.3338E-03    -18.8841E-03     9.73289E-03    -19.4437E-03     38.2774E-03    -18.8178E-03     9.60661E-03
            1322     4.41661E-03     112.285E-03     2.85054E+06    -5.89437E+06     15.2243E+06    -10.2034E+06    -19.8595E-03     38.9314E-03    -19.0719E-03     12.4125E-03    -19.8603E-03     38.8766E-03    -18.9914E-03     12.2723E-03
            1323     5.29904E-03     112.312E-03     3.07900E+06    -4.78133E+06     18.6369E+06    -11.1969E+06    -20.2503E-03     39.5246E-03    -19.2743E-03     15.4086E-03    -20.2573E-03     39.4707E-03    -19.1787E-03     15.2535E-03
            1324     6.18092E-03     112.344E-03     2.84846E+06    -4.43460E+06     21.7527E+06    -12.2974E+06    -20.5675E-03     40.0465E-03    -19.4790E-03     18.8646E-03    -20.5815E-03     39.9909E-03    -19.3679E-03     18.6933E-03
            1325     7.06268E-03     112.383E-03     1.32247E+06    -4.33049E+06     23.9883E+06    -12.9940E+06    -20.7537E-03     40.4245E-03    -19.6708E-03     22.9483E-03    -20.7797E-03     40.3692E-03    -19.5465E-03     22.7660E-03
            1326     7.94434E-03     112.429E-03    -398.767E+03    -5.06581E+06     25.5838E+06    -13.5903E+06    -20.7919E-03     40.6307E-03    -19.8387E-03     27.8783E-03    -20.8289E-03     40.5729E-03    -19.7029E-03     27.6868E-03
            1327     8.82614E-03     112.485E-03    -1.81657E+06    -5.10175E+06     27.6970E+06    -14.7922E+06    -20.7430E-03     40.7229E-03    -19.9799E-03     33.9591E-03    -20.7914E-03     40.6651E-03    -19.8314E-03     33.7509E-03
            1328     9.70803E-03     112.550E-03    -3.12747E+06    -6.43966E+06     28.9931E+06    -16.2484E+06    -20.6127E-03     40.7018E-03    -20.0891E-03     41.7321E-03    -20.6687E-03     40.6383E-03    -19.9303E-03     41.5049E-03
            1329     10.5901E-03     112.629E-03    -5.08290E+06    -6.72217E+06     29.5784E+06    -16.6991E+06    -20.6920E-03     40.8642E-03    -20.1722E-03     52.2453E-03    -20.7594E-03     40.8024E-03    -20.0072E-03     52.0127E-03
            1330     11.4734E-03     112.722E-03     -6.5162E+06    -8.57863E+06     31.9151E+06    -17.8610E+06    -21.6124E-03     41.8897E-03    -20.2773E-03     67.0673E-03    -21.6894E-03     41.8193E-03    -20.0959E-03     66.8196E-03
            1331     12.3549E-03     112.837E-03    -1.68908E+06    -9.33616E+06     38.9712E+06    -13.8371E+06    -23.8991E-03     44.3599E-03    -20.4608E-03     86.9659E-03    -23.9675E-03     44.2756E-03    -20.2499E-03     86.7648E-03
            1332     13.2348E-03     112.973E-03     5.43448E+06     1.21889E+06     49.7015E+06    -6.02078E+06    -28.0392E-03     48.8146E-03    -20.7755E-03     108.320E-03    -28.1244E-03     48.7799E-03    -20.5366E-03     108.197E-03
            1333     14.1075E-03     113.128E-03     5.58076E+06     8.98312E+06     54.6695E+06    -5.00976E+06    -35.1910E-03     56.5002E-03    -21.3092E-03     131.381E-03    -35.3634E-03     56.5668E-03    -21.0570E-03     131.202E-03
            1334     14.9776E-03     113.307E-03     2.62477E+06     1.82329E+06     52.9531E+06    -9.98019E+06    -44.1853E-03     66.3057E-03    -22.1205E-03     166.514E-03    -44.5909E-03     66.5747E-03    -21.8622E-03     166.097E-03
            1335     15.8411E-03     113.531E-03    -1.12300E+06    -21.9898E+06     33.7912E+06    -21.2172E+06    -52.1469E-03     75.2055E-03    -23.0586E-03     211.722E-03    -53.1987E-03     76.0773E-03    -22.8561E-03     210.881E-03
            1336     16.7102E-03     113.791E-03    -13.9422E+06    -2.32198E+06     20.3170E+06    -25.5158E+06    -53.7412E-03     77.7407E-03    -23.9996E-03     221.953E-03    -55.7758E-03     79.6626E-03    -23.8744E-03     221.078E-03
            1337     881.201E-06     113.217E-03     16.8180E+06    -7.24954E+06     17.8057E+06    -2.46364E+06    -21.8536E-03     43.5381E-03    -21.6845E-03     1.58412E-03    -21.7854E-03     43.4512E-03    -21.6094E-03     1.55034E-03
            1338     1.76176E-03     113.224E-03     16.7593E+06    -5.24668E+06     19.2086E+06    -4.24451E+06    -22.0806E-03     43.9306E-03    -21.8500E-03     2.73350E-03    -22.0178E-03     43.8517E-03    -21.7706E-03     2.67491E-03
            1339     2.64250E-03     113.236E-03     16.4426E+06    -4.18859E+06     21.7212E+06    -5.47747E+06    -22.4307E-03     44.4463E-03    -22.0156E-03     3.98587E-03    -22.3748E-03     44.3696E-03    -21.9248E-03     3.90934E-03
            1340     3.52246E-03     113.252E-03     16.0668E+06    -3.50280E+06     24.3104E+06    -6.25917E+06    -22.8761E-03     45.0923E-03    -22.2162E-03     5.34947E-03    -22.8271E-03     45.0161E-03    -22.1129E-03     5.26063E-03
            1341     4.40221E-03     113.274E-03     15.7228E+06    -2.59423E+06     27.4379E+06    -7.12536E+06    -23.4038E-03     45.8575E-03    -22.4537E-03     6.86868E-03    -23.3628E-03     45.7821E-03    -22.3356E-03     6.76622E-03
            1342     5.28119E-03     113.301E-03     15.1250E+06    -2.03761E+06     30.8739E+06    -7.52272E+06    -23.9933E-03     46.7194E-03    -22.7261E-03     8.58754E-03    -23.9616E-03     46.6431E-03    -22.5907E-03     8.47728E-03
            1343     6.15973E-03     113.334E-03     13.8801E+06    -1.64505E+06     33.6396E+06    -7.58198E+06    -24.5837E-03     47.6066E-03    -23.0229E-03     10.5621E-03    -24.5635E-03     47.5306E-03    -22.8724E-03     10.4481E-03
            1344     7.03761E-03     113.372E-03     12.8049E+06    -2.15096E+06     35.8638E+06    -7.65468E+06    -25.1142E-03     48.4486E-03    -23.3344E-03     12.8895E-03    -25.1028E-03     48.3690E-03    -23.1705E-03     12.7716E-03
            1345     7.91501E-03     113.419E-03     11.9659E+06    -1.96856E+06     38.9733E+06    -8.31394E+06    -25.5501E-03     49.2054E-03    -23.6553E-03     15.7092E-03    -25.5487E-03     49.1242E-03    -23.4749E-03     15.5796E-03
            1346     8.79192E-03     113.473E-03     10.7478E+06    -2.67280E+06     41.5895E+06    -8.72703E+06    -25.8466E-03     49.8196E-03    -23.9730E-03     19.2633E-03    -25.8555E-03     49.7338E-03    -23.7768E-03     19.1253E-03
            1347     9.66848E-03     113.539E-03     8.35074E+06    -2.47050E+06     43.6556E+06    -9.53339E+06    -26.0968E-03     50.3805E-03    -24.2836E-03     23.7799E-03    -26.1228E-03     50.2972E-03    -24.0739E-03     23.6284E-03
            1348     10.5453E-03     113.615E-03     6.50840E+06    -4.50516E+06     45.2888E+06    -10.4496E+06    -26.3291E-03     50.9245E-03    -24.5954E-03     29.8359E-03    -26.3658E-03     50.8325E-03    -24.3718E-03     29.6700E-03
            1349     11.4207E-03     113.709E-03     5.17876E+06    -4.59994E+06     46.3837E+06    -11.4233E+06    -26.2583E-03     51.1538E-03    -24.8956E-03     38.6850E-03    -26.3049E-03     51.0628E-03    -24.6645E-03     38.5060E-03
            1350     12.2978E-03     113.820E-03     2.98145E+06    -12.1592E+06     44.8943E+06    -13.7319E+06    -25.6411E-03     50.8008E-03    -25.1596E-03     51.8547E-03    -25.6867E-03     50.6784E-03    -24.9218E-03     51.6492E-03
            1351     13.1753E-03     113.958E-03     7.48631E+06    -7.22327E+06     52.0222E+06    -11.1924E+06    -25.7120E-03     51.1125E-03    -25.4005E-03     69.2967E-03    -25.7558E-03     51.0023E-03    -25.1408E-03     69.1244E-03
            1352     14.0546E-03     114.116E-03     17.9136E+06     6.05151E+06     64.0303E+06    -2.88988E+06    -28.6097E-03     54.2951E-03    -25.6854E-03     93.0656E-03    -28.6591E-03     54.2441E-03    -25.4000E-03     92.9775E-03
            1353     14.9229E-03     114.306E-03     24.7897E+06     11.9867E+06     72.5189E+06    -1.38314E+06    -36.0306E-03     62.1865E-03    -26.1559E-03     127.203E-03    -36.1636E-03     62.2405E-03    -25.8467E-03     127.043E-03
            1354     15.7931E-03     114.523E-03     18.7863E+06     972.483E+03     61.1383E+06    -6.20919E+06    -41.1668E-03     67.8971E-03    -26.7304E-03     166.489E-03    -41.5821E-03     68.2078E-03    -26.4533E-03     166.112E-03
            1355     16.6489E-03     114.793E-03     20.5652E+06    -6.58826E+06     33.1510E+06    -7.10619E+06    -26.2408E-03     53.0044E-03    -26.7636E-03     177.730E-03    -26.8939E-03     53.6168E-03    -26.6181E-03     177.482E-03
            1356     877.017E-06     114.211E-03     26.2115E+06    -2.91546E+06     26.8547E+06    -1.64280E+06    -26.3740E-03     52.8108E-03    -26.4368E-03     23.1656E-06    -26.2788E-03     52.7182E-03    -26.3364E-03     212.734E-09
            1357     1.75402E-03     114.219E-03     25.6679E+06    -1.72991E+06     28.2778E+06    -2.42134E+06    -26.6837E-03     53.1750E-03    -26.4913E-03     91.6432E-06    -26.5951E-03     53.0869E-03    -26.3846E-03     57.0479E-06
            1358     2.63025E-03     114.231E-03     25.0037E+06    -1.58737E+06     29.7022E+06    -2.89769E+06    -27.0510E-03     53.7085E-03    -26.6576E-03     194.030E-06    -26.9680E-03     53.6202E-03    -26.5430E-03     151.553E-06
            1359     3.50644E-03     114.248E-03     24.2672E+06    -1.09465E+06     32.3731E+06    -3.32025E+06    -27.5729E-03     54.4554E-03    -26.8825E-03     348.048E-06    -27.4984E-03     54.3667E-03    -26.7542E-03     298.240E-06
            1360     4.38178E-03     114.270E-03     23.3963E+06    -616.317E+03     35.7179E+06    -3.39729E+06    -28.2673E-03     55.4387E-03    -27.1714E-03     535.925E-06    -28.2028E-03     55.3489E-03    -27.0258E-03     483.053E-06
            1361     5.25651E-03     114.298E-03     22.3565E+06    -506.710E+03     38.6439E+06    -3.33751E+06    -29.1170E-03     56.6399E-03    -27.5229E-03     755.638E-06    -29.0624E-03     56.5480E-03    -27.3614E-03     701.207E-06
            1362     6.13019E-03     114.331E-03     21.8564E+06    -750.821E+03     42.1175E+06    -2.98711E+06    -30.1036E-03     58.0442E-03    -27.9406E-03     993.563E-06    -30.0566E-03     57.9468E-03    -27.7606E-03     940.972E-06
            1363     7.00282E-03     114.372E-03     21.5633E+06    -210.572E+03     46.6236E+06    -3.13850E+06    -31.1925E-03     59.6167E-03    -28.4242E-03     1.25907E-03    -31.1547E-03     59.5159E-03    -28.2221E-03     1.20138E-03
            1364     7.87425E-03     114.418E-03     20.8334E+06    -615.863E+03     50.0616E+06    -2.95416E+06    -32.3169E-03     61.2799E-03    -28.9630E-03     1.57612E-03    -32.2879E-03     61.1730E-03    -28.7420E-03     1.51709E-03
            1365     8.74440E-03     114.474E-03     19.9488E+06    -621.853E+03     53.2902E+06    -3.10035E+06    -33.5396E-03     63.0992E-03    -29.5596E-03     1.93996E-03    -33.5207E-03     62.9888E-03    -29.3212E-03     1.87459E-03
            1366     9.61349E-03     114.539E-03     19.4774E+06    -962.376E+03     56.6862E+06    -2.78322E+06    -34.9388E-03     65.1672E-03    -30.2284E-03     2.40361E-03    -34.9279E-03     65.0506E-03    -29.9718E-03     2.33689E-03
            1367     10.4797E-03     114.617E-03     18.4444E+06    -556.634E+03     58.7726E+06    -3.91422E+06    -36.2062E-03     67.1724E-03    -30.9662E-03     3.28769E-03    -36.2058E-03     67.0563E-03    -30.6982E-03     3.20070E-03
            1368     11.3450E-03     114.707E-03     16.1021E+06    -4.19765E+06     58.4727E+06    -3.84524E+06    -36.4424E-03     68.1792E-03    -31.7368E-03     5.25338E-03    -36.4498E-03     68.0485E-03    -31.4617E-03     5.16371E-03
            1369     12.2083E-03     114.818E-03     14.3123E+06    -3.12581E+06     60.3534E+06    -6.06012E+06    -34.6894E-03     67.1463E-03    -32.4569E-03     9.21656E-03    -34.7119E-03     67.0202E-03    -32.1713E-03     9.09938E-03
            1370     13.0748E-03     114.945E-03     10.4683E+06    -10.9908E+06     58.8131E+06    -9.70010E+06    -30.7757E-03     63.7892E-03    -33.0134E-03     17.2181E-03    -30.8047E-03     63.6318E-03    -32.7186E-03     17.0597E-03
            1371     13.9415E-03     115.102E-03     10.2474E+06    -1.60172E+06     61.2898E+06    -9.90436E+06    -27.9314E-03     61.3381E-03    -33.4068E-03     30.9597E-03    -27.9821E-03     61.2238E-03    -33.1129E-03     30.8016E-03
            1372     14.8213E-03     115.284E-03     10.7726E+06     10.1669E+06     67.9932E+06    -4.59021E+06    -29.3227E-03     63.1697E-03    -33.8470E-03     53.8558E-03    -29.4190E-03     63.1290E-03    -33.5374E-03     53.7390E-03
            1373     15.6775E-03     115.523E-03     11.9750E+06     3.06627E+06     64.9174E+06     2.52502E+06    -20.3269E-03     54.3730E-03    -34.0462E-03     79.1498E-03    -20.4503E-03     54.3618E-03    -33.7434E-03     79.0960E-03
            1374     16.5692E-03     115.750E-03     5.86321E+06     1.44291E+06     32.8155E+06    -302.669E+03     2.42055E-03     30.7792E-03    -33.1997E-03     78.4818E-03     2.31154E-03     30.8166E-03    -33.0463E-03     78.4485E-03
            1375     16.6608E-03     57.5491E-03    -4.27113E+06     149.681E+06     69.5680E+06     1.13170E+06    -29.0633E-03     55.6026E-03    -26.5393E-03     146.348E-03    -32.2694E-03     59.1233E-03    -26.4023E-03     147.882E-03
            1376     15.7766E-03     57.3477E-03    -6.68639E+06     113.328E+06     5.81351E+06    -496.266E+03    -31.6577E-03     57.9664E-03    -26.3087E-03     176.606E-03    -34.6588E-03     61.3289E-03    -26.4343E-03     177.120E-03
            1377     14.9013E-03     57.2068E-03    -6.43018E+06     48.5029E+06    -16.7544E+06    -17.9661E+03    -29.3450E-03     55.6550E-03    -26.3100E-03     123.320E-03    -30.2376E-03     56.7455E-03    -26.4548E-03     123.147E-03
            1378     14.0227E-03     57.1117E-03    -6.70364E+06    -7.65499E+06    -9.68886E+06     779.214E+03    -28.0073E-03     54.4540E-03    -26.4467E-03     89.2374E-03    -28.3283E-03     54.7522E-03    -26.4743E-03     89.0511E-03
            1379     13.1481E-03     57.0363E-03    -6.70239E+06    -39.1614E+06    -5.42745E+06     823.045E+03    -27.7767E-03     54.3051E-03    -26.5283E-03     78.7459E-03    -27.9299E-03     54.3111E-03    -26.4890E-03     78.5850E-03
            1380     12.2699E-03     56.9624E-03    -6.79924E+06    -53.1733E+06     346.412E+03     688.922E+03    -27.6393E-03     54.2322E-03    -26.5929E-03     74.4650E-03    -27.7182E-03     54.0972E-03    -26.5042E-03     74.3337E-03
            1381     11.3942E-03     56.8950E-03    -7.62899E+06    -66.6031E+06     1.58118E+06     620.837E+03    -27.4963E-03     54.1320E-03    -26.6357E-03     67.0168E-03    -27.5191E-03     53.8868E-03    -26.5202E-03     66.9119E-03
            1382     10.5169E-03     56.8350E-03    -8.22547E+06    -79.8452E+06     1.65978E+06     643.346E+03    -27.3458E-03     54.0173E-03    -26.6716E-03     61.2507E-03    -27.3265E-03     53.6806E-03    -26.5356E-03     61.1687E-03
            1383     9.64053E-03     56.7784E-03    -9.06887E+06    -86.3259E+06     4.54214E+06     511.143E+03    -27.3067E-03     54.0170E-03    -26.7103E-03     56.4348E-03    -27.2701E-03     53.6285E-03    -26.5492E-03     56.3689E-03
            1384     8.76428E-03     56.7278E-03    -10.5987E+06    -91.1188E+06     5.13854E+06     643.086E+03    -27.2596E-03     53.9897E-03    -26.7301E-03     51.5303E-03    -27.2131E-03     53.5672E-03    -26.5569E-03     51.4810E-03
            1385     7.88759E-03     56.6806E-03    -12.2171E+06    -96.3006E+06     3.86491E+06     578.568E+03    -27.1094E-03     53.8499E-03    -26.7405E-03     46.5768E-03    -27.0536E-03     53.3976E-03    -26.5638E-03     46.5393E-03
            1386     7.01123E-03     56.6391E-03    -13.8799E+06    -99.7548E+06     1.49363E+06     439.277E+03    -27.0091E-03     53.7547E-03    -26.7456E-03     41.4138E-03    -26.9475E-03     53.2854E-03    -26.5734E-03     41.3844E-03
            1387     6.13470E-03     56.6021E-03    -15.7350E+06    -101.969E+06    -2.50299E+06     437.487E+03    -26.9399E-03     53.6804E-03    -26.7405E-03     36.2921E-03    -26.8747E-03     53.2046E-03    -26.5824E-03     36.2707E-03
            1388     5.25835E-03     56.5701E-03    -17.4036E+06    -104.324E+06    -7.09979E+06     283.328E+03    -26.8667E-03     53.5983E-03    -26.7316E-03     31.0682E-03    -26.7971E-03     53.1171E-03    -26.5906E-03     31.0511E-03
            1389     4.38181E-03     56.5430E-03    -18.9113E+06    -106.486E+06    -11.2434E+06     314.827E+03    -26.8150E-03     53.5387E-03    -26.7237E-03     25.8448E-03    -26.7418E-03     53.0530E-03    -26.5981E-03     25.8332E-03
            1390     3.50556E-03     56.5209E-03    -20.1606E+06    -108.962E+06    -14.8444E+06     378.744E+03    -26.7735E-03     53.4908E-03    -26.7173E-03     20.6661E-03    -26.6965E-03     52.9985E-03    -26.6043E-03     20.6594E-03
            1391     2.62901E-03     56.5037E-03    -21.4064E+06    -111.246E+06    -18.1488E+06     258.911E+03    -26.7425E-03     53.4531E-03    -26.7106E-03     15.5211E-03    -26.6629E-03     52.9551E-03    -26.6090E-03     15.5163E-03
            1392     1.75283E-03     56.4914E-03    -22.3757E+06    -112.395E+06    -20.8616E+06     109.481E+03    -26.7175E-03     53.4211E-03    -26.7035E-03     10.4513E-03    -26.6366E-03     52.9222E-03    -26.6124E-03     10.4474E-03
            1393     876.250E-06     56.4838E-03    -22.9732E+06    -112.592E+06    -22.5241E+06     21.1065E+03    -26.7030E-03     53.4026E-03    -26.6996E-03     5.67274E-03    -26.6221E-03     52.9058E-03    -26.6156E-03     5.67025E-03
            1394     16.6546E-03     56.5547E-03    -3.19144E+06     150.213E+06     70.2911E+06     651.505E+03    -29.8275E-03     56.2479E-03    -26.4204E-03     147.228E-03    -33.0558E-03     59.7943E-03    -26.2821E-03     148.750E-03
            1395     15.7795E-03     56.3483E-03    -4.26787E+06     113.936E+06     6.92464E+06     1.24074E+06    -30.3126E-03     56.5321E-03    -26.2195E-03     180.686E-03    -33.3720E-03     59.9607E-03    -26.3439E-03     181.308E-03
            1396     14.9006E-03     56.2081E-03    -6.25626E+06     47.9530E+06    -16.7308E+06     876.546E+03    -29.0536E-03     55.3283E-03    -26.2747E-03     124.046E-03    -29.9442E-03     56.4155E-03    -26.4188E-03     123.888E-03
            1397     14.0252E-03     56.1121E-03    -6.06488E+06    -7.82436E+06    -9.40646E+06     897.083E+03    -27.7600E-03     54.1885E-03    -26.4285E-03     89.8125E-03    -28.0780E-03     54.4844E-03    -26.4554E-03     89.6299E-03
            1398     13.1463E-03     56.0373E-03    -5.84961E+06    -39.3266E+06    -4.87786E+06     810.846E+03    -27.5934E-03     54.1190E-03    -26.5256E-03     78.9445E-03    -27.7422E-03     54.1216E-03    -26.4845E-03     78.7850E-03
            1399     12.2708E-03     55.9624E-03    -6.59003E+06    -52.9387E+06     887.764E+03     815.353E+03    -27.7061E-03     54.3006E-03    -26.5945E-03     74.5351E-03    -27.7855E-03     54.1661E-03    -26.5038E-03     74.4047E-03
            1400     11.3935E-03     55.8956E-03    -7.46370E+06    -67.0775E+06     1.79720E+06     779.402E+03    -27.5563E-03     54.1885E-03    -26.6321E-03     67.0402E-03    -27.5782E-03     53.9405E-03    -26.5151E-03     66.9370E-03
            1401     10.5176E-03     55.8352E-03    -8.25303E+06    -79.4812E+06     2.11277E+06     540.219E+03    -27.3822E-03     54.0460E-03    -26.6639E-03     61.2708E-03    -27.3643E-03     53.7106E-03    -26.5261E-03     61.1873E-03
            1402     9.64073E-03     55.7792E-03    -9.19123E+06    -86.4931E+06     4.43577E+06     552.743E+03    -27.2401E-03     53.9416E-03    -26.7015E-03     56.5585E-03    -27.2036E-03     53.5525E-03    -26.5406E-03     56.4936E-03
            1403     8.76395E-03     55.7275E-03    -10.2196E+06    -91.3130E+06     5.23386E+06     516.890E+03    -27.2211E-03     53.9474E-03    -26.7263E-03     51.5646E-03    -27.1725E-03     53.5232E-03    -26.5529E-03     51.5139E-03
            1404     7.88786E-03     55.6813E-03    -11.8055E+06    -96.0530E+06     4.21518E+06     551.650E+03    -27.1312E-03     53.8689E-03    -26.7377E-03     46.5082E-03    -27.0742E-03     53.4168E-03    -26.5602E-03     46.4702E-03
            1405     7.01112E-03     55.6392E-03    -13.7674E+06    -99.7956E+06     1.34456E+06     435.707E+03    -27.0062E-03     53.7460E-03    -26.7398E-03     41.4660E-03    -26.9438E-03     53.2765E-03    -26.5684E-03     41.4366E-03
            1406     6.13482E-03     55.6024E-03    -15.5397E+06    -101.879E+06    -2.46601E+06     295.865E+03    -26.9504E-03     53.6845E-03    -26.7342E-03     36.2760E-03    -26.8844E-03     53.2089E-03    -26.5762E-03     36.2527E-03
            1407     5.25829E-03     55.5703E-03    -17.3603E+06    -104.281E+06    -6.99756E+06     277.053E+03    -26.8682E-03     53.5920E-03    -26.7238E-03     31.0660E-03    -26.7985E-03     53.1109E-03    -26.5824E-03     31.0489E-03
            1408     4.38199E-03     55.5433E-03    -18.9722E+06    -106.656E+06    -11.3104E+06     188.569E+03    -26.8051E-03     53.5200E-03    -26.7149E-03     25.8487E-03    -26.7320E-03     53.0337E-03    -26.5893E-03     25.8355E-03
            1409     3.50543E-03     55.5211E-03    -20.3743E+06    -109.072E+06    -15.0004E+06     267.219E+03    -26.7667E-03     53.4746E-03    -26.7079E-03     20.6611E-03    -26.6904E-03     52.9823E-03    -26.5952E-03     20.6530E-03
            1410     2.62922E-03     55.5039E-03    -21.4562E+06    -111.054E+06    -18.2982E+06     293.624E+03    -26.7325E-03     53.4327E-03    -26.7002E-03     15.5170E-03    -26.6531E-03     52.9360E-03    -26.5995E-03     15.5126E-03
            1411     1.75264E-03     55.4916E-03    -22.3438E+06    -112.312E+06    -20.9161E+06     139.968E+03    -26.7095E-03     53.4028E-03    -26.6933E-03     10.4505E-03    -26.6284E-03     52.9044E-03    -26.6026E-03     10.4471E-03
            1412     876.488E-06     55.4841E-03    -22.8974E+06    -112.616E+06    -22.6254E+06     93.3804E+03    -26.6923E-03     53.3822E-03    -26.6899E-03     5.66921E-03    -26.6108E-03     52.8853E-03    -26.6065E-03     5.66766E-03
            1413     16.6608E-03     55.5592E-03    -5.51538E+06     148.215E+06     68.6979E+06    -732.811E+03    -29.8132E-03     56.2996E-03    -26.4864E-03     147.197E-03    -33.0676E-03     59.8615E-03    -26.3498E-03     148.665E-03
            1414     15.7777E-03     55.3508E-03    -7.40854E+06     113.438E+06     5.76296E+06     1.17044E+06    -31.7569E-03     58.0126E-03    -26.2557E-03     182.901E-03    -34.8702E-03     61.4854E-03    -26.3806E-03     183.443E-03
            1415     14.9016E-03     55.2080E-03    -6.33965E+06     48.4522E+06    -16.5609E+06     1.50447E+06    -29.0342E-03     55.3147E-03    -26.2805E-03     125.250E-03    -29.9310E-03     56.4091E-03    -26.4244E-03     125.103E-03
            1416     14.0231E-03     55.1135E-03    -6.16622E+06    -7.79552E+06    -9.44212E+06     918.910E+03    -27.8387E-03     54.2742E-03    -26.4355E-03     90.2174E-03    -28.1579E-03     54.5713E-03    -26.4625E-03     90.0344E-03
            1417     13.1478E-03     55.0376E-03    -6.29033E+06    -39.1796E+06    -5.21812E+06     865.618E+03    -27.6846E-03     54.2120E-03    -26.5273E-03     79.3770E-03    -27.8360E-03     54.2171E-03    -26.4875E-03     79.2177E-03
            1418     12.2702E-03     54.9629E-03    -6.76026E+06    -53.8089E+06     586.976E+03     799.879E+03    -27.7567E-03     54.3502E-03    -26.5934E-03     74.6323E-03    -27.8354E-03     54.2121E-03    -26.5027E-03     74.5015E-03
            1419     11.3942E-03     54.8961E-03    -7.02885E+06    -66.1810E+06     2.43106E+06     842.909E+03    -27.5456E-03     54.1765E-03    -26.6309E-03     67.0531E-03    -27.5674E-03     53.9314E-03    -26.5126E-03     66.9508E-03
            1420     10.5171E-03     54.8354E-03    -7.68270E+06     -79.256E+06     2.39097E+06     645.190E+03    -27.4214E-03     54.0818E-03    -26.6604E-03     61.3213E-03    -27.4015E-03     53.7463E-03    -26.5224E-03     61.2391E-03
            1421     9.64081E-03     54.7798E-03    -8.97085E+06    -86.3887E+06     4.67080E+06     522.294E+03    -27.3055E-03     53.9991E-03    -26.6936E-03     56.5870E-03    -27.2685E-03     53.6100E-03    -26.5319E-03     56.5215E-03
            1422     8.76436E-03     54.7278E-03    -10.3232E+06    -91.7394E+06     4.65159E+06     490.374E+03    -27.1548E-03     53.8700E-03    -26.7152E-03     51.5986E-03    -27.1052E-03     53.4446E-03    -26.5439E-03     51.5479E-03
            1423     7.88756E-03     54.6814E-03    -11.8012E+06    -96.3605E+06     4.04498E+06     476.595E+03    -27.1063E-03     53.8387E-03    -26.7324E-03     46.4826E-03    -27.0486E-03     53.3853E-03    -26.5553E-03     46.4437E-03
            1424     7.01139E-03     54.6396E-03    -13.5310E+06    -99.3589E+06     1.67121E+06     489.084E+03    -27.0466E-03     53.7803E-03    -26.7337E-03     41.4638E-03    -26.9842E-03     53.3122E-03    -26.5616E-03     41.4349E-03
            1425     6.13474E-03     54.6025E-03    -15.5199E+06    -102.039E+06    -2.70853E+06     272.221E+03    -26.9374E-03     53.6611E-03    -26.7237E-03     36.2573E-03    -26.8707E-03     53.1849E-03    -26.5668E-03     36.2336E-03
            1426     5.25846E-03     54.5706E-03    -17.2608E+06    -104.250E+06    -6.94840E+06     280.077E+03    -26.8655E-03     53.5796E-03    -26.7141E-03     31.0432E-03    -26.7955E-03     53.0984E-03    -26.5727E-03     31.0260E-03
            1427     4.38190E-03     54.5435E-03    -18.9807E+06    -106.707E+06    -11.3848E+06     280.480E+03    -26.8030E-03     53.5064E-03    -26.7034E-03     25.8499E-03    -26.7297E-03     53.0199E-03    -26.5781E-03     25.8379E-03
            1428     3.50564E-03     54.5214E-03    -20.4694E+06    -109.171E+06    -15.2399E+06     218.559E+03    -26.7538E-03     53.4487E-03    -26.6950E-03     20.6568E-03    -26.6775E-03     52.9565E-03    -26.5832E-03     20.6481E-03
            1429     2.62907E-03     54.5042E-03    -21.6255E+06    -110.974E+06    -18.5944E+06     185.437E+03    -26.7199E-03     53.4068E-03    -26.6869E-03     15.5149E-03    -26.6411E-03     52.9112E-03    -26.5876E-03     15.5091E-03
            1430     1.75287E-03     54.4919E-03    -22.3888E+06    -112.242E+06    -21.0483E+06     176.673E+03    -26.6969E-03     53.3777E-03    -26.6809E-03     10.4499E-03    -26.6159E-03     52.8799E-03    -26.5909E-03     10.4469E-03
            1431     876.264E-06     54.4843E-03    -22.9305E+06    -112.541E+06    -22.4376E+06     73.9691E+03    -26.6866E-03     53.3596E-03    -26.6730E-03     5.67028E-03    -26.6056E-03     52.8628E-03    -26.5888E-03     5.66847E-03
            1432     16.6450E-03     54.5500E-03    -4.94623E+06     148.256E+06     68.9771E+06    -276.221E+03    -29.1900E-03     55.7478E-03    -26.5578E-03     145.867E-03    -32.4063E-03     59.2728E-03    -26.4207E-03     147.360E-03
            1433     15.7786E-03     54.3523E-03    -7.58140E+06     111.354E+06     5.64760E+06    -534.889E+03    -32.3370E-03     58.6559E-03    -26.3189E-03     180.187E-03    -35.3952E-03     62.0657E-03    -26.4411E-03     180.676E-03
            1434     14.8997E-03     54.2090E-03    -7.15992E+06     47.7723E+06    -16.5878E+06     980.947E+03    -29.4103E-03     55.7218E-03    -26.3115E-03     125.482E-03    -30.3186E-03     56.8224E-03    -26.4533E-03     125.321E-03
            1435     14.0244E-03     54.1138E-03    -6.52686E+06    -6.92838E+06    -9.38385E+06     1.25470E+06    -28.0079E-03     54.4570E-03    -26.4490E-03     90.0387E-03    -28.3303E-03     54.7588E-03    -26.4764E-03     89.8587E-03
            1436     13.1464E-03     54.0382E-03    -6.58538E+06    -39.7265E+06    -5.53170E+06     691.531E+03    -27.8426E-03     54.3733E-03    -26.5307E-03     79.4768E-03    -27.9949E-03     54.3772E-03    -26.4912E-03     79.3140E-03
            1437     12.2706E-03     53.9631E-03    -6.46843E+06    -53.5029E+06     763.308E+03     729.841E+03    -27.7542E-03     54.3463E-03    -26.5921E-03     74.6059E-03    -27.8318E-03     54.2088E-03    -26.5014E-03     74.4744E-03
            1438     11.3937E-03     53.8963E-03    -7.08962E+06    -66.0672E+06     2.44698E+06     698.173E+03    -27.5482E-03     54.1777E-03    -26.6295E-03     67.0532E-03    -27.5704E-03     53.9331E-03    -26.5112E-03     66.9491E-03
            1439     10.5175E-03     53.8361E-03    -7.89614E+06    -79.1871E+06     2.18377E+06     678.692E+03    -27.4714E-03     54.1270E-03    -26.6556E-03     61.3126E-03    -27.4525E-03     53.7927E-03    -26.5184E-03     61.2305E-03
            1440     9.64087E-03     53.7796E-03    -8.80408E+06    -86.4355E+06     4.74308E+06     535.445E+03    -27.3388E-03     54.0244E-03    -26.6855E-03     56.4977E-03    -27.3011E-03     53.6347E-03    -26.5237E-03     56.4322E-03
            1441     8.76433E-03     53.7286E-03    -10.2294E+06    -91.6878E+06     4.84101E+06     517.424E+03    -27.1607E-03     53.8656E-03    -26.7049E-03     51.6105E-03    -27.1110E-03     53.4400E-03    -26.5329E-03     51.5601E-03
            1442     7.88784E-03     53.6816E-03    -11.9172E+06    -96.5295E+06     3.53548E+06     400.346E+03    -27.0831E-03     53.8023E-03    -26.7192E-03     46.5636E-03    -27.0250E-03     53.3489E-03    -26.5443E-03     46.5238E-03
            1443     7.01124E-03     53.6398E-03    -13.6551E+06    -99.5595E+06     1.59956E+06     398.253E+03    -27.0428E-03     53.7659E-03    -26.7230E-03     41.3849E-03    -26.9806E-03     53.2971E-03    -26.5509E-03     41.3548E-03
            1444     6.13501E-03     53.6029E-03    -15.4574E+06    -101.806E+06    -2.52250E+06     464.443E+03    -26.9347E-03     53.6469E-03    -26.7122E-03     36.2356E-03    -26.8683E-03     53.1715E-03    -26.5547E-03     36.2145E-03
            1445     5.25837E-03     53.5708E-03    -17.3955E+06    -104.389E+06    -7.25721E+06     297.598E+03    -26.8514E-03     53.5517E-03    -26.7003E-03     31.0396E-03    -26.7814E-03     53.0704E-03    -26.5600E-03     31.0227E-03
            1446     4.38211E-03     53.5438E-03    -18.9354E+06    -106.662E+06    -11.3675E+06     320.759E+03    -26.7951E-03     53.4854E-03    -26.6903E-03     25.8328E-03    -26.7217E-03     52.9991E-03    -26.5650E-03     25.8213E-03
            1447     3.50552E-03     53.5217E-03    -20.3248E+06    -109.096E+06    -15.2094E+06     234.748E+03    -26.7421E-03     53.4231E-03    -26.6810E-03     20.6577E-03    -26.6653E-03     52.9309E-03    -26.5694E-03     20.6492E-03
            1448     2.62928E-03     53.5044E-03    -21.4711E+06    -111.005E+06    -18.3759E+06     155.624E+03    -26.7059E-03     53.3799E-03    -26.6739E-03     15.5148E-03    -26.6266E-03     52.8836E-03    -26.5737E-03     15.5087E-03
            1449     1.75269E-03     53.4921E-03    -22.3872E+06    -112.186E+06    -20.9207E+06     137.647E+03    -26.6831E-03     53.3507E-03    -26.6676E-03     10.4534E-03    -26.6024E-03     52.8529E-03    -26.5770E-03     10.4500E-03
            1450     876.509E-06     53.4845E-03    -22.9355E+06    -112.506E+06    -22.6006E+06     22.0907E+03    -26.6712E-03     53.3310E-03    -26.6598E-03     5.66884E-03    -26.5901E-03     52.8346E-03    -26.5764E-03     5.66636E-03
            1451     16.6632E-03     53.5549E-03    -4.11308E+06     148.731E+06     69.3318E+06     263.525E+03    -28.9802E-03     55.5108E-03    -26.5306E-03     146.612E-03    -32.2031E-03     59.0460E-03    -26.3936E-03     148.143E-03
            1452     15.7752E-03     53.3520E-03    -6.67413E+06     110.471E+06     6.26204E+06     287.202E+03    -31.4910E-03     57.8127E-03    -26.3217E-03     179.285E-03    -34.5371E-03     61.2087E-03    -26.4408E-03     179.831E-03
            1453     14.9011E-03     53.2090E-03    -7.75099E+06     46.7887E+06    -16.4305E+06     486.657E+03    -29.5861E-03     55.9158E-03    -26.3297E-03     124.905E-03    -30.4932E-03     57.0091E-03    -26.4685E-03     124.734E-03
            1454     14.0230E-03     53.1148E-03    -6.89709E+06    -6.55559E+06    -9.41298E+06     697.875E+03    -28.1928E-03     54.6450E-03    -26.4522E-03     90.1357E-03    -28.5196E-03     54.9513E-03    -26.4798E-03     89.9461E-03
            1455     13.1476E-03     53.0381E-03    -6.30415E+06    -39.3938E+06    -5.29233E+06     759.927E+03    -27.9358E-03     54.4608E-03    -26.5250E-03     79.1961E-03    -28.0874E-03     54.4656E-03    -26.4852E-03     79.0333E-03
            1456     12.2705E-03     52.9638E-03    -6.52971E+06    -53.8506E+06     388.410E+03     615.187E+03    -27.6999E-03     54.2826E-03    -26.5827E-03     74.4272E-03    -27.7762E-03     54.1434E-03    -26.4932E-03     74.2948E-03
            1457     11.3939E-03     52.8967E-03    -7.06575E+06    -66.7811E+06     2.17279E+06     613.132E+03    -27.5456E-03     54.1678E-03    -26.6222E-03     67.0335E-03    -27.5663E-03     53.9201E-03    -26.5043E-03     66.9282E-03
            1458     10.5174E-03     52.8360E-03    -7.88769E+06    -78.7011E+06     2.42281E+06     684.527E+03    -27.4813E-03     54.1296E-03    -26.6483E-03     61.3158E-03    -27.4635E-03     53.7973E-03    -26.5106E-03     61.2337E-03
            1459     9.64097E-03     52.7803E-03    -8.92541E+06    -86.3598E+06     4.57910E+06     536.368E+03    -27.3271E-03     54.0034E-03    -26.6763E-03     56.4414E-03    -27.2899E-03     53.6146E-03    -26.5152E-03     56.3759E-03
            1460     8.76442E-03     52.7287E-03    -10.4431E+06    -91.8708E+06     4.83031E+06     497.911E+03    -27.2012E-03     53.8954E-03    -26.6943E-03     51.5840E-03    -27.1523E-03     53.4694E-03    -26.5218E-03     51.5332E-03
            1461     7.88793E-03     52.6821E-03    -12.0194E+06    -96.2766E+06     3.53675E+06     530.872E+03    -27.1063E-03     53.8094E-03    -26.7030E-03     46.5949E-03    -27.0491E-03     53.3574E-03    -26.5283E-03     46.5568E-03
            1462     7.01153E-03     52.6400E-03    -13.8165E+06    -99.8606E+06     1.00922E+06     312.160E+03    -26.9933E-03     53.6980E-03    -26.7047E-03     41.3739E-03    -26.9305E-03     53.2288E-03    -26.5348E-03     41.3428E-03
            1463     6.13489E-03     52.6032E-03    -15.6244E+06    -101.852E+06    -2.48506E+06     415.179E+03    -26.9208E-03     53.6194E-03    -26.6986E-03     36.2035E-03    -26.8553E-03     53.1441E-03    -26.5407E-03     36.1817E-03
            1464     5.25863E-03     52.5711E-03    -17.3276E+06    -104.188E+06    -7.07188E+06     409.618E+03    -26.8427E-03     53.5289E-03    -26.6862E-03     31.0330E-03    -26.7729E-03     53.0483E-03    -26.5453E-03     31.0175E-03
            1465     4.38201E-03     52.5441E-03    -19.0068E+06    -106.708E+06    -11.4321E+06     217.555E+03    -26.7739E-03     53.4494E-03    -26.6755E-03     25.8319E-03    -26.7007E-03     52.9631E-03    -26.5504E-03     25.8191E-03
            1466     3.50574E-03     52.5219E-03    -20.3255E+06    -109.034E+06    -15.0940E+06     230.665E+03    -26.7288E-03     53.3962E-03    -26.6674E-03     20.6574E-03    -26.6522E-03     52.9041E-03    -26.5553E-03     20.6488E-03
            1467     2.62915E-03     52.5048E-03    -21.5226E+06    -111.004E+06    -18.3831E+06     187.989E+03    -26.6927E-03     53.3522E-03    -26.6595E-03     15.5218E-03    -26.6136E-03     52.8560E-03    -26.5593E-03     15.5161E-03
            1468     1.75291E-03     52.4924E-03    -22.4123E+06    -112.143E+06    -20.9197E+06     108.242E+03    -26.6687E-03     53.3214E-03    -26.6527E-03     10.4552E-03    -26.5882E-03     52.8240E-03    -26.5622E-03     10.4513E-03
            1469     876.297E-06     52.4849E-03    -22.9972E+06    -112.510E+06    -22.6045E+06     71.7665E+03    -26.6580E-03     53.3008E-03    -26.6428E-03     5.67030E-03    -26.5772E-03     52.8045E-03    -26.5593E-03     5.66846E-03
            1470     16.6474E-03     52.5561E-03    -5.16839E+06     147.916E+06     69.0281E+06     170.478E+03    -29.1720E-03     55.7120E-03    -26.5400E-03     148.691E-03    -32.4428E-03     59.2894E-03    -26.4018E-03     150.213E-03
            1471     15.7791E-03     52.3515E-03    -7.49940E+06     110.432E+06     7.30512E+06     523.689E+03    -31.9325E-03     58.2588E-03    -26.3263E-03     180.390E-03    -35.0139E-03     61.6842E-03    -26.4391E-03     180.912E-03
            1472     14.8995E-03     52.2110E-03    -6.72644E+06     46.6164E+06    -14.9854E+06     430.382E+03    -29.5667E-03     55.8908E-03    -26.3241E-03     124.503E-03    -30.4648E-03     56.9739E-03    -26.4569E-03     124.332E-03
            1473     14.0241E-03     52.1137E-03    -6.62180E+06    -7.09421E+06    -9.20240E+06     329.096E+03    -28.1997E-03     54.6403E-03    -26.4407E-03     89.8803E-03    -28.5245E-03     54.9431E-03    -26.4668E-03     89.6855E-03
            1474     13.1471E-03     52.0391E-03    -6.46293E+06    -38.9605E+06    -5.29390E+06     561.755E+03    -27.8528E-03     54.3657E-03    -26.5129E-03     79.0565E-03    -28.0055E-03     54.3725E-03    -26.4735E-03     78.8918E-03
            1475     12.2707E-03     51.9640E-03    -6.51246E+06    -54.3210E+06     251.849E+03     707.311E+03    -27.7687E-03     54.3390E-03    -26.5703E-03     74.4991E-03    -27.8444E-03     54.1980E-03    -26.4808E-03     74.3674E-03
            1476     11.3942E-03     51.8973E-03    -7.08958E+06    -66.7479E+06     2.18406E+06     649.937E+03    -27.5575E-03     54.1635E-03    -26.6059E-03     66.9479E-03    -27.5785E-03     53.9160E-03    -26.4880E-03     66.8429E-03
            1477     10.5175E-03     51.8364E-03    -7.88182E+06    -79.0660E+06     2.29782E+06     662.322E+03    -27.3752E-03     54.0096E-03    -26.6344E-03     61.2175E-03    -27.3564E-03     53.6754E-03    -26.4968E-03     61.1356E-03
            1478     9.64106E-03     51.7805E-03    -8.98111E+06    -86.4348E+06     4.65029E+06     562.312E+03    -27.3113E-03     53.9783E-03    -26.6670E-03     56.4291E-03    -27.2743E-03     53.5891E-03    -26.5054E-03     56.3639E-03
            1479     8.76454E-03     51.7293E-03    -10.3104E+06    -91.4725E+06     5.00970E+06     485.385E+03    -27.2542E-03     53.9357E-03    -26.6816E-03     51.6075E-03    -27.2056E-03     53.5113E-03    -26.5089E-03     51.5562E-03
            1480     7.88812E-03     51.6822E-03    -12.0446E+06    -96.4158E+06     3.74416E+06     496.523E+03    -27.1060E-03     53.7932E-03    -26.6871E-03     46.5384E-03    -27.0490E-03     53.3403E-03    -26.5111E-03     46.4998E-03
            1481     7.01153E-03     51.6406E-03    -13.7613E+06    -99.7256E+06     1.17022E+06     426.051E+03    -26.9715E-03     53.6587E-03    -26.6873E-03     41.3933E-03    -26.9089E-03     53.1899E-03    -26.5169E-03     41.3638E-03
            1482     6.13516E-03     51.6034E-03    -15.6724E+06    -102.081E+06    -2.70306E+06     248.080E+03    -26.8898E-03     53.5711E-03    -26.6813E-03     36.2162E-03    -26.8238E-03     53.0950E-03    -26.5241E-03     36.1922E-03
            1483     5.25855E-03     51.5716E-03    -17.3766E+06    -104.129E+06    -6.81600E+06     331.974E+03    -26.8217E-03     53.4941E-03    -26.6723E-03     31.0219E-03    -26.7526E-03     53.0134E-03    -26.5302E-03     31.0054E-03
            1484     4.38224E-03     51.5444E-03    -18.9642E+06    -106.578E+06    -11.3062E+06     298.483E+03    -26.7572E-03     53.4187E-03    -26.6615E-03     25.8428E-03    -26.6842E-03     52.9327E-03    -26.5359E-03     25.8310E-03
            1485     3.50563E-03     51.5224E-03    -20.5349E+06    -109.119E+06    -15.1680E+06     196.535E+03    -26.7116E-03     53.3651E-03    -26.6535E-03     20.6654E-03    -26.6358E-03     52.8731E-03    -26.5414E-03     20.6564E-03
            1486     2.62935E-03     51.5050E-03    -21.6828E+06    -110.911E+06    -18.5033E+06     185.598E+03    -26.6802E-03     53.3253E-03    -26.6450E-03     15.5246E-03    -26.6019E-03     52.8299E-03    -26.5453E-03     15.5189E-03
            1487     1.75276E-03     51.4928E-03    -22.5509E+06    -112.134E+06    -21.1541E+06     106.657E+03    -26.6546E-03     53.2917E-03    -26.6372E-03     10.4605E-03    -26.5745E-03     52.7949E-03    -26.5477E-03     10.4566E-03
            1488     876.521E-06     51.4851E-03    -23.0036E+06    -112.506E+06    -22.6762E+06     42.0347E+03    -26.6411E-03     53.2710E-03    -26.6299E-03     5.67089E-03    -26.5602E-03     52.7749E-03    -26.5468E-03     5.66867E-03
            1489     16.6587E-03     51.5542E-03    -4.56935E+06     148.166E+06     69.3731E+06     469.028E+03    -29.0664E-03     55.6012E-03    -26.5349E-03     147.297E-03    -32.3027E-03     59.1462E-03    -26.3962E-03     148.829E-03
            1490     15.7756E-03     51.3531E-03    -7.58463E+06     109.774E+06     6.76336E+06    -462.873E+03    -31.9175E-03     58.2338E-03    -26.3163E-03     179.430E-03    -34.9714E-03     61.6308E-03    -26.4306E-03     179.948E-03
            1491     14.9017E-03     51.2099E-03    -7.41738E+06     45.5720E+06    -16.1113E+06     49.7155E+03    -29.8260E-03     56.1284E-03    -26.3024E-03     124.711E-03    -30.7296E-03     57.2142E-03    -26.4383E-03     124.529E-03
            1492     14.0243E-03     51.1153E-03    -6.21407E+06    -7.12946E+06    -8.99912E+06     466.531E+03    -28.1377E-03     54.5535E-03    -26.4158E-03     89.6702E-03    -28.4594E-03     54.8539E-03    -26.4415E-03     89.4780E-03
            1493     13.1473E-03     51.0391E-03    -6.14667E+06    -39.1574E+06    -4.74124E+06     443.643E+03    -27.7128E-03     54.2076E-03    -26.4948E-03     78.8569E-03    -27.8640E-03     54.2117E-03    -26.4528E-03     78.6919E-03
            1494     12.2710E-03     50.9645E-03    -6.50231E+06    -54.1224E+06     543.654E+03     600.214E+03    -27.7367E-03     54.2916E-03    -26.5549E-03     74.4249E-03    -27.8130E-03     54.1511E-03    -26.4643E-03     74.2921E-03
            1495     11.3943E-03     50.8975E-03    -7.03245E+06    -66.8343E+06     2.34489E+06     606.443E+03    -27.5346E-03     54.1256E-03    -26.5910E-03     66.9978E-03    -27.5555E-03     53.8774E-03    -26.4722E-03     66.8924E-03
            1496     10.5180E-03     50.8371E-03    -7.86758E+06    -79.2976E+06     2.37082E+06     639.034E+03    -27.3564E-03     53.9763E-03    -26.6199E-03     61.2956E-03    -27.3374E-03     53.6410E-03    -26.4816E-03     61.2135E-03
            1497     9.64098E-03     50.7810E-03    -8.81165E+06    -86.6202E+06     4.76424E+06     534.968E+03    -27.3040E-03     53.9565E-03    -26.6525E-03     56.5261E-03    -27.2661E-03     53.5659E-03    -26.4903E-03     56.4606E-03
            1498     8.76471E-03     50.7292E-03    -10.1871E+06    -91.6227E+06     5.28244E+06     517.082E+03    -27.2443E-03     53.9116E-03    -26.6673E-03     51.5162E-03    -27.1954E-03     53.4859E-03    -26.4933E-03     51.4653E-03
            1499     7.88822E-03     50.6830E-03    -11.7197E+06    -96.1182E+06     4.19894E+06     460.972E+03    -27.0899E-03     53.7623E-03    -26.6724E-03     46.5082E-03    -27.0323E-03     53.3098E-03    -26.4951E-03     46.4692E-03
            1500     7.01175E-03     50.6407E-03    -13.6381E+06    -99.7062E+06     1.48555E+06     385.047E+03    -26.9619E-03     53.6341E-03    -26.6722E-03     41.4104E-03    -26.8992E-03     53.1647E-03    -26.5004E-03     41.3803E-03
            1501     6.13516E-03     50.6040E-03    -15.4926E+06    -101.894E+06    -2.60996E+06     334.302E+03    -26.8641E-03     53.5293E-03    -26.6651E-03     36.2478E-03    -26.7977E-03     53.0536E-03    -26.5080E-03     36.2251E-03
            1502     5.25875E-03     50.5717E-03    -17.3393E+06    -104.351E+06    -6.93617E+06     169.896E+03    -26.7953E-03     53.4530E-03    -26.6577E-03     31.0463E-03    -26.7255E-03     52.9714E-03    -26.5160E-03     31.0278E-03
            1503     4.38215E-03     50.5449E-03    -18.9602E+06    -106.587E+06    -11.0348E+06     349.799E+03    -26.7451E-03     53.3946E-03    -26.6495E-03     25.8495E-03    -26.6723E-03     52.9082E-03    -26.5226E-03     25.8384E-03
            1504     3.50582E-03     50.5226E-03    -20.4294E+06    -108.959E+06    -15.1022E+06     292.164E+03    -26.7002E-03     53.3400E-03    -26.6398E-03     20.6734E-03    -26.6242E-03     52.8485E-03    -26.5277E-03     20.6657E-03
            1505     2.62924E-03     50.5055E-03    -21.7221E+06    -110.954E+06    -18.4837E+06     131.372E+03    -26.6649E-03     53.2965E-03    -26.6316E-03     15.5279E-03    -26.5868E-03     52.8010E-03    -26.5316E-03     15.5215E-03
            1506     1.75294E-03     50.4931E-03    -22.5907E+06    -112.076E+06    -21.1096E+06     116.295E+03    -26.6414E-03     53.2651E-03    -26.6237E-03     10.4615E-03    -26.5616E-03     52.7685E-03    -26.5340E-03     10.4577E-03
            1507     876.345E-06     50.4856E-03    -23.2037E+06    -112.528E+06    -22.8415E+06     68.2236E+03    -26.6195E-03     53.2421E-03    -26.6226E-03     5.67534E-03    -26.5393E-03     52.7464E-03    -26.5400E-03     5.67347E-03
            1508     16.6525E-03     50.5577E-03    -4.07568E+06     148.264E+06     69.3627E+06     653.711E+03    -29.4708E-03     55.9664E-03    -26.4956E-03     148.241E-03    -32.7158E-03     59.5222E-03    -26.3579E-03     149.765E-03
            1509     15.7788E-03     50.3530E-03    -5.67469E+06     110.616E+06     7.41876E+06     714.077E+03    -31.7270E-03     58.0027E-03    -26.2757E-03     180.185E-03    -34.7867E-03     61.4134E-03    -26.3908E-03     180.728E-03
            1510     14.9002E-03     50.2100E-03    -6.77707E+06     45.6250E+06    -15.6323E+06     117.993E+03    -29.5353E-03     55.8129E-03    -26.2775E-03     124.109E-03    -30.4316E-03     56.8924E-03    -26.4120E-03     123.933E-03
            1511     14.0246E-03     50.1155E-03    -6.87001E+06    -7.86922E+06    -9.60224E+06     146.288E+03    -28.0569E-03     54.4541E-03    -26.3972E-03     89.8191E-03    -28.3797E-03     54.7525E-03    -26.4239E-03     89.6241E-03
            1512     13.1483E-03     50.0399E-03    -6.62195E+06    -39.4271E+06    -5.16651E+06     381.426E+03    -27.7988E-03     54.2739E-03    -26.4751E-03     79.1669E-03    -27.9523E-03     54.2789E-03    -26.4342E-03     79.0002E-03
            1513     12.2710E-03     49.9651E-03    -6.57450E+06    -54.1251E+06     333.707E+03     396.500E+03    -27.6136E-03     54.1499E-03    -26.5362E-03     74.6157E-03    -27.6898E-03     54.0096E-03    -26.4465E-03     74.4811E-03
            1514     11.3945E-03     49.8977E-03    -7.19109E+06    -67.2508E+06     1.99591E+06     397.152E+03    -27.4548E-03     54.0339E-03    -26.5791E-03     67.0308E-03    -27.4751E-03     53.7841E-03    -26.4612E-03     66.9233E-03
            1515     10.5176E-03     49.8378E-03    -7.60606E+06    -78.8548E+06     2.94549E+06     573.951E+03    -27.4264E-03     54.0365E-03    -26.6101E-03     61.3360E-03    -27.4078E-03     53.7024E-03    -26.4700E-03     61.2526E-03
            1516     9.64158E-03     49.7810E-03    -8.68665E+06    -86.4703E+06     4.89578E+06     566.769E+03    -27.3436E-03     53.9788E-03    -26.6352E-03     56.5999E-03    -27.3055E-03     53.5888E-03    -26.4728E-03     56.5348E-03
            1517     8.76484E-03     49.7300E-03    -10.2006E+06    -91.8612E+06     5.18241E+06     471.436E+03    -27.1770E-03     53.8267E-03    -26.6497E-03     51.5046E-03    -27.1275E-03     53.3998E-03    -26.4758E-03     51.4535E-03
            1518     7.88830E-03     49.6829E-03    -11.7263E+06    -96.2224E+06     4.20338E+06     518.327E+03    -27.0536E-03     53.7125E-03    -26.6589E-03     46.5065E-03    -26.9959E-03     53.2594E-03    -26.4813E-03     46.4683E-03
            1519     7.01179E-03     49.6415E-03    -13.5461E+06    -99.6334E+06     1.53750E+06     400.098E+03    -26.9500E-03     53.6098E-03    -26.6597E-03     41.4455E-03    -26.8870E-03     53.1405E-03    -26.4879E-03     41.4157E-03
            1520     6.13530E-03     49.6042E-03    -15.4919E+06    -101.811E+06    -2.59077E+06     324.845E+03    -26.8544E-03     53.5069E-03    -26.6525E-03     36.2784E-03    -26.7880E-03     53.0316E-03    -26.4954E-03     36.2557E-03
            1521     5.25872E-03     49.5724E-03    -17.3323E+06    -104.350E+06    -7.09090E+06     311.043E+03    -26.7839E-03     53.4280E-03    -26.6442E-03     31.0740E-03    -26.7139E-03     52.9466E-03    -26.5032E-03     31.0574E-03
            1522     4.38231E-03     49.5451E-03    -19.0745E+06    -106.785E+06    -11.2559E+06     234.514E+03    -26.7333E-03     53.3692E-03    -26.6359E-03     25.8616E-03    -26.6606E-03     52.8823E-03    -26.5097E-03     25.8490E-03
            1523     3.50576E-03     49.5231E-03    -20.4169E+06    -108.824E+06    -14.9789E+06     290.958E+03    -26.6880E-03     53.3150E-03    -26.6270E-03     20.6747E-03    -26.6124E-03     52.8240E-03    -26.5144E-03     20.6670E-03
            1524     2.62939E-03     49.5058E-03    -21.6308E+06    -110.890E+06    -18.4632E+06     215.623E+03    -26.6524E-03     53.2703E-03    -26.6179E-03     15.5320E-03    -26.5739E-03     52.7750E-03    -26.5181E-03     15.5267E-03
            1525     1.75283E-03     49.4935E-03    -22.6728E+06    -112.092E+06    -21.1353E+06     133.514E+03    -26.6271E-03     53.2373E-03    -26.6102E-03     10.4614E-03    -26.5477E-03     52.7408E-03    -26.5205E-03     10.4579E-03
            1526     876.518E-06     49.4859E-03    -23.2295E+06    -112.446E+06    -22.8060E+06     76.1934E+03    -26.6041E-03     53.2150E-03    -26.6110E-03     5.66561E-03    -26.5242E-03     52.7197E-03    -26.5283E-03     5.66384E-03
            1527     16.6575E-03     49.5596E-03    -4.78438E+06     147.263E+06     69.3322E+06    -233.487E+03    -29.8975E-03     56.3553E-03    -26.4578E-03     145.386E-03    -33.1165E-03     59.8790E-03    -26.3177E-03     146.860E-03
            1528     15.7781E-03     49.3522E-03    -6.49329E+06     110.200E+06     8.00926E+06     806.501E+03    -31.4434E-03     57.6774E-03    -26.2341E-03     180.653E-03    -34.5232E-03     61.1022E-03    -26.3444E-03     181.215E-03
            1529     14.9029E-03     49.2124E-03    -6.12463E+06     46.2336E+06    -14.5508E+06     765.083E+03    -29.1232E-03     55.3773E-03    -26.2541E-03     124.435E-03    -30.0164E-03     56.4551E-03    -26.3850E-03     124.275E-03
            1530     14.0242E-03     49.1154E-03    -6.11298E+06    -7.78863E+06    -9.37415E+06     374.106E+03    -27.8632E-03     54.2516E-03    -26.3885E-03     90.2321E-03    -28.1832E-03     54.5495E-03    -26.4152E-03     90.0421E-03
            1531     13.1475E-03     49.0405E-03    -6.28760E+06    -40.0592E+06    -5.42960E+06     341.458E+03    -27.8155E-03     54.2872E-03    -26.4717E-03     79.2553E-03    -27.9662E-03     54.2890E-03    -26.4316E-03     79.0879E-03
            1532     12.2715E-03     48.9655E-03    -6.99294E+06    -54.0634E+06     319.970E+03     312.784E+03    -27.7111E-03     54.2411E-03    -26.5300E-03     74.7076E-03    -27.7902E-03     54.1025E-03    -26.4399E-03     74.5710E-03
            1533     11.3945E-03     48.8988E-03    -7.45376E+06    -66.8826E+06     1.89268E+06      322.55E+03    -27.4753E-03     54.0422E-03    -26.5669E-03     67.1402E-03    -27.4972E-03     53.7947E-03    -26.4497E-03     67.0319E-03
            1534     10.5182E-03     48.8376E-03    -8.15385E+06    -79.6151E+06     2.36807E+06     326.403E+03    -27.4242E-03     54.0202E-03    -26.5961E-03     61.4052E-03    -27.4063E-03     53.6839E-03    -26.4569E-03     61.3187E-03
            1535     9.64134E-03     48.7818E-03    -8.98910E+06    -86.2927E+06     4.80116E+06     606.882E+03    -27.3062E-03     53.9288E-03    -26.6226E-03     56.6323E-03    -27.2697E-03     53.5401E-03    -26.4605E-03     56.5679E-03
            1536     8.76501E-03     48.7300E-03    -10.1094E+06    -91.6652E+06     4.95525E+06     434.634E+03    -27.1609E-03     53.7983E-03    -26.6373E-03     51.6047E-03    -27.1109E-03     53.3726E-03    -26.4650E-03     51.5533E-03
            1537     7.88844E-03     48.6838E-03    -11.8788E+06    -96.4182E+06     3.96238E+06     459.520E+03    -27.0378E-03     53.6860E-03    -26.6482E-03     46.5515E-03    -26.9803E-03     53.2325E-03    -26.4714E-03     46.5126E-03
            1538     7.01183E-03     48.6415E-03    -13.6719E+06    -99.5542E+06     1.47065E+06     522.916E+03    -26.9370E-03     53.5871E-03    -26.6501E-03     41.4600E-03    -26.8747E-03     53.1185E-03    -26.4786E-03     41.4318E-03
            1539     6.13533E-03     48.6049E-03    -15.5650E+06    -101.946E+06    -2.72435E+06     360.409E+03    -26.8588E-03     53.5007E-03    -26.6419E-03     36.2816E-03    -26.7924E-03     53.0251E-03    -26.4852E-03     36.2593E-03
            1540     5.25884E-03     48.5726E-03    -17.4512E+06    -104.298E+06    -7.19885E+06     420.039E+03    -26.7838E-03     53.4152E-03    -26.6314E-03     31.0807E-03    -26.7143E-03     52.9344E-03    -26.4909E-03     31.0655E-03
            1541     4.38231E-03     48.5457E-03    -19.0883E+06    -106.717E+06    -11.5841E+06     278.182E+03    -26.7223E-03     53.3429E-03    -26.6206E-03     25.8638E-03    -26.6492E-03     52.8568E-03    -26.4961E-03     25.8518E-03
            1542     3.50587E-03     48.5234E-03    -20.5855E+06    -108.938E+06    -15.3092E+06     181.778E+03    -26.6753E-03     53.2870E-03    -26.6117E-03     20.6726E-03    -26.5999E-03     52.7962E-03    -26.5004E-03     20.6634E-03
            1543     2.62934E-03     48.5063E-03    -21.7108E+06    -110.794E+06    -18.4996E+06     245.161E+03    -26.6404E-03     53.2434E-03    -26.6030E-03     15.5240E-03    -26.5624E-03     52.7487E-03    -26.5033E-03     15.5191E-03
            1544     1.75296E-03     48.4939E-03    -22.5400E+06    -112.046E+06    -21.1004E+06     132.525E+03    -26.6123E-03     53.2072E-03    -26.5948E-03     10.4534E-03    -26.5324E-03     52.7106E-03    -26.5052E-03     10.4499E-03
            1545     876.396E-06     48.4864E-03    -23.0646E+06    -112.363E+06    -22.7016E+06     28.8761E+03    -26.5943E-03     53.1850E-03    -26.5908E-03     5.66791E-03    -26.5139E-03     52.6897E-03    -26.5079E-03     5.66553E-03
            1546     16.6573E-03     48.5620E-03    -4.60658E+06     147.128E+06     69.0146E+06    -409.611E+03    -30.1064E-03     56.5811E-03    -26.4747E-03     147.413E-03    -33.3597E-03     60.1404E-03    -26.3363E-03     148.880E-03
            1547     15.7797E-03     48.3546E-03    -6.58495E+06     109.481E+06     7.03856E+06     174.401E+03    -31.8344E-03     58.0745E-03    -26.2402E-03     182.345E-03    -34.9347E-03     61.5198E-03    -26.3542E-03     182.872E-03
            1548     14.9003E-03     48.2120E-03    -6.47555E+06     46.1116E+06    -15.2687E+06     628.677E+03    -29.2118E-03     55.4655E-03    -26.2538E-03     125.373E-03    -30.1107E-03     56.5495E-03    -26.3876E-03     125.212E-03
            1549     14.0251E-03     48.1172E-03    -6.06929E+06    -7.54851E+06    -9.29307E+06     811.936E+03    -28.0286E-03     54.4141E-03    -26.3855E-03     90.3971E-03    -28.3499E-03     54.7139E-03    -26.4122E-03     90.2107E-03
            1550     13.1480E-03     48.0403E-03    -6.36891E+06    -40.0922E+06    -5.26777E+06     640.655E+03    -27.6971E-03     54.1656E-03    -26.4685E-03     79.2851E-03    -27.8474E-03     54.1662E-03    -26.4275E-03     79.1229E-03
            1551     12.2710E-03     47.9662E-03    -6.66647E+06    -53.5534E+06     738.047E+03     473.304E+03    -27.7271E-03     54.2570E-03    -26.5299E-03     74.6211E-03    -27.8058E-03     54.1197E-03    -26.4388E-03     74.4865E-03
            1552     11.3949E-03     47.8989E-03    -7.40577E+06    -67.2464E+06     1.55005E+06     280.207E+03    -27.5759E-03     54.1360E-03    -26.5601E-03     67.3505E-03    -27.5969E-03     53.8875E-03    -26.4442E-03     67.2411E-03
            1553     10.5179E-03     47.8385E-03    -8.13669E+06    -79.9882E+06     1.98180E+06     212.501E+03    -27.4250E-03     54.0102E-03    -26.5851E-03     61.5216E-03    -27.4060E-03     53.6725E-03    -26.4475E-03     61.4338E-03
            1554     9.64169E-03     47.7820E-03    -9.04328E+06    -86.4661E+06     4.65705E+06     413.308E+03    -27.2568E-03     53.8712E-03    -26.6144E-03     56.6088E-03    -27.2200E-03     53.4818E-03    -26.4526E-03     56.5421E-03
            1555     8.76490E-03     47.7308E-03    -10.3375E+06    -91.7500E+06     4.68407E+06     476.369E+03    -27.1469E-03     53.7777E-03    -26.6309E-03     51.6224E-03    -27.0974E-03     53.3523E-03    -26.4594E-03     51.5715E-03
            1556     7.88842E-03     47.6839E-03    -11.9292E+06    -96.4195E+06     3.72139E+06     347.920E+03    -27.0619E-03     53.7021E-03    -26.6402E-03     46.5484E-03    -27.0043E-03     53.2491E-03    -26.4645E-03     46.5080E-03
            1557     7.01196E-03     47.6423E-03    -13.7538E+06    -99.4670E+06     1.52944E+06     475.831E+03    -26.9474E-03     53.5879E-03    -26.6405E-03     41.4519E-03    -26.8857E-03     53.1198E-03    -26.4687E-03     41.4231E-03
            1558     6.13537E-03     47.6050E-03    -15.6652E+06    -101.949E+06    -2.63942E+06     533.286E+03    -26.8548E-03     53.4854E-03    -26.6307E-03     36.2629E-03    -26.7891E-03     53.0098E-03    -26.4733E-03     36.2428E-03
            1559     5.25891E-03     47.5733E-03    -17.4972E+06    -104.317E+06    -7.29290E+06     419.247E+03    -26.7809E-03     53.3986E-03    -26.6176E-03     31.0653E-03    -26.7115E-03     52.9178E-03    -26.4775E-03     31.0500E-03
            1560     4.38239E-03     47.5460E-03    -19.1134E+06    -106.547E+06    -11.7341E+06     351.123E+03    -26.7140E-03     53.3187E-03    -26.6046E-03     25.8569E-03    -26.6411E-03     52.8337E-03    -26.4811E-03     25.8458E-03
            1561     3.50590E-03     47.5240E-03    -20.5178E+06    -108.927E+06    -15.5007E+06     231.876E+03    -26.6656E-03     53.2597E-03    -26.5942E-03     20.6637E-03    -26.5895E-03     52.7691E-03    -26.4840E-03     20.6553E-03
            1562     2.62944E-03     47.5066E-03    -21.6641E+06    -110.824E+06    -18.5225E+06     97.3151E+03    -26.6249E-03     53.2102E-03    -26.5853E-03     15.5133E-03    -26.5466E-03     52.7153E-03    -26.4858E-03     15.5065E-03
            1563     1.75293E-03     47.4944E-03    -22.4242E+06    -111.975E+06    -20.9821E+06     78.9362E+03    -26.5956E-03     53.1727E-03    -26.5771E-03     10.4480E-03    -26.5154E-03     52.6762E-03    -26.4871E-03     10.4438E-03
            1564     876.515E-06     47.4868E-03    -23.0016E+06    -112.407E+06    -22.6283E+06     28.8544E+03    -26.5668E-03     53.1489E-03    -26.5821E-03     5.67336E-03    -26.4861E-03     52.6532E-03    -26.4989E-03     5.67099E-03
            1565     16.6501E-03     47.5540E-03    -4.73175E+06     146.450E+06     68.2034E+06    -369.764E+03    -29.4529E-03     55.9580E-03    -26.5051E-03     144.839E-03    -32.6540E-03     59.4645E-03    -26.3696E-03     146.322E-03
            1566     15.7777E-03     47.3570E-03    -7.27571E+06     108.965E+06     5.48152E+06    -102.641E+03    -31.9721E-03     58.2421E-03    -26.2700E-03     180.227E-03    -35.0315E-03     61.6465E-03    -26.3900E-03     180.749E-03
            1567     14.9019E-03     47.2125E-03    -7.51569E+06     45.9737E+06    -16.6234E+06     351.914E+03    -29.5624E-03     55.8289E-03    -26.2665E-03     125.677E-03    -30.4725E-03     56.9237E-03    -26.4054E-03     125.504E-03
            1568     14.0244E-03     47.1171E-03    -7.18990E+06    -7.83502E+06    -10.2031E+06     487.531E+03    -28.0948E-03     54.4844E-03    -26.3896E-03     90.4157E-03    -28.4196E-03     54.7854E-03    -26.4188E-03     90.2246E-03
            1569     13.1480E-03     47.0417E-03    -6.50410E+06    -39.8285E+06    -5.47485E+06     580.765E+03    -27.8142E-03     54.2827E-03    -26.4685E-03     79.7089E-03    -27.9662E-03     54.2862E-03    -26.4287E-03     79.5450E-03
            1570     12.2714E-03     46.9663E-03    -6.32534E+06    -53.8562E+06     637.261E+03     470.351E+03    -27.7600E-03     54.2862E-03    -26.5262E-03     74.6934E-03    -27.8363E-03     54.1469E-03    -26.4357E-03     74.5588E-03
            1571     11.3944E-03     46.8996E-03    -6.85122E+06    -67.1789E+06     1.70346E+06     401.733E+03    -27.5927E-03     54.1475E-03    -26.5548E-03     67.1756E-03    -27.6113E-03     53.8984E-03    -26.4390E-03     67.0675E-03
            1572     10.5184E-03     46.8384E-03    -7.88816E+06    -79.9931E+06     1.80817E+06     272.838E+03    -27.4259E-03     54.0033E-03    -26.5774E-03     61.4428E-03    -27.4052E-03     53.6653E-03    -26.4409E-03     61.3560E-03
            1573     9.64153E-03     46.7829E-03    -9.04639E+06    -86.8964E+06     4.39654E+06     299.147E+03    -27.2692E-03     53.8751E-03    -26.6059E-03     56.5706E-03    -27.2314E-03     53.4840E-03    -26.4448E-03     56.5024E-03
            1574     8.76509E-03     46.7310E-03    -10.3863E+06    -91.7676E+06     4.62428E+06     464.494E+03    -27.1426E-03     53.7643E-03    -26.6217E-03     51.6168E-03    -27.0933E-03     53.3389E-03    -26.4504E-03     51.5659E-03
            1575     7.88852E-03     46.6846E-03    -12.0121E+06    -96.3987E+06     3.57468E+06     394.886E+03    -27.0615E-03     53.6912E-03    -26.6298E-03     46.5074E-03    -27.0041E-03     53.2386E-03    -26.4547E-03     46.4676E-03
            1576     7.01197E-03     46.6425E-03    -13.8958E+06    -99.6677E+06     1.29078E+06     382.152E+03    -26.9602E-03     53.5879E-03    -26.6277E-03     41.4001E-03    -26.8986E-03     53.1194E-03    -26.4566E-03     41.3700E-03
            1577     6.13554E-03     46.6058E-03    -15.7426E+06    -101.882E+06    -2.41917E+06     513.937E+03    -26.8461E-03     53.4638E-03    -26.6176E-03     36.2599E-03    -26.7812E-03     52.9883E-03    -26.4592E-03     36.2395E-03
            1578     5.25894E-03     46.5735E-03    -17.4564E+06    -104.261E+06    -7.09707E+06     443.319E+03    -26.7723E-03     53.3757E-03    -26.6033E-03     31.0546E-03    -26.7030E-03     52.8949E-03    -26.4623E-03     31.0396E-03
            1579     4.38249E-03     46.5466E-03    -19.0882E+06    -106.505E+06    -11.5330E+06     386.108E+03    -26.7087E-03     53.2973E-03    -26.5886E-03     25.8383E-03    -26.6361E-03     52.8123E-03    -26.4642E-03     25.8277E-03
            1580     3.50596E-03     46.5243E-03    -20.4751E+06    -108.759E+06    -15.3971E+06     273.097E+03    -26.6494E-03     53.2253E-03    -26.5759E-03     20.6537E-03    -26.5735E-03     52.7353E-03    -26.4655E-03     20.6458E-03
            1581     2.62948E-03     46.5072E-03    -21.6139E+06    -110.820E+06    -18.7137E+06     103.621E+03    -26.6078E-03     53.1730E-03    -26.5653E-03     15.5068E-03    -26.5290E-03     52.6784E-03    -26.4668E-03     15.5001E-03
            1582     1.75298E-03     46.4948E-03    -22.5403E+06    -112.042E+06    -21.1210E+06     65.9771E+03    -26.5756E-03     53.1331E-03    -26.5575E-03     10.4437E-03    -26.4956E-03     52.6366E-03    -26.4680E-03     10.4394E-03
            1583     876.471E-06     46.4873E-03    -23.0163E+06    -112.467E+06    -22.6813E+06     67.3031E+03    -26.5479E-03     53.1109E-03    -26.5631E-03     5.66483E-03    -26.4671E-03     52.6150E-03    -26.4800E-03     5.66297E-03
            1584     16.6619E-03     46.5628E-03    -4.60187E+06     146.564E+06     68.4314E+06     198.936E+03    -29.1702E-03     55.6889E-03    -26.5187E-03     147.220E-03    -32.4104E-03     59.2347E-03    -26.3824E-03     148.734E-03
            1585     15.7772E-03     46.3551E-03    -7.61801E+06     108.786E+06     5.40837E+06     330.591E+03    -32.0014E-03     58.3002E-03    -26.2988E-03     181.541E-03    -35.0938E-03     61.7358E-03    -26.4185E-03     182.074E-03
            1586     14.9009E-03     46.2134E-03    -7.64926E+06     45.4718E+06    -16.6213E+06     155.401E+03    -29.9059E-03     56.1954E-03    -26.2895E-03     125.566E-03    -30.8166E-03     57.2885E-03    -26.4274E-03     125.385E-03
            1587     14.0243E-03     46.1179E-03    -6.69321E+06    -7.45456E+06    -9.56229E+06     86.8236E+03    -28.2230E-03     54.6229E-03    -26.3999E-03     90.2772E-03    -28.5468E-03     54.9241E-03    -26.4272E-03     90.0796E-03
            1588     13.1476E-03     46.0416E-03    -6.41863E+06    -39.9985E+06    -5.63807E+06     81.1154E+03    -27.9191E-03     54.3875E-03    -26.4684E-03     79.3551E-03    -28.0700E-03     54.3899E-03    -26.4293E-03     79.1842E-03
            1589     12.2712E-03     45.9670E-03    -6.69644E+06    -54.6366E+06    -1.61338E+03     286.422E+03    -27.8506E-03     54.3684E-03    -26.5178E-03     74.6859E-03    -27.9269E-03     54.2270E-03    -26.4289E-03     74.5483E-03
            1590     11.3952E-03     45.8997E-03    -7.21707E+06    -66.7891E+06     1.74859E+06     526.797E+03    -27.5860E-03     54.1303E-03    -26.5443E-03     67.0840E-03    -27.6071E-03     53.8836E-03    -26.4282E-03     66.9775E-03
            1591     10.5181E-03     45.8394E-03    -7.86875E+06    -79.9113E+06     1.67117E+06     493.064E+03    -27.3846E-03     53.9513E-03    -26.5667E-03     61.3973E-03    -27.3636E-03     53.6139E-03    -26.4311E-03     61.3135E-03
            1592     9.64179E-03     45.7829E-03    -9.02419E+06    -87.2240E+06     4.28052E+06     284.751E+03    -27.2903E-03     53.8861E-03    -26.5958E-03     56.5425E-03    -27.2519E-03     53.4936E-03    -26.4348E-03     56.4740E-03
            1593     8.76517E-03     45.7319E-03    -10.4845E+06    -91.7511E+06     4.62025E+06     441.843E+03    -27.1728E-03     53.7809E-03    -26.6081E-03     51.5651E-03    -27.1240E-03     53.3558E-03    -26.4367E-03     51.5137E-03
            1594     7.88860E-03     45.6847E-03    -12.1274E+06    -96.5533E+06     3.38859E+06     411.056E+03    -27.0350E-03     53.6488E-03    -26.6138E-03     46.4905E-03    -26.9776E-03     53.1958E-03    -26.4393E-03     46.4510E-03
            1595     7.01216E-03     45.6432E-03    -13.9064E+06    -99.7546E+06     1.23574E+06     405.322E+03    -26.9322E-03     53.5459E-03    -26.6136E-03     41.3727E-03    -26.8704E-03     53.0770E-03    -26.4426E-03     41.3430E-03
            1596     6.13553E-03     45.6060E-03    -15.7627E+06    -102.000E+06    -2.66992E+06     389.418E+03    -26.8524E-03     53.4544E-03    -26.6020E-03     36.2616E-03    -26.7871E-03     52.9787E-03    -26.4446E-03     36.2397E-03
            1597     5.25910E-03     45.5742E-03    -17.4911E+06    -104.219E+06    -6.95354E+06     408.986E+03    -26.7699E-03     53.3566E-03    -26.5867E-03     31.0305E-03    -26.7010E-03     52.8758E-03    -26.4450E-03     31.0152E-03
            1598     4.38252E-03     45.5469E-03    -19.0520E+06    -106.441E+06    -11.2732E+06     361.016E+03    -26.6921E-03     53.2629E-03    -26.5708E-03     25.8151E-03    -26.6197E-03     52.7777E-03    -26.4452E-03     25.8042E-03
            1599     3.50607E-03     45.5250E-03    -20.4351E+06    -108.697E+06    -15.2773E+06     305.061E+03    -26.6326E-03     53.1893E-03    -26.5567E-03     20.6356E-03    -26.5567E-03     52.6994E-03    -26.4459E-03     20.6281E-03
            1600     2.62950E-03     45.5076E-03    -21.6589E+06    -110.715E+06    -18.7090E+06     253.553E+03    -26.5878E-03     53.1328E-03    -26.5450E-03     15.4945E-03    -26.5094E-03     52.6387E-03    -26.4466E-03     15.4897E-03
            1601     1.75304E-03     45.4954E-03    -22.5196E+06    -112.040E+06    -21.1875E+06     100.595E+03    -26.5594E-03     53.0950E-03    -26.5356E-03     10.4286E-03    -26.4792E-03     52.5986E-03    -26.4464E-03     10.4247E-03
            1602     876.498E-06     45.4878E-03    -23.0485E+06    -112.492E+06    -22.6673E+06     76.9050E+03    -26.5384E-03     53.0651E-03    -26.5267E-03     5.65802E-03    -26.4578E-03     52.5691E-03    -26.4435E-03     5.65629E-03
            1603     16.6452E-03     45.5573E-03    -4.90908E+06     146.459E+06     68.9242E+06     465.411E+03    -29.2261E-03     55.7816E-03    -26.5556E-03     147.189E-03    -32.4749E-03     59.3331E-03    -26.4162E-03     148.691E-03
            1604     15.7773E-03     45.3560E-03    -7.47568E+06     108.724E+06     6.68961E+06    -190.519E+03    -32.5057E-03     58.8250E-03    -26.3192E-03     179.969E-03    -35.5827E-03     62.2416E-03    -26.4326E-03     180.454E-03
            1605     14.9003E-03     45.2130E-03    -7.01635E+06     45.0475E+06    -16.0845E+06    -293.574E+03    -29.8497E-03     56.1376E-03    -26.2879E-03     124.359E-03    -30.7485E-03     57.2181E-03    -26.4235E-03     124.172E-03
            1606     14.0247E-03     45.1178E-03    -6.36158E+06     -7.6921E+06    -9.48779E+06    -7.95990E+03    -28.3638E-03     54.7538E-03    -26.3900E-03     89.7038E-03    -28.6862E-03     55.0538E-03    -26.4170E-03     89.5035E-03
            1607     13.1483E-03     45.0425E-03    -6.37379E+06    -40.0318E+06    -5.46852E+06     194.918E+03    -27.9060E-03     54.3591E-03    -26.4531E-03     79.0961E-03    -28.0567E-03     54.3609E-03    -26.4132E-03     78.9265E-03
            1608     12.2715E-03     44.9669E-03    -6.99807E+06    -55.1047E+06    -415.574E+03     228.924E+03    -27.7112E-03     54.2159E-03    -26.5048E-03     74.6701E-03    -27.7874E-03     54.0729E-03    -26.4168E-03     74.5328E-03
            1609     11.3947E-03     44.9003E-03    -7.44958E+06    -66.9917E+06     1.75213E+06     410.050E+03    -27.5608E-03     54.0990E-03    -26.5381E-03     67.1384E-03    -27.5827E-03     53.8515E-03    -26.4214E-03     67.0305E-03
            1610     10.5186E-03     44.8397E-03    -8.15982E+06    -79.5285E+06     1.89921E+06     552.849E+03    -27.4474E-03     54.0060E-03    -26.5586E-03     61.4137E-03    -27.4290E-03     53.6708E-03    -26.4219E-03     61.3302E-03
            1611     9.64173E-03     44.7836E-03    -9.21919E+06    -87.4058E+06     3.97297E+06     350.700E+03    -27.3069E-03     53.8881E-03    -26.5812E-03     56.5444E-03    -27.2686E-03     53.4953E-03    -26.4212E-03     56.4767E-03
            1612     8.76536E-03     44.7320E-03    -10.4864E+06    -91.9869E+06     4.75665E+06     371.144E+03    -27.1624E-03     53.7562E-03    -26.5938E-03     51.5119E-03    -27.1135E-03     53.3297E-03    -26.4214E-03     51.4597E-03
            1613     7.88887E-03     44.6855E-03    -12.1054E+06    -96.4559E+06     3.45736E+06     461.258E+03    -27.0117E-03     53.6106E-03    -26.5988E-03     46.5199E-03    -26.9545E-03     53.1579E-03    -26.4241E-03     46.4812E-03
            1614     7.01212E-03     44.6435E-03    -13.9010E+06    -99.9602E+06     948.761E+03     332.002E+03    -26.9309E-03     53.5280E-03    -26.5970E-03     41.4030E-03    -26.8684E-03     53.0584E-03    -26.4272E-03     41.3724E-03
            1615     6.13572E-03     44.6067E-03    -15.6965E+06    -102.005E+06    -2.78863E+06     425.948E+03    -26.8592E-03     53.4425E-03    -26.5833E-03     36.1994E-03    -26.7934E-03     52.9669E-03    -26.4265E-03     36.1779E-03
            1616     5.25914E-03     44.5745E-03    -17.5026E+06    -104.211E+06    -7.21184E+06     329.556E+03    -26.7560E-03     53.3209E-03    -26.5649E-03     30.9815E-03    -26.6868E-03     52.8406E-03    -26.4245E-03     30.9651E-03
            1617     4.38269E-03     44.5476E-03    -19.1033E+06    -106.411E+06    -11.4443E+06     297.397E+03    -26.6741E-03     53.2226E-03    -26.5485E-03     25.7885E-03    -26.6018E-03     52.7379E-03    -26.4237E-03     25.7768E-03
            1618     3.50607E-03     44.5254E-03    -20.4927E+06    -108.718E+06    -15.2558E+06     310.672E+03    -26.6147E-03     53.1491E-03    -26.5345E-03     20.6047E-03    -26.5392E-03     52.6592E-03    -26.4234E-03     20.5973E-03
            1619     2.62964E-03     44.5083E-03    -21.5927E+06    -110.577E+06    -18.4602E+06     275.051E+03    -26.5680E-03     53.0901E-03    -26.5221E-03     15.4695E-03    -26.4898E-03     52.5962E-03    -26.4227E-03     15.4650E-03
            1620     1.75302E-03     44.4959E-03    -22.4691E+06    -111.941E+06    -21.0708E+06     180.679E+03    -26.5353E-03     53.0463E-03    -26.5110E-03     10.4150E-03    -26.4552E-03     52.5501E-03    -26.4215E-03     10.4122E-03
            1621     876.582E-06     44.4884E-03    -23.0401E+06    -112.436E+06    -22.6636E+06     62.8649E+03    -26.5197E-03     53.0147E-03    -26.4950E-03     5.64660E-03    -26.4391E-03     52.5189E-03    -26.4119E-03     5.64468E-03
            1622     16.6622E-03     44.5605E-03    -4.11497E+06     146.856E+06     69.8818E+06     622.659E+03    -29.7619E-03     56.2621E-03    -26.5002E-03     146.404E-03    -32.9678E-03     59.7720E-03    -26.3577E-03     147.898E-03
            1623     15.7782E-03     44.3555E-03    -5.59748E+06     109.597E+06     7.83406E+06     206.424E+03    -31.8700E-03     58.1268E-03    -26.2568E-03     178.374E-03    -34.8871E-03     61.4900E-03    -26.3684E-03     178.883E-03
            1624     14.9025E-03     44.2139E-03    -6.42497E+06     45.0259E+06    -15.8724E+06    -238.985E+03    -29.4170E-03     55.6650E-03    -26.2480E-03     124.381E-03    -30.3137E-03     56.7447E-03    -26.3833E-03     124.204E-03
            1625     14.0246E-03     44.1181E-03    -6.34962E+06    -8.62004E+06    -9.75838E+06     207.525E+03    -28.0626E-03     54.4331E-03    -26.3704E-03     89.8789E-03    -28.3825E-03     54.7281E-03    -26.3975E-03     89.6845E-03
            1626     13.1483E-03     44.0426E-03    -6.64660E+06    -40.4711E+06    -5.52975E+06     480.632E+03    -27.8370E-03     54.2827E-03    -26.4458E-03     79.3525E-03    -27.9890E-03     54.2835E-03    -26.4051E-03     79.1867E-03
            1627     12.2717E-03     43.9682E-03    -6.84666E+06    -54.3026E+06     180.132E+03     401.825E+03    -27.7075E-03     54.2083E-03    -26.5008E-03     74.8712E-03    -27.7853E-03     54.0685E-03    -26.4112E-03     74.7359E-03
            1628     11.3950E-03     43.9005E-03    -7.63253E+06    -67.7721E+06     1.32418E+06     275.012E+03    -27.5465E-03     54.0791E-03    -26.5326E-03     67.2768E-03    -27.5675E-03     53.8285E-03    -26.4166E-03     67.1674E-03
            1629     10.5183E-03     43.8402E-03    -8.40103E+06    -79.8006E+06     1.94556E+06     386.152E+03    -27.5242E-03     54.0759E-03    -26.5517E-03     61.3491E-03    -27.5069E-03     53.7398E-03    -26.4141E-03     61.2630E-03
            1630     9.64215E-03     43.7840E-03    -9.22713E+06    -86.8802E+06     4.11912E+06     456.876E+03    -27.3185E-03     53.8869E-03    -26.5684E-03     56.5038E-03    -27.2812E-03     53.4965E-03    -26.4085E-03     56.4376E-03
            1631     8.76544E-03     43.7326E-03    -10.6149E+06    -92.3536E+06     4.34669E+06     305.356E+03    -27.1204E-03     53.7005E-03    -26.5801E-03     51.5518E-03    -27.0709E-03     53.2729E-03    -26.4091E-03     51.4990E-03
            1632     7.88874E-03     43.6860E-03    -12.1210E+06    -96.4045E+06     3.45246E+06     414.764E+03    -27.0522E-03     53.6372E-03    -26.5849E-03     46.5187E-03    -26.9951E-03     53.1848E-03    -26.4103E-03     46.4794E-03
            1633     7.01239E-03     43.6441E-03    -13.9227E+06    -99.8342E+06     802.038E+03     396.459E+03    -26.9649E-03     53.5408E-03    -26.5758E-03     41.3491E-03    -26.9024E-03     53.0721E-03    -26.4069E-03     41.3194E-03
            1634     6.13583E-03     43.6071E-03    -15.7657E+06    -102.112E+06    -3.00356E+06     300.912E+03    -26.8359E-03     53.3944E-03    -26.5585E-03     36.1256E-03    -26.7698E-03     52.9186E-03    -26.4026E-03     36.1025E-03
            1635     5.25933E-03     43.5752E-03    -17.4412E+06    -104.159E+06    -7.31908E+06     379.937E+03    -26.7366E-03     53.2763E-03    -26.5397E-03     30.9362E-03    -26.6670E-03     52.7963E-03    -26.4000E-03     30.9206E-03
            1636     4.38271E-03     43.5481E-03    -19.0818E+06    -106.440E+06    -11.6310E+06     312.020E+03    -26.6605E-03     53.1818E-03    -26.5213E-03     25.7324E-03    -26.5877E-03     52.6972E-03    -26.3975E-03     25.7209E-03
            1637     3.50627E-03     43.5261E-03    -20.4865E+06    -108.648E+06    -15.2341E+06     233.441E+03    -26.5912E-03     53.0974E-03    -26.5062E-03     20.5636E-03    -26.5158E-03     52.6078E-03    -26.3951E-03     20.5552E-03
            1638     2.62961E-03     43.5088E-03    -21.6296E+06    -110.595E+06    -18.4742E+06     193.267E+03    -26.5416E-03     53.0342E-03    -26.4926E-03     15.4370E-03    -26.4636E-03     52.5403E-03    -26.3932E-03     15.4314E-03
            1639     1.75318E-03     43.4966E-03    -22.4703E+06    -111.809E+06    -21.0092E+06     190.952E+03    -26.5021E-03     52.9840E-03    -26.4819E-03     10.3920E-03    -26.4223E-03     52.4885E-03    -26.3922E-03     10.3893E-03
            1640     876.481E-06     43.4890E-03    -23.0441E+06    -112.290E+06    -22.6975E+06     80.2260E+03    -26.4896E-03     52.9573E-03    -26.4678E-03     5.63555E-03    -26.4092E-03     52.4624E-03    -26.3850E-03     5.63385E-03
            1641     16.6508E-03     43.5571E-03    -4.85434E+06     145.902E+06     69.2041E+06    -361.472E+03    -29.9753E-03     56.4075E-03    -26.4321E-03     146.273E-03    -33.1824E-03     59.9146E-03    -26.2906E-03     147.761E-03
            1642     15.7804E-03     43.3584E-03    -5.92072E+06     109.765E+06     7.38725E+06     481.802E+03    -31.0653E-03     57.2744E-03    -26.2092E-03     180.669E-03    -34.1120E-03     60.6681E-03    -26.3228E-03     181.241E-03
            1643     14.9011E-03     43.2137E-03    -6.44932E+06     45.5594E+06    -16.4494E+06     813.588E+03    -29.2200E-03     55.4533E-03    -26.2333E-03     125.693E-03    -30.1231E-03     56.5429E-03    -26.3723E-03     125.533E-03
            1644     14.0254E-03     43.1194E-03    -6.98965E+06    -9.12123E+06    -10.3919E+06     468.000E+03    -27.9183E-03     54.2897E-03    -26.3715E-03     90.5426E-03    -28.2398E-03     54.5842E-03    -26.4001E-03     90.3529E-03
            1645     13.1478E-03     43.0430E-03    -6.69292E+06    -40.6075E+06    -5.65257E+06     367.052E+03    -27.8317E-03     54.2861E-03    -26.4544E-03     79.6446E-03    -27.9837E-03     54.2866E-03    -26.4141E-03     79.4774E-03
            1646     12.2715E-03     42.9683E-03    -6.91967E+06    -54.0148E+06     237.502E+03     355.999E+03    -27.8923E-03     54.3963E-03    -26.5040E-03     74.8024E-03    -27.9713E-03     54.2583E-03    -26.4144E-03     74.6653E-03
            1647     11.3949E-03     42.9014E-03    -7.41510E+06    -67.8267E+06     1.11165E+06     346.209E+03    -27.6496E-03     54.1733E-03    -26.5236E-03     67.2529E-03    -27.6692E-03     53.9225E-03    -26.4090E-03     67.1440E-03
            1648     10.5187E-03     42.8402E-03    -8.11682E+06    -80.3891E+06     1.71134E+06     319.893E+03    -27.4362E-03     53.9788E-03    -26.5426E-03     61.3746E-03    -27.4158E-03     53.6392E-03    -26.4057E-03     61.2883E-03
            1649     9.64202E-03     42.7846E-03    -9.16693E+06    -86.5244E+06     4.37961E+06     512.706E+03    -27.3358E-03     53.8990E-03    -26.5631E-03     56.5033E-03    -27.2992E-03     53.5099E-03    -26.4025E-03     56.4377E-03
            1650     8.76545E-03     42.7332E-03    -10.6145E+06    -92.2041E+06     4.04375E+06        311.E+03    -27.2284E-03     53.7935E-03    -26.5652E-03     51.4830E-03    -27.1787E-03     53.3671E-03    -26.3958E-03     51.4299E-03
            1651     7.88908E-03     42.6865E-03    -12.3724E+06    -96.8215E+06     3.11938E+06     292.977E+03    -27.0886E-03     53.6500E-03    -26.5614E-03     46.3847E-03    -27.0317E-03     53.1964E-03    -26.3875E-03     46.3437E-03
            1652     7.01255E-03     42.6445E-03    -14.0181E+06    -99.7300E+06     882.251E+03     429.383E+03    -26.9418E-03     53.4913E-03    -26.5495E-03     41.2573E-03    -26.8800E-03     53.0231E-03    -26.3801E-03     41.2280E-03
            1653     6.13602E-03     42.6078E-03    -15.8409E+06    -102.189E+06    -3.27749E+06     293.465E+03    -26.8227E-03     53.3518E-03    -26.5291E-03     36.0693E-03    -26.7565E-03     52.8761E-03    -26.3743E-03     36.0462E-03
            1654     5.25942E-03     42.5757E-03    -17.5907E+06    -104.257E+06    -7.49516E+06     313.922E+03    -26.7248E-03     53.2328E-03    -26.5080E-03     30.8611E-03    -26.6556E-03     52.7528E-03    -26.3688E-03     30.8446E-03
            1655     4.38296E-03     42.5488E-03    -19.0842E+06    -106.354E+06    -11.5848E+06     325.163E+03    -26.6340E-03     53.1217E-03    -26.4877E-03     25.6616E-03    -26.5614E-03     52.6374E-03    -26.3637E-03     25.6503E-03
            1656     3.50628E-03     42.5266E-03    -20.4803E+06    -108.643E+06    -15.3517E+06     237.652E+03    -26.5624E-03     53.0325E-03    -26.4701E-03     20.5106E-03    -26.4867E-03     52.5430E-03    -26.3597E-03     20.5023E-03
            1657     2.62983E-03     42.5096E-03    -21.6667E+06    -110.586E+06    -18.6199E+06     185.101E+03    -26.5052E-03     52.9607E-03    -26.4555E-03     15.3960E-03    -26.4271E-03     52.4671E-03    -26.3568E-03     15.3904E-03
            1658     1.75310E-03     42.4972E-03    -22.6062E+06    -111.771E+06    -21.2135E+06     151.774E+03    -26.4684E-03     52.9119E-03    -26.4435E-03     10.3614E-03    -26.3890E-03     52.4170E-03    -26.3547E-03     10.3582E-03
            1659     876.674E-06     42.4897E-03    -23.1475E+06    -112.155E+06    -22.7847E+06     123.921E+03    -26.4410E-03     52.8789E-03    -26.4380E-03     5.62390E-03    -26.3612E-03     52.3849E-03    -26.3557E-03     5.62279E-03
            1660     16.6642E-03     42.5660E-03    -4.63753E+06     145.397E+06     68.0126E+06    -338.501E+03    -29.6043E-03     56.0909E-03    -26.4866E-03     147.166E-03    -32.8425E-03     59.6317E-03    -26.3507E-03     148.652E-03
            1661     15.7768E-03     42.3573E-03    -7.86283E+06     108.457E+06     5.05062E+06     415.453E+03    -31.8726E-03     58.1334E-03    -26.2609E-03     182.694E-03    -34.9745E-03     61.5774E-03    -26.3815E-03     183.228E-03
            1662     14.9022E-03     42.2158E-03    -7.69747E+06     45.4933E+06    -16.7249E+06     806.512E+03    -29.5551E-03     55.8233E-03    -26.2682E-03     126.066E-03    -30.4646E-03     56.9154E-03    -26.4066E-03     125.899E-03
            1663     14.0237E-03     42.1192E-03    -6.70328E+06    -8.50946E+06    -10.1172E+06     515.379E+03    -28.1688E-03     54.5594E-03    -26.3906E-03     90.6969E-03    -28.4911E-03     54.8571E-03    -26.4191E-03     90.5052E-03
            1664     13.1482E-03     42.0437E-03    -6.63457E+06    -40.5180E+06    -6.01862E+06     225.325E+03    -28.0201E-03     54.4784E-03    -26.4583E-03     79.5914E-03    -28.1715E-03     54.4799E-03    -26.4200E-03     79.4212E-03
            1665     12.2714E-03     41.9684E-03    -6.88751E+06    -54.5168E+06    -174.586E+03     258.232E+03    -27.9812E-03     54.4803E-03    -26.4991E-03     74.6653E-03    -28.0585E-03     54.3401E-03    -26.4109E-03     74.5265E-03
            1666     11.3955E-03     41.9014E-03    -7.49308E+06    -67.3685E+06     1.33168E+06     338.399E+03    -27.6744E-03     54.1900E-03    -26.5156E-03     67.0316E-03    -27.6953E-03     53.9412E-03    -26.4004E-03     66.9225E-03
            1667     10.5185E-03     41.8412E-03    -8.15503E+06    -80.4098E+06     1.33866E+06     430.794E+03    -27.4256E-03     53.9561E-03    -26.5305E-03     61.3349E-03    -27.4046E-03     53.6168E-03    -26.3954E-03     61.2505E-03
            1668     9.64190E-03     41.7848E-03    -9.30332E+06    -87.2922E+06     3.96833E+06     408.908E+03    -27.3794E-03     53.9288E-03    -26.5494E-03     56.3699E-03    -27.3417E-03     53.5366E-03    -26.3895E-03     56.3029E-03
            1669     8.76583E-03     41.7335E-03    -10.6258E+06    -91.7500E+06     4.37330E+06     530.663E+03    -27.3083E-03     53.8535E-03    -26.5452E-03     51.3184E-03    -27.2599E-03     53.4289E-03    -26.3748E-03     51.2678E-03
            1670     7.88935E-03     41.6870E-03    -12.2417E+06    -96.6147E+06     3.01217E+06     332.354E+03    -27.1023E-03     53.6340E-03    -26.5316E-03     46.3175E-03    -27.0448E-03     53.1813E-03    -26.3587E-03     46.2771E-03
            1671     7.01273E-03     41.6452E-03    -14.1401E+06    -100.025E+06     761.934E+03     320.409E+03    -26.9279E-03     53.4450E-03    -26.5170E-03     41.1712E-03    -26.8661E-03     52.9756E-03    -26.3477E-03     41.1406E-03
            1672     6.13619E-03     41.6083E-03    -15.8814E+06    -102.119E+06    -3.13949E+06     387.510E+03    -26.8164E-03     53.3101E-03    -26.4937E-03     35.9568E-03    -26.7507E-03     52.8346E-03    -26.3383E-03     35.9350E-03
            1673     5.25973E-03     41.5764E-03    -17.6420E+06    -104.350E+06    -7.62887E+06     268.917E+03    -26.7010E-03     53.1687E-03    -26.4677E-03     30.7598E-03    -26.6316E-03     52.6884E-03    -26.3290E-03     30.7428E-03
            1674     4.38303E-03     41.5494E-03    -19.2188E+06    -106.396E+06    -11.7420E+06     273.942E+03    -26.5994E-03     53.0444E-03    -26.4450E-03     25.5888E-03    -26.5272E-03     52.5603E-03    -26.3215E-03     25.5769E-03
            1675     3.50656E-03     41.5274E-03    -20.5635E+06    -108.575E+06    -15.4947E+06     253.990E+03    -26.5229E-03     52.9486E-03    -26.4257E-03     20.4420E-03    -26.4476E-03     52.4598E-03    -26.3159E-03     20.4339E-03
            1676     2.62981E-03     41.5103E-03    -21.7181E+06    -110.571E+06    -18.7188E+06     218.896E+03    -26.4650E-03     52.8747E-03    -26.4097E-03     15.3459E-03    -26.3871E-03     52.3814E-03    -26.3114E-03     15.3408E-03
            1677     1.75334E-03     41.4980E-03    -22.5351E+06    -111.715E+06    -21.1464E+06     144.994E+03    -26.4254E-03     52.8216E-03    -26.3961E-03     10.3286E-03    -26.3459E-03     52.3268E-03    -26.3072E-03     10.3253E-03
            1678     876.551E-06     41.4905E-03    -23.0517E+06    -112.115E+06    -22.6664E+06     42.1497E+03    -26.3889E-03     52.7822E-03    -26.3934E-03     5.59058E-03    -26.3088E-03     52.2881E-03    -26.3107E-03     5.58843E-03
            1679     16.6425E-03     41.5578E-03    -4.96975E+06     145.283E+06     68.6331E+06      67.087E+03    -29.1634E-03     55.7464E-03    -26.5830E-03     147.537E-03    -32.4037E-03     59.2859E-03    -26.4433E-03     149.034E-03
            1680     15.7783E-03     41.3588E-03    -7.55517E+06     107.709E+06     6.43432E+06     13.7605E+03    -32.9318E-03     59.2698E-03    -26.3380E-03     180.179E-03    -35.9951E-03     62.6694E-03    -26.4510E-03     180.642E-03
            1681     14.8995E-03     41.2150E-03    -7.04816E+06     45.0471E+06    -16.1809E+06     240.448E+03    -29.9384E-03     56.2330E-03    -26.2946E-03     125.279E-03    -30.8441E-03     57.3205E-03    -26.4306E-03     125.099E-03
            1682     14.0252E-03     41.1201E-03    -6.54583E+06    -8.10224E+06    -9.90580E+06     448.421E+03    -28.4339E-03     54.8278E-03    -26.3939E-03     90.1844E-03    -28.7569E-03     55.1276E-03    -26.4222E-03     89.9892E-03
            1683     13.1477E-03     41.0436E-03    -6.59905E+06    -40.4626E+06    -5.90305E+06     364.837E+03    -28.0728E-03     54.5234E-03    -26.4506E-03     79.4126E-03    -28.2242E-03     54.5249E-03    -26.4118E-03     79.2437E-03
            1684     12.2720E-03     40.9687E-03    -6.95537E+06    -54.7945E+06    -401.572E+03     322.146E+03    -27.9299E-03     54.4193E-03    -26.4895E-03     74.6550E-03    -28.0065E-03     54.2779E-03    -26.4019E-03     74.5175E-03
            1685     11.3949E-03     40.9019E-03    -7.59061E+06    -67.7753E+06     1.18007E+06     325.126E+03    -27.7280E-03     54.2335E-03    -26.5055E-03     66.9028E-03    -27.7485E-03     53.9831E-03    -26.3903E-03     66.7932E-03
            1686     10.5189E-03     40.8415E-03    -8.45608E+06    -80.0677E+06     1.43847E+06     409.628E+03    -27.6032E-03     54.1128E-03    -26.5096E-03     61.0521E-03    -27.5847E-03     53.7758E-03    -26.3740E-03     60.9664E-03
            1687     9.64265E-03     40.7853E-03    -9.38771E+06    -87.3777E+06     3.72779E+06     426.243E+03    -27.3839E-03     53.9003E-03    -26.5164E-03     56.2178E-03    -27.3459E-03     53.5080E-03    -26.3575E-03     56.1513E-03
            1688     8.76584E-03     40.7339E-03    -10.5910E+06    -92.2338E+06     4.28472E+06     446.810E+03    -27.2207E-03     53.7348E-03    -26.5141E-03     51.1788E-03    -27.1710E-03     53.3077E-03    -26.3436E-03     51.1276E-03
            1689     7.88945E-03     40.6875E-03    -12.0235E+06    -96.2188E+06     3.29740E+06     546.441E+03    -27.1253E-03     53.6256E-03    -26.5003E-03     46.1371E-03    -27.0677E-03     53.1742E-03    -26.3269E-03     46.0993E-03
            1690     7.01309E-03     40.6458E-03    -13.9648E+06    -99.9781E+06     809.171E+03     335.144E+03    -26.9666E-03     53.4434E-03    -26.4768E-03     41.0168E-03    -26.9040E-03     52.9740E-03    -26.3075E-03     40.9864E-03
            1691     6.13654E-03     40.6089E-03    -15.9136E+06    -102.131E+06    -3.13052E+06     357.078E+03    -26.7856E-03     53.2328E-03    -26.4472E-03     35.8327E-03    -26.7200E-03     52.7572E-03    -26.2917E-03     35.8106E-03
            1692     5.25987E-03     40.5771E-03    -17.6262E+06    -104.306E+06    -7.68726E+06     325.488E+03    -26.6625E-03     53.0809E-03    -26.4185E-03     30.6507E-03    -26.5930E-03     52.6009E-03    -26.2801E-03     30.6345E-03
            1693     4.38338E-03     40.5502E-03    -19.2050E+06    -106.425E+06    -11.8611E+06     231.063E+03    -26.5625E-03     52.9555E-03    -26.3930E-03     25.4957E-03    -26.4900E-03     52.4714E-03    -26.2701E-03     25.4833E-03
            1694     3.50661E-03     40.5282E-03    -20.5621E+06    -108.578E+06    -15.4835E+06     234.631E+03    -26.4775E-03     52.8490E-03    -26.3715E-03     20.3621E-03    -26.4022E-03     52.3602E-03    -26.2617E-03     20.3538E-03
            1695     2.63010E-03     40.5111E-03    -21.6702E+06    -110.500E+06    -18.5853E+06     184.341E+03    -26.4155E-03     52.7690E-03    -26.3534E-03     15.2830E-03    -26.3376E-03     52.2758E-03    -26.2547E-03     15.2774E-03
            1696     1.75329E-03     40.4989E-03    -22.5121E+06    -111.698E+06    -21.0742E+06     116.053E+03    -26.3672E-03     52.7056E-03    -26.3384E-03     10.2853E-03    -26.2877E-03     52.2108E-03    -26.2492E-03     10.2817E-03
            1697     876.770E-06     40.4913E-03    -23.0153E+06    -112.086E+06    -22.7131E+06     56.8237E+03    -26.3343E-03     52.6659E-03    -26.3316E-03     5.56073E-03    -26.2541E-03     52.1720E-03    -26.2493E-03     5.55878E-03
            1698     16.6620E-03     40.5589E-03    -4.07336E+06     145.587E+06     68.9005E+06     579.381E+03    -29.1917E-03     55.7205E-03    -26.5288E-03     146.309E-03    -32.3938E-03     59.2252E-03    -26.3895E-03     147.830E-03
            1699     15.7760E-03     40.3580E-03    -6.89466E+06     107.271E+06     6.47908E+06    -286.950E+03    -31.8049E-03     58.1078E-03    -26.3030E-03     177.798E-03    -34.8193E-03     61.4595E-03    -26.4161E-03     178.316E-03
            1700     14.9023E-03     40.2155E-03    -7.38473E+06     44.5010E+06    -16.3181E+06     45.0350E+03    -29.8858E-03     56.1707E-03    -26.2849E-03     124.839E-03    -30.7924E-03     57.2564E-03    -26.4203E-03     124.657E-03
            1701     14.0240E-03     40.1199E-03     -6.9811E+06    -8.27151E+06    -10.2157E+06     341.369E+03    -28.4699E-03     54.8515E-03    -26.3816E-03     90.2030E-03    -28.7955E-03     55.1526E-03    -26.4106E-03     90.0057E-03
            1702     13.1488E-03     40.0440E-03    -6.55644E+06    -40.4238E+06    -5.83211E+06     387.120E+03    -28.1232E-03     54.5584E-03    -26.4352E-03     79.2323E-03    -28.2745E-03     54.5598E-03    -26.3963E-03     79.0631E-03
            1703     12.2714E-03     39.9692E-03    -6.81362E+06    -54.9787E+06    -378.630E+03     508.308E+03    -27.9205E-03     54.3914E-03    -26.4709E-03     74.3598E-03    -27.9957E-03     54.2484E-03    -26.3832E-03     74.2249E-03
            1704     11.3956E-03     39.9021E-03    -7.55456E+06    -67.7327E+06     1.32856E+06     415.960E+03    -27.7936E-03     54.2767E-03    -26.4830E-03     66.6970E-03    -27.8141E-03     54.0260E-03    -26.3672E-03     66.5883E-03
            1705     10.5193E-03     39.8417E-03    -8.30647E+06    -79.9175E+06     1.74016E+06     450.565E+03    -27.6560E-03     54.1361E-03    -26.4802E-03     60.9105E-03    -27.6373E-03     53.7993E-03    -26.3436E-03     60.8250E-03
            1706     9.64275E-03     39.7859E-03    -9.33283E+06    -87.1888E+06     3.75469E+06     432.529E+03    -27.4218E-03     53.9003E-03    -26.4785E-03     56.1218E-03    -27.3837E-03     53.5087E-03    -26.3198E-03     56.0554E-03
            1707     8.76645E-03     39.7345E-03    -10.7430E+06    -92.4038E+06     3.91423E+06     310.432E+03    -27.2309E-03     53.6995E-03    -26.4687E-03     51.0523E-03    -27.1811E-03     53.2722E-03    -26.2995E-03     50.9995E-03
            1708     7.88987E-03     39.6880E-03    -12.3374E+06    -96.7380E+06     3.16666E+06     480.563E+03    -27.0907E-03     53.5435E-03    -26.4528E-03     45.8998E-03    -27.0336E-03     53.0900E-03    -26.2788E-03     45.8614E-03
            1709     7.01338E-03     39.6463E-03    -13.9600E+06    -99.8577E+06     799.313E+03     542.811E+03    -26.9354E-03     53.3612E-03    -26.4259E-03     40.8010E-03    -26.8728E-03     52.8923E-03    -26.2568E-03     40.7733E-03
            1710     6.13684E-03     39.6098E-03    -15.8534E+06    -102.143E+06    -3.23503E+06     336.778E+03    -26.7670E-03     53.1586E-03    -26.3917E-03     35.6847E-03    -26.7009E-03     52.6830E-03    -26.2368E-03     35.6624E-03
            1711     5.26028E-03     39.5779E-03    -17.5869E+06    -104.195E+06    -7.57079E+06     315.699E+03    -26.6215E-03     52.9809E-03    -26.3594E-03     30.5331E-03    -26.5521E-03     52.5012E-03    -26.2207E-03     30.5170E-03
            1712     4.38353E-03     39.5511E-03    -19.1850E+06    -106.435E+06    -11.9031E+06     260.384E+03    -26.5163E-03     52.8461E-03    -26.3298E-03     25.3748E-03    -26.4436E-03     52.3620E-03    -26.2071E-03     25.3630E-03
            1713     3.50697E-03     39.5291E-03    -20.5828E+06    -108.554E+06    -15.5225E+06     211.558E+03    -26.4263E-03     52.7308E-03    -26.3045E-03     20.2658E-03    -26.3510E-03     52.2421E-03    -26.1948E-03     20.2574E-03
            1714     2.63015E-03     39.5121E-03    -21.7208E+06    -110.473E+06    -18.6838E+06     148.627E+03    -26.3508E-03     52.6338E-03    -26.2830E-03     15.2015E-03    -26.2731E-03     52.1410E-03    -26.1847E-03     15.1956E-03
            1715     1.75356E-03     39.4999E-03    -22.5611E+06    -111.726E+06    -21.1497E+06     92.8114E+03    -26.2966E-03     52.5634E-03    -26.2669E-03     10.2309E-03    -26.2171E-03     52.0686E-03    -26.1779E-03     10.2271E-03
            1716     876.659E-06     39.4924E-03    -23.1042E+06    -112.072E+06    -22.6753E+06     88.3978E+03    -26.2655E-03     52.5226E-03    -26.2570E-03     5.53564E-03    -26.1858E-03     52.0287E-03    -26.1744E-03     5.53411E-03
            1717     16.6519E-03     39.5633E-03    -3.96091E+06     145.367E+06     68.5423E+06     482.640E+03    -29.5711E-03     56.0467E-03    -26.4756E-03     148.555E-03    -32.8213E-03     59.6001E-03    -26.3379E-03     150.077E-03
            1718     15.7797E-03     39.3580E-03    -6.30454E+06     107.961E+06     6.38776E+06     813.924E+03    -31.4508E-03     57.7140E-03    -26.2632E-03     181.293E-03    -34.5298E-03     61.1353E-03    -26.3787E-03     181.858E-03
            1719     14.9002E-03     39.2164E-03    -6.97395E+06     44.4191E+06    -16.2763E+06     228.845E+03    -29.8892E-03     56.1539E-03    -26.2647E-03     124.946E-03    -30.7913E-03     57.2361E-03    -26.4004E-03     124.765E-03
            1720     14.0252E-03     39.1196E-03    -6.61032E+06    -8.69351E+06    -9.99066E+06     182.196E+03    -28.4969E-03     54.8577E-03    -26.3607E-03     89.9166E-03    -28.8189E-03     55.1543E-03    -26.3885E-03     89.7166E-03
            1721     13.1481E-03     39.0443E-03    -6.80900E+06    -40.5135E+06    -5.89952E+06     440.103E+03    -28.1655E-03     54.5740E-03    -26.4085E-03     78.7188E-03    -28.3171E-03     54.5747E-03    -26.3694E-03     78.5501E-03
            1722     12.2728E-03     38.9694E-03    -7.10852E+06    -54.7291E+06    -316.711E+03     466.063E+03    -27.9855E-03     54.4230E-03    -26.4375E-03     74.1828E-03    -28.0626E-03     54.2815E-03    -26.3494E-03     74.0471E-03
            1723     11.3959E-03     38.9025E-03    -7.35487E+06    -67.8534E+06     1.29377E+06     492.144E+03    -27.7411E-03     54.1869E-03    -26.4458E-03     66.6923E-03    -27.7600E-03     53.9350E-03    -26.3302E-03     66.5853E-03
            1724     10.5194E-03     38.8420E-03    -8.15191E+06    -80.3499E+06     1.65227E+06     437.670E+03    -27.6370E-03     54.0799E-03    -26.4428E-03     60.6914E-03    -27.6165E-03     53.7404E-03    -26.3062E-03     60.6061E-03
            1725     9.64326E-03     38.7864E-03    -9.38725E+06    -86.9580E+06     3.95528E+06     556.490E+03    -27.4797E-03     53.9156E-03    -26.4359E-03     55.8029E-03    -27.4425E-03     53.5249E-03    -26.2764E-03     55.7379E-03
            1726     8.76679E-03     38.7350E-03    -10.8866E+06    -92.1343E+06     3.90732E+06     451.537E+03    -27.2774E-03     53.6921E-03    -26.4148E-03     50.9126E-03    -27.2286E-03     53.2663E-03    -26.2459E-03     50.8617E-03
            1727     7.89048E-03     38.6887E-03    -12.4069E+06    -97.0917E+06     2.91236E+06     306.617E+03    -27.0647E-03     53.4559E-03    -26.3912E-03     45.7709E-03    -27.0069E-03     53.0009E-03    -26.2178E-03     45.7305E-03
            1728     7.01381E-03     38.6471E-03    -14.0379E+06    -100.027E+06     952.011E+03     466.297E+03    -26.8694E-03     53.2332E-03    -26.3638E-03     40.6178E-03    -26.8072E-03     52.7633E-03    -26.1936E-03     40.5894E-03
            1729     6.13726E-03     38.6105E-03    -15.7829E+06    -101.967E+06    -3.06302E+06     450.988E+03    -26.7274E-03     53.0542E-03    -26.3268E-03     35.4998E-03    -26.6614E-03     52.5791E-03    -26.1714E-03     35.4792E-03
            1730     5.26058E-03     38.5789E-03    -17.6764E+06    -104.169E+06    -7.62949E+06     303.752E+03    -26.5903E-03     52.8785E-03    -26.2881E-03     30.3791E-03    -26.5213E-03     52.3990E-03    -26.1496E-03     30.3629E-03
            1731     4.38397E-03     38.5520E-03    -19.2240E+06    -106.422E+06    -11.8012E+06     270.966E+03    -26.4598E-03     52.7132E-03    -26.2534E-03     25.2403E-03    -26.3874E-03     52.2290E-03    -26.1303E-03     25.2287E-03
            1732     3.50715E-03     38.5302E-03    -20.6049E+06    -108.541E+06    -15.6336E+06     255.653E+03    -26.3580E-03     52.5811E-03    -26.2231E-03     20.1458E-03    -26.2827E-03     52.0926E-03    -26.1140E-03     20.1380E-03
            1733     2.63050E-03     38.5132E-03    -21.7685E+06    -110.403E+06    -18.8519E+06     176.323E+03    -26.2746E-03     52.4727E-03    -26.1981E-03     15.1109E-03    -26.1969E-03     51.9804E-03    -26.1007E-03     15.1054E-03
            1734     1.75357E-03     38.5010E-03    -22.6282E+06    -111.756E+06    -21.2479E+06     95.7160E+03    -26.2147E-03     52.3944E-03    -26.1797E-03     10.1690E-03    -26.1354E-03     51.8997E-03    -26.0911E-03     10.1652E-03
            1735     876.912E-06     38.4935E-03    -23.1678E+06    -112.050E+06    -22.8276E+06     56.0023E+03    -26.1740E-03     52.3452E-03    -26.1712E-03     5.50822E-03    -26.0944E-03     51.8518E-03    -26.0893E-03     5.50631E-03
            1736     16.6583E-03     38.5646E-03    -4.75823E+06     144.458E+06     67.9248E+06     251.193E+03    -29.6422E-03     56.1601E-03    -26.5179E-03     147.534E-03    -32.8902E-03     59.7071E-03    -26.3808E-03     149.022E-03
            1737     15.7761E-03     38.3589E-03    -7.53169E+06     108.235E+06     4.79676E+06     448.082E+03    -32.5324E-03     58.8003E-03    -26.2679E-03     181.306E-03    -35.6229E-03     62.2344E-03    -26.3900E-03     181.809E-03
            1738     14.9026E-03     38.2155E-03    -7.07570E+06     44.8886E+06    -17.4875E+06     343.557E+03    -30.0940E-03     56.3266E-03    -26.2326E-03     124.673E-03    -30.9937E-03     57.4112E-03    -26.3748E-03     124.490E-03
            1739     14.0253E-03     38.1205E-03    -6.68710E+06    -9.34388E+06    -10.5527E+06     326.355E+03    -28.4978E-03     54.8228E-03    -26.3250E-03     89.7318E-03    -28.8174E-03     55.1161E-03    -26.3545E-03     89.5342E-03
            1740     13.1496E-03     38.0442E-03    -6.67025E+06    -40.5442E+06    -6.08334E+06     576.522E+03    -28.1193E-03     54.4919E-03    -26.3726E-03     78.8205E-03    -28.2697E-03     54.4923E-03    -26.3345E-03     78.6543E-03
            1741     12.2725E-03     37.9700E-03    -6.82221E+06    -54.5500E+06    -163.189E+03     434.949E+03    -28.0622E-03     54.4613E-03    -26.3991E-03     74.0568E-03    -28.1383E-03     54.3200E-03    -26.3109E-03     73.9204E-03
            1742     11.3964E-03     37.9028E-03    -7.58242E+06    -68.0587E+06     1.11188E+06     424.635E+03    -27.7911E-03     54.1898E-03    -26.3987E-03     66.4617E-03    -27.8103E-03     53.9372E-03    -26.2834E-03     66.3538E-03
            1743     10.5202E-03     37.8424E-03    -8.42299E+06    -80.5947E+06     1.42016E+06     540.566E+03    -27.6172E-03     54.0071E-03    -26.3899E-03     60.4992E-03    -27.5969E-03     53.6667E-03    -26.2538E-03     60.4156E-03
            1744     9.64377E-03     37.7867E-03    -9.24520E+06    -86.8758E+06     4.10991E+06     525.536E+03    -27.4784E-03     53.8579E-03    -26.3794E-03     55.5742E-03    -27.4407E-03     53.4670E-03    -26.2195E-03     55.5089E-03
            1745     8.76744E-03     37.7357E-03    -10.6736E+06    -92.0158E+06     4.18028E+06     594.337E+03    -27.2506E-03     53.6045E-03    -26.3538E-03     50.6489E-03    -27.2012E-03     53.1783E-03    -26.1840E-03     50.6001E-03
            1746     7.89082E-03     37.6893E-03    -12.4116E+06    -96.9901E+06     2.83112E+06     354.010E+03    -27.0396E-03     53.3638E-03    -26.3242E-03     45.5896E-03    -26.9817E-03     52.9093E-03    -26.1514E-03     45.5502E-03
            1747     7.01444E-03     37.6481E-03    -14.1734E+06    -100.205E+06     699.001E+03     269.182E+03    -26.8552E-03     53.1453E-03    -26.2901E-03     40.4518E-03    -26.7929E-03     52.6749E-03    -26.1208E-03     40.4211E-03
            1748     6.13768E-03     37.6115E-03    -15.9923E+06    -101.862E+06    -3.06470E+06     450.233E+03    -26.6779E-03     52.9257E-03    -26.2478E-03     35.3328E-03    -26.6130E-03     52.4513E-03    -26.0922E-03     35.3123E-03
            1749     5.26109E-03     37.5799E-03    -17.6784E+06    -104.020E+06    -7.67867E+06     358.946E+03    -26.5382E-03     52.7413E-03    -26.2031E-03     30.1806E-03    -26.4693E-03     52.2626E-03    -26.0650E-03     30.1652E-03
            1750     4.38429E-03     37.5532E-03    -19.3780E+06    -106.473E+06    -11.9283E+06     305.387E+03    -26.3965E-03     52.5591E-03    -26.1625E-03     25.0857E-03    -26.3246E-03     52.0750E-03    -26.0397E-03     25.0746E-03
            1751     3.50758E-03     37.5314E-03    -20.7479E+06    -108.548E+06    -15.7825E+06     279.340E+03    -26.2727E-03     52.4002E-03    -26.1275E-03     20.0150E-03    -26.1978E-03     51.9121E-03    -26.0190E-03     20.0077E-03
            1752     2.63063E-03     37.5145E-03    -21.8520E+06    -110.331E+06    -18.9938E+06     257.668E+03    -26.1844E-03     52.2839E-03    -26.0995E-03     15.0143E-03    -26.1070E-03     51.7923E-03    -26.0028E-03     15.0100E-03
            1753     1.75389E-03     37.5023E-03    -22.7516E+06    -111.683E+06    -21.3684E+06     147.920E+03    -26.1185E-03     52.1969E-03    -26.0784E-03     10.0980E-03    -26.0397E-03     51.7029E-03    -25.9903E-03     10.0949E-03
            1754     876.829E-06     37.4949E-03    -23.2848E+06    -111.984E+06    -22.9163E+06     83.5023E+03    -26.0720E-03     52.1398E-03    -26.0678E-03     5.47917E-03    -25.9930E-03     51.6471E-03    -25.9862E-03     5.47766E-03
            1755     16.6497E-03     37.5619E-03    -4.66326E+06     144.396E+06     68.8140E+06     506.150E+03    -30.0105E-03     56.5260E-03    -26.5155E-03     147.207E-03    -33.2380E-03     60.0499E-03    -26.3740E-03     148.680E-03
            1756     15.7802E-03     37.3587E-03    -6.44594E+06     108.227E+06     5.76146E+06     512.371E+03    -32.8206E-03     59.0609E-03    -26.2403E-03     179.843E-03    -35.8745E-03     62.4593E-03    -26.3591E-03     180.325E-03
            1757     14.9015E-03     37.2157E-03    -6.66188E+06     44.9719E+06    -17.6942E+06     580.387E+03    -29.9459E-03     56.1361E-03    -26.1902E-03     124.282E-03    -30.8429E-03     57.2204E-03    -26.3342E-03     124.105E-03
            1758     14.0260E-03     37.1205E-03    -6.65109E+06    -9.31083E+06    -10.4988E+06     665.043E+03    -28.3806E-03     54.6699E-03    -26.2893E-03     89.6040E-03    -28.6989E-03     54.9620E-03    -26.3187E-03     89.4124E-03
            1759     13.1490E-03     37.0448E-03    -6.78394E+06    -40.9800E+06    -6.17548E+06     317.847E+03    -28.1929E-03     54.5286E-03    -26.3357E-03     78.7467E-03    -28.3429E-03     54.5269E-03    -26.2973E-03     78.5767E-03
            1760     12.2735E-03     36.9699E-03    -6.88641E+06    -54.4497E+06     93.0105E+03     493.974E+03    -28.1411E-03     54.4956E-03    -26.3545E-03     73.8221E-03    -28.2178E-03     54.3543E-03    -26.2651E-03     73.6859E-03
            1761     11.3973E-03     36.9032E-03    -7.58479E+06    -67.7886E+06     1.30609E+06     625.649E+03    -27.8569E-03     54.2006E-03    -26.3436E-03     66.2168E-03    -27.8766E-03     53.9488E-03    -26.2278E-03     66.1114E-03
            1762     10.5207E-03     36.8431E-03    -8.29807E+06    -80.5388E+06     1.33625E+06     485.601E+03    -27.5915E-03     53.9186E-03    -26.3270E-03     60.4217E-03    -27.5702E-03     53.5780E-03    -26.1915E-03     60.3381E-03
            1763     9.64441E-03     36.7870E-03    -9.17421E+06    -87.1870E+06     4.01077E+06     514.986E+03    -27.4384E-03     53.7526E-03    -26.3143E-03     55.4689E-03    -27.3993E-03     53.3599E-03    -26.1545E-03     55.4040E-03
            1764     8.76803E-03     36.7365E-03    -10.4789E+06    -91.8527E+06     4.37028E+06     631.331E+03    -27.2555E-03     53.5395E-03    -26.2840E-03     50.3882E-03    -27.2054E-03     53.1134E-03    -26.1137E-03     50.3401E-03
            1765     7.89157E-03     36.6901E-03    -12.2113E+06    -96.7731E+06     3.01882E+06     569.893E+03    -27.0041E-03     53.2516E-03    -26.2475E-03     45.3480E-03    -26.9456E-03     52.7975E-03    -26.0744E-03     45.3116E-03
            1766     7.01484E-03     36.6489E-03    -14.1706E+06    -100.246E+06     445.672E+03     310.912E+03    -26.8269E-03     53.0326E-03    -26.2057E-03     40.2340E-03    -26.7641E-03     52.5622E-03    -26.0375E-03     40.2040E-03
            1767     6.13838E-03     36.6126E-03    -15.9975E+06    -101.910E+06    -3.21548E+06     314.447E+03    -26.6511E-03     52.8063E-03    -26.1552E-03     35.1186E-03    -26.5859E-03     52.3318E-03    -26.0003E-03     35.0966E-03
            1768     5.26153E-03     36.5811E-03    -17.7661E+06    -104.030E+06    -7.60343E+06     440.355E+03    -26.4624E-03     52.5670E-03    -26.1046E-03     29.9944E-03    -26.3939E-03     52.0882E-03    -25.9660E-03     29.9803E-03
            1769     4.38483E-03     36.5545E-03    -19.3647E+06    -106.383E+06    -11.9444E+06     401.192E+03    -26.3142E-03     52.3730E-03    -26.0587E-03     24.8959E-03    -26.2423E-03     51.8893E-03    -25.9361E-03     24.8862E-03
            1770     3.50787E-03     36.5328E-03    -20.8748E+06    -108.507E+06    -15.7906E+06     337.353E+03    -26.1807E-03     52.2000E-03    -26.0193E-03     19.8755E-03    -26.1065E-03     51.7123E-03    -25.9107E-03     19.8690E-03
            1771     2.63104E-03     36.5160E-03    -22.0631E+06    -110.300E+06    -19.1373E+06     285.689E+03    -26.0773E-03     52.0646E-03    -25.9873E-03     14.9044E-03    -26.0008E-03     51.5737E-03    -25.8911E-03     14.9005E-03
            1772     1.75395E-03     36.5039E-03    -22.8701E+06    -111.536E+06    -21.5526E+06     197.679E+03    -26.0079E-03     51.9715E-03    -25.9636E-03     10.0261E-03    -25.9297E-03     51.4787E-03    -25.8765E-03     10.0238E-03
            1773     877.105E-06     36.4965E-03    -23.4398E+06    -111.879E+06    -23.0569E+06     58.1168E+03    -25.9567E-03     51.9087E-03    -25.9519E-03     5.43242E-03    -25.8784E-03     51.4169E-03    -25.8710E-03     5.43060E-03
            1774     16.6605E-03     36.5632E-03    -4.50593E+06     143.933E+06     68.7837E+06    -31.7990E+03    -30.4669E-03     56.8918E-03    -26.4249E-03     144.562E-03    -33.6582E-03     60.3787E-03    -26.2832E-03     146.013E-03
            1775     15.7781E-03     36.3580E-03    -5.86746E+06     107.624E+06     7.93710E+06     758.411E+03    -31.6560E-03     57.8315E-03    -26.1755E-03     179.992E-03    -34.7152E-03     61.2289E-03    -26.2834E-03     180.549E-03
            1776     14.9040E-03     36.2166E-03    -6.35192E+06     44.8480E+06    -15.6988E+06     1.35335E+06    -29.7675E-03     55.9262E-03    -26.1586E-03     124.225E-03    -30.6624E-03     57.0032E-03    -26.2930E-03     124.059E-03
            1777     14.0262E-03     36.1209E-03    -6.48098E+06    -8.45744E+06    -10.0819E+06     772.217E+03    -28.4028E-03     54.6536E-03    -26.2507E-03     89.7507E-03    -28.7224E-03     54.9494E-03    -26.2795E-03     89.5602E-03
            1778     13.1507E-03     36.0449E-03    -6.43398E+06    -40.6592E+06    -5.92896E+06     463.507E+03    -28.2494E-03     54.5411E-03    -26.2917E-03     78.6888E-03    -28.3978E-03     54.5395E-03    -26.2531E-03     78.5203E-03
            1779     12.2740E-03     35.9702E-03    -6.76009E+06    -55.0974E+06    -236.854E+03     541.417E+03    -28.1339E-03     54.4386E-03    -26.3047E-03     73.8878E-03    -28.2080E-03     54.2938E-03    -26.2162E-03     73.7528E-03
            1780     11.3975E-03     35.9037E-03    -7.14737E+06    -67.6465E+06     1.47427E+06     668.860E+03    -27.8881E-03     54.1782E-03    -26.2902E-03     66.1429E-03    -27.9056E-03     53.9260E-03    -26.1743E-03     66.0382E-03
            1781     10.5217E-03     35.8434E-03    -8.10236E+06    -80.6010E+06     1.16900E+06     606.163E+03    -27.6764E-03     53.9393E-03    -26.2630E-03     60.2800E-03    -27.6535E-03     53.5982E-03    -26.1285E-03     60.1980E-03
            1782     9.64504E-03     35.7880E-03    -9.20659E+06    -87.4188E+06     3.81262E+06     567.836E+03    -27.4311E-03     53.6723E-03    -26.2412E-03     55.2811E-03    -27.3912E-03     53.2784E-03    -26.0820E-03     55.2174E-03
            1783     8.76866E-03     35.7368E-03    -10.5158E+06    -92.0173E+06     4.08418E+06     645.360E+03    -27.2270E-03     53.4314E-03    -26.2044E-03     50.1451E-03    -27.1761E-03     53.0047E-03    -26.0353E-03     50.0976E-03
            1784     7.89223E-03     35.6914E-03    -12.1067E+06    -96.4844E+06      3.1078E+06     726.987E+03    -27.0247E-03     53.1845E-03    -26.1598E-03     45.0867E-03    -26.9661E-03     52.7314E-03    -25.9868E-03     45.0525E-03
            1785     7.01566E-03     35.6498E-03    -14.0860E+06    -99.7727E+06     387.470E+03     615.765E+03    -26.7841E-03     52.8910E-03    -26.1069E-03     40.0040E-03    -26.7213E-03     52.4229E-03    -25.9398E-03     39.9784E-03
            1786     6.13889E-03     35.6138E-03    -16.0658E+06    -102.200E+06    -3.65111E+06     325.338E+03    -26.5906E-03     52.6393E-03    -26.0487E-03     34.8562E-03    -26.5245E-03     52.1640E-03    -25.8955E-03     34.8346E-03
            1787     5.26222E-03     35.5824E-03    -17.7561E+06    -104.103E+06    -7.64626E+06     444.926E+03    -26.3931E-03     52.3854E-03    -25.9923E-03     29.7622E-03    -26.3244E-03     51.9062E-03    -25.8538E-03     29.7484E-03
            1788     4.38526E-03     35.5560E-03    -19.3676E+06    -106.302E+06    -11.8979E+06     494.055E+03    -26.2106E-03     52.1516E-03    -25.9411E-03     24.7008E-03    -26.1388E-03     51.6683E-03    -25.8183E-03     24.6925E-03
            1789     3.50838E-03     35.5344E-03    -20.7754E+06    -108.397E+06    -15.5928E+06     452.068E+03    -26.0752E-03     51.9735E-03    -25.8983E-03     19.7091E-03    -26.0009E-03     51.4859E-03    -25.7890E-03     19.7042E-03
            1790     2.63128E-03     35.5177E-03    -22.0185E+06    -110.184E+06    -18.9267E+06     369.235E+03    -25.9628E-03     51.8249E-03    -25.8621E-03     14.7792E-03    -25.8865E-03     51.3342E-03    -25.7651E-03     14.7764E-03
            1791     1.75430E-03     35.5057E-03    -22.9947E+06    -111.361E+06    -21.6417E+06     249.053E+03    -25.8805E-03     51.7149E-03    -25.8343E-03     9.93813E-03    -25.8031E-03     51.2232E-03    -25.7477E-03     9.93653E-03
            1792     877.060E-06     35.4983E-03    -23.5206E+06    -111.745E+06    -23.2836E+06     87.8866E+03    -25.8252E-03     51.6481E-03    -25.8229E-03     5.38114E-03    -25.7471E-03     51.1574E-03    -25.7432E-03     5.37975E-03
            1793     16.6581E-03     35.5701E-03    -4.75292E+06     143.572E+06     68.2875E+06    -332.305E+03    -30.8952E-03     57.3392E-03    -26.4440E-03     147.479E-03    -34.1489E-03     60.8880E-03    -26.3038E-03     148.897E-03
            1794     15.7815E-03     35.3583E-03    -6.84895E+06     107.031E+06     7.70975E+06     1.09357E+06    -32.5297E-03     58.7073E-03    -26.1776E-03     183.263E-03    -35.6524E-03     62.1633E-03    -26.2843E-03     183.772E-03
            1795     14.9024E-03     35.2174E-03    -6.89206E+06     44.9082E+06    -15.1643E+06     1.12943E+06    -29.8879E-03     56.0324E-03    -26.1444E-03     124.975E-03    -30.7859E-03     57.1093E-03    -26.2754E-03     124.807E-03
            1796     14.0272E-03     35.1208E-03    -5.92182E+06    -7.72808E+06    -9.62428E+06     837.192E+03    -28.6465E-03     54.8696E-03    -26.2231E-03     90.1471E-03    -28.9659E-03     55.1684E-03    -26.2515E-03     89.9548E-03
            1797     13.1504E-03     35.0454E-03    -5.80839E+06    -40.4149E+06    -5.74686E+06     719.534E+03    -28.2875E-03     54.5408E-03    -26.2533E-03     78.8970E-03    -28.4329E-03     54.5388E-03    -26.2150E-03     78.7324E-03
            1798     12.2744E-03     34.9705E-03    -6.32529E+06    -55.5984E+06    -447.497E+03     806.806E+03    -28.2184E-03     54.4775E-03    -26.2591E-03     73.8399E-03    -28.2889E-03     54.3294E-03    -26.1715E-03     73.7083E-03
            1799     11.3985E-03     34.9040E-03    -7.41350E+06    -68.0803E+06     1.09024E+06     814.385E+03    -27.9725E-03     54.2069E-03    -26.2344E-03     65.8967E-03    -27.9898E-03     53.9530E-03    -26.1195E-03     65.7939E-03
            1800     10.5219E-03     34.8440E-03    -8.04274E+06    -79.9418E+06     1.40757E+06     826.320E+03    -27.7397E-03     53.9365E-03    -26.1968E-03     59.9954E-03    -27.7176E-03     53.5979E-03    -26.0622E-03     59.9163E-03
            1801     9.64608E-03     34.7884E-03    -8.99969E+06    -87.3925E+06     3.62167E+06     675.266E+03    -27.4854E-03     53.6469E-03    -26.1615E-03     55.0695E-03    -27.4440E-03     53.2528E-03    -26.0036E-03     55.0075E-03
            1802     8.76945E-03     34.7381E-03    -10.4620E+06    -92.2037E+06     4.08748E+06     681.630E+03    -27.2345E-03     53.3494E-03    -26.1148E-03     49.8966E-03    -27.1829E-03     52.9214E-03    -25.9455E-03     49.8498E-03
            1803     7.89293E-03     34.6919E-03    -12.2243E+06    -96.5456E+06     2.83204E+06     764.239E+03    -27.0031E-03     53.0621E-03    -26.0590E-03     44.7472E-03    -26.9444E-03     52.6091E-03    -25.8871E-03     44.7137E-03
            1804     7.01644E-03     34.6515E-03    -13.9923E+06    -99.4240E+06     612.639E+03     824.809E+03    -26.7643E-03     52.7611E-03    -25.9968E-03     39.7111E-03    -26.7017E-03     52.2941E-03    -25.8293E-03     39.6884E-03
            1805     6.13968E-03     34.6150E-03    -15.9600E+06    -101.986E+06    -3.67221E+06     615.025E+03    -26.5132E-03     52.4413E-03    -25.9281E-03     34.5756E-03    -26.4468E-03     51.9669E-03    -25.7754E-03     34.5580E-03
            1806     5.26283E-03     34.5841E-03    -17.8946E+06    -104.330E+06    -8.14173E+06     481.382E+03    -26.2960E-03     52.1601E-03    -25.8642E-03     29.4839E-03    -26.2268E-03     51.6807E-03    -25.7277E-03     29.4708E-03
            1807     4.38590E-03     34.5577E-03    -19.4838E+06    -106.196E+06    -12.0870E+06     573.920E+03    -26.1080E-03     51.9159E-03    -25.8079E-03     24.4892E-03    -26.0367E-03     51.4335E-03    -25.6861E-03     24.4822E-03
            1808     3.50880E-03     34.5363E-03    -20.8809E+06    -108.294E+06    -15.8082E+06     480.138E+03    -25.9539E-03     51.7133E-03    -25.7594E-03     19.5179E-03    -25.8800E-03     51.2266E-03    -25.6511E-03     19.5136E-03
            1809     2.63172E-03     34.5197E-03    -21.9736E+06    -109.990E+06    -18.8472E+06     413.158E+03    -25.8328E-03     51.5524E-03    -25.7196E-03     14.6245E-03    -25.7567E-03     51.0624E-03    -25.6225E-03     14.6225E-03
            1810     1.75447E-03     34.5077E-03    -22.8002E+06    -111.107E+06    -21.3617E+06     303.793E+03    -25.7396E-03     51.4282E-03    -25.6886E-03     9.83361E-03    -25.6619E-03     50.9371E-03    -25.6013E-03     9.83281E-03
            1811     877.309E-06     34.5005E-03    -23.3928E+06    -111.560E+06    -23.0453E+06     207.003E+03    -25.6803E-03     51.3528E-03    -25.6725E-03     5.32342E-03    -25.6022E-03     50.8625E-03    -25.5920E-03     5.32361E-03
            1812     16.6483E-03     34.5573E-03    -5.24585E+06     142.717E+06     67.9699E+06    -202.294E+03    -30.2893E-03     56.7962E-03    -26.5069E-03     144.347E-03    -33.4820E-03     60.2799E-03    -26.3664E-03     145.764E-03
            1813     15.7783E-03     34.3608E-03    -8.36828E+06     105.629E+06     6.30865E+06    -244.005E+03    -33.2811E-03     59.4980E-03    -26.2169E-03     180.054E-03    -36.3447E-03     62.8883E-03    -26.3264E-03     180.504E-03
            1814     14.9034E-03     34.2159E-03    -7.15557E+06     44.7265E+06    -16.1765E+06     224.776E+03    -30.4068E-03     56.5454E-03    -26.1386E-03     125.122E-03    -31.3120E-03     57.6308E-03    -26.2739E-03     124.931E-03
            1815     14.0270E-03     34.1216E-03    -6.20080E+06    -7.74886E+06    -10.0251E+06     528.461E+03    -28.8573E-03     55.0545E-03    -26.1972E-03     89.5782E-03    -29.1758E-03     55.3525E-03    -26.2271E-03     89.3803E-03
            1816     13.1512E-03     34.0453E-03    -5.97364E+06    -40.6764E+06    -5.85877E+06     908.211E+03    -28.4440E-03     54.6578E-03    -26.2138E-03     78.5622E-03    -28.5895E-03     54.6547E-03    -26.1754E-03     78.3988E-03
            1817     12.2752E-03     33.9708E-03    -6.57907E+06    -55.6798E+06    -686.536E+03     1.03610E+06    -28.3128E-03     54.5189E-03    -26.2061E-03     73.5498E-03    -28.3836E-03     54.3706E-03    -26.1192E-03     73.4210E-03
            1818     11.3988E-03     33.9042E-03    -6.94776E+06    -67.8740E+06     1.23480E+06     1.02416E+06    -28.0628E-03     54.2329E-03    -26.1701E-03     65.6605E-03    -28.0778E-03     53.9787E-03    -26.0554E-03     65.5604E-03
            1819     10.5233E-03     33.8445E-03    -7.76216E+06    -79.9975E+06     1.56773E+06     944.323E+03    -27.7896E-03     53.9110E-03    -26.1214E-03     59.6136E-03    -27.7659E-03     53.5712E-03    -25.9863E-03     59.5360E-03
            1820     9.64638E-03     33.7894E-03    -9.19277E+06    -87.2074E+06     3.43692E+06     930.251E+03    -27.5246E-03     53.5974E-03    -26.0728E-03     54.7102E-03    -27.4839E-03     53.2044E-03    -25.9158E-03     54.6517E-03
            1821     8.77047E-03     33.7386E-03    -10.5616E+06    -92.3132E+06     3.83204E+06     796.186E+03    -27.2666E-03     53.2792E-03    -26.0126E-03     49.5582E-03    -27.2147E-03     52.8510E-03    -25.8443E-03     49.5132E-03
            1822     7.89397E-03     33.6936E-03    -12.1519E+06    -96.3737E+06     3.01401E+06     873.138E+03    -26.9825E-03     52.9281E-03    -25.9457E-03     44.4451E-03    -26.9237E-03     52.4754E-03    -25.7733E-03     44.4135E-03
            1823     7.01719E-03     33.6523E-03    -14.0048E+06    -99.5163E+06     331.940E+03     897.846E+03    -26.7151E-03     52.5860E-03    -25.8709E-03     39.3385E-03    -26.6519E-03     52.1188E-03    -25.7047E-03     39.3171E-03
            1824     6.14059E-03     33.6169E-03    -15.8829E+06    -101.700E+06    -3.55666E+06     912.531E+03    -26.4331E-03     52.2271E-03    -25.7941E-03     34.2385E-03    -26.3667E-03     51.7537E-03    -25.6414E-03     34.2251E-03
            1825     5.26355E-03     33.5857E-03    -17.8022E+06    -104.136E+06    -8.20051E+06     745.568E+03    -26.1891E-03     51.9110E-03    -25.7219E-03     29.2128E-03    -26.1196E-03     51.4324E-03    -25.5861E-03     29.2035E-03
            1826     4.38654E-03     33.5598E-03    -19.4869E+06    -106.216E+06    -12.2496E+06     578.218E+03    -25.9986E-03     51.6567E-03    -25.6580E-03     24.2204E-03    -25.9270E-03     51.1743E-03    -25.5370E-03     24.2136E-03
            1827     3.50938E-03     33.5384E-03    -20.8738E+06    -108.010E+06    -15.8732E+06     552.594E+03    -25.8228E-03     51.4244E-03    -25.6017E-03     19.2970E-03    -25.7491E-03     50.9392E-03    -25.4942E-03     19.2938E-03
            1828     2.63212E-03     33.5219E-03    -22.0390E+06    -109.799E+06    -19.1829E+06     348.346E+03    -25.6807E-03     51.2359E-03    -25.5552E-03     14.4484E-03    -25.6047E-03     50.7475E-03    -25.4600E-03     14.4457E-03
            1829     1.75480E-03     33.5101E-03    -22.8497E+06    -110.933E+06    -21.3986E+06     300.732E+03    -25.5805E-03     51.1022E-03    -25.5217E-03     9.71321E-03    -25.5032E-03     50.6120E-03    -25.4347E-03     9.71245E-03
            1830     877.389E-06     33.5028E-03    -23.3319E+06    -111.268E+06    -22.8820E+06     198.751E+03    -25.5168E-03     51.0151E-03    -25.4983E-03     5.25891E-03    -25.4391E-03     50.5260E-03    -25.4176E-03     5.25904E-03
            1831     16.6631E-03     33.5648E-03    -4.10911E+06     143.555E+06     68.9665E+06     699.099E+03    -30.4978E-03     56.9786E-03    -26.4808E-03     146.348E-03    -33.6978E-03     60.4737E-03    -26.3382E-03     147.786E-03
            1832     15.7791E-03     33.3581E-03    -6.27837E+06     106.031E+06     6.77977E+06     122.196E+03    -32.9565E-03     59.1449E-03    -26.1884E-03     178.863E-03    -35.9823E-03     62.5049E-03    -26.2992E-03     179.321E-03
            1833     14.9035E-03     33.2165E-03    -7.05983E+06     44.1541E+06    -16.7736E+06    -318.048E+03    -30.5094E-03     56.6188E-03    -26.1094E-03     124.155E-03    -31.4071E-03     57.6969E-03    -26.2471E-03     123.956E-03
            1834     14.0278E-03     33.1210E-03    -6.67289E+06    -8.47885E+06    -10.6392E+06     492.772E+03    -28.9326E-03     55.0920E-03    -26.1595E-03     89.3422E-03    -29.2509E-03     55.3874E-03    -26.1907E-03     89.1432E-03
            1835     13.1520E-03     33.0455E-03    -6.72224E+06    -41.3304E+06    -6.62732E+06     905.067E+03    -28.6292E-03     54.7930E-03    -26.1637E-03     78.4369E-03    -28.7766E-03     54.7890E-03    -26.1272E-03     78.2721E-03
            1836     12.2758E-03     32.9711E-03    -6.56776E+06    -54.9634E+06    -619.333E+03     974.843E+03    -28.4132E-03     54.5563E-03    -26.1430E-03     73.3412E-03    -28.4847E-03     54.4111E-03    -26.0569E-03     73.2113E-03
            1837     11.4001E-03     32.9044E-03    -7.07696E+06    -67.9571E+06     888.832E+03     1.01446E+06    -28.1069E-03     54.2023E-03    -26.0954E-03     65.4036E-03    -28.1214E-03     53.9478E-03    -25.9821E-03     65.3037E-03
            1838     10.5235E-03     32.8452E-03    -8.12553E+06    -80.2869E+06     1.13562E+06     1.14072E+06    -27.9080E-03     53.9410E-03    -26.0330E-03     59.2455E-03    -27.8848E-03     53.6006E-03    -25.8991E-03     59.1704E-03
            1839     9.64808E-03     32.7899E-03    -9.10673E+06    -86.9691E+06     3.49970E+06     1.18470E+06    -27.5662E-03     53.5354E-03    -25.9692E-03     54.2453E-03    -27.5251E-03     53.1431E-03    -25.8124E-03     54.1903E-03
            1840     8.77123E-03     32.7400E-03    -10.6296E+06    -92.2246E+06     3.50660E+06     1.05201E+06    -27.2318E-03     53.1277E-03    -25.8959E-03     49.1837E-03    -27.1795E-03     52.7002E-03    -25.7292E-03     49.1427E-03
            1841     7.89482E-03     32.6944E-03    -12.3177E+06    -96.5112E+06     2.56440E+06     910.577E+03    -26.9877E-03     52.8041E-03    -25.8165E-03     44.0472E-03    -26.9287E-03     52.3513E-03    -25.6458E-03     44.0164E-03
            1842     7.01841E-03     32.6542E-03    -14.0575E+06    -99.4107E+06     280.531E+03     1.01379E+06    -26.6419E-03     52.3725E-03    -25.7306E-03     38.9135E-03    -26.5788E-03     51.9057E-03    -25.5646E-03     38.8940E-03
            1843     6.14131E-03     32.6184E-03    -15.9439E+06    -101.639E+06    -3.78590E+06     1.05657E+06    -26.3357E-03     51.9797E-03    -25.6440E-03     33.8765E-03    -26.2693E-03     51.5068E-03    -25.4924E-03     33.8654E-03
            1844     5.26449E-03     32.5880E-03    -17.6776E+06    -103.743E+06    -7.90521E+06     955.872E+03    -26.0989E-03     51.6622E-03    -25.5633E-03     28.8744E-03    -26.0297E-03     51.1848E-03    -25.4268E-03     28.8680E-03
            1845     4.38724E-03     32.5619E-03    -19.3736E+06    -105.991E+06    -12.2610E+06     758.858E+03    -25.8667E-03     51.3546E-03    -25.4878E-03     23.9152E-03    -25.7948E-03     50.8731E-03    -25.3674E-03     23.9111E-03
            1846     3.51003E-03     32.5409E-03    -20.7958E+06    -107.805E+06    -15.9349E+06     567.082E+03    -25.6704E-03     51.0942E-03    -25.4237E-03     19.0366E-03    -25.5965E-03     50.6099E-03    -25.3169E-03     19.0337E-03
            1847     2.63259E-03     32.5245E-03    -21.9348E+06    -109.481E+06    -19.0842E+06     480.628E+03    -25.5135E-03     50.8849E-03    -25.3715E-03     14.2537E-03    -25.4375E-03     50.3978E-03    -25.2763E-03     14.2528E-03
            1848     1.75514E-03     32.5128E-03    -22.8281E+06    -110.741E+06    -21.5248E+06     250.206E+03    -25.3988E-03     50.7309E-03    -25.3321E-03     9.57671E-03    -25.3215E-03     50.2419E-03    -25.2461E-03     9.57540E-03
            1849     877.581E-06     32.5057E-03    -23.2631E+06    -111.023E+06    -22.9408E+06     95.7985E+03    -25.3230E-03     50.6332E-03    -25.3102E-03     5.18747E-03    -25.2452E-03     50.1452E-03    -25.2302E-03     5.18631E-03
            1850     16.6469E-03     32.5562E-03    -5.14434E+06     142.587E+06     68.7763E+06    -30.2644E+03    -30.7883E-03     57.2421E-03    -26.4538E-03     145.671E-03    -33.9817E-03     60.7240E-03    -26.3092E-03     147.081E-03
            1851     15.7814E-03     32.3596E-03    -6.48239E+06     106.856E+06     6.77792E+06     292.847E+03    -32.9677E-03     59.1147E-03    -26.1470E-03     178.630E-03    -35.9877E-03     62.4709E-03    -26.2587E-03     179.089E-03
            1852     14.9043E-03     32.2158E-03    -6.41982E+06     44.1379E+06    -17.6892E+06     460.713E+03    -30.4087E-03     56.4722E-03    -26.0635E-03     124.261E-03    -31.3001E-03     57.5488E-03    -26.2067E-03     124.073E-03
            1853     14.0283E-03     32.1213E-03    -6.72136E+06    -9.61696E+06    -11.2378E+06     643.067E+03    -28.9799E-03     55.0971E-03    -26.1172E-03     89.3177E-03    -29.2960E-03     55.3877E-03    -26.1497E-03     89.1200E-03
            1854     13.1521E-03     32.0452E-03    -6.67184E+06    -41.0067E+06    -6.70566E+06     927.093E+03    -28.7696E-03     54.8821E-03    -26.1125E-03     78.2156E-03    -28.9166E-03     54.8793E-03    -26.0769E-03     78.0502E-03
            1855     12.2770E-03     31.9711E-03    -7.18818E+06    -55.1941E+06    -1.16796E+06     933.197E+03    -28.5744E-03     54.6505E-03    -26.0760E-03     73.0429E-03    -28.6475E-03     54.5054E-03    -25.9914E-03     72.9118E-03
            1856     11.4005E-03     31.9052E-03    -7.76796E+06    -68.1133E+06     158.543E+03     1.14089E+06    -28.2310E-03     54.2416E-03    -26.0106E-03     65.1416E-03    -28.2472E-03     53.9879E-03    -25.8997E-03     65.0433E-03
            1857     10.5252E-03     31.8452E-03    -8.28857E+06    -80.2025E+06     713.061E+03     1.18947E+06    -27.9612E-03     53.8948E-03    -25.9336E-03     58.9101E-03    -27.9377E-03     53.5550E-03    -25.8017E-03     58.8362E-03
            1858     9.64859E-03     31.7911E-03    -9.23270E+06    -86.8270E+06     3.34677E+06     1.30275E+06    -27.6388E-03     53.4941E-03    -25.8553E-03     53.7764E-03    -27.5980E-03     53.1026E-03    -25.6993E-03     53.7231E-03
            1859     8.77262E-03     31.7410E-03    -10.5764E+06    -91.9256E+06     3.42118E+06     1.29526E+06    -27.2759E-03     53.0394E-03    -25.7635E-03     48.7690E-03    -27.2233E-03     52.6130E-03    -25.5978E-03     48.7314E-03
            1860     7.89612E-03     31.6959E-03    -12.3148E+06    -96.5855E+06     2.14096E+06     1.04060E+06    -26.9094E-03     52.5788E-03    -25.6694E-03     43.5516E-03    -26.8494E-03     52.1259E-03    -25.5008E-03     43.5231E-03
            1861     7.01925E-03     31.6558E-03    -14.2013E+06    -99.4855E+06     121.311E+03     1.02083E+06    -26.5683E-03     52.1433E-03    -25.5750E-03     38.4406E-03    -26.5054E-03     51.6764E-03    -25.4095E-03     38.4216E-03
            1862     6.14255E-03     31.6207E-03    -15.9733E+06    -101.346E+06    -3.70666E+06     1.15296E+06    -26.2617E-03     51.7376E-03    -25.4759E-03     33.4721E-03    -26.1958E-03     51.2660E-03    -25.3243E-03     33.4625E-03
            1863     5.26529E-03     31.5901E-03    -17.7208E+06    -103.573E+06    -8.15581E+06     1.03501E+06    -25.9782E-03     51.3592E-03    -25.3809E-03     28.4668E-03    -25.9090E-03     50.8830E-03    -25.2458E-03     28.4617E-03
            1864     4.38819E-03     31.5646E-03    -19.2572E+06    -105.546E+06    -12.0685E+06     919.165E+03    -25.7172E-03     51.0141E-03    -25.2969E-03     23.5643E-03    -25.6455E-03     50.5343E-03    -25.1762E-03     23.5624E-03
            1865     3.51065E-03     31.5437E-03    -20.7017E+06    -107.550E+06    -15.9260E+06     721.364E+03    -25.4956E-03     50.7197E-03    -25.2241E-03     18.7508E-03    -25.4216E-03     50.2366E-03    -25.1178E-03     18.7501E-03
            1866     2.63320E-03     31.5275E-03    -21.8738E+06    -109.192E+06    -18.9493E+06     529.792E+03    -25.3235E-03     50.4896E-03    -25.1662E-03     14.0294E-03    -25.2478E-03     50.0037E-03    -25.0709E-03     14.0293E-03
            1867     1.75546E-03     31.5160E-03    -22.6758E+06    -110.339E+06    -21.3839E+06     341.440E+03    -25.1942E-03     50.3163E-03    -25.1221E-03     9.42586E-03    -25.1169E-03     49.8289E-03    -25.0362E-03     9.42583E-03
            1868     877.790E-06     31.5088E-03    -23.2808E+06    -110.833E+06    -22.9757E+06     116.402E+03    -25.1080E-03     50.2093E-03    -25.1013E-03     5.10871E-03    -25.0304E-03     49.7223E-03    -25.0217E-03     5.10788E-03
            1869     16.6666E-03     31.5633E-03    -3.99492E+06     142.548E+06     68.1962E+06     159.217E+03    -30.8732E-03     57.2960E-03    -26.4228E-03     145.697E-03    -34.0475E-03     60.7644E-03    -26.2828E-03     147.102E-03
            1870     15.7790E-03     31.3568E-03    -6.78717E+06     106.220E+06     5.09821E+06     220.652E+03    -32.7286E-03     58.8486E-03    -26.1200E-03     179.255E-03    -35.7493E-03     62.2070E-03    -26.2387E-03     179.729E-03
            1871     14.9049E-03     31.2168E-03    -7.45577E+06     43.8388E+06    -18.4252E+06     788.072E+03    -30.7175E-03     56.7576E-03    -26.0401E-03     124.361E-03    -31.6137E-03     57.8364E-03    -26.1850E-03     124.172E-03
            1872     14.0286E-03     31.1205E-03    -6.88505E+06    -9.60358E+06    -11.5515E+06     933.056E+03    -29.2829E-03     55.3567E-03    -26.0738E-03     89.3101E-03    -29.5993E-03     55.6481E-03    -26.1076E-03     89.1130E-03
            1873     13.1537E-03     31.0454E-03    -6.83916E+06    -41.2184E+06    -6.99529E+06     966.561E+03    -28.9025E-03     54.9545E-03    -26.0520E-03     77.8635E-03    -29.0483E-03     54.9500E-03    -26.0173E-03     77.6981E-03
            1874     12.2771E-03     30.9711E-03    -7.09142E+06    -55.5391E+06    -1.34436E+06     1.15853E+06    -28.7256E-03     54.7261E-03    -26.0005E-03     72.6043E-03    -28.7966E-03     54.5786E-03    -25.9164E-03     72.4758E-03
            1875     11.4022E-03     30.9052E-03    -7.68318E+06    -67.9164E+06     162.095E+03     1.10986E+06    -28.3652E-03     54.2824E-03    -25.9172E-03     64.6543E-03    -28.3806E-03     54.0289E-03    -25.8068E-03     64.5555E-03
            1876     10.5257E-03     30.8461E-03    -8.24150E+06    -80.1293E+06     474.345E+03     1.23970E+06    -28.0073E-03     53.8302E-03    -25.8229E-03     58.4748E-03    -27.9826E-03     53.4904E-03    -25.6924E-03     58.4021E-03
            1877     9.65013E-03     30.7917E-03    -9.29640E+06    -86.9634E+06     3.07807E+06     1.30499E+06    -27.7193E-03     53.4471E-03    -25.7279E-03     53.2293E-03    -27.6777E-03     53.0549E-03    -25.5729E-03     53.1763E-03
            1878     8.77383E-03     30.7422E-03    -10.7174E+06    -91.6610E+06     3.26648E+06     1.43266E+06    -27.3097E-03     52.9260E-03    -25.6163E-03     48.1546E-03    -27.2577E-03     52.5011E-03    -25.4515E-03     48.1191E-03
            1879     7.89731E-03     30.6976E-03    -12.2682E+06    -96.3593E+06     2.00119E+06     1.30857E+06    -26.8396E-03     52.3461E-03    -25.5065E-03     43.0568E-03    -26.7791E-03     51.8942E-03    -25.3390E-03     43.0324E-03
            1880     7.02062E-03     30.6579E-03    -14.1230E+06    -99.4059E+06    -126.545E+03     1.15798E+06    -26.5015E-03     51.9002E-03    -25.3987E-03     37.9573E-03    -26.4377E-03     51.4338E-03    -25.2348E-03     37.9405E-03
            1881     6.14354E-03     30.6229E-03    -15.9777E+06    -101.266E+06    -3.84165E+06     1.14353E+06    -26.1778E-03     51.4626E-03    -25.2848E-03     32.9556E-03    -26.1118E-03     50.9915E-03    -25.1340E-03     32.9462E-03
            1882     5.26656E-03     30.5929E-03    -17.6202E+06    -103.213E+06    -8.07356E+06     1.12348E+06    -25.8322E-03     51.0089E-03    -25.1767E-03     28.0203E-03    -25.7630E-03     50.5342E-03    -25.0418E-03     28.0167E-03
            1883     4.38897E-03     30.5675E-03    -19.1948E+06    -105.282E+06    -12.0868E+06     965.536E+03    -25.5431E-03     50.6255E-03    -25.0824E-03     23.1689E-03    -25.4714E-03     50.1470E-03    -24.9623E-03     23.1680E-03
            1884     3.51156E-03     30.5469E-03    -20.5338E+06    -107.086E+06    -15.6529E+06     846.497E+03    -25.3008E-03     50.3031E-03    -25.0023E-03     18.4285E-03    -25.2269E-03     49.8215E-03    -24.8955E-03     18.4297E-03
            1885     2.63369E-03     30.5309E-03    -21.7240E+06    -108.855E+06    -18.9781E+06     621.599E+03    -25.1073E-03     50.0442E-03    -24.9369E-03     13.7843E-03    -25.0314E-03     49.5597E-03    -24.8424E-03     13.7856E-03
            1886     1.75596E-03     30.5194E-03    -22.6126E+06    -109.951E+06    -21.2802E+06     389.444E+03    -24.9697E-03     49.8584E-03    -24.8888E-03     9.25149E-03    -24.8928E-03     49.3726E-03    -24.8029E-03     9.25219E-03
            1887     877.930E-06     30.5125E-03    -23.1265E+06    -110.434E+06    -22.8636E+06     279.984E+03    -24.8770E-03     49.7373E-03    -24.8603E-03     5.00476E-03    -24.7995E-03     49.2519E-03    -24.7809E-03     5.00610E-03
            1888     16.6467E-03     30.5570E-03    -4.38300E+06     142.144E+06     68.1001E+06     134.960E+03    -30.9916E-03     57.4336E-03    -26.4420E-03     145.481E-03    -34.1678E-03     60.9013E-03    -26.3012E-03     146.870E-03
            1889     15.7819E-03     30.3586E-03    -6.97306E+06     105.809E+06     5.24586E+06     1.05249E+06    -33.2146E-03     59.3395E-03    -26.1249E-03     179.468E-03    -36.2421E-03     62.7022E-03    -26.2420E-03     179.930E-03
            1890     14.9040E-03     30.2148E-03    -7.78112E+06     43.8837E+06    -18.8807E+06     997.365E+03    -31.0245E-03     57.0435E-03    -26.0190E-03     124.223E-03    -31.9215E-03     58.1235E-03    -26.1658E-03     124.031E-03
            1891     14.0300E-03     30.1205E-03    -7.49272E+06    -9.32723E+06    -12.1815E+06     831.361E+03    -29.6627E-03     55.6912E-03    -26.0285E-03     88.9927E-03    -29.9809E-03     55.9849E-03    -26.0650E-03     88.7903E-03
            1892     13.1537E-03     30.0449E-03    -6.97238E+06    -41.7596E+06    -7.48489E+06     986.100E+03    -29.2102E-03     55.1914E-03    -25.9812E-03     77.4940E-03    -29.3545E-03     55.1844E-03    -25.9480E-03     77.3270E-03
            1893     12.2792E-03     29.9711E-03    -6.91823E+06    -55.6137E+06    -1.63534E+06     1.06068E+06    -28.9127E-03     54.8187E-03    -25.9060E-03     72.0833E-03    -28.9812E-03     54.6699E-03    -25.8235E-03     71.9532E-03
            1894     11.4028E-03     29.9055E-03    -7.27900E+06    -68.0152E+06     101.549E+03     1.21090E+06    -28.4597E-03     54.2639E-03    -25.8042E-03     63.9492E-03    -28.4719E-03     54.0086E-03    -25.6945E-03     63.8519E-03
            1895     10.5276E-03     29.8467E-03    -8.24423E+06    -80.0693E+06     333.243E+03     1.37077E+06    -28.0877E-03     53.7792E-03    -25.6915E-03     57.8118E-03    -28.0621E-03     53.4392E-03    -25.5618E-03     57.7412E-03
            1896     9.65132E-03     29.7925E-03    -9.22556E+06    -87.0829E+06     2.63884E+06     1.35363E+06    -27.7220E-03     53.3001E-03    -25.5781E-03     52.6582E-03    -27.6787E-03     52.9072E-03    -25.4252E-03     52.6065E-03
            1897     8.77530E-03     29.7437E-03    -10.4459E+06    -91.7422E+06     3.33466E+06     1.44735E+06    -27.2820E-03     52.7356E-03    -25.4536E-03     47.4206E-03    -27.2282E-03     52.3094E-03    -25.2888E-03     47.3857E-03
            1898     7.89876E-03     29.6995E-03    -12.1488E+06    -95.8046E+06     2.08687E+06     1.63833E+06    -26.8319E-03     52.1571E-03    -25.3252E-03     42.4124E-03    -26.7714E-03     51.7073E-03    -25.1582E-03     42.3926E-03
            1899     7.02191E-03     29.6600E-03    -13.9532E+06    -99.3270E+06    -473.587E+03     1.33785E+06    -26.4303E-03     51.6271E-03    -25.1967E-03     37.3838E-03    -26.3650E-03     51.1610E-03    -25.0349E-03     37.3698E-03
            1900     6.14504E-03     29.6255E-03    -15.7101E+06    -101.080E+06    -3.85452E+06     1.21506E+06    -26.0385E-03     51.1080E-03    -25.0695E-03     32.3738E-03    -25.9712E-03     50.6372E-03    -24.9194E-03     32.3658E-03
            1901     5.26756E-03     29.5958E-03    -17.4741E+06    -102.952E+06    -7.91173E+06     1.17242E+06    -25.6725E-03     50.6226E-03    -24.9501E-03     27.5151E-03    -25.6031E-03     50.1486E-03    -24.8150E-03     27.5125E-03
            1902     4.39021E-03     29.5708E-03    -19.0205E+06    -104.865E+06    -11.9762E+06     1.04441E+06    -25.3479E-03     50.1922E-03    -24.8443E-03     22.7439E-03    -25.2760E-03     49.7152E-03    -24.7245E-03     22.7443E-03
            1903     3.51227E-03     29.5505E-03    -20.4158E+06    -106.758E+06    -15.6412E+06     889.789E+03    -25.0809E-03     49.8363E-03    -24.7554E-03     18.0712E-03    -25.0069E-03     49.3562E-03    -24.6492E-03     18.0731E-03
            1904     2.63450E-03     29.5347E-03    -21.4982E+06    -108.296E+06    -18.7927E+06     735.080E+03    -24.8713E-03     49.5547E-03    -24.6834E-03     13.5097E-03    -24.7953E-03     49.0724E-03    -24.5892E-03     13.5126E-03
            1905     1.75629E-03     29.5235E-03    -22.3873E+06    -109.533E+06    -21.2590E+06     508.959E+03    -24.7201E-03     49.3491E-03    -24.6290E-03     9.06338E-03    -24.6427E-03     48.8650E-03    -24.5440E-03     9.06575E-03
            1906     878.275E-06     29.5165E-03    -22.9966E+06    -109.925E+06    -22.6085E+06     295.124E+03    -24.6145E-03     49.2141E-03    -24.5996E-03     4.89506E-03    -24.5374E-03     48.7308E-03    -24.5200E-03     4.89666E-03
            1907     16.6644E-03     29.5599E-03    -4.66798E+06     141.312E+06     67.2833E+06     482.270E+03    -31.0027E-03     57.4711E-03    -26.4684E-03     145.322E-03    -34.1859E-03     60.9442E-03    -26.3301E-03     146.700E-03
            1908     15.7788E-03     29.3563E-03    -8.00003E+06     104.879E+06     4.78549E+06     793.159E+03    -33.9724E-03     60.1048E-03    -26.1325E-03     179.152E-03    -37.0114E-03     63.4734E-03    -26.2490E-03     179.579E-03
            1909     14.9060E-03     29.2148E-03    -7.25583E+06     44.3287E+06    -17.6357E+06     1.13730E+06    -31.5981E-03     57.5885E-03    -25.9904E-03     123.655E-03    -32.4920E-03     58.6652E-03    -26.1323E-03     123.450E-03
            1910     14.0295E-03     29.1192E-03    -6.78601E+06    -9.33566E+06    -12.0209E+06     898.638E+03    -29.8806E-03     55.8471E-03    -25.9665E-03     88.2115E-03    -30.1925E-03     56.1367E-03    -26.0033E-03     88.0083E-03
            1911     13.1558E-03     29.0445E-03    -6.89535E+06    -41.7463E+06    -7.89346E+06     812.506E+03    -29.4815E-03     55.3765E-03    -25.8950E-03     76.8251E-03    -29.6237E-03     55.3689E-03    -25.8639E-03     76.6544E-03
            1912     12.2797E-03     28.9709E-03    -6.88662E+06    -55.8350E+06    -2.14677E+06     1.08632E+06    -29.1332E-03     54.9276E-03    -25.7944E-03     71.4581E-03    -29.1997E-03     54.7777E-03    -25.7142E-03     71.3276E-03
            1913     11.4051E-03     28.9057E-03    -7.53032E+06    -68.1742E+06    -359.169E+03     1.29821E+06    -28.6071E-03     54.2762E-03    -25.6691E-03     63.2843E-03    -28.6189E-03     54.0203E-03    -25.5611E-03     63.1882E-03
            1914     10.5288E-03     28.8474E-03    -8.25335E+06    -80.3356E+06    -8.33386E+03     1.52633E+06    -28.1419E-03     53.6776E-03    -25.5357E-03     57.1439E-03    -28.1148E-03     53.3361E-03    -25.4073E-03     57.0757E-03
            1915     9.65318E-03     28.7937E-03    -9.08161E+06    -87.0825E+06     2.39423E+06     1.52279E+06    -27.6838E-03     53.0897E-03    -25.4058E-03     51.9550E-03    -27.6387E-03     52.6962E-03    -25.2544E-03     51.9064E-03
            1916     8.77680E-03     28.7452E-03    -10.5242E+06    -91.6012E+06     2.97857E+06     1.58500E+06    -27.2529E-03     52.5182E-03    -25.2653E-03     46.6625E-03    -27.1987E-03     52.0928E-03    -25.1023E-03     46.6301E-03
            1917     7.90037E-03     28.7016E-03    -11.9706E+06    -95.5200E+06     2.10273E+06     1.75229E+06    -26.8090E-03     51.9273E-03    -25.1183E-03     41.6770E-03    -26.7478E-03     51.4784E-03    -24.9519E-03     41.6591E-03
            1918     7.02367E-03     28.6626E-03    -13.6408E+06    -98.7069E+06    -471.849E+03     1.64750E+06    -26.3178E-03     51.2880E-03    -24.9702E-03     36.7052E-03    -26.2517E-03     50.8244E-03    -24.8097E-03     36.6957E-03
            1919     6.14633E-03     28.6286E-03    -15.5598E+06    -100.907E+06    -4.09355E+06     1.34243E+06    -25.8714E-03     50.7004E-03    -24.8290E-03     31.7769E-03    -25.8030E-03     50.2304E-03    -24.6806E-03     31.7711E-03
            1920     5.26907E-03     28.5992E-03    -17.2128E+06    -102.619E+06    -7.85531E+06     1.23874E+06    -25.4837E-03     50.1828E-03    -24.6991E-03     26.9644E-03    -25.4134E-03     49.7099E-03    -24.5647E-03     26.9630E-03
            1921     4.39117E-03     28.5747E-03    -18.8036E+06    -104.528E+06    -11.8682E+06     1.13692E+06    -25.1351E-03     49.7177E-03    -24.5825E-03     22.2698E-03    -25.0627E-03     49.2418E-03    -24.4630E-03     22.2718E-03
            1922     3.51340E-03     28.5546E-03    -20.1800E+06    -106.311E+06    -15.5597E+06     974.739E+03    -24.8432E-03     49.3265E-03    -24.4833E-03     17.6850E-03    -24.7687E-03     48.8481E-03    -24.3777E-03     17.6884E-03
            1923     2.63508E-03     28.5391E-03    -21.3132E+06    -107.833E+06    -18.6498E+06     811.865E+03    -24.6120E-03     49.0152E-03    -24.4032E-03     13.2010E-03    -24.5359E-03     48.5347E-03    -24.3092E-03     13.2050E-03
            1924     1.75694E-03     28.5280E-03    -22.1369E+06    -108.929E+06    -20.9054E+06     642.818E+03    -24.4391E-03     48.7835E-03    -24.3444E-03     8.85380E-03    -24.3618E-03     48.3015E-03    -24.2589E-03     8.85804E-03
            1925     878.388E-06     28.5213E-03     -22.614E+06    -109.346E+06    -22.4192E+06     271.202E+03    -24.3264E-03     48.6412E-03    -24.3148E-03     4.76977E-03    -24.2485E-03     48.1599E-03    -24.2355E-03     4.77114E-03
            1926     16.6460E-03     28.5555E-03    -4.47535E+06     141.131E+06     68.1046E+06     995.147E+03    -31.4882E-03     57.9804E-03    -26.4922E-03     147.345E-03    -34.6928E-03     61.4726E-03    -26.3498E-03     148.697E-03
            1927     15.7812E-03     28.3541E-03    -7.11925E+06     104.677E+06     5.60398E+06     690.748E+03    -35.0019E-03     61.1141E-03    -26.1123E-03     177.582E-03    -38.0132E-03     64.4551E-03    -26.2257E-03     177.933E-03
            1928     14.9055E-03     28.2128E-03    -7.09773E+06     44.0454E+06    -18.2575E+06     673.483E+03    -31.9671E-03     57.8831E-03    -25.9160E-03     121.840E-03    -32.8464E-03     58.9465E-03    -26.0608E-03     121.622E-03
            1929     14.0325E-03     28.1189E-03    -6.06524E+06    -9.16748E+06    -11.7087E+06     1.03255E+06    -30.0193E-03     55.8899E-03    -25.8706E-03     87.3323E-03    -30.3258E-03     56.1763E-03    -25.9071E-03     87.1300E-03
            1930     13.1560E-03     28.0435E-03    -6.11523E+06    -41.9050E+06    -7.53918E+06     1.12575E+06    -29.5434E-03     55.3280E-03    -25.7846E-03     76.1204E-03    -29.6802E-03     55.3163E-03    -25.7527E-03     75.9538E-03
            1931     12.2821E-03     27.9707E-03    -6.84966E+06    -55.8107E+06    -2.14089E+06     1.21338E+06    -29.2628E-03     54.9292E-03    -25.6664E-03     70.6358E-03    -29.3279E-03     54.7780E-03    -25.5862E-03     70.5069E-03
            1932     11.4061E-03     27.9059E-03    -7.30640E+06    -68.3855E+06    -549.460E+03     1.46730E+06    -28.7358E-03     54.2542E-03    -25.5184E-03     62.5901E-03    -28.7449E-03     53.9962E-03    -25.4114E-03     62.4965E-03
            1933     10.5311E-03     27.8483E-03    -8.08856E+06    -80.5656E+06    -149.290E+03     1.58179E+06    -28.2203E-03     53.5830E-03    -25.3626E-03     56.3707E-03    -28.1912E-03     53.2395E-03    -25.2348E-03     56.3037E-03
            1934     9.65491E-03     27.7950E-03    -9.17252E+06    -87.0146E+06     2.18098E+06     1.84628E+06    -27.6782E-03     52.8897E-03    -25.2115E-03     51.2120E-03    -27.6326E-03     52.4964E-03    -25.0612E-03     51.1683E-03
            1935     8.77877E-03     27.7471E-03    -10.2829E+06    -91.4949E+06     2.71104E+06     1.74522E+06    -27.2102E-03     52.2618E-03    -25.0516E-03     45.9751E-03    -27.1540E-03     51.8364E-03    -24.8904E-03     45.9456E-03
            1936     7.90226E-03     27.7037E-03    -11.7115E+06    -95.4607E+06     2.11234E+06     1.73999E+06    -26.7224E-03     51.6103E-03    -24.8879E-03     40.9009E-03    -26.6596E-03     51.1609E-03    -24.7220E-03     40.8835E-03
            1937     7.02526E-03     27.6656E-03    -13.3869E+06    -98.1380E+06    -157.121E+03     1.90268E+06    -26.1870E-03     50.9108E-03    -24.7237E-03     35.9795E-03    -26.1206E-03     50.4488E-03    -24.5628E-03     35.9740E-03
            1938     6.14813E-03     27.6319E-03    -15.2161E+06    -100.359E+06    -4.26252E+06     1.66396E+06    -25.7008E-03     50.2654E-03    -24.5646E-03     31.1233E-03    -25.6311E-03     49.7978E-03    -24.4184E-03     31.1222E-03
            1939     5.27034E-03     27.6032E-03    -17.0721E+06    -102.365E+06    -8.20266E+06     1.39511E+06    -25.2715E-03     49.6930E-03    -24.4215E-03     26.3646E-03    -25.2003E-03     49.2215E-03    -24.2893E-03     26.3658E-03
            1940     4.39261E-03     27.5789E-03    -18.6185E+06    -104.094E+06    -11.9400E+06     1.25865E+06    -24.9016E-03     49.1957E-03    -24.2941E-03     21.7452E-03    -24.8286E-03     48.7217E-03    -24.1759E-03     21.7490E-03
            1941     3.51427E-03     27.5593E-03    -19.9924E+06    -105.869E+06    -15.4613E+06     1.08474E+06    -24.5840E-03     48.7683E-03    -24.1843E-03     17.2435E-03    -24.5093E-03     48.2917E-03    -24.0791E-03     17.2486E-03
            1942     2.63606E-03     27.5440E-03    -21.0778E+06    -107.331E+06    -18.3826E+06     883.448E+03    -24.3237E-03     48.4196E-03    -24.0959E-03     12.8636E-03    -24.2475E-03     47.9408E-03    -24.0016E-03     12.8688E-03
            1943     1.75734E-03     27.5332E-03    -21.8577E+06    -108.350E+06    -20.6108E+06     639.504E+03    -24.1343E-03     48.1652E-03    -24.0309E-03     8.61828E-03    -24.0569E-03     47.6853E-03    -23.9452E-03     8.62262E-03
            1944     878.806E-06     27.5265E-03    -22.3627E+06    -108.606E+06    -22.0392E+06     442.079E+03    -24.0182E-03     48.0085E-03    -23.9904E-03     4.64676E-03    -23.9407E-03     47.5300E-03    -23.9106E-03     4.65043E-03
            1945     16.6617E-03     27.5521E-03    -4.54685E+06     140.714E+06     68.9835E+06     1.00871E+06    -32.4203E-03     58.8290E-03    -26.4087E-03     144.804E-03    -35.5528E-03     62.2449E-03    -26.2612E-03     146.114E-03
            1946     15.7818E-03     27.3518E-03    -6.01269E+06     105.177E+06     7.70057E+06     911.607E+03    -34.4017E-03     60.4090E-03    -26.0073E-03     174.739E-03    -37.3340E-03     63.6708E-03    -26.1126E-03     175.111E-03
            1947     14.9090E-03     27.2114E-03    -6.11263E+06     43.8391E+06    -17.5924E+06     814.085E+03    -31.7702E-03     57.5842E-03    -25.8140E-03     121.224E-03    -32.6412E-03     58.6401E-03    -25.9566E-03     121.012E-03
            1948     14.0326E-03     27.1180E-03    -6.04285E+06    -9.62726E+06    -11.9756E+06     1.08984E+06    -30.2184E-03     55.9755E-03    -25.7571E-03     86.8877E-03    -30.5224E-03     56.2586E-03    -25.7943E-03     86.6840E-03
            1949     13.1592E-03     27.0431E-03    -5.81510E+06    -41.7721E+06    -7.49824E+06     1.53977E+06    -29.6589E-03     55.3113E-03    -25.6523E-03     75.5997E-03    -29.7926E-03     55.2977E-03    -25.6208E-03     75.4383E-03
            1950     12.2831E-03     26.9704E-03    -6.09272E+06    -55.8665E+06    -1.86249E+06     1.59420E+06    -29.3031E-03     54.8218E-03    -25.5187E-03     70.0115E-03    -29.3628E-03     54.6670E-03    -25.4382E-03     69.8884E-03
            1951     11.4086E-03     26.9064E-03    -6.92897E+06    -68.4357E+06    -432.384E+03     1.68721E+06    -28.8342E-03     54.1863E-03    -25.3521E-03     61.7920E-03    -28.8403E-03     53.9261E-03    -25.2450E-03     61.7017E-03
            1952     10.5327E-03     26.8489E-03    -7.62343E+06    -80.6256E+06    -114.023E+03     1.83470E+06    -28.2814E-03     53.4548E-03    -25.1735E-03     55.5324E-03    -28.2489E-03     53.1094E-03    -25.0461E-03     55.4693E-03
            1953     9.65709E-03     26.7968E-03    -8.74968E+06    -86.8318E+06     2.31165E+06     1.98376E+06    -27.7104E-03     52.7097E-03    -24.9993E-03     50.3980E-03    -27.6624E-03     52.3157E-03    -24.8491E-03     50.3569E-03
            1954     8.78077E-03     26.7488E-03    -9.99243E+06    -91.4010E+06     2.56170E+06     1.97951E+06    -27.1441E-03     51.9612E-03    -24.8171E-03     45.2230E-03    -27.0857E-03     51.5355E-03    -24.6573E-03     45.1975E-03
            1955     7.90418E-03     26.7066E-03    -11.5407E+06    -95.5324E+06     1.74700E+06     1.86543E+06    -26.5981E-03     51.2340E-03    -24.6358E-03     40.0903E-03    -26.5334E-03     50.7840E-03    -24.4718E-03     40.0754E-03
            1956     7.02726E-03     26.6687E-03    -13.3109E+06    -97.9408E+06    -454.324E+03     2.03756E+06    -26.0526E-03     50.5072E-03    -24.4546E-03     35.1988E-03    -25.9853E-03     50.0463E-03    -24.2956E-03     35.1957E-03
            1957     6.14974E-03     26.6359E-03    -15.0192E+06    -99.7616E+06    -4.26998E+06     1.97853E+06    -25.5268E-03     49.8051E-03    -24.2783E-03     30.3956E-03    -25.4567E-03     49.3399E-03    -24.1332E-03     30.3992E-03
            1958     5.27211E-03     26.6074E-03    -16.7058E+06    -101.794E+06    -8.25220E+06     1.70654E+06    -25.0552E-03     49.1734E-03    -24.1182E-03     25.7148E-03    -24.9827E-03     48.7042E-03    -23.9876E-03     25.7205E-03
            1959     4.39383E-03     26.5838E-03    -18.3293E+06    -103.680E+06    -11.8756E+06     1.45133E+06    -24.6460E-03     48.6233E-03    -23.9773E-03     21.1592E-03    -24.5722E-03     48.1508E-03    -23.8597E-03     21.1660E-03
            1960     3.51561E-03     26.5644E-03    -19.7038E+06    -105.297E+06    -15.2214E+06     1.24544E+06    -24.2907E-03     48.1474E-03    -23.8567E-03     16.7536E-03    -24.2157E-03     47.6727E-03    -23.7515E-03     16.7611E-03
            1961     2.63678E-03     26.5497E-03    -20.8669E+06    -106.786E+06    -18.2173E+06     957.164E+03    -24.0078E-03     47.7672E-03    -23.7594E-03     12.4914E-03    -23.9315E-03     47.2906E-03    -23.6654E-03     12.4978E-03
            1962     1.75809E-03     26.5389E-03    -21.7438E+06    -107.715E+06    -20.5186E+06     705.266E+03    -23.8013E-03     47.4887E-03    -23.6874E-03     8.36339E-03    -23.7244E-03     47.0117E-03    -23.6023E-03     8.36873E-03
            1963     878.985E-06     26.5326E-03    -22.2735E+06    -107.848E+06    -21.9274E+06     438.568E+03    -23.6774E-03     47.3150E-03    -23.6376E-03     4.52464E-03    -23.6007E-03     46.8399E-03    -23.5585E-03     4.52834E-03
            1964     16.6571E-03     26.5522E-03    -4.50870E+06     140.053E+06     68.5302E+06     392.297E+03    -33.2643E-03     59.5531E-03    -26.2888E-03     144.494E-03    -36.3930E-03     62.9644E-03    -26.1426E-03     145.772E-03
            1965     15.7854E-03     26.3504E-03    -5.29962E+06     105.167E+06     7.66574E+06     1.09893E+06    -33.5354E-03     59.4317E-03    -25.8963E-03     177.805E-03    -36.5091E-03     62.7376E-03    -26.0027E-03     178.246E-03
            1966     14.9084E-03     26.2109E-03    -5.83885E+06     43.8488E+06    -17.7372E+06     1.58396E+06    -31.9559E-03     57.6808E-03    -25.7248E-03     121.588E-03    -32.8220E-03     58.7332E-03    -25.8686E-03     121.380E-03
            1967     14.0354E-03     26.1160E-03    -6.19084E+06    -9.66903E+06    -12.3199E+06     1.62304E+06    -30.4763E-03     56.1254E-03    -25.6491E-03     86.6958E-03    -30.7773E-03     56.4059E-03    -25.6877E-03     86.4968E-03
            1968     13.1599E-03     26.0431E-03    -5.92200E+06    -41.8750E+06    -7.73929E+06     1.47102E+06    -29.9574E-03     55.4759E-03    -25.5186E-03     75.1325E-03    -30.0892E-03     55.4606E-03    -25.4880E-03     74.9690E-03
            1969     12.2857E-03     25.9701E-03    -5.93724E+06    -56.1051E+06    -2.12923E+06     1.76379E+06    -29.5052E-03     54.8614E-03    -25.3562E-03     69.4183E-03    -29.5618E-03     54.7040E-03    -25.2769E-03     69.2976E-03
            1970     11.4102E-03     25.9066E-03    -6.42810E+06    -68.5836E+06    -284.016E+03     2.01332E+06    -28.8889E-03     54.0562E-03    -25.1673E-03     60.9066E-03    -28.8909E-03     53.7927E-03    -25.0599E-03     60.8215E-03
            1971     10.5351E-03     25.8501E-03    -7.12477E+06    -80.1680E+06     133.164E+03     2.12402E+06    -28.3263E-03     53.2929E-03    -24.9667E-03     54.6444E-03    -28.2912E-03     52.9476E-03    -24.8394E-03     54.5861E-03
            1972     9.65924E-03     25.7982E-03    -8.19818E+06    -86.6267E+06     2.47448E+06     2.24751E+06    -27.7240E-03     52.4929E-03    -24.7689E-03     49.4654E-03    -27.6730E-03     52.0981E-03    -24.6190E-03     49.4287E-03
            1973     8.78309E-03     25.7515E-03    -9.75832E+06    -91.3638E+06     2.44286E+06     2.30009E+06    -27.0723E-03     51.6363E-03    -24.5640E-03     44.3439E-03    -27.0120E-03     51.2099E-03    -24.4052E-03     44.3236E-03
            1974     7.90635E-03     25.7094E-03    -11.3331E+06    -95.4410E+06     1.19472E+06     2.21672E+06    -26.4772E-03     50.8385E-03    -24.3613E-03     39.2454E-03    -26.4102E-03     50.3890E-03    -24.2005E-03     39.2361E-03
            1975     7.02919E-03     25.6726E-03    -12.9955E+06    -97.7804E+06    -733.010E+03     2.17973E+06    -25.9063E-03     50.0684E-03    -24.1622E-03     34.3196E-03    -25.8369E-03     49.6079E-03    -24.0052E-03     34.3191E-03
            1976     6.15176E-03     25.6401E-03    -14.7343E+06    -99.2475E+06    -4.25331E+06     2.18852E+06    -25.3389E-03     49.3062E-03    -23.9673E-03     29.5845E-03    -25.2679E-03     48.8429E-03    -23.8233E-03     29.5914E-03
            1977     5.27368E-03     25.6125E-03    -16.4733E+06    -101.118E+06    -8.04855E+06     2.02225E+06    -24.8260E-03     48.6153E-03    -23.7893E-03     24.9882E-03    -24.7534E-03     48.1486E-03    -23.6591E-03     24.9986E-03
            1978     4.39554E-03     25.5891E-03    -18.0923E+06    -103.062E+06    -11.7998E+06     1.74274E+06    -24.3590E-03     47.9914E-03    -23.6324E-03     20.5305E-03    -24.2849E-03     47.5214E-03    -23.5157E-03     20.5415E-03
            1979     3.51669E-03     25.5705E-03    -19.5121E+06    -104.695E+06    -15.2109E+06     1.44621E+06    -23.9709E-03     47.4711E-03    -23.5001E-03     16.2428E-03    -23.8958E-03     46.9991E-03    -23.3961E-03     16.2532E-03
            1980     2.63791E-03     25.5557E-03    -20.6512E+06    -106.076E+06    -18.0818E+06     1.16332E+06    -23.6650E-03     47.0591E-03    -23.3941E-03     12.0901E-03    -23.5888E-03     46.5855E-03    -23.3008E-03     12.0995E-03
            1981     1.75861E-03     25.5455E-03    -21.5233E+06    -107.040E+06    -20.2327E+06     794.534E+03    -23.4420E-03     46.7571E-03    -23.3152E-03     8.09102E-03    -23.3653E-03     46.2827E-03    -23.2299E-03     8.09768E-03
            1982     879.431E-06     25.5390E-03    -22.0719E+06    -107.013E+06    -21.7612E+06     460.059E+03    -23.3009E-03     46.5614E-03    -23.2605E-03     4.35394E-03    -23.2246E-03     46.0900E-03    -23.1821E-03     4.35801E-03
            1983     16.6637E-03     25.5556E-03    -4.56613E+06     139.195E+06     67.4280E+06    -96.2321E+03    -33.5370E-03     59.8901E-03    -26.3531E-03     144.947E-03    -36.6944E-03     63.3300E-03    -26.2111E-03     146.151E-03
            1984     15.7825E-03     25.3485E-03    -7.41769E+06     104.262E+06     4.54502E+06     1.23942E+06    -35.6256E-03     61.5244E-03    -25.8988E-03     179.783E-03    -38.6518E-03     64.8810E-03    -26.0165E-03     180.112E-03
            1985     14.9112E-03     25.2086E-03    -7.34439E+06     43.7448E+06    -19.9055E+06     1.67560E+06    -32.7618E-03     58.4135E-03    -25.6517E-03     121.147E-03    -33.6238E-03     59.4625E-03    -25.8040E-03     120.924E-03
            1986     14.0356E-03     25.1156E-03    -6.00240E+06    -9.01223E+06    -12.5122E+06     1.51858E+06    -30.8657E-03     56.4057E-03    -25.5400E-03     85.9091E-03    -31.1625E-03     56.6855E-03    -25.5807E-03     85.7061E-03
            1987     13.1622E-03     25.0416E-03    -5.92491E+06    -41.7741E+06    -8.18503E+06     1.62395E+06    -30.2123E-03     55.5912E-03    -25.3788E-03     74.3621E-03    -30.3413E-03     55.5746E-03    -25.3506E-03     74.2002E-03
            1988     12.2876E-03     24.9702E-03    -6.07336E+06    -56.7022E+06    -2.96227E+06     1.88331E+06    -29.7542E-03     54.9403E-03    -25.1861E-03     68.6888E-03    -29.8078E-03     54.7797E-03    -25.1099E-03     68.5695E-03
            1989     11.4129E-03     24.9072E-03    -6.30536E+06    -68.8773E+06    -687.790E+03     2.14380E+06    -29.0249E-03     53.9943E-03    -24.9693E-03     60.1355E-03    -29.0239E-03     53.7284E-03    -24.8638E-03     60.0529E-03
            1990     10.5374E-03     24.8511E-03    -7.06775E+06    -79.9525E+06    -47.2625E+03     2.54588E+06    -28.3608E-03     53.1048E-03    -24.7440E-03     53.7870E-03    -28.3242E-03     52.7595E-03    -24.6181E-03     53.7353E-03
            1991     9.66168E-03     24.8002E-03    -7.96730E+06    -86.5284E+06     2.14434E+06     2.56450E+06    -27.7301E-03     52.2516E-03    -24.5215E-03     48.5757E-03    -27.6767E-03     51.8565E-03    -24.3737E-03     48.5442E-03
            1992     8.78539E-03     24.7541E-03    -9.29766E+06    -91.1564E+06     2.51989E+06     2.59657E+06    -27.0556E-03     51.3476E-03    -24.2920E-03     43.3109E-03    -26.9927E-03     50.9208E-03    -24.1337E-03     43.2953E-03
            1993     7.90865E-03     24.7130E-03    -10.9790E+06    -94.8479E+06     1.27929E+06     2.66099E+06    -26.3577E-03     50.4220E-03    -24.0643E-03     38.2787E-03    -26.2894E-03     49.9743E-03    -23.9045E-03     38.2762E-03
            1994     7.03153E-03     24.6765E-03    -12.7646E+06    -97.6147E+06    -1.11234E+06     2.45583E+06    -25.7302E-03     49.5733E-03    -23.8431E-03     33.3764E-03    -25.6590E-03     49.1134E-03    -23.6886E-03     33.3804E-03
            1995     6.15373E-03     24.6451E-03    -14.5200E+06    -98.8365E+06    -4.36134E+06     2.45509E+06    -25.1330E-03     48.7622E-03    -23.6293E-03     28.7077E-03    -25.0611E-03     48.3006E-03    -23.4867E-03     28.7188E-03
            1996     5.27574E-03     24.6177E-03    -16.1738E+06    -100.460E+06    -8.09338E+06     2.33143E+06    -24.5541E-03     47.9872E-03    -23.4331E-03     24.1886E-03    -24.4807E-03     47.5232E-03    -23.3045E-03     24.2035E-03
            1997     4.39698E-03     24.5954E-03    -17.7483E+06    -102.339E+06    -11.7384E+06     2.05761E+06    -24.0511E-03     47.3131E-03    -23.2621E-03     19.8607E-03    -23.9763E-03     46.8461E-03    -23.1466E-03     19.8763E-03
            1998     3.51819E-03     24.5768E-03    -19.1472E+06    -103.928E+06    -15.0382E+06     1.74191E+06    -23.6313E-03     46.7490E-03    -23.1177E-03     15.6817E-03    -23.5556E-03     46.2800E-03    -23.0144E-03     15.6964E-03
            1999     2.63881E-03     24.5629E-03    -20.2844E+06    -105.256E+06    -17.8209E+06     1.34955E+06    -23.2934E-03     46.2960E-03    -23.0026E-03     11.6645E-03    -23.2169E-03     45.8255E-03    -22.9097E-03     11.6765E-03
            2000     1.75944E-03     24.5526E-03    -21.0895E+06    -106.155E+06    -19.9187E+06     952.694E+03    -23.0546E-03     45.9719E-03    -22.9173E-03     7.81007E-03    -22.9775E-03     45.5009E-03    -22.8324E-03     7.81896E-03
            2001     879.714E-06     24.5466E-03    -21.6996E+06    -106.061E+06    -21.3234E+06     545.922E+03    -22.8968E-03     45.7607E-03    -22.8639E-03     4.19810E-03    -22.8206E-03     45.2929E-03    -22.7853E-03     4.20337E-03
            2002     16.6459E-03     24.5426E-03    -4.96863E+06     138.525E+06     67.4444E+06     250.841E+03    -33.8441E-03     60.2681E-03    -26.4240E-03     143.643E-03    -36.9500E-03     63.6525E-03    -26.2804E-03     144.794E-03
            2003     15.7853E-03     24.3455E-03    -7.28937E+06     103.171E+06     6.41964E+06     710.420E+03    -37.3608E-03     63.2653E-03    -25.9045E-03     174.479E-03    -40.2882E-03     66.5140E-03    -26.0114E-03     174.686E-03
            2004     14.9102E-03     24.2056E-03    -6.36116E+06     43.8400E+06    -17.9772E+06     1.19785E+06    -33.2262E-03     58.8015E-03    -25.5752E-03     119.457E-03    -34.0783E-03     59.8387E-03    -25.7195E-03     119.222E-03
            2005     14.0387E-03     24.1140E-03    -5.92637E+06    -9.08663E+06    -13.0528E+06     1.49697E+06    -31.2717E-03     56.6875E-03    -25.4158E-03     84.8227E-03    -31.5639E-03     56.9642E-03    -25.4593E-03     84.6163E-03
            2006     13.1640E-03     24.0409E-03    -5.77452E+06    -41.8547E+06    -8.49742E+06     1.76496E+06    -30.4321E-03     55.6565E-03    -25.2245E-03     73.4711E-03    -30.5570E-03     55.6371E-03    -25.1979E-03     73.3106E-03
            2007     12.2896E-03     23.9699E-03    -5.80746E+06    -56.5582E+06    -3.06311E+06     2.08297E+06    -29.8670E-03     54.8745E-03    -25.0075E-03     67.7457E-03    -29.9171E-03     54.7121E-03    -24.9324E-03     67.6298E-03
            2008     11.4149E-03     23.9074E-03    -6.40674E+06    -69.3293E+06    -1.34449E+06     2.28792E+06    -29.1916E-03     53.9541E-03    -24.7625E-03     59.0964E-03    -29.1879E-03     53.6855E-03    -24.6594E-03     59.0163E-03
            2009     10.5399E-03     23.8529E-03    -6.96344E+06    -80.2171E+06    -354.142E+03     2.63896E+06    -28.4546E-03     52.9629E-03    -24.5083E-03     52.7559E-03    -28.4154E-03     52.6153E-03    -24.3837E-03     52.7064E-03
            2010     9.66407E-03     23.8020E-03    -7.71781E+06    -86.3834E+06     2.07404E+06     2.84749E+06    -27.7619E-03     52.0187E-03    -24.2568E-03     47.4907E-03    -27.7064E-03     51.6232E-03    -24.1100E-03     47.4638E-03
            2011     8.78805E-03     23.7572E-03    -9.09048E+06    -90.8158E+06     2.47464E+06     2.94829E+06    -27.0177E-03     51.0165E-03    -23.9987E-03     42.1629E-03    -26.9535E-03     50.5904E-03    -23.8415E-03     42.1529E-03
            2012     7.91133E-03     23.7166E-03    -10.7588E+06    -94.4547E+06     1.27488E+06     3.09906E+06    -26.2434E-03     49.9882E-03    -23.7448E-03     37.2417E-03    -26.1739E-03     49.5415E-03    -23.5858E-03     37.2458E-03
            2013     7.03380E-03     23.6814E-03    -12.5163E+06    -97.1284E+06    -1.29785E+06     2.94718E+06    -25.5420E-03     49.0415E-03    -23.4994E-03     32.4225E-03    -25.4695E-03     48.5835E-03    -23.3470E-03     32.4338E-03
            2014     6.15610E-03     23.6502E-03    -14.2253E+06    -98.4122E+06    -4.65206E+06     2.73009E+06    -24.8852E-03     48.1508E-03    -23.2656E-03     27.7615E-03    -24.8117E-03     47.6909E-03    -23.1255E-03     27.7769E-03
            2015     5.27758E-03     23.6242E-03    -15.7636E+06    -99.8437E+06    -7.97287E+06     2.60591E+06    -24.2655E-03     47.3193E-03    -23.0538E-03     23.3508E-03    -24.1909E-03     46.8574E-03    -22.9260E-03     23.3700E-03
            2016     4.39887E-03     23.6019E-03    -17.2153E+06    -101.541E+06    -11.4135E+06     2.40671E+06    -23.7258E-03     46.5933E-03    -22.8674E-03     19.1242E-03    -23.6499E-03     46.1288E-03    -22.7523E-03     19.1448E-03
            2017     3.51952E-03     23.5843E-03    -18.5611E+06    -103.006E+06    -14.6131E+06     2.03990E+06    -23.2620E-03     45.9725E-03    -22.7105E-03     15.0734E-03    -23.1852E-03     45.5066E-03    -22.6073E-03     15.0923E-03
            2018     2.64002E-03     23.5704E-03    -19.6981E+06    -104.223E+06    -17.4270E+06     1.58032E+06    -22.9004E-03     45.4860E-03    -22.5856E-03     11.2109E-03    -22.8230E-03     45.0192E-03    -22.4931E-03     11.2262E-03
            2019     1.76009E-03     23.5608E-03    -20.5314E+06    -105.119E+06    -19.5064E+06     1.07522E+06    -22.6326E-03     45.1289E-03    -22.4963E-03     7.48930E-03    -22.5548E-03     44.6616E-03    -22.4117E-03     7.49997E-03
            2020     880.112E-06     23.5547E-03    -20.9657E+06    -104.930E+06    -20.7766E+06     613.215E+03    -22.4726E-03     44.9203E-03    -22.4477E-03     4.04829E-03    -22.3952E-03     44.4562E-03    -22.3690E-03     4.05453E-03
            2021     16.6649E-03     23.5376E-03    -4.08732E+06     138.566E+06     68.1404E+06     833.667E+03    -34.7240E-03     60.9914E-03    -26.2674E-03     139.786E-03    -37.7408E-03     64.2884E-03    -26.1217E-03     140.924E-03
            2022     15.7853E-03     23.3405E-03    -6.36195E+06     102.884E+06     6.47969E+06     286.414E+03    -35.4815E-03     61.2345E-03    -25.7530E-03     171.360E-03    -38.3378E-03     64.4145E-03    -25.8605E-03     171.667E-03
            2023     14.9146E-03     23.2045E-03    -6.79157E+06     43.0854E+06    -19.2988E+06     877.517E+03    -33.2982E-03     58.7503E-03    -25.4521E-03     118.042E-03    -34.1380E-03     59.7750E-03    -25.6012E-03     117.797E-03
            2024     14.0391E-03     23.1112E-03    -6.43094E+06    -9.34413E+06    -13.7162E+06     1.64004E+06    -31.3563E-03     56.6357E-03    -25.2795E-03     84.0506E-03    -31.6447E-03     56.9079E-03    -25.3252E-03     83.8458E-03
            2025     13.1665E-03     23.0405E-03    -5.73482E+06    -42.1452E+06    -8.68952E+06     1.81885E+06    -30.8057E-03     55.8690E-03    -25.0633E-03     72.6104E-03    -30.9275E-03     55.8460E-03    -25.0373E-03     72.4487E-03
            2026     12.2923E-03     22.9693E-03    -5.77281E+06    -56.6501E+06    -3.23683E+06     2.11437E+06    -30.1068E-03     54.9174E-03    -24.8107E-03     66.6302E-03    -30.1541E-03     54.7526E-03    -24.7363E-03     66.5148E-03
            2027     11.4176E-03     22.9083E-03    -6.11915E+06    -69.1261E+06    -1.34417E+06     2.49518E+06    -29.2513E-03     53.7880E-03    -24.5367E-03     57.8879E-03    -29.2443E-03     53.5178E-03    -24.4343E-03     57.8120E-03
            2028     10.5425E-03     22.8538E-03    -6.62533E+06    -80.4605E+06    -549.294E+03     2.76994E+06    -28.5867E-03     52.8391E-03    -24.2525E-03     51.5452E-03    -28.5439E-03     52.4888E-03    -24.1289E-03     51.4982E-03
            2029     9.66710E-03     22.8048E-03    -7.70006E+06    -86.6403E+06     1.72530E+06     3.12147E+06    -27.7492E-03     51.7189E-03    -23.9697E-03     46.2758E-03    -27.6916E-03     51.3214E-03    -23.8243E-03     46.2537E-03
            2030     8.79073E-03     22.7601E-03    -8.89022E+06    -90.6685E+06     2.05632E+06     3.37090E+06    -26.9073E-03     50.5930E-03    -23.6857E-03     41.0510E-03    -26.8408E-03     50.1671E-03    -23.5310E-03     41.0479E-03
            2031     7.91382E-03     22.7213E-03    -10.3360E+06    -94.0080E+06     1.20675E+06     3.49734E+06    -26.1522E-03     49.5591E-03    -23.4069E-03     36.1234E-03    -26.0806E-03     49.1136E-03    -23.2496E-03     36.1337E-03
            2032     7.03656E-03     22.6861E-03    -12.0571E+06    -96.4036E+06    -1.31634E+06     3.42428E+06    -25.3579E-03     48.4924E-03    -23.1345E-03     31.3420E-03    -25.2837E-03     48.0370E-03    -22.9838E-03     31.3605E-03
            2033     6.15833E-03     22.6566E-03    -13.7296E+06    -97.7962E+06    -4.75277E+06     3.12016E+06    -24.6132E-03     47.4924E-03    -22.8792E-03     26.7548E-03    -24.5377E-03     47.0348E-03    -22.7413E-03     26.7762E-03
            2034     5.27982E-03     22.6306E-03    -15.3658E+06    -99.1910E+06    -8.00328E+06     2.92788E+06    -23.9627E-03     46.6125E-03    -22.6498E-03     22.4380E-03    -23.8869E-03     46.1532E-03    -22.5237E-03     22.4620E-03
            2035     4.40064E-03     22.6096E-03    -16.8346E+06    -100.658E+06    -11.1790E+06     2.69679E+06    -23.3666E-03     45.8153E-03    -22.4487E-03     18.3359E-03    -23.2903E-03     45.3543E-03    -22.3342E-03     18.3607E-03
            2036     3.52111E-03     22.5922E-03    -18.0679E+06    -101.956E+06    -14.1401E+06     2.28888E+06    -22.8738E-03     45.1538E-03    -22.2800E-03     14.4480E-03    -22.7967E-03     44.6917E-03    -22.1767E-03     14.4705E-03
            2037     2.64111E-03     22.5792E-03    -19.0332E+06    -103.042E+06    -16.8016E+06     1.73623E+06    -22.4865E-03     44.6310E-03    -22.1445E-03     10.7134E-03    -22.4083E-03     44.1682E-03    -22.0515E-03     10.7310E-03
            2038     1.76095E-03     22.5696E-03    -19.7973E+06    -103.922E+06    -18.7241E+06     1.19194E+06    -22.1985E-03     44.2450E-03    -22.0466E-03     7.14267E-03    -22.1198E-03     43.7815E-03    -21.9608E-03     7.15505E-03
            2039     880.483E-06     22.5640E-03    -20.3422E+06    -103.699E+06    -19.9921E+06     658.063E+03    -22.0189E-03     44.0108E-03    -21.9920E-03     3.87069E-03    -21.9413E-03     43.5509E-03    -21.9121E-03     3.87761E-03
            2040     16.6634E-03     22.5435E-03     -4.2354E+06     138.286E+06     68.3420E+06     412.123E+03    -35.8960E-03     62.1274E-03    -26.2314E-03     144.235E-03    -38.9908E-03     65.5003E-03    -26.0840E-03     145.292E-03
            2041     15.7886E-03     22.3375E-03    -5.90671E+06     103.412E+06     6.21665E+06     1.76319E+06    -36.4642E-03     62.1420E-03    -25.6778E-03     176.639E-03    -39.3959E-03     65.4018E-03    -25.7881E-03     176.896E-03
            2042     14.9143E-03     22.2007E-03    -6.73515E+06     42.7478E+06    -20.2298E+06     1.36396E+06    -33.7762E-03     59.1198E-03    -25.3436E-03     117.698E-03    -34.5988E-03     60.1289E-03    -25.4970E-03     117.450E-03
            2043     14.0426E-03     22.1112E-03    -5.65942E+06    -9.28828E+06    -13.3888E+06     1.39612E+06    -31.8296E-03     56.9683E-03    -25.1387E-03     83.1328E-03    -32.1090E-03     57.2336E-03    -25.1840E-03     82.9213E-03
            2044     13.1678E-03     22.0377E-03    -5.70400E+06    -42.5055E+06    -9.19463E+06     1.90307E+06    -30.9993E-03     55.8859E-03    -24.8866E-03     71.5426E-03    -31.1156E-03     55.8577E-03    -24.8627E-03     71.3828E-03
            2045     12.2949E-03     21.9696E-03    -5.81473E+06    -57.0450E+06    -3.72431E+06     2.24758E+06    -30.3594E-03     54.9626E-03    -24.6032E-03     65.4456E-03    -30.4031E-03     54.7939E-03    -24.5306E-03     65.3323E-03
            2046     11.4204E-03     21.9088E-03    -6.03911E+06    -69.0646E+06    -1.66505E+06     2.65874E+06    -29.4460E-03     53.7399E-03    -24.2938E-03     56.9234E-03    -29.4365E-03     53.4685E-03    -24.1933E-03     56.8505E-03
            2047     10.5455E-03     21.8556E-03    -6.65640E+06    -80.7761E+06    -1.15757E+06     3.01817E+06    -28.6099E-03     52.5877E-03    -23.9777E-03     50.3908E-03    -28.5643E-03     52.2351E-03    -23.8567E-03     50.3487E-03
            2048     9.66989E-03     21.8071E-03    -7.12291E+06    -86.5883E+06     1.67970E+06     3.43745E+06    -27.7358E-03     51.4046E-03    -23.6688E-03     45.0140E-03    -27.6741E-03     51.0054E-03    -23.5245E-03     44.9975E-03
            2049     8.79358E-03     21.7644E-03    -8.49986E+06    -90.3299E+06     2.11845E+06     3.77554E+06    -26.8591E-03     50.2148E-03    -23.3557E-03     39.8162E-03    -26.7903E-03     49.7891E-03    -23.2018E-03     39.8196E-03
            2050     7.91679E-03     21.7254E-03    -10.0695E+06    -93.8066E+06     668.595E+03     3.81012E+06    -26.0112E-03     49.0571E-03    -23.0459E-03     34.8461E-03    -25.9372E-03     48.6124E-03    -22.8919E-03     34.8616E-03
            2051     7.03913E-03     21.6924E-03    -11.5208E+06    -95.6509E+06    -1.34616E+06     3.82573E+06    -25.1556E-03     47.9048E-03    -22.7492E-03     30.1262E-03    -25.0793E-03     47.4520E-03    -22.6005E-03     30.1508E-03
            2052     6.16095E-03     21.6629E-03    -13.2322E+06    -96.9423E+06    -4.70569E+06     3.65231E+06    -24.3487E-03     46.8193E-03    -22.4706E-03     25.6826E-03    -24.2716E-03     46.3648E-03    -22.3344E-03     25.7118E-03
            2053     5.28204E-03     21.6385E-03    -14.8140E+06    -98.3986E+06    -7.97950E+06     3.31428E+06    -23.6177E-03     45.8401E-03    -22.2224E-03     21.4587E-03    -23.5401E-03     45.3837E-03    -22.0982E-03     21.4884E-03
            2054     4.40260E-03     21.6177E-03    -16.1730E+06    -99.5913E+06    -10.8105E+06     2.94140E+06    -22.9925E-03     45.0002E-03    -22.0077E-03     17.5072E-03    -22.9148E-03     44.5428E-03    -21.8939E-03     17.5358E-03
            2055     3.52266E-03     21.6014E-03    -17.3181E+06    -100.727E+06    -13.4738E+06     2.39932E+06    -22.4722E-03     44.2979E-03    -21.8256E-03     13.7514E-03    -22.3941E-03     43.8397E-03    -21.7218E-03     13.7757E-03
            2056     2.64240E-03     21.5884E-03    -18.3070E+06    -101.837E+06    -15.9916E+06     1.89643E+06    -22.0478E-03     43.7264E-03    -21.6786E-03     10.1721E-03    -21.9689E-03     43.2674E-03    -21.5844E-03     10.1921E-03
            2057     1.76174E-03     21.5796E-03    -19.1538E+06    -102.542E+06    -17.9880E+06     1.34817E+06    -21.7487E-03     43.3158E-03    -21.5671E-03     6.78085E-03    -21.6699E-03     42.8571E-03    -21.4806E-03     6.79545E-03
            2058     880.984E-06     21.5738E-03    -19.6942E+06    -102.430E+06    -19.4499E+06     705.426E+03    -21.5400E-03     43.0345E-03    -21.4945E-03     3.64607E-03    -21.4618E-03     42.5792E-03    -21.4147E-03     3.65372E-03
            2059     16.6498E-03     21.5262E-03    -5.48633E+06     136.649E+06     67.3016E+06    -116.213E+03    -35.8847E-03     62.2264E-03    -26.3417E-03     141.625E-03    -38.9113E-03     65.5234E-03    -26.1954E-03     142.606E-03
            2060     15.7871E-03     21.3341E-03    -7.94682E+06     101.965E+06     5.63551E+06     505.614E+03    -39.0385E-03     64.7427E-03    -25.7042E-03     171.731E-03    -41.8777E-03     67.8992E-03    -25.8124E-03     171.819E-03
            2061     14.9162E-03     21.1971E-03    -6.40508E+06     43.4684E+06    -19.8029E+06     1.50079E+06    -34.6462E-03     59.9031E-03    -25.2569E-03     116.406E-03    -35.4598E-03     60.9057E-03    -25.4096E-03     116.146E-03
            2062     14.0436E-03     21.1078E-03    -6.03508E+06    -9.73223E+06    -14.6794E+06     1.58997E+06    -32.5092E-03     57.4983E-03    -24.9890E-03     81.7809E-03    -32.7828E-03     57.7584E-03    -25.0395E-03     81.5669E-03
            2063     13.1718E-03     21.0378E-03    -5.46408E+06    -42.7437E+06    -9.55025E+06     1.93847E+06    -31.2645E-03     55.9615E-03    -24.6969E-03     70.4457E-03    -31.3750E-03     55.9286E-03    -24.6748E-03     70.2862E-03
            2064     12.2969E-03     20.9685E-03    -5.49076E+06    -57.2607E+06    -3.89342E+06     2.35700E+06    -30.4828E-03     54.8676E-03    -24.3847E-03     64.2971E-03    -30.5212E-03     54.6945E-03    -24.3132E-03     64.1868E-03
            2065     11.4233E-03     20.9098E-03    -5.84108E+06    -69.6860E+06    -2.10590E+06     2.75896E+06    -29.6973E-03     53.7381E-03    -24.0408E-03     55.4802E-03    -29.6832E-03     53.4620E-03    -23.9418E-03     55.4093E-03
            2066     10.5485E-03     20.8572E-03    -6.24358E+06    -80.9342E+06    -1.09841E+06     3.16680E+06    -28.6441E-03     52.3348E-03    -23.6907E-03     48.9584E-03    -28.5945E-03     51.9790E-03    -23.5698E-03     48.9198E-03
            2067     9.67283E-03     20.8104E-03    -7.25242E+06    -86.6569E+06     1.39857E+06     3.71195E+06    -27.7233E-03     51.0740E-03    -23.3508E-03     43.6423E-03    -27.6605E-03     50.6739E-03    -23.2076E-03     43.6309E-03
            2068     8.79684E-03     20.7679E-03    -8.10005E+06    -90.0881E+06     2.04257E+06     4.12093E+06    -26.8323E-03     49.8372E-03    -23.0049E-03     38.4374E-03    -26.7609E-03     49.4114E-03    -22.8523E-03     38.4465E-03
            2069     7.91975E-03     20.7311E-03    -9.47760E+06    -93.1488E+06     739.270E+03     4.24823E+06    -25.8432E-03     48.5078E-03    -22.6646E-03     33.4992E-03    -25.7666E-03     48.0647E-03    -22.5121E-03     33.5217E-03
            2070     7.04203E-03     20.6982E-03    -11.1027E+06    -95.1458E+06    -1.62472E+06     4.23443E+06    -24.9210E-03     47.2629E-03    -22.3419E-03     28.8438E-03    -24.8425E-03     46.8119E-03    -22.1959E-03     28.8748E-03
            2071     6.16358E-03     20.6706E-03    -12.5598E+06    -95.9748E+06    -4.42850E+06     4.10655E+06    -24.0575E-03     46.1001E-03    -22.0426E-03     24.5022E-03    -23.9786E-03     45.6488E-03    -21.9074E-03     24.5381E-03
            2072     5.28440E-03     20.6465E-03    -14.0260E+06    -97.2921E+06    -7.40000E+06     3.72026E+06    -23.2765E-03     45.0517E-03    -21.7752E-03     20.4245E-03    -23.1971E-03     44.5986E-03    -21.6508E-03     20.4603E-03
            2073     4.40464E-03     20.6271E-03    -15.3704E+06    -98.3057E+06    -10.3667E+06     3.16178E+06    -22.6141E-03     44.1545E-03    -21.5404E-03     16.5926E-03    -22.5348E-03     43.7017E-03    -21.4274E-03     16.6247E-03
            2074     3.52441E-03     20.6109E-03    -16.5222E+06    -99.4413E+06    -13.0608E+06     2.60515E+06    -22.0427E-03     43.3842E-03    -21.3415E-03     12.9734E-03    -21.9630E-03     42.9307E-03    -21.2386E-03     13.0009E-03
            2075     2.64367E-03     20.5990E-03    -17.5391E+06    -100.550E+06    -15.3358E+06     2.07607E+06    -21.5893E-03     42.7710E-03    -21.1817E-03     9.57829E-03    -21.5094E-03     42.3163E-03    -21.0871E-03     9.60093E-03
            2076     1.76268E-03     20.5900E-03    -18.2634E+06    -101.090E+06    -17.2461E+06     1.47320E+06    -21.2502E-03     42.3115E-03    -21.0613E-03     6.36739E-03    -21.1701E-03     41.8577E-03    -20.9745E-03     6.38381E-03
            2077     881.391E-06     20.5851E-03    -18.7508E+06    -100.962E+06    -18.4623E+06     802.729E+03    -21.0449E-03     42.0206E-03    -20.9757E-03     3.42433E-03    -20.9655E-03     41.5698E-03    -20.8945E-03     3.43335E-03
            2078     16.6632E-03     20.5201E-03    -3.86945E+06     137.281E+06     68.3987E+06     1.09954E+06    -36.5974E-03     62.8296E-03    -26.2321E-03     138.482E-03    -39.5266E-03     66.0343E-03    -26.0836E-03     139.453E-03
            2079     15.7884E-03     20.3262E-03    -6.52597E+06     101.566E+06     5.50706E+06     413.185E+03    -37.8689E-03     63.4492E-03    -25.5804E-03     166.714E-03    -40.6004E-03     66.5021E-03    -25.6906E-03     166.863E-03
            2080     14.9181E-03     20.1942E-03    -7.41025E+06     42.4303E+06    -21.3571E+06     845.373E+03    -35.1146E-03     60.2408E-03    -25.1262E-03     113.610E-03    -35.9113E-03     61.2239E-03    -25.2838E-03     113.329E-03
            2081     14.0462E-03     20.1045E-03    -6.73591E+06    -9.86048E+06    -15.4061E+06     1.61666E+06    -32.5941E-03     57.4230E-03    -24.8290E-03     80.1300E-03    -32.8615E-03     57.6763E-03    -24.8819E-03     79.9171E-03
            2082     13.1731E-03     20.0363E-03    -5.97535E+06    -43.1660E+06    -10.1440E+06     1.69351E+06    -31.7199E-03     56.2251E-03    -24.5052E-03     69.1443E-03    -31.8279E-03     56.1881E-03    -24.4847E-03     68.9801E-03
            2083     12.3006E-03     19.9687E-03    -5.49789E+06    -57.3970E+06    -4.14546E+06     2.29809E+06    -30.8311E-03     54.9796E-03    -24.1485E-03     62.9969E-03    -30.8663E-03     54.8036E-03    -24.0781E-03     62.8857E-03
            2084     11.4262E-03     19.9097E-03    -5.67256E+06    -69.9176E+06    -2.20974E+06     2.89261E+06    -29.7254E-03     53.4955E-03    -23.7701E-03     53.9992E-03    -29.7072E-03     53.2154E-03    -23.6716E-03     53.9322E-03
            2085     10.5518E-03     19.8598E-03    -6.08347E+06    -81.1551E+06    -1.34317E+06     3.35263E+06    -28.7856E-03     52.1721E-03    -23.3865E-03     47.4190E-03    -28.7329E-03     51.8137E-03    -23.2667E-03     47.3842E-03
            2086     9.67628E-03     19.8132E-03    -6.81239E+06    -86.9380E+06     1.27419E+06     3.95096E+06    -27.7236E-03     50.7337E-03    -23.0101E-03     42.1801E-03    -27.6567E-03     50.3303E-03    -22.8678E-03     42.1734E-03
            2087     8.79988E-03     19.7727E-03    -7.92563E+06    -90.1055E+06     1.66001E+06     4.43863E+06    -26.6963E-03     49.3295E-03    -22.6332E-03     36.9335E-03    -26.6225E-03     48.9028E-03    -22.4827E-03     36.9484E-03
            2088     7.92298E-03     19.7365E-03    -9.12170E+06    -92.7219E+06     614.663E+03     4.66190E+06    -25.6953E-03     47.9603E-03    -22.2650E-03     32.0299E-03    -25.6167E-03     47.5184E-03    -22.1143E-03     32.0590E-03
            2089     7.04505E-03     19.7055E-03    -10.5755E+06    -94.3493E+06    -1.61512E+06     4.70918E+06    -24.6763E-03     46.5909E-03    -21.9146E-03     27.4752E-03    -24.5958E-03     46.1426E-03    -21.7705E-03     27.5136E-03
            2090     6.16630E-03     19.6783E-03    -12.0476E+06    -95.0225E+06    -4.36633E+06     4.45269E+06    -23.7563E-03     45.3477E-03    -21.5914E-03     23.2130E-03    -23.6760E-03     44.8999E-03    -21.4579E-03     23.2544E-03
            2091     5.28689E-03     19.6559E-03    -13.3776E+06    -95.9707E+06    -7.06098E+06     4.03668E+06    -22.9484E-03     44.2482E-03    -21.2998E-03     19.2592E-03    -22.8680E-03     43.8001E-03    -21.1766E-03     19.2998E-03
            2092     4.40687E-03     19.6367E-03    -14.6384E+06    -96.9453E+06    -10.1155E+06     3.50042E+06    -22.2075E-03     43.2489E-03    -21.0414E-03     15.5597E-03    -22.1267E-03     42.8013E-03    -20.9302E-03     15.5967E-03
            2093     3.52618E-03     19.6219E-03    -15.8163E+06    -98.0594E+06    -12.7266E+06     2.90089E+06    -21.5866E-03     42.4118E-03    -20.8252E-03     12.1408E-03    -21.5057E-03     41.9635E-03    -20.7237E-03     12.1726E-03
            2094     2.64512E-03     19.6100E-03    -16.6967E+06    -99.0555E+06    -14.8425E+06     2.22956E+06    -21.0924E-03     41.7446E-03    -20.6523E-03     8.92861E-03    -21.0111E-03     41.2954E-03    -20.5586E-03     8.95356E-03
            2095     1.76362E-03     19.6022E-03    -17.3149E+06    -99.5473E+06    -16.3962E+06     1.51947E+06    -20.7240E-03     41.2492E-03    -20.5252E-03     5.92654E-03    -20.6426E-03     40.8005E-03    -20.4377E-03     5.94377E-03
            2096     881.837E-06     19.5968E-03    -17.6433E+06    -99.3839E+06    -17.4135E+06     792.155E+03    -20.5080E-03     40.9442E-03    -20.4362E-03     3.15474E-03    -20.4269E-03     40.4981E-03    -20.3536E-03     3.16373E-03
            2097     16.6638E-03     19.5193E-03    -4.51048E+06     136.649E+06     68.9555E+06     447.359E+03    -38.1545E-03     64.3120E-03    -26.1575E-03     140.780E-03    -41.1157E-03     67.5426E-03    -26.0043E-03     141.644E-03
            2098     15.7917E-03     19.3219E-03    -5.77701E+06     101.798E+06     7.28220E+06     1.88746E+06    -38.3107E-03     63.7761E-03    -25.4653E-03     169.605E-03    -41.0650E-03     66.8501E-03    -25.5682E-03     169.722E-03
            2099     14.9208E-03     19.1881E-03    -6.22460E+06     42.3565E+06    -20.7351E+06     1.76342E+06    -35.3378E-03     60.3241E-03    -24.9863E-03     112.386E-03    -36.1075E-03     61.2823E-03    -25.1424E-03     112.111E-03
            2100     14.0488E-03     19.1040E-03    -5.76495E+06    -9.55153E+06    -15.0876E+06     1.28530E+06    -32.9997E-03     57.6556E-03    -24.6559E-03     78.5363E-03    -33.2545E-03     57.8999E-03    -24.7091E-03     78.3168E-03
            2101     13.1759E-03     19.0334E-03    -5.49226E+06    -43.5332E+06    -10.4554E+06     1.73344E+06    -31.9370E-03     56.2325E-03    -24.2955E-03     67.7884E-03    -32.0366E-03     56.1884E-03    -24.2767E-03     67.6258E-03
            2102     12.3035E-03     18.9681E-03    -5.56612E+06    -58.1168E+06    -4.67607E+06     2.19219E+06    -31.1297E-03     55.0323E-03    -23.9026E-03     61.3840E-03    -31.1600E-03     54.8501E-03    -23.8336E-03     61.2722E-03
            2103     11.4296E-03     18.9114E-03    -5.51039E+06    -69.9992E+06    -2.31523E+06     2.92444E+06    -29.9010E-03     53.3860E-03    -23.4850E-03     52.5432E-03    -29.8793E-03     53.1030E-03    -23.3871E-03     52.4782E-03
            2104     10.5549E-03     18.8611E-03    -5.94783E+06    -81.4939E+06    -1.55941E+06     3.53062E+06    -28.8501E-03     51.9148E-03    -23.0647E-03     45.8352E-03    -28.7939E-03     51.5528E-03    -22.9457E-03     45.8046E-03
            2105     9.67983E-03     18.8174E-03    -6.57919E+06    -87.0798E+06     1.30002E+06     4.13778E+06    -27.7819E-03     50.4330E-03    -22.6512E-03     40.4680E-03    -27.7123E-03     50.0273E-03    -22.5089E-03     40.4652E-03
            2106     8.80349E-03     18.7773E-03    -7.66829E+06    -90.2197E+06     1.56254E+06     4.64858E+06    -26.5832E-03     48.8208E-03    -22.2376E-03     35.2687E-03    -26.5067E-03     48.3922E-03    -22.0878E-03     35.2881E-03
            2107     7.92619E-03     18.7431E-03    -8.75640E+06    -92.5997E+06     207.333E+03     4.94602E+06    -25.4964E-03     47.3343E-03    -21.8379E-03     30.3444E-03    -25.4147E-03     46.8923E-03    -21.6899E-03     30.3788E-03
            2108     7.04819E-03     18.7128E-03    -9.96427E+06    -93.5135E+06    -1.38964E+06     5.08599E+06    -24.4570E-03     45.9164E-03    -21.4594E-03     25.8395E-03    -24.3744E-03     45.4705E-03    -21.3163E-03     25.8839E-03
            2109     6.16927E-03     18.6875E-03    -11.3322E+06    -93.7649E+06    -4.13337E+06     4.80847E+06    -23.4762E-03     44.5797E-03    -21.1035E-03     21.7221E-03    -23.3940E-03     44.1365E-03    -20.9718E-03     21.7691E-03
            2110     5.28962E-03     18.6653E-03    -12.6183E+06    -94.6839E+06    -7.02507E+06     4.30801E+06    -22.5738E-03     43.3561E-03    -20.7823E-03     17.8679E-03    -22.4912E-03     42.9130E-03    -20.6619E-03     17.9128E-03
            2111     4.40918E-03     18.6480E-03    -13.7311E+06    -95.5143E+06    -9.57935E+06     3.83788E+06    -21.7692E-03     42.2717E-03    -20.5025E-03     14.3719E-03    -21.6865E-03     41.8290E-03    -20.3920E-03     14.4139E-03
            2112     3.52816E-03     18.6332E-03    -14.7416E+06    -96.4819E+06    -11.9888E+06     3.21317E+06    -21.0916E-03     41.3594E-03    -20.2677E-03     11.1543E-03    -21.0086E-03     40.9163E-03    -20.1664E-03     11.1906E-03
            2113     2.64658E-03     18.6227E-03    -15.5949E+06    -97.3904E+06    -14.0044E+06     2.43607E+06    -20.5482E-03     40.6304E-03    -20.0822E-03     8.17013E-03    -20.4650E-03     40.1867E-03    -19.9884E-03     8.19811E-03
            2114     1.76458E-03     18.6146E-03    -16.2489E+06    -97.8468E+06    -15.4675E+06     1.63042E+06    -20.1673E-03     40.1121E-03    -19.9448E-03     5.41098E-03    -20.0844E-03     39.6690E-03    -19.8567E-03     5.42988E-03
            2115     882.465E-06     18.6103E-03    -16.7514E+06    -97.7572E+06    -16.5051E+06     878.438E+03    -19.9136E-03     39.7710E-03    -19.8574E-03     2.87007E-03    -19.8317E-03     39.3305E-03    -19.7739E-03     2.88031E-03
            2116     16.6558E-03     18.5047E-03    -5.05921E+06     135.240E+06     68.2915E+06     198.264E+03    -38.7459E-03     64.9573E-03    -26.2114E-03     138.840E-03    -41.6388E-03     68.1142E-03    -26.0587E-03     139.612E-03
            2117     15.7922E-03     18.3161E-03    -7.47463E+06     100.460E+06     6.24762E+06     952.857E+03    -40.5504E-03     65.9828E-03    -25.4324E-03     166.371E-03    -43.2233E-03     68.9678E-03    -25.5360E-03     166.343E-03
            2118     14.9212E-03     18.1840E-03    -6.11930E+06     43.1568E+06    -20.6584E+06     1.78723E+06    -36.0039E-03     60.8631E-03    -24.8592E-03     110.563E-03    -36.7524E-03     61.8031E-03    -25.0162E-03     110.277E-03
            2119     14.0511E-03     18.0995E-03    -5.79823E+06    -9.66405E+06    -15.8862E+06     1.82128E+06    -33.5954E-03     58.0699E-03    -24.4746E-03     76.8097E-03    -33.8402E-03     58.3060E-03    -24.5316E-03     76.5943E-03
            2120     13.1798E-03     18.0331E-03    -5.59125E+06    -43.5876E+06    -11.0365E+06     1.81457E+06    -32.3578E-03     56.4242E-03    -24.0665E-03     66.3717E-03    -32.4522E-03     56.3761E-03    -24.0503E-03     66.2096E-03
            2121     12.3058E-03     17.9670E-03    -5.28086E+06    -58.4801E+06    -4.89444E+06     2.28907E+06    -31.2952E-03     54.9304E-03    -23.6352E-03     59.5355E-03    -31.3190E-03     54.7420E-03    -23.5672E-03     59.4271E-03
            2122     11.4333E-03     17.9121E-03    -5.64257E+06    -70.6899E+06    -2.55466E+06     2.98564E+06    -30.1535E-03     53.3313E-03    -23.1778E-03     50.3765E-03    -30.1281E-03     53.0424E-03    -23.0799E-03     50.3137E-03
            2123     10.5587E-03     17.8642E-03    -6.10016E+06    -81.9833E+06    -1.74541E+06     3.70326E+06    -28.9046E-03     51.6201E-03    -22.7154E-03     44.0257E-03    -28.8460E-03     51.2539E-03    -22.5965E-03     43.9997E-03
            2124     9.68330E-03     17.8204E-03    -6.51945E+06    -87.2920E+06     1.03013E+06     4.12119E+06    -27.7911E-03     50.0537E-03    -22.2625E-03     38.4759E-03    -27.7189E-03     49.6455E-03    -22.1214E-03     38.4750E-03
            2125     8.80725E-03     17.7833E-03    -7.21678E+06    -90.1273E+06     1.69934E+06     4.62239E+06    -26.5700E-03     48.3777E-03    -21.8077E-03     33.2193E-03    -26.4904E-03     47.9476E-03    -21.6580E-03     33.2400E-03
            2126     7.92996E-03     17.7495E-03    -8.37828E+06    -92.3047E+06     187.500E+03     5.20922E+06    -25.3142E-03     46.6812E-03    -21.3670E-03     28.4092E-03    -25.2301E-03     46.2392E-03    -21.2201E-03     28.4487E-03
            2127     7.05170E-03     17.7215E-03    -9.44402E+06    -92.6488E+06    -1.43592E+06     5.27310E+06    -24.2206E-03     45.1721E-03    -20.9515E-03     23.9433E-03    -24.1360E-03     44.7293E-03    -20.8106E-03     23.9915E-03
            2128     6.17265E-03     17.6965E-03    -10.5496E+06    -92.5960E+06    -3.91229E+06     5.07492E+06    -23.1481E-03     43.7094E-03    -20.5613E-03     19.9504E-03    -23.0637E-03     43.2702E-03    -20.4313E-03     20.0020E-03
            2129     5.29264E-03     17.6766E-03    -11.6273E+06    -93.3164E+06    -6.63661E+06     4.69461E+06    -22.1474E-03     42.3583E-03    -20.2109E-03     16.3187E-03    -22.0622E-03     41.9199E-03    -20.0920E-03     16.3696E-03
            2130     4.41182E-03     17.6594E-03    -12.7200E+06    -94.0765E+06    -9.00888E+06     4.12247E+06    -21.2858E-03     41.1928E-03    -19.9070E-03     13.0222E-03    -21.2008E-03     40.7548E-03    -19.7972E-03     13.0686E-03
            2131     3.53037E-03     17.6464E-03    -13.6222E+06    -94.7461E+06    -11.2060E+06     3.50571E+06    -20.5376E-03     40.1901E-03    -19.6525E-03     10.0374E-03    -20.4526E-03     39.7529E-03    -19.5514E-03     10.0780E-03
            2132     2.64824E-03     17.6359E-03    -14.4210E+06    -95.5658E+06    -13.0861E+06     2.71659E+06    -19.9586E-03     39.4107E-03    -19.4521E-03     7.33898E-03    -19.8734E-03     38.9730E-03    -19.3580E-03     7.37095E-03
            2133     1.76582E-03     17.6290E-03    -15.0414E+06    -95.9591E+06    -14.4811E+06     1.83874E+06    -19.5331E-03     38.8398E-03    -19.3067E-03     4.83283E-03    -19.4483E-03     38.4029E-03    -19.2182E-03     4.85465E-03
            2134     882.869E-06     17.6243E-03    -15.3476E+06    -95.8556E+06    -15.2824E+06     993.108E+03    -19.2691E-03     38.4951E-03    -19.2259E-03     2.57894E-03    -19.1848E-03     38.0602E-03    -19.1411E-03     2.59077E-03
            2135     16.6621E-03     17.4952E-03    -4.23653E+06     135.387E+06     69.3311E+06     808.314E+03    -39.6600E-03     65.8145E-03    -26.1546E-03     136.208E-03    -42.4671E-03     68.8863E-03    -25.9981E-03     136.923E-03
            2136     15.7922E-03     17.3056E-03    -6.35063E+06     100.234E+06     6.84285E+06     628.423E+03    -40.5757E-03     65.9039E-03    -25.3283E-03     160.993E-03    -43.1402E-03     68.7820E-03    -25.4302E-03     160.956E-03
            2137     14.9257E-03     17.1801E-03    -7.03189E+06     42.1131E+06    -22.3105E+06     1.27419E+06    -36.7223E-03     61.4254E-03    -24.7031E-03     107.258E-03    -37.4440E-03     62.3365E-03    -24.8655E-03     106.952E-03
            2138     14.0534E-03     17.0958E-03    -6.39548E+06    -9.47869E+06    -16.5057E+06     2.04353E+06    -33.9513E-03     58.2222E-03    -24.2709E-03     74.6340E-03    -34.1877E-03     58.4503E-03    -24.3305E-03     74.4209E-03
            2139     13.1819E-03     17.0307E-03    -5.70218E+06    -43.6327E+06    -11.2453E+06     1.93486E+06    -32.8321E-03     56.6508E-03    -23.8186E-03     64.2138E-03    -32.9206E-03     56.5968E-03    -23.8033E-03     64.0529E-03
            2140     12.3111E-03     16.9668E-03    -5.75303E+06    -58.7716E+06    -5.42548E+06     2.36686E+06    -31.6661E-03     55.0008E-03    -23.3347E-03     57.6297E-03    -31.6869E-03     54.8083E-03    -23.2682E-03     57.5235E-03
            2141     11.4367E-03     16.9132E-03    -5.76569E+06    -71.2159E+06    -2.85178E+06     3.23534E+06    -30.3257E-03     53.1563E-03    -22.8306E-03     48.1915E-03    -30.2961E-03     52.8618E-03    -22.7333E-03     48.1348E-03
            2142     10.5629E-03     16.8666E-03    -5.88799E+06    -82.0759E+06    -1.82297E+06     3.61623E+06    -29.1176E-03     51.4365E-03    -22.3190E-03     41.6332E-03    -29.0552E-03     51.0673E-03    -22.2005E-03     41.6080E-03
            2143     9.68763E-03     16.8252E-03    -6.44745E+06    -87.6633E+06     710.239E+03     4.02533E+06    -27.7619E-03     49.5790E-03    -21.8171E-03     36.0537E-03    -27.6863E-03     49.1674E-03    -21.6771E-03     36.0541E-03
            2144     8.81142E-03     16.7884E-03    -7.09666E+06    -90.4235E+06     1.67908E+06     4.70606E+06    -26.4691E-03     47.7905E-03    -21.3214E-03     30.7782E-03    -26.3871E-03     47.3574E-03    -21.1716E-03     30.8021E-03
            2145     7.93417E-03     16.7578E-03    -8.02117E+06    -91.7679E+06     376.198E+03     5.26060E+06    -25.1930E-03     46.0273E-03    -20.8344E-03     26.1373E-03    -25.1073E-03     45.5864E-03    -20.6878E-03     26.1792E-03
            2146     7.05578E-03     16.7298E-03    -9.03615E+06    -91.9367E+06    -1.69279E+06     5.32110E+06    -23.8987E-03     44.2730E-03    -20.3743E-03     21.8412E-03    -23.8121E-03     43.8329E-03    -20.2363E-03     21.8917E-03
            2147     6.17641E-03     16.7076E-03    -9.90404E+06    -91.5075E+06    -3.86083E+06     5.24138E+06    -22.7244E-03     42.6775E-03    -19.9531E-03     18.0083E-03    -22.6380E-03     42.2423E-03    -19.8254E-03     18.0632E-03
            2148     5.29593E-03     16.6879E-03    -10.8660E+06    -91.9784E+06    -6.32045E+06     4.98493E+06    -21.6633E-03     41.2389E-03    -19.5756E-03     14.6326E-03    -21.5764E-03     40.8053E-03    -19.4581E-03     14.6882E-03
            2149     4.41481E-03     16.6728E-03    -11.7030E+06    -92.4905E+06    -8.49172E+06     4.45036E+06    -20.7117E-03     39.9610E-03    -19.2493E-03     11.5872E-03    -20.6246E-03     39.5286E-03    -19.1407E-03     11.6386E-03
            2150     3.53268E-03     16.6601E-03    -12.5875E+06    -92.9798E+06    -10.5068E+06     3.79667E+06    -19.9269E-03     38.9049E-03    -18.9779E-03     8.90638E-03    -19.8402E-03     38.4739E-03    -18.8774E-03     8.95122E-03
            2151     2.65016E-03     16.6509E-03    -13.2938E+06    -93.5136E+06    -12.1958E+06     3.01855E+06    -19.3015E-03     38.0654E-03    -18.7640E-03     6.48153E-03    -19.2149E-03     37.6350E-03    -18.6701E-03     6.51773E-03
            2152     1.76693E-03     16.6440E-03    -13.8003E+06    -93.8528E+06    -13.3625E+06     2.03486E+06    -18.8457E-03     37.4577E-03    -18.6120E-03     4.25644E-03    -18.7593E-03     37.0279E-03    -18.5227E-03     4.28100E-03
            2153     883.651E-06     16.6404E-03    -14.1695E+06    -93.8277E+06    -14.1116E+06     1.12478E+06    -18.5713E-03     37.1021E-03    -18.5308E-03     2.28921E-03    -18.4856E-03     36.6740E-03    -18.4448E-03     2.30285E-03
            2154     16.6642E-03     16.4864E-03    -4.21137E+06     134.896E+06     69.3703E+06     645.214E+03    -41.2683E-03     67.3502E-03    -26.0819E-03     136.427E-03    -44.0539E-03     70.3988E-03    -25.9246E-03     137.025E-03
            2155     15.7968E-03     16.2991E-03    -6.46194E+06     99.6214E+06     7.47892E+06     1.40886E+06    -41.1255E-03     66.3245E-03    -25.1989E-03     160.411E-03    -43.6580E-03     69.1661E-03    -25.2966E-03     160.326E-03
            2156     14.9258E-03     16.1726E-03    -6.88036E+06     41.9977E+06    -21.6564E+06     1.81051E+06    -37.3644E-03     61.8912E-03    -24.5267E-03     104.312E-03    -38.0567E-03     62.7710E-03    -24.6859E-03     104.001E-03
            2157     14.0579E-03     16.0934E-03    -6.34977E+06    -9.06626E+06    -16.9148E+06     1.78764E+06    -34.5523E-03     58.5847E-03    -24.0324E-03     72.2570E-03    -34.7762E-03     58.8031E-03    -24.0946E-03     72.0383E-03
            2158     13.1865E-03     16.0279E-03    -5.53830E+06    -43.6205E+06    -11.6754E+06     1.99232E+06    -33.1874E-03     56.7160E-03    -23.5286E-03     62.1313E-03    -33.2671E-03     56.6551E-03    -23.5157E-03     61.9729E-03
            2159     12.3135E-03     15.9663E-03    -5.09377E+06    -59.5509E+06    -5.35572E+06     2.45966E+06    -32.1194E-03     55.1128E-03    -22.9934E-03     54.9671E-03    -32.1306E-03     54.9102E-03    -22.9265E-03     54.8635E-03
            2160     11.4418E-03     15.9143E-03    -5.61209E+06    -71.5058E+06    -2.55737E+06     3.05116E+06    -30.7110E-03     53.1380E-03    -22.4271E-03     45.4686E-03    -30.6770E-03     52.8378E-03    -22.3280E-03     45.4113E-03
            2161     10.5676E-03     15.8693E-03    -5.99665E+06    -82.1330E+06    -1.75207E+06     3.65875E+06    -29.2733E-03     51.1265E-03    -21.8532E-03     38.7627E-03    -29.2086E-03     50.7542E-03    -21.7342E-03     38.7408E-03
            2162     9.69293E-03     15.8297E-03    -6.44882E+06     -87.768E+06     778.378E+03     4.14883E+06    -27.7782E-03     49.0744E-03    -21.2962E-03     33.2243E-03    -27.7006E-03     48.6601E-03    -21.1556E-03     33.2289E-03
            2163     8.81631E-03     15.7955E-03    -7.33781E+06    -90.7213E+06     1.31238E+06     4.80231E+06    -26.3132E-03     47.0624E-03    -20.7492E-03     28.0733E-03    -26.2299E-03     46.6273E-03    -20.6005E-03     28.1010E-03
            2164     7.93900E-03     15.7652E-03    -8.05799E+06    -91.5411E+06     6.64820E+03     5.20882E+06    -24.9069E-03     45.1248E-03    -20.2179E-03     23.4375E-03    -24.8202E-03     44.6846E-03    -20.0734E-03     23.4807E-03
            2165     7.06048E-03     15.7406E-03    -8.73732E+06    -90.9984E+06    -1.83990E+06     5.26017E+06    -23.4930E-03     43.2130E-03    -19.7201E-03     19.4570E-03    -23.4054E-03     42.7767E-03    -19.5846E-03     19.5084E-03
            2166     6.18045E-03     15.7186E-03    -9.48373E+06    -90.7180E+06    -4.03013E+06     5.19369E+06    -22.2091E-03     41.4776E-03    -19.2685E-03     15.8976E-03    -22.1211E-03     41.0455E-03    -19.1433E-03     15.9532E-03
            2167     5.29985E-03     15.7014E-03    -10.0574E+06    -90.5102E+06    -5.91174E+06     5.05171E+06    -21.0479E-03     39.9184E-03    -18.8705E-03     12.7623E-03    -20.9595E-03     39.4902E-03    -18.7542E-03     12.8196E-03
            2168     4.41781E-03     15.6867E-03    -10.7468E+06    -90.9110E+06    -7.89758E+06     4.61316E+06    -20.0395E-03     38.5704E-03    -18.5309E-03     10.0903E-03    -19.9506E-03     38.1435E-03    -18.4230E-03     10.1445E-03
            2169     3.53538E-03     15.6756E-03    -11.2814E+06    -91.1820E+06    -9.54560E+06     4.04978E+06    -19.2266E-03     37.4781E-03    -18.2515E-03     7.73071E-03    -19.1373E-03     37.0527E-03    -18.1507E-03     7.77929E-03
            2170     2.65201E-03     15.6668E-03    -11.8292E+06    -91.3817E+06    -10.9092E+06     3.30072E+06    -18.5831E-03     36.6154E-03    -18.0323E-03     5.61009E-03    -18.4941E-03     36.1916E-03    -17.9371E-03     5.65025E-03
            2171     1.76838E-03     15.6611E-03    -12.3580E+06    -91.5424E+06    -12.0015E+06     2.36176E+06    -18.1247E-03     35.9979E-03    -17.8733E-03     3.69204E-03    -18.0364E-03     35.5756E-03    -17.7826E-03     3.72101E-03
            2172     884.173E-06     15.6571E-03    -12.8317E+06    -91.4666E+06    -12.8670E+06     1.38640E+06    -17.8282E-03     35.6145E-03    -17.7863E-03     1.97715E-03    -17.7411E-03     35.1945E-03    -17.6994E-03     1.99428E-03
            2173     16.6605E-03     15.4734E-03    -4.68311E+06     133.744E+06     69.3392E+06     448.133E+03    -42.4545E-03     68.5348E-03    -26.0803E-03     134.288E-03    -45.1562E-03     71.4936E-03    -25.9207E-03     134.772E-03
            2174     15.7959E-03     15.2883E-03    -6.97018E+06     98.3896E+06     8.29515E+06     1.19903E+06    -43.0523E-03     68.1593E-03    -25.1070E-03     156.825E-03    -45.4859E-03     70.8936E-03    -25.1981E-03     156.621E-03
            2175     14.9315E-03     15.1672E-03    -6.40401E+06     42.1512E+06    -20.9136E+06     2.02630E+06    -38.3139E-03     62.6462E-03    -24.3323E-03     100.934E-03    -38.9717E-03     63.4918E-03    -24.4887E-03     100.611E-03
            2176     14.0603E-03     15.0883E-03    -5.82941E+06    -8.48708E+06    -16.7774E+06     2.07893E+06    -35.3675E-03     59.1274E-03    -23.7599E-03     69.3201E-03    -35.5764E-03     59.3342E-03    -23.8230E-03     69.1022E-03
            2177     13.1903E-03     15.0264E-03    -5.60257E+06    -43.4982E+06    -11.7434E+06     1.86965E+06    -33.9439E-03     57.1244E-03    -23.1806E-03     59.3437E-03    -34.0165E-03     57.0569E-03    -23.1681E-03     59.1828E-03
            2178     12.3199E-03     14.9650E-03    -5.67463E+06    -60.1439E+06    -6.01597E+06     2.42062E+06    -32.6148E-03     55.1840E-03    -22.5692E-03     51.7117E-03    -32.6210E-03     54.9741E-03    -22.5038E-03     51.6095E-03
            2179     11.4470E-03     14.9155E-03    -5.65718E+06    -71.9995E+06    -2.63142E+06     3.16948E+06    -31.0118E-03     52.9475E-03    -21.9357E-03     42.0824E-03    -30.9730E-03     52.6408E-03    -21.8362E-03     42.0293E-03
            2180     10.5738E-03     14.8725E-03    -5.74162E+06    -82.2537E+06    -1.29737E+06     3.75367E+06    -29.3681E-03     50.6687E-03    -21.3006E-03     35.5551E-03    -29.2996E-03     50.2917E-03    -21.1795E-03     35.5377E-03
            2181     9.69835E-03     14.8351E-03    -6.60133E+06    -88.0620E+06     992.829E+03     4.28441E+06    -27.7798E-03     48.4628E-03    -20.6831E-03     29.9811E-03    -27.7007E-03     48.0450E-03    -20.5408E-03     29.9903E-03
            2182     8.82259E-03     14.8023E-03    -7.54144E+06    -90.6957E+06     1.39997E+06     4.85288E+06    -26.1009E-03     46.1802E-03    -20.0793E-03     24.9460E-03    -26.0174E-03     45.7440E-03    -19.9299E-03     24.9768E-03
            2183     7.94472E-03     14.7749E-03    -8.37535E+06    -91.0333E+06    -435.872E+03     5.10064E+06    -24.4438E-03     43.9475E-03    -19.5037E-03     20.5855E-03    -24.3578E-03     43.5099E-03    -19.3617E-03     20.6297E-03
            2184     7.06548E-03     14.7512E-03    -9.01299E+06    -90.1946E+06    -2.17362E+06     4.99785E+06    -22.9770E-03     41.9509E-03    -18.9739E-03     16.7858E-03    -22.8909E-03     41.5189E-03    -18.8409E-03     16.8354E-03
            2185     6.18553E-03     14.7318E-03    -9.41235E+06    -89.8612E+06    -4.13148E+06     4.87484E+06    -21.5509E-03     40.0481E-03    -18.4972E-03     13.5400E-03    -21.4632E-03     39.6201E-03    -18.3740E-03     13.5928E-03
            2186     5.30372E-03     14.7155E-03    -9.73839E+06    -89.4313E+06    -5.90011E+06     4.74927E+06    -20.2911E-03     38.3775E-03    -18.0864E-03     10.7952E-03    -20.2024E-03     37.9539E-03    -17.9721E-03     10.8496E-03
            2187     4.42150E-03     14.7027E-03    -9.90486E+06    -89.3307E+06    -7.19612E+06     4.50472E+06    -19.2648E-03     37.0082E-03    -17.7434E-03     8.47819E-03    -19.1749E-03     36.5869E-03    -17.6355E-03     8.53159E-03
            2188     3.53798E-03     14.6922E-03    -10.2219E+06    -89.5313E+06    -8.75021E+06     4.06612E+06    -18.4224E-03     35.8858E-03    -17.4635E-03     6.46290E-03    -18.3312E-03     35.4659E-03    -17.3626E-03     6.51216E-03
            2189     2.65416E-03     14.6846E-03    -10.4574E+06    -89.2399E+06    -9.85486E+06     3.49097E+06    -17.7894E-03     35.0365E-03    -17.2472E-03     4.68278E-03    -17.6981E-03     34.6199E-03    -17.1519E-03     4.72570E-03
            2190     1.76962E-03     14.6790E-03    -10.7071E+06    -89.1290E+06    -10.5546E+06     2.66979E+06    -17.3442E-03     34.4341E-03    -17.0899E-03     3.08136E-03    -17.2533E-03     34.0193E-03    -16.9979E-03     3.11451E-03
            2191     885.008E-06     14.6760E-03    -10.8090E+06    -88.5469E+06    -10.8931E+06     1.67508E+06    -17.0652E-03     34.0489E-03    -16.9838E-03     1.63273E-03    -16.9751E-03     33.6377E-03    -16.8942E-03     1.65368E-03
            2192     16.6633E-03     14.4575E-03    -4.32199E+06     133.574E+06     70.3040E+06     620.643E+03    -44.1115E-03     70.1345E-03    -26.0230E-03     131.597E-03    -46.7222E-03     73.0002E-03    -25.8589E-03     131.965E-03
            2193     15.8006E-03     14.2776E-03    -7.05779E+06     97.2600E+06     8.93978E+06     1.11778E+06    -44.2273E-03     69.1795E-03    -24.9521E-03     150.854E-03    -46.5357E-03     71.7824E-03    -25.0382E-03     150.581E-03
            2194     14.9322E-03     14.1590E-03    -7.22401E+06     41.7954E+06    -21.2812E+06     1.73718E+06    -39.4796E-03     63.5569E-03    -24.0773E-03     96.0091E-03    -40.1025E-03     64.3645E-03    -24.2338E-03     95.6669E-03
            2195     14.0661E-03     14.0844E-03    -5.91410E+06     -7.2983E+06    -16.7802E+06     1.85749E+06    -36.2781E-03     59.6905E-03    -23.4124E-03     65.2202E-03    -36.4742E-03     59.8885E-03    -23.4771E-03     64.9963E-03
            2196     13.1965E-03     14.0225E-03    -5.23081E+06    -43.7974E+06    -11.9538E+06     2.09572E+06    -34.6840E-03     57.4324E-03    -22.7484E-03     56.0635E-03    -34.7458E-03     57.3549E-03    -22.7371E-03     55.9056E-03
            2197     12.3256E-03     13.9647E-03    -5.30346E+06    -60.8047E+06    -5.92880E+06     2.72413E+06    -33.1490E-03     55.2060E-03    -22.0570E-03     48.3229E-03    -33.1464E-03     54.9861E-03    -21.9908E-03     48.2269E-03
            2198     11.4541E-03     13.9166E-03    -5.69761E+06    -72.2676E+06    -2.11059E+06     3.36096E+06    -31.2577E-03     52.6085E-03    -21.3508E-03     38.5373E-03    -31.2150E-03     52.2953E-03    -21.2483E-03     38.4904E-03
            2199     10.5803E-03     13.8765E-03    -6.29759E+06    -82.2665E+06    -864.284E+03     3.94579E+06    -29.4787E-03     50.1248E-03    -20.6460E-03     31.8701E-03    -29.4107E-03     49.7449E-03    -20.5219E-03     31.8584E-03
            2200     9.70598E-03     13.8406E-03    -7.01745E+06    -88.4426E+06     1.11904E+06     4.46832E+06    -27.6078E-03     47.5728E-03    -19.9650E-03     26.4924E-03    -27.5283E-03     47.1513E-03    -19.8210E-03     26.5072E-03
            2201     8.82916E-03     13.8109E-03    -8.06274E+06    -90.6914E+06     1.47085E+06     4.90178E+06    -25.7483E-03     45.0582E-03    -19.3100E-03     21.5887E-03    -25.6661E-03     44.6213E-03    -19.1594E-03     21.6228E-03
            2202     7.95108E-03     13.7853E-03    -8.83378E+06    -90.0119E+06    -251.216E+03     4.86134E+06    -23.9833E-03     42.6715E-03    -18.6882E-03     17.4754E-03    -23.9005E-03     42.2386E-03    -18.5462E-03     17.5185E-03
            2203     7.07182E-03     13.7637E-03    -9.37293E+06    -89.4255E+06    -2.22723E+06     4.51350E+06    -22.2778E-03     40.4021E-03    -18.1243E-03     13.8862E-03    -22.1940E-03     39.9741E-03    -17.9922E-03     13.9312E-03
            2204     6.19055E-03     13.7461E-03    -9.69305E+06    -89.0228E+06    -3.87597E+06     4.34287E+06    -20.7480E-03     38.3797E-03    -17.6316E-03     10.9945E-03    -20.6630E-03     37.9555E-03    -17.5079E-03     11.0416E-03
            2205     5.30862E-03     13.7316E-03    -9.78511E+06    -88.4345E+06    -5.74928E+06     4.14045E+06    -19.4510E-03     36.6602E-03    -17.2092E-03     8.65557E-03    -19.3640E-03     36.2412E-03    -17.0955E-03     8.70297E-03
            2206     4.42511E-03     13.7199E-03    -9.78360E+06    -88.1858E+06    -7.01821E+06     3.98435E+06    -18.3810E-03     35.2417E-03    -16.8607E-03     6.67854E-03    -18.2923E-03     34.8255E-03    -16.7537E-03     6.72584E-03
            2207     3.54123E-03     13.7108E-03    -9.63013E+06    -87.9413E+06    -8.07056E+06     3.72981E+06    -17.5316E-03     34.1130E-03    -16.5814E-03     5.01519E-03    -17.4408E-03     33.6991E-03    -16.4802E-03     5.06055E-03
            2208     2.65633E-03     13.7038E-03    -9.38252E+06    -87.3188E+06    -8.80571E+06     3.20549E+06    -16.8851E-03     33.2551E-03    -16.3700E-03     3.61712E-03    -16.7927E-03     32.8449E-03    -16.2738E-03     3.65668E-03
            2209     1.77124E-03     13.6989E-03    -9.01855E+06    -86.6829E+06    -8.72917E+06     2.49705E+06    -16.4552E-03     32.6794E-03    -16.2242E-03     2.37963E-03    -16.3621E-03     32.2717E-03    -16.1290E-03     2.41075E-03
            2210     885.610E-06     13.6959E-03    -8.65764E+06    -85.5571E+06    -8.49481E+06     1.46834E+06    -16.2188E-03     32.3287E-03    -16.1099E-03     1.25889E-03    -16.1258E-03     31.9258E-03    -16.0157E-03     1.27728E-03
            2211     16.6657E-03     13.4404E-03    -4.10699E+06     132.829E+06     70.9612E+06     745.970E+03    -46.6767E-03     72.5599E-03    -25.8832E-03     127.829E-03    -49.1852E-03     75.3200E-03    -25.7151E-03     128.029E-03
            2212     15.8023E-03     13.2665E-03    -7.05101E+06     96.6546E+06     10.5750E+06     1.08783E+06    -45.2776E-03     69.9721E-03    -24.6945E-03     144.836E-03    -47.4669E-03     72.4492E-03    -24.7716E-03     144.484E-03
            2213     14.9403E-03     13.1496E-03    -6.72144E+06     42.1024E+06    -19.9421E+06     1.45515E+06    -40.2887E-03     64.0179E-03    -23.7292E-03     90.5482E-03    -40.8716E-03     64.7844E-03    -23.8802E-03     90.1925E-03
            2214     14.0719E-03     13.0798E-03    -5.81516E+06    -7.21182E+06    -17.2195E+06     1.78554E+06    -36.8897E-03     59.8693E-03    -22.9796E-03     61.3459E-03    -37.0689E-03     60.0524E-03    -23.0468E-03     61.1217E-03
            2215     13.2029E-03     13.0193E-03    -5.70005E+06    -44.0690E+06    -12.5671E+06     2.36538E+06    -35.3195E-03     57.5593E-03    -22.2398E-03     53.2954E-03    -35.3746E-03     57.4743E-03    -22.2305E-03     53.1424E-03
            2216     12.3335E-03     12.9636E-03    -5.56372E+06    -61.5625E+06    -5.98800E+06     3.02365E+06    -33.7393E-03     55.2057E-03    -21.4664E-03     44.5317E-03    -33.7304E-03     54.9760E-03    -21.3990E-03     44.4422E-03
            2217     11.4617E-03     12.9185E-03    -5.71971E+06    -72.5680E+06    -1.49764E+06     3.67891E+06    -31.6025E-03     52.2779E-03    -20.6755E-03     34.7343E-03    -31.5561E-03     51.9582E-03    -20.5694E-03     34.6949E-03
            2218     10.5890E-03     12.8804E-03    -6.67127E+06    -82.4040E+06    -157.064E+03     4.18840E+06    -29.4877E-03     49.3828E-03    -19.8951E-03     28.1741E-03    -29.4194E-03     48.9990E-03    -19.7667E-03     28.1693E-03
            2219     9.71354E-03     12.8477E-03    -7.52837E+06    -88.4244E+06     1.97054E+06     4.67756E+06    -27.3805E-03     46.5317E-03    -19.1512E-03     22.7755E-03    -27.3029E-03     46.1079E-03    -19.0022E-03     22.7963E-03
            2220     8.83688E-03     12.8203E-03    -8.54014E+06    -89.8625E+06     2.15564E+06     4.82400E+06    -25.3329E-03     43.7725E-03    -18.4396E-03     18.0068E-03    -25.2540E-03     43.3381E-03    -18.2861E-03     18.0425E-03
            2221     7.95875E-03     12.7968E-03    -9.47181E+06    -89.2698E+06     55.8736E+03     4.41521E+06    -23.3399E-03     41.1139E-03    -17.7740E-03     14.1593E-03    -23.2610E-03     40.6844E-03    -17.6306E-03     14.1987E-03
            2222     7.07833E-03     12.7781E-03    -9.87889E+06    -88.5438E+06    -1.82876E+06     3.98392E+06    -21.4693E-03     38.6523E-03    -17.1830E-03     11.0306E-03    -21.3894E-03     38.2283E-03    -17.0494E-03     11.0703E-03
            2223     6.19684E-03     12.7621E-03    -10.2680E+06    -88.0991E+06    -3.54158E+06     3.60450E+06    -19.8820E-03     36.5537E-03    -16.6717E-03     8.50645E-03    -19.8014E-03     36.1342E-03    -16.5468E-03     8.54511E-03
            2224     5.31364E-03     12.7495E-03    -10.3742E+06    -87.5155E+06    -5.26087E+06     3.30954E+06    -18.5398E-03     34.7748E-03    -16.2350E-03     6.49948E-03    -18.4577E-03     34.3604E-03    -16.1194E-03     6.53685E-03
            2225     4.42979E-03     12.7391E-03    -10.2173E+06    -87.2305E+06    -6.77167E+06     3.04993E+06    -17.4188E-03     33.2934E-03    -15.8747E-03     4.91274E-03    -17.3339E-03     32.8822E-03    -15.7672E-03     4.94846E-03
            2226     3.54466E-03     12.7310E-03    -9.73932E+06    -86.6161E+06    -7.38661E+06     2.70346E+06    -16.5375E-03     32.1299E-03    -15.5923E-03     3.63033E-03    -16.4501E-03     31.7217E-03    -15.4896E-03     3.66275E-03
            2227     2.65916E-03     12.7249E-03    -8.98203E+06    -85.6463E+06    -7.49833E+06     2.20508E+06    -15.8928E-03     31.2743E-03    -15.3815E-03     2.60742E-03    -15.8028E-03     30.8700E-03    -15.2817E-03     2.63427E-03
            2228     1.77290E-03     12.7205E-03    -8.17063E+06    -84.7202E+06    -7.41807E+06     1.51269E+06    -15.4554E-03     30.6909E-03    -15.2356E-03     1.70068E-03    -15.3627E-03     30.2899E-03    -15.1380E-03     1.71923E-03
            2229     886.604E-06     12.7179E-03    -7.40242E+06    -83.3465E+06    -7.14667E+06     756.918E+03    -15.2196E-03     30.3524E-03    -15.1328E-03     859.746E-06    -15.1255E-03     29.9568E-03    -15.0369E-03     869.016E-06
            2230     16.6697E-03     12.4229E-03    -3.58212E+06     132.460E+06     72.9183E+06     239.313E+03    -49.4402E-03     75.1721E-03    -25.7319E-03     123.264E-03    -51.8136E-03     77.7921E-03    -25.5542E-03     123.285E-03
            2231     15.8111E-03     12.2530E-03    -5.59029E+06     96.0683E+06     12.8060E+06     1.20101E+06    -46.6903E-03     71.1012E-03    -24.4109E-03     140.513E-03    -48.7446E-03     73.4400E-03    -24.4781E-03     140.074E-03
            2232     14.9448E-03     12.1412E-03    -5.98841E+06     41.6858E+06    -19.5413E+06     2.22271E+06    -41.1256E-03     64.4718E-03    -23.3462E-03     87.2245E-03    -41.6700E-03     65.1999E-03    -23.4957E-03     86.8727E-03
            2233     14.0788E-03     12.0747E-03    -6.10422E+06    -6.63794E+06    -16.9375E+06     2.45672E+06    -37.9304E-03     60.4385E-03    -22.5080E-03     58.2064E-03    -38.0982E-03     60.6104E-03    -22.5742E-03     57.9889E-03
            2234     13.2106E-03     12.0159E-03    -6.16989E+06    -44.0720E+06    -12.6547E+06     2.70265E+06    -36.2493E-03     57.9147E-03    -21.6655E-03     49.8362E-03    -36.2980E-03     57.8221E-03    -21.6559E-03     49.6875E-03
            2235     12.3412E-03     11.9623E-03    -6.55101E+06    -62.3634E+06    -6.26193E+06     3.17111E+06    -34.2333E-03     55.0291E-03    -20.7958E-03     40.4464E-03    -34.2210E-03     54.7906E-03    -20.7272E-03     40.3629E-03
            2236     11.4708E-03     11.9208E-03    -6.71736E+06    -72.7911E+06    -1.19356E+06     3.76054E+06    -31.8346E-03     51.7564E-03    -19.9218E-03     30.7183E-03    -31.7891E-03     51.4323E-03    -19.8125E-03     30.6841E-03
            2237     10.5973E-03     11.8853E-03    -7.20822E+06    -82.1543E+06     1.13009E+06     4.34493E+06    -29.4579E-03     48.5266E-03    -19.0687E-03     24.2830E-03    -29.3918E-03     48.1402E-03    -18.9334E-03     24.2840E-03
            2238     9.72273E-03     11.8558E-03    -8.56963E+06    -88.2994E+06     2.85230E+06     4.75996E+06    -27.0967E-03     45.3544E-03    -18.2577E-03     18.9929E-03    -27.0240E-03     44.9298E-03    -18.1030E-03     19.0178E-03
            2239     8.84584E-03     11.8307E-03    -9.49654E+06    -89.0192E+06     2.42176E+06     4.60895E+06    -24.7012E-03     42.1954E-03    -17.4942E-03     14.6976E-03    -24.6277E-03     41.7653E-03    -17.3392E-03     14.7332E-03
            2240     7.96642E-03     11.8107E-03    -10.0654E+06    -88.1168E+06     461.731E+03     3.90742E+06    -22.4878E-03     39.2905E-03    -16.8027E-03     11.2874E-03    -22.4136E-03     38.8665E-03    -16.6580E-03     11.3221E-03
            2241     7.08569E-03     11.7936E-03    -10.7510E+06    -87.5958E+06    -1.32778E+06     3.31118E+06    -20.5937E-03     36.7902E-03    -16.1965E-03     8.61227E-03    -20.5199E-03     36.3712E-03    -16.0605E-03     8.64454E-03
            2242     6.20309E-03     11.7803E-03    -11.1487E+06    -87.0488E+06    -3.13581E+06     2.74800E+06    -18.9574E-03     34.6270E-03    -15.6697E-03     6.52700E-03    -18.8832E-03     34.2133E-03    -15.5430E-03     6.55534E-03
            2243     5.31945E-03     11.7690E-03    -11.3491E+06    -86.6850E+06    -4.76561E+06     2.21556E+06    -17.5670E-03     32.7898E-03    -15.2228E-03     4.91751E-03    -17.4916E-03     32.3802E-03    -15.1045E-03     4.94116E-03
            2244     4.43435E-03     11.7603E-03    -11.2096E+06    -86.3083E+06    -6.07768E+06     1.75618E+06    -16.4211E-03     31.2765E-03    -14.8554E-03     3.66953E-03    -16.3434E-03     30.8702E-03    -14.7444E-03     3.68874E-03
            2245     3.54858E-03     11.7533E-03    -10.8030E+06    -85.5708E+06    -7.14075E+06     1.23253E+06    -15.5249E-03     30.0891E-03    -14.5641E-03     2.71471E-03    -15.4447E-03     29.6874E-03    -14.4601E-03     2.72822E-03
            2246     2.66189E-03     11.7480E-03    -10.3099E+06    -84.5842E+06    -7.90721E+06     722.945E+03    -14.8791E-03     29.2208E-03    -14.3417E-03     1.93351E-03    -14.7967E-03     28.8244E-03    -14.2437E-03     1.94123E-03
            2247     1.77499E-03     11.7442E-03    -9.77753E+06    -83.6243E+06    -8.63091E+06     305.408E+03    -14.4279E-03     28.6065E-03    -14.1786E-03     1.24930E-03    -14.3431E-03     28.2151E-03    -14.0863E-03     1.25224E-03
            2248     887.498E-06     11.7419E-03    -9.46568E+06    -82.5195E+06    -9.04232E+06     25.2495E+03    -14.1596E-03     28.2163E-03    -14.0568E-03     601.141E-06    -14.0742E-03     27.8306E-03    -13.9686E-03     600.949E-06
            2249     16.6711E-03     11.4002E-03    -3.45621E+06     131.665E+06     73.4813E+06    -655.705E+03    -51.6222E-03     77.2492E-03    -25.6270E-03     119.186E-03    -53.8752E-03     79.7448E-03    -25.4455E-03     119.054E-03
            2250     15.8113E-03     11.2386E-03    -6.20705E+06     94.2279E+06     13.2176E+06     1.95405E+06    -48.4427E-03     72.6248E-03    -24.1821E-03     135.031E-03    -50.3647E-03     74.8215E-03    -24.2436E-03     134.522E-03
            2251     14.9506E-03     11.1319E-03    -7.28638E+06     41.3812E+06    -19.5644E+06     3.32052E+06    -42.8496E-03     65.8375E-03    -22.9879E-03     83.2679E-03    -43.3633E-03     66.5294E-03    -23.1352E-03     82.9144E-03
            2252     14.0854E-03     11.0676E-03    -7.30095E+06    -4.94702E+06    -17.1794E+06     3.09497E+06    -39.7943E-03     61.7993E-03    -22.0050E-03     54.5114E-03    -39.9570E-03     61.9687E-03    -22.0732E-03     54.2937E-03
            2253     13.2196E-03     11.0120E-03    -7.23891E+06    -44.0726E+06    -13.1052E+06     3.04333E+06    -37.3975E-03     58.4230E-03    -21.0255E-03     45.7393E-03    -37.4414E-03     58.3232E-03    -21.0166E-03     45.5954E-03
            2254     12.3512E-03     10.9618E-03    -7.04727E+06    -62.8352E+06    -5.69288E+06     3.40185E+06    -34.5556E-03     54.6136E-03    -20.0580E-03     36.1329E-03    -34.5389E-03     54.3656E-03    -19.9851E-03     36.0580E-03
            2255     11.4798E-03     10.9231E-03    -8.00504E+06    -72.6666E+06    -376.791E+03     3.79711E+06    -31.8666E-03     50.9763E-03    -19.1098E-03     26.6862E-03    -31.8246E-03     50.6494E-03    -18.9947E-03     26.6579E-03
            2256     10.6075E-03     10.8914E-03    -8.99645E+06    -82.2314E+06     1.72195E+06     4.33196E+06    -29.2358E-03     47.4278E-03    -18.1920E-03     20.4275E-03    -29.1770E-03     47.0404E-03    -18.0511E-03     20.4323E-03
            2257     9.73194E-03     10.8646E-03    -9.49295E+06    -87.9445E+06     3.19266E+06     4.65907E+06    -26.3989E-03     43.7356E-03    -17.3367E-03     15.7188E-03    -26.3304E-03     43.3121E-03    -17.1794E-03     15.7460E-03
            2258     8.85405E-03     10.8435E-03    -10.2321E+06    -87.8913E+06     2.63260E+06     4.16579E+06    -23.8040E-03     40.3605E-03    -16.5565E-03     12.0795E-03    -23.7354E-03     39.9360E-03    -16.4011E-03     12.1119E-03
            2259     7.97439E-03     10.8257E-03    -10.9482E+06    -86.7941E+06     1.00933E+06     3.27223E+06    -21.5515E-03     37.4141E-03    -15.8626E-03     9.21734E-03    -21.4840E-03     36.9968E-03    -15.7159E-03     9.24538E-03
            2260     7.09250E-03     10.8117E-03    -11.6121E+06    -86.3966E+06    -628.524E+03     2.45427E+06    -19.5941E-03     34.8536E-03    -15.2595E-03     7.06546E-03    -19.5272E-03     34.4406E-03    -15.1205E-03     7.08752E-03
            2261     6.20924E-03     10.7999E-03    -12.0201E+06    -85.9828E+06    -2.40181E+06     1.68664E+06    -17.9493E-03     32.6907E-03    -14.7413E-03     5.43859E-03    -17.8821E-03     32.2824E-03    -14.6112E-03     5.45363E-03
            2262     5.32441E-03     10.7908E-03    -12.3253E+06    -85.8613E+06    -4.17580E+06     1.02295E+06    -16.5845E-03     30.8886E-03    -14.3040E-03     4.20181E-03    -16.5161E-03     30.4837E-03    -14.1825E-03     4.21021E-03
            2263     4.43869E-03     10.7833E-03    -12.6140E+06    -85.5522E+06    -5.94247E+06     423.804E+03    -15.4846E-03     29.4259E-03    -13.9413E-03     3.22321E-03    -15.4153E-03     29.0253E-03    -13.8287E-03     3.22520E-03
            2264     3.55191E-03     10.7776E-03    -12.8415E+06    -84.9221E+06    -8.21222E+06    -35.6916E+03    -14.6263E-03     28.2696E-03    -13.6433E-03     2.45421E-03    -14.5557E-03     27.8757E-03    -13.5426E-03     2.45126E-03
            2265     2.66464E-03     10.7730E-03    -13.0824E+06    -84.2023E+06    -10.4104E+06    -350.783E+03    -13.9669E-03     27.3752E-03    -13.4083E-03     1.79499E-03    -13.8952E-03     26.9884E-03    -13.3193E-03     1.78875E-03
            2266     1.77662E-03     10.7699E-03    -13.3515E+06    -83.5421E+06    -12.0521E+06    -432.246E+03    -13.4962E-03     26.7320E-03    -13.2358E-03     1.17671E-03    -13.4244E-03     26.3511E-03    -13.1556E-03     1.17004E-03
            2267     888.517E-06     10.7679E-03    -13.5071E+06    -82.6807E+06    -13.1775E+06    -347.694E+03    -13.2213E-03     26.3209E-03    -13.0996E-03     584.543E-06    -13.1499E-03     25.9462E-03    -13.0260E-03     579.483E-06
            2268     16.6712E-03     10.3732E-03    -3.29700E+06     130.037E+06     72.5420E+06    -527.429E+03    -53.6339E-03     79.1588E-03    -25.5249E-03     112.809E-03    -55.7432E-03     81.5082E-03    -25.3459E-03     112.528E-03
            2269     15.8177E-03     10.2238E-03    -8.90664E+06     91.1720E+06     12.1549E+06     1.72841E+06    -50.6514E-03     74.5926E-03    -23.9411E-03     126.215E-03    -52.4298E-03     76.6285E-03    -23.9997E-03     125.609E-03
            2270     14.9554E-03     10.1193E-03    -9.57505E+06     42.1010E+06    -18.8883E+06     3.66886E+06    -45.0376E-03     67.6249E-03    -22.5873E-03     77.3826E-03    -45.5233E-03     68.2813E-03    -22.7289E-03     77.0114E-03
            2271     14.0937E-03     10.0597E-03    -8.93926E+06    -3.44473E+06    -17.6575E+06     3.46258E+06    -41.3636E-03     62.8089E-03    -21.4453E-03     49.5280E-03    -41.5199E-03     62.9729E-03    -21.5156E-03     49.3115E-03
            2272     13.2285E-03     10.0068E-03    -8.56290E+06    -43.9955E+06    -13.0702E+06     3.21878E+06    -38.3067E-03     58.6512E-03    -20.3445E-03     40.8666E-03    -38.3471E-03     58.5434E-03    -20.3337E-03     40.7278E-03
            2273     12.3607E-03     9.96221E-03    -8.76233E+06    -62.5861E+06    -5.26429E+06     3.38750E+06    -34.8262E-03     54.1097E-03    -19.2835E-03     31.6915E-03    -34.8125E-03     53.8584E-03    -19.2064E-03     31.6223E-03
            2274     11.4901E-03     9.92641E-03    -9.10407E+06    -72.5215E+06     485.544E+03     3.75833E+06    -31.5047E-03     49.7814E-03    -18.2768E-03     23.0570E-03    -31.4661E-03     49.4519E-03    -18.1560E-03     23.0344E-03
            2275     10.6166E-03     9.89810E-03    -9.71914E+06    -82.6769E+06     2.80323E+06     4.10193E+06    -28.3782E-03     45.7173E-03    -17.3391E-03     17.2153E-03    -28.3218E-03     45.3251E-03    -17.1911E-03     17.2222E-03
            2276     9.74060E-03     9.87618E-03    -10.2538E+06    -87.3834E+06     4.23041E+06     4.09973E+06    -25.3534E-03     41.8425E-03    -16.4891E-03     13.2766E-03    -25.2901E-03     41.4205E-03    -16.3263E-03     13.2999E-03
            2277     8.86189E-03     9.85744E-03    -10.5975E+06    -86.4464E+06     3.74215E+06     3.37010E+06    -22.6843E-03     38.4139E-03    -15.7296E-03     10.3803E-03    -22.6208E-03     37.9951E-03    -15.5701E-03     10.4045E-03
            2278     7.98088E-03     9.84310E-03    -11.2690E+06    -85.5225E+06     2.09516E+06     2.39676E+06    -20.4075E-03     35.4766E-03    -15.0691E-03     8.19169E-03    -20.3449E-03     35.0644E-03    -14.9183E-03     8.20959E-03
            2279     7.09823E-03     9.83110E-03    -11.9508E+06    -85.1236E+06     473.289E+03     1.53950E+06    -18.4929E-03     32.9999E-03    -14.5070E-03     6.66471E-03    -18.4312E-03     32.5922E-03    -14.3639E-03     6.67557E-03
            2280     6.21381E-03     9.82179E-03    -12.6995E+06    -84.9959E+06    -1.62876E+06     650.726E+03    -16.9282E-03     30.9601E-03    -14.0319E-03     5.45895E-03    -16.8669E-03     30.5567E-03    -13.8984E-03     5.46087E-03
            2281     5.32830E-03     9.81405E-03    -13.4194E+06    -85.1402E+06    -4.00563E+06    -32.9834E+03    -15.6832E-03     29.3171E-03    -13.6339E-03     4.50467E-03    -15.6216E-03     28.9172E-03    -13.5110E-03     4.49949E-03
            2282     4.44163E-03     9.80814E-03    -14.1756E+06    -85.1039E+06    -6.94413E+06    -483.511E+03    -14.7002E-03     28.0002E-03    -13.3001E-03     3.69478E-03    -14.6379E-03     27.6057E-03    -13.1908E-03     3.68503E-03
            2283     3.55435E-03     9.80327E-03    -15.0328E+06    -84.7454E+06    -10.2109E+06    -741.866E+03    -13.9254E-03     26.9488E-03    -13.0234E-03     3.00398E-03    -13.8631E-03     26.5619E-03    -12.9298E-03     2.99185E-03
            2284     2.66627E-03     9.79977E-03    -15.7663E+06    -84.3614E+06    -13.0477E+06    -801.926E+03    -13.3209E-03     26.1251E-03    -12.8043E-03     2.29930E-03    -13.2586E-03     25.7452E-03    -12.7243E-03     2.28717E-03
            2285     1.77788E-03     9.79711E-03    -16.2893E+06    -84.0366E+06    -15.1342E+06    -685.412E+03    -12.8740E-03     25.5205E-03    -12.6465E-03     1.57041E-03    -12.8117E-03     25.1459E-03    -12.5767E-03     1.56043E-03
            2286     888.919E-06     9.79568E-03    -16.6739E+06    -83.3663E+06    -16.2584E+06    -475.695E+03    -12.6187E-03     25.1610E-03    -12.5423E-03     818.154E-06    -12.5576E-03     24.7920E-03    -12.4785E-03     811.413E-06
            2287     16.6757E-03     9.34770E-03    -3.18017E+06     128.677E+06     73.4393E+06     1.07806E+06    -56.5336E-03     81.9126E-03    -25.3790E-03     106.906E-03    -58.4930E-03     84.1051E-03    -25.1938E-03     106.470E-03
            2288     15.8199E-03     9.20302E-03    -9.33817E+06     89.7872E+06     14.7234E+06     2.93011E+06    -53.4759E-03     77.0981E-03    -23.6223E-03     116.997E-03    -55.0965E-03     78.9626E-03    -23.6653E-03     116.289E-03
            2289     14.9649E-03     9.10695E-03    -10.7587E+06     42.8175E+06    -16.4343E+06     3.44231E+06    -46.8838E-03     68.9761E-03    -22.0923E-03     69.7673E-03    -47.3295E-03     69.5841E-03    -22.2210E-03     69.3800E-03
            2290     14.1024E-03     9.04982E-03    -10.2061E+06    -2.28827E+06    -16.3290E+06     3.27164E+06    -42.0654E-03     62.8885E-03    -20.8231E-03     44.0339E-03    -42.2127E-03     63.0393E-03    -20.8866E-03     43.8223E-03
            2291     13.2384E-03     9.00279E-03    -9.65746E+06    -43.8203E+06    -11.7814E+06     3.14682E+06    -38.5167E-03     58.1616E-03    -19.6448E-03     35.6722E-03    -38.5540E-03     58.0436E-03    -19.6262E-03     35.5405E-03
            2292     12.3706E-03     8.96202E-03    -9.74344E+06    -61.9223E+06    -3.63867E+06     3.22906E+06    -34.5300E-03     53.0626E-03    -18.5326E-03     27.4572E-03    -34.5187E-03     52.8079E-03    -18.4469E-03     27.3938E-03
            2293     11.4997E-03     8.93144E-03    -10.2438E+06    -72.7005E+06     2.25947E+06     3.27682E+06    -30.5128E-03     48.0297E-03    -17.5169E-03     20.0250E-03    -30.4793E-03     47.6955E-03    -17.3853E-03     20.0032E-03
            2294     10.6249E-03     8.90740E-03    -10.3808E+06    -82.8303E+06     4.94061E+06     3.36514E+06    -26.9729E-03     43.5879E-03    -16.6150E-03     15.1329E-03    -26.9212E-03     43.1912E-03    -16.4552E-03     15.1358E-03
            2295     9.74740E-03     8.88880E-03    -10.5930E+06    -86.2135E+06     6.20494E+06     2.98588E+06    -23.9669E-03     39.7880E-03    -15.8211E-03     11.9657E-03    -23.9093E-03     39.3689E-03    -15.6497E-03     11.9778E-03
            2296     8.86752E-03     8.87389E-03    -11.0456E+06    -85.1203E+06     4.84542E+06     2.16894E+06    -21.2860E-03     36.4151E-03    -15.1290E-03     9.98104E-03    -21.2281E-03     36.0018E-03    -14.9654E-03     9.99162E-03
            2297     7.98541E-03     8.86205E-03    -11.4234E+06    -84.2682E+06     3.03219E+06     1.33993E+06    -19.0875E-03     33.6395E-03    -14.5520E-03     8.53501E-03    -19.0289E-03     33.2324E-03    -14.3981E-03     8.54041E-03
            2298     7.10140E-03     8.85251E-03    -12.0797E+06    -84.0406E+06     1.23794E+06     559.154E+03    -17.3584E-03     31.4368E-03    -14.0783E-03     7.48968E-03    -17.3001E-03     31.0337E-03    -13.9327E-03     7.48845E-03
            2299     6.21620E-03     8.84494E-03    -12.9340E+06    -84.2032E+06    -1.00212E+06    -172.460E+03    -16.0044E-03     29.6935E-03    -13.6892E-03     6.65900E-03    -15.9464E-03     29.2937E-03    -13.5533E-03     6.65061E-03
            2300     5.32976E-03     8.83877E-03    -14.0316E+06    -84.6303E+06    -4.12379E+06    -697.886E+03    -14.9655E-03     28.3336E-03    -13.3681E-03     5.86879E-03    -14.9075E-03     27.9373E-03    -13.2456E-03     5.85521E-03
            2301     4.44270E-03     8.83391E-03    -15.1792E+06    -85.0493E+06    -7.94452E+06    -984.551E+03    -14.1755E-03     27.2776E-03    -13.1021E-03     5.09381E-03    -14.1169E-03     26.8863E-03    -12.9965E-03     5.07772E-03
            2302     3.55479E-03     8.83011E-03    -16.1430E+06    -84.9300E+06    -11.4356E+06    -1.09150E+06    -13.5632E-03     26.4498E-03    -12.8866E-03     4.24031E-03    -13.5044E-03     26.0654E-03    -12.7973E-03     4.22376E-03
            2303     2.66659E-03     8.82714E-03    -16.8839E+06    -84.7886E+06    -14.2536E+06    -1.04349E+06    -13.0866E-03     25.8090E-03    -12.7224E-03     3.33558E-03    -13.0275E-03     25.4304E-03    -12.6463E-03     3.32042E-03
            2304     1.77784E-03     8.82524E-03    -17.4898E+06    -84.7424E+06    -16.3259E+06    -820.067E+03    -12.7672E-03     25.3757E-03    -12.6085E-03     2.33463E-03    -12.7081E-03     25.0011E-03    -12.5419E-03     2.32298E-03
            2305     889.072E-06     8.82388E-03    -17.8751E+06    -84.3673E+06    -17.4982E+06    -514.556E+03    -12.5639E-03     25.1207E-03    -12.5568E-03     1.29101E-03    -12.5056E-03     24.7502E-03    -12.4961E-03     1.28381E-03
            2306     16.6763E-03     8.31739E-03    -4.51573E+06     126.393E+06     75.8647E+06     1.94070E+06    -60.3948E-03     85.5925E-03    -25.1976E-03     101.000E-03    -62.2089E-03     87.6199E-03    -24.9950E-03     100.392E-03
            2307     15.8302E-03     8.17923E-03    -8.25761E+06     91.0738E+06     23.1408E+06     4.38797E+06    -56.2616E-03     79.5163E-03    -23.2547E-03     107.000E-03    -57.7111E-03     81.1941E-03    -23.2590E-03     106.220E-03
            2308     14.9732E-03     8.09295E-03    -9.01703E+06     44.0980E+06    -9.96205E+06      3.8209E+06    -47.9599E-03     69.5225E-03    -21.5625E-03     62.2719E-03    -48.3532E-03     70.0702E-03    -21.6632E-03     61.8966E-03
            2309     14.1126E-03     8.04139E-03    -9.79313E+06    -2.02160E+06    -13.1429E+06     3.65272E+06    -42.1339E-03     62.3364E-03    -20.2025E-03     39.6081E-03    -42.2667E-03     62.4660E-03    -20.2511E-03     39.4166E-03
            2310     13.2475E-03     7.99850E-03    -10.6629E+06    -42.7708E+06    -8.97161E+06     3.55316E+06    -37.8238E-03     56.8223E-03    -18.9985E-03     31.7095E-03    -37.8616E-03     56.6970E-03    -18.9659E-03     31.5977E-03
            2311     12.3793E-03     7.96393E-03    -11.4807E+06    -61.4517E+06    -1.21585E+06     2.93014E+06    -33.2942E-03     51.1994E-03    -17.9052E-03     24.4144E-03    -33.2906E-03     50.9408E-03    -17.8055E-03     24.3585E-03
            2312     11.5065E-03     7.93813E-03    -11.4834E+06    -72.3959E+06     5.29105E+06     2.29190E+06    -28.9345E-03     45.8839E-03    -16.9494E-03     18.0657E-03    -28.9096E-03     45.5462E-03    -16.8013E-03     18.0393E-03
            2313     10.6306E-03     7.91898E-03    -11.2118E+06    -82.2505E+06     7.77343E+06     1.91573E+06    -25.2012E-03     41.3371E-03    -16.1360E-03     14.4714E-03    -25.1577E-03     40.9395E-03    -15.9616E-03     14.4609E-03
            2314     9.75155E-03     7.90348E-03    -11.3176E+06    -85.2908E+06     7.58664E+06     1.31056E+06    -22.1414E-03     37.5943E-03    -15.4530E-03     12.3247E-03    -22.0903E-03     37.1785E-03    -15.2749E-03     12.3187E-03
            2315     8.86998E-03     7.89236E-03    -11.4427E+06    -83.8636E+06     6.03144E+06     605.820E+03    -19.7092E-03     34.6008E-03    -14.8916E-03     11.1143E-03    -19.6568E-03     34.1926E-03    -14.7232E-03     11.1067E-03
            2316     7.98636E-03     7.88251E-03    -11.8374E+06    -83.4395E+06     3.38717E+06    -41.0972E+03    -17.8072E-03     32.2502E-03    -14.4430E-03     10.2911E-03    -17.7524E-03     31.8475E-03    -14.2879E-03     10.2799E-03
            2317     7.10151E-03     7.87538E-03    -12.1822E+06    -83.3915E+06     1.46514E+06    -601.418E+03    -16.3826E-03     30.4785E-03    -14.0960E-03     9.52072E-03    -16.3261E-03     30.0785E-03    -13.9501E-03     9.50526E-03
            2318     6.21526E-03     7.86888E-03    -12.9188E+06    -83.7474E+06    -817.141E+03    -1.00696E+06    -15.3405E-03     29.1669E-03    -13.8265E-03     8.79424E-03    -15.2834E-03     28.7691E-03    -13.6904E-03     8.77561E-03
            2319     5.32854E-03     7.86414E-03    -13.8321E+06    -84.5037E+06    -4.16783E+06    -1.34197E+06    -14.5930E-03     28.2066E-03    -13.6136E-03     7.91932E-03    -14.5342E-03     27.8108E-03    -13.4919E-03     7.89785E-03
            2320     4.44093E-03     7.85994E-03    -14.6676E+06    -85.2163E+06    -7.73688E+06    -1.47260E+06    -14.0647E-03     27.5113E-03    -13.4466E-03     6.96586E-03    -14.0037E-03     27.1181E-03    -13.3404E-03     6.94381E-03
            2321     3.55333E-03     7.85680E-03    -15.3840E+06    -85.3254E+06    -10.8527E+06    -1.48501E+06    -13.6781E-03     26.9967E-03    -13.3187E-03     5.79711E-03    -13.6158E-03     26.6083E-03    -13.2269E-03     5.77576E-03
            2322     2.66505E-03     7.85452E-03    -15.9651E+06    -85.4191E+06    -13.2726E+06    -1.30131E+06    -13.4078E-03     26.6347E-03    -13.2269E-03     4.55092E-03    -13.3447E-03     26.2501E-03    -13.1462E-03     4.53263E-03
            2323     1.77687E-03     7.85260E-03    -16.4321E+06    -85.6754E+06    -15.2083E+06    -998.667E+03    -13.2323E-03     26.4001E-03    -13.1678E-03     3.14505E-03    -13.1683E-03     26.0177E-03    -13.0958E-03     3.13123E-03
            2324     888.348E-06     7.85181E-03    -16.7674E+06    -85.4640E+06    -16.3819E+06    -517.476E+03    -13.1454E-03     26.2866E-03    -13.1412E-03     1.75939E-03    -13.0816E-03     25.9074E-03    -13.0748E-03     1.75223E-03
            2325     16.6832E-03     7.27970E-03    -5.79706E+06     124.102E+06     77.7062E+06     1.70407E+06    -64.5154E-03     89.5001E-03    -24.9847E-03     95.5827E-03    -66.2090E-03     91.3892E-03    -24.7677E-03     94.7914E-03
            2326     15.8350E-03     7.15435E-03    -7.37815E+06     90.4894E+06     29.0096E+06     3.10640E+06    -58.1054E-03     80.9709E-03    -22.8655E-03     95.3777E-03    -59.3814E-03     82.4599E-03    -22.8410E-03     94.5295E-03
            2327     14.9816E-03     7.07837E-03    -8.48653E+06     44.2526E+06    -5.13873E+06     5.22059E+06    -47.8626E-03     68.9397E-03    -21.0771E-03     54.8750E-03    -48.2046E-03     69.4247E-03    -21.1547E-03     54.5475E-03
            2328     14.1201E-03     7.03318E-03    -11.0424E+06    -1.05241E+06    -9.81658E+06     6.04757E+06    -41.3056E-03     61.0075E-03    -19.7019E-03     36.2338E-03    -41.4351E-03     61.1232E-03    -19.7335E-03     36.0961E-03
            2329     13.2548E-03     6.99646E-03    -13.6789E+06    -40.5352E+06    -5.92921E+06     4.52925E+06    -36.3756E-03     54.9118E-03    -18.5362E-03     29.3609E-03    -36.4276E-03     54.7891E-03    -18.4872E-03     29.2804E-03
            2330     12.3843E-03     6.96755E-03    -14.0472E+06    -59.0044E+06     2.52396E+06     1.87402E+06    -31.3281E-03     48.8589E-03    -17.5308E-03     22.5992E-03    -31.3417E-03     48.6063E-03    -17.4123E-03     22.5432E-03
            2331     11.5104E-03     6.94729E-03    -13.3038E+06    -71.8296E+06     8.84567E+06     209.666E+03    -26.6905E-03     43.3961E-03    -16.7056E-03     17.8733E-03    -26.6788E-03     43.0568E-03    -16.5379E-03     17.8289E-03
            2332     10.6322E-03     6.93237E-03    -13.0818E+06    -81.9844E+06     9.97876E+06    -338.816E+03    -23.0193E-03     39.0665E-03    -16.0472E-03     15.8076E-03    -22.9881E-03     38.6691E-03    -15.8595E-03     15.7735E-03
            2333     9.75106E-03     6.92097E-03    -12.6733E+06    -84.4447E+06     8.50940E+06    -967.951E+03    -20.2919E-03     35.8210E-03    -15.5291E-03     14.6922E-03    -20.2500E-03     35.4098E-03    -15.3457E-03     14.6603E-03
            2334     8.86782E-03     6.91175E-03    -12.2792E+06    -83.3519E+06     6.62176E+06    -1.52235E+06    -18.3298E-03     33.4630E-03    -15.1332E-03     13.7702E-03    -18.2831E-03     33.0577E-03    -14.9614E-03     13.7372E-03
            2335     7.98335E-03     6.90452E-03    -12.0622E+06    -82.9251E+06     4.00104E+06    -1.81210E+06    -16.8809E-03     31.7182E-03    -14.8373E-03     13.0357E-03    -16.8288E-03     31.3173E-03    -14.6796E-03     13.0030E-03
            2336     7.09741E-03     6.89830E-03    -12.1727E+06    -83.3281E+06     1.50159E+06    -2.08669E+06    -15.8789E-03     30.5040E-03    -14.6251E-03     12.2177E-03    -15.8225E-03     30.1042E-03    -14.4791E-03     12.1841E-03
            2337     6.21122E-03     6.89320E-03    -12.4399E+06    -83.7795E+06    -923.412E+03    -2.19832E+06    -15.2052E-03     29.6799E-03    -14.4748E-03     11.1960E-03    -15.1454E-03     29.2813E-03    -14.3399E-03     11.1628E-03
            2338     5.32408E-03     6.88892E-03    -12.7830E+06    -84.7046E+06    -3.97683E+06    -2.32510E+06    -14.7774E-03     29.1440E-03    -14.3666E-03     10.0081E-03    -14.7133E-03     28.7453E-03    -14.2451E-03     9.97449E-03
            2339     4.43720E-03     6.88524E-03    -13.0496E+06    -85.6462E+06    -6.93177E+06    -2.35299E+06    -14.4988E-03     28.7900E-03    -14.2912E-03     8.59796E-03    -14.4301E-03     28.3910E-03    -14.1828E-03     8.56499E-03
            2340     3.54955E-03     6.88258E-03    -13.2091E+06    -86.0036E+06    -9.16479E+06    -2.21474E+06    -14.3380E-03     28.5798E-03    -14.2418E-03     7.07936E-03    -14.2663E-03     28.1824E-03    -14.1438E-03     7.04893E-03
            2341     2.66240E-03     6.88013E-03    -13.3873E+06    -86.4405E+06    -10.9204E+06    -1.86218E+06    -14.2620E-03     28.4697E-03    -14.2077E-03     5.41415E-03    -14.1880E-03     28.0728E-03    -14.1175E-03     5.38885E-03
            2342     1.77484E-03     6.87886E-03    -13.5305E+06    -86.8920E+06    -12.3404E+06    -1.23363E+06    -14.2004E-03     28.3847E-03    -14.1843E-03     3.71406E-03    -14.1243E-03     27.9877E-03    -14.1004E-03     3.69736E-03
            2343     887.497E-06     6.87750E-03    -13.6810E+06    -86.6653E+06    -13.3078E+06    -592.379E+03    -14.1680E-03     28.3450E-03    -14.1771E-03     2.06137E-03    -14.0915E-03     27.9508E-03    -14.0981E-03     2.05333E-03
            2344     16.6844E-03     6.23597E-03    -4.90816E+06     123.113E+06     79.6325E+06     1.79913E+06    -67.2067E-03     91.9681E-03    -24.7614E-03     88.3398E-03    -68.7283E-03     93.6799E-03    -24.5346E-03     87.4439E-03
            2345     15.8444E-03     6.12854E-03    -8.23817E+06     85.9955E+06     28.9635E+06     3.74937E+06    -57.9468E-03     80.4895E-03    -22.5427E-03     82.9785E-03    -59.0200E-03     81.7572E-03    -22.5106E-03     82.1587E-03
            2346     14.9878E-03     6.06521E-03    -13.3912E+06     40.9380E+06    -6.48770E+06     8.39377E+06    -46.5125E-03     67.2742E-03    -20.7617E-03     49.8847E-03    -46.8235E-03     67.7029E-03    -20.8340E-03     49.6467E-03
            2347     14.1247E-03     6.02706E-03    -17.4377E+06     2.02364E+06    -8.67108E+06     9.11742E+06    -39.7593E-03     59.2155E-03    -19.4563E-03     34.9952E-03    -39.9131E-03     59.3404E-03    -19.4773E-03     34.9255E-03
            2348     13.2570E-03     5.99577E-03    -18.4908E+06    -34.4229E+06    -2.15480E+06     3.99033E+06    -34.1555E-03     52.5576E-03    -18.4021E-03     28.2092E-03    -34.2374E-03     52.4587E-03    -18.3362E-03     28.1435E-03
            2349     12.3857E-03     5.97373E-03    -17.1555E+06    -55.5302E+06     6.44483E+06    -806.973E+03    -28.4929E-03     46.0582E-03    -17.5652E-03     23.2321E-03    -28.5290E-03     45.8180E-03    -17.4276E-03     23.1567E-03
            2350     11.5081E-03     5.95924E-03    -16.3049E+06    -71.9955E+06     11.0482E+06    -2.68159E+06    -24.1110E-03     41.0534E-03    -16.9425E-03     20.2972E-03    -24.1157E-03     40.7129E-03    -16.7592E-03     20.2245E-03
            2351     10.6275E-03     5.94804E-03    -15.4942E+06    -81.4514E+06     11.4291E+06    -3.52265E+06    -21.0532E-03     37.5362E-03    -16.4830E-03     19.0431E-03    -21.0362E-03     37.1421E-03    -16.2853E-03     18.9732E-03
            2352     9.74488E-03     5.93950E-03    -14.5371E+06    -83.7152E+06     8.83085E+06    -4.16408E+06    -19.0247E-03     35.1654E-03    -16.1406E-03     18.1552E-03    -18.9933E-03     34.7597E-03    -15.9540E-03     18.0852E-03
            2353     8.86096E-03     5.93186E-03    -13.5092E+06    -83.4383E+06     6.15210E+06    -4.40363E+06    -17.6282E-03     33.5257E-03    -15.8976E-03     17.0243E-03    -17.5865E-03     33.1220E-03    -15.7262E-03     16.9562E-03
            2354     7.97566E-03     5.92638E-03    -12.6193E+06    -83.2738E+06     3.76468E+06    -4.25124E+06    -16.7223E-03     32.4548E-03    -15.7325E-03     15.9610E-03    -16.6720E-03     32.0531E-03    -15.5746E-03     15.8982E-03
            2355     7.09022E-03     5.92058E-03    -12.0337E+06    -83.8037E+06     1.06216E+06    -4.06165E+06    -16.1591E-03     31.7798E-03    -15.6207E-03     14.6139E-03    -16.1005E-03     31.3779E-03    -15.4764E-03     14.5558E-03
            2356     6.20392E-03     5.91651E-03    -11.5674E+06    -84.3848E+06    -1.43657E+06    -3.87187E+06    -15.8141E-03     31.3611E-03    -15.5470E-03     13.0548E-03    -15.7483E-03     30.9587E-03    -15.4151E-03     13.0007E-03
            2357     5.31799E-03     5.91199E-03    -11.3759E+06    -85.3593E+06    -4.13274E+06    -3.57163E+06    -15.6119E-03     31.1105E-03    -15.4987E-03     11.3575E-03    -15.5395E-03     30.7066E-03    -15.3790E-03     11.3084E-03
            2358     4.43138E-03     5.90910E-03    -11.4371E+06    -86.3885E+06    -6.73806E+06    -3.36240E+06    -15.5074E-03     30.9752E-03    -15.4678E-03     9.51064E-03    -15.4299E-03     30.5698E-03    -15.3596E-03     9.46505E-03
            2359     3.54537E-03     5.90589E-03    -11.5466E+06    -87.2111E+06    -8.64678E+06    -3.00191E+06    -15.4620E-03     30.9113E-03    -15.4494E-03     7.66214E-03    -15.3809E-03     30.5047E-03    -15.3494E-03     7.62182E-03
            2360     2.65882E-03     5.90407E-03    -11.7852E+06    -87.9798E+06    -10.2402E+06    -2.37187E+06    -15.4414E-03     30.8785E-03    -15.4371E-03     5.75044E-03    -15.3581E-03     30.4706E-03    -15.3437E-03     5.71874E-03
            2361     1.77265E-03     5.90220E-03    -11.9417E+06    -88.3661E+06    -11.0674E+06    -1.58266E+06    -15.4459E-03     30.8712E-03    -15.4252E-03     3.89905E-03    -15.3616E-03     30.4627E-03    -15.3351E-03     3.87793E-03
            2362     886.302E-06     5.90154E-03    -11.9655E+06    -88.1838E+06    -11.7296E+06    -833.813E+03    -15.3987E-03     30.8293E-03    -15.4305E-03     2.12490E-03    -15.3137E-03     30.4227E-03    -15.3440E-03     2.11378E-03
            2363     16.6930E-03     5.19330E-03    -5.50078E+06     119.215E+06     79.5379E+06     2.77460E+06    -67.0236E-03     91.7253E-03    -24.7017E-03     84.9214E-03    -68.3774E-03     93.2540E-03    -24.4689E-03     84.0449E-03
            2364     15.8438E-03     5.10289E-03    -11.7275E+06     79.1356E+06     30.8948E+06     9.69529E+06    -56.3893E-03     78.9275E-03    -22.5382E-03     74.8078E-03    -57.2772E-03     79.9674E-03    -22.4814E-03     74.1647E-03
            2365     14.9867E-03     5.05544E-03    -19.9479E+06     38.8533E+06    -2.48180E+06     13.8781E+06    -45.2437E-03     66.0793E-03    -20.8356E-03     46.9833E-03    -45.5492E-03     66.4602E-03    -20.8754E-03     46.8660E-03
            2366     14.1225E-03     5.02030E-03    -22.6944E+06     10.2573E+06    -4.49143E+06     9.16017E+06    -37.3112E-03     56.9392E-03    -19.6280E-03     34.7329E-03    -37.4947E-03     57.0925E-03    -19.6324E-03     34.6975E-03
            2367     13.2546E-03     4.99848E-03    -20.8108E+06    -26.1823E+06     1.22412E+06     726.534E+03    -30.7677E-03     49.5330E-03    -18.7653E-03     29.8077E-03    -30.8703E-03     49.4659E-03    -18.6910E-03     29.7263E-03
            2368     12.3774E-03     4.98350E-03    -19.4323E+06    -53.8907E+06     8.51137E+06    -4.08723E+06    -25.6386E-03     43.8119E-03    -18.1732E-03     26.4028E-03    -25.6880E-03     43.5766E-03    -18.0244E-03     26.2995E-03
            2369     11.4984E-03     4.97232E-03    -19.0933E+06    -70.7631E+06     12.3981E+06    -6.23969E+06    -22.2182E-03     39.9889E-03    -17.7707E-03     24.3629E-03    -22.2390E-03     39.6549E-03    -17.5784E-03     24.2521E-03
            2370     10.6167E-03     4.96515E-03    -17.9661E+06    -80.6964E+06     11.3702E+06    -7.72619E+06    -20.2390E-03     37.7187E-03    -17.4797E-03     22.9824E-03    -20.2344E-03     37.3309E-03    -17.2798E-03     22.8627E-03
            2371     9.73363E-03     4.95704E-03    -15.9750E+06    -84.0598E+06     7.81210E+06    -8.16826E+06    -18.8671E-03     36.1299E-03    -17.2628E-03     21.5038E-03    -18.8403E-03     35.7252E-03    -17.0787E-03     21.3848E-03
            2372     8.84941E-03     4.95209E-03    -14.3004E+06    -84.5289E+06     4.83937E+06    -8.04400E+06    -18.0571E-03     35.1710E-03    -17.1139E-03     19.7349E-03    -18.0154E-03     34.7644E-03    -16.9464E-03     19.6217E-03
            2373     7.96509E-03     4.94583E-03    -12.6897E+06    -84.6569E+06     2.15867E+06    -7.41639E+06    -17.6076E-03     34.6147E-03    -17.0070E-03     17.8525E-03    -17.5530E-03     34.2080E-03    -16.8551E-03     17.7500E-03
            2374     7.08021E-03     4.94176E-03    -11.2967E+06    -85.1205E+06    -514.904E+03    -6.57916E+06    -17.3177E-03     34.2430E-03    -16.9254E-03     15.8361E-03    -17.2510E-03     33.8354E-03    -16.7881E-03     15.7464E-03
            2375     6.19562E-03     4.93671E-03    -10.4927E+06    -85.8631E+06    -2.92285E+06    -5.63834E+06    -17.1336E-03     33.9957E-03    -16.8621E-03     13.7450E-03    -17.0580E-03     33.5863E-03    -16.7370E-03     13.6687E-03
            2376     5.31045E-03     4.93351E-03    -10.2815E+06    -86.7575E+06    -5.21114E+06    -4.69073E+06    -16.9892E-03     33.8012E-03    -16.8120E-03     11.6279E-03    -16.9077E-03     33.3901E-03    -16.6973E-03     11.5648E-03
            2377     4.42569E-03     4.92964E-03    -10.4346E+06    -87.7170E+06    -7.47959E+06    -3.92803E+06    -16.8969E-03     33.6678E-03    -16.7709E-03     9.56871E-03    -16.8113E-03     33.2553E-03    -16.6660E-03     9.51613E-03
            2378     3.54043E-03     4.92739E-03    -10.9113E+06    -88.8411E+06    -9.40829E+06    -3.11029E+06    -16.8196E-03     33.5579E-03    -16.7383E-03     7.55326E-03    -16.7319E-03     33.1432E-03    -16.6407E-03     7.51176E-03
            2379     2.65548E-03     4.92485E-03    -11.5173E+06    -89.7046E+06    -10.8439E+06    -2.29838E+06    -16.7637E-03     33.4769E-03    -16.7133E-03     5.63188E-03    -16.6756E-03     33.0608E-03    -16.6207E-03     5.60128E-03
            2380     1.77028E-03     4.92362E-03    -12.0128E+06    -90.0043E+06    -11.7161E+06    -1.58559E+06    -16.7248E-03     33.4177E-03    -16.6929E-03     3.74521E-03    -16.6374E-03     33.0020E-03    -16.6035E-03     3.72415E-03
            2381     885.179E-06     4.92238E-03    -12.3202E+06    -89.9718E+06    -12.1414E+06    -975.903E+03    -16.6900E-03     33.3647E-03    -16.6747E-03     2.01500E-03    -16.6036E-03     32.9503E-03    -16.5871E-03     2.00209E-03
            2382     16.6813E-03     4.14691E-03    -6.82228E+06     110.501E+06     75.9498E+06     6.91274E+06    -65.4994E-03     90.4822E-03    -24.9827E-03     82.6856E-03    -66.6888E-03     91.8205E-03    -24.7533E-03     81.9256E-03
            2383     15.8373E-03     4.08320E-03    -17.1312E+06     71.5869E+06     38.3895E+06     14.9437E+06    -55.6919E-03     78.6383E-03    -22.9463E-03     63.1717E-03    -56.4083E-03     79.4391E-03    -22.8333E-03     62.6966E-03
            2384     14.9803E-03     4.03898E-03    -19.0662E+06     43.9158E+06     16.4149E+06     14.8957E+06    -42.0313E-03     63.4268E-03    -21.3955E-03     41.8222E-03    -42.3205E-03     63.7586E-03    -21.3494E-03     41.7819E-03
            2385     14.1158E-03     4.02118E-03    -17.8022E+06     20.7783E+06     4.77161E+06     7.08939E+06    -32.8746E-03     53.2585E-03    -20.3839E-03     36.9466E-03    -33.0484E-03     53.4301E-03    -20.3644E-03     36.9253E-03
            2386     13.2381E-03     4.00327E-03    -18.6556E+06    -19.6442E+06     596.914E+03    -972.121E+03    -27.8340E-03     47.6005E-03    -19.7665E-03     34.2022E-03    -27.9274E-03     47.5565E-03    -19.7080E-03     34.1219E-03
            2387     12.3628E-03     3.99402E-03    -19.7772E+06    -50.9850E+06     6.40952E+06    -6.54340E+06    -24.3039E-03     43.6965E-03    -19.3926E-03     30.1273E-03    -24.3520E-03     43.4750E-03    -19.2580E-03     30.0036E-03
            2388     11.4814E-03     3.98677E-03    -19.0632E+06    -68.3186E+06     9.52556E+06    -10.1835E+06    -22.0780E-03     41.2091E-03    -19.1311E-03     28.3175E-03    -22.0961E-03     40.8892E-03    -18.9567E-03     28.1617E-03
            2389     10.6003E-03     3.97904E-03    -17.3708E+06    -80.6835E+06     7.89317E+06    -12.3924E+06    -21.0190E-03     39.9424E-03    -18.9234E-03     25.7762E-03    -21.0051E-03     39.5573E-03    -18.7417E-03     25.6000E-03
            2390     9.71815E-03     3.97459E-03    -15.2131E+06    -85.5291E+06     3.90464E+06    -12.7605E+06    -20.2525E-03     38.9905E-03    -18.7379E-03     23.1487E-03    -20.2132E-03     38.5819E-03    -18.5723E-03     22.9729E-03
            2391     8.83565E-03     3.96796E-03    -12.8944E+06    -86.7138E+06     910.352E+03    -11.9317E+06    -19.7471E-03     38.3308E-03    -18.5837E-03     20.6219E-03    -19.6890E-03     37.9162E-03    -18.4347E-03     20.4601E-03
            2392     7.95292E-03     3.96398E-03    -11.1192E+06    -87.1223E+06    -1.55597E+06    -10.5712E+06    -19.4261E-03     37.8750E-03    -18.4489E-03     17.9072E-03    -19.3543E-03     37.4587E-03    -18.3142E-03     17.7653E-03
            2393     7.07002E-03     3.95863E-03    -9.91752E+06    -87.8634E+06    -3.98692E+06    -8.76911E+06    -19.1261E-03     37.4522E-03    -18.3261E-03     15.4951E-03    -19.0433E-03     37.0336E-03    -18.2042E-03     15.3779E-03
            2394     6.18671E-03     3.95517E-03    -9.50020E+06    -88.4438E+06    -5.67999E+06    -6.84406E+06    -18.8731E-03     37.0904E-03    -18.2173E-03     13.0806E-03    -18.7846E-03     36.6705E-03    -18.1037E-03     12.9894E-03
            2395     5.30351E-03     3.95103E-03    -9.54390E+06    -88.9214E+06    -7.10166E+06    -5.21022E+06    -18.6287E-03     36.7478E-03    -18.1191E-03     10.8778E-03    -18.5375E-03     36.3275E-03    -18.0118E-03     10.8084E-03
            2396     4.41979E-03     3.94838E-03    -10.0601E+06    -89.7645E+06    -8.85910E+06    -3.77292E+06    -18.3959E-03     36.4278E-03    -18.0319E-03     8.79379E-03    -18.3034E-03     36.0065E-03    -17.9315E-03     8.74355E-03
            2397     3.53617E-03     3.94544E-03    -10.7745E+06    -90.6375E+06    -10.2519E+06    -2.63341E+06    -18.2012E-03     36.1613E-03    -17.9601E-03     6.86259E-03    -18.1089E-03     35.7386E-03    -17.8643E-03     6.82748E-03
            2398     2.65221E-03     3.94378E-03    -11.3627E+06    -91.2506E+06    -11.1486E+06    -1.74626E+06    -18.0440E-03     35.9476E-03    -17.9037E-03     5.06671E-03    -17.9524E-03     35.5240E-03    -17.8106E-03     5.04340E-03
            2399     1.76824E-03     3.94199E-03    -11.9515E+06    -91.4633E+06    -12.0627E+06    -1.16504E+06    -17.9202E-03     35.7831E-03    -17.8629E-03     3.36141E-03    -17.8300E-03     35.3606E-03    -17.7732E-03     3.34588E-03
            2400     884.130E-06     3.94149E-03    -12.2938E+06    -91.5257E+06    -12.4068E+06    -655.944E+03    -17.8519E-03     35.6963E-03    -17.8444E-03     1.81222E-03    -17.7627E-03     35.2745E-03    -17.7559E-03     1.80349E-03
            2401     16.6740E-03     3.10626E-03    -7.64542E+06     101.103E+06     74.2169E+06     12.1556E+06    -65.0958E-03     90.5927E-03    -25.4969E-03     73.6110E-03    -66.0375E-03     91.6530E-03    -25.2613E-03     72.9658E-03
            2402     15.8299E-03     3.05102E-03    -12.6087E+06     72.0982E+06     52.0213E+06     13.3396E+06    -49.9213E-03     73.6220E-03    -23.7007E-03     49.7186E-03    -50.4467E-03     74.2113E-03    -23.5269E-03     49.3964E-03
            2403     14.9693E-03     3.03844E-03    -10.8882E+06     49.3898E+06     29.7027E+06     10.4677E+06    -35.3834E-03     57.9017E-03    -22.5183E-03     41.9197E-03    -35.6212E-03     58.1919E-03    -22.4256E-03     41.9016E-03
            2404     14.0895E-03     3.02170E-03    -11.4529E+06     26.8209E+06     4.34890E+06     7.10018E+06    -29.7532E-03     51.5497E-03    -21.7966E-03     43.4690E-03    -29.8918E-03     51.7303E-03    -21.7971E-03     43.4809E-03
            2405     13.2182E-03     3.00953E-03    -13.3351E+06    -10.4906E+06    -5.08334E+06    -51.4432E+03    -27.4862E-03     48.8378E-03    -21.3516E-03     37.1118E-03    -27.5496E-03     48.8313E-03    -21.3425E-03     37.0597E-03
            2406     12.3382E-03     3.00318E-03    -14.1270E+06    -46.1105E+06    -2.54279E+06    -8.53947E+06    -25.2886E-03     46.3435E-03    -21.0549E-03     32.3859E-03    -25.2983E-03     46.1464E-03    -20.9803E-03     32.2455E-03
            2407     11.4610E-03     2.99744E-03    -13.1332E+06    -66.1160E+06    -2.17436E+06    -13.3400E+06    -24.3023E-03     45.0918E-03    -20.7895E-03     29.2839E-03    -24.2747E-03     44.7886E-03    -20.6854E-03     29.0920E-03
            2408     10.5812E-03     2.99123E-03    -11.5384E+06    -80.5025E+06    -4.26564E+06    -15.7086E+06    -23.4440E-03     43.9781E-03    -20.5342E-03     25.3899E-03    -23.3821E-03     43.6014E-03    -20.4220E-03     25.1741E-03
            2409     9.70194E-03     2.98644E-03    -10.4844E+06    -88.2624E+06    -7.19719E+06    -16.0657E+06    -22.8763E-03     43.1619E-03    -20.2856E-03     21.9528E-03    -22.7923E-03     42.7479E-03    -20.1785E-03     21.7365E-03
            2410     8.82188E-03     2.98177E-03    -9.14309E+06    -90.0920E+06    -8.66287E+06    -14.4016E+06    -22.2898E-03     42.3369E-03    -20.0472E-03     18.9408E-03    -22.1936E-03     41.9133E-03    -19.9466E-03     18.7486E-03
            2411     7.94132E-03     2.97704E-03    -8.43922E+06    -91.0075E+06    -9.30998E+06    -12.0154E+06    -21.7130E-03     41.5403E-03    -19.8273E-03     16.0407E-03    -21.6105E-03     41.1115E-03    -19.7297E-03     15.8813E-03
            2412     7.06034E-03     2.97342E-03    -8.50112E+06    -91.7224E+06    -9.70763E+06    -9.37142E+06    -21.2004E-03     40.8246E-03    -19.6242E-03     13.4815E-03    -21.0963E-03     40.3927E-03    -19.5274E-03     13.3574E-03
            2413     6.17901E-03     2.96942E-03    -8.67777E+06    -91.7988E+06    -9.78790E+06    -6.97398E+06    -20.6722E-03     40.1112E-03    -19.4390E-03     11.1997E-03    -20.5686E-03     39.6791E-03    -19.3423E-03     11.1074E-03
            2414     5.29709E-03     2.96663E-03    -9.18196E+06    -91.8391E+06    -9.77941E+06    -4.83452E+06    -20.2156E-03     39.4903E-03    -19.2747E-03     9.14542E-03    -20.1144E-03     39.0587E-03    -19.1771E-03     9.08140E-03
            2415     4.41499E-03     2.96367E-03    -9.81251E+06    -91.9897E+06    -10.0268E+06    -3.12381E+06    -19.7947E-03     38.9255E-03    -19.1308E-03     7.32152E-03    -19.6960E-03     38.4944E-03    -19.0333E-03     7.28002E-03
            2416     3.53234E-03     2.96177E-03    -10.4814E+06    -92.3486E+06    -10.6774E+06    -1.93003E+06    -19.4446E-03     38.4536E-03    -19.0090E-03     5.66864E-03    -19.3477E-03     38.0226E-03    -18.9133E-03     5.64287E-03
            2417     2.64954E-03     2.95977E-03    -11.0654E+06    -92.5316E+06    -11.1832E+06    -1.17440E+06    -19.1537E-03     38.0675E-03    -18.9138E-03     4.13851E-03    -19.0587E-03     37.6371E-03    -18.8195E-03     4.12276E-03
            2418     1.76645E-03     2.95885E-03    -11.4311E+06    -92.4473E+06    -11.6021E+06    -683.952E+03    -18.9480E-03     37.7958E-03    -18.8478E-03     2.73910E-03    -18.8543E-03     37.3670E-03    -18.7552E-03     2.72989E-03
            2419     883.243E-06     2.95775E-03    -11.7510E+06    -92.4895E+06    -12.0051E+06    -251.641E+03    -18.8297E-03     37.6452E-03    -18.8155E-03     1.45143E-03    -18.7369E-03     37.2172E-03    -18.7244E-03     1.44798E-03
            2420     16.6719E-03     2.06601E-03    -5.77986E+06     95.9671E+06     77.1468E+06     11.0690E+06    -63.0104E-03     89.6721E-03    -26.6616E-03     70.6735E-03    -63.7273E-03     90.4918E-03    -26.4067E-03     70.0924E-03
            2421     15.8108E-03     2.03821E-03     1.80519E+06     76.1599E+06     62.2907E+06     11.3654E+06    -40.2345E-03     65.4676E-03    -25.2331E-03     53.0460E-03    -40.5871E-03     65.9184E-03    -25.0347E-03     52.9137E-03
            2422     14.9323E-03     2.04111E-03    -3.36072E+06     50.0691E+06     29.6357E+06     9.59175E+06    -33.7269E-03     58.1316E-03    -24.4047E-03     50.4988E-03    -33.9026E-03     58.3861E-03    -24.3243E-03     50.5256E-03
            2423     14.0638E-03     2.01959E-03    -4.10819E+06     32.9226E+06     2.99700E+06     6.24353E+06    -32.5016E-03     56.2437E-03    -23.7421E-03     45.7180E-03    -32.5966E-03     56.4315E-03    -23.7689E-03     45.7393E-03
            2424     13.1878E-03     2.01285E-03    -2.32738E+06    -935.673E+03    -12.2640E+06    -808.260E+03    -30.0875E-03     53.2969E-03    -23.2094E-03     34.5666E-03    -30.0904E-03     53.3232E-03    -23.2660E-03     34.5210E-03
            2425     12.3151E-03     2.00858E-03    -1.50581E+06    -40.3485E+06    -16.8524E+06    -8.48824E+06    -28.9134E-03     51.7100E-03    -22.7966E-03     29.3068E-03    -28.8436E-03     51.5398E-03    -22.8202E-03     29.1749E-03
            2426     11.4392E-03     2.00185E-03    -1.93026E+06    -64.0740E+06    -20.0283E+06    -13.2116E+06    -27.9321E-03     50.3216E-03    -22.3895E-03     24.6039E-03    -27.8230E-03     50.0358E-03    -22.3939E-03     24.4187E-03
            2427     10.5644E-03     1.99921E-03    -2.94178E+06    -80.9957E+06    -23.9642E+06    -15.1973E+06    -26.8205E-03     48.8104E-03    -21.9899E-03     20.7827E-03    -26.6848E-03     48.4459E-03    -21.9881E-03     20.5769E-03
            2428     9.68710E-03     1.99382E-03    -3.80150E+06    -91.0026E+06    -24.7585E+06    -15.2050E+06    -25.8477E-03     47.4671E-03    -21.6194E-03     17.4704E-03    -25.7000E-03     47.0543E-03    -21.6057E-03     17.2677E-03
            2429     8.81012E-03     1.99103E-03    -5.02349E+06    -94.6609E+06    -22.8494E+06    -13.3818E+06    -24.8948E-03     46.1693E-03    -21.2746E-03     14.5808E-03    -24.7501E-03     45.7369E-03    -21.2443E-03     14.4037E-03
            2430     7.93165E-03     1.98715E-03    -6.11023E+06    -95.4566E+06    -19.8224E+06    -10.4458E+06    -23.9502E-03     44.9062E-03    -20.9560E-03     12.2280E-03    -23.8140E-03     44.4668E-03    -20.9078E-03     12.0901E-03
            2431     7.05274E-03     1.98426E-03    -7.17944E+06    -95.6920E+06    -16.8799E+06    -7.93554E+06    -23.0706E-03     43.7358E-03    -20.6652E-03     10.0068E-03    -22.9435E-03     43.2924E-03    -20.6004E-03     9.90234E-03
            2432     6.17277E-03     1.98160E-03    -8.15143E+06    -95.3436E+06    -14.5893E+06    -5.61258E+06    -22.2508E-03     42.6534E-03    -20.4026E-03     8.23683E-03    -22.1323E-03     42.2097E-03    -20.3255E-03     8.16290E-03
            2433     5.29232E-03     1.97913E-03    -9.02692E+06    -94.6350E+06    -12.7609E+06    -3.67579E+06    -21.5248E-03     41.6975E-03    -20.1727E-03     6.62326E-03    -21.4143E-03     41.2560E-03    -20.0862E-03     6.57477E-03
            2434     4.41108E-03     1.97733E-03    -9.65249E+06    -94.0732E+06    -11.3865E+06    -2.25922E+06    -20.9259E-03     40.9014E-03    -19.9755E-03     5.25669E-03    -20.8213E-03     40.4616E-03    -19.8820E-03     5.22675E-03
            2435     3.52955E-03     1.97552E-03    -10.1105E+06    -93.6817E+06    -10.8802E+06    -1.24156E+06    -20.4191E-03     40.2280E-03    -19.8089E-03     4.02280E-03    -20.3181E-03     39.7901E-03    -19.7128E-03     4.00622E-03
            2436     2.64749E-03     1.97449E-03    -10.4435E+06    -93.3692E+06    -10.8839E+06    -714.914E+03    -20.0225E-03     39.6988E-03    -19.6763E-03     2.92377E-03    -19.9236E-03     39.2629E-03    -19.5802E-03     2.91415E-03
            2437     1.76518E-03     1.97337E-03    -10.7251E+06    -93.2255E+06    -10.8430E+06    -293.081E+03    -19.7347E-03     39.3163E-03    -19.5816E-03     1.92183E-03    -19.6374E-03     38.8814E-03    -19.4851E-03     1.91780E-03
            2438     882.655E-06     1.97304E-03    -11.0751E+06    -92.7829E+06    -11.0059E+06     29.3517E+03    -19.5603E-03     39.0849E-03    -19.5246E-03     1.06237E-03    -19.4651E-03     38.6530E-03    -19.4291E-03     1.06265E-03
            2439     16.6243E-03     1.03102E-03     1.76210E+06     89.3617E+06     79.2444E+06     5.50803E+06    -58.4628E-03     87.6303E-03    -29.1675E-03     69.9248E-03    -58.9247E-03     88.1898E-03    -28.9034E-03     69.5556E-03
            2440     15.7575E-03     1.04324E-03     3.38799E+06     72.1879E+06     61.8930E+06     9.88303E+06    -46.9396E-03     74.7025E-03    -27.7630E-03     56.4368E-03    -47.1828E-03     75.0300E-03    -27.5631E-03     56.4446E-03
            2441     14.8947E-03     1.02288E-03     4.20311E+06     56.3598E+06     34.5946E+06     7.93966E+06    -43.1507E-03     69.7566E-03    -26.6059E-03     43.8362E-03    -43.2787E-03     69.9974E-03    -26.5207E-03     43.8874E-03
            2442     14.0322E-03     1.01399E-03     7.55714E+06     38.4703E+06     4.27259E+06     2.22180E+06    -38.7093E-03     64.2868E-03    -25.5775E-03     30.9192E-03    -38.7418E-03     64.4699E-03    -25.6228E-03     30.9141E-03
            2443     13.1655E-03     1.01065E-03     10.2293E+06     4.15030E+06    -18.9938E+06    -1.15159E+06    -34.8942E-03     59.6621E-03    -24.7679E-03     22.3634E-03    -34.8249E-03     59.6985E-03    -24.8838E-03     22.3308E-03
            2444     12.2948E-03     1.00490E-03     10.2747E+06    -34.6941E+06    -29.2079E+06    -5.10727E+06    -33.0249E-03     57.1587E-03    -24.1338E-03     17.6727E-03    -32.8828E-03     57.0144E-03    -24.2444E-03     17.5941E-03
            2445     11.4250E-03     1.00393E-03     8.13895E+06    -62.7871E+06    -36.0429E+06    -8.35166E+06    -31.2259E-03     54.7774E-03    -23.5515E-03     14.2020E-03    -31.0430E-03     54.5049E-03    -23.6525E-03     14.0863E-03
            2446     10.5510E-03     1.00007E-03     4.71251E+06    -81.7507E+06    -40.4115E+06    -9.50602E+06    -29.6912E-03     52.7039E-03    -23.0126E-03     11.8206E-03    -29.4911E-03     52.3474E-03    -23.1030E-03     11.6926E-03
            2447     9.67796E-03     998.796E-06     1.19667E+06    -93.2730E+06    -39.6301E+06    -9.22629E+06    -28.2139E-03     50.7405E-03    -22.5266E-03     9.68423E-03    -28.0155E-03     50.3301E-03    -22.5912E-03     9.56175E-03
            2448     8.80170E-03     996.054E-06    -2.11218E+06    -98.3948E+06    -34.9821E+06    -7.98340E+06    -26.8223E-03     48.9127E-03    -22.0904E-03     8.00241E-03    -26.6396E-03     48.4747E-03    -22.1196E-03     7.89708E-03
            2449     7.92554E-03     994.603E-06    -4.88980E+06    -99.1974E+06    -29.2123E+06    -6.33517E+06    -25.5459E-03     47.2400E-03    -21.6940E-03     6.57859E-03    -25.3843E-03     46.7935E-03    -21.6892E-03     6.49527E-03
            2450     7.04742E-03     992.693E-06    -6.69522E+06    -98.7863E+06    -23.4234E+06    -4.49518E+06    -24.3571E-03     45.6956E-03    -21.3385E-03     5.40252E-03    -24.2134E-03     45.2453E-03    -21.3027E-03     5.34341E-03
            2451     6.16891E-03     991.390E-06    -8.27856E+06    -97.9929E+06    -18.8084E+06    -3.05323E+06    -23.3305E-03     44.3517E-03    -21.0212E-03     4.36241E-03    -23.2025E-03     43.9010E-03    -20.9612E-03     4.32229E-03
            2452     5.28909E-03     990.132E-06    -9.11990E+06    -96.5165E+06    -15.2295E+06    -1.96822E+06    -22.4198E-03     43.1618E-03    -20.7420E-03     3.52265E-03    -22.3034E-03     42.7146E-03    -20.6650E-03     3.49673E-03
            2453     4.40884E-03     988.995E-06    -9.76398E+06    -95.5067E+06    -12.9506E+06    -1.17949E+06    -21.6624E-03     42.1651E-03    -20.5027E-03     2.73763E-03    -21.5540E-03     41.7205E-03    -20.4148E-03     2.72204E-03
            2454     3.52773E-03     988.232E-06    -10.0756E+06    -94.5674E+06    -11.4390E+06    -673.862E+03    -21.0422E-03     41.3467E-03    -20.3045E-03     2.08506E-03    -20.9389E-03     40.9051E-03    -20.2100E-03     2.07609E-03
            2455     2.64626E-03     987.465E-06    -10.2453E+06    -93.8564E+06    -10.7848E+06    -284.672E+03    -20.5668E-03     40.7134E-03    -20.1466E-03     1.50345E-03    -20.4663E-03     40.2746E-03    -20.0495E-03     1.49959E-03
            2456     1.76438E-03     987.108E-06    -10.4219E+06    -93.6486E+06    -10.4701E+06    -114.126E+03    -20.2260E-03     40.2557E-03    -20.0297E-03     991.006E-06    -20.1271E-03     39.8177E-03    -19.9311E-03     989.420E-06
            2457     882.248E-06     986.678E-06    -10.5575E+06    -92.7904E+06    -10.3164E+06     32.9240E+03    -20.0153E-03     39.9594E-03    -19.9441E-03     541.557E-06    -19.9186E-03     39.5258E-03    -19.8458E-03     541.944E-06


