********************************************************************************
Field Output Report, written Mon Aug 12 21:45:55 2024

Source 1
---------

   ODB: G:/Abaqus_calc_2019/1740/Vel_40/odb/zeides_2a_32_red_2000_cal_75_vel_40_fric_025.odb
   Step: Step-1
   Frame: Increment   3920501: Step Time =   0.3927

Loc 1 : Nodal values from source 1

Output sorted by column "Nodal Label".

Field Output reported at nodes for region: DIE_2A_32_D0_36-1.Region_1
   Computation algorithm: EXTRAPOLATE_COMPUTE_AVERAGE
   Averaged at nodes
   Averaging regions: ODB_REGIONS

      Node Label     COORD.COOR1     COORD.COOR2
                          @Loc 1          @Loc 1
-------------------------------------------------
               1     18.3692E-03     173.339E-03


Field Output reported at nodes for region: DIE_2A_32_D0_36-1.Region_2
   Computation algorithm: EXTRAPOLATE_COMPUTE_AVERAGE
   Averaged at nodes
   Averaging regions: ODB_REGIONS

      Node Label     COORD.COOR1     COORD.COOR2
                          @Loc 1          @Loc 1
-------------------------------------------------
               1     18.3692E-03     173.339E-03


Field Output reported at nodes for part: WIRE-1
   Computation algorithm: EXTRAPOLATE_COMPUTE_AVERAGE
   Averaged at nodes
   Averaging regions: ODB_REGIONS

      Node Label     COORD.COOR1     COORD.COOR2           S.S11           S.S22           S.S33           S.S12         PE.PE11         PE.PE22         PE.PE33         PE.PE12         LE.LE11         LE.LE22         LE.LE33         LE.LE12
                          @Loc 1          @Loc 1          @Loc 1          @Loc 1          @Loc 1          @Loc 1          @Loc 1          @Loc 1          @Loc 1          @Loc 1          @Loc 1          @Loc 1          @Loc 1          @Loc 1
-------------------------------------------------------------------------------------------------------------------------------------------------------------------------------------------------------------------------------------------------
               1    -480.746E-09     84.5951E-03    -143.512E+06    -324.572E+06    -142.092E+06    -15.5665E+03    -228.667E-03     455.834E-03    -227.167E-03     13.3984E-03    -228.730E-03     454.648E-03    -227.199E-03     11.9026E-03
               2     14.3414E-03     88.0031E-03    -2.08589E+06     69.7791E+06     92.1864E+06     132.326E+03    -226.134E-03     453.932E-03    -227.798E-03     43.0993E-03    -227.849E-03     455.620E-03    -227.435E-03     27.2866E-03
               3     14.4045E-03     175.385E-03    -37.7555E+06     24.4420E+06     58.4488E+06     -16.981E+06    -52.5010E-03     279.599E-03    -227.098E-03    -30.6848E-03    -52.7130E-03     279.766E-03    -226.786E-03    -31.1292E-03
               4    -7.27121E-06     169.387E-03     13.8848E+06    -11.6803E+06     5.07701E+06    -3.69044E+06    -225.566E-03     460.855E-03    -235.288E-03    -43.7216E-03    -225.897E-03     460.320E-03    -235.266E-03    -44.4210E-03
               5     22.1961E-09    -263.678E-18    -92.8575E+06    -294.431E+06    -92.5438E+06     659.336E+03    -210.038E-03     419.603E-03    -209.565E-03     3.32437E-03    -209.942E-03     418.400E-03    -209.466E-03     3.16998E-03
               6     14.0981E-03    -263.678E-18     12.6892E+06     79.4501E+06     107.557E+06     7.90166E+06    -460.921E-03     694.343E-03    -233.422E-03     205.334E-03    -465.165E-03     698.539E-03    -233.018E-03     175.531E-03
               7     716.923E-06     84.6114E-03    -141.897E+06    -321.762E+06    -138.678E+06    -204.890E+03    -228.241E-03     455.743E-03    -227.501E-03     22.4952E-03    -228.360E-03     454.618E-03    -227.522E-03     19.8898E-03
               8     1.43393E-03     84.6565E-03    -138.086E+06    -314.596E+06    -128.440E+06    -145.978E+03    -228.083E-03     455.930E-03    -227.848E-03     41.5367E-03    -228.374E-03     454.987E-03    -227.833E-03     36.6410E-03
               9     2.14918E-03     84.7252E-03    -132.534E+06    -304.537E+06    -112.594E+06     113.317E+03    -228.606E-03     456.515E-03    -227.909E-03     61.4342E-03    -229.192E-03     455.877E-03    -227.838E-03     54.0781E-03
              10     2.86643E-03     84.8229E-03    -125.306E+06    -278.086E+06    -93.8322E+06     139.228E+03    -229.054E-03     457.034E-03    -227.981E-03     81.0425E-03    -230.076E-03     456.897E-03    -227.865E-03     71.1315E-03
              11     3.58292E-03     84.9439E-03    -117.029E+06    -243.704E+06    -74.4664E+06    -214.396E+03    -229.417E-03     457.432E-03    -228.015E-03     100.319E-03    -231.014E-03     457.965E-03    -227.864E-03     87.7666E-03
              12     4.29930E-03     85.0928E-03    -108.144E+06    -216.844E+06    -54.5642E+06     262.512E+03    -229.739E-03     457.767E-03    -228.028E-03     118.978E-03    -232.037E-03     459.069E-03    -227.829E-03     103.692E-03
              13     5.01721E-03     85.2623E-03    -99.2796E+06    -183.858E+06    -34.9510E+06     396.179E+03    -230.191E-03     458.206E-03    -228.014E-03     136.717E-03    -233.333E-03     460.443E-03    -227.779E-03     118.632E-03
              14     5.73305E-03     85.4572E-03    -90.2741E+06    -146.603E+06    -16.5367E+06    -122.624E+03    -230.692E-03     458.687E-03    -227.995E-03     153.628E-03    -234.815E-03     462.017E-03    -227.734E-03     132.694E-03
              15     6.45095E-03     85.6716E-03    -81.0465E+06    -109.094E+06     1.49355E+06    -40.1892E+03    -231.012E-03     458.990E-03    -227.978E-03     169.103E-03    -236.221E-03     463.520E-03    -227.695E-03     145.392E-03
              16     7.16731E-03     85.9049E-03    -71.9453E+06    -66.4141E+06     19.4367E+06     295.826E+03    -231.140E-03     459.091E-03    -227.951E-03     182.891E-03    -237.500E-03     464.903E-03    -227.653E-03     156.581E-03
              17     7.88486E-03     86.1555E-03    -62.9866E+06    -18.4319E+06     37.6172E+06     882.709E+03    -231.038E-03     458.949E-03    -227.910E-03     193.919E-03    -238.519E-03     466.031E-03    -227.604E-03     165.335E-03
              18     8.60197E-03     86.4136E-03    -54.1041E+06     13.1653E+06     49.2846E+06     1.18599E+06    -230.656E-03     458.510E-03    -227.854E-03     200.769E-03    -239.039E-03     466.605E-03    -227.548E-03     170.454E-03
              19     9.31999E-03     86.6821E-03    -46.0000E+06     30.6437E+06     57.8868E+06     795.072E+03    -230.140E-03     457.945E-03    -227.805E-03     202.127E-03    -239.084E-03     466.666E-03    -227.493E-03     170.708E-03
              20     10.0366E-03     86.9385E-03    -38.5058E+06     44.6068E+06     68.6747E+06     243.741E+03    -229.859E-03     457.659E-03    -227.800E-03     197.803E-03    -238.962E-03     466.584E-03    -227.465E-03     165.891E-03
              21     10.7534E-03     87.1958E-03    -31.4898E+06     49.1375E+06     78.6707E+06    -260.699E+03    -229.110E-03     456.944E-03    -227.835E-03     188.140E-03    -237.911E-03     465.581E-03    -227.467E-03     156.497E-03
              22     11.4691E-03     87.4232E-03    -24.4606E+06     55.7993E+06     87.7558E+06    -175.751E+03    -227.704E-03     455.561E-03    -227.857E-03     174.049E-03    -235.849E-03     463.563E-03    -227.464E-03     143.310E-03
              23     12.1889E-03     87.6375E-03    -16.6252E+06     63.3166E+06     93.1384E+06     581.957E+03    -226.658E-03     454.505E-03    -227.847E-03     152.490E-03    -233.648E-03     461.390E-03    -227.449E-03     123.557E-03
              24     12.9054E-03     87.8028E-03    -10.1819E+06     70.7806E+06     94.3803E+06     443.837E+03    -225.912E-03     453.734E-03    -227.823E-03     132.862E-03    -231.980E-03     459.744E-03    -227.439E-03     105.249E-03
              25     13.6176E-03     87.9696E-03    -4.91869E+06     72.7015E+06     93.0875E+06     136.097E+03    -225.825E-03     453.628E-03    -227.803E-03     85.0632E-03    -229.639E-03     457.412E-03    -227.436E-03     63.3807E-03
              26     14.3358E-03     89.5064E-03    -1.25944E+06     70.4404E+06     92.5140E+06     387.975E+03    -224.886E-03     452.695E-03    -227.809E-03     43.5001E-03    -226.605E-03     454.391E-03    -227.446E-03     27.7540E-03
              27     14.3414E-03     90.9870E-03    -2.99694E+06     70.8301E+06     91.0264E+06     121.279E+03    -226.597E-03     454.365E-03    -227.769E-03     43.1416E-03    -228.320E-03     456.066E-03    -227.412E-03     27.2669E-03
              28     14.3352E-03     92.4962E-03    -3.63641E+06     70.2110E+06     91.5067E+06    -571.210E+03    -226.964E-03     454.751E-03    -227.788E-03     42.1442E-03    -228.673E-03     456.432E-03    -227.427E-03     26.3079E-03
              29     14.3406E-03     93.9870E-03    -417.545E+03     71.0085E+06     92.7729E+06     494.530E+03    -223.875E-03     451.705E-03    -227.829E-03     44.0548E-03    -225.612E-03     453.423E-03    -227.468E-03     28.2907E-03
              30     14.3382E-03     95.4725E-03    -2.43973E+06     71.5812E+06     91.8599E+06     176.823E+03    -225.777E-03     453.541E-03    -227.764E-03     43.9324E-03    -227.531E-03     455.275E-03    -227.405E-03     27.9885E-03
              31     14.3384E-03     96.9778E-03    -2.44255E+06     72.9407E+06     92.3618E+06     124.355E+03    -227.153E-03     454.888E-03    -227.734E-03     42.1683E-03    -228.867E-03     456.584E-03    -227.375E-03     26.2731E-03
              32     14.3401E-03     98.4674E-03    -2.98965E+06     72.6665E+06     92.5110E+06    -247.380E+03    -226.256E-03     454.034E-03    -227.778E-03     43.7171E-03    -227.999E-03     455.756E-03    -227.417E-03     27.8374E-03
              33     14.3354E-03     99.9702E-03    -2.55083E+06     71.8223E+06     92.0366E+06    -198.202E+03    -225.281E-03     453.098E-03    -227.816E-03     42.9212E-03    -227.009E-03     454.804E-03    -227.457E-03     27.1099E-03
              34     14.3423E-03     101.452E-03    -789.403E+03     73.8638E+06     93.5580E+06     492.366E+03    -225.007E-03     452.785E-03    -227.779E-03     44.1270E-03    -226.752E-03     454.519E-03    -227.417E-03     28.2592E-03
              35     14.3359E-03     102.955E-03    -3.71068E+06     74.3232E+06     92.4698E+06    -273.048E+03    -227.100E-03     454.842E-03    -227.742E-03     40.4945E-03    -228.800E-03     456.525E-03    -227.382E-03     24.6265E-03
              36     14.3407E-03     104.446E-03    -2.01631E+06     76.0330E+06     93.0437E+06     248.162E+03    -226.455E-03     454.217E-03    -227.761E-03     43.4095E-03    -228.179E-03     455.934E-03    -227.403E-03     27.6117E-03
              37     14.3373E-03     105.950E-03    -2.02632E+06     76.2067E+06     93.3450E+06     1.25170E+06    -225.766E-03     453.551E-03    -227.785E-03     44.4551E-03    -227.503E-03     455.282E-03    -227.425E-03     28.7214E-03
              38     14.3390E-03     107.438E-03    -1.73071E+06     76.6744E+06     93.6278E+06     -23.009E+03    -224.844E-03     452.659E-03    -227.815E-03     42.8178E-03    -226.576E-03     454.386E-03    -227.455E-03     27.0245E-03
              39     14.3385E-03     108.925E-03    -4.70085E+06     74.2407E+06     91.5483E+06    -1.29545E+06    -226.790E-03     454.576E-03    -227.786E-03     41.4899E-03    -228.507E-03     456.275E-03    -227.429E-03     25.6340E-03
              40     14.3364E-03     110.436E-03    -1.86013E+06     73.4797E+06     91.9912E+06     90.3990E+03    -225.237E-03     453.047E-03    -227.810E-03     40.7794E-03    -226.915E-03     454.713E-03    -227.454E-03     25.1299E-03
              41     14.3420E-03     111.913E-03    -1.58678E+06     74.3948E+06     93.3028E+06     22.9749E+03    -224.802E-03     452.586E-03    -227.784E-03     45.0732E-03    -226.577E-03     454.348E-03    -227.423E-03     29.1395E-03
              42     14.3353E-03     113.420E-03    -3.54733E+06     76.1568E+06     93.4541E+06    -591.535E+03    -227.138E-03     454.887E-03    -227.748E-03     40.6448E-03    -228.850E-03     456.586E-03    -227.386E-03     24.7253E-03
              43     14.3417E-03     114.909E-03    -1.32715E+06     78.4498E+06     93.6886E+06     759.663E+03    -225.162E-03     452.952E-03    -227.790E-03     43.5110E-03    -226.896E-03     454.688E-03    -227.433E-03     27.7598E-03
              44     14.3359E-03     116.410E-03    -3.93060E+06     76.7840E+06     92.6942E+06     880.674E+03    -225.661E-03     453.480E-03    -227.819E-03     43.9690E-03    -227.410E-03     455.220E-03    -227.461E-03     28.2107E-03
              45     14.3389E-03     117.899E-03    -1.68453E+06     79.0800E+06     94.1635E+06     296.545E+03    -224.490E-03     452.287E-03    -227.797E-03     44.2285E-03    -226.242E-03     454.041E-03    -227.438E-03     28.4532E-03
              46     14.3417E-03     119.386E-03    -1.96380E+06     78.9456E+06     94.3520E+06    -811.923E+03    -225.842E-03     453.587E-03    -227.745E-03     41.9961E-03    -227.561E-03     455.306E-03    -227.385E-03     26.1854E-03
              47     14.3341E-03     120.896E-03    -1.46301E+06     78.7455E+06     94.3990E+06     854.827E+03    -225.044E-03     452.847E-03    -227.803E-03     40.7340E-03    -226.749E-03     454.552E-03    -227.443E-03     24.9910E-03
              48     14.3444E-03     122.368E-03    -2.72741E+06     80.7925E+06     94.2893E+06     306.303E+03    -224.793E-03     452.569E-03    -227.775E-03     44.5289E-03    -226.575E-03     454.355E-03    -227.417E-03     28.6233E-03
              49     14.3332E-03     123.884E-03    -3.73201E+06     82.5053E+06     94.9486E+06    -429.376E+03    -227.075E-03     454.850E-03    -227.775E-03     39.8609E-03    -228.782E-03     456.562E-03    -227.414E-03     24.0195E-03
              50     14.3421E-03     125.365E-03    -1.36060E+06     85.1879E+06     96.6742E+06     1.23716E+06    -224.602E-03     452.430E-03    -227.828E-03     44.5199E-03    -226.361E-03     454.208E-03    -227.466E-03     28.8033E-03
              51     14.3363E-03     126.868E-03    -2.84943E+06     83.9711E+06     95.9260E+06     186.693E+03    -224.806E-03     452.623E-03    -227.817E-03     42.8100E-03    -226.540E-03     454.368E-03    -227.455E-03     27.1523E-03
              52     14.3394E-03     128.353E-03    -1.68115E+06     85.4586E+06     96.5508E+06     519.176E+03    -223.557E-03     451.373E-03    -227.816E-03     42.0950E-03    -225.291E-03     453.126E-03    -227.455E-03     26.4358E-03
              53     14.3407E-03     129.842E-03    -2.91050E+06     87.7185E+06     97.6006E+06    -225.140E+03    -224.804E-03     452.587E-03    -227.783E-03     41.5929E-03    -226.543E-03     454.344E-03    -227.417E-03     25.8760E-03
              54     14.3352E-03     131.348E-03    -2.53405E+06     89.7421E+06     97.9420E+06     394.860E+03    -224.442E-03     452.274E-03    -227.832E-03     39.2956E-03    -226.139E-03     453.996E-03    -227.469E-03     23.7070E-03
              55     14.3425E-03     132.822E-03    -2.77556E+06     89.8415E+06     97.7591E+06    -348.851E+03    -223.929E-03     451.758E-03    -227.828E-03     42.3289E-03    -225.688E-03     453.542E-03    -227.466E-03     26.5777E-03
              56     14.3343E-03     134.333E-03    -2.28254E+06     92.3459E+06     100.377E+06     966.735E+03    -224.670E-03     452.519E-03    -227.849E-03     39.3756E-03    -226.373E-03     454.251E-03    -227.478E-03     23.8096E-03
              57     14.3417E-03     135.815E-03    -1.54983E+06     92.4126E+06     100.516E+06     848.308E+03    -221.541E-03     449.444E-03    -227.903E-03     43.2329E-03    -223.293E-03     451.228E-03    -227.533E-03     27.7899E-03
              58     14.3366E-03     137.303E-03    -3.70422E+06     90.4664E+06     100.996E+06    -890.969E+03    -222.406E-03     450.305E-03    -227.900E-03     40.9640E-03    -224.139E-03     452.055E-03    -227.520E-03     25.4811E-03
              59     14.3388E-03     138.799E-03    -931.457E+03     93.7811E+06     103.269E+06     1.59949E+06    -220.372E-03     448.292E-03    -227.920E-03     40.4208E-03    -222.084E-03     450.035E-03    -227.538E-03     25.1419E-03
              60     14.3415E-03     140.270E-03    -4.42184E+06     93.6907E+06     102.101E+06    -630.343E+03    -219.718E-03     447.579E-03    -227.861E-03     41.0192E-03    -221.463E-03     449.346E-03    -227.480E-03     25.6654E-03
              61     14.3381E-03     141.772E-03    -2.26690E+06     95.7775E+06     105.827E+06     668.720E+03    -218.699E-03     446.525E-03    -227.826E-03     40.0718E-03    -220.414E-03     448.265E-03    -227.432E-03     24.9177E-03
              62     14.3464E-03     143.242E-03    -2.67933E+06     98.5943E+06     107.676E+06     817.865E+03    -215.672E-03     443.387E-03    -227.715E-03     43.4405E-03    -217.445E-03     445.189E-03    -227.316E-03     28.3572E-03
              63     14.3441E-03     144.724E-03    -4.14332E+06     101.211E+06     109.392E+06     1.28658E+06    -215.336E-03     442.796E-03    -227.460E-03     42.0145E-03    -217.088E-03     444.576E-03    -227.054E-03     27.0553E-03
              64     14.3555E-03     146.203E-03    -2.75896E+06     105.830E+06     112.959E+06     1.52160E+06    -212.848E-03     439.939E-03    -227.092E-03     46.0755E-03    -214.661E-03     441.791E-03    -226.676E-03     31.1638E-03
              65     14.3597E-03     147.671E-03    -2.40771E+06     107.991E+06     115.139E+06    -100.941E+03    -213.494E-03     440.019E-03    -226.525E-03     48.7459E-03    -215.367E-03     441.933E-03    -226.102E-03     33.5449E-03
              66     14.3710E-03     149.154E-03    -3.05682E+06     110.448E+06     118.338E+06     834.494E+03    -216.426E-03     442.306E-03    -225.880E-03     50.3577E-03    -218.325E-03     444.243E-03    -225.444E-03     34.9573E-03
              67     14.3767E-03     150.631E-03    -2.47880E+06     111.795E+06     120.665E+06     1.15406E+06    -220.474E-03     445.661E-03    -225.187E-03     53.4424E-03    -222.418E-03     447.644E-03    -224.743E-03     37.6622E-03
              68     14.3875E-03     152.122E-03    -4.34809E+06     113.720E+06     123.516E+06     411.134E+03    -226.631E-03     451.071E-03    -224.440E-03     55.0266E-03    -228.592E-03     453.063E-03    -223.981E-03     38.8714E-03
              69     14.3942E-03     153.617E-03    -1.70121E+06     118.634E+06     131.315E+06     1.79988E+06    -236.659E-03     460.352E-03    -223.693E-03     58.0499E-03    -238.641E-03     462.369E-03    -223.206E-03     41.3714E-03
              70     14.3994E-03     155.140E-03    -5.44193E+06     120.508E+06     132.974E+06     1.35366E+06    -248.672E-03     471.717E-03    -223.045E-03     60.7708E-03    -250.664E-03     473.733E-03    -222.547E-03     43.5892E-03
              71     14.4025E-03     156.675E-03    -1.40934E+06     119.345E+06     130.037E+06    -733.953E+03    -260.494E-03     483.013E-03    -222.519E-03     65.9593E-03    -262.519E-03     485.080E-03    -222.040E-03     48.0519E-03
              72     14.4033E-03     158.225E-03      -3.586E+06     113.345E+06     123.882E+06    -873.510E+03    -273.957E-03     496.051E-03    -222.094E-03     67.8173E-03    -276.004E-03     498.130E-03    -221.634E-03     49.0055E-03
              73     14.4030E-03     159.800E-03    -2.34664E+06     107.044E+06     121.663E+06    -252.399E+03    -285.495E-03     507.294E-03    -221.799E-03     72.1216E-03    -287.566E-03     509.387E-03    -221.343E-03     52.5449E-03
              74     14.4038E-03     161.391E-03    -4.98089E+06     96.7326E+06     117.429E+06    -3.63102E+06    -295.612E-03     517.161E-03    -221.549E-03     76.3593E-03    -297.718E-03     519.253E-03    -221.095E-03     56.1138E-03
              75     14.4030E-03     162.984E-03     459.178E+03     85.8452E+06     116.992E+06    -1.10351E+06    -304.835E-03     526.161E-03    -221.326E-03     76.0283E-03    -306.892E-03     528.186E-03    -220.866E-03     55.1986E-03
              76     14.4045E-03     164.606E-03    -6.12912E+06     71.3785E+06     115.298E+06    -4.87479E+06    -311.834E-03     533.004E-03    -221.169E-03     78.3261E-03    -313.937E-03     535.005E-03    -220.687E-03     56.8445E-03
              77     14.4033E-03     166.226E-03     702.978E+03     50.3689E+06     120.683E+06    -3.79589E+06    -315.064E-03     536.162E-03    -221.098E-03     77.4771E-03    -317.094E-03     538.022E-03    -220.569E-03     55.7522E-03
              78     14.4067E-03     167.843E-03    -6.86817E+06     32.9852E+06     127.545E+06    -3.91745E+06    -313.816E-03     534.931E-03    -221.115E-03     73.8925E-03    -315.770E-03     536.608E-03    -220.515E-03     52.6760E-03
              79     14.4056E-03     169.465E-03      1.8129E+06     19.0720E+06     145.131E+06    -3.74797E+06    -303.551E-03     524.872E-03    -221.321E-03     69.1746E-03    -305.273E-03     526.248E-03    -220.626E-03     49.8594E-03
              80     14.4118E-03     171.053E-03      546.67E+03     20.4406E+06     164.950E+06     1.84467E+06    -285.767E-03     507.448E-03    -221.681E-03     67.2744E-03    -287.345E-03     508.621E-03    -220.886E-03     50.7025E-03
              81     14.4098E-03     172.610E-03    -3.67967E+06     21.9689E+06     166.476E+06     2.38405E+06    -256.091E-03     478.292E-03    -222.201E-03     57.4343E-03    -257.391E-03     479.178E-03    -221.395E-03     44.6438E-03
              82     14.4197E-03     174.113E-03     8.48023E+06     21.0443E+06     117.150E+06    -2.71341E+06    -143.961E-03     368.780E-03    -224.819E-03     7.90158E-03    -144.459E-03     369.134E-03    -224.276E-03     2.53388E-03
              83     13.4519E-03     175.238E-03    -25.4080E+06    -8.28211E+06     97.0931E+06    -14.3327E+06    -44.5522E-03     276.190E-03    -231.638E-03    -39.5757E-03    -44.6826E-03     276.208E-03    -231.103E-03    -40.7511E-03
              84     12.5514E-03     174.862E-03    -9.70972E+06    -12.8387E+06     144.513E+06    -14.5149E+06    -20.0239E-03     260.257E-03    -240.233E-03    -79.3177E-03    -20.1086E-03     260.134E-03    -239.478E-03    -81.1147E-03
              85     11.7196E-03     174.455E-03    -1.81962E+06    -6.42114E+06     148.676E+06    -8.16479E+06     3.11530E-03     245.404E-03    -248.519E-03    -116.582E-03     3.06697E-03     245.152E-03    -247.764E-03    -118.135E-03
              86     10.9012E-03     174.028E-03    -3.80288E+06    -7.14941E+06     148.963E+06    -3.76852E+06     8.96693E-03     247.864E-03    -256.831E-03    -139.426E-03     9.00844E-03     247.538E-03    -256.070E-03    -141.006E-03
              87     10.0972E-03     173.580E-03    -5.62513E+06     1.96298E+06     152.723E+06    -5.62979E+06     4.55869E-03     259.659E-03    -264.218E-03    -181.095E-03     4.75581E-03     259.183E-03    -263.449E-03    -182.998E-03
              88     9.33579E-03     173.121E-03    -1.46821E+06    -2.43446E+06     148.808E+06    -8.06149E+06    -4.48642E-03     274.243E-03    -269.756E-03    -231.623E-03    -4.01778E-03     273.450E-03    -269.007E-03    -233.983E-03
              89     8.60085E-03     172.663E-03    -5.96117E+06    -3.16974E+06     137.997E+06    -11.7132E+06    -16.4165E-03     289.512E-03    -273.096E-03    -281.512E-03    -15.6759E-03     288.399E-03    -272.393E-03    -284.398E-03
              90     7.89974E-03     172.209E-03    -10.0551E+06    -6.96336E+06     124.336E+06    -14.1868E+06    -30.7291E-03     304.967E-03    -274.237E-03    -327.874E-03    -29.7231E-03     303.484E-03    -273.591E-03    -331.282E-03
              91     7.21852E-03     171.779E-03    -11.6693E+06    -7.92742E+06     111.632E+06    -18.4197E+06    -48.9778E-03     322.335E-03    -273.357E-03    -368.465E-03    -47.7381E-03     320.518E-03    -272.770E-03    -372.410E-03
              92     6.55731E-03     171.374E-03    -12.5348E+06    -11.3591E+06     100.486E+06    -20.8325E+06    -71.3830E-03     342.082E-03    -270.699E-03    -398.748E-03    -70.0036E-03     339.978E-03    -270.162E-03    -403.180E-03
              93     5.90944E-03     171.003E-03    -12.1293E+06    -13.5082E+06     90.6542E+06    -22.2591E+06    -96.4180E-03     363.064E-03    -266.646E-03    -412.942E-03    -95.0155E-03     360.800E-03    -266.155E-03    -417.789E-03
              94     5.26759E-03     170.668E-03    -11.1044E+06    -15.0700E+06     80.9905E+06    -22.6860E+06    -122.627E-03     384.302E-03    -261.675E-03    -410.339E-03    -121.325E-03     382.032E-03    -261.232E-03    -415.445E-03
              95     4.62713E-03     170.372E-03    -8.59511E+06    -15.5373E+06     71.4027E+06    -22.7826E+06    -147.950E-03     404.176E-03    -256.227E-03    -391.373E-03    -146.870E-03     402.050E-03    -255.835E-03    -396.489E-03
              96     3.98444E-03     170.115E-03    -6.28965E+06    -16.5206E+06     59.9569E+06    -20.6334E+06    -170.862E-03     421.583E-03    -250.720E-03    -357.415E-03    -170.083E-03     419.712E-03    -250.387E-03    -362.251E-03
              97     3.33585E-03     169.898E-03    -3.71735E+06    -14.8077E+06     47.2837E+06    -18.9520E+06    -190.334E-03     435.825E-03    -245.491E-03    -311.405E-03    -189.875E-03     434.276E-03    -245.228E-03    -315.760E-03
              98     2.68073E-03     169.719E-03      296.45E+03    -13.4991E+06     35.7726E+06    -17.0027E+06    -205.627E-03     446.439E-03    -240.812E-03    -256.868E-03    -205.451E-03     445.199E-03    -240.614E-03    -260.612E-03
              99     2.01812E-03     169.580E-03     4.22123E+06    -12.0155E+06     26.0721E+06    -14.0194E+06    -216.682E-03     453.611E-03    -236.929E-03    -196.993E-03    -216.748E-03     452.645E-03    -236.788E-03    -199.964E-03
             100     1.34923E-03     169.479E-03     6.90125E+06    -12.0051E+06     17.3418E+06    -10.1596E+06    -224.379E-03     458.364E-03    -233.985E-03    -134.033E-03    -224.637E-03     457.598E-03    -233.891E-03    -136.140E-03
             101     677.666E-06     169.419E-03     11.0013E+06    -11.7528E+06     9.39616E+06    -5.90838E+06    -226.529E-03     460.550E-03    -234.021E-03    -72.9024E-03    -226.864E-03     459.938E-03    -233.973E-03    -74.0938E-03
             102     1.65467E-06     167.889E-03    -42.1251E+06    -32.0847E+06    -40.8935E+06    -7.45475E+06    -190.609E-03     384.108E-03    -193.499E-03    -27.0588E-03    -190.977E-03     383.781E-03    -193.596E-03    -27.6789E-03
             103     1.95260E-06     166.597E-03    -137.382E+06    -81.6134E+06    -133.679E+06    -12.5739E+06    -136.359E-03     269.597E-03    -133.238E-03    -434.240E-06    -136.804E-03     269.512E-03    -133.588E-03    -884.277E-06
             104    -61.0099E-09     165.407E-03    -222.449E+06    -139.649E+06    -223.739E+06    -13.9151E+06    -110.842E-03     219.298E-03    -108.456E-03     13.5116E-03    -111.441E-03     219.241E-03    -109.049E-03     13.1877E-03
             105     2.00332E-06     164.241E-03    -311.710E+06    -196.323E+06    -309.134E+06    -12.1995E+06    -106.100E-03     209.676E-03    -103.576E-03     20.6718E-03    -106.929E-03     209.597E-03    -104.385E-03     20.4396E-03
             106    -24.4333E-09     163.071E-03    -312.852E+06    -236.446E+06    -313.995E+06    -5.55603E+06    -113.448E-03     226.431E-03    -112.983E-03     25.4253E-03    -114.223E-03     226.151E-03    -113.756E-03     25.3160E-03
             107    -1.43487E-06     161.866E-03    -231.115E+06    -245.722E+06    -232.744E+06     1.56986E+06    -130.822E-03     261.151E-03    -130.330E-03     25.4523E-03    -131.301E-03     260.581E-03    -130.802E-03     25.4174E-03
             108     3.43027E-06     160.614E-03    -173.622E+06    -239.205E+06    -172.649E+06     1.39623E+06    -153.264E-03     305.759E-03    -152.495E-03     25.8600E-03    -153.559E-03     305.050E-03    -152.760E-03     25.7229E-03
             109    -4.32125E-06     159.294E-03    -145.436E+06    -239.340E+06    -145.970E+06    -1.14432E+06    -175.173E-03     351.305E-03    -176.131E-03     23.4568E-03    -175.365E-03     350.523E-03    -176.303E-03     23.1048E-03
             110     3.64858E-06     157.918E-03    -134.304E+06    -247.573E+06    -134.121E+06    -1.83198E+06    -196.644E-03     392.346E-03    -195.702E-03     21.5181E-03    -196.788E-03     391.500E-03    -195.819E-03     20.8362E-03
             111    -1.71277E-06     156.490E-03    -132.133E+06    -255.345E+06    -132.752E+06    -952.039E+03    -213.187E-03     424.550E-03    -211.362E-03     18.4097E-03    -213.309E-03     423.667E-03    -211.464E-03     17.4933E-03
             112     2.35557E-06     155.019E-03    -131.717E+06    -262.356E+06    -135.459E+06    -1.33457E+06    -223.296E-03     445.863E-03    -222.567E-03     16.7014E-03    -223.399E-03     444.957E-03    -222.673E-03     15.5426E-03
             113    -2.07573E-06     153.527E-03    -142.108E+06    -273.665E+06    -139.776E+06    -2.06524E+06    -229.511E-03     460.393E-03    -230.882E-03     16.5720E-03    -229.646E-03     459.454E-03    -230.978E-03     15.1667E-03
             114    -221.365E-09     152.017E-03    -148.880E+06    -286.826E+06    -148.581E+06    -1.89667E+06    -234.134E-03     469.302E-03    -235.168E-03     13.3094E-03    -234.269E-03     468.320E-03    -235.279E-03     11.7590E-03
             115     993.546E-09     150.497E-03    -151.428E+06    -296.330E+06    -152.835E+06    -987.817E+03    -237.814E-03     473.022E-03    -235.209E-03     13.5899E-03    -237.944E-03     472.005E-03    -235.324E-03     11.9509E-03
             116     1.87028E-06     148.973E-03    -155.579E+06    -305.294E+06    -157.193E+06    -1.47979E+06    -238.054E-03     473.589E-03    -235.536E-03     14.1562E-03    -238.185E-03     472.542E-03    -235.653E-03     12.4748E-03
             117    -1.23164E-06     147.456E-03    -157.859E+06    -315.597E+06    -158.228E+06    -1.93912E+06    -236.028E-03     472.278E-03    -236.249E-03     13.4915E-03    -236.155E-03     471.184E-03    -236.354E-03     11.7608E-03
             118     226.524E-09     145.935E-03    -157.399E+06    -323.632E+06    -157.025E+06    -811.256E+03    -234.411E-03     469.669E-03    -235.258E-03     12.8732E-03    -234.526E-03     468.532E-03    -235.346E-03     11.1377E-03
             119    -461.423E-09     144.425E-03    -157.868E+06    -330.171E+06    -158.512E+06    -1.06173E+06    -233.426E-03     466.825E-03    -233.399E-03     13.4458E-03    -233.531E-03     465.657E-03    -233.484E-03     11.8269E-03
             120     679.692E-09     142.915E-03    -157.415E+06    -333.431E+06    -157.115E+06    -93.9527E+03    -232.657E-03     465.251E-03    -232.594E-03     14.0324E-03    -232.758E-03     464.066E-03    -232.668E-03     12.3689E-03
             121    -860.671E-09     141.408E-03    -157.723E+06    -334.556E+06    -157.044E+06    -109.823E+03    -231.979E-03     463.837E-03    -231.858E-03     13.9288E-03    -232.081E-03     462.648E-03    -231.930E-03     12.1601E-03
             122     1.17066E-06     139.902E-03    -154.981E+06    -333.470E+06    -155.713E+06     224.191E+03    -231.233E-03     461.945E-03    -230.712E-03     13.1639E-03    -231.322E-03     460.753E-03    -230.782E-03     11.5590E-03
             123    -788.524E-09     138.405E-03    -153.329E+06    -332.516E+06    -153.384E+06     77.8945E+03    -229.786E-03     460.038E-03    -230.252E-03     12.7108E-03    -229.871E-03     458.844E-03    -230.314E-03     11.0932E-03
             124    -300.657E-09     136.901E-03    -153.064E+06    -332.066E+06    -150.993E+06     228.375E+03    -229.290E-03     458.926E-03    -229.636E-03     12.8752E-03    -229.380E-03     457.733E-03    -229.687E-03     11.1904E-03
             125     875.873E-09     135.407E-03    -146.918E+06    -328.039E+06    -149.071E+06     759.880E+03    -229.388E-03     458.666E-03    -229.278E-03     13.8862E-03    -229.456E-03     457.481E-03    -229.334E-03     12.2648E-03
             126    -1.36739E-06     133.904E-03    -147.496E+06    -326.479E+06    -146.012E+06     1.00502E+06    -229.474E-03     458.130E-03    -228.656E-03     13.3273E-03    -229.548E-03     456.947E-03    -228.698E-03     11.8021E-03
             127     2.99246E-06     132.411E-03    -144.787E+06    -325.122E+06    -145.947E+06    -437.891E+03    -229.482E-03     457.551E-03    -228.070E-03     13.8350E-03    -229.544E-03     456.374E-03    -228.118E-03     12.2483E-03
             128    -2.66331E-06     130.913E-03    -145.705E+06    -324.799E+06    -144.703E+06    -622.120E+03    -228.469E-03     456.878E-03    -228.409E-03     13.9774E-03    -228.538E-03     455.702E-03    -228.451E-03     12.4085E-03
             129     2.36976E-06     129.416E-03    -144.026E+06    -324.501E+06    -145.245E+06     733.256E+03    -228.234E-03     456.459E-03    -228.225E-03     14.1024E-03    -228.296E-03     455.283E-03    -228.272E-03     12.5389E-03
             130    -2.13326E-06     127.927E-03    -145.079E+06    -324.155E+06    -143.581E+06    -4.15675E+03    -228.355E-03     457.117E-03    -228.763E-03     13.9157E-03    -228.426E-03     455.943E-03    -228.800E-03     12.2787E-03
             131     1.27188E-06     126.423E-03    -144.748E+06    -324.845E+06    -145.171E+06    -56.8936E+03    -228.539E-03     457.184E-03    -228.644E-03     14.0699E-03    -228.606E-03     456.007E-03    -228.689E-03     12.4298E-03
             132    -622.189E-09     124.931E-03    -144.555E+06    -323.838E+06    -143.873E+06     262.942E+03    -228.987E-03     456.653E-03    -227.665E-03     14.9536E-03    -229.058E-03     455.479E-03    -227.706E-03     13.3311E-03
             133     1.80372E-06     123.436E-03    -143.405E+06    -323.635E+06    -144.932E+06    -137.695E+03    -228.843E-03     456.379E-03    -227.535E-03     14.1251E-03    -228.906E-03     455.204E-03    -227.583E-03     12.5197E-03
             134    -1.18367E-06     121.942E-03    -145.431E+06    -324.335E+06    -144.276E+06    -180.325E+03    -227.116E-03     455.640E-03    -228.524E-03     13.7894E-03    -227.189E-03     454.465E-03    -228.565E-03     12.1335E-03
             135    -1.49578E-06     120.451E-03    -145.658E+06    -324.693E+06    -144.479E+06    -103.710E+03    -227.338E-03     455.516E-03    -228.178E-03     12.2386E-03    -227.409E-03     454.338E-03    -228.219E-03     10.6097E-03
             136     2.94820E-06     118.954E-03    -142.705E+06    -324.386E+06    -146.263E+06     181.862E+03    -228.390E-03     456.026E-03    -227.636E-03     12.9397E-03    -228.443E-03     454.850E-03    -227.690E-03     11.3363E-03
             137    -3.39463E-06     117.464E-03    -144.813E+06    -323.794E+06    -142.451E+06     546.057E+03    -227.775E-03     456.756E-03    -228.981E-03     14.0859E-03    -227.844E-03     455.582E-03    -229.014E-03     12.5367E-03
             138     2.07676E-06     115.957E-03    -142.926E+06    -323.896E+06    -144.406E+06     563.172E+03    -228.405E-03     456.497E-03    -228.092E-03     13.8278E-03    -228.459E-03     455.320E-03    -228.137E-03     12.3716E-03
             139    -386.952E-09     114.474E-03    -146.462E+06    -325.431E+06    -143.974E+06    -919.045E+03    -229.091E-03     456.107E-03    -227.016E-03     14.2740E-03    -229.167E-03     454.927E-03    -227.051E-03     12.6621E-03
             140     1.63397E-06     112.973E-03    -142.718E+06    -324.610E+06    -145.994E+06     354.574E+03    -229.519E-03     456.466E-03    -226.947E-03     13.9562E-03    -229.577E-03     455.287E-03    -226.999E-03     12.3120E-03
             141     722.335E-09     111.478E-03    -143.363E+06    -323.301E+06    -142.894E+06    -24.3072E+03    -228.111E-03     455.170E-03    -227.058E-03     14.2669E-03    -228.177E-03     453.993E-03    -227.096E-03     12.6736E-03
             142    -1.62474E-06     109.992E-03    -145.275E+06    -325.134E+06    -143.835E+06    -891.906E+03    -226.793E-03     454.825E-03    -228.032E-03     13.2498E-03    -226.864E-03     453.644E-03    -228.069E-03     11.5981E-03
             143     719.125E-09     108.494E-03    -144.013E+06    -325.385E+06    -145.621E+06     700.881E+03    -227.368E-03     455.717E-03    -228.349E-03     13.3716E-03    -227.430E-03     454.537E-03    -228.396E-03     11.7239E-03
             144    -1.28089E-06     107.001E-03    -143.961E+06    -324.377E+06    -143.470E+06     215.582E+03    -228.025E-03     455.569E-03    -227.544E-03     13.6050E-03    -228.089E-03     454.388E-03    -227.582E-03     12.0723E-03
             145     2.48224E-06     105.507E-03    -143.645E+06    -324.558E+06    -144.109E+06    -339.362E+03    -228.911E-03     455.882E-03    -226.971E-03     13.8368E-03    -228.973E-03     454.703E-03    -227.013E-03     12.2453E-03
             146    -961.930E-09     104.014E-03    -145.372E+06    -325.213E+06    -143.341E+06     20.5113E+03    -228.760E-03     455.974E-03    -227.214E-03     13.1668E-03    -228.833E-03     454.794E-03    -227.248E-03     11.4853E-03
             147     1.63371E-06     102.519E-03    -143.695E+06    -325.623E+06    -145.500E+06     214.803E+03    -227.857E-03     455.537E-03    -227.679E-03     13.1267E-03    -227.916E-03     454.353E-03    -227.726E-03     11.5214E-03
             148    -2.11021E-06     101.028E-03    -144.065E+06    -324.236E+06    -142.579E+06     506.971E+03    -227.825E-03     455.681E-03    -227.856E-03     14.0400E-03    -227.891E-03     454.501E-03    -227.890E-03     12.5050E-03
             149     2.49992E-06     99.5255E-03    -142.538E+06    -324.579E+06    -144.291E+06    -468.735E+03    -227.613E-03     455.359E-03    -227.746E-03     14.1566E-03    -227.667E-03     454.177E-03    -227.790E-03     12.6486E-03
             150    -3.15725E-06     98.0465E-03    -144.911E+06    -325.897E+06    -144.510E+06     75.0346E+03    -227.187E-03     455.584E-03    -228.397E-03     13.0873E-03    -227.251E-03     454.401E-03    -228.437E-03     11.4612E-03
             151     2.03716E-06     96.5400E-03    -144.199E+06    -325.150E+06    -143.636E+06     354.632E+03    -227.686E-03     455.847E-03    -228.161E-03     13.6283E-03    -227.749E-03     454.666E-03    -228.199E-03     12.0218E-03
             152    -1.65106E-06     95.0497E-03    -144.005E+06    -325.157E+06    -143.424E+06    -430.988E+03    -227.829E-03     454.988E-03    -227.160E-03     15.1827E-03    -227.893E-03     453.806E-03    -227.197E-03     13.6187E-03
             153     2.15224E-06     93.5581E-03    -144.130E+06    -325.872E+06    -144.475E+06     168.188E+03    -227.892E-03     455.094E-03    -227.202E-03     13.9289E-03    -227.955E-03     453.910E-03    -227.243E-03     12.3264E-03
             154    -1.72184E-06     92.0679E-03    -144.728E+06    -325.384E+06    -144.870E+06     916.865E+03    -228.322E-03     456.116E-03    -227.794E-03     13.1182E-03    -228.387E-03     454.936E-03    -227.837E-03     11.4995E-03
             155     2.00167E-06     90.5684E-03    -144.740E+06    -324.854E+06    -143.241E+06    -227.665E+03    -229.461E-03     456.552E-03    -227.091E-03     13.4942E-03    -229.529E-03     455.369E-03    -227.126E-03     11.9423E-03
             156     1.07517E-06     89.0727E-03    -142.100E+06    -324.317E+06    -145.578E+06     22.9099E+03    -228.329E-03     455.530E-03    -227.201E-03     14.7224E-03    -228.382E-03     454.350E-03    -227.253E-03     13.1969E-03
             157    -2.63835E-06     87.5855E-03    -145.994E+06    -325.323E+06    -143.372E+06     459.197E+03    -226.746E-03     455.310E-03    -228.564E-03     13.3041E-03    -226.819E-03     454.128E-03    -228.597E-03     11.7439E-03
             158     1.56977E-06     86.0876E-03    -143.072E+06    -326.270E+06    -144.833E+06     19.3122E+03    -228.105E-03     456.156E-03    -228.051E-03     12.6036E-03    -228.160E-03     454.968E-03    -228.095E-03     10.9852E-03
             159     1.50056E-06     83.0977E-03    -141.507E+06    -324.512E+06    -143.502E+06    -877.754E+03    -227.959E-03     455.324E-03    -227.365E-03     14.4100E-03    -228.009E-03     454.137E-03    -227.407E-03     12.9777E-03
             160    -1.75773E-06     81.6079E-03    -144.244E+06    -325.818E+06    -142.453E+06     293.942E+03    -227.449E-03     455.321E-03    -227.872E-03     14.5245E-03    -227.515E-03     454.133E-03    -227.902E-03     12.9787E-03
             161     1.35937E-06     80.1113E-03    -143.128E+06    -326.115E+06    -144.375E+06     47.9898E+03    -227.779E-03     455.380E-03    -227.601E-03     14.0196E-03    -227.838E-03     454.194E-03    -227.643E-03     12.3675E-03
             162    -772.593E-09     78.6225E-03    -143.728E+06    -325.634E+06    -143.548E+06     929.591E+03    -227.831E-03     455.531E-03    -227.700E-03     13.2902E-03    -227.894E-03     454.345E-03    -227.737E-03     11.6716E-03
             163     329.926E-09     77.1278E-03    -144.307E+06    -325.823E+06    -142.816E+06    -1.13248E+06    -228.335E-03     456.335E-03    -228.000E-03     13.3165E-03    -228.399E-03     455.144E-03    -228.032E-03     11.8142E-03
             164     553.683E-09     75.6278E-03    -143.563E+06    -326.606E+06    -144.385E+06      70.942E+03    -228.787E-03     456.499E-03    -227.713E-03     14.5003E-03    -228.846E-03     455.309E-03    -227.753E-03     12.9283E-03
             165     29.4687E-09     74.1371E-03    -144.565E+06    -326.855E+06    -143.225E+06     199.587E+03    -228.237E-03     455.691E-03    -227.453E-03     13.5421E-03    -228.304E-03     454.499E-03    -227.486E-03     11.9067E-03
             166     473.943E-09     72.6453E-03    -140.576E+06    -325.456E+06    -143.986E+06    -261.475E+03    -228.172E-03     455.575E-03    -227.403E-03     13.4536E-03    -228.219E-03     454.385E-03    -227.447E-03     11.8324E-03
             167     44.2644E-09     71.1462E-03    -144.242E+06    -326.335E+06    -141.943E+06    -128.619E+03    -228.119E-03     455.616E-03    -227.497E-03     14.4261E-03    -228.185E-03     454.424E-03    -227.525E-03     12.9072E-03
             168     284.783E-09     69.6563E-03    -142.474E+06    -327.883E+06    -145.006E+06     177.759E+03    -227.662E-03     455.498E-03    -227.836E-03     14.1459E-03    -227.713E-03     454.300E-03    -227.879E-03     12.5758E-03
             169    -945.947E-09     68.1634E-03    -143.708E+06    -326.579E+06    -141.413E+06     418.760E+03    -226.987E-03     455.854E-03    -228.867E-03     13.3355E-03    -227.054E-03     454.661E-03    -228.892E-03     11.6412E-03
             170    -1.10791E-06     66.6688E-03    -143.106E+06    -327.785E+06    -143.369E+06    -517.195E+03    -228.071E-03     456.300E-03    -228.229E-03     12.5405E-03    -228.124E-03     455.099E-03    -228.263E-03     11.0390E-03
             171     2.89037E-06     65.1710E-03    -142.568E+06    -328.897E+06    -144.351E+06     921.549E+03    -228.811E-03     456.116E-03    -227.306E-03     14.0337E-03    -228.859E-03     454.913E-03    -227.344E-03     12.5480E-03
             172    -2.59544E-06     63.6801E-03    -143.533E+06    -328.189E+06    -141.889E+06    -592.398E+03    -227.947E-03     455.840E-03    -227.893E-03     14.2929E-03    -228.006E-03     454.640E-03    -227.918E-03     12.6942E-03
             173     2.33063E-06     62.1825E-03    -141.941E+06    -328.885E+06    -143.592E+06     17.9731E+03    -228.316E-03     456.262E-03    -227.946E-03     13.8883E-03    -228.363E-03     455.057E-03    -227.981E-03     12.3327E-03
             174    -1.60862E-06     60.6921E-03    -143.933E+06    -328.652E+06    -142.011E+06     107.434E+03    -228.972E-03     456.441E-03    -227.468E-03     13.0957E-03    -229.030E-03     455.236E-03    -227.493E-03     11.5662E-03
             175     3.00959E-06     59.1934E-03    -142.472E+06    -329.241E+06    -144.706E+06    -435.498E+03    -227.347E-03     455.187E-03    -227.841E-03     13.9422E-03    -227.393E-03     453.985E-03    -227.880E-03     12.3647E-03
             176    -5.20234E-06     57.7035E-03    -144.058E+06    -329.222E+06    -142.502E+06     1.29211E+06    -226.255E-03     454.950E-03    -228.695E-03     14.5108E-03    -226.312E-03     453.751E-03    -228.721E-03     12.9131E-03
             177     3.84158E-06     56.2093E-03    -142.218E+06    -328.726E+06    -142.595E+06    -585.371E+03    -228.754E-03     456.386E-03    -227.632E-03     13.4675E-03    -228.803E-03     455.185E-03    -227.662E-03     11.8362E-03
             178    -930.903E-09     54.7135E-03    -142.899E+06    -329.892E+06    -144.022E+06     -44.467E+03    -228.790E-03     456.078E-03    -227.288E-03     14.2470E-03    -228.843E-03     454.872E-03    -227.323E-03     12.5893E-03
             179     102.546E-09     53.2210E-03    -143.548E+06    -329.263E+06    -141.536E+06     66.7655E+03    -227.139E-03     455.445E-03    -228.305E-03     14.0021E-03    -227.199E-03     454.237E-03    -228.328E-03     12.4235E-03
             180    -984.121E-09     51.7267E-03    -141.230E+06    -328.534E+06    -142.466E+06    -417.038E+03    -227.149E-03     455.287E-03    -228.138E-03     13.8010E-03    -227.196E-03     454.080E-03    -228.169E-03     12.2172E-03
             181     383.147E-09     50.2334E-03    -143.622E+06    -329.689E+06    -142.284E+06     255.114E+03    -228.053E-03     454.489E-03    -226.435E-03     12.7994E-03    -228.110E-03     453.280E-03    -226.461E-03     11.1962E-03
             182     2.50945E-06     48.7457E-03    -141.912E+06    -330.792E+06    -143.915E+06    -427.086E+03    -229.038E-03     454.860E-03    -225.822E-03     13.3096E-03    -229.083E-03     453.647E-03    -225.856E-03     11.6713E-03
             183    -853.633E-09     47.2500E-03    -142.933E+06    -331.120E+06    -143.244E+06     544.886E+03    -228.224E-03     455.423E-03    -227.199E-03     13.6955E-03    -228.275E-03     454.207E-03    -227.228E-03     12.1070E-03
             184     613.640E-09     45.7539E-03    -144.710E+06    -332.123E+06    -144.296E+06    -825.826E+03    -226.747E-03     454.491E-03    -227.743E-03     14.4486E-03    -226.805E-03     453.275E-03    -227.773E-03     12.8556E-03
             185    -1.86030E-06     44.2658E-03    -145.976E+06    -333.208E+06    -145.182E+06    -51.6726E+03    -226.546E-03     454.073E-03    -227.527E-03     14.1758E-03    -226.607E-03     452.855E-03    -227.558E-03     12.6020E-03
             186     1.64660E-06     42.7735E-03    -142.998E+06    -331.988E+06    -144.357E+06     714.325E+03    -227.723E-03     454.295E-03    -226.572E-03     13.1814E-03    -227.769E-03     453.075E-03    -226.605E-03     11.6775E-03
             187     154.468E-09     41.2818E-03    -143.698E+06    -332.197E+06    -143.516E+06     107.049E+03    -227.650E-03     453.722E-03    -226.072E-03     13.6974E-03    -227.702E-03     452.502E-03    -226.099E-03     12.1415E-03
             188     255.797E-09     39.7928E-03    -145.438E+06    -333.479E+06    -143.553E+06    -383.630E+03    -226.934E-03     452.696E-03    -225.762E-03     12.6238E-03    -226.991E-03     451.470E-03    -225.785E-03     11.0880E-03
             189     991.875E-09     38.3045E-03    -142.614E+06    -332.894E+06    -144.743E+06     27.4761E+03    -226.079E-03     451.470E-03    -225.391E-03     12.8508E-03    -226.121E-03     450.245E-03    -225.425E-03     11.3338E-03
             190    -1.31710E-06     36.8175E-03    -142.430E+06    -331.336E+06    -141.504E+06     525.279E+03    -224.591E-03     450.840E-03    -226.249E-03     13.9152E-03    -224.642E-03     449.621E-03    -226.270E-03     12.3118E-03
             191    -785.365E-09     35.3295E-03    -141.769E+06    -331.321E+06    -142.132E+06    -573.553E+03    -225.496E-03     450.888E-03    -225.392E-03     12.7660E-03    -225.539E-03     449.666E-03    -225.416E-03     11.2495E-03
             192     2.98961E-06     33.8456E-03    -141.967E+06    -332.520E+06    -143.767E+06     243.687E+03    -225.638E-03     450.438E-03    -224.800E-03     13.5177E-03    -225.677E-03     449.216E-03    -224.830E-03     12.0232E-03
             193    -4.06250E-06     32.3583E-03    -143.267E+06    -331.808E+06    -141.498E+06     230.654E+03    -224.310E-03     449.238E-03    -224.928E-03     12.8387E-03    -224.359E-03     448.021E-03    -224.946E-03     11.2508E-03
             194     4.22035E-06     30.8756E-03    -141.767E+06    -331.692E+06    -142.891E+06    -363.841E+03    -224.498E-03     448.044E-03    -223.546E-03     12.7801E-03    -224.537E-03     446.827E-03    -223.574E-03     11.2250E-03
             195    -3.06220E-06     29.3958E-03    -143.369E+06    -331.822E+06    -141.439E+06     820.489E+03    -224.124E-03     447.062E-03    -222.939E-03     12.1205E-03    -224.171E-03     445.842E-03    -222.957E-03     10.6773E-03
             196     3.58454E-06     27.9151E-03    -139.947E+06    -329.619E+06    -141.365E+06     265.384E+03    -223.982E-03     446.182E-03    -222.199E-03     11.9128E-03    -224.018E-03     444.966E-03    -222.225E-03     10.4362E-03
             197    -1.58938E-06     26.4347E-03    -139.646E+06    -327.489E+06    -138.752E+06     169.202E+03    -222.945E-03     445.011E-03    -222.066E-03     12.4944E-03    -222.988E-03     443.800E-03    -222.082E-03     11.0205E-03
             198     825.003E-09     24.9614E-03    -138.506E+06    -326.686E+06    -139.313E+06      -9.996E+03    -221.273E-03     443.328E-03    -222.055E-03     11.0853E-03    -221.307E-03     442.115E-03    -222.077E-03     9.74069E-03
             199    -1.22633E-06     23.4839E-03    -138.388E+06    -325.933E+06    -139.125E+06     370.110E+03    -220.069E-03     440.597E-03    -220.528E-03     11.0896E-03    -220.103E-03     439.387E-03    -220.550E-03     9.77366E-03
             200     928.163E-09     22.0165E-03    -138.097E+06    -324.274E+06    -137.414E+06     312.357E+03    -218.391E-03     436.415E-03    -218.024E-03     10.0551E-03    -218.429E-03     435.210E-03    -218.040E-03     8.74739E-03
             201    -108.332E-09     20.5577E-03    -137.010E+06    -323.793E+06    -137.861E+06     1.45538E+03    -214.960E-03     429.966E-03    -215.006E-03     8.93186E-03    -214.991E-03     428.760E-03    -215.027E-03     7.68813E-03
             202    -797.511E-09     19.1031E-03    -139.388E+06    -323.252E+06    -137.630E+06     371.951E+03    -210.475E-03     420.895E-03    -210.420E-03     7.89734E-03    -210.515E-03     419.692E-03    -210.437E-03     6.80700E-03
             203     1.80360E-06     17.6727E-03    -134.276E+06    -320.823E+06    -135.576E+06     161.237E+03    -205.136E-03     410.055E-03    -204.919E-03     6.93570E-03    -205.156E-03     408.852E-03    -204.937E-03     5.94712E-03
             204    -2.50687E-06     16.2527E-03    -129.388E+06    -320.486E+06    -128.921E+06     29.2929E+03    -197.654E-03     396.709E-03    -199.054E-03     4.69351E-03    -197.658E-03     395.487E-03    -199.047E-03     3.81625E-03
             205     1.16522E-06     14.8564E-03    -131.260E+06    -319.521E+06    -132.146E+06     610.833E+03    -190.043E-03     381.363E-03    -191.320E-03     3.69781E-03    -190.051E-03     380.151E-03    -191.327E-03     2.97619E-03
             206    -1.70406E-06     13.4805E-03    -132.773E+06    -314.120E+06    -133.228E+06     1.49990E+06    -181.961E-03     364.762E-03    -182.802E-03     2.69430E-03    -181.983E-03     363.579E-03    -182.820E-03     2.05440E-03
             207     1.00689E-06     12.1293E-03    -130.281E+06    -306.825E+06    -129.834E+06     1.23709E+06    -173.896E-03     346.877E-03    -172.982E-03     938.563E-06    -173.920E-03     345.721E-03    -172.997E-03     373.379E-06
             208     1.13110E-06     10.8029E-03    -129.480E+06    -299.856E+06    -129.077E+06     1.33396E+06    -165.874E-03     329.007E-03    -163.133E-03     832.889E-06    -165.905E-03     327.883E-03    -163.156E-03     342.492E-06
             209     951.163E-09     9.49795E-03    -126.934E+06    -295.364E+06    -127.835E+06     504.819E+03    -157.591E-03     314.445E-03    -156.854E-03     1.72308E-03    -157.617E-03     313.340E-03    -156.881E-03     1.20091E-03
             210    -1.90112E-06     8.21265E-03    -125.894E+06    -291.760E+06    -124.371E+06     741.543E+03    -154.687E-03     310.132E-03    -155.444E-03     3.51973E-03    -154.719E-03     309.040E-03    -155.461E-03     2.98653E-03
             211     1.70645E-06     6.91725E-03    -125.238E+06    -292.032E+06    -124.740E+06    -861.880E+03    -159.965E-03     320.281E-03    -160.316E-03     6.95611E-03    -159.995E-03     319.188E-03    -160.334E-03     6.41242E-03
             212    -2.02818E-06     5.60382E-03    -120.400E+06    -298.081E+06    -121.199E+06    -1.19394E+06    -170.374E-03     341.484E-03    -171.110E-03     8.42546E-03    -170.380E-03     340.345E-03    -171.110E-03     7.89790E-03
             213     1.25961E-06     4.25375E-03    -108.181E+06    -299.172E+06    -107.888E+06     693.874E+03    -184.488E-03     368.977E-03    -184.490E-03     8.86148E-03    -184.452E-03     367.792E-03    -184.439E-03     8.38083E-03
             214    -460.535E-09     2.86321E-03    -98.2047E+06    -296.273E+06    -98.0814E+06     389.716E+03    -197.826E-03     395.224E-03    -197.398E-03     7.31491E-03    -197.753E-03     394.025E-03    -197.317E-03     6.93250E-03
             215     326.421E-09     1.44084E-03    -93.7103E+06    -294.761E+06    -93.9368E+06     317.012E+03    -206.615E-03     413.086E-03    -206.471E-03     4.04962E-03    -206.522E-03     411.884E-03    -206.377E-03     3.82026E-03
             216     727.898E-06    -263.678E-18    -92.3985E+06    -293.953E+06    -91.9194E+06    -275.728E+03    -209.842E-03     419.503E-03    -209.661E-03     4.22306E-03    -209.745E-03     418.301E-03    -209.560E-03     4.00282E-03
             217     1.45735E-03    -263.678E-18    -90.9797E+06    -291.658E+06    -88.7575E+06    -824.530E+03    -209.594E-03     419.330E-03    -209.736E-03     6.32072E-03    -209.500E-03     418.135E-03    -209.625E-03     5.93731E-03
             218     2.18610E-03    -263.678E-18    -88.9935E+06    -286.566E+06    -82.0885E+06     214.717E+03    -209.362E-03     419.048E-03    -209.686E-03     8.84936E-03    -209.278E-03     417.869E-03    -209.552E-03     8.28742E-03
             219     2.91498E-03    -263.678E-18    -86.6143E+06    -274.229E+06    -74.6255E+06     476.034E+03    -208.893E-03     418.480E-03    -209.587E-03     12.0536E-03    -208.831E-03     417.352E-03    -209.436E-03     11.3023E-03
             220     3.64408E-03    -263.678E-18    -83.3945E+06    -256.914E+06    -66.7856E+06    -497.954E+03    -208.267E-03     417.692E-03    -209.424E-03     15.7411E-03    -208.231E-03     416.640E-03    -209.265E-03     14.7854E-03
             221     4.37346E-03    -263.678E-18    -78.8480E+06    -230.017E+06    -58.6231E+06    -1.77664E+06    -207.623E-03     416.830E-03    -209.207E-03     18.9243E-03    -207.622E-03     415.901E-03    -209.052E-03     17.7739E-03
             222     5.10470E-03    -263.678E-18    -72.4395E+06    -189.095E+06    -50.5915E+06    -4.09666E+06    -207.250E-03     416.208E-03    -208.959E-03     21.2478E-03    -207.293E-03     415.470E-03    -208.833E-03     19.8956E-03
             223     5.83508E-03    -263.678E-18    -63.3700E+06    -141.273E+06    -41.4795E+06    -7.69672E+06    -207.235E-03     415.974E-03    -208.739E-03     23.4996E-03    -207.325E-03     415.458E-03    -208.650E-03     21.8721E-03
             224     6.56585E-03    -263.678E-18    -51.5867E+06    -85.4758E+06    -30.8975E+06    -10.6981E+06    -207.538E-03     416.112E-03    -208.574E-03     26.0607E-03    -207.676E-03     415.853E-03    -208.530E-03     24.1824E-03
             225     7.29570E-03    -263.678E-18    -39.3596E+06    -34.5664E+06    -16.2054E+06    -8.91490E+06    -208.499E-03     417.027E-03    -208.528E-03     29.3350E-03    -208.686E-03     416.997E-03    -208.502E-03     27.2417E-03
             226     8.02419E-03    -263.678E-18    -30.1116E+06    -8.41333E+06     1.49948E+06    -4.33224E+06    -210.400E-03     419.076E-03    -208.676E-03     32.8042E-03    -210.620E-03     419.154E-03    -208.612E-03     30.5193E-03
             227     8.75165E-03    -263.678E-18    -24.5708E+06     1.97119E+06     18.3124E+06    -527.024E+03    -213.526E-03     422.566E-03    -209.040E-03     36.4424E-03    -213.781E-03     422.687E-03    -208.915E-03     33.8345E-03
             228     9.47565E-03    -263.678E-18    -21.7758E+06     10.3520E+06     36.1115E+06      3.0858E+06    -218.199E-03     427.868E-03    -209.669E-03     40.8316E-03    -218.506E-03     428.030E-03    -209.472E-03     37.8537E-03
             229     10.1952E-03    -263.678E-18    -21.3221E+06     16.1977E+06     56.6434E+06     4.41357E+06    -225.344E-03     436.003E-03    -210.660E-03     45.7164E-03    -225.733E-03     436.211E-03    -210.369E-03     42.1143E-03
             230     10.9110E-03    -263.678E-18    -19.2730E+06     22.4777E+06     73.7040E+06     3.23636E+06    -237.300E-03     449.432E-03    -212.133E-03     50.3415E-03    -237.772E-03     449.705E-03    -211.769E-03     45.7889E-03
             231     11.6150E-03    -263.678E-18    -16.3335E+06     28.6862E+06     79.3554E+06     1.17613E+06    -254.743E-03     469.009E-03    -214.266E-03     68.7351E-03    -255.383E-03     469.457E-03    -213.887E-03     62.7746E-03
             232     12.2834E-03    -263.678E-18    -11.1374E+06     38.0296E+06     82.1693E+06    -1.10513E+06    -280.191E-03     497.530E-03    -217.339E-03     96.6428E-03    -281.210E-03     498.416E-03    -216.967E-03     87.4317E-03
             233     12.9674E-03    -263.678E-18    -6.48404E+06     49.1904E+06     86.4556E+06     848.496E+03    -328.690E-03     550.647E-03    -221.958E-03     97.3993E-03    -330.022E-03     551.932E-03    -221.587E-03     83.4468E-03
             234     13.6178E-03    -263.678E-18     3.14437E+06     66.3681E+06     97.3807E+06     5.92385E+06    -411.277E-03     640.369E-03    -229.091E-03     146.014E-03    -414.103E-03     643.161E-03    -228.705E-03     122.901E-03
             235     14.2761E-03     2.03328E-03    -2.99747E+06     72.1154E+06     89.9587E+06    -31.6412E+03    -404.805E-03     635.805E-03    -231.000E-03     202.669E-03    -410.097E-03     641.048E-03    -230.651E-03     170.764E-03
             236     14.2987E-03     3.68075E-03    -10.8387E+06     63.8135E+06     78.0959E+06    -1.45341E+06    -332.973E-03     561.003E-03    -228.030E-03     143.543E-03    -337.404E-03     565.390E-03    -227.716E-03     114.845E-03
             237     14.3240E-03     5.29615E-03    -2.35825E+06     63.6459E+06     86.1119E+06     1.19911E+06    -302.468E-03     529.806E-03    -227.338E-03     100.593E-03    -305.718E-03     533.023E-03    -226.996E-03     75.5656E-03
             238     14.3268E-03     6.87136E-03    -864.662E+03     63.6480E+06     90.8289E+06    -294.986E+03    -289.206E-03     516.204E-03    -226.998E-03     90.1895E-03    -292.383E-03     519.343E-03    -226.635E-03     65.3476E-03
             239     14.3331E-03     8.46803E-03    -2.12202E+06     60.0285E+06     90.9139E+06    -586.415E+03    -285.170E-03     512.018E-03    -226.848E-03     74.3753E-03    -287.757E-03     514.547E-03    -226.477E-03     51.1402E-03
             240     14.3317E-03     10.0336E-03    -3.16399E+06     57.2255E+06     89.3340E+06    -946.278E+03    -275.904E-03     502.813E-03    -226.910E-03     72.1229E-03    -278.415E-03     505.258E-03    -226.541E-03     49.8316E-03
             241     14.3372E-03     11.6032E-03    -1.14922E+06     57.6577E+06     91.1429E+06     173.050E+03    -264.884E-03     491.976E-03    -227.092E-03     63.5966E-03    -267.143E-03     494.171E-03    -226.718E-03     42.9020E-03
             242     14.3328E-03     13.1354E-03    -2.00924E+06     55.8560E+06     89.8652E+06    -1.08531E+06    -255.027E-03     482.353E-03    -227.326E-03     61.1189E-03    -257.212E-03     484.467E-03    -226.955E-03     41.3643E-03
             243     14.3365E-03     14.6656E-03    -3.42782E+06     53.5621E+06     87.2897E+06    -1.36859E+06    -249.032E-03     476.537E-03    -227.505E-03     53.6561E-03    -251.015E-03     478.445E-03    -227.141E-03     35.0312E-03
             244     14.3313E-03     16.1900E-03    -1.78559E+06     53.8708E+06     87.5394E+06     663.597E+03    -239.456E-03     467.257E-03    -227.801E-03     48.0348E-03    -241.263E-03     468.995E-03    -227.439E-03     30.8130E-03
             245     14.3349E-03     17.6916E-03    -877.791E+03     54.0162E+06     88.1075E+06     258.418E+03    -231.240E-03     459.251E-03    -228.010E-03     47.3149E-03    -232.990E-03     460.934E-03    -227.647E-03     30.9403E-03
             246     14.3330E-03     19.1813E-03    -2.18990E+06     52.9399E+06     87.3762E+06    -862.984E+03    -229.519E-03     457.545E-03    -228.026E-03     42.5439E-03    -231.174E-03     459.128E-03    -227.663E-03     26.5975E-03
             247     14.3347E-03     20.6901E-03    -2.35874E+06     53.0716E+06     87.9452E+06    -12.6518E+03    -228.484E-03     456.513E-03    -228.028E-03     41.2211E-03    -230.091E-03     458.045E-03    -227.662E-03     25.5888E-03
             248     14.3347E-03     22.1795E-03    -2.38153E+06     53.3085E+06     87.6626E+06     807.633E+03    -228.787E-03     456.780E-03    -227.993E-03     41.5789E-03    -230.390E-03     458.310E-03    -227.628E-03     25.9750E-03
             249     14.3345E-03     23.6843E-03    -1.73504E+06     54.1053E+06     87.1994E+06     1.04059E+06    -228.667E-03     456.600E-03    -227.933E-03     38.8481E-03    -230.227E-03     458.094E-03    -227.573E-03     23.2900E-03
             250     14.3382E-03     25.1762E-03    -2.47639E+06     54.0655E+06     88.0410E+06    -690.831E+03    -229.208E-03     457.072E-03    -227.864E-03     40.1401E-03    -230.810E-03     458.602E-03    -227.499E-03     24.3545E-03
             251     14.3344E-03     26.6836E-03    -2.22277E+06     54.8339E+06     87.9940E+06     82.7583E+03    -230.026E-03     457.832E-03    -227.806E-03     38.2810E-03    -231.608E-03     459.345E-03    -227.442E-03     22.4494E-03
             252     14.3402E-03     28.1788E-03    -1.73670E+06     55.9412E+06     88.3220E+06    -622.917E+03    -229.194E-03     456.969E-03    -227.775E-03     39.7068E-03    -230.807E-03     458.519E-03    -227.412E-03     23.8183E-03
             253     14.3353E-03     29.6822E-03    -1.45620E+06     56.3405E+06     88.2513E+06     644.552E+03    -229.415E-03     457.135E-03    -227.720E-03     40.0219E-03    -231.022E-03     458.681E-03    -227.358E-03     24.2123E-03
             254     14.3421E-03     31.1818E-03    -2.04594E+06     56.1511E+06     88.4762E+06    -137.553E+03    -228.953E-03     456.698E-03    -227.746E-03     39.4254E-03    -230.553E-03     458.234E-03    -227.382E-03     23.6634E-03
             255     14.3327E-03     32.6819E-03    -4.77755E+06     54.1078E+06     87.9184E+06    -201.296E+03    -229.939E-03     457.736E-03    -227.797E-03     40.8180E-03    -231.596E-03     459.313E-03    -227.429E-03     24.8282E-03
             256     14.3405E-03     34.1812E-03    -1.97276E+06     56.6164E+06     88.5968E+06     1.53921E+06    -228.515E-03     456.276E-03    -227.761E-03     42.3519E-03    -230.170E-03     457.868E-03    -227.398E-03     26.5158E-03
             257     14.3382E-03     35.6819E-03    -806.104E+03     58.1787E+06     90.0464E+06    -802.198E+03    -227.205E-03     454.957E-03    -227.752E-03     42.5547E-03    -228.875E-03     456.570E-03    -227.385E-03     26.6845E-03
             258     14.3377E-03     37.1778E-03    -1.19416E+06     58.2484E+06     90.1236E+06     322.946E+03    -226.960E-03     454.746E-03    -227.786E-03     41.9573E-03    -228.635E-03     456.362E-03    -227.418E-03     26.0785E-03
             259     14.3395E-03     38.6675E-03    -2.89894E+06     56.9349E+06     88.3624E+06    -120.481E+03    -227.331E-03     455.084E-03    -227.754E-03     42.1156E-03    -229.005E-03     456.695E-03    -227.390E-03     26.2437E-03
             260     14.3374E-03     40.1738E-03    -3.08025E+06     57.3205E+06     88.0696E+06    -272.730E+03    -227.819E-03     455.566E-03    -227.747E-03     40.7901E-03    -229.473E-03     457.158E-03    -227.385E-03     24.9277E-03
             261     14.3393E-03     41.6635E-03    -2.21884E+06     58.8207E+06     88.9678E+06    -156.987E+03    -226.271E-03     454.050E-03    -227.779E-03     40.9425E-03    -227.943E-03     455.665E-03    -227.416E-03     25.0803E-03
             262     14.3380E-03     43.1597E-03    -1.48674E+06     59.3700E+06     89.9040E+06    -154.867E+03    -226.344E-03     454.089E-03    -227.744E-03     41.8347E-03    -228.022E-03     455.711E-03    -227.379E-03     25.9787E-03
             263     14.3407E-03     44.6584E-03    -2.40782E+06     59.0035E+06     89.6724E+06     70.2731E+03    -227.738E-03     455.494E-03    -227.756E-03     41.6425E-03    -229.396E-03     457.093E-03    -227.389E-03     25.8582E-03
             264     14.3341E-03     46.1581E-03    -3.77330E+06     58.3681E+06     87.5981E+06     913.584E+03    -226.646E-03     454.460E-03    -227.813E-03     41.9188E-03    -228.330E-03     456.083E-03    -227.455E-03     26.0877E-03
             265     14.3425E-03     47.6441E-03    -1.47306E+06     60.5796E+06     89.8735E+06    -321.363E+03    -224.760E-03     452.568E-03    -227.807E-03     41.6064E-03    -226.447E-03     454.203E-03    -227.443E-03     25.7908E-03
             266     14.3356E-03     49.1436E-03    -2.25152E+06     60.7038E+06     90.5338E+06    -979.862E+03    -225.977E-03     453.739E-03    -227.762E-03     41.0803E-03    -227.659E-03     455.366E-03    -227.394E-03     25.2114E-03
             267     14.3420E-03     50.6344E-03    -2.16608E+06     61.1649E+06     90.8182E+06     366.752E+03    -227.984E-03     455.719E-03    -227.735E-03     42.3189E-03    -229.663E-03     457.344E-03    -227.366E-03     26.4385E-03
             268     14.3348E-03     52.1433E-03    -4.72123E+06     58.5459E+06     89.2742E+06      18.577E+03    -227.261E-03     455.069E-03    -227.808E-03     41.3564E-03    -228.930E-03     456.671E-03    -227.440E-03     25.6080E-03
             269     14.3398E-03     53.6302E-03    -1.56830E+06     62.2910E+06     89.8147E+06     810.243E+03    -223.890E-03     451.710E-03    -227.820E-03     45.0095E-03    -225.621E-03     453.396E-03    -227.459E-03     29.2701E-03
             270     14.3408E-03     55.1199E-03    -210.496E+03     65.0601E+06     91.5702E+06    -80.2548E+03    -226.182E-03     453.925E-03    -227.743E-03     42.7342E-03    -227.881E-03     455.589E-03    -227.379E-03     26.8789E-03
             271     14.3348E-03     56.6258E-03    -3.56809E+06     61.8447E+06     89.6349E+06     202.781E+03    -226.445E-03     454.278E-03    -227.833E-03     39.4285E-03    -228.106E-03     455.887E-03    -227.470E-03     23.6572E-03
             272     14.3403E-03     58.1081E-03    -3.14670E+06     61.2871E+06     88.8032E+06    -495.375E+03    -224.679E-03     452.491E-03    -227.812E-03     45.8277E-03    -226.430E-03     454.191E-03    -227.452E-03     29.9758E-03
             273     14.3389E-03     59.6101E-03    -534.945E+03     64.2170E+06     93.0937E+06    -61.3511E+03    -226.329E-03     454.084E-03    -227.755E-03     40.3717E-03    -227.986E-03     455.697E-03    -227.382E-03     24.6321E-03
             274     14.3378E-03     61.1025E-03    -2.73775E+06     63.7374E+06     91.7781E+06     253.306E+03    -225.944E-03     453.776E-03    -227.832E-03     42.0982E-03    -227.649E-03     455.432E-03    -227.461E-03     26.2850E-03
             275     14.3375E-03     62.5983E-03    -4.22665E+06     62.2211E+06     88.4326E+06    -34.6812E+03    -225.757E-03     453.570E-03    -227.812E-03     43.6304E-03    -227.467E-03     455.229E-03    -227.454E-03     27.8801E-03
             276     14.3399E-03     64.0915E-03    -357.082E+03     65.8086E+06     91.8203E+06     184.335E+03    -224.632E-03     452.425E-03    -227.793E-03     41.3128E-03    -226.314E-03     454.073E-03    -227.429E-03     25.5855E-03
             277     14.3384E-03     65.5816E-03    -3.11388E+06     64.7282E+06     90.2454E+06    -745.818E+03    -225.655E-03     453.431E-03    -227.776E-03     42.7872E-03    -227.385E-03     455.118E-03    -227.415E-03     26.8541E-03
             278     14.3383E-03     67.0833E-03    -2.30255E+06     65.7582E+06     90.3942E+06     450.287E+03    -225.462E-03     453.227E-03    -227.765E-03     41.6817E-03    -227.155E-03     454.883E-03    -227.405E-03     25.9035E-03
             279     14.3409E-03     68.5675E-03    -2.17989E+06     67.5535E+06     91.7843E+06    -73.7864E+03    -226.576E-03     454.323E-03    -227.748E-03     42.9008E-03    -228.298E-03     456.012E-03    -227.384E-03     26.9835E-03
             280     14.3354E-03     70.0755E-03    -2.89062E+06     66.7076E+06     90.8499E+06    -170.337E+03    -226.776E-03     454.548E-03    -227.772E-03     41.1767E-03    -228.457E-03     456.192E-03    -227.410E-03     25.3818E-03
             281     14.3420E-03     71.5638E-03    -993.966E+03     67.6964E+06     92.0419E+06     417.798E+03    -223.977E-03     451.792E-03    -227.814E-03     44.4133E-03    -225.698E-03     453.483E-03    -227.451E-03     28.7316E-03
             282     14.3361E-03     73.0562E-03    -2.15599E+06     68.0116E+06     90.9505E+06     986.432E+03    -226.223E-03     453.984E-03    -227.761E-03     42.6268E-03    -227.926E-03     455.657E-03    -227.402E-03     26.8372E-03
             283     14.3408E-03     74.5512E-03    -2.12572E+06     67.9424E+06     90.6859E+06    -572.159E+03    -226.168E-03     453.914E-03    -227.746E-03     41.1299E-03    -227.853E-03     455.570E-03    -227.388E-03     25.3066E-03
             284     14.3381E-03     76.0491E-03    -3.04204E+06     67.4104E+06     91.3147E+06    -1.08229E+06    -225.499E-03     453.261E-03    -227.762E-03     44.0872E-03    -227.239E-03     454.965E-03    -227.399E-03     28.2364E-03
             285     14.3391E-03     77.5437E-03    -2.38383E+06     69.7531E+06     92.7098E+06     849.078E+03    -226.274E-03     454.071E-03    -227.797E-03     42.7110E-03    -228.004E-03     455.771E-03    -227.431E-03     26.8250E-03
             286     14.3368E-03     79.0353E-03    -3.55118E+06     67.1154E+06     90.4760E+06    -747.771E+03    -226.233E-03     454.057E-03    -227.824E-03     42.9922E-03    -227.966E-03     455.753E-03    -227.463E-03     27.0546E-03
             287     14.3387E-03     80.5354E-03    -2.45275E+06     66.6769E+06     89.9717E+06     738.237E+03    -225.000E-03     452.804E-03    -227.804E-03     43.8559E-03    -226.710E-03     454.481E-03    -227.447E-03     28.1678E-03
             288     14.3400E-03     82.0232E-03    -792.540E+03     69.6804E+06     92.9568E+06     138.246E+03    -225.833E-03     453.626E-03    -227.793E-03     43.5625E-03    -227.543E-03     455.311E-03    -227.428E-03     27.7932E-03
             289     14.3353E-03     83.5234E-03    -3.01886E+06     66.9408E+06     89.8944E+06    -246.999E+03    -226.396E-03     454.182E-03    -227.787E-03     41.4939E-03    -228.084E-03     455.837E-03    -227.430E-03     25.6755E-03
             290     14.3424E-03     85.0104E-03    -2.00537E+06     69.9694E+06     91.8247E+06     341.235E+03    -225.260E-03     453.049E-03    -227.789E-03     41.6388E-03    -226.956E-03     454.720E-03    -227.428E-03     25.9028E-03
             291     14.3346E-03     86.5137E-03    -3.58013E+06     70.0093E+06     91.3804E+06    -741.535E+03    -226.760E-03     454.541E-03    -227.782E-03     42.5089E-03    -228.484E-03     456.237E-03    -227.421E-03     26.5988E-03
             292     715.877E-06     86.1071E-03    -142.207E+06    -322.024E+06    -139.794E+06     447.791E+03    -228.022E-03     456.043E-03    -228.021E-03     22.1835E-03    -228.140E-03     454.919E-03    -228.047E-03     19.5473E-03
             293     1.43235E-03     86.1486E-03    -138.686E+06    -313.946E+06    -127.884E+06     226.551E+03    -228.091E-03     456.063E-03    -227.972E-03     41.9408E-03    -228.388E-03     455.125E-03    -227.956E-03     37.0574E-03
             294     2.15038E-03     86.2207E-03    -132.659E+06    -304.479E+06    -112.563E+06    -200.740E+03    -228.497E-03     456.467E-03    -227.970E-03     61.8535E-03    -229.086E-03     455.830E-03    -227.899E-03     54.4977E-03
             295     2.86631E-03     86.3159E-03    -125.249E+06    -277.763E+06    -94.3102E+06     30.8275E+03    -228.939E-03     456.929E-03    -227.990E-03     81.3784E-03    -229.965E-03     456.798E-03    -227.877E-03     71.4628E-03
             296     3.58294E-03     86.4396E-03    -117.296E+06    -242.942E+06    -74.2969E+06     228.329E+03    -229.276E-03     457.272E-03    -227.996E-03     100.557E-03    -230.879E-03     457.812E-03    -227.845E-03     88.0095E-03
             297     4.30032E-03     86.5851E-03    -108.970E+06    -217.339E+06    -54.9242E+06     117.688E+03    -229.758E-03     457.756E-03    -227.999E-03     119.163E-03    -232.061E-03     459.061E-03    -227.800E-03     103.873E-03
             298     5.01632E-03     86.7576E-03    -99.6015E+06    -184.077E+06    -35.7670E+06     174.264E+03    -230.314E-03     458.308E-03    -227.994E-03     136.934E-03    -233.460E-03     460.551E-03    -227.761E-03     118.827E-03
             299     5.73403E-03     86.9507E-03    -90.2738E+06    -145.842E+06    -16.8093E+06     199.291E+03    -230.701E-03     458.686E-03    -227.985E-03     153.709E-03    -234.826E-03     462.022E-03    -227.726E-03     132.786E-03
             300     6.45036E-03     87.1658E-03    -81.4580E+06    -109.087E+06     1.06354E+06     191.823E+03    -230.912E-03     458.877E-03    -227.964E-03     169.219E-03    -236.126E-03     463.410E-03    -227.683E-03     145.521E-03
             301     7.16773E-03     87.3996E-03    -72.4471E+06    -66.6821E+06     19.0416E+06     441.201E+03    -231.000E-03     458.926E-03    -227.926E-03     182.973E-03    -237.365E-03     464.742E-03    -227.629E-03     156.674E-03
             302     7.88518E-03     87.6475E-03    -62.9181E+06    -19.1603E+06     37.3762E+06     438.610E+03    -231.001E-03     458.881E-03    -227.880E-03     193.886E-03    -238.482E-03     465.963E-03    -227.574E-03     165.294E-03
             303     8.60214E-03     87.9105E-03    -53.4784E+06     12.2549E+06     49.2417E+06     712.691E+03    -230.696E-03     458.526E-03    -227.830E-03     200.119E-03    -239.063E-03     466.604E-03    -227.524E-03     169.790E-03
             304     9.31961E-03     88.1710E-03    -44.9057E+06     31.1004E+06     58.4250E+06     1.41909E+06    -230.445E-03     458.246E-03    -227.800E-03     201.800E-03    -239.380E-03     466.962E-03    -227.488E-03     170.341E-03
             305     10.0365E-03     88.4394E-03    -37.3421E+06     45.9910E+06     69.9284E+06     1.46419E+06    -229.968E-03     457.781E-03    -227.813E-03     197.990E-03    -239.071E-03     466.712E-03    -227.476E-03     166.081E-03
             306     10.7529E-03     88.6857E-03    -30.0819E+06     50.7395E+06     80.4883E+06     1.07469E+06    -228.842E-03     456.685E-03    -227.843E-03     188.269E-03    -237.644E-03     465.327E-03    -227.471E-03     156.678E-03
             307     11.4716E-03     88.9225E-03    -23.1956E+06     56.6129E+06     89.2181E+06     188.876E+03    -227.926E-03     455.790E-03    -227.864E-03     173.857E-03    -236.079E-03     463.802E-03    -227.466E-03     143.067E-03
             308     12.1863E-03     89.1265E-03    -16.9861E+06     62.6310E+06     92.5600E+06    -604.211E+03    -227.204E-03     455.074E-03    -227.870E-03     152.941E-03    -234.202E-03     461.966E-03    -227.473E-03     123.951E-03
             309     12.9010E-03     89.3076E-03    -10.5351E+06     70.7972E+06     93.3376E+06     46.9694E+03    -226.197E-03     454.057E-03    -227.860E-03     135.093E-03    -232.330E-03     460.133E-03    -227.481E-03     107.378E-03
             310     13.6240E-03     89.4526E-03    -4.22955E+06     73.4675E+06     93.1880E+06     462.278E+03    -225.259E-03     453.088E-03    -227.830E-03     86.6321E-03    -229.132E-03     456.937E-03    -227.464E-03     64.8734E-03
             311     717.078E-06     87.5997E-03    -143.496E+06    -322.092E+06    -140.041E+06     184.574E+03    -227.533E-03     455.726E-03    -228.193E-03     22.9005E-03    -227.660E-03     454.607E-03    -228.218E-03     20.2522E-03
             312     1.43377E-03     87.6440E-03    -138.651E+06    -314.032E+06    -128.583E+06     240.612E+03    -228.363E-03     456.258E-03    -227.895E-03     42.1502E-03    -228.660E-03     455.321E-03    -227.881E-03     37.2443E-03
             313     2.14915E-03     87.7131E-03    -132.899E+06    -303.814E+06    -112.047E+06      65.205E+03    -228.478E-03     456.458E-03    -227.980E-03     61.7859E-03    -229.070E-03     455.824E-03    -227.907E-03     54.4357E-03
             314     2.86648E-03     87.8113E-03    -125.626E+06    -278.009E+06     -94.603E+06    -48.1839E+03    -228.698E-03     456.664E-03    -227.966E-03     81.3594E-03    -229.724E-03     456.532E-03    -227.854E-03     71.4590E-03
             315     3.58349E-03     87.9321E-03    -117.386E+06    -243.023E+06    -74.8370E+06     382.212E+03    -229.215E-03     457.158E-03    -227.943E-03     100.493E-03    -230.818E-03     457.698E-03    -227.795E-03     87.9543E-03
             316     4.29986E-03     88.0802E-03    -108.471E+06    -216.483E+06    -54.6616E+06     210.626E+03    -229.891E-03     457.852E-03    -227.961E-03     119.131E-03    -232.193E-03     459.159E-03    -227.763E-03     103.835E-03
             317     5.01724E-03     88.2512E-03    -99.6755E+06    -184.195E+06    -36.0671E+06      67.899E+03    -230.337E-03     458.311E-03    -227.974E-03     136.816E-03    -233.482E-03     460.553E-03    -227.742E-03     118.709E-03
             318     5.73347E-03     88.4449E-03    -90.8433E+06    -146.139E+06    -17.4114E+06     496.894E+03    -230.576E-03     458.538E-03    -227.961E-03     153.700E-03    -234.704E-03     461.875E-03    -227.705E-03     132.785E-03
             319     6.45082E-03     88.6601E-03    -81.6896E+06    -108.657E+06     1.32092E+06     644.934E+03    -230.827E-03     458.761E-03    -227.934E-03     169.359E-03    -236.048E-03     463.302E-03    -227.651E-03     145.667E-03
             320     7.16828E-03     88.8920E-03    -72.5327E+06    -66.3516E+06     19.3016E+06     318.959E+03    -231.147E-03     459.048E-03    -227.901E-03     182.988E-03    -237.522E-03     464.874E-03    -227.603E-03     156.647E-03
             321     7.88478E-03     89.1437E-03    -63.7237E+06    -18.9739E+06     37.0673E+06      76.742E+03    -231.013E-03     458.879E-03    -227.866E-03     193.566E-03    -238.490E-03     465.955E-03    -227.561E-03     164.976E-03
             322     8.60264E-03     89.4015E-03    -55.1862E+06     11.7810E+06     48.4797E+06    -122.972E+03    -230.952E-03     458.781E-03    -227.829E-03     200.317E-03    -239.336E-03     466.871E-03    -227.524E-03     169.931E-03
             323     9.31893E-03     89.6692E-03    -46.8644E+06     29.7228E+06     56.7761E+06    -60.7360E+03    -230.706E-03     458.522E-03    -227.816E-03     202.181E-03    -239.668E-03     467.259E-03    -227.507E-03     170.633E-03
             324     10.0361E-03     89.9300E-03    -38.4087E+06     45.1953E+06     68.3253E+06     753.714E+03    -229.707E-03     457.532E-03    -227.825E-03     198.101E-03    -238.813E-03     466.464E-03    -227.493E-03     166.218E-03
             325     10.7540E-03     90.1837E-03    -30.0784E+06     52.3934E+06     80.3373E+06     460.833E+03    -228.786E-03     456.631E-03    -227.846E-03     187.945E-03    -237.575E-03     465.267E-03    -227.476E-03     156.375E-03
             326     11.4693E-03     90.4134E-03    -22.0483E+06     57.1284E+06     89.5171E+06     367.160E+03    -227.836E-03     455.699E-03    -227.862E-03     174.385E-03    -235.990E-03     463.717E-03    -227.466E-03     143.632E-03
             327     12.1869E-03     90.6282E-03    -15.5670E+06     62.8454E+06     93.6585E+06     1.22298E+06    -226.572E-03     454.419E-03    -227.847E-03     153.964E-03    -233.575E-03     461.318E-03    -227.447E-03     125.113E-03
             328     12.9080E-03     90.7936E-03    -10.5926E+06     71.9429E+06     94.6521E+06     430.386E+03    -225.680E-03     453.483E-03    -227.803E-03     136.107E-03    -231.834E-03     459.580E-03    -227.419E-03     108.472E-03
             329     13.6177E-03     90.9588E-03    -5.47549E+06     73.5792E+06     92.6761E+06    -107.210E+03    -226.053E-03     453.826E-03    -227.773E-03     87.4518E-03    -229.962E-03     457.708E-03    -227.408E-03     65.6129E-03
             330     716.934E-06     89.0944E-03    -141.886E+06    -321.372E+06    -140.674E+06    -135.731E+03    -228.257E-03     455.785E-03    -227.528E-03     23.2054E-03    -228.374E-03     454.666E-03    -227.560E-03     20.5864E-03
             331     1.43268E-03     89.1381E-03    -138.931E+06    -314.376E+06    -128.881E+06    -111.346E+03    -228.274E-03     456.175E-03    -227.901E-03     41.7290E-03    -228.571E-03     455.237E-03    -227.888E-03     36.8220E-03
             332     2.15008E-03     89.2080E-03    -132.880E+06    -303.856E+06    -112.560E+06     394.437E+03    -228.408E-03     456.364E-03    -227.956E-03     61.6875E-03    -229.000E-03     455.732E-03    -227.885E-03     54.3338E-03
             333     2.86651E-03     89.3038E-03    -125.765E+06    -277.446E+06    -94.0069E+06     238.561E+03    -228.702E-03     456.645E-03    -227.944E-03     81.3114E-03    -229.730E-03     456.515E-03    -227.829E-03     71.4180E-03
             334     3.58341E-03     89.4264E-03    -117.614E+06    -243.228E+06    -75.1101E+06    -115.069E+03    -229.335E-03     457.270E-03    -227.935E-03     100.461E-03    -230.938E-03     457.809E-03    -227.787E-03     87.9068E-03
             335     4.30034E-03     89.5743E-03    -108.866E+06    -216.643E+06    -55.3973E+06     301.646E+03    -229.821E-03     457.781E-03    -227.960E-03     118.837E-03    -232.120E-03     459.084E-03    -227.765E-03     103.552E-03
             336     5.01656E-03     89.7452E-03    -100.032E+06    -183.955E+06    -35.9470E+06     582.904E+03    -230.100E-03     458.056E-03    -227.956E-03     136.841E-03    -233.248E-03     460.301E-03    -227.724E-03     118.760E-03
             337     5.73400E-03     89.9392E-03    -90.7621E+06    -146.130E+06    -16.9143E+06     538.098E+03    -230.494E-03     458.420E-03    -227.926E-03     153.809E-03    -234.626E-03     461.761E-03    -227.668E-03     132.890E-03
             338     6.45144E-03     90.1524E-03    -81.3024E+06    -108.745E+06     1.42906E+06     505.239E+03    -230.982E-03     458.886E-03    -227.904E-03     169.300E-03    -236.203E-03     463.428E-03    -227.622E-03     145.583E-03
             339     7.16770E-03     90.3884E-03    -72.3021E+06    -66.1967E+06     19.2308E+06     580.545E+03    -231.181E-03     459.065E-03    -227.884E-03     182.983E-03    -237.552E-03     464.888E-03    -227.587E-03     156.652E-03
             340     7.88530E-03     90.6356E-03    -63.2123E+06    -18.3714E+06     37.4788E+06     783.597E+03    -231.173E-03     459.032E-03    -227.860E-03     193.578E-03    -238.654E-03     466.116E-03    -227.554E-03     164.967E-03
             341     8.60210E-03     90.8970E-03    -54.2761E+06     13.5011E+06     49.2565E+06     418.481E+03    -231.105E-03     458.940E-03    -227.835E-03     200.624E-03    -239.499E-03     467.046E-03    -227.530E-03     170.216E-03
             342     9.31930E-03     91.1636E-03    -45.5122E+06     30.1566E+06     57.6103E+06    -385.397E+03    -230.619E-03     458.443E-03    -227.823E-03     202.271E-03    -239.576E-03     467.177E-03    -227.513E-03     170.744E-03
             343     10.0363E-03     91.4246E-03    -37.2493E+06     43.3083E+06     67.7356E+06    -418.322E+03    -229.852E-03     457.681E-03    -227.829E-03     198.228E-03    -238.957E-03     466.611E-03    -227.499E-03     166.304E-03
             344     10.7525E-03     91.6775E-03    -29.9565E+06     52.9757E+06     79.3069E+06     521.058E+03    -228.602E-03     456.444E-03    -227.842E-03     188.423E-03    -237.400E-03     465.094E-03    -227.479E-03     156.876E-03
             345     11.4708E-03     91.9099E-03    -23.9942E+06     57.2602E+06     88.0797E+06     442.874E+03    -227.429E-03     455.269E-03    -227.840E-03     174.636E-03    -235.601E-03     463.303E-03    -227.448E-03     143.915E-03
             346     12.1894E-03     92.1179E-03    -17.1501E+06     61.3867E+06     92.2494E+06     473.293E+03    -226.728E-03     454.550E-03    -227.823E-03     152.647E-03    -233.725E-03     461.437E-03    -227.425E-03     123.712E-03
             347     12.9021E-03     92.2927E-03    -9.96355E+06     73.7828E+06     95.3955E+06     1.15077E+06    -225.833E-03     453.633E-03    -227.800E-03     133.145E-03    -231.914E-03     459.664E-03    -227.416E-03     105.538E-03
             348     13.6283E-03     92.4462E-03    -5.43157E+06     75.0167E+06     93.6792E+06     242.825E+03    -226.133E-03     453.920E-03    -227.786E-03     85.3209E-03    -229.977E-03     457.739E-03    -227.419E-03     63.5903E-03
             349     715.731E-06     90.5890E-03    -142.978E+06    -321.524E+06    -139.567E+06     47.1137E+03    -228.634E-03     456.214E-03    -227.581E-03     22.6591E-03    -228.758E-03     455.095E-03    -227.605E-03     20.0254E-03
             350     1.43349E-03     90.6314E-03    -139.060E+06    -314.066E+06    -128.702E+06     270.006E+03    -227.924E-03     455.929E-03    -228.006E-03     41.7961E-03    -228.224E-03     454.994E-03    -227.992E-03     36.8756E-03
             351     2.14961E-03     90.7020E-03    -133.167E+06    -303.927E+06    -112.702E+06     161.657E+03    -228.355E-03     456.297E-03    -227.942E-03     61.4638E-03    -228.946E-03     455.663E-03    -227.871E-03     54.1097E-03
             352     2.86670E-03     90.7972E-03    -125.534E+06    -277.296E+06    -94.4068E+06     166.922E+03    -228.940E-03     456.891E-03    -227.952E-03     81.1297E-03    -229.966E-03     456.762E-03    -227.840E-03     71.2208E-03
             353     3.58315E-03     90.9211E-03    -117.647E+06    -243.081E+06    -74.9197E+06     291.307E+03    -229.236E-03     457.200E-03    -227.963E-03     100.452E-03    -230.840E-03     457.740E-03    -227.815E-03     87.9027E-03
             354     4.29954E-03     91.0680E-03    -109.039E+06    -216.927E+06    -55.0430E+06     379.117E+03    -229.489E-03     457.438E-03    -227.949E-03     119.138E-03    -231.795E-03     458.747E-03    -227.752E-03     103.863E-03
             355     5.01740E-03     91.2387E-03    -99.5329E+06    -183.965E+06    -35.6359E+06     343.260E+03    -230.047E-03     457.960E-03    -227.914E-03     137.097E-03    -233.196E-03     460.206E-03    -227.681E-03     119.012E-03
             356     5.73457E-03     91.4323E-03    -90.2041E+06    -146.298E+06    -17.0693E+06     370.682E+03    -230.678E-03     458.571E-03    -227.893E-03     153.708E-03    -234.806E-03     461.909E-03    -227.636E-03     132.777E-03
             357     6.45063E-03     91.6479E-03    -81.1390E+06    -108.961E+06     1.12285E+06     474.197E+03    -231.056E-03     458.946E-03    -227.890E-03     169.297E-03    -236.277E-03     463.489E-03    -227.609E-03     145.571E-03
             358     7.16846E-03     91.8808E-03    -71.6017E+06    -66.2112E+06     19.4846E+06     583.855E+03    -231.187E-03     459.064E-03    -227.877E-03     182.822E-03    -237.547E-03     464.878E-03    -227.580E-03     156.510E-03
             359     7.88538E-03     92.1308E-03    -61.7836E+06    -18.3475E+06     38.0468E+06     475.388E+03    -231.346E-03     459.208E-03    -227.862E-03     193.678E-03    -238.826E-03     466.293E-03    -227.555E-03     165.039E-03
             360     8.60189E-03     92.3921E-03    -52.3656E+06     14.6552E+06     50.3530E+06     492.915E+03    -231.111E-03     458.955E-03    -227.845E-03     200.484E-03    -239.495E-03     467.060E-03    -227.538E-03     170.077E-03
             361     9.31928E-03     92.6564E-03    -44.7587E+06     31.1071E+06     58.4224E+06     744.732E+03    -230.512E-03     458.341E-03    -227.829E-03     202.287E-03    -239.466E-03     467.078E-03    -227.517E-03     170.789E-03
             362     10.0361E-03     92.9213E-03    -38.3264E+06     43.8219E+06     68.5992E+06     483.649E+03    -229.602E-03     457.427E-03    -227.825E-03     198.371E-03    -238.718E-03     466.364E-03    -227.490E-03     166.489E-03
             363     10.7537E-03     93.1709E-03    -31.7112E+06     51.2260E+06     79.2299E+06     382.082E+03    -228.646E-03     456.477E-03    -227.832E-03     188.411E-03    -237.468E-03     465.139E-03    -227.464E-03     156.811E-03
             364     11.4713E-03     93.4025E-03    -24.0807E+06     58.0133E+06     88.6380E+06     1.34715E+06    -227.828E-03     455.673E-03    -227.845E-03     173.914E-03    -235.996E-03     463.704E-03    -227.451E-03     143.133E-03
             365     12.1855E-03     93.6162E-03    -17.4630E+06     63.6809E+06     92.5975E+06     259.306E+03    -227.098E-03     454.947E-03    -227.849E-03     152.932E-03    -234.108E-03     461.853E-03    -227.453E-03     123.945E-03
             366     12.9064E-03     93.7847E-03    -11.5016E+06     72.6994E+06     93.2710E+06    -1.03517E+06    -226.809E-03     454.665E-03    -227.856E-03     134.032E-03    -232.924E-03     460.726E-03    -227.478E-03     106.238E-03
             367     13.6132E-03     93.9438E-03    -4.11084E+06     75.2599E+06     93.2952E+06     13.5099E+03    -225.306E-03     453.153E-03    -227.846E-03     85.8921E-03    -229.156E-03     456.984E-03    -227.483E-03     64.0959E-03
             368     716.801E-06     92.0821E-03    -143.315E+06    -322.350E+06    -140.627E+06     554.451E+03    -228.157E-03     456.050E-03    -227.893E-03     22.5874E-03    -228.282E-03     454.930E-03    -227.921E-03     19.9112E-03
             369     1.43258E-03     92.1260E-03    -139.057E+06    -313.982E+06    -128.686E+06     204.376E+03    -228.095E-03     456.071E-03    -227.976E-03     41.7525E-03    -228.393E-03     455.134E-03    -227.963E-03     36.8444E-03
             370     2.15013E-03     92.1946E-03    -132.922E+06    -303.504E+06    -112.515E+06    -15.7837E+03    -228.462E-03     456.436E-03    -227.974E-03     61.5375E-03    -229.054E-03     455.806E-03    -227.904E-03     54.1714E-03
             371     2.86615E-03     92.2927E-03    -125.768E+06    -277.777E+06    -94.5415E+06     157.774E+03    -228.743E-03     456.712E-03    -227.969E-03     81.3911E-03    -229.773E-03     456.583E-03    -227.856E-03     71.4755E-03
             372     3.58286E-03     92.4142E-03    -117.490E+06    -242.829E+06    -74.5656E+06     450.931E+03    -228.927E-03     456.851E-03    -227.924E-03     100.779E-03    -230.535E-03     457.396E-03    -227.774E-03     88.2480E-03
             373     4.30108E-03     92.5609E-03    -108.384E+06    -216.500E+06    -54.5603E+06     104.002E+03    -229.574E-03     457.466E-03    -227.892E-03     119.313E-03    -231.879E-03     458.775E-03    -227.693E-03     104.029E-03
             374     5.01751E-03     92.7325E-03    -99.2928E+06    -184.154E+06    -35.8939E+06     92.8537E+03    -230.287E-03     458.172E-03    -227.885E-03     136.771E-03    -233.428E-03     460.412E-03    -227.654E-03     118.676E-03
             375     5.73374E-03     92.9268E-03    -90.2004E+06    -146.403E+06    -17.3223E+06     239.322E+03    -230.704E-03     458.592E-03    -227.888E-03     153.686E-03    -234.832E-03     461.930E-03    -227.632E-03     132.752E-03
             376     6.45167E-03     93.1412E-03    -80.9149E+06    -108.658E+06     1.24145E+06     217.103E+03    -231.074E-03     458.963E-03    -227.889E-03     169.199E-03    -236.290E-03     463.502E-03    -227.608E-03     145.476E-03
             377     7.16793E-03     93.3755E-03    -71.7233E+06    -66.0584E+06     19.4994E+06    -18.9185E+03    -231.380E-03     459.268E-03    -227.888E-03     182.726E-03    -237.744E-03     465.086E-03    -227.590E-03     156.371E-03
             378     7.88465E-03     93.6248E-03    -62.7406E+06    -17.8927E+06     37.8468E+06    -245.543E+03    -231.234E-03     459.111E-03    -227.876E-03     193.708E-03    -238.717E-03     466.197E-03    -227.570E-03     165.078E-03
             379     8.60236E-03     93.8865E-03    -54.6623E+06     13.2597E+06     49.0681E+06     279.148E+03    -231.000E-03     458.847E-03    -227.847E-03     200.689E-03    -239.398E-03     466.956E-03    -227.542E-03     170.288E-03
             380     9.31880E-03     94.1513E-03    -46.7778E+06     30.5816E+06     57.4412E+06     1.17702E+06    -230.445E-03     458.269E-03    -227.824E-03     202.451E-03    -239.420E-03     467.020E-03    -227.513E-03     170.942E-03
             381     10.0364E-03     94.4146E-03    -38.6819E+06     45.4903E+06     69.0677E+06     1.27054E+06    -229.536E-03     457.354E-03    -227.818E-03     198.114E-03    -238.656E-03     466.298E-03    -227.483E-03     166.240E-03
             382     10.7542E-03     94.6642E-03    -30.6096E+06     51.1602E+06     80.4695E+06     973.820E+03    -228.923E-03     456.760E-03    -227.838E-03     188.390E-03    -237.740E-03     465.417E-03    -227.465E-03     156.775E-03
             383     11.4686E-03     94.9018E-03    -23.1376E+06     57.5074E+06     89.0354E+06     133.738E+03    -227.897E-03     455.753E-03    -227.856E-03     174.325E-03    -236.062E-03     463.783E-03    -227.461E-03     143.539E-03
             384     12.1894E-03     95.1047E-03    -15.6744E+06     65.5208E+06     93.5455E+06     527.098E+03    -226.918E-03     454.768E-03    -227.851E-03     154.260E-03    -233.940E-03     461.696E-03    -227.455E-03     125.323E-03
             385     12.9012E-03     95.2878E-03    -9.44203E+06     73.8420E+06     95.0731E+06     374.008E+03    -225.873E-03     453.696E-03    -227.823E-03     136.644E-03    -232.036E-03     459.811E-03    -227.441E-03     108.972E-03
             386     13.6260E-03     95.4372E-03    -4.90213E+06     74.6019E+06     93.1858E+06    -441.120E+03    -225.424E-03     453.207E-03    -227.782E-03     87.4839E-03    -229.326E-03     457.086E-03    -227.417E-03     65.6542E-03
             387     716.471E-06     93.5776E-03    -142.806E+06    -322.040E+06    -140.276E+06    -1.23697E+03    -228.082E-03     455.551E-03    -227.470E-03     23.0089E-03    -228.204E-03     454.432E-03    -227.497E-03     20.3503E-03
             388     1.43366E-03     93.6191E-03    -138.929E+06    -313.869E+06    -129.136E+06    -223.792E+03    -228.359E-03     456.181E-03    -227.823E-03     41.9741E-03    -228.658E-03     455.247E-03    -227.812E-03     37.0499E-03
             389     2.14918E-03     93.6898E-03    -133.048E+06    -303.685E+06    -112.874E+06     206.752E+03    -228.398E-03     456.318E-03    -227.920E-03     61.9484E-03    -228.994E-03     455.691E-03    -227.851E-03     54.5659E-03
             390     2.86655E-03     93.7856E-03    -125.754E+06    -277.191E+06    -94.0402E+06     327.582E+03    -228.502E-03     456.394E-03    -227.892E-03     81.5470E-03    -229.534E-03     456.269E-03    -227.778E-03     71.6422E-03
             391     3.58450E-03     93.9070E-03    -117.238E+06    -242.682E+06    -74.4435E+06    -138.773E+03    -229.153E-03     457.010E-03    -227.856E-03     100.456E-03    -230.756E-03     457.550E-03    -227.707E-03     87.9117E-03
             392     4.30020E-03     94.0551E-03    -108.516E+06    -216.627E+06    -55.0281E+06    -60.1108E+03    -229.863E-03     457.743E-03    -227.880E-03     118.894E-03    -232.161E-03     459.047E-03    -227.684E-03     103.606E-03
             393     5.01683E-03     94.2269E-03    -99.7813E+06    -184.098E+06    -36.1216E+06     116.156E+03    -230.247E-03     458.146E-03    -227.899E-03     136.727E-03    -233.393E-03     460.389E-03    -227.668E-03     118.629E-03
             394     5.73470E-03     94.4198E-03    -90.7011E+06    -146.020E+06    -17.2785E+06     53.3779E+03    -230.704E-03     458.603E-03    -227.899E-03     153.709E-03    -234.834E-03     461.943E-03    -227.642E-03     132.769E-03
             395     6.45064E-03     94.6361E-03    -81.6868E+06    -108.567E+06     1.04867E+06    -40.5507E+03    -231.166E-03     459.070E-03    -227.903E-03     169.223E-03    -236.384E-03     463.609E-03    -227.622E-03     145.494E-03
             396     7.16795E-03     94.8692E-03    -72.7463E+06    -65.4808E+06     19.3102E+06     96.1140E+03    -231.279E-03     459.178E-03    -227.899E-03     182.972E-03    -237.655E-03     465.008E-03    -227.602E-03     156.623E-03
             397     7.88507E-03     95.1201E-03    -64.3230E+06    -17.6926E+06     37.3147E+06     492.988E+03    -231.177E-03     459.055E-03    -227.878E-03     193.917E-03    -238.677E-03     466.155E-03    -227.572E-03     165.288E-03
             398     8.60199E-03     95.3788E-03    -55.5698E+06     12.7716E+06     48.6403E+06     486.362E+03    -230.903E-03     458.744E-03    -227.842E-03     200.888E-03    -239.311E-03     466.859E-03    -227.536E-03     170.497E-03
             399     9.31954E-03     95.6480E-03    -46.4051E+06     29.7086E+06     56.9155E+06     98.0832E+03    -230.414E-03     458.226E-03    -227.812E-03     202.282E-03    -239.378E-03     466.965E-03    -227.503E-03     170.781E-03
             400     10.0367E-03     95.9058E-03    -37.9440E+06     45.0166E+06     68.1095E+06     387.310E+03    -229.929E-03     457.744E-03    -227.815E-03     198.380E-03    -239.053E-03     466.695E-03    -227.485E-03     166.436E-03
             401     10.7520E-03     96.1635E-03    -30.2416E+06     51.9201E+06     79.1494E+06     785.575E+03    -228.651E-03     456.485E-03    -227.834E-03     188.599E-03    -237.463E-03     465.144E-03    -227.470E-03     157.030E-03
             402     11.4727E-03     96.3903E-03    -23.4698E+06     59.1175E+06     88.7615E+06     345.233E+03    -227.661E-03     455.500E-03    -227.839E-03     174.787E-03    -235.835E-03     463.543E-03    -227.447E-03     144.042E-03
             403     12.1853E-03     96.6068E-03    -17.6272E+06     65.4242E+06     93.0407E+06    -603.109E+03    -226.694E-03     454.518E-03    -227.824E-03     153.978E-03    -233.732E-03     461.456E-03    -227.428E-03     125.004E-03
             404     12.9083E-03     96.7745E-03    -10.8343E+06     72.6629E+06     94.3096E+06    -53.6933E+03    -225.146E-03     452.922E-03    -227.776E-03     133.948E-03    -231.245E-03     458.966E-03    -227.394E-03     106.398E-03
             405     13.6217E-03     96.9316E-03    -4.59520E+06     75.6270E+06     93.8380E+06     588.769E+03    -225.884E-03     453.622E-03    -227.738E-03     85.0088E-03    -229.716E-03     457.434E-03    -227.372E-03     63.3074E-03
             406     717.545E-06     95.0700E-03    -142.582E+06    -321.623E+06    -140.091E+06    -177.451E+03    -227.947E-03     455.339E-03    -227.393E-03     23.4491E-03    -228.069E-03     454.221E-03    -227.420E-03     20.8161E-03
             407     1.43309E-03     95.1144E-03    -138.870E+06    -313.840E+06    -128.952E+06     255.023E+03    -228.092E-03     455.776E-03    -227.684E-03     41.8369E-03    -228.391E-03     454.843E-03    -227.673E-03     36.9212E-03
             408     2.15058E-03     95.1829E-03    -132.997E+06    -303.381E+06    -112.439E+06     109.930E+03    -228.356E-03     456.127E-03    -227.771E-03     61.7130E-03    -228.950E-03     455.498E-03    -227.701E-03     54.3456E-03
             409     2.86744E-03     95.2784E-03    -125.401E+06    -276.970E+06    -94.2981E+06     -98.327E+03    -228.908E-03     456.730E-03    -227.822E-03     81.0399E-03    -229.934E-03     456.601E-03    -227.710E-03     71.1261E-03
             410     3.58293E-03     95.4015E-03    -117.434E+06    -242.788E+06    -74.7953E+06    -26.6837E+03    -229.372E-03     457.242E-03    -227.870E-03     100.312E-03    -230.975E-03     457.783E-03    -227.722E-03     87.7545E-03
             411     4.30015E-03     95.5494E-03    -108.938E+06    -216.523E+06    -54.9633E+06     185.107E+03    -229.714E-03     457.616E-03    -227.902E-03     119.134E-03    -232.019E-03     458.925E-03    -227.705E-03     103.851E-03
             412     5.01769E-03     95.7197E-03    -99.9811E+06    -183.630E+06    -35.8284E+06     285.025E+03    -230.271E-03     458.177E-03    -227.906E-03     137.006E-03    -233.423E-03     460.425E-03    -227.674E-03     118.903E-03
             413     5.73353E-03     95.9150E-03    -91.0307E+06    -145.774E+06    -17.2452E+06     140.853E+03    -230.860E-03     458.773E-03    -227.913E-03     153.830E-03    -234.994E-03     462.117E-03    -227.656E-03     132.877E-03
             414     6.45126E-03     96.1293E-03    -81.9552E+06    -108.310E+06     1.11847E+06     310.600E+03    -231.039E-03     458.957E-03    -227.917E-03     169.310E-03    -236.263E-03     463.501E-03    -227.636E-03     145.594E-03
             415     7.16784E-03     96.3646E-03    -72.9490E+06    -65.5144E+06     19.1225E+06     633.099E+03    -231.109E-03     459.004E-03    -227.895E-03     183.045E-03    -237.486E-03     464.834E-03    -227.599E-03     156.725E-03
             416     7.88527E-03     96.6122E-03    -63.2232E+06    -18.0299E+06     37.4253E+06     650.950E+03    -231.243E-03     459.111E-03    -227.868E-03     194.021E-03    -238.743E-03     466.214E-03    -227.563E-03     165.378E-03
             417     8.60205E-03     96.8762E-03    -53.5167E+06     14.0916E+06     49.3931E+06     150.976E+03    -230.939E-03     458.777E-03    -227.837E-03     200.510E-03    -239.329E-03     466.883E-03    -227.533E-03     170.118E-03
             418     9.31949E-03     97.1375E-03    -45.3882E+06     29.4606E+06     57.0720E+06    -1.28352E+03    -230.494E-03     458.307E-03    -227.813E-03     202.415E-03    -239.453E-03     467.044E-03    -227.505E-03     170.906E-03
             419     10.0357E-03     97.4061E-03    -38.1782E+06     43.3144E+06     67.3385E+06     784.659E+03    -229.654E-03     457.461E-03    -227.807E-03     198.646E-03    -238.775E-03     466.405E-03    -227.478E-03     166.760E-03
             420     10.7548E-03     97.6526E-03    -31.2902E+06     52.6096E+06     78.7942E+06     791.237E+03    -228.597E-03     456.410E-03    -227.813E-03     188.655E-03    -237.417E-03     465.077E-03    -227.450E-03     157.087E-03
             421     11.4689E-03     97.8883E-03    -23.7732E+06     60.5407E+06     89.1827E+06     612.088E+03    -227.729E-03     455.551E-03    -227.821E-03     175.222E-03    -235.936E-03     463.629E-03    -227.429E-03     144.419E-03
             422     12.1900E-03     98.0991E-03    -16.2786E+06     67.0520E+06     94.4546E+06     481.941E+03    -226.633E-03     454.443E-03    -227.811E-03     153.207E-03    -233.653E-03     461.370E-03    -227.412E-03     124.279E-03
             423     12.9022E-03     98.2688E-03    -10.5785E+06     73.3018E+06     94.9382E+06    -436.316E+03    -226.044E-03     453.831E-03    -227.787E-03     134.391E-03    -232.162E-03     459.896E-03    -227.403E-03     106.704E-03
             424     13.6212E-03     98.4284E-03    -5.60209E+06     75.0209E+06     93.3482E+06    -536.286E+03    -226.139E-03     453.915E-03    -227.776E-03     87.0155E-03    -230.028E-03     457.780E-03    -227.410E-03     65.1668E-03
             425     715.903E-06     96.5649E-03    -143.117E+06    -321.720E+06    -139.741E+06     245.268E+03    -227.560E-03     455.495E-03    -227.936E-03     22.9538E-03    -227.685E-03     454.378E-03    -227.960E-03     20.2896E-03
             426     1.43390E-03     96.6063E-03    -138.841E+06    -313.810E+06    -128.652E+06    -8.52743E+03    -227.834E-03     455.532E-03    -227.698E-03     41.6778E-03    -228.130E-03     454.594E-03    -227.685E-03     36.7896E-03
             427     2.15042E-03     96.6764E-03    -132.634E+06    -303.317E+06    -112.806E+06     117.584E+03    -228.485E-03     456.227E-03    -227.742E-03     61.1962E-03    -229.071E-03     455.593E-03    -227.674E-03     53.8603E-03
             428     2.86619E-03     96.7734E-03    -125.815E+06    -276.867E+06    -94.4867E+06     210.287E+03    -228.885E-03     456.703E-03    -227.818E-03     81.3397E-03    -229.916E-03     456.579E-03    -227.707E-03     71.4234E-03
             429     3.58366E-03     96.8953E-03    -117.732E+06    -242.638E+06    -74.6273E+06     253.081E+03    -229.245E-03     457.094E-03    -227.850E-03     100.879E-03    -230.855E-03     457.642E-03    -227.700E-03     88.3283E-03
             430     4.30075E-03     97.0421E-03    -109.002E+06    -216.347E+06    -54.8066E+06     353.893E+03    -229.848E-03     457.727E-03    -227.879E-03     119.360E-03    -232.157E-03     459.040E-03    -227.682E-03     104.063E-03
             431     5.01682E-03     97.2146E-03    -99.8213E+06    -183.458E+06    -35.7325E+06     244.711E+03    -230.481E-03     458.390E-03    -227.909E-03     137.004E-03    -233.632E-03     460.639E-03    -227.677E-03     118.881E-03
             432     5.73453E-03     97.4085E-03    -90.5168E+06    -145.607E+06    -17.0075E+06     440.675E+03    -230.783E-03     458.709E-03    -227.926E-03     153.812E-03    -234.916E-03     462.053E-03    -227.668E-03     132.870E-03
             433     6.45037E-03     97.6245E-03    -81.3856E+06    -108.010E+06     1.28976E+06     654.532E+03    -230.972E-03     458.892E-03    -227.921E-03     169.209E-03    -236.194E-03     463.439E-03    -227.640E-03     145.493E-03
             434     7.16842E-03     97.8562E-03    -71.9620E+06    -65.6922E+06     19.2732E+06     442.709E+03    -231.214E-03     459.115E-03    -227.901E-03     182.927E-03    -237.587E-03     464.943E-03    -227.605E-03     156.583E-03
             435     7.88481E-03     98.1093E-03    -62.7792E+06    -17.8403E+06     37.3644E+06     143.931E+03    -231.108E-03     458.980E-03    -227.872E-03     193.863E-03    -238.596E-03     466.073E-03    -227.569E-03     165.248E-03
             436     8.60237E-03     98.3673E-03    -54.4267E+06     14.5209E+06     49.0163E+06     157.425E+03    -230.909E-03     458.742E-03    -227.834E-03     200.701E-03    -239.307E-03     466.856E-03    -227.531E-03     170.314E-03
             437     9.31878E-03     98.6355E-03    -46.5954E+06     28.9736E+06     56.5602E+06     700.755E+03    -230.411E-03     458.216E-03    -227.804E-03     202.837E-03    -239.391E-03     466.969E-03    -227.496E-03     171.329E-03
             438     10.0372E-03     98.8963E-03    -38.8710E+06     42.8669E+06     67.4859E+06     629.606E+03    -229.442E-03     457.232E-03    -227.790E-03     198.640E-03    -238.568E-03     466.176E-03    -227.458E-03     166.777E-03
             439     10.7531E-03     99.1492E-03    -30.7172E+06     53.3776E+06     80.0185E+06     396.845E+03    -228.836E-03     456.636E-03    -227.799E-03     188.870E-03    -237.670E-03     465.318E-03    -227.432E-03     157.244E-03
             440     11.4724E-03     99.3828E-03    -23.2346E+06     61.3020E+06     90.0149E+06     26.8001E+03    -227.902E-03     455.723E-03    -227.821E-03     174.541E-03    -236.098E-03     463.794E-03    -227.426E-03     143.703E-03
             441     12.1862E-03     99.5919E-03    -16.4862E+06     67.0076E+06     94.1112E+06    -378.782E+03    -226.917E-03     454.741E-03    -227.824E-03     152.808E-03    -233.930E-03     461.660E-03    -227.427E-03     123.825E-03
             442     12.9074E-03     99.7669E-03    -9.78733E+06     74.3321E+06     95.4920E+06     234.967E+03    -226.549E-03     454.374E-03    -227.826E-03     133.559E-03    -232.657E-03     460.435E-03    -227.442E-03     105.799E-03
             443     13.6229E-03     99.9203E-03    -4.56459E+06     75.6596E+06     94.0923E+06     188.124E+03    -225.834E-03     453.658E-03    -227.824E-03     85.2128E-03    -229.689E-03     457.493E-03    -227.457E-03     63.3908E-03
             444     716.862E-06     98.0537E-03    -142.681E+06    -321.660E+06    -139.982E+06     19.3845E+03    -227.527E-03     455.608E-03    -228.081E-03     22.7171E-03    -227.649E-03     454.490E-03    -228.108E-03     20.0534E-03
             445     1.43342E-03     98.1014E-03    -138.710E+06    -313.583E+06    -128.753E+06     144.856E+03    -227.956E-03     455.722E-03    -227.766E-03     41.9139E-03    -228.253E-03     454.786E-03    -227.754E-03     37.0263E-03
             446     2.14953E-03     98.1700E-03    -133.359E+06    -303.646E+06    -112.900E+06     145.944E+03    -228.230E-03     456.004E-03    -227.774E-03     61.7346E-03    -228.825E-03     455.374E-03    -227.704E-03     54.3812E-03
             447     2.86757E-03     98.2665E-03    -125.756E+06    -277.024E+06    -94.3150E+06     341.124E+03    -228.715E-03     456.496E-03    -227.781E-03     81.5550E-03    -229.746E-03     456.371E-03    -227.669E-03     71.6506E-03
             448     3.58420E-03     98.3886E-03    -117.544E+06    -242.421E+06    -74.4995E+06     492.042E+03    -229.413E-03     457.230E-03    -227.817E-03     100.402E-03    -231.015E-03     457.771E-03    -227.668E-03     87.8660E-03
             449     4.30029E-03     98.5371E-03    -108.792E+06    -216.003E+06    -54.8171E+06     227.792E+03    -230.072E-03     457.961E-03    -227.888E-03     118.989E-03    -232.377E-03     459.271E-03    -227.692E-03     103.679E-03
             450     5.01744E-03     98.7084E-03    -99.8952E+06    -183.421E+06    -36.0557E+06     327.365E+03    -230.430E-03     458.363E-03    -227.933E-03     136.890E-03    -233.583E-03     460.614E-03    -227.703E-03     118.767E-03
             451     5.73318E-03     98.9032E-03    -90.7636E+06    -145.760E+06    -17.3174E+06     405.756E+03    -230.638E-03     458.575E-03    -227.937E-03     153.639E-03    -234.770E-03     461.917E-03    -227.681E-03     132.708E-03
             452     6.45171E-03     99.1169E-03    -81.3432E+06    -108.219E+06     1.04426E+06     329.553E+03    -231.013E-03     458.938E-03    -227.925E-03     169.315E-03    -236.237E-03     463.486E-03    -227.645E-03     145.587E-03
             453     7.16716E-03     99.3529E-03    -72.3068E+06    -65.4907E+06     19.1597E+06     263.373E+03    -231.184E-03     459.088E-03    -227.904E-03     183.183E-03    -237.565E-03     464.924E-03    -227.608E-03     156.836E-03
             454     7.88503E-03     99.6003E-03    -63.4695E+06    -17.8838E+06     37.3960E+06     639.997E+03    -230.979E-03     458.846E-03    -227.867E-03     194.200E-03    -238.479E-03     465.948E-03    -227.562E-03     165.600E-03
             455     8.60219E-03     99.8636E-03    -54.8579E+06     14.6352E+06     49.2596E+06     1.20603E+06    -230.781E-03     458.596E-03    -227.815E-03     201.239E-03    -239.198E-03     466.727E-03    -227.510E-03     170.869E-03
             456     9.32005E-03     100.128E-03    -46.4813E+06     29.7914E+06     56.9081E+06     447.163E+03    -230.361E-03     458.139E-03    -227.777E-03     202.715E-03    -239.341E-03     466.894E-03    -227.469E-03     171.211E-03
             457     10.0365E-03     100.391E-03    -38.0530E+06     43.7365E+06     68.0147E+06    -271.661E+03    -229.865E-03     457.643E-03    -227.779E-03     198.598E-03    -239.001E-03     466.603E-03    -227.447E-03     166.632E-03
             458     10.7546E-03     100.644E-03    -30.2724E+06     53.4841E+06     80.2646E+06    -419.868E+03    -229.001E-03     456.812E-03    -227.811E-03     188.661E-03    -237.836E-03     465.497E-03    -227.443E-03     156.990E-03
             459     11.4690E-03     100.878E-03    -22.6563E+06     61.5470E+06     90.3279E+06    -178.763E+03    -227.968E-03     455.808E-03    -227.841E-03     174.315E-03    -236.148E-03     463.865E-03    -227.446E-03     143.496E-03
             460     12.1887E-03     101.087E-03    -16.1412E+06     67.5769E+06     94.4888E+06     45.8313E+03    -227.221E-03     455.073E-03    -227.853E-03     153.362E-03    -234.252E-03     462.013E-03    -227.455E-03     124.330E-03
             461     12.9010E-03     101.261E-03    -11.0699E+06     73.2434E+06     93.9224E+06     65.8155E+03    -226.071E-03     453.911E-03    -227.839E-03     135.554E-03    -232.221E-03     460.008E-03    -227.460E-03     107.860E-03
             462     13.6163E-03     101.420E-03    -4.62967E+06     75.6835E+06     93.3411E+06     460.608E+03    -225.171E-03     452.971E-03    -227.800E-03     87.5957E-03    -229.064E-03     456.846E-03    -227.437E-03     65.8315E-03
             463     716.947E-06     99.5531E-03    -142.250E+06    -321.468E+06    -140.775E+06    -214.465E+03    -227.805E-03     455.544E-03    -227.738E-03     22.9258E-03    -227.924E-03     454.426E-03    -227.770E-03     20.3158E-03
             464     1.43272E-03     99.5923E-03    -139.315E+06    -313.794E+06    -129.280E+06    -44.3763E+03    -227.939E-03     455.676E-03    -227.737E-03     41.9459E-03    -228.241E-03     454.745E-03    -227.727E-03     37.0182E-03
             465     2.15117E-03     99.6638E-03    -133.222E+06    -303.379E+06    -112.514E+06     184.151E+03    -228.316E-03     456.083E-03    -227.767E-03     61.6785E-03    -228.909E-03     455.452E-03    -227.697E-03     54.3209E-03
             466     2.86676E-03     99.7594E-03    -125.943E+06    -277.396E+06    -94.4400E+06     271.349E+03    -229.043E-03     456.872E-03    -227.829E-03     80.9593E-03    -230.069E-03     456.740E-03    -227.716E-03     71.0594E-03
             467     3.58312E-03     99.8837E-03    -117.567E+06    -242.610E+06    -74.8891E+06     384.786E+03    -229.486E-03     457.388E-03    -227.902E-03     100.118E-03    -231.088E-03     457.928E-03    -227.754E-03     87.5572E-03
             468     4.30019E-03     100.030E-03    -108.851E+06    -215.852E+06    -55.0021E+06     485.218E+03    -229.812E-03     457.760E-03    -227.948E-03     118.989E-03    -232.117E-03     459.071E-03    -227.752E-03     103.699E-03
             469     5.01637E-03     100.203E-03    -99.9458E+06    -183.367E+06    -35.9737E+06     365.022E+03    -230.165E-03     458.111E-03    -227.946E-03     137.091E-03    -233.318E-03     460.363E-03    -227.715E-03     118.994E-03
             470     5.73467E-03     100.396E-03    -90.7381E+06    -145.606E+06    -17.2245E+06     362.820E+03    -230.646E-03     458.574E-03    -227.928E-03     153.984E-03    -234.784E-03     461.923E-03    -227.671E-03     133.047E-03
             471     6.44995E-03     100.612E-03    -81.6360E+06    -108.268E+06     1.11260E+06     320.406E+03    -230.932E-03     458.841E-03    -227.909E-03     169.730E-03    -236.166E-03     463.398E-03    -227.628E-03     146.007E-03
             472     7.16871E-03     100.845E-03    -72.3997E+06    -65.5848E+06     19.3322E+06     639.837E+03    -231.005E-03     458.879E-03    -227.874E-03     183.481E-03    -237.392E-03     464.720E-03    -227.577E-03     157.158E-03
             473     7.88538E-03     101.096E-03    -63.1347E+06    -18.4213E+06     37.4838E+06     899.779E+03    -231.104E-03     458.938E-03    -227.834E-03     194.324E-03    -238.609E-03     466.045E-03    -227.529E-03     165.700E-03
             474     8.60280E-03     101.356E-03    -53.7109E+06     14.4209E+06     49.5759E+06     853.922E+03    -230.874E-03     458.668E-03    -227.794E-03     200.961E-03    -239.282E-03     466.793E-03    -227.490E-03     170.572E-03
             475     9.31961E-03     101.623E-03    -44.8112E+06     32.5133E+06     58.3738E+06     368.564E+03    -230.623E-03     458.398E-03    -227.775E-03     202.464E-03    -239.599E-03     467.162E-03    -227.465E-03     170.915E-03
             476     10.0371E-03     101.885E-03    -37.0159E+06     44.7960E+06     68.4412E+06    -621.644E+03    -230.127E-03     457.923E-03    -227.796E-03     198.421E-03    -239.259E-03     466.884E-03    -227.465E-03     166.415E-03
             477     10.7522E-03     102.140E-03    -29.5561E+06     52.7441E+06     79.8480E+06    -281.777E+03    -228.880E-03     456.712E-03    -227.832E-03     188.564E-03    -237.705E-03     465.387E-03    -227.466E-03     156.919E-03
             478     11.4719E-03     102.371E-03    -23.1451E+06     61.2707E+06     89.7711E+06     445.106E+03    -227.755E-03     455.603E-03    -227.848E-03     175.100E-03    -235.953E-03     463.676E-03    -227.454E-03     144.316E-03
             479     12.1858E-03     102.585E-03    -16.5234E+06     67.1945E+06     94.1507E+06     615.301E+03    -226.406E-03     454.231E-03    -227.825E-03     154.531E-03    -233.450E-03     461.182E-03    -227.428E-03     125.638E-03
             480     12.9067E-03     102.756E-03    -10.1203E+06     74.2424E+06     95.3568E+06     830.395E+03    -225.352E-03     453.122E-03    -227.770E-03     136.312E-03    -231.516E-03     459.237E-03    -227.386E-03     108.722E-03
             481     13.6296E-03     102.910E-03    -5.71725E+06     76.4304E+06     93.8023E+06     209.967E+03    -226.193E-03     453.933E-03    -227.740E-03     86.0540E-03    -230.078E-03     457.797E-03    -227.373E-03     64.2789E-03
             482     716.161E-06     101.043E-03    -143.043E+06    -321.489E+06    -139.952E+06     175.362E+03    -227.748E-03     455.543E-03    -227.795E-03     22.6679E-03    -227.872E-03     454.424E-03    -227.821E-03     20.0491E-03
             483     1.43452E-03     101.087E-03    -139.258E+06    -313.639E+06    -129.397E+06     26.0629E+03    -228.081E-03     455.850E-03    -227.769E-03     41.4333E-03    -228.379E-03     454.916E-03    -227.759E-03     36.5329E-03
             484     2.14922E-03     101.156E-03    -133.254E+06    -303.386E+06    -112.860E+06     59.8116E+03    -228.689E-03     456.562E-03    -227.873E-03     61.5623E-03    -229.282E-03     455.932E-03    -227.804E-03     54.2019E-03
             485     2.86638E-03     101.255E-03    -125.825E+06    -277.389E+06    -94.6104E+06     201.414E+03    -228.950E-03     456.901E-03    -227.951E-03     81.3537E-03    -229.981E-03     456.774E-03    -227.839E-03     71.4369E-03
             486     3.58312E-03     101.377E-03    -117.664E+06    -242.833E+06    -74.9159E+06     336.301E+03    -229.206E-03     457.164E-03    -227.958E-03     100.800E-03    -230.817E-03     457.712E-03    -227.810E-03     88.2399E-03
             487     4.29969E-03     101.525E-03    -108.914E+06    -216.171E+06    -54.9836E+06     540.227E+03    -229.639E-03     457.588E-03    -227.949E-03     119.507E-03    -231.950E-03     458.905E-03    -227.753E-03     104.220E-03
             488     5.01779E-03     101.696E-03    -99.5874E+06    -183.128E+06    -35.5534E+06     547.239E+03    -230.114E-03     458.042E-03    -227.928E-03     137.190E-03    -233.268E-03     460.295E-03    -227.695E-03     119.103E-03
             489     5.73351E-03     101.891E-03    -90.4615E+06    -145.532E+06    -16.8756E+06     520.152E+03    -230.483E-03     458.381E-03    -227.897E-03     154.065E-03    -234.622E-03     461.730E-03    -227.640E-03     133.145E-03
             490     6.45216E-03     102.105E-03    -81.3332E+06    -108.157E+06     1.34561E+06     714.107E+03    -230.819E-03     458.685E-03    -227.866E-03     169.739E-03    -236.052E-03     463.241E-03    -227.584E-03     146.032E-03
             491     7.16804E-03     102.339E-03    -72.2251E+06    -65.9491E+06     19.3279E+06     680.870E+03    -231.207E-03     459.046E-03    -227.839E-03     183.366E-03    -237.592E-03     464.885E-03    -227.542E-03     157.020E-03
             492     7.88570E-03     102.589E-03    -62.7323E+06    -18.0652E+06     37.7465E+06     294.018E+03    -231.272E-03     459.094E-03    -227.822E-03     193.931E-03    -238.768E-03     466.193E-03    -227.516E-03     165.287E-03
             493     8.60227E-03     102.851E-03    -53.6523E+06     14.6283E+06     49.8528E+06    -75.4825E+03    -231.155E-03     458.961E-03    -227.806E-03     200.591E-03    -239.558E-03     467.081E-03    -227.500E-03     170.151E-03
             494     9.31975E-03     103.116E-03    -45.7258E+06     33.2767E+06     58.3058E+06     94.5677E+03    -230.839E-03     458.645E-03    -227.806E-03     202.605E-03    -239.828E-03     467.421E-03    -227.497E-03     171.014E-03
             495     10.0353E-03     103.383E-03    -38.3708E+06     47.0195E+06     68.7505E+06    -90.0663E+03    -229.787E-03     457.608E-03    -227.821E-03     198.509E-03    -238.926E-03     466.578E-03    -227.489E-03     166.567E-03
             496     10.7545E-03     103.632E-03    -31.5957E+06     51.4997E+06     78.6017E+06    -760.822E+03    -228.691E-03     456.526E-03    -227.834E-03     188.920E-03    -237.536E-03     465.212E-03    -227.470E-03     157.274E-03
             497     11.4690E-03     103.867E-03    -23.8511E+06     59.8778E+06     88.7701E+06     -13.562E+03    -227.310E-03     455.139E-03    -227.830E-03     175.056E-03    -235.513E-03     463.213E-03    -227.438E-03     144.296E-03
             498     12.1897E-03     104.077E-03    -16.6439E+06     67.4486E+06     94.2627E+06     516.657E+03    -226.154E-03     453.947E-03    -227.793E-03     153.123E-03    -233.169E-03     460.869E-03    -227.395E-03     124.269E-03
             499     12.9066E-03     104.246E-03    -10.7591E+06     73.8728E+06     94.9744E+06     380.725E+03    -226.073E-03     453.832E-03    -227.759E-03     134.064E-03    -232.194E-03     459.902E-03    -227.375E-03     106.378E-03
             500     13.6147E-03     104.411E-03    -4.77857E+06     77.4494E+06     94.0612E+06     570.665E+03    -226.292E-03     454.048E-03    -227.756E-03     86.1317E-03    -230.160E-03     457.901E-03    -227.391E-03     64.3366E-03
             501     717.181E-06     102.538E-03    -142.548E+06    -321.718E+06    -140.562E+06     391.777E+03    -227.997E-03     455.759E-03    -227.762E-03     22.5158E-03    -228.117E-03     454.640E-03    -227.792E-03     19.8732E-03
             502     1.43207E-03     102.580E-03    -139.052E+06    -313.336E+06    -128.704E+06     263.262E+03    -228.313E-03     456.214E-03    -227.900E-03     41.9856E-03    -228.613E-03     455.281E-03    -227.888E-03     37.0944E-03
             503     2.15014E-03     102.652E-03    -133.021E+06    -303.221E+06    -112.627E+06     73.8053E+03    -228.518E-03     456.493E-03    -227.976E-03     62.0013E-03    -229.114E-03     455.868E-03    -227.907E-03     54.6245E-03
             504     2.86624E-03     102.748E-03    -125.737E+06    -277.458E+06    -94.4332E+06     31.5914E+03    -228.651E-03     456.616E-03    -227.965E-03     81.6424E-03    -229.684E-03     456.492E-03    -227.853E-03     71.7194E-03
             505     3.58348E-03     102.871E-03    -117.530E+06    -243.088E+06    -74.8758E+06     198.116E+03    -229.079E-03     457.001E-03    -227.922E-03     100.842E-03    -230.688E-03     457.547E-03    -227.774E-03     88.2942E-03
             506     4.30093E-03     103.018E-03    -108.551E+06    -216.301E+06    -54.8942E+06     384.582E+03    -229.687E-03     457.599E-03    -227.912E-03     119.309E-03    -231.994E-03     458.912E-03    -227.715E-03     104.018E-03
             507     5.01650E-03     103.190E-03    -99.6100E+06    -183.252E+06    -35.7606E+06     618.332E+03    -230.098E-03     457.996E-03    -227.899E-03     137.119E-03    -233.252E-03     460.250E-03    -227.667E-03     119.026E-03
             508     5.73483E-03     103.384E-03    -90.3563E+06    -145.622E+06    -16.7331E+06     682.841E+03    -230.439E-03     458.310E-03    -227.871E-03     153.971E-03    -234.577E-03     461.659E-03    -227.613E-03     133.051E-03
             509     6.45096E-03     103.599E-03    -81.1645E+06    -108.132E+06     1.55936E+06     602.498E+03    -230.998E-03     458.849E-03    -227.852E-03     169.437E-03    -236.225E-03     463.400E-03    -227.569E-03     145.715E-03
             510     7.16899E-03     103.834E-03    -71.8024E+06    -65.4107E+06     19.8057E+06     418.897E+03    -231.355E-03     459.202E-03    -227.846E-03     183.043E-03    -237.733E-03     465.035E-03    -227.548E-03     156.684E-03
             511     7.88493E-03     104.084E-03    -62.8623E+06    -17.2870E+06     38.0367E+06     312.787E+03    -231.349E-03     459.189E-03    -227.841E-03     193.880E-03    -238.847E-03     466.293E-03    -227.534E-03     165.225E-03
             512     8.60264E-03     104.345E-03    -54.4948E+06     15.2297E+06     49.6982E+06     341.822E+03    -231.345E-03     459.178E-03    -227.832E-03     200.985E-03    -239.765E-03     467.314E-03    -227.527E-03     170.516E-03
             513     9.31825E-03     104.613E-03    -46.1794E+06     33.3842E+06     58.4814E+06     137.207E+03    -230.625E-03     458.454E-03    -227.829E-03     202.781E-03    -239.621E-03     467.235E-03    -227.518E-03     171.216E-03
             514     10.0370E-03     104.875E-03    -38.4681E+06     47.1373E+06     68.7804E+06     508.122E+03    -229.553E-03     457.377E-03    -227.824E-03     198.736E-03    -238.705E-03     466.360E-03    -227.492E-03     166.809E-03
             515     10.7526E-03     105.127E-03    -31.0359E+06     53.7287E+06     79.9644E+06     510.666E+03    -228.598E-03     456.426E-03    -227.828E-03     189.033E-03    -237.453E-03     465.129E-03    -227.461E-03     157.405E-03
             516     11.4719E-03     105.361E-03    -24.3969E+06     59.6776E+06     89.0366E+06    -951.627E+03    -227.587E-03     455.419E-03    -227.832E-03     174.011E-03    -235.779E-03     463.478E-03    -227.438E-03     143.189E-03
             517     12.1877E-03     105.567E-03    -17.4064E+06     65.6424E+06     92.9910E+06    -286.119E+03    -227.188E-03     455.021E-03    -227.833E-03     152.764E-03    -234.211E-03     461.946E-03    -227.438E-03     123.726E-03
             518     12.9018E-03     105.750E-03    -10.2306E+06     74.6796E+06     94.8737E+06     231.237E+03    -226.097E-03     453.926E-03    -227.829E-03     134.133E-03    -232.220E-03     460.002E-03    -227.448E-03     106.419E-03
             519     13.6291E-03     105.897E-03    -4.59236E+06     77.8307E+06     94.1465E+06     84.9066E+03    -225.392E-03     453.194E-03    -227.802E-03     86.2323E-03    -229.253E-03     457.041E-03    -227.437E-03     64.5169E-03
             520     716.114E-06     104.031E-03    -143.393E+06    -321.878E+06    -139.911E+06    -34.7704E+03    -228.427E-03     456.021E-03    -227.594E-03     22.5633E-03    -228.553E-03     454.902E-03    -227.619E-03     19.8723E-03
             521     1.43406E-03     104.076E-03    -138.658E+06    -313.360E+06    -128.767E+06     82.7490E+03    -228.148E-03     456.118E-03    -227.971E-03     42.1285E-03    -228.448E-03     455.187E-03    -227.959E-03     37.2100E-03
             522     2.14920E-03     104.145E-03    -132.743E+06    -303.040E+06    -112.476E+06     156.701E+03    -228.283E-03     456.236E-03    -227.953E-03     61.9056E-03    -228.878E-03     455.610E-03    -227.883E-03     54.5309E-03
             523     2.86687E-03     104.242E-03    -125.609E+06    -277.354E+06    -94.3853E+06     224.886E+03    -228.658E-03     456.574E-03    -227.915E-03     81.5202E-03    -229.691E-03     456.450E-03    -227.803E-03     71.6003E-03
             524     3.58350E-03     104.364E-03    -117.481E+06    -243.018E+06    -74.6664E+06     167.540E+03    -229.204E-03     457.100E-03    -227.897E-03     100.780E-03    -230.814E-03     457.648E-03    -227.747E-03     88.2097E-03
             525     4.29967E-03     104.513E-03    -108.745E+06    -216.351E+06    -54.9299E+06     213.060E+03    -229.599E-03     457.495E-03    -227.896E-03     119.252E-03    -231.908E-03     458.810E-03    -227.699E-03     103.957E-03
             526     5.01804E-03     104.683E-03    -99.5466E+06    -183.484E+06    -35.7455E+06     424.368E+03    -230.039E-03     457.915E-03    -227.876E-03     137.071E-03    -233.193E-03     460.167E-03    -227.644E-03     118.978E-03
             527     5.73412E-03     104.877E-03    -90.3762E+06    -145.495E+06    -16.6929E+06     475.876E+03    -230.729E-03     458.594E-03    -227.865E-03     153.890E-03    -234.866E-03     461.942E-03    -227.606E-03     132.945E-03
             528     6.45172E-03     105.093E-03    -80.9431E+06    -108.027E+06     1.76319E+06     301.909E+03    -231.220E-03     459.095E-03    -227.875E-03     169.524E-03    -236.450E-03     463.650E-03    -227.592E-03     145.771E-03
             529     7.16733E-03     105.328E-03    -71.8780E+06    -65.4986E+06     19.7269E+06     580.763E+03    -231.338E-03     459.216E-03    -227.877E-03     183.096E-03    -237.718E-03     465.051E-03    -227.579E-03     156.738E-03
             530     7.88567E-03     105.578E-03    -63.1269E+06    -17.1821E+06     37.8908E+06     1.00114E+06    -231.476E-03     459.348E-03    -227.873E-03     193.965E-03    -238.978E-03     466.455E-03    -227.567E-03     165.296E-03
             531     8.60151E-03     105.841E-03    -54.2369E+06     15.7480E+06     50.0288E+06     904.906E+03    -231.077E-03     458.934E-03    -227.858E-03     200.875E-03    -239.494E-03     467.069E-03    -227.552E-03     170.446E-03
             532     9.31976E-03     106.106E-03    -46.2458E+06     34.0200E+06     58.2858E+06     768.323E+03    -230.342E-03     458.172E-03    -227.830E-03     202.628E-03    -239.334E-03     466.952E-03    -227.521E-03     171.111E-03
             533     10.0358E-03     106.368E-03    -38.6838E+06     47.2143E+06     69.0152E+06     144.458E+03    -229.674E-03     457.497E-03    -227.822E-03     198.708E-03    -238.831E-03     466.484E-03    -227.489E-03     166.752E-03
             534     10.7541E-03     106.623E-03    -30.5269E+06     54.3688E+06     80.8722E+06     129.855E+03    -228.646E-03     456.482E-03    -227.836E-03     188.550E-03    -237.488E-03     465.174E-03    -227.466E-03     156.926E-03
             535     11.4701E-03     106.853E-03    -23.0816E+06     60.9769E+06     90.0665E+06     751.625E+03    -228.009E-03     455.860E-03    -227.852E-03     174.668E-03    -236.202E-03     463.927E-03    -227.456E-03     143.854E-03
             536     12.1856E-03     107.069E-03    -17.1894E+06     66.3950E+06     93.4435E+06    -128.559E+03    -227.025E-03     454.878E-03    -227.853E-03     154.588E-03    -234.089E-03     461.845E-03    -227.457E-03     125.559E-03
             537     12.9061E-03     107.236E-03    -11.2854E+06     74.4016E+06     94.2753E+06    -436.548E+03    -226.335E-03     454.175E-03    -227.840E-03     135.853E-03    -232.511E-03     460.302E-03    -227.460E-03     108.069E-03
             538     13.6129E-03     107.397E-03    -4.90944E+06     77.8580E+06     94.0242E+06     154.015E+03    -225.708E-03     453.532E-03    -227.824E-03     86.4080E-03    -229.598E-03     457.409E-03    -227.460E-03     64.5736E-03
             539     716.601E-06     105.526E-03    -142.266E+06    -321.436E+06    -140.030E+06    -159.278E+03    -228.497E-03     455.951E-03    -227.454E-03     22.9629E-03    -228.618E-03     454.834E-03    -227.482E-03     20.3074E-03
             540     1.43203E-03     105.568E-03    -138.561E+06    -313.634E+06    -128.890E+06     103.854E+03    -228.030E-03     455.947E-03    -227.916E-03     42.0999E-03    -228.329E-03     455.014E-03    -227.905E-03     37.1815E-03
             541     2.15050E-03     105.640E-03    -132.956E+06    -303.143E+06    -112.786E+06     321.965E+03    -228.264E-03     456.153E-03    -227.890E-03     61.8405E-03    -228.858E-03     455.527E-03    -227.821E-03     54.4741E-03
             542     2.86658E-03     105.734E-03    -125.743E+06    -277.371E+06    -94.2846E+06     257.126E+03    -228.750E-03     456.627E-03    -227.877E-03     81.5675E-03    -229.784E-03     456.504E-03    -227.764E-03     71.6378E-03
             543     3.58338E-03     105.859E-03    -117.402E+06    -242.644E+06    -74.3956E+06     345.700E+03    -229.120E-03     456.989E-03    -227.869E-03     100.951E-03    -230.733E-03     457.539E-03    -227.718E-03     88.3856E-03
             544     4.30101E-03     106.005E-03    -108.617E+06    -215.961E+06    -54.4459E+06     311.306E+03    -229.647E-03     457.515E-03    -227.868E-03     119.364E-03    -231.958E-03     458.832E-03    -227.670E-03     104.069E-03
             545     5.01699E-03     106.177E-03    -99.5118E+06    -183.646E+06    -35.6196E+06     100.520E+03    -230.367E-03     458.244E-03    -227.877E-03     136.976E-03    -233.519E-03     460.494E-03    -227.644E-03     118.851E-03
             546     5.73457E-03     106.371E-03    -90.1384E+06    -145.622E+06    -16.9121E+06     239.043E+03    -230.909E-03     458.807E-03    -227.898E-03     153.749E-03    -235.043E-03     462.153E-03    -227.640E-03     132.781E-03
             547     6.45044E-03     106.588E-03    -81.3316E+06    -108.199E+06     1.45016E+06     528.114E+03    -231.146E-03     459.059E-03    -227.914E-03     169.300E-03    -236.371E-03     463.607E-03    -227.631E-03     145.564E-03
             548     7.16882E-03     106.822E-03    -72.4409E+06    -65.7006E+06     19.3825E+06     597.214E+03    -231.469E-03     459.384E-03    -227.915E-03     183.134E-03    -237.854E-03     465.223E-03    -227.618E-03     156.749E-03
             549     7.88412E-03     107.073E-03    -62.8668E+06    -17.5936E+06     37.8843E+06     687.571E+03    -231.372E-03     459.281E-03    -227.909E-03     194.101E-03    -238.882E-03     466.395E-03    -227.603E-03     165.421E-03
             550     8.60184E-03     107.335E-03    -53.8315E+06     15.4336E+06     49.9817E+06     1.18938E+06    -230.812E-03     458.687E-03    -227.876E-03     200.760E-03    -239.226E-03     466.821E-03    -227.570E-03     170.361E-03
             551     9.31887E-03     107.599E-03    -45.4048E+06     34.6384E+06     58.6850E+06     1.30412E+06    -230.356E-03     458.193E-03    -227.837E-03     202.667E-03    -239.345E-03     466.973E-03    -227.528E-03     171.158E-03
             552     10.0365E-03     107.866E-03    -37.4203E+06     48.8574E+06     70.0786E+06     1.29692E+06    -229.606E-03     457.433E-03    -227.827E-03     198.686E-03    -238.747E-03     466.411E-03    -227.493E-03     166.799E-03
             553     10.7529E-03     108.113E-03    -30.9388E+06     54.4230E+06     80.7323E+06     653.283E+03    -228.730E-03     456.566E-03    -227.836E-03     189.135E-03    -237.577E-03     465.262E-03    -227.467E-03     157.532E-03
             554     11.4702E-03     108.352E-03    -23.7036E+06     60.9236E+06     89.5546E+06     188.125E+03    -227.730E-03     455.570E-03    -227.840E-03     175.657E-03    -235.943E-03     463.655E-03    -227.446E-03     144.874E-03
             555     12.1897E-03     108.559E-03    -16.1906E+06     67.9278E+06     94.3518E+06     553.135E+03    -226.833E-03     454.661E-03    -227.828E-03     153.964E-03    -233.873E-03     461.610E-03    -227.431E-03     125.007E-03
             556     12.9036E-03     108.736E-03    -10.7579E+06     76.4678E+06     95.5878E+06     427.056E+03    -226.015E-03     453.819E-03    -227.805E-03     136.229E-03    -232.203E-03     459.963E-03    -227.422E-03     108.498E-03
             557     13.6279E-03     108.896E-03    -6.51912E+06     77.9072E+06     93.5006E+06    -542.516E+03    -226.134E-03     453.921E-03    -227.788E-03     87.0124E-03    -230.052E-03     457.822E-03    -227.424E-03     65.1895E-03
             558     716.842E-06     107.020E-03    -142.788E+06    -321.553E+06    -139.745E+06     326.756E+03    -228.002E-03     455.676E-03    -227.674E-03     22.6436E-03    -228.126E-03     454.557E-03    -227.699E-03     20.0076E-03
             559     1.43429E-03     107.063E-03    -139.274E+06    -313.991E+06    -128.955E+06     464.872E+03    -227.995E-03     455.800E-03    -227.805E-03     41.6399E-03    -228.294E-03     454.864E-03    -227.793E-03     36.7354E-03
             560     2.14965E-03     107.131E-03    -133.462E+06    -303.294E+06    -112.813E+06     366.904E+03    -228.268E-03     456.082E-03    -227.813E-03     62.0024E-03    -228.868E-03     455.458E-03    -227.744E-03     54.6342E-03
             561     2.86682E-03     107.230E-03    -125.879E+06    -276.794E+06    -94.0855E+06     263.266E+03    -228.741E-03     456.559E-03    -227.818E-03     81.8125E-03    -229.777E-03     456.439E-03    -227.705E-03     71.8896E-03
             562     3.58389E-03     107.350E-03    -117.542E+06    -242.744E+06    -74.5152E+06     130.372E+03    -229.235E-03     457.065E-03    -227.830E-03     100.723E-03    -230.843E-03     457.610E-03    -227.680E-03     88.1730E-03
             563     4.30042E-03     107.500E-03    -108.568E+06    -215.972E+06    -54.6438E+06     262.629E+03    -229.937E-03     457.808E-03    -227.871E-03     119.107E-03    -232.244E-03     459.121E-03    -227.673E-03     103.793E-03
             564     5.01761E-03     107.671E-03    -99.5686E+06    -183.276E+06    -35.6429E+06     160.219E+03    -230.586E-03     458.505E-03    -227.919E-03     136.886E-03    -233.740E-03     460.758E-03    -227.687E-03     118.740E-03
             565     5.73328E-03     107.867E-03    -90.9773E+06    -145.997E+06    -17.3588E+06     281.399E+03    -230.908E-03     458.857E-03    -227.950E-03     153.780E-03    -235.049E-03     462.207E-03    -227.693E-03     132.798E-03
             566     6.45119E-03     108.081E-03    -81.6841E+06    -108.228E+06     1.22252E+06     579.357E+03    -231.271E-03     459.238E-03    -227.967E-03     169.275E-03    -236.504E-03     463.793E-03    -227.686E-03     145.501E-03
             567     7.16671E-03     108.316E-03    -72.1706E+06    -65.3711E+06     19.5692E+06     428.849E+03    -231.328E-03     459.292E-03    -227.964E-03     183.158E-03    -237.715E-03     465.134E-03    -227.667E-03     156.779E-03
             568     7.88468E-03     108.568E-03    -63.2156E+06    -18.0309E+06     37.5313E+06     624.975E+03    -230.964E-03     458.892E-03    -227.928E-03     194.134E-03    -238.469E-03     466.000E-03    -227.623E-03     165.516E-03
             569     8.60216E-03     108.827E-03    -54.2618E+06     14.4139E+06     49.3857E+06     689.855E+03    -230.846E-03     458.721E-03    -227.874E-03     201.128E-03    -239.266E-03     466.855E-03    -227.569E-03     170.726E-03
             570     9.31878E-03     109.096E-03    -45.5995E+06     34.2562E+06     58.0217E+06     1.04104E+06    -230.426E-03     458.261E-03    -227.835E-03     202.914E-03    -239.419E-03     467.045E-03    -227.528E-03     171.400E-03
             571     10.0362E-03     109.355E-03    -37.7701E+06     48.6981E+06     68.7807E+06     1.28312E+06    -229.583E-03     457.405E-03    -227.822E-03     198.850E-03    -238.729E-03     466.389E-03    -227.493E-03     166.953E-03
             572     10.7540E-03     109.613E-03    -29.7455E+06     55.7296E+06     80.9822E+06     1.63649E+06    -228.746E-03     456.581E-03    -227.834E-03     188.901E-03    -237.591E-03     465.283E-03    -227.467E-03     157.280E-03
             573     11.4714E-03     109.841E-03    -23.2763E+06     63.0470E+06     90.7946E+06     1.19359E+06    -227.896E-03     455.750E-03    -227.854E-03     174.388E-03    -236.101E-03     463.833E-03    -227.457E-03     143.551E-03
             574     12.1860E-03     110.058E-03    -17.5659E+06     68.0486E+06     94.0402E+06    -94.5726E+03    -227.126E-03     454.985E-03    -227.860E-03     153.056E-03    -234.168E-03     461.934E-03    -227.463E-03     124.014E-03
             575     12.9051E-03     110.228E-03    -10.4245E+06     76.8873E+06     95.5128E+06    -401.072E+03    -226.149E-03     454.002E-03    -227.854E-03     133.053E-03    -232.262E-03     460.075E-03    -227.472E-03     105.326E-03
             576     13.6184E-03     110.384E-03    -4.34144E+06     78.5645E+06     94.1788E+06    -152.041E+03    -225.390E-03     453.219E-03    -227.828E-03     83.5730E-03    -229.211E-03     457.030E-03    -227.465E-03     61.8877E-03
             577     716.322E-06     108.514E-03    -142.979E+06    -322.014E+06    -140.761E+06     497.015E+03    -227.479E-03     455.517E-03    -228.038E-03     22.5830E-03    -227.603E-03     454.398E-03    -228.067E-03     19.9062E-03
             578     1.43251E-03     108.556E-03    -139.337E+06    -314.000E+06    -128.842E+06     211.987E+03    -227.913E-03     455.641E-03    -227.727E-03     41.7176E-03    -228.213E-03     454.705E-03    -227.714E-03     36.8152E-03
             579     2.15062E-03     108.626E-03    -133.003E+06    -302.996E+06    -112.812E+06     30.7626E+03    -228.420E-03     456.187E-03    -227.767E-03     61.7770E-03    -229.015E-03     455.561E-03    -227.698E-03     54.4112E-03
             580     2.86735E-03     108.722E-03    -125.500E+06    -276.710E+06    -94.4291E+06     75.7493E+03    -228.862E-03     456.683E-03    -227.822E-03     81.2521E-03    -229.890E-03     456.558E-03    -227.711E-03     71.3380E-03
             581     3.58367E-03     108.846E-03    -117.505E+06    -242.521E+06    -74.5588E+06     248.779E+03    -229.463E-03     457.337E-03    -227.874E-03     100.251E-03    -231.066E-03     457.878E-03    -227.725E-03     87.6954E-03
             582     4.30027E-03     108.993E-03    -108.884E+06    -216.407E+06    -54.9908E+06      129.79E+03    -230.052E-03     457.991E-03    -227.939E-03     119.135E-03    -232.361E-03     459.305E-03    -227.743E-03     103.809E-03
             583     5.01632E-03     109.166E-03    -100.025E+06    -183.385E+06    -36.0170E+06     537.880E+03    -230.465E-03     458.442E-03    -227.977E-03     136.959E-03    -233.621E-03     460.697E-03    -227.746E-03     118.828E-03
             584     5.73412E-03     109.360E-03    -90.7289E+06    -145.557E+06    -16.9694E+06     588.611E+03    -230.941E-03     458.937E-03    -227.996E-03     153.844E-03    -235.086E-03     462.292E-03    -227.738E-03     132.856E-03
             585     6.44985E-03     109.576E-03    -81.4684E+06    -108.374E+06     1.19963E+06     388.910E+03    -231.216E-03     459.220E-03    -228.004E-03     169.680E-03    -236.459E-03     463.785E-03    -227.723E-03     145.892E-03
             586     7.16735E-03     109.811E-03    -72.5627E+06    -65.5429E+06     19.1406E+06     853.834E+03    -231.065E-03     459.043E-03    -227.978E-03     183.458E-03    -237.459E-03     464.891E-03    -227.682E-03     157.113E-03
             587     7.88481E-03     110.059E-03    -63.3262E+06    -18.2997E+06     37.4146E+06     901.922E+03    -231.003E-03     458.931E-03    -227.928E-03     194.320E-03    -238.513E-03     466.043E-03    -227.623E-03     165.696E-03
             588     8.60151E-03     110.324E-03    -54.7369E+06     14.8731E+06     49.3420E+06     834.870E+03    -230.860E-03     458.735E-03    -227.876E-03     201.006E-03    -239.277E-03     466.868E-03    -227.571E-03     170.609E-03
             589     9.31962E-03     110.587E-03    -47.1283E+06     33.8161E+06     57.3315E+06     597.000E+03    -230.474E-03     458.315E-03    -227.841E-03     202.566E-03    -239.469E-03     467.096E-03    -227.535E-03     171.026E-03
             590     10.0362E-03     110.854E-03    -39.2527E+06     48.9768E+06     68.5311E+06     430.679E+03    -229.869E-03     457.714E-03    -227.845E-03     198.305E-03    -239.026E-03     466.707E-03    -227.516E-03     166.314E-03
             591     10.7529E-03     111.102E-03    -31.6585E+06     55.2255E+06     80.3137E+06     83.2759E+03    -229.005E-03     456.886E-03    -227.880E-03     188.398E-03    -237.861E-03     465.592E-03    -227.513E-03     156.690E-03
             592     11.4687E-03     111.342E-03    -23.0455E+06     62.6863E+06     90.7886E+06     646.870E+03    -227.912E-03     455.820E-03    -227.908E-03     174.476E-03    -236.116E-03     463.901E-03    -227.511E-03     143.637E-03
             593     12.1875E-03     111.548E-03    -15.1204E+06     70.2536E+06     95.9036E+06     1.58785E+06    -226.805E-03     454.705E-03    -227.901E-03     154.250E-03    -233.850E-03     461.668E-03    -227.501E-03     125.322E-03
             594     12.9021E-03     111.727E-03    -9.93481E+06     77.4368E+06     96.1894E+06     347.669E+03    -225.860E-03     453.724E-03    -227.864E-03     136.971E-03    -232.046E-03     459.871E-03    -227.481E-03     109.306E-03
             595     13.6188E-03     111.882E-03    -4.57063E+06     78.5562E+06     94.5874E+06    -391.411E+03    -225.088E-03     452.900E-03    -227.811E-03     88.6033E-03    -229.021E-03     456.821E-03    -227.446E-03     66.7624E-03
             596     716.894E-06     110.006E-03    -143.256E+06    -321.603E+06    -140.174E+06    -699.402E+03    -227.372E-03     455.157E-03    -227.786E-03     22.7847E-03    -227.498E-03     454.040E-03    -227.813E-03     20.1026E-03
             597     1.43470E-03     110.050E-03    -138.649E+06    -313.403E+06    -129.162E+06    -396.503E+03    -228.262E-03     455.908E-03    -227.646E-03     41.9976E-03    -228.560E-03     454.975E-03    -227.637E-03     37.0769E-03
             598     2.14978E-03     110.119E-03    -132.980E+06    -302.976E+06    -113.223E+06    -101.403E+03    -228.714E-03     456.545E-03    -227.831E-03     61.4332E-03    -229.304E-03     455.917E-03    -227.765E-03     54.0673E-03
             599     2.86603E-03     110.217E-03    -125.939E+06    -276.944E+06    -94.9628E+06     100.705E+03    -229.010E-03     456.941E-03    -227.931E-03     81.2043E-03    -230.039E-03     456.815E-03    -227.822E-03     71.2894E-03
             600     3.58302E-03     110.339E-03    -117.747E+06    -242.819E+06    -74.9774E+06     285.893E+03    -229.486E-03     457.465E-03    -227.979E-03     100.565E-03    -231.094E-03     458.011E-03    -227.831E-03     87.9896E-03
             601     4.29968E-03     110.488E-03    -109.134E+06    -216.336E+06    -54.9912E+06     427.209E+03    -229.962E-03     457.984E-03    -228.022E-03     119.090E-03    -232.271E-03     459.297E-03    -227.825E-03     103.778E-03
             602     5.01704E-03     110.660E-03    -99.9407E+06    -183.572E+06    -35.9975E+06     389.024E+03    -230.370E-03     458.405E-03    -228.035E-03     136.972E-03    -233.526E-03     460.659E-03    -227.803E-03     118.841E-03
             603     5.73297E-03     110.854E-03    -90.6245E+06    -145.901E+06    -17.2958E+06     526.988E+03    -230.726E-03     458.750E-03    -228.024E-03     154.133E-03    -234.873E-03     462.107E-03    -227.767E-03     133.164E-03
             604     6.45038E-03     111.071E-03    -81.5932E+06    -108.310E+06     1.02645E+06     849.123E+03    -230.925E-03     458.923E-03    -227.998E-03     169.864E-03    -236.167E-03     463.488E-03    -227.717E-03     146.124E-03
             605     7.16795E-03     111.303E-03    -72.3586E+06    -65.8688E+06     19.2490E+06     964.708E+03    -231.228E-03     459.194E-03    -227.966E-03     183.268E-03    -237.620E-03     465.040E-03    -227.669E-03     156.893E-03
             606     7.88429E-03     111.556E-03    -63.3642E+06    -18.5445E+06     37.3643E+06     1.07460E+06    -231.262E-03     459.201E-03    -227.939E-03     193.958E-03    -238.770E-03     466.310E-03    -227.634E-03     165.289E-03
             607     8.60215E-03     111.815E-03    -54.5673E+06     15.0606E+06     49.4159E+06     1.39737E+06    -231.044E-03     458.952E-03    -227.908E-03     200.681E-03    -239.462E-03     467.087E-03    -227.604E-03     170.243E-03
             608     9.31816E-03     112.085E-03    -45.9497E+06     34.9868E+06     58.7813E+06     1.45604E+06    -230.612E-03     458.503E-03    -227.891E-03     202.187E-03    -239.601E-03     467.283E-03    -227.582E-03     170.627E-03
             609     10.0355E-03     112.345E-03    -38.4243E+06     50.0208E+06     69.8520E+06     911.284E+03    -229.894E-03     457.793E-03    -227.899E-03     198.466E-03    -239.050E-03     466.788E-03    -227.567E-03     166.495E-03
             610     10.7519E-03     112.602E-03    -30.8885E+06     56.5010E+06     80.9500E+06     373.058E+03    -228.834E-03     456.752E-03    -227.918E-03     189.253E-03    -237.696E-03     465.470E-03    -227.550E-03     157.609E-03
             611     11.4701E-03     112.832E-03    -24.5028E+06     61.8596E+06     89.5223E+06    -425.984E+03    -227.646E-03     455.565E-03    -227.919E-03     175.471E-03    -235.862E-03     463.655E-03    -227.526E-03     144.692E-03
             612     12.1861E-03     113.046E-03    -17.7470E+06     68.8381E+06     93.8647E+06    -631.101E+03    -226.171E-03     454.052E-03    -227.880E-03     154.377E-03    -233.228E-03     461.017E-03    -227.485E-03     125.466E-03
             613     12.9061E-03     113.219E-03    -10.1029E+06     78.1041E+06     96.5953E+06     964.054E+03    -224.810E-03     452.617E-03    -227.807E-03     134.967E-03    -230.944E-03     458.712E-03    -227.422E-03     107.469E-03
             614     13.6287E-03     113.373E-03    -5.24669E+06     79.6023E+06     95.4172E+06     732.278E+03    -225.801E-03     453.557E-03    -227.756E-03     84.8313E-03    -229.654E-03     457.397E-03    -227.386E-03     63.1468E-03
             615     717.548E-06     111.500E-03    -142.472E+06    -320.936E+06    -139.961E+06    -67.1222E+03    -228.212E-03     455.629E-03    -227.418E-03     22.7271E-03    -228.334E-03     454.513E-03    -227.445E-03     20.0757E-03
             616     1.43239E-03     111.543E-03    -139.021E+06    -313.405E+06    -129.038E+06     119.167E+03    -228.310E-03     456.160E-03    -227.850E-03     41.4730E-03    -228.608E-03     455.226E-03    -227.839E-03     36.5643E-03
             617     2.14981E-03     111.615E-03    -133.183E+06    -302.630E+06    -112.382E+06     133.251E+03    -228.557E-03     456.511E-03    -227.955E-03     61.7048E-03    -229.152E-03     455.885E-03    -227.885E-03     54.3419E-03
             618     2.86666E-03     111.710E-03    -126.092E+06    -277.094E+06    -94.7571E+06     40.4006E+03    -229.128E-03     457.135E-03    -228.008E-03     81.6335E-03    -230.162E-03     457.013E-03    -227.897E-03     71.7027E-03
             619     3.58302E-03     111.834E-03    -117.986E+06    -243.164E+06    -75.3641E+06     192.917E+03    -229.586E-03     457.643E-03    -228.057E-03     100.754E-03    -231.198E-03     458.191E-03    -227.910E-03     88.1588E-03
             620     4.29949E-03     111.982E-03    -109.028E+06    -216.298E+06    -55.2056E+06     404.061E+03    -229.900E-03     457.990E-03    -228.090E-03     119.029E-03    -232.210E-03     459.305E-03    -227.895E-03     103.703E-03
             621     5.01587E-03     112.154E-03    -99.9474E+06    -183.650E+06    -36.1280E+06     390.029E+03    -230.197E-03     458.275E-03    -228.077E-03     137.139E-03    -233.357E-03     460.533E-03    -227.847E-03     119.010E-03
             622     5.73346E-03     112.349E-03    -90.8602E+06    -145.955E+06    -17.4208E+06     530.276E+03    -230.528E-03     458.565E-03    -228.038E-03     154.074E-03    -234.673E-03     461.920E-03    -227.781E-03     133.121E-03
             623     6.45105E-03     112.563E-03    -81.6046E+06    -108.510E+06     1.04066E+06     681.441E+03    -231.028E-03     459.036E-03    -228.007E-03     169.411E-03    -236.261E-03     463.591E-03    -227.726E-03     145.660E-03
             624     7.16694E-03     112.801E-03    -72.5197E+06    -66.2883E+06     19.0830E+06     798.212E+03    -231.360E-03     459.349E-03    -227.990E-03     183.005E-03    -237.747E-03     465.189E-03    -227.693E-03     156.614E-03
             625     7.88452E-03     113.047E-03    -63.1508E+06    -18.9539E+06     37.3497E+06     1.05320E+06    -231.421E-03     459.397E-03    -227.976E-03     193.839E-03    -238.927E-03     466.504E-03    -227.670E-03     165.145E-03
             626     8.60057E-03     113.312E-03    -53.9298E+06     14.3250E+06     49.4843E+06     1.27483E+06    -231.146E-03     459.099E-03    -227.953E-03     200.816E-03    -239.565E-03     467.234E-03    -227.649E-03     170.361E-03
             627     9.31821E-03     113.576E-03    -45.5462E+06     34.8576E+06     57.9520E+06     1.50981E+06    -230.583E-03     458.510E-03    -227.927E-03     202.918E-03    -239.584E-03     467.305E-03    -227.622E-03     171.366E-03
             628     10.0349E-03     113.842E-03    -37.2915E+06     51.2824E+06     69.5418E+06     1.54998E+06    -229.710E-03     457.627E-03    -227.917E-03     199.158E-03    -238.875E-03     466.640E-03    -227.590E-03     167.224E-03
             629     10.7530E-03     114.093E-03    -30.1946E+06     57.6668E+06     80.8446E+06     1.32222E+06    -228.578E-03     456.497E-03    -227.919E-03     189.101E-03    -237.432E-03     465.213E-03    -227.554E-03     157.502E-03
             630     11.4697E-03     114.329E-03    -22.8690E+06     64.2792E+06     91.0119E+06     1.17383E+06    -227.376E-03     455.286E-03    -227.910E-03     175.060E-03    -235.589E-03     463.382E-03    -227.515E-03     144.304E-03
             631     12.1875E-03     114.540E-03    -16.7627E+06     70.5047E+06     95.4513E+06     -91.383E+03    -226.446E-03     454.324E-03    -227.878E-03     153.282E-03    -233.491E-03     461.283E-03    -227.478E-03     124.341E-03
             632     12.9044E-03     114.708E-03    -11.9220E+06     75.9089E+06     94.5275E+06    -783.184E+03    -225.920E-03     453.760E-03    -227.840E-03     133.894E-03    -232.058E-03     459.850E-03    -227.460E-03     106.182E-03
             633     13.6139E-03     114.873E-03    -5.03073E+06     79.1464E+06     93.8210E+06     350.890E+03    -225.405E-03     453.212E-03    -227.807E-03     86.1553E-03    -229.285E-03     457.082E-03    -227.445E-03     64.3911E-03
             634     715.195E-06     112.994E-03    -142.344E+06    -321.186E+06    -140.731E+06     401.456E+03    -228.722E-03     456.237E-03    -227.515E-03     23.2655E-03    -228.846E-03     455.123E-03    -227.546E-03     20.5753E-03
             635     1.43324E-03     113.037E-03    -139.165E+06    -313.431E+06    -128.527E+06      178.44E+03    -228.149E-03     456.206E-03    -228.057E-03     42.2316E-03    -228.452E-03     455.274E-03    -228.043E-03     37.3149E-03
             636     2.14977E-03     113.107E-03    -133.080E+06    -302.976E+06    -112.671E+06     381.452E+03    -228.683E-03     456.748E-03    -228.065E-03     61.6818E-03    -229.278E-03     456.122E-03    -227.996E-03     54.3065E-03
             637     2.86609E-03     113.205E-03    -126.092E+06    -276.844E+06    -94.3384E+06     434.528E+03    -229.121E-03     457.234E-03    -228.113E-03     81.2199E-03    -230.154E-03     457.111E-03    -228.001E-03     71.2782E-03
             638     3.58229E-03     113.329E-03    -117.920E+06    -242.953E+06    -74.9231E+06     205.710E+03    -229.364E-03     457.487E-03    -228.124E-03     100.580E-03    -230.975E-03     458.035E-03    -227.975E-03     87.9985E-03
             639     4.29930E-03     113.476E-03    -109.124E+06    -216.464E+06    -55.3163E+06     334.012E+03    -229.749E-03     457.860E-03    -228.111E-03     119.439E-03    -232.067E-03     459.183E-03    -227.916E-03     104.101E-03
             640     5.01643E-03     113.648E-03    -100.103E+06    -183.489E+06    -36.1568E+06     482.190E+03    -230.245E-03     458.329E-03    -228.084E-03     137.238E-03    -233.409E-03     460.591E-03    -227.854E-03     119.095E-03
             641     5.73355E-03     113.841E-03    -91.0236E+06    -146.084E+06    -17.4976E+06     541.358E+03    -230.781E-03     458.843E-03    -228.063E-03     153.979E-03    -234.927E-03     462.199E-03    -227.806E-03     132.994E-03
             642     6.44921E-03     114.060E-03    -81.8586E+06    -108.651E+06     972.823E+03     643.124E+03    -231.149E-03     459.200E-03    -228.051E-03     169.502E-03    -236.386E-03     463.758E-03    -227.770E-03     145.734E-03
             643     7.16742E-03     114.292E-03    -72.5423E+06    -66.5005E+06     19.0293E+06     644.919E+03    -231.339E-03     459.372E-03    -228.033E-03     183.224E-03    -237.728E-03     465.212E-03    -227.736E-03     156.841E-03
             644     7.88369E-03     114.545E-03    -63.4643E+06    -19.6654E+06     36.7225E+06     712.341E+03    -231.332E-03     459.338E-03    -228.005E-03     194.198E-03    -238.841E-03     466.445E-03    -227.701E-03     165.523E-03
             645     8.60115E-03     114.805E-03    -54.6509E+06     14.0861E+06     48.7943E+06     805.369E+03    -231.075E-03     459.044E-03    -227.969E-03     201.167E-03    -239.500E-03     467.183E-03    -227.666E-03     170.724E-03
             646     9.31820E-03     115.072E-03    -46.2192E+06     34.5857E+06     57.6732E+06     802.094E+03    -230.541E-03     458.478E-03    -227.937E-03     202.979E-03    -239.548E-03     467.276E-03    -227.632E-03     171.411E-03
             647     10.0357E-03     115.336E-03    -38.4799E+06     50.3275E+06     68.6791E+06     1.18198E+06    -229.734E-03     457.661E-03    -227.927E-03     198.751E-03    -238.902E-03     466.671E-03    -227.600E-03     166.781E-03
             648     10.7520E-03     115.588E-03    -30.5571E+06     58.8039E+06     81.2971E+06     1.30603E+06    -228.698E-03     456.637E-03    -227.939E-03     188.696E-03    -237.567E-03     465.371E-03    -227.574E-03     157.023E-03
             649     11.4693E-03     115.823E-03    -23.2532E+06     65.3867E+06     91.3147E+06     546.749E+03    -227.438E-03     455.379E-03    -227.941E-03     173.974E-03    -235.646E-03     463.472E-03    -227.545E-03     143.160E-03
             650     12.1876E-03     116.031E-03    -15.7524E+06     70.9995E+06     95.9312E+06     1.16336E+06    -226.675E-03     454.594E-03    -227.919E-03     153.144E-03    -233.707E-03     461.545E-03    -227.520E-03     124.205E-03
             651     12.9020E-03     116.212E-03    -9.16036E+06     78.3258E+06     97.1749E+06     701.073E+03    -225.772E-03     453.657E-03    -227.885E-03     134.777E-03    -231.924E-03     459.772E-03    -227.500E-03     107.090E-03
             652     13.6280E-03     116.358E-03    -5.51764E+06     79.4184E+06     94.5486E+06    -111.707E+03    -225.340E-03     453.181E-03    -227.841E-03     86.4405E-03    -229.237E-03     457.066E-03    -227.475E-03     64.6734E-03
             653     717.375E-06     114.486E-03    -143.767E+06    -321.679E+06    -140.387E+06    -502.890E+03    -228.745E-03     456.311E-03    -227.565E-03     23.0837E-03    -228.874E-03     455.195E-03    -227.592E-03     20.4001E-03
             654     1.43315E-03     114.532E-03    -139.180E+06    -313.554E+06    -129.438E+06     333.789E+03    -228.491E-03     456.647E-03    -228.156E-03     41.6407E-03    -228.791E-03     455.715E-03    -228.147E-03     36.7061E-03
             655     2.14896E-03     114.602E-03    -133.757E+06    -303.414E+06    -113.443E+06     189.702E+03    -228.721E-03     456.932E-03    -228.211E-03     61.7882E-03    -229.320E-03     456.308E-03    -228.144E-03     54.3864E-03
             656     2.86517E-03     114.700E-03    -126.004E+06    -276.953E+06    -94.7092E+06     383.971E+03    -228.874E-03     457.070E-03    -228.196E-03     81.7318E-03    -229.911E-03     456.951E-03    -228.085E-03     71.7876E-03
             657     3.58278E-03     114.822E-03    -117.766E+06    -242.709E+06    -74.6211E+06     554.933E+03    -229.127E-03     457.265E-03    -228.138E-03     100.880E-03    -230.742E-03     457.816E-03    -227.988E-03     88.3098E-03
             658     4.29965E-03     114.971E-03    -109.043E+06    -216.427E+06    -54.9680E+06     393.293E+03    -229.716E-03     457.814E-03    -228.097E-03     119.449E-03    -232.032E-03     459.133E-03    -227.900E-03     104.127E-03
             659     5.01652E-03     115.141E-03    -100.091E+06    -183.580E+06    -36.0422E+06     736.552E+03    -230.466E-03     458.549E-03    -228.084E-03     137.241E-03    -233.629E-03     460.810E-03    -227.852E-03     119.093E-03
             660     5.73241E-03     115.338E-03    -91.0738E+06    -145.862E+06    -17.3632E+06     705.765E+03    -230.940E-03     459.025E-03    -228.085E-03     154.191E-03    -235.091E-03     462.385E-03    -227.828E-03     133.197E-03
             661     6.45074E-03     115.552E-03    -81.8102E+06    -108.982E+06     753.303E+03     659.144E+03    -231.193E-03     459.272E-03    -228.079E-03     169.711E-03    -236.432E-03     463.832E-03    -227.799E-03     145.938E-03
             662     7.16635E-03     115.789E-03    -72.6984E+06    -66.8398E+06     18.6379E+06     829.691E+03    -231.349E-03     459.406E-03    -228.057E-03     183.447E-03    -237.742E-03     465.250E-03    -227.762E-03     157.060E-03
             663     7.88392E-03     116.037E-03    -63.8675E+06    -19.4243E+06     36.6688E+06     902.485E+03    -231.250E-03     459.274E-03    -228.025E-03     194.168E-03    -238.759E-03     466.382E-03    -227.721E-03     165.504E-03
             664     8.60125E-03     116.300E-03    -55.1376E+06     14.4365E+06     48.9370E+06     806.878E+03    -231.122E-03     459.110E-03    -227.988E-03     200.878E-03    -239.549E-03     467.250E-03    -227.684E-03     170.412E-03
             665     9.31765E-03     116.567E-03    -46.9889E+06     34.6042E+06     57.9484E+06     759.306E+03    -230.667E-03     458.635E-03    -227.967E-03     202.448E-03    -239.677E-03     467.432E-03    -227.660E-03     170.837E-03
             666     10.0347E-03     116.829E-03    -39.0273E+06     50.1061E+06     69.3284E+06     468.681E+03    -229.739E-03     457.705E-03    -227.966E-03     198.555E-03    -238.912E-03     466.717E-03    -227.636E-03     166.557E-03
             667     10.7519E-03     117.085E-03    -31.1358E+06     58.4414E+06     81.1492E+06     461.942E+03    -228.587E-03     456.558E-03    -227.971E-03     188.696E-03    -237.452E-03     465.285E-03    -227.604E-03     157.050E-03
             668     11.4693E-03     117.315E-03    -24.0204E+06     65.9483E+06     90.9860E+06     1.07596E+06    -227.787E-03     455.760E-03    -227.973E-03     174.878E-03    -236.023E-03     463.881E-03    -227.579E-03     144.028E-03
             669     12.1839E-03     117.530E-03    -17.6307E+06     71.6552E+06     95.2047E+06     246.925E+03    -226.485E-03     454.436E-03    -227.951E-03     153.772E-03    -233.558E-03     461.424E-03    -227.553E-03     124.772E-03
             670     12.9059E-03     117.698E-03    -11.0731E+06     77.6438E+06     95.9618E+06     179.215E+03    -225.337E-03     453.234E-03    -227.896E-03     134.597E-03    -231.481E-03     459.335E-03    -227.513E-03     106.983E-03
             671     13.6138E-03     117.860E-03    -4.51448E+06     80.4115E+06     95.2363E+06     857.889E+03    -224.906E-03     452.736E-03    -227.830E-03     86.8291E-03    -228.792E-03     456.616E-03    -227.464E-03     65.1250E-03
             672     715.886E-06     115.986E-03    -142.682E+06    -321.450E+06    -140.844E+06     401.499E+03    -228.404E-03     456.574E-03    -228.170E-03     22.8055E-03    -228.524E-03     455.457E-03    -228.201E-03     20.2075E-03
             673     1.43162E-03     116.026E-03    -139.451E+06    -314.050E+06    -129.858E+06    -89.0056E+03    -228.421E-03     456.663E-03    -228.242E-03     42.2735E-03    -228.726E-03     455.734E-03    -228.234E-03     37.3103E-03
             674     2.14910E-03     116.098E-03    -133.127E+06    -302.865E+06    -113.246E+06     122.944E+03    -228.489E-03     456.700E-03    -228.211E-03     62.3754E-03    -229.087E-03     456.079E-03    -228.145E-03     54.9828E-03
             675     2.86652E-03     116.193E-03    -126.012E+06    -277.264E+06    -94.7724E+06     219.696E+03    -228.754E-03     456.900E-03    -228.145E-03     81.7421E-03    -229.791E-03     456.779E-03    -228.034E-03     71.8115E-03
             676     3.58256E-03     116.317E-03    -117.580E+06    -243.205E+06    -74.7604E+06     489.772E+03    -229.284E-03     457.382E-03    -228.098E-03     100.843E-03    -230.896E-03     457.929E-03    -227.948E-03     88.2658E-03
             677     4.29953E-03     116.464E-03    -108.871E+06    -216.595E+06    -54.7569E+06     904.264E+03    -229.926E-03     458.021E-03    -228.096E-03     119.456E-03    -232.239E-03     459.338E-03    -227.897E-03     104.141E-03
             678     5.01602E-03     116.637E-03    -99.8263E+06    -183.841E+06    -35.8149E+06     860.511E+03    -230.470E-03     458.567E-03    -228.097E-03     137.399E-03    -233.633E-03     460.826E-03    -227.865E-03     119.256E-03
             679     5.73374E-03     116.831E-03    -90.5869E+06    -146.033E+06    -17.2008E+06     1.01384E+06    -230.978E-03     459.075E-03    -228.097E-03     154.096E-03    -235.123E-03     462.431E-03    -227.840E-03     133.107E-03
             680     6.44896E-03     117.048E-03    -81.9262E+06    -108.950E+06     859.480E+03     982.719E+03    -231.323E-03     459.425E-03    -228.101E-03     169.537E-03    -236.565E-03     463.987E-03    -227.820E-03     145.740E-03
             681     7.16704E-03     117.282E-03    -73.1551E+06    -66.8018E+06     18.7608E+06     1.05220E+06    -231.396E-03     459.487E-03    -228.091E-03     183.078E-03    -237.790E-03     465.329E-03    -227.794E-03     156.671E-03
             682     7.88380E-03     117.533E-03    -63.9781E+06    -19.0729E+06     37.2018E+06     1.15183E+06    -231.398E-03     459.468E-03    -228.070E-03     193.830E-03    -238.912E-03     466.579E-03    -227.764E-03     165.123E-03
             683     8.59995E-03     117.795E-03    -55.0789E+06     14.7252E+06     49.4391E+06     1.14325E+06    -231.138E-03     459.178E-03    -228.040E-03     200.701E-03    -239.566E-03     467.319E-03    -227.734E-03     170.223E-03
             684     9.31776E-03     118.061E-03    -46.4321E+06     34.9666E+06     58.4618E+06     873.530E+03    -230.545E-03     458.556E-03    -228.011E-03     202.594E-03    -239.552E-03     467.353E-03    -227.702E-03     171.010E-03
             685     10.0342E-03     118.326E-03    -38.5597E+06     50.6690E+06     69.5736E+06     839.408E+03    -229.575E-03     457.568E-03    -227.993E-03     198.754E-03    -238.743E-03     466.578E-03    -227.663E-03     166.810E-03
             686     10.7519E-03     118.576E-03    -31.7509E+06      57.923E+06     80.5509E+06     988.557E+03    -228.435E-03     456.416E-03    -227.981E-03     189.080E-03    -237.298E-03     465.138E-03    -227.616E-03     157.496E-03
             687     11.4686E-03     118.813E-03    -24.1076E+06     65.9957E+06     90.8169E+06     756.699E+03    -227.407E-03     455.369E-03    -227.962E-03     175.703E-03    -235.653E-03     463.500E-03    -227.568E-03     144.917E-03
             688     12.1883E-03     119.022E-03    -16.7635E+06     72.6200E+06     95.7523E+06     1.03991E+06    -226.348E-03     454.269E-03    -227.921E-03     154.144E-03    -233.417E-03     461.259E-03    -227.524E-03     125.226E-03
             689     12.9007E-03     119.194E-03    -10.8736E+06     78.9890E+06     96.2220E+06     873.199E+03    -224.990E-03     452.840E-03    -227.850E-03     136.502E-03    -231.184E-03     458.996E-03    -227.468E-03     108.905E-03
             690     13.6277E-03     119.353E-03    -5.07323E+06     81.0352E+06     95.0354E+06    -322.097E+03    -225.012E-03     452.786E-03    -227.774E-03     87.6089E-03    -228.940E-03     456.708E-03    -227.409E-03     65.8666E-03
             691     716.138E-06     117.477E-03    -142.991E+06    -321.257E+06    -139.421E+06     249.350E+03    -227.828E-03     456.397E-03    -228.570E-03     23.1460E-03    -227.953E-03     455.282E-03    -228.594E-03     20.5061E-03
             692     1.43419E-03     117.522E-03    -139.012E+06    -313.716E+06    -129.122E+06     243.835E+03    -228.095E-03     456.202E-03    -228.107E-03     42.1905E-03    -228.397E-03     455.271E-03    -228.096E-03     37.2658E-03
             693     2.14960E-03     117.591E-03    -133.438E+06    -302.887E+06    -113.420E+06     248.994E+03    -228.528E-03     456.587E-03    -228.060E-03     62.1302E-03    -229.127E-03     455.967E-03    -227.994E-03     54.7455E-03
             694     2.86561E-03     117.688E-03    -125.913E+06    -277.252E+06    -94.9839E+06     274.171E+03    -228.931E-03     456.990E-03    -228.059E-03     81.6822E-03    -229.964E-03     456.867E-03    -227.949E-03     71.7565E-03
             695     3.58317E-03     117.810E-03    -117.864E+06    -244.017E+06    -74.9084E+06     506.862E+03    -229.473E-03     457.540E-03    -228.067E-03     100.931E-03    -231.085E-03     458.085E-03    -227.917E-03     88.3550E-03
             696     4.29940E-03     117.959E-03    -108.965E+06    -217.172E+06    -54.9410E+06     739.965E+03    -230.144E-03     458.247E-03    -228.103E-03     119.563E-03    -232.460E-03     459.565E-03    -227.905E-03     104.218E-03
             697     5.01643E-03     118.131E-03    -99.8746E+06    -184.251E+06    -35.8773E+06     957.282E+03    -230.645E-03     458.779E-03    -228.134E-03     137.077E-03    -233.805E-03     461.034E-03    -227.901E-03     118.914E-03
             698     5.73226E-03     118.327E-03    -90.9996E+06    -146.701E+06    -17.2141E+06     1.19998E+06    -230.998E-03     459.146E-03    -228.148E-03     153.785E-03    -235.143E-03     462.496E-03    -227.889E-03     132.784E-03
             699     6.45025E-03     118.542E-03    -81.6168E+06    -108.550E+06     1.54279E+06     1.43355E+06    -231.338E-03     459.491E-03    -228.153E-03     169.252E-03    -236.577E-03     464.050E-03    -227.869E-03     145.453E-03
             700     7.16588E-03     118.777E-03    -72.2713E+06    -66.8765E+06     19.8147E+06     1.47909E+06    -231.525E-03     459.674E-03    -228.149E-03     182.950E-03    -237.920E-03     465.517E-03    -227.848E-03     156.516E-03
             701     7.88250E-03     119.028E-03    -63.2135E+06    -19.3016E+06     37.7251E+06     1.73029E+06    -231.398E-03     459.525E-03    -228.126E-03     194.075E-03    -238.916E-03     466.640E-03    -227.818E-03     165.368E-03
             702     8.60044E-03     119.289E-03    -54.3093E+06     15.7635E+06     50.0972E+06     1.40141E+06    -231.011E-03     459.094E-03    -228.082E-03     200.982E-03    -239.440E-03     467.240E-03    -227.776E-03     170.534E-03
             703     9.31653E-03     119.556E-03    -46.3622E+06     35.4244E+06     58.7801E+06     1.16738E+06    -230.296E-03     458.329E-03    -228.033E-03     202.848E-03    -239.302E-03     467.126E-03    -227.723E-03     171.321E-03
             704     10.0350E-03     119.819E-03    -38.9789E+06     50.3177E+06     69.3570E+06     1.37226E+06    -229.405E-03     457.400E-03    -227.995E-03     198.839E-03    -238.567E-03     466.401E-03    -227.665E-03     166.946E-03
             705     10.7516E-03     120.072E-03    -30.9351E+06     58.9046E+06     81.2899E+06     1.22012E+06    -228.435E-03     456.413E-03    -227.977E-03     189.076E-03    -237.304E-03     465.145E-03    -227.612E-03     157.468E-03
             706     11.4700E-03     120.304E-03    -23.9583E+06     66.2706E+06     90.9998E+06     907.774E+03    -227.036E-03     454.985E-03    -227.949E-03     174.975E-03    -235.264E-03     463.099E-03    -227.555E-03     144.243E-03
             707     12.1855E-03     120.517E-03    -17.3796E+06     72.1887E+06     95.3218E+06     481.414E+03    -225.888E-03     453.776E-03    -227.888E-03     153.456E-03    -232.934E-03     460.739E-03    -227.490E-03     124.612E-03
             708     12.9083E-03     120.688E-03    -10.1881E+06     80.3512E+06     96.9339E+06    -56.4118E+03    -225.882E-03     453.719E-03    -227.837E-03     133.434E-03    -232.018E-03     459.823E-03    -227.454E-03     105.712E-03
             709     13.6190E-03     120.842E-03    -4.05901E+06     82.2076E+06     95.8827E+06     267.265E+03    -225.610E-03     453.423E-03    -227.813E-03     83.8183E-03    -229.468E-03     457.281E-03    -227.447E-03     61.9962E-03
             710     716.746E-06     118.973E-03    -142.473E+06    -321.381E+06     -141.03E+06     452.858E+03    -228.274E-03     456.102E-03    -227.828E-03     22.4130E-03    -228.394E-03     454.986E-03    -227.861E-03     19.7561E-03
             711     1.43174E-03     119.015E-03    -139.602E+06    -313.514E+06    -128.839E+06     379.992E+03    -228.158E-03     456.170E-03    -228.011E-03     41.7709E-03    -228.462E-03     455.238E-03    -227.998E-03     36.8502E-03
             712     2.14994E-03     119.086E-03    -133.461E+06    -302.682E+06    -113.253E+06     35.3356E+03    -228.448E-03     456.453E-03    -228.005E-03     61.8099E-03    -229.045E-03     455.830E-03    -227.939E-03     54.4314E-03
             713     2.86696E-03     119.182E-03    -126.100E+06    -277.895E+06    -95.0052E+06     211.776E+03    -229.108E-03     457.137E-03    -228.029E-03     81.5012E-03    -230.138E-03     457.009E-03    -227.919E-03     71.5771E-03
             714     3.58263E-03     119.305E-03    -117.823E+06    -244.451E+06    -74.9013E+06     562.374E+03    -229.767E-03     457.860E-03    -228.093E-03     100.601E-03    -231.376E-03     458.400E-03    -227.943E-03     88.0058E-03
             715     4.29964E-03     119.454E-03    -109.178E+06    -217.853E+06    -55.0111E+06     691.436E+03    -230.284E-03     458.452E-03    -228.168E-03     119.068E-03    -232.594E-03     459.760E-03    -227.968E-03     103.713E-03
             716     5.01534E-03     119.626E-03    -100.194E+06    -184.958E+06    -35.8539E+06     1.04479E+06    -230.681E-03     458.889E-03    -228.207E-03     136.884E-03    -233.840E-03     461.140E-03    -227.973E-03     118.714E-03
             717     5.73257E-03     119.821E-03    -90.7627E+06    -146.657E+06    -16.7469E+06     1.19853E+06    -231.017E-03     459.234E-03    -228.217E-03     153.925E-03    -235.167E-03     462.589E-03    -227.956E-03     132.908E-03
             718     6.44838E-03     120.037E-03    -81.4791E+06    -109.293E+06     1.61722E+06     1.28430E+06    -231.259E-03     459.468E-03    -228.209E-03     169.498E-03    -236.500E-03     464.027E-03    -227.924E-03     145.704E-03
             719     7.16592E-03     120.272E-03    -72.5090E+06    -67.4307E+06     19.4743E+06     1.75418E+06    -231.431E-03     459.615E-03    -228.184E-03     183.381E-03    -237.830E-03     465.461E-03    -227.884E-03     156.970E-03
             720     7.88331E-03     120.522E-03    -63.3755E+06    -19.2220E+06     37.8211E+06     1.72494E+06    -231.357E-03     459.507E-03    -228.149E-03     194.362E-03    -238.879E-03     466.625E-03    -227.840E-03     165.666E-03
             721     8.59935E-03     120.785E-03    -54.6472E+06     16.2184E+06     50.1379E+06     1.87369E+06    -230.894E-03     458.989E-03    -228.095E-03     201.039E-03    -239.326E-03     467.139E-03    -227.788E-03     170.612E-03
             722     9.31793E-03     121.049E-03    -46.5286E+06     35.9570E+06     58.7482E+06     1.86285E+06    -230.255E-03     458.293E-03    -228.038E-03     202.684E-03    -239.261E-03     467.092E-03    -227.729E-03     171.161E-03
             723     10.0341E-03     121.314E-03    -38.3888E+06     50.9099E+06     69.8206E+06     1.41016E+06    -229.398E-03     457.400E-03    -228.001E-03     198.580E-03    -238.555E-03     466.398E-03    -227.670E-03     166.676E-03
             724     10.7524E-03     121.565E-03    -31.0000E+06     58.8506E+06     81.2802E+06     1.22920E+06    -228.323E-03     456.304E-03    -227.981E-03     188.867E-03    -237.188E-03     465.032E-03    -227.615E-03     157.280E-03
             725     11.4682E-03     121.801E-03    -23.3325E+06     67.0088E+06     91.7321E+06     1.12814E+06    -227.075E-03     455.028E-03    -227.953E-03     174.421E-03    -235.284E-03     463.126E-03    -227.558E-03     143.707E-03
             726     12.1887E-03     122.007E-03    -16.1088E+06     73.5313E+06     96.6938E+06     995.666E+03    -226.356E-03     454.265E-03    -227.910E-03     153.247E-03    -233.398E-03     461.231E-03    -227.509E-03     124.340E-03
             727     12.9008E-03     122.185E-03    -10.4319E+06     80.1454E+06     97.0563E+06     575.422E+03    -225.763E-03     453.625E-03    -227.863E-03     135.977E-03    -231.944E-03     459.773E-03    -227.479E-03     108.303E-03
             728     13.6182E-03     122.345E-03    -5.22513E+06     82.7835E+06     95.5096E+06     275.114E+03    -224.998E-03     452.805E-03    -227.807E-03     88.0306E-03    -228.927E-03     456.732E-03    -227.442E-03     66.2368E-03
             729     716.300E-06     120.466E-03    -143.773E+06    -321.641E+06    -140.858E+06    -242.106E+03    -227.736E-03     455.742E-03    -228.006E-03     22.2802E-03    -227.864E-03     454.627E-03    -228.036E-03     19.5927E-03
             730     1.43427E-03     120.510E-03    -139.098E+06    -313.508E+06    -129.316E+06    -104.996E+03    -228.423E-03     456.339E-03    -227.916E-03     42.0756E-03    -228.724E-03     455.408E-03    -227.906E-03     37.1334E-03
             731     2.14932E-03     120.579E-03    -133.321E+06    -302.743E+06    -113.176E+06     210.229E+03    -228.862E-03     456.923E-03    -228.060E-03     61.5553E-03    -229.456E-03     456.296E-03    -227.994E-03     54.1827E-03
             732     2.86576E-03     120.677E-03    -126.441E+06    -278.013E+06    -95.0019E+06     220.690E+03    -229.259E-03     457.413E-03    -228.154E-03     81.0298E-03    -230.288E-03     457.282E-03    -228.042E-03     71.0992E-03
             733     3.58261E-03     120.800E-03    -118.309E+06    -245.225E+06    -75.0647E+06     417.438E+03    -229.777E-03     457.992E-03    -228.215E-03     100.401E-03    -231.385E-03     458.528E-03    -228.063E-03     87.7970E-03
             734     4.29806E-03     120.949E-03    -109.315E+06    -218.273E+06    -54.8903E+06     858.407E+03    -230.156E-03     458.416E-03    -228.260E-03     119.261E-03    -232.470E-03     459.727E-03    -228.060E-03     103.910E-03
             735     5.01561E-03     121.121E-03    -100.077E+06    -185.179E+06    -35.6419E+06     986.872E+03    -230.534E-03     458.798E-03    -228.264E-03     137.280E-03    -233.698E-03     461.053E-03    -228.028E-03     119.113E-03
             736     5.73190E-03     121.316E-03    -91.1210E+06    -147.524E+06    -17.2614E+06     1.19510E+06    -230.957E-03     459.203E-03    -228.246E-03     154.234E-03    -235.107E-03     462.557E-03    -227.987E-03     133.234E-03
             737     6.44927E-03     121.532E-03    -82.2533E+06    -110.061E+06     985.466E+03     1.65529E+06    -231.252E-03     459.479E-03    -228.227E-03     169.799E-03    -236.499E-03     464.040E-03    -227.943E-03     146.011E-03
             738     7.16609E-03     121.765E-03    -73.1434E+06    -67.6696E+06     19.0702E+06     1.74862E+06    -231.443E-03     459.642E-03    -228.199E-03     183.397E-03    -237.843E-03     465.487E-03    -227.900E-03     156.986E-03
             739     7.88228E-03     122.018E-03    -64.1321E+06    -19.2842E+06     37.3188E+06     1.84665E+06    -231.253E-03     459.413E-03    -228.160E-03     193.990E-03    -238.767E-03     466.523E-03    -227.853E-03     165.316E-03
             740     8.60058E-03     122.277E-03    -55.2926E+06     15.2409E+06     49.6482E+06     2.08681E+06    -230.884E-03     458.988E-03    -228.104E-03     200.759E-03    -239.310E-03     467.128E-03    -227.798E-03     170.336E-03
             741     9.31636E-03     122.545E-03    -46.8264E+06     37.1759E+06     58.9460E+06     1.90384E+06    -230.343E-03     458.394E-03    -228.052E-03     202.441E-03    -239.348E-03     467.194E-03    -227.743E-03     170.902E-03
             742     10.0347E-03     122.807E-03    -39.2251E+06     52.2059E+06     69.5121E+06     1.09503E+06    -229.432E-03     457.452E-03    -228.019E-03     198.364E-03    -238.595E-03     466.459E-03    -227.691E-03     166.439E-03
             743     10.7510E-03     123.061E-03    -31.1231E+06     58.8321E+06     81.0354E+06     668.940E+03    -228.165E-03     456.162E-03    -227.997E-03     188.465E-03    -237.014E-03     464.874E-03    -227.632E-03     156.906E-03
             744     11.4706E-03     123.292E-03    -23.5566E+06     67.0059E+06     91.5978E+06     586.453E+03    -227.328E-03     455.301E-03    -227.973E-03     174.161E-03    -235.531E-03     463.393E-03    -227.578E-03     143.404E-03
             745     12.1845E-03     123.504E-03    -16.9716E+06     72.7359E+06     96.1691E+06     1.00969E+06    -226.234E-03     454.167E-03    -227.933E-03     153.688E-03    -233.295E-03     461.148E-03    -227.533E-03     124.749E-03
             746     12.9055E-03     123.680E-03    -10.5697E+06     80.9449E+06     97.6652E+06     1.76171E+06    -224.631E-03     452.486E-03    -227.855E-03     134.719E-03    -230.776E-03     458.596E-03    -227.468E-03     107.244E-03
             747     13.6296E-03     123.828E-03    -5.67024E+06     84.7074E+06     96.5443E+06     724.437E+03    -225.564E-03     453.352E-03    -227.789E-03     84.1504E-03    -229.414E-03     457.203E-03    -227.421E-03     62.5311E-03
             748     717.303E-06     121.960E-03    -143.437E+06    -321.119E+06    -139.866E+06    -82.6477E+03    -227.740E-03     455.982E-03    -228.243E-03     22.6655E-03    -227.868E-03     454.867E-03    -228.268E-03     19.9768E-03
             749     1.43248E-03     122.004E-03    -139.182E+06    -313.587E+06    -128.918E+06      28.992E+03    -228.626E-03     456.683E-03    -228.057E-03     41.4723E-03    -228.924E-03     455.748E-03    -228.045E-03     36.5542E-03
             750     2.14947E-03     122.076E-03    -133.489E+06    -303.176E+06    -113.597E+06     116.910E+03    -229.061E-03     457.285E-03    -228.224E-03     61.3400E-03    -229.653E-03     456.656E-03    -228.159E-03     53.9635E-03
             751     2.86521E-03     122.171E-03    -126.312E+06    -278.250E+06      -94.99E+06     409.276E+03    -229.278E-03     457.584E-03    -228.306E-03     81.4871E-03    -230.312E-03     457.457E-03    -228.194E-03     71.5404E-03
             752     3.58145E-03     122.295E-03    -118.109E+06    -245.204E+06    -74.6994E+06     522.091E+03    -229.508E-03     457.817E-03    -228.308E-03     101.044E-03    -231.122E-03     458.357E-03    -228.155E-03     88.4470E-03
             753     4.29923E-03     122.443E-03    -109.301E+06    -218.985E+06    -55.0660E+06     770.029E+03    -230.038E-03     458.336E-03    -228.298E-03     119.477E-03    -232.352E-03     459.644E-03    -228.097E-03     104.135E-03
             754     5.01523E-03     122.615E-03    -100.512E+06    -186.227E+06    -36.2749E+06     1.31601E+06    -230.551E-03     458.836E-03    -228.285E-03     137.286E-03    -233.714E-03     461.086E-03    -228.051E-03     119.128E-03
             755     5.73222E-03     122.811E-03    -91.4079E+06    -148.102E+06    -17.3950E+06     1.62143E+06    -230.912E-03     459.178E-03    -228.266E-03     154.002E-03    -235.057E-03     462.523E-03    -228.006E-03     133.016E-03
             756     6.44897E-03     123.025E-03    -82.0029E+06    -110.564E+06     1.08731E+06     1.81189E+06    -231.330E-03     459.578E-03    -228.249E-03     169.503E-03    -236.567E-03     464.130E-03    -227.964E-03     145.715E-03
             757     7.16522E-03     123.262E-03    -72.7438E+06    -68.0442E+06     19.2161E+06     2.05513E+06    -231.439E-03     459.664E-03    -228.225E-03     183.169E-03    -237.832E-03     465.502E-03    -227.925E-03     156.761E-03
             758     7.88308E-03     123.510E-03    -63.5650E+06    -20.0575E+06     37.4156E+06     2.36715E+06    -231.231E-03     459.416E-03    -228.184E-03     193.870E-03    -238.742E-03     466.521E-03    -227.876E-03     165.195E-03
             759     8.59907E-03     123.774E-03    -54.7905E+06     15.2615E+06     49.9204E+06     2.52131E+06    -230.914E-03     459.042E-03    -228.128E-03     200.581E-03    -239.332E-03     467.175E-03    -227.821E-03     170.162E-03
             760     9.31751E-03     124.038E-03    -46.6816E+06     37.7352E+06     59.3585E+06     2.40074E+06    -230.346E-03     458.422E-03    -228.076E-03     202.374E-03    -239.348E-03     467.221E-03    -227.766E-03     170.848E-03
             761     10.0335E-03     124.303E-03    -38.8313E+06     54.7879E+06     70.8435E+06     1.80312E+06    -229.461E-03     457.506E-03    -228.045E-03     198.236E-03    -238.627E-03     466.523E-03    -227.714E-03     166.311E-03
             762     10.7520E-03     124.553E-03    -31.8101E+06     60.4553E+06     81.5011E+06     409.043E+03    -228.404E-03     456.436E-03    -228.032E-03     187.995E-03    -237.257E-03     465.154E-03    -227.666E-03     156.370E-03
             763     11.4674E-03     124.787E-03    -24.7962E+06     65.7907E+06     91.0410E+06     616.002E+03    -227.255E-03     455.269E-03    -228.014E-03     174.433E-03    -235.483E-03     463.378E-03    -227.618E-03     143.632E-03
             764     12.1870E-03     125.000E-03    -17.9316E+06     72.8803E+06     96.1738E+06     853.446E+03    -226.129E-03     454.099E-03    -227.969E-03     152.339E-03    -233.174E-03     461.060E-03    -227.568E-03     123.412E-03
             765     12.9043E-03     125.165E-03    -12.1935E+06     80.6393E+06     96.4706E+06     88.9982E+03    -225.510E-03     453.422E-03    -227.912E-03     133.227E-03    -231.645E-03     459.519E-03    -227.529E-03     105.587E-03
             766     13.6110E-03     125.335E-03    -5.41666E+06     85.2145E+06     96.2220E+06     728.076E+03    -224.991E-03     452.846E-03    -227.855E-03     86.8212E-03    -228.893E-03     456.753E-03    -227.490E-03     65.1124E-03
             767     715.584E-06     123.455E-03    -142.530E+06    -320.995E+06    -140.609E+06    -8.91405E+03    -228.721E-03     456.626E-03    -227.904E-03     23.2830E-03    -228.845E-03     455.512E-03    -227.935E-03     20.6062E-03
             768     1.43267E-03     123.500E-03    -139.161E+06    -313.921E+06    -129.174E+06     151.917E+03    -228.633E-03     456.938E-03    -228.306E-03     42.2973E-03    -228.934E-03     456.006E-03    -228.295E-03     37.3619E-03
             769     2.14839E-03     123.570E-03    -133.368E+06    -303.182E+06    -113.425E+06     395.894E+03    -228.826E-03     457.172E-03    -228.346E-03     61.9437E-03    -229.423E-03     456.548E-03    -228.280E-03     54.5491E-03
             770     2.86548E-03     123.667E-03    -126.079E+06    -278.397E+06    -94.7793E+06     380.673E+03    -229.193E-03     457.542E-03    -228.349E-03     81.5744E-03    -230.227E-03     457.415E-03    -228.236E-03     71.6198E-03
             771     3.58243E-03     123.790E-03    -117.835E+06    -245.964E+06    -74.7334E+06     738.092E+03    -229.589E-03     457.930E-03    -228.341E-03     100.751E-03    -231.196E-03     458.463E-03    -228.187E-03     88.1633E-03
             772     4.29820E-03     123.938E-03    -109.279E+06    -219.705E+06    -54.9585E+06     1.24611E+06    -230.069E-03     458.407E-03    -228.338E-03     119.277E-03    -232.380E-03     459.710E-03    -228.136E-03     103.935E-03
             773     5.01513E-03     124.111E-03    -100.266E+06    -186.997E+06    -35.9752E+06     1.35588E+06    -230.572E-03     458.899E-03    -228.327E-03     137.004E-03    -233.729E-03     461.141E-03    -228.090E-03     118.841E-03
             774     5.73190E-03     124.305E-03    -90.9319E+06    -148.897E+06    -17.2655E+06     1.66673E+06    -231.026E-03     459.338E-03    -228.312E-03     153.847E-03    -235.168E-03     462.679E-03    -228.051E-03     132.841E-03
             775     6.44824E-03     124.522E-03    -81.7871E+06    -111.341E+06     1.15087E+06     2.00267E+06    -231.263E-03     459.557E-03    -228.294E-03     169.514E-03    -236.500E-03     464.105E-03    -228.008E-03     145.726E-03
             776     7.16584E-03     124.755E-03    -72.6917E+06    -68.8102E+06     19.2906E+06     2.26340E+06    -231.318E-03     459.576E-03    -228.257E-03     183.105E-03    -237.705E-03     465.404E-03    -227.955E-03     156.721E-03
             777     7.88197E-03     125.007E-03    -63.5706E+06    -20.9009E+06     37.4088E+06     2.48467E+06    -231.317E-03     459.528E-03    -228.211E-03     193.855E-03    -238.824E-03     466.627E-03    -227.902E-03     165.175E-03
             778     8.59996E-03     125.267E-03    -54.6862E+06     14.6391E+06     49.9737E+06     2.88301E+06    -231.040E-03     459.202E-03    -228.162E-03     200.360E-03    -239.456E-03     467.331E-03    -227.854E-03     169.917E-03
             779     9.31595E-03     125.533E-03    -46.3054E+06     37.9943E+06     59.7666E+06     3.18561E+06    -230.372E-03     458.490E-03    -228.117E-03     201.891E-03    -239.364E-03     467.279E-03    -227.807E-03     170.363E-03
             780     10.0343E-03     125.797E-03    -38.7012E+06     57.0268E+06     71.8860E+06     2.58806E+06    -229.500E-03     457.591E-03    -228.091E-03     197.701E-03    -238.656E-03     466.603E-03    -227.758E-03     165.779E-03
             781     10.7503E-03     126.048E-03    -31.3814E+06     62.7712E+06     83.3363E+06     2.05477E+06    -228.443E-03     456.526E-03    -228.083E-03     187.810E-03    -237.300E-03     465.253E-03    -227.712E-03     156.191E-03
             782     11.4686E-03     126.282E-03    -24.5329E+06     66.0291E+06     91.9321E+06     1.36391E+06    -227.346E-03     455.413E-03    -228.067E-03     173.943E-03    -235.567E-03     463.515E-03    -227.668E-03     143.145E-03
             783     12.1855E-03     126.489E-03    -17.5986E+06     73.5303E+06     96.5434E+06     864.743E+03    -226.335E-03     454.362E-03    -228.027E-03     152.537E-03    -233.376E-03     461.321E-03    -227.625E-03     123.620E-03
             784     12.8993E-03     126.670E-03    -10.6505E+06     82.6155E+06     98.2041E+06     623.103E+03    -224.946E-03     452.902E-03    -227.956E-03     134.990E-03    -231.113E-03     459.039E-03    -227.569E-03     107.409E-03
             785     13.6303E-03     126.815E-03    -5.20013E+06     85.8335E+06     97.1424E+06     117.998E+03    -224.457E-03     452.320E-03    -227.863E-03     86.9723E-03    -228.371E-03     456.238E-03    -227.494E-03     65.3315E-03
             786     716.971E-06     124.950E-03    -143.111E+06    -321.382E+06    -140.207E+06     163.322E+03    -228.748E-03     456.747E-03    -227.999E-03     23.6096E-03    -228.875E-03     455.631E-03    -228.026E-03     20.9405E-03
             787     1.43241E-03     124.995E-03    -139.117E+06    -314.073E+06    -129.101E+06     253.105E+03    -228.556E-03     456.894E-03    -228.339E-03     42.1750E-03    -228.857E-03     455.961E-03    -228.327E-03     37.2411E-03
             788     2.14945E-03     125.065E-03    -133.203E+06    -303.109E+06    -113.527E+06     186.661E+03    -228.845E-03     457.198E-03    -228.353E-03     61.9375E-03    -229.443E-03     456.576E-03    -228.288E-03     54.5210E-03
             789     2.86528E-03     125.162E-03    -126.102E+06    -278.940E+06    -95.1373E+06     538.633E+03    -229.297E-03     457.665E-03    -228.369E-03     81.4730E-03    -230.329E-03     457.536E-03    -228.257E-03     71.5120E-03
             790     3.58117E-03     125.285E-03    -118.199E+06    -247.123E+06    -74.7252E+06     978.068E+03    -229.712E-03     458.096E-03    -228.384E-03     100.710E-03    -231.321E-03     458.625E-03    -228.228E-03     88.1072E-03
             791     4.29834E-03     125.433E-03    -109.211E+06    -220.533E+06    -54.8320E+06     1.27927E+06    -230.139E-03     458.529E-03    -228.390E-03     119.422E-03    -232.450E-03     459.829E-03    -228.186E-03     104.071E-03
             792     5.01500E-03     125.605E-03    -99.9449E+06    -187.647E+06    -35.5987E+06     1.62760E+06    -230.640E-03     459.020E-03    -228.380E-03     137.169E-03    -233.798E-03     461.260E-03    -228.141E-03     118.997E-03
             793     5.73121E-03     125.801E-03    -91.0558E+06    -149.756E+06    -17.0370E+06     1.99854E+06    -231.022E-03     459.384E-03    -228.362E-03     153.955E-03    -235.167E-03     462.723E-03    -228.098E-03     132.946E-03
             794     6.44855E-03     126.016E-03    -82.0419E+06    -112.161E+06     1.23144E+06     2.35561E+06    -231.256E-03     459.594E-03    -228.337E-03     169.413E-03    -236.491E-03     464.136E-03    -228.050E-03     145.629E-03
             795     7.16485E-03     126.251E-03    -73.0318E+06    -69.7299E+06     19.2026E+06     2.53382E+06    -231.443E-03     459.746E-03    -228.303E-03     182.812E-03    -237.826E-03     465.567E-03    -228.000E-03     156.409E-03
             796     7.88264E-03     126.501E-03    -64.1954E+06    -21.4132E+06     37.2858E+06     2.75984E+06    -231.395E-03     459.662E-03    -228.267E-03     193.351E-03    -238.893E-03     466.747E-03    -227.956E-03     164.665E-03
             797     8.59859E-03     126.763E-03    -55.5904E+06     13.1524E+06     49.6948E+06     3.01145E+06    -231.123E-03     459.349E-03    -228.226E-03     199.832E-03    -239.532E-03     467.463E-03    -227.916E-03     169.373E-03
             798     9.31626E-03     127.028E-03    -47.4290E+06     38.3701E+06     59.7962E+06     2.99467E+06    -230.516E-03     458.706E-03    -228.190E-03     201.336E-03    -239.506E-03     467.490E-03    -227.878E-03     169.769E-03
             799     10.0323E-03     127.290E-03    -39.2636E+06     58.4002E+06     72.3264E+06     2.50967E+06    -229.380E-03     457.544E-03    -228.164E-03     197.360E-03    -238.530E-03     466.552E-03    -227.830E-03     165.454E-03
             800     10.7504E-03     127.544E-03    -30.9470E+06     62.7881E+06     83.4888E+06     2.24684E+06    -228.289E-03     456.432E-03    -228.143E-03     187.576E-03    -237.128E-03     465.142E-03    -227.772E-03     156.006E-03
             801     11.4675E-03     127.773E-03    -23.2930E+06     67.5304E+06     92.8460E+06     2.03794E+06    -227.177E-03     455.290E-03    -228.113E-03     174.122E-03    -235.385E-03     463.386E-03    -227.713E-03     143.391E-03
             802     12.1830E-03     127.990E-03    -16.3505E+06     75.0167E+06     97.9307E+06     1.57608E+06    -225.573E-03     453.615E-03    -228.042E-03     153.332E-03    -232.620E-03     460.586E-03    -227.637E-03     124.531E-03
             803     12.9075E-03     128.152E-03    -10.0707E+06     83.3349E+06     99.0871E+06     946.126E+03    -225.056E-03     453.005E-03    -227.949E-03     134.607E-03    -231.216E-03     459.137E-03    -227.560E-03     107.008E-03
             804     13.6114E-03     128.319E-03    -4.43109E+06     86.8582E+06     97.7134E+06     610.911E+03    -224.489E-03     452.350E-03    -227.861E-03     85.8480E-03    -228.391E-03     456.261E-03    -227.492E-03     64.1248E-03
             805     715.534E-06     126.447E-03    -143.191E+06    -321.593E+06    -140.272E+06     287.504E+03    -228.417E-03     456.964E-03    -228.547E-03     22.9520E-03    -228.542E-03     455.847E-03    -228.574E-03     20.2743E-03
             806     1.43261E-03     126.489E-03    -139.082E+06    -314.036E+06    -129.057E+06     137.037E+03    -228.501E-03     456.921E-03    -228.419E-03     41.8731E-03    -228.801E-03     455.987E-03    -228.408E-03     36.9373E-03
             807     2.14846E-03     126.560E-03    -133.412E+06    -303.441E+06    -113.868E+06     244.024E+03    -228.857E-03     457.253E-03    -228.396E-03     61.7601E-03    -229.452E-03     456.627E-03    -228.332E-03     54.3621E-03
             808     2.86517E-03     126.657E-03    -126.240E+06    -279.757E+06    -94.5822E+06     653.594E+03    -229.217E-03     457.616E-03    -228.398E-03     81.5926E-03    -230.251E-03     457.482E-03    -228.282E-03     71.6382E-03
             809     3.58212E-03     126.780E-03    -117.741E+06    -248.164E+06    -74.1388E+06     1.05054E+06    -229.753E-03     458.154E-03    -228.400E-03     100.949E-03    -231.362E-03     458.678E-03    -228.240E-03     88.3398E-03
             810     4.29813E-03     126.928E-03    -109.186E+06    -221.830E+06    -54.7219E+06     1.64281E+06    -230.318E-03     458.737E-03    -228.419E-03     119.397E-03    -232.627E-03     460.030E-03    -228.212E-03     104.039E-03
             811     5.01445E-03     127.101E-03    -100.356E+06    -188.769E+06    -35.5594E+06     2.22897E+06    -230.686E-03     459.108E-03    -228.422E-03     137.174E-03    -233.845E-03     461.344E-03    -228.181E-03     119.004E-03
             812     5.73164E-03     127.295E-03    -91.2500E+06    -150.692E+06    -16.7281E+06     2.62452E+06    -231.114E-03     459.522E-03    -228.409E-03     153.841E-03    -235.258E-03     462.856E-03    -228.142E-03     132.825E-03
             813     6.44780E-03     127.511E-03    -82.4369E+06    -113.168E+06     1.29410E+06     2.87426E+06    -231.559E-03     459.962E-03    -228.403E-03     169.000E-03    -236.792E-03     464.497E-03    -228.113E-03     145.176E-03
             814     7.16494E-03     127.746E-03    -73.7532E+06    -70.1718E+06     19.2349E+06     3.21801E+06    -231.691E-03     460.087E-03    -228.396E-03     182.241E-03    -238.072E-03     465.901E-03    -228.091E-03     155.801E-03
             815     7.88064E-03     127.996E-03    -65.1751E+06    -21.8496E+06     37.3031E+06     3.36783E+06    -231.467E-03     459.840E-03    -228.373E-03     192.785E-03    -238.960E-03     466.916E-03    -228.060E-03     164.083E-03
             816     8.59837E-03     128.258E-03    -56.4672E+06     13.1530E+06     49.6413E+06     3.21658E+06    -231.068E-03     459.396E-03    -228.328E-03     199.501E-03    -239.467E-03     467.498E-03    -228.017E-03     169.058E-03
             817     9.31457E-03     128.523E-03    -47.6629E+06     38.6921E+06     60.0323E+06     2.65911E+06    -230.316E-03     458.593E-03    -228.276E-03     201.174E-03    -239.293E-03     467.364E-03    -227.963E-03     169.652E-03
             818     10.0322E-03     128.786E-03    -39.5211E+06     58.3515E+06     72.3109E+06     2.78541E+06    -229.260E-03     457.492E-03    -228.232E-03     197.295E-03    -238.398E-03     466.487E-03    -227.898E-03     165.436E-03
             819     10.7496E-03     129.035E-03    -32.7239E+06     62.9992E+06     82.8160E+06     2.79523E+06    -228.044E-03     456.236E-03    -228.191E-03     188.055E-03    -236.893E-03     464.952E-03    -227.821E-03     156.543E-03
             820     11.4660E-03     129.273E-03    -25.6642E+06     69.2566E+06     92.6967E+06     1.75997E+06    -226.494E-03     454.622E-03    -228.129E-03     174.062E-03    -234.703E-03     462.717E-03    -227.728E-03     143.436E-03
             821     12.1885E-03     129.474E-03    -18.5082E+06     75.2704E+06     97.2702E+06     932.722E+03    -225.674E-03     453.714E-03    -228.040E-03     152.574E-03    -232.711E-03     460.670E-03    -227.636E-03     123.757E-03
             822     12.8985E-03     129.656E-03    -10.8128E+06     83.2361E+06      98.949E+06     994.020E+03    -224.637E-03     452.578E-03    -227.941E-03     135.150E-03    -230.814E-03     458.725E-03    -227.551E-03     107.589E-03
             823     13.6282E-03     129.807E-03      -4.599E+06     88.9698E+06     99.0812E+06     450.733E+03    -224.198E-03     452.033E-03    -227.835E-03     86.3609E-03    -228.115E-03     455.963E-03    -227.462E-03     64.7224E-03
             824     716.246E-06     127.940E-03    -143.289E+06    -321.834E+06    -140.397E+06    -128.045E+03    -228.420E-03     457.041E-03    -228.621E-03     23.0727E-03    -228.546E-03     455.925E-03    -228.649E-03     20.3817E-03
             825     1.43227E-03     127.986E-03    -139.346E+06    -314.423E+06    -129.560E+06     354.296E+03    -228.515E-03     456.965E-03    -228.449E-03     42.1268E-03    -228.816E-03     456.031E-03    -228.439E-03     37.1895E-03
             826     2.14887E-03     128.055E-03    -133.657E+06    -303.450E+06    -113.832E+06     462.323E+03    -228.802E-03     457.211E-03    -228.409E-03     62.0735E-03    -229.400E-03     456.588E-03    -228.344E-03     54.6751E-03
             827     2.86530E-03     128.152E-03    -126.299E+06    -280.628E+06    -94.8626E+06     567.061E+03    -229.364E-03     457.778E-03    -228.414E-03     81.6137E-03    -230.395E-03     457.639E-03    -228.298E-03     71.6596E-03
             828     3.58147E-03     128.275E-03    -118.293E+06    -250.131E+06    -74.1051E+06     1.29075E+06    -229.891E-03     458.339E-03    -228.448E-03     100.510E-03    -231.494E-03     458.849E-03    -228.284E-03     87.9047E-03
             829     4.29799E-03     128.424E-03    -109.498E+06    -223.418E+06    -54.4434E+06     2.11283E+06    -230.346E-03     458.824E-03    -228.479E-03     119.020E-03    -232.652E-03     460.107E-03    -228.268E-03     103.659E-03
             830     5.01465E-03     128.595E-03    -100.510E+06    -190.265E+06    -35.4061E+06     2.75164E+06    -230.881E-03     459.374E-03    -228.493E-03     136.729E-03    -234.034E-03     461.597E-03    -228.248E-03     118.545E-03
             831     5.73079E-03     128.791E-03    -91.5623E+06    -152.226E+06    -16.8487E+06     3.16923E+06    -231.420E-03     459.926E-03    -228.506E-03     153.321E-03    -235.555E-03     463.245E-03    -228.237E-03     132.284E-03
             832     6.44737E-03     129.007E-03    -82.6007E+06    -114.207E+06     1.43980E+06     3.77882E+06    -231.758E-03     460.283E-03    -228.524E-03     168.507E-03    -236.983E-03     464.805E-03    -228.232E-03     144.670E-03
             833     7.16306E-03     129.241E-03    -73.6676E+06    -71.0267E+06     19.5444E+06     4.31114E+06    -231.746E-03     460.269E-03    -228.523E-03     181.988E-03    -238.120E-03     466.072E-03    -228.215E-03     155.554E-03
             834     7.88049E-03     129.492E-03    -64.7032E+06    -22.1703E+06     37.8359E+06     4.68874E+06    -231.491E-03     459.983E-03    -228.492E-03     192.796E-03    -238.979E-03     467.053E-03    -228.177E-03     164.111E-03
             835     8.59665E-03     129.752E-03    -56.0810E+06     14.6347E+06     50.5627E+06     4.15407E+06    -230.899E-03     459.329E-03    -228.430E-03     199.555E-03    -239.294E-03     467.430E-03    -228.117E-03     169.158E-03
             836     9.31429E-03     130.019E-03    -48.3477E+06     39.6039E+06     60.0112E+06     3.35592E+06    -230.059E-03     458.410E-03    -228.351E-03     201.150E-03    -239.027E-03     467.173E-03    -228.038E-03     169.698E-03
             837     10.0320E-03     130.278E-03    -40.7660E+06     57.6416E+06     71.3290E+06     2.94930E+06    -229.111E-03     457.396E-03    -228.285E-03     197.156E-03    -238.243E-03     466.381E-03    -227.953E-03     165.326E-03
             838     10.7484E-03     130.534E-03    -32.1125E+06     64.4429E+06     83.3677E+06     2.63656E+06    -227.672E-03     455.900E-03    -228.228E-03     187.325E-03    -236.501E-03     464.602E-03    -227.858E-03     155.861E-03
             839     11.4693E-03     130.759E-03    -23.9777E+06     70.4874E+06     93.5674E+06     2.44594E+06    -226.586E-03     454.745E-03    -228.159E-03     173.109E-03    -234.770E-03     462.823E-03    -227.759E-03     142.474E-03
             840     12.1813E-03     130.976E-03    -17.0843E+06     77.6073E+06     98.7251E+06     1.58013E+06    -225.502E-03     453.574E-03    -228.071E-03     152.499E-03    -232.548E-03     460.548E-03    -227.666E-03     123.657E-03
             841     12.9066E-03     131.142E-03    -11.4134E+06     84.2659E+06     99.2151E+06     118.669E+03    -224.595E-03     452.563E-03    -227.969E-03     133.163E-03    -230.751E-03     458.691E-03    -227.578E-03     105.563E-03
             842     13.6173E-03     131.297E-03    -5.81896E+06     88.5042E+06     98.0450E+06    -38.9552E+03    -224.506E-03     452.379E-03    -227.873E-03     82.9936E-03    -228.367E-03     456.249E-03    -227.503E-03     61.3570E-03
             843     716.355E-06     129.439E-03    -143.369E+06    -321.945E+06    -140.704E+06     436.588E+03    -228.451E-03     456.729E-03    -228.278E-03     23.0033E-03    -228.575E-03     455.612E-03    -228.307E-03     20.3546E-03
             844     1.43233E-03     129.480E-03    -139.588E+06    -314.533E+06    -129.527E+06     21.6672E+03    -228.743E-03     457.117E-03    -228.374E-03     41.8597E-03    -229.045E-03     456.182E-03    -228.363E-03     36.9078E-03
             845     2.14908E-03     129.550E-03    -133.659E+06    -304.032E+06    -114.508E+06     355.887E+03    -229.109E-03     457.563E-03    -228.455E-03     61.5831E-03    -229.702E-03     456.935E-03    -228.393E-03     54.1793E-03
             846     2.86511E-03     129.648E-03    -126.955E+06    -282.342E+06    -95.1754E+06     1.00607E+06    -229.560E-03     458.084E-03    -228.524E-03     81.0935E-03    -230.588E-03     457.935E-03    -228.406E-03     71.1399E-03
             847     3.58104E-03     129.771E-03    -118.670E+06    -251.706E+06    -73.8250E+06     1.75852E+06    -229.953E-03     458.524E-03    -228.570E-03     100.325E-03    -231.556E-03     459.026E-03    -228.402E-03     87.7127E-03
             848     4.29750E-03     129.919E-03    -109.631E+06    -225.476E+06    -54.1894E+06     2.27529E+06    -230.558E-03     459.165E-03    -228.606E-03     118.728E-03    -232.860E-03     460.433E-03    -228.391E-03     103.349E-03
             849     5.01368E-03     130.092E-03    -100.412E+06    -192.691E+06    -35.5709E+06     2.95447E+06    -231.195E-03     459.837E-03    -228.642E-03     136.236E-03    -234.337E-03     462.042E-03    -228.395E-03     118.023E-03
             850     5.72976E-03     130.287E-03    -91.2777E+06    -153.776E+06    -16.7735E+06     3.95808E+06    -231.530E-03     460.199E-03    -228.669E-03     152.982E-03    -235.656E-03     463.503E-03    -228.397E-03     131.945E-03
             851     6.44586E-03     130.503E-03    -82.1842E+06    -115.768E+06     1.72779E+06     4.57533E+06    -231.616E-03     460.285E-03    -228.669E-03     168.544E-03    -236.831E-03     464.792E-03    -228.374E-03     144.746E-03
             852     7.16299E-03     130.738E-03    -73.0653E+06    -72.7601E+06     19.7023E+06     5.03773E+06    -231.687E-03     460.327E-03    -228.640E-03     182.094E-03    -238.051E-03     466.116E-03    -228.330E-03     155.686E-03
             853     7.87920E-03     130.986E-03    -63.7404E+06    -23.5123E+06     38.1836E+06     5.50619E+06    -231.450E-03     460.043E-03    -228.593E-03     192.707E-03    -238.925E-03     467.098E-03    -228.276E-03     164.043E-03
             854     8.59649E-03     131.249E-03    -54.9457E+06     15.5871E+06     51.7626E+06     5.84509E+06    -230.847E-03     459.368E-03    -228.521E-03     199.039E-03    -239.224E-03     467.455E-03    -228.205E-03     168.673E-03
             855     9.31403E-03     131.510E-03    -46.7270E+06     41.8166E+06     61.7420E+06     5.26390E+06    -230.090E-03     458.530E-03    -228.439E-03     200.512E-03    -239.044E-03     467.287E-03    -228.124E-03     169.062E-03
             856     10.0302E-03     131.777E-03    -38.5298E+06     59.7532E+06     73.0534E+06     3.68855E+06    -228.896E-03     457.263E-03    -228.366E-03     196.161E-03    -238.000E-03     466.230E-03    -228.032E-03     164.362E-03
             857     10.7499E-03     132.021E-03    -31.1085E+06     65.5613E+06     83.7911E+06     2.26961E+06    -227.748E-03     456.052E-03    -228.304E-03     186.179E-03    -236.553E-03     464.737E-03    -227.935E-03     154.679E-03
             858     11.4637E-03     132.259E-03    -23.7352E+06     70.7525E+06     93.6768E+06     1.66849E+06    -226.489E-03     454.726E-03    -228.237E-03     172.539E-03    -234.662E-03     462.794E-03    -227.837E-03     141.883E-03
             859     12.1874E-03     132.463E-03    -16.2122E+06     78.4039E+06     99.5376E+06     2.08401E+06    -225.154E-03     453.291E-03    -228.137E-03     151.149E-03    -232.153E-03     460.223E-03    -227.730E-03     122.418E-03
             860     12.8996E-03     132.638E-03    -9.88067E+06     86.5840E+06     100.668E+06     2.33271E+06    -224.378E-03     452.393E-03    -228.014E-03     134.482E-03    -230.538E-03     458.533E-03    -227.622E-03     107.017E-03
             861     13.6188E-03     132.799E-03    -4.92678E+06     90.3329E+06     99.0809E+06     821.376E+03    -224.005E-03     451.895E-03    -227.890E-03     86.9559E-03    -227.937E-03     455.842E-03    -227.518E-03     65.3045E-03
             862     716.370E-06     130.932E-03    -143.448E+06    -321.991E+06    -140.965E+06    -303.010E+03    -228.531E-03     456.955E-03    -228.425E-03     22.7060E-03    -228.654E-03     455.837E-03    -228.455E-03     20.0595E-03
             863     1.43294E-03     130.976E-03    -139.667E+06    -315.032E+06    -130.390E+06     235.156E+03    -228.961E-03     457.469E-03    -228.508E-03     41.4481E-03    -229.258E-03     456.530E-03    -228.501E-03     36.5140E-03
             864     2.14784E-03     131.046E-03    -134.750E+06    -305.026E+06    -114.991E+06     651.235E+03    -229.422E-03     458.060E-03    -228.638E-03     61.5167E-03    -230.020E-03     457.429E-03    -228.575E-03     54.0996E-03
             865     2.86388E-03     131.144E-03    -127.284E+06    -283.711E+06    -95.1582E+06     1.07285E+06    -229.618E-03     458.334E-03    -228.716E-03     81.0323E-03    -230.646E-03     458.179E-03    -228.596E-03     71.0623E-03
             866     3.58087E-03     131.266E-03    -118.688E+06    -254.071E+06    -73.9254E+06     1.75242E+06    -230.104E-03     458.850E-03    -228.746E-03     100.079E-03    -231.701E-03     459.338E-03    -228.575E-03     87.4596E-03
             867     4.29671E-03     131.416E-03    -109.733E+06    -227.610E+06    -54.4137E+06     2.59573E+06    -230.806E-03     459.592E-03    -228.786E-03     118.689E-03    -233.102E-03     460.848E-03    -228.569E-03     103.300E-03
             868     5.01239E-03     131.588E-03    -100.695E+06    -194.895E+06    -35.6544E+06     3.27323E+06    -231.295E-03     460.116E-03    -228.821E-03     136.498E-03    -234.439E-03     462.314E-03    -228.571E-03     118.277E-03
             869     5.72874E-03     131.783E-03    -91.5595E+06    -156.221E+06    -17.1468E+06     4.18311E+06    -231.499E-03     460.325E-03    -228.827E-03     153.097E-03    -235.623E-03     463.620E-03    -228.553E-03     132.055E-03
             870     6.44551E-03     131.999E-03    -82.3368E+06    -117.737E+06     1.37413E+06     4.84678E+06    -231.650E-03     460.459E-03    -228.809E-03     168.275E-03    -236.856E-03     464.952E-03    -228.512E-03     144.470E-03
             871     7.16201E-03     132.233E-03    -73.0056E+06    -74.5776E+06     19.6254E+06     5.05797E+06    -231.691E-03     460.463E-03    -228.773E-03     181.529E-03    -238.037E-03     466.229E-03    -228.461E-03     155.119E-03
             872     7.87862E-03     132.484E-03    -63.8598E+06    -25.7228E+06     37.8967E+06     5.63924E+06    -231.430E-03     460.150E-03    -228.720E-03     191.735E-03    -238.880E-03     467.172E-03    -228.401E-03     163.067E-03
             873     8.59579E-03     132.741E-03    -54.7447E+06     13.9267E+06     51.7319E+06     6.41935E+06    -231.003E-03     459.657E-03    -228.653E-03     198.043E-03    -239.360E-03     467.718E-03    -228.335E-03     167.635E-03
             874     9.31153E-03     133.009E-03    -46.3214E+06     43.7480E+06     62.8067E+06     6.28849E+06    -230.057E-03     458.634E-03    -228.577E-03     199.325E-03    -238.991E-03     467.377E-03    -228.259E-03     167.867E-03
             875     10.0307E-03     133.265E-03    -39.3857E+06     63.2847E+06     74.3100E+06     5.02285E+06    -228.894E-03     457.398E-03    -228.504E-03     195.099E-03    -237.989E-03     466.362E-03    -228.167E-03     163.291E-03
             876     10.7455E-03     133.521E-03    -32.5902E+06     68.1841E+06     85.4603E+06     3.55148E+06    -227.626E-03     456.066E-03    -228.440E-03     185.424E-03    -236.426E-03     464.745E-03    -228.064E-03     153.945E-03
             877     11.4671E-03     133.747E-03    -25.9602E+06     72.7946E+06     94.7298E+06     2.08932E+06    -226.327E-03     454.688E-03    -228.361E-03     171.397E-03    -234.480E-03     462.733E-03    -227.955E-03     140.790E-03
             878     12.1799E-03     133.959E-03    -19.4727E+06     77.9544E+06     98.6012E+06     738.629E+03    -224.981E-03     453.227E-03    -228.246E-03     150.333E-03    -231.973E-03     460.141E-03    -227.838E-03     121.597E-03
             879     12.9024E-03     134.129E-03    -12.3329E+06     86.2779E+06     99.8444E+06     695.297E+03    -223.135E-03     451.219E-03    -228.084E-03     131.910E-03    -229.230E-03     457.287E-03    -227.692E-03     104.616E-03
             880     13.6261E-03     134.281E-03    -5.50440E+06     92.4633E+06     100.366E+06     1.10546E+06    -223.407E-03     451.325E-03    -227.919E-03     83.0282E-03    -227.242E-03     455.178E-03    -227.543E-03     61.6481E-03
             881     715.625E-06     132.428E-03    -144.059E+06    -322.858E+06    -141.659E+06     138.376E+03    -229.238E-03     457.674E-03    -228.436E-03     22.8640E-03    -229.362E-03     456.554E-03    -228.467E-03     20.2111E-03
             882     1.43127E-03     132.473E-03    -140.803E+06    -315.788E+06    -130.582E+06     584.386E+03    -229.086E-03     457.907E-03    -228.821E-03     41.7615E-03    -229.389E-03     456.967E-03    -228.812E-03     36.8265E-03
             883     2.14821E-03     132.543E-03    -135.049E+06    -305.528E+06    -115.732E+06     626.961E+03    -229.375E-03     458.230E-03    -228.855E-03     61.4336E-03    -229.971E-03     457.597E-03    -228.794E-03     54.0229E-03
             884     2.86431E-03     132.640E-03    -127.983E+06    -285.435E+06    -96.1354E+06     1.23551E+06    -229.879E-03     458.779E-03    -228.900E-03     80.9604E-03    -230.907E-03     458.618E-03    -228.781E-03     70.9724E-03
             885     3.57938E-03     132.763E-03    -119.704E+06    -256.502E+06    -74.6094E+06     1.81923E+06    -230.389E-03     459.339E-03    -228.950E-03     100.190E-03    -231.988E-03     459.819E-03    -228.778E-03     87.5393E-03
             886     4.29564E-03     132.912E-03    -110.660E+06    -230.004E+06    -55.1125E+06     2.62674E+06    -230.833E-03     459.815E-03    -228.983E-03     118.763E-03    -233.129E-03     461.063E-03    -228.764E-03     103.369E-03
             887     5.01228E-03     133.085E-03    -101.551E+06    -196.926E+06    -36.1353E+06     3.56639E+06    -231.250E-03     460.240E-03    -228.990E-03     136.285E-03    -234.389E-03     462.424E-03    -228.738E-03     118.075E-03
             888     5.72824E-03     133.280E-03    -92.2890E+06    -158.372E+06    -17.6071E+06     3.94310E+06    -231.701E-03     460.689E-03    -228.987E-03     152.627E-03    -235.821E-03     463.970E-03    -228.712E-03     131.546E-03
             889     6.44431E-03     133.494E-03    -82.8751E+06    -120.074E+06     595.061E+03     4.50700E+06    -232.005E-03     460.994E-03    -228.989E-03     167.581E-03    -237.207E-03     465.474E-03    -228.692E-03     143.692E-03
             890     7.16014E-03     133.730E-03    -73.8692E+06    -76.7505E+06     18.8104E+06     5.42285E+06    -231.855E-03     460.826E-03    -228.971E-03     180.527E-03    -238.188E-03     466.570E-03    -228.659E-03     154.070E-03
             891     7.87732E-03     133.977E-03    -65.2544E+06    -27.9213E+06     37.0419E+06     6.13351E+06    -231.578E-03     460.505E-03    -228.927E-03     190.760E-03    -239.014E-03     467.502E-03    -228.606E-03     162.051E-03
             892     8.59295E-03     134.240E-03    -57.1665E+06     11.6898E+06     50.3352E+06     6.60828E+06    -230.965E-03     459.821E-03    -228.857E-03     196.933E-03    -239.303E-03     467.852E-03    -228.539E-03     166.518E-03
             893     9.31143E-03     134.500E-03    -49.3453E+06     43.7929E+06     61.6075E+06     6.73807E+06    -230.020E-03     458.792E-03    -228.771E-03     198.225E-03    -238.940E-03     467.513E-03    -228.455E-03     166.764E-03
             894     10.0265E-03     134.765E-03    -41.0754E+06     66.2325E+06     74.8079E+06     5.92078E+06    -228.767E-03     457.457E-03    -228.690E-03     194.163E-03    -237.853E-03     466.415E-03    -228.352E-03     162.364E-03
             895     10.7467E-03     135.010E-03    -32.8315E+06     71.4724E+06     87.0537E+06     4.35358E+06    -227.361E-03     455.972E-03    -228.611E-03     184.535E-03    -236.140E-03     464.635E-03    -228.231E-03     153.112E-03
             896     11.4609E-03     135.244E-03    -24.8491E+06     75.2756E+06     97.0274E+06     3.17784E+06    -225.941E-03     454.448E-03    -228.507E-03     171.086E-03    -234.086E-03     462.491E-03    -228.095E-03     140.540E-03
             897     12.1830E-03     135.451E-03    -17.6286E+06     80.7855E+06     101.820E+06     2.51852E+06    -224.373E-03     452.732E-03    -228.359E-03     150.235E-03    -231.369E-03     459.657E-03    -227.941E-03     121.587E-03
             898     12.8994E-03     135.618E-03    -12.3173E+06     88.2248E+06     101.802E+06     393.505E+03    -223.610E-03     451.794E-03    -228.184E-03     132.531E-03    -229.753E-03     457.912E-03    -227.786E-03     105.091E-03
             899     13.6104E-03     135.778E-03    -5.88246E+06     92.4776E+06     100.648E+06    -283.434E+03    -222.558E-03     450.558E-03    -228.000E-03     85.7749E-03    -226.467E-03     454.483E-03    -227.623E-03     64.2620E-03
             900     716.135E-06     133.927E-03    -145.693E+06    -324.001E+06    -142.387E+06     897.698E+03    -229.337E-03     458.197E-03    -228.859E-03     22.5902E-03    -229.468E-03     457.074E-03    -228.890E-03     19.9433E-03
             901     1.43188E-03     133.969E-03    -141.606E+06    -316.914E+06    -131.852E+06     912.065E+03    -229.240E-03     458.301E-03    -229.061E-03     41.7492E-03    -229.545E-03     457.360E-03    -229.055E-03     36.7864E-03
             902     2.14704E-03     134.040E-03    -136.373E+06    -306.707E+06    -116.755E+06     1.35898E+06    -229.507E-03     458.569E-03    -229.062E-03     61.4564E-03    -230.105E-03     457.934E-03    -229.004E-03     54.0502E-03
             903     2.86282E-03     134.137E-03    -129.490E+06    -286.859E+06    -96.9534E+06     1.60823E+06    -230.075E-03     459.170E-03    -229.096E-03     81.1549E-03    -231.108E-03     459.007E-03    -228.977E-03     71.1596E-03
             904     3.57936E-03     134.261E-03    -121.015E+06    -258.217E+06    -75.2664E+06     1.97192E+06    -230.695E-03     459.852E-03    -229.157E-03     100.116E-03    -232.298E-03     460.327E-03    -228.984E-03     87.4342E-03
             905     4.29510E-03     134.408E-03    -111.846E+06    -232.116E+06    -55.8781E+06     2.43938E+06    -231.115E-03     460.325E-03    -229.210E-03     118.233E-03    -233.412E-03     461.563E-03    -228.990E-03     102.790E-03
             906     5.01051E-03     134.582E-03    -102.279E+06    -199.228E+06    -37.1395E+06     3.03493E+06    -231.501E-03     460.731E-03    -229.230E-03     135.511E-03    -234.634E-03     462.901E-03    -228.979E-03     117.238E-03
             907     5.72697E-03     134.776E-03    -92.8416E+06    -160.500E+06    -18.6476E+06     3.73498E+06    -231.958E-03     461.196E-03    -229.238E-03     151.807E-03    -236.067E-03     464.460E-03    -228.964E-03     130.670E-03
             908     6.44234E-03     134.994E-03    -84.0041E+06    -122.959E+06    -695.344E+03     4.65623E+06    -232.164E-03     461.409E-03    -229.245E-03     166.732E-03    -237.354E-03     465.867E-03    -228.949E-03     142.801E-03
             909     7.15903E-03     135.224E-03    -75.0710E+06    -79.9592E+06     17.3922E+06     5.97736E+06    -232.181E-03     461.417E-03    -229.235E-03     179.746E-03    -238.507E-03     467.142E-03    -228.924E-03     153.220E-03
             910     7.87416E-03     135.477E-03    -66.2448E+06    -31.3714E+06     35.5660E+06     7.39399E+06    -231.723E-03     460.920E-03    -229.197E-03     189.939E-03    -239.142E-03     467.889E-03    -228.877E-03     161.207E-03
             911     8.59196E-03     135.732E-03    -57.8463E+06     11.0088E+06     49.8229E+06     8.19502E+06    -230.932E-03     460.050E-03    -229.118E-03     195.995E-03    -239.248E-03     468.056E-03    -228.801E-03     165.593E-03
             912     9.30721E-03     135.999E-03    -49.2923E+06     45.3318E+06     61.6511E+06     6.98407E+06    -229.926E-03     458.940E-03    -229.014E-03     197.353E-03    -238.827E-03     467.648E-03    -228.700E-03     165.892E-03
             913     10.0264E-03     136.256E-03    -40.5007E+06     67.2804E+06     74.4972E+06     5.64901E+06    -228.550E-03     457.459E-03    -228.910E-03     193.072E-03    -237.597E-03     466.386E-03    -228.576E-03     161.315E-03
             914     10.7418E-03     136.506E-03    -32.3867E+06     73.9225E+06     87.6585E+06     5.02617E+06    -226.999E-03     455.805E-03    -228.805E-03     183.731E-03    -235.757E-03     464.455E-03    -228.427E-03     152.360E-03
             915     11.4629E-03     136.736E-03    -24.9253E+06     77.7512E+06     98.4527E+06     3.60037E+06    -225.108E-03     453.772E-03    -228.663E-03     169.764E-03    -233.214E-03     461.779E-03    -228.248E-03     139.361E-03
             916     12.1796E-03     136.940E-03    -17.5513E+06     81.5331E+06     103.094E+06     2.44064E+06    -223.753E-03     452.222E-03    -228.469E-03     149.359E-03    -230.714E-03     459.111E-03    -228.046E-03     120.823E-03
             917     12.8991E-03     137.115E-03    -9.77570E+06     92.1060E+06     105.506E+06     2.41799E+06    -222.483E-03     450.728E-03    -228.246E-03     132.471E-03    -228.612E-03     456.844E-03    -227.838E-03     105.217E-03
             918     13.6269E-03     137.265E-03    -4.66322E+06     95.4878E+06     104.106E+06     826.786E+03    -221.977E-03     449.991E-03    -228.014E-03     84.3519E-03    -225.856E-03     453.891E-03    -227.626E-03     63.0040E-03
             919     715.019E-06     135.422E-03    -146.745E+06    -326.093E+06    -145.396E+06     796.593E+03    -229.296E-03     458.554E-03    -229.258E-03     22.8530E-03    -229.426E-03     457.427E-03    -229.299E-03     20.1618E-03
             920     1.43089E-03     135.468E-03    -143.784E+06    -319.160E+06    -133.911E+06     1.44606E+06    -229.396E-03     458.631E-03    -229.235E-03     41.7027E-03    -229.703E-03     457.683E-03    -229.233E-03     36.7691E-03
             921     2.14728E-03     135.536E-03    -137.896E+06    -308.208E+06    -118.086E+06     1.75390E+06    -229.919E-03     459.186E-03    -229.268E-03     61.4863E-03    -230.522E-03     458.549E-03    -229.211E-03     54.0632E-03
             922     2.86317E-03     135.635E-03    -130.794E+06    -287.715E+06    -98.2102E+06     1.71705E+06    -230.534E-03     459.895E-03    -229.362E-03     80.8176E-03    -231.569E-03     459.730E-03    -229.246E-03     70.7830E-03
             923     3.57807E-03     135.758E-03    -122.217E+06    -259.490E+06    -76.4571E+06     1.72930E+06    -231.014E-03     460.472E-03    -229.458E-03     99.3631E-03    -232.615E-03     460.939E-03    -229.287E-03     86.6456E-03
             924     4.29322E-03     135.908E-03    -112.800E+06    -233.809E+06    -57.1656E+06     2.02542E+06    -231.483E-03     461.010E-03    -229.527E-03     117.483E-03    -233.777E-03     462.239E-03    -229.310E-03     101.972E-03
             925     5.00946E-03     136.078E-03    -103.591E+06    -201.440E+06    -38.8342E+06     2.62243E+06    -231.981E-03     461.550E-03    -229.569E-03     135.028E-03    -235.116E-03     463.715E-03    -229.321E-03     116.663E-03
             926     5.72412E-03     136.276E-03    -94.4376E+06    -163.160E+06    -20.5185E+06     3.40174E+06    -232.188E-03     461.776E-03    -229.588E-03     151.132E-03    -236.292E-03     465.025E-03    -229.317E-03     129.936E-03
             927     6.44083E-03     136.488E-03    -84.8005E+06    -126.117E+06    -2.19420E+06     4.32408E+06    -232.339E-03     461.928E-03    -229.589E-03     165.904E-03    -237.513E-03     466.360E-03    -229.294E-03     141.929E-03
             928     7.15578E-03     136.725E-03    -75.2126E+06    -84.5839E+06     15.5639E+06     5.66236E+06    -232.303E-03     461.871E-03    -229.568E-03     178.782E-03    -238.600E-03     467.555E-03    -229.258E-03     152.222E-03
             929     7.87272E-03     136.971E-03    -65.7167E+06    -36.8739E+06     33.7113E+06     7.90235E+06    -231.817E-03     461.336E-03    -229.519E-03     188.731E-03    -239.195E-03     468.252E-03    -229.201E-03     159.984E-03
             930     8.58808E-03     137.231E-03    -56.4425E+06     9.59030E+06     49.6027E+06     9.14737E+06    -230.993E-03     460.424E-03    -229.431E-03     194.887E-03    -239.277E-03     468.397E-03    -229.115E-03     164.464E-03
             931     9.30628E-03     137.492E-03    -48.1317E+06     49.3457E+06     62.6396E+06     8.18306E+06    -229.720E-03     459.026E-03    -229.306E-03     195.929E-03    -238.578E-03     467.707E-03    -228.995E-03     164.516E-03
             932     10.0220E-03     137.752E-03    -40.8979E+06     69.1363E+06     74.1512E+06     6.25588E+06    -228.244E-03     457.415E-03    -229.171E-03     191.850E-03    -237.256E-03     466.312E-03    -228.841E-03     160.144E-03
             933     10.7415E-03     137.999E-03    -33.2348E+06     74.5063E+06     87.1727E+06     5.25691E+06    -226.421E-03     455.451E-03    -229.031E-03     182.252E-03    -235.138E-03     464.062E-03    -228.655E-03     150.968E-03
             934     11.4581E-03     138.226E-03    -25.5016E+06     80.7014E+06     99.3410E+06     4.66314E+06    -224.500E-03     453.348E-03    -228.849E-03     168.292E-03    -232.571E-03     461.327E-03    -228.432E-03     137.987E-03
             935     12.1786E-03     138.433E-03    -18.6727E+06     85.0363E+06     104.890E+06     2.78734E+06    -222.825E-03     451.434E-03    -228.609E-03     148.681E-03    -229.785E-03     458.326E-03    -228.181E-03     120.232E-03
             936     12.8988E-03     138.600E-03    -13.0402E+06     92.8545E+06     105.264E+06     469.466E+03    -221.771E-03     450.106E-03    -228.335E-03     130.611E-03    -227.880E-03     456.193E-03    -227.924E-03     103.397E-03
             937     13.6116E-03     138.753E-03    -5.82864E+06     96.0607E+06     103.770E+06     612.224E+03    -220.960E-03     449.017E-03    -228.057E-03     82.4827E-03    -224.806E-03     452.882E-03    -227.669E-03     61.2138E-03
             938     715.969E-06     136.923E-03    -150.913E+06    -328.848E+06    -146.687E+06     530.516E+03    -229.451E-03     459.008E-03    -229.557E-03     22.1687E-03    -229.595E-03     457.875E-03    -229.594E-03     19.4433E-03
             939     1.43148E-03     136.964E-03    -146.261E+06    -321.538E+06    -136.564E+06     1.06262E+06    -229.936E-03     459.466E-03    -229.530E-03     41.2887E-03    -230.247E-03     458.512E-03    -229.534E-03     36.3312E-03
             940     2.14630E-03     137.036E-03    -140.359E+06    -309.465E+06    -120.585E+06     1.49298E+06    -230.564E-03     460.235E-03    -229.671E-03     60.7471E-03    -231.169E-03     459.593E-03    -229.622E-03     53.3014E-03
             941     2.86079E-03     137.133E-03    -132.809E+06    -288.159E+06    -99.5129E+06     1.27166E+06    -230.956E-03     460.773E-03    -229.817E-03     80.0342E-03    -231.995E-03     460.606E-03    -229.704E-03     69.9585E-03
             942     3.57620E-03     137.259E-03    -123.906E+06    -260.363E+06    -78.4298E+06     1.31758E+06    -231.264E-03     461.160E-03    -229.896E-03     98.8751E-03    -232.867E-03     461.626E-03    -229.731E-03     86.1092E-03
             943     4.29221E-03     137.405E-03    -114.675E+06    -235.192E+06    -59.2768E+06     1.51696E+06    -231.884E-03     461.834E-03    -229.950E-03     117.072E-03    -234.182E-03     463.062E-03    -229.739E-03     101.492E-03
             944     5.00639E-03     137.580E-03    -105.190E+06    -203.228E+06    -40.8033E+06     1.75174E+06    -232.302E-03     462.294E-03    -229.993E-03     134.291E-03    -235.432E-03     464.448E-03    -229.749E-03     115.862E-03
             945     5.72273E-03     137.772E-03    -95.2169E+06    -165.469E+06    -22.3108E+06     2.13614E+06    -232.545E-03     462.554E-03    -230.009E-03     150.408E-03    -236.640E-03     465.788E-03    -229.743E-03     129.128E-03
             946     6.43714E-03     137.990E-03    -85.4277E+06    -129.974E+06    -4.53921E+06     2.83269E+06    -232.692E-03     462.702E-03    -230.010E-03     165.140E-03    -237.851E-03     467.110E-03    -229.721E-03     141.070E-03
             947     7.15355E-03     138.221E-03    -75.8522E+06    -89.7012E+06     12.9484E+06     4.44275E+06    -232.435E-03     462.417E-03    -229.982E-03     177.592E-03    -238.700E-03     468.056E-03    -229.677E-03     150.980E-03
             948     7.86883E-03     138.470E-03    -66.5093E+06    -44.2750E+06     30.5250E+06     6.77757E+06    -231.940E-03     461.860E-03    -229.920E-03     187.324E-03    -239.276E-03     468.714E-03    -229.606E-03     158.522E-03
             949     8.58576E-03     138.727E-03    -57.7390E+06     5.79118E+06     47.2930E+06     9.11731E+06    -230.925E-03     460.739E-03    -229.814E-03     193.137E-03    -239.156E-03     468.649E-03    -229.502E-03     162.722E-03
             950     9.30139E-03     138.988E-03    -49.5533E+06     51.8474E+06     62.2680E+06     9.38577E+06    -229.462E-03     459.124E-03    -229.663E-03     194.289E-03    -238.282E-03     467.772E-03    -229.355E-03     162.914E-03
             951     10.0201E-03     139.246E-03    -41.3944E+06     73.2607E+06     74.8909E+06     7.58566E+06    -227.699E-03     457.188E-03    -229.489E-03     190.172E-03    -236.672E-03     466.057E-03    -229.160E-03     158.545E-03
             952     10.7371E-03     139.491E-03    -33.7261E+06     75.9338E+06     87.1035E+06     5.61766E+06    -225.680E-03     454.974E-03    -229.295E-03     180.633E-03    -234.345E-03     463.537E-03    -228.921E-03     149.474E-03
             953     11.4575E-03     139.719E-03    -25.9141E+06     81.4242E+06     99.3028E+06     4.71197E+06    -223.727E-03     452.785E-03    -229.058E-03     167.171E-03    -231.775E-03     460.742E-03    -228.642E-03     136.942E-03
             954     12.1767E-03     139.920E-03    -18.0894E+06     88.5514E+06     106.498E+06     4.30746E+06    -222.007E-03     450.774E-03    -228.767E-03     147.276E-03    -228.931E-03     457.640E-03    -228.337E-03     118.968E-03
             955     12.8964E-03     140.092E-03    -10.5193E+06     97.1184E+06     108.892E+06     2.72053E+06    -220.159E-03     448.582E-03    -228.423E-03     131.495E-03    -226.254E-03     454.669E-03    -228.005E-03     104.575E-03
             956     13.6217E-03     140.246E-03    -5.45086E+06     98.1684E+06     105.867E+06     350.655E+03    -219.410E-03     447.459E-03    -228.050E-03     84.5720E-03    -223.296E-03     451.368E-03    -227.655E-03     63.4374E-03
             957     714.774E-06     138.419E-03    -152.060E+06    -330.347E+06    -149.941E+06     307.532E+03    -230.167E-03     460.369E-03    -230.202E-03     21.8788E-03    -230.309E-03     459.233E-03    -230.252E-03     19.1838E-03
             958     1.42967E-03     138.465E-03    -148.630E+06    -323.483E+06    -139.488E+06     932.315E+03    -230.725E-03     460.959E-03    -230.234E-03     40.7606E-03    -231.040E-03     460.003E-03    -230.247E-03     35.7584E-03
             959     2.14442E-03     138.536E-03    -142.866E+06    -309.993E+06    -122.069E+06     846.403E+03    -230.947E-03     461.305E-03    -230.359E-03     60.4135E-03    -231.562E-03     460.667E-03    -230.312E-03     52.9098E-03
             960     2.85967E-03     138.635E-03    -134.872E+06    -287.995E+06    -101.290E+06     533.872E+03    -231.156E-03     461.563E-03    -230.407E-03     79.7060E-03    -232.200E-03     461.400E-03    -230.301E-03     69.5999E-03
             961     3.57492E-03     138.757E-03    -125.980E+06    -260.960E+06    -81.1843E+06     342.977E+03    -231.714E-03     462.145E-03    -230.431E-03     98.4874E-03    -233.323E-03     462.616E-03    -230.276E-03     85.6415E-03
             962     4.28894E-03     138.908E-03    -116.318E+06    -235.430E+06    -61.6841E+06     177.071E+03    -232.297E-03     462.771E-03    -230.474E-03     116.577E-03    -234.596E-03     464.000E-03    -230.272E-03     100.920E-03
             963     5.00473E-03     139.079E-03    -106.271E+06    -204.085E+06    -43.0438E+06    -58.1167E+03    -232.712E-03     463.221E-03    -230.508E-03     133.450E-03    -235.834E-03     465.366E-03    -230.274E-03     114.935E-03
             964     5.71894E-03     139.274E-03    -96.5506E+06    -167.984E+06    -25.2323E+06     56.0235E+03    -233.007E-03     463.532E-03    -230.525E-03     149.395E-03    -237.089E-03     466.748E-03    -230.267E-03     128.006E-03
             965     6.43472E-03     139.489E-03    -86.8786E+06    -133.316E+06    -7.47127E+06     1.10806E+06    -233.010E-03     463.535E-03    -230.526E-03     163.762E-03    -238.141E-03     467.907E-03    -230.244E-03     139.616E-03
             966     7.14935E-03     139.721E-03    -77.3568E+06    -94.8518E+06     9.73148E+06     2.49363E+06    -232.771E-03     463.265E-03    -230.494E-03     176.115E-03    -239.004E-03     468.858E-03    -230.196E-03     149.403E-03
             967     7.86529E-03     139.969E-03    -67.8816E+06    -52.4849E+06     26.6096E+06     4.99391E+06    -232.001E-03     462.421E-03    -230.420E-03     185.598E-03    -239.284E-03     469.199E-03    -230.112E-03     156.743E-03
             968     8.58078E-03     140.224E-03    -58.1677E+06    -762.486E+03     44.3991E+06     8.05612E+06    -230.696E-03     460.978E-03    -230.282E-03     191.365E-03    -238.865E-03     468.809E-03    -229.975E-03     160.954E-03
             969     9.29864E-03     140.485E-03    -48.7619E+06     50.9265E+06     61.1292E+06     9.69413E+06    -229.032E-03     459.114E-03    -230.081E-03     192.601E-03    -237.793E-03     467.705E-03    -229.779E-03     161.286E-03
             970     10.0152E-03     140.740E-03    -40.8129E+06     76.3020E+06     74.4732E+06     9.34863E+06    -226.999E-03     456.845E-03    -229.847E-03     188.439E-03    -235.912E-03     465.669E-03    -229.526E-03     156.950E-03
             971     10.7349E-03     140.984E-03    -33.7008E+06     79.8397E+06     87.8661E+06     7.71561E+06    -224.739E-03     454.329E-03    -229.590E-03     178.980E-03    -233.355E-03     462.853E-03    -229.217E-03     147.993E-03
             972     11.4537E-03     141.207E-03    -26.8224E+06     83.9819E+06     100.933E+06     5.35147E+06    -222.822E-03     452.114E-03    -229.291E-03     165.966E-03    -230.835E-03     460.037E-03    -228.870E-03     135.894E-03
             973     12.1740E-03     141.412E-03    -19.5100E+06     90.5375E+06     108.392E+06     3.31020E+06    -220.785E-03     449.718E-03    -228.933E-03     146.280E-03    -227.695E-03     456.566E-03    -228.494E-03     118.084E-03
             974     12.8960E-03     141.575E-03    -11.4616E+06     99.7115E+06     111.010E+06     2.15771E+06    -218.336E-03     446.838E-03    -228.502E-03     128.419E-03    -224.367E-03     452.860E-03    -228.075E-03     101.707E-03
             975     13.6191E-03     141.723E-03    -4.88053E+06     100.999E+06     108.785E+06     1.21946E+06    -217.943E-03     445.989E-03    -228.047E-03     81.6815E-03    -221.753E-03     449.825E-03    -227.642E-03     60.8064E-03
             976     714.614E-06     139.923E-03    -154.070E+06    -331.269E+06    -152.155E+06     350.538E+03    -231.284E-03     462.163E-03    -230.879E-03     22.3733E-03    -231.432E-03     461.030E-03    -230.936E-03     19.6606E-03
             977     1.42839E-03     139.967E-03    -150.386E+06    -323.902E+06    -140.702E+06     108.152E+03    -231.335E-03     462.408E-03    -231.073E-03     41.2144E-03    -231.661E-03     461.459E-03    -231.089E-03     36.1374E-03
             978     2.14291E-03     140.039E-03    -143.943E+06    -309.633E+06    -123.236E+06    -120.340E+03    -231.376E-03     462.465E-03    -231.089E-03     60.2401E-03    -231.997E-03     461.833E-03    -231.048E-03     52.6738E-03
             979     2.85766E-03     140.135E-03    -136.019E+06    -287.268E+06    -104.045E+06    -475.267E+03    -231.705E-03     462.775E-03    -231.070E-03     79.1889E-03    -232.752E-03     462.620E-03    -230.976E-03     69.0122E-03
             980     3.57183E-03     140.260E-03    -126.977E+06    -259.950E+06    -84.2536E+06    -1.17761E+06    -232.311E-03     463.387E-03    -231.077E-03     98.0485E-03    -233.920E-03     463.868E-03    -230.937E-03     85.1119E-03
             981     4.28709E-03     140.408E-03    -117.459E+06    -234.455E+06    -64.6786E+06    -1.81554E+06    -232.896E-03     464.015E-03    -231.119E-03     115.687E-03    -235.188E-03     465.245E-03    -230.932E-03     99.9356E-03
             982     5.00095E-03     140.581E-03    -107.805E+06    -203.941E+06    -46.0556E+06    -2.28711E+06    -233.317E-03     464.477E-03    -231.160E-03     132.228E-03    -236.429E-03     466.616E-03    -230.938E-03     113.599E-03
             983     5.71569E-03     140.776E-03    -97.9920E+06    -169.385E+06    -27.9503E+06    -2.12034E+06    -233.471E-03     464.651E-03    -231.180E-03     147.910E-03    -237.531E-03     467.843E-03    -230.933E-03     126.421E-03
             984     6.42984E-03     140.989E-03    -88.1396E+06    -136.536E+06    -10.5267E+06    -1.37621E+06    -233.378E-03     464.550E-03    -231.172E-03     162.185E-03    -238.480E-03     468.885E-03    -230.899E-03     137.926E-03
             985     7.14515E-03     141.223E-03    -78.5134E+06    -100.162E+06     6.28746E+06     306.484E+03    -232.883E-03     464.000E-03    -231.117E-03     174.510E-03    -239.072E-03     469.537E-03    -230.826E-03     147.731E-03
             986     7.85999E-03     141.467E-03    -69.0972E+06    -59.7035E+06     22.9370E+06     2.47882E+06    -231.918E-03     462.922E-03    -231.003E-03     183.995E-03    -239.150E-03     469.630E-03    -230.702E-03     155.097E-03
             987     8.57681E-03     141.723E-03    -59.7045E+06    -9.71083E+06     40.3673E+06     5.19261E+06    -230.449E-03     461.268E-03    -230.819E-03     189.588E-03    -238.554E-03     469.009E-03    -230.516E-03     159.168E-03
             988     9.29302E-03     141.980E-03    -50.9362E+06     44.6593E+06     57.2822E+06     8.61226E+06    -228.404E-03     458.959E-03    -230.555E-03     190.557E-03    -237.086E-03     467.453E-03    -230.259E-03     159.345E-03
             989     10.0122E-03     142.234E-03    -42.9875E+06     76.1921E+06     71.6190E+06     10.4940E+06    -225.990E-03     456.227E-03    -230.237E-03     186.362E-03    -234.825E-03     464.973E-03    -229.927E-03     155.084E-03
             990     10.7308E-03     142.474E-03    -35.4954E+06     84.8410E+06     86.8914E+06     9.01335E+06    -223.601E-03     453.493E-03    -229.893E-03     177.344E-03    -232.151E-03     461.967E-03    -229.530E-03     146.604E-03
             991     11.4517E-03     142.698E-03    -27.5767E+06     89.4091E+06     102.512E+06     5.91575E+06    -221.269E-03     450.774E-03    -229.505E-03     165.391E-03    -229.244E-03     458.672E-03    -229.082E-03     135.597E-03
             992     12.1730E-03     142.898E-03    -19.4762E+06     94.3358E+06     112.028E+06     3.30514E+06    -218.826E-03     447.868E-03    -229.042E-03     145.868E-03    -225.703E-03     454.686E-03    -228.590E-03     118.002E-03
             993     12.8957E-03     143.059E-03    -13.1885E+06     101.647E+06     113.522E+06     1.90758E+06    -217.317E-03     445.835E-03    -228.518E-03     130.627E-03    -223.402E-03     451.904E-03    -228.078E-03     104.036E-03
             994     13.6154E-03     143.211E-03    -6.71655E+06     102.125E+06     110.003E+06     1.23561E+06    -216.353E-03     444.334E-03    -227.981E-03     85.9421E-03    -220.265E-03     448.266E-03    -227.570E-03     65.0618E-03
             995     713.391E-06     141.427E-03    -155.581E+06    -331.022E+06    -152.406E+06    -236.128E+03    -231.918E-03     463.778E-03    -231.860E-03     22.4587E-03    -232.075E-03     462.650E-03    -231.916E-03     19.6486E-03
             996     1.42778E-03     141.472E-03    -150.829E+06    -322.206E+06    -140.593E+06    -751.905E+03    -231.928E-03     463.772E-03    -231.844E-03     40.6974E-03    -232.257E-03     462.830E-03    -231.862E-03     35.5976E-03
             997     2.14158E-03     141.542E-03    -144.688E+06    -308.200E+06    -124.643E+06    -1.42287E+06    -232.187E-03     464.015E-03    -231.828E-03     59.7489E-03    -232.811E-03     463.393E-03    -231.795E-03     52.1059E-03
             998     2.85527E-03     141.639E-03    -136.821E+06    -285.355E+06    -106.509E+06    -2.08859E+06    -232.614E-03     464.452E-03    -231.838E-03     78.7949E-03    -233.665E-03     464.313E-03    -231.758E-03     68.5057E-03
             999     3.56975E-03     141.763E-03    -128.103E+06    -257.724E+06    -87.2417E+06    -2.85573E+06    -233.135E-03     465.004E-03    -231.869E-03     97.2949E-03    -234.741E-03     465.493E-03    -231.745E-03     84.2765E-03
            1000     4.28291E-03     141.913E-03    -118.953E+06    -231.810E+06    -67.6893E+06    -4.03458E+06    -233.645E-03     465.564E-03    -231.919E-03     114.726E-03    -235.935E-03     466.805E-03    -231.749E-03     98.8643E-03
            1001     4.99676E-03     142.085E-03    -109.059E+06    -202.561E+06    -48.7987E+06    -5.00971E+06    -233.945E-03     465.903E-03    -231.958E-03     131.266E-03    -237.050E-03     468.044E-03    -231.750E-03     112.507E-03
            1002     5.71071E-03     142.279E-03    -99.1291E+06    -170.524E+06    -30.8088E+06    -4.84432E+06    -234.001E-03     465.966E-03    -231.966E-03     146.708E-03    -238.044E-03     469.142E-03    -231.729E-03     125.090E-03
            1003     6.42514E-03     142.494E-03    -89.7385E+06    -139.129E+06    -13.7101E+06    -3.95432E+06    -233.671E-03     465.601E-03    -231.930E-03     160.806E-03    -238.746E-03     469.904E-03    -231.667E-03     136.449E-03
            1004     7.13944E-03     142.723E-03    -80.1838E+06    -104.822E+06     2.91734E+06    -2.72149E+06    -232.846E-03     464.675E-03    -231.829E-03     172.860E-03    -238.988E-03     470.152E-03    -231.546E-03     146.039E-03
            1005     7.85564E-03     142.968E-03    -70.4022E+06    -66.3461E+06     19.4201E+06    -588.076E+03    -231.717E-03     463.372E-03    -231.656E-03     182.213E-03    -238.879E-03     469.993E-03    -231.360E-03     153.327E-03
            1006     8.57094E-03     143.221E-03    -61.1489E+06    -18.8216E+06     36.4781E+06     2.73479E+06    -230.020E-03     461.426E-03    -231.405E-03     187.600E-03    -238.035E-03     469.051E-03    -231.107E-03     157.257E-03
            1007     9.28890E-03     143.476E-03    -52.0836E+06     33.8657E+06     53.6292E+06     7.18451E+06    -227.500E-03     458.560E-03    -231.060E-03     188.625E-03    -236.075E-03     466.916E-03    -230.766E-03     157.607E-03
            1008     10.0069E-03     143.726E-03    -43.1527E+06     72.8070E+06     68.9119E+06     10.3858E+06    -224.733E-03     455.361E-03    -230.628E-03     184.923E-03    -233.465E-03     463.999E-03    -230.327E-03     153.944E-03
            1009     10.7279E-03     143.965E-03    -34.3821E+06     90.6090E+06     85.9271E+06     9.31711E+06    -221.946E-03     452.101E-03    -230.155E-03     176.471E-03    -230.412E-03     460.517E-03    -229.807E-03     146.097E-03
            1010     11.4492E-03     144.184E-03    -26.1692E+06     94.2262E+06     103.216E+06     6.41547E+06    -219.093E-03     448.731E-03    -229.638E-03     164.686E-03    -226.979E-03     456.559E-03    -229.221E-03     135.368E-03
            1011     12.1732E-03     144.382E-03    -18.6717E+06     98.1170E+06     114.122E+06     4.29053E+06    -216.759E-03     445.806E-03    -229.046E-03     145.545E-03    -223.558E-03     452.556E-03    -228.591E-03     118.152E-03
            1012     12.8977E-03     144.542E-03    -11.8575E+06     104.736E+06     116.658E+06     3.08679E+06    -214.993E-03     443.394E-03    -228.401E-03     130.176E-03    -221.014E-03     449.406E-03    -227.952E-03     104.020E-03
            1013     13.6275E-03     144.690E-03    -6.46917E+06     103.948E+06     112.457E+06     2.04503E+06    -214.752E-03     442.518E-03    -227.765E-03     84.7156E-03    -218.618E-03     446.403E-03    -227.344E-03     64.1233E-03
            1014     713.283E-06     142.935E-03    -155.912E+06    -329.376E+06    -153.037E+06    -472.587E+03    -232.731E-03     465.350E-03    -232.618E-03     22.5707E-03    -232.892E-03     464.232E-03    -232.680E-03     19.7752E-03
            1015     1.42602E-03     142.977E-03    -151.744E+06    -318.647E+06    -142.060E+06    -1.49712E+06    -232.834E-03     465.484E-03    -232.649E-03     40.4504E-03    -233.170E-03     464.561E-03    -232.677E-03     35.3022E-03
            1016     2.13955E-03     143.049E-03    -145.551E+06    -304.944E+06    -126.234E+06    -2.69565E+06    -233.122E-03     465.798E-03    -232.676E-03     59.3813E-03    -233.752E-03     465.195E-03    -232.654E-03     51.6752E-03
            1017     2.85301E-03     143.146E-03    -137.942E+06    -282.118E+06    -108.155E+06    -3.85711E+06    -233.746E-03     466.481E-03    -232.735E-03     78.2842E-03    -234.801E-03     466.358E-03    -232.666E-03     67.9002E-03
            1018     3.56544E-03     143.270E-03    -129.329E+06    -254.097E+06    -89.3826E+06    -5.10715E+06    -234.209E-03     467.022E-03    -232.813E-03     96.4748E-03    -235.817E-03     467.529E-03    -232.704E-03     83.3360E-03
            1019     4.27904E-03     143.419E-03    -120.069E+06    -227.879E+06    -69.7687E+06    -6.30815E+06    -234.339E-03     467.204E-03    -232.866E-03     113.763E-03    -236.626E-03     468.459E-03    -232.710E-03     97.7912E-03
            1020     4.99261E-03     143.591E-03    -110.836E+06    -199.907E+06    -51.1298E+06    -7.59215E+06    -234.466E-03     467.335E-03    -232.869E-03     130.217E-03    -237.563E-03     469.477E-03    -232.674E-03     111.366E-03
            1021     5.70572E-03     143.785E-03    -101.496E+06    -170.961E+06    -33.7859E+06    -7.84359E+06    -234.422E-03     467.256E-03    -232.834E-03     145.642E-03    -238.449E-03     470.413E-03    -232.608E-03     123.933E-03
            1022     6.41941E-03     143.997E-03    -91.5711E+06    -140.055E+06    -16.4417E+06    -7.36889E+06    -233.856E-03     466.605E-03    -232.749E-03     159.451E-03    -238.896E-03     470.870E-03    -232.495E-03     135.045E-03
            1023     7.13438E-03     144.227E-03    -81.3866E+06    -107.770E+06     165.922E+03    -6.74632E+06    -232.866E-03     465.455E-03    -232.589E-03     171.340E-03    -238.951E-03     470.869E-03    -232.314E-03     144.498E-03
            1024     7.84892E-03     144.468E-03    -71.3988E+06    -73.2437E+06     15.8505E+06    -4.65178E+06    -231.281E-03     463.620E-03    -232.339E-03     180.697E-03    -238.355E-03     470.135E-03    -232.050E-03     151.900E-03
            1025     8.56620E-03     144.720E-03    -61.1873E+06    -29.9489E+06     32.3928E+06    -636.639E+03    -228.898E-03     460.872E-03    -231.974E-03     186.418E-03    -236.795E-03     468.351E-03    -231.680E-03     156.334E-03
            1026     9.28352E-03     144.970E-03    -51.6385E+06     19.9742E+06     49.2396E+06     5.25300E+06    -226.128E-03     457.616E-03    -231.487E-03     187.960E-03    -234.571E-03     465.803E-03    -231.195E-03     157.313E-03
            1027     10.0045E-03     145.218E-03    -42.9431E+06     68.4262E+06     65.5306E+06     9.01372E+06    -223.059E-03     453.957E-03    -230.898E-03     184.924E-03    -231.676E-03     462.475E-03    -230.607E-03     154.401E-03
            1028     10.7254E-03     145.453E-03    -34.9071E+06     94.1472E+06     83.1150E+06     8.89250E+06    -219.866E-03     450.127E-03    -230.261E-03     176.967E-03    -228.241E-03     458.472E-03    -229.931E-03     147.144E-03
            1029     11.4497E-03     145.668E-03    -27.5118E+06     97.9799E+06     102.159E+06     7.52749E+06    -217.011E-03     446.613E-03    -229.602E-03     165.418E-03    -224.815E-03     454.371E-03    -229.193E-03     136.688E-03
            1030     12.1743E-03     145.863E-03    -20.5295E+06     102.263E+06     115.255E+06     5.67042E+06    -214.823E-03     443.714E-03    -228.891E-03     147.147E-03    -221.580E-03     450.427E-03    -228.433E-03     120.284E-03
            1031     12.8999E-03     146.021E-03    -13.5919E+06     106.386E+06     118.077E+06     3.59515E+06    -213.502E-03     441.654E-03    -228.152E-03     132.200E-03    -219.516E-03     447.654E-03    -227.696E-03     106.397E-03
            1032     13.6211E-03     146.166E-03    -6.28568E+06     106.905E+06     115.242E+06     2.03354E+06    -212.946E-03     440.384E-03    -227.438E-03     87.6254E-03    -216.840E-03     444.301E-03    -227.007E-03     67.1731E-03
            1033     712.707E-06     144.443E-03    -156.737E+06    -325.925E+06    -155.156E+06    -1.38336E+06    -233.543E-03     466.965E-03    -233.421E-03     22.1872E-03    -233.707E-03     465.865E-03    -233.497E-03     19.4282E-03
            1034     1.42540E-03     144.488E-03    -153.473E+06    -314.182E+06    -144.917E+06    -2.25961E+06    -233.892E-03     467.393E-03    -233.501E-03     40.2184E-03    -234.238E-03     466.499E-03    -233.547E-03     35.0411E-03
            1035     2.13766E-03     144.557E-03    -147.615E+06    -298.857E+06    -128.626E+06    -4.14353E+06    -234.473E-03     468.118E-03    -233.645E-03     59.1030E-03    -235.117E-03     467.550E-03    -233.641E-03     51.3172E-03
            1036     2.84972E-03     144.657E-03    -139.616E+06    -276.525E+06    -109.908E+06    -6.31306E+06    -234.957E-03     468.753E-03    -233.795E-03     77.6908E-03    -236.021E-03     468.658E-03    -233.741E-03     67.2050E-03
            1037     3.56217E-03     144.780E-03    -130.898E+06    -249.540E+06    -90.6899E+06    -7.49783E+06    -235.077E-03     468.963E-03    -233.886E-03     95.5109E-03    -236.687E-03     469.486E-03    -233.788E-03     82.2733E-03
            1038     4.27427E-03     144.929E-03    -121.755E+06    -223.035E+06    -71.1644E+06    -8.71139E+06    -235.054E-03     468.956E-03    -233.902E-03     112.857E-03    -237.339E-03     470.223E-03    -233.758E-03     96.8062E-03
            1039     4.98671E-03     145.100E-03    -112.288E+06    -196.195E+06    -52.5158E+06    -9.91864E+06    -234.908E-03     468.758E-03    -233.850E-03     129.376E-03    -237.992E-03     470.898E-03    -233.665E-03     110.479E-03
            1040     5.70047E-03     145.292E-03    -102.709E+06    -168.716E+06    -35.1415E+06    -10.7104E+06    -234.496E-03     468.229E-03    -233.733E-03     144.753E-03    -238.490E-03     471.362E-03    -233.515E-03     123.063E-03
            1041     6.41420E-03     145.504E-03    -92.8839E+06    -138.968E+06    -18.5612E+06    -11.2085E+06    -233.753E-03     467.300E-03    -233.547E-03     158.725E-03    -238.745E-03     471.523E-03    -233.304E-03     134.381E-03
            1042     7.12826E-03     145.730E-03    -83.2641E+06    -109.659E+06    -2.77726E+06    -10.7434E+06    -232.414E-03     465.692E-03    -233.279E-03     171.069E-03    -238.438E-03     471.039E-03    -233.013E-03     144.375E-03
            1043     7.84450E-03     145.971E-03    -73.8000E+06    -78.6684E+06     12.2933E+06    -9.19705E+06    -230.123E-03     463.010E-03    -232.887E-03     180.805E-03    -237.114E-03     469.424E-03    -232.604E-03     152.305E-03
            1044     8.56155E-03     146.216E-03    -64.6625E+06    -41.8727E+06     26.9305E+06    -5.60649E+06    -227.258E-03     459.602E-03    -232.344E-03     187.140E-03    -235.046E-03     466.933E-03    -232.055E-03     157.504E-03
            1045     9.28254E-03     146.465E-03    -55.2342E+06     3.46495E+06     42.2794E+06     546.813E+03    -224.207E-03     455.873E-03    -231.667E-03     189.162E-03    -232.516E-03     463.876E-03    -231.380E-03     159.087E-03
            1046     10.0029E-03     146.707E-03    -46.2154E+06     61.0222E+06     59.5904E+06     6.49840E+06    -220.779E-03     451.658E-03    -230.878E-03     186.439E-03    -229.263E-03     460.021E-03    -230.602E-03     156.636E-03
            1047     10.7279E-03     146.937E-03    -38.3228E+06     95.0733E+06     77.3321E+06     8.35413E+06    -217.515E-03     447.562E-03    -230.047E-03     179.370E-03    -225.777E-03     455.801E-03    -229.742E-03     150.347E-03
            1048     11.4525E-03     147.150E-03    -30.1864E+06     100.215E+06     97.8390E+06     7.14996E+06    -214.967E-03     444.203E-03    -229.236E-03     168.613E-03    -222.693E-03     451.893E-03    -228.848E-03     140.607E-03
            1049     12.1798E-03     147.340E-03    -21.2848E+06     105.350E+06     115.173E+06     5.98144E+06    -213.156E-03     441.581E-03    -228.425E-03     151.165E-03    -219.889E-03     448.278E-03    -227.971E-03     124.864E-03
            1050     12.9074E-03     147.498E-03    -12.8240E+06     110.333E+06     122.062E+06     4.79374E+06    -212.090E-03     439.711E-03    -227.620E-03     136.801E-03    -218.127E-03     445.739E-03    -227.151E-03     111.405E-03
            1051     13.6393E-03     147.643E-03    -5.77891E+06     110.755E+06     119.297E+06     1.98289E+06    -212.614E-03     439.489E-03    -226.875E-03     91.2728E-03    -216.559E-03     443.460E-03    -226.431E-03     70.8459E-03
            1052     711.694E-06     145.956E-03    -157.234E+06    -319.634E+06    -154.773E+06    -1.68455E+06    -234.526E-03     469.519E-03    -234.993E-03     21.2684E-03    -234.700E-03     468.449E-03    -235.075E-03     18.4555E-03
            1053     1.42367E-03     145.999E-03    -153.799E+06    -307.949E+06    -145.078E+06    -3.62362E+06    -235.002E-03     469.757E-03    -234.755E-03     39.3524E-03    -235.353E-03     468.889E-03    -234.811E-03     34.1577E-03
            1054     2.13507E-03     146.072E-03    -147.268E+06    -290.249E+06    -129.114E+06    -5.94538E+06    -235.576E-03     470.423E-03    -234.847E-03     58.5588E-03    -236.224E-03     469.893E-03    -234.859E-03     50.7228E-03
            1055     2.84598E-03     146.170E-03    -140.216E+06    -269.238E+06    -110.606E+06    -7.87973E+06    -235.734E-03     470.674E-03    -234.940E-03     77.3666E-03    -236.803E-03     470.611E-03    -234.900E-03     66.8450E-03
            1056     3.55742E-03     146.293E-03    -131.964E+06    -244.299E+06    -91.0189E+06    -9.29236E+06    -235.698E-03     470.645E-03    -234.946E-03     95.5001E-03    -237.311E-03     471.186E-03    -234.856E-03     82.2426E-03
            1057     4.26973E-03     146.440E-03    -122.825E+06    -216.691E+06    -71.7794E+06    -10.7263E+06    -235.571E-03     470.445E-03    -234.873E-03     112.941E-03    -237.852E-03     471.728E-03    -234.740E-03     96.8970E-03
            1058     4.98259E-03     146.611E-03    -113.479E+06    -190.976E+06    -53.3539E+06    -12.0941E+06    -235.133E-03     469.862E-03    -234.729E-03     129.603E-03    -238.200E-03     472.003E-03    -234.555E-03     110.774E-03
            1059     5.69513E-03     146.801E-03    -103.930E+06    -164.335E+06    -36.0103E+06    -13.4140E+06    -234.230E-03     468.720E-03    -234.491E-03     145.159E-03    -238.190E-03     471.833E-03    -234.282E-03     123.631E-03
            1060     6.40956E-03     147.011E-03    -94.7801E+06    -136.242E+06    -19.9662E+06    -14.0945E+06    -232.846E-03     466.984E-03    -234.139E-03     159.711E-03    -237.786E-03     471.163E-03    -233.904E-03     135.672E-03
            1061     7.12520E-03     147.236E-03    -85.7921E+06    -109.552E+06    -4.79624E+06    -13.9813E+06    -230.840E-03     464.502E-03    -233.662E-03     172.643E-03    -236.789E-03     469.771E-03    -233.402E-03     146.428E-03
            1062     7.84217E-03     147.470E-03    -76.7285E+06    -82.1079E+06     9.50150E+06    -12.8110E+06    -228.182E-03     461.224E-03    -233.042E-03     182.840E-03    -235.071E-03     467.521E-03    -232.764E-03     154.960E-03
            1063     8.56264E-03     147.712E-03    -67.2380E+06    -50.2941E+06     23.3832E+06    -10.0700E+06    -225.188E-03     457.468E-03    -232.280E-03     189.841E-03    -232.844E-03     464.639E-03    -231.992E-03     160.930E-03
            1064     9.28285E-03     147.956E-03    -57.0026E+06    -11.4454E+06     37.6759E+06    -5.51771E+06    -221.732E-03     453.120E-03    -231.388E-03     192.509E-03    -229.873E-03     460.909E-03    -231.100E-03     163.296E-03
            1065     10.0085E-03     148.193E-03    -46.5346E+06     45.3727E+06     54.6164E+06     2.27912E+06    -218.207E-03     448.592E-03    -230.385E-03     190.416E-03    -226.509E-03     456.732E-03    -230.110E-03     161.574E-03
            1066     10.7338E-03     148.419E-03    -37.4662E+06     91.6270E+06      72.055E+06     8.48400E+06    -215.273E-03     444.627E-03    -229.354E-03     183.806E-03    -223.380E-03     452.718E-03    -229.072E-03     155.751E-03
            1067     11.4627E-03     148.627E-03    -29.9835E+06     105.110E+06     93.1834E+06     8.04222E+06    -213.247E-03     441.656E-03    -228.408E-03     173.419E-03    -220.871E-03     449.276E-03    -228.051E-03     146.257E-03
            1068     12.1905E-03     148.817E-03    -22.7156E+06     107.258E+06     113.245E+06     5.23906E+06    -212.378E-03     439.934E-03    -227.556E-03     155.960E-03    -219.077E-03     446.605E-03    -227.113E-03     130.199E-03
            1069     12.9185E-03     148.971E-03    -14.0419E+06     113.225E+06     123.861E+06     3.10084E+06    -212.656E-03     439.444E-03    -226.788E-03     140.213E-03    -218.713E-03     445.494E-03    -226.313E-03     114.924E-03
            1070     13.6425E-03     149.115E-03    -5.95043E+06     115.124E+06     123.179E+06     1.45527E+06    -214.750E-03     440.906E-03    -226.156E-03     93.2116E-03    -218.728E-03     444.915E-03    -225.699E-03     72.6174E-03
            1071     710.218E-06     147.472E-03    -156.106E+06    -311.092E+06    -154.205E+06    -2.69179E+06    -236.161E-03     472.360E-03    -236.199E-03     21.7911E-03    -236.344E-03     471.333E-03    -236.293E-03     18.9274E-03
            1072     1.42078E-03     147.516E-03    -152.356E+06    -299.274E+06    -143.685E+06    -4.47780E+06    -236.237E-03     472.370E-03    -236.133E-03     39.9222E-03    -236.596E-03     471.543E-03    -236.197E-03     34.6779E-03
            1073     2.13158E-03     147.588E-03    -147.122E+06    -281.511E+06    -128.262E+06    -6.29978E+06    -236.051E-03     472.108E-03    -236.058E-03     58.9859E-03    -236.706E-03     471.614E-03    -236.077E-03     51.1990E-03
            1074     2.84332E-03     147.686E-03    -140.170E+06    -260.846E+06    -109.956E+06    -8.29465E+06    -235.948E-03     471.870E-03    -235.922E-03     77.7722E-03    -237.018E-03     471.836E-03    -235.890E-03     67.3430E-03
            1075     3.55508E-03     147.808E-03    -131.966E+06    -236.550E+06    -90.6449E+06    -10.5442E+06    -235.866E-03     471.619E-03    -235.753E-03     96.2548E-03    -237.472E-03     472.180E-03    -235.672E-03     83.1151E-03
            1076     4.26662E-03     147.955E-03    -123.145E+06    -209.806E+06    -71.7842E+06    -12.2500E+06    -235.433E-03     470.962E-03    -235.529E-03     114.029E-03    -237.697E-03     472.252E-03    -235.405E-03     98.1763E-03
            1077     4.97882E-03     148.123E-03    -113.949E+06    -184.351E+06    -53.4256E+06    -13.6653E+06    -234.534E-03     469.746E-03    -235.212E-03     131.399E-03    -237.573E-03     471.881E-03    -235.047E-03     112.872E-03
            1078     5.69317E-03     148.312E-03    -104.760E+06    -158.610E+06    -35.7131E+06    -14.9000E+06    -233.120E-03     467.892E-03    -234.772E-03     147.778E-03    -237.040E-03     470.981E-03    -234.569E-03     126.684E-03
            1079     6.40826E-03     148.517E-03    -95.6950E+06    -131.991E+06    -19.3629E+06    -15.7811E+06    -231.017E-03     465.198E-03    -234.182E-03     163.013E-03    -235.895E-03     469.325E-03    -233.948E-03     139.588E-03
            1080     7.12590E-03     148.737E-03    -86.6900E+06    -107.397E+06    -4.47393E+06    -15.9518E+06    -228.355E-03     461.785E-03    -233.430E-03     176.378E-03    -234.198E-03     466.953E-03    -233.171E-03     151.000E-03
            1081     7.84630E-03     148.967E-03    -77.7880E+06    -82.5786E+06     9.24864E+06    -15.4914E+06    -225.538E-03     458.073E-03    -232.535E-03     187.310E-03    -232.287E-03     464.226E-03    -232.256E-03     160.415E-03
            1082     8.56712E-03     149.205E-03    -68.7887E+06    -54.7747E+06     22.1958E+06    -14.2332E+06    -222.329E-03     453.845E-03    -231.517E-03     195.031E-03    -229.817E-03     460.831E-03    -231.227E-03     167.221E-03
            1083     9.29329E-03     149.442E-03    -59.6344E+06    -21.5349E+06     35.2976E+06    -11.0691E+06    -218.975E-03     449.373E-03    -230.399E-03     198.349E-03    -226.934E-03     456.943E-03    -230.105E-03     170.278E-03
            1084     10.0189E-03     149.674E-03    -50.1617E+06     25.2235E+06     49.8803E+06    -4.44192E+06    -216.093E-03     445.320E-03    -229.226E-03     196.515E-03    -224.213E-03     453.206E-03    -228.941E-03     168.711E-03
            1085     10.7487E-03     149.896E-03    -40.0977E+06     80.1572E+06     66.0217E+06     4.02646E+06    -213.915E-03     441.990E-03    -228.075E-03     189.550E-03    -221.864E-03     449.890E-03    -227.803E-03     162.412E-03
            1086     11.4768E-03     150.102E-03    -30.5265E+06     108.933E+06     86.5729E+06     7.23895E+06    -212.933E-03     440.013E-03    -227.079E-03     178.820E-03    -220.453E-03     447.560E-03    -226.760E-03     152.366E-03
            1087     12.2064E-03     150.290E-03    -21.7735E+06     111.895E+06     110.155E+06     4.87879E+06    -213.554E-03     439.861E-03    -226.307E-03     160.825E-03    -220.198E-03     446.505E-03    -225.887E-03     135.443E-03
            1088     12.9334E-03     150.447E-03    -14.4571E+06     117.462E+06     125.940E+06     2.12767E+06    -215.796E-03     441.526E-03    -225.730E-03     145.277E-03    -221.901E-03     447.631E-03    -225.250E-03     119.875E-03
            1089     13.6591E-03     150.596E-03    -7.09346E+06     116.569E+06     125.372E+06     1.06226E+06    -218.886E-03     444.224E-03    -225.338E-03     97.5119E-03    -222.947E-03     448.310E-03    -224.870E-03     76.5152E-03
            1090     710.441E-06     148.994E-03    -154.565E+06    -301.063E+06    -152.948E+06    -2.84081E+06    -237.529E-03     473.703E-03    -236.174E-03     22.7551E-03    -237.722E-03     472.722E-03    -236.278E-03     19.9314E-03
            1091     1.41986E-03     149.037E-03    -151.522E+06    -290.200E+06    -142.509E+06    -4.89345E+06    -236.783E-03     473.548E-03    -236.764E-03     41.2202E-03    -237.153E-03     472.763E-03    -236.836E-03     36.0329E-03
            1092     2.13045E-03     149.107E-03    -146.109E+06    -272.890E+06    -127.229E+06    -6.55006E+06    -236.363E-03     472.966E-03    -236.604E-03     60.5511E-03    -237.024E-03     472.509E-03    -236.632E-03     52.8699E-03
            1093     2.84133E-03     149.203E-03    -138.469E+06    -251.334E+06    -108.276E+06    -8.72102E+06    -235.876E-03     472.214E-03    -236.339E-03     79.4588E-03    -236.941E-03     472.210E-03    -236.315E-03     69.2166E-03
            1094     3.55280E-03     149.325E-03    -130.247E+06    -227.548E+06    -88.6576E+06    -10.7611E+06    -235.097E-03     471.073E-03    -235.976E-03     98.3401E-03    -236.684E-03     471.647E-03    -235.901E-03     85.5285E-03
            1095     4.26582E-03     149.469E-03    -121.589E+06    -201.910E+06    -69.2430E+06    -12.8129E+06    -234.111E-03     469.613E-03    -235.502E-03     117.168E-03    -236.344E-03     470.899E-03    -235.379E-03     101.780E-03
            1096     4.98032E-03     149.635E-03    -112.591E+06    -177.189E+06    -50.8182E+06    -14.3349E+06    -232.711E-03     467.621E-03    -234.910E-03     135.248E-03    -235.700E-03     469.729E-03    -234.744E-03     117.342E-03
            1097     5.69565E-03     149.819E-03    -103.532E+06    -152.072E+06    -33.2724E+06    -15.3869E+06    -230.591E-03     464.761E-03    -234.170E-03     152.511E-03    -234.437E-03     467.796E-03    -233.966E-03     132.243E-03
            1098     6.41373E-03     150.021E-03    -94.2149E+06    -126.825E+06    -16.6834E+06    -16.3137E+06    -228.044E-03     461.309E-03    -233.265E-03     168.744E-03    -232.816E-03     465.344E-03    -233.028E-03     146.348E-03
            1099     7.13405E-03     150.234E-03    -85.2110E+06    -104.014E+06    -1.68723E+06    -16.5260E+06    -225.267E-03     457.483E-03    -232.215E-03     183.114E-03    -230.974E-03     462.522E-03    -231.949E-03     158.922E-03
            1100     7.85639E-03     150.460E-03    -76.4501E+06    -79.9564E+06     12.2376E+06    -16.5147E+06    -222.255E-03     453.302E-03    -231.047E-03     194.798E-03    -228.836E-03     459.292E-03    -230.759E-03     169.239E-03
            1101     8.58312E-03     150.691E-03    -68.0159E+06    -54.8420E+06     24.7716E+06    -16.0198E+06    -219.267E-03     449.063E-03    -229.796E-03     202.526E-03    -226.558E-03     455.845E-03    -229.494E-03     176.099E-03
            1102     9.30966E-03     150.923E-03    -59.9067E+06    -26.5554E+06     36.7978E+06    -14.1056E+06    -216.728E-03     445.247E-03    -228.520E-03     205.827E-03    -224.480E-03     452.586E-03    -228.210E-03     179.040E-03
            1103     10.0400E-03     151.152E-03    -50.3799E+06     11.1856E+06     49.7893E+06    -9.82240E+06    -214.991E-03     442.277E-03    -227.286E-03     204.059E-03    -222.903E-03     449.906E-03    -226.980E-03     177.348E-03
            1104     10.7682E-03     151.370E-03    -39.7619E+06     63.3159E+06     64.3969E+06    -2.65227E+06    -214.264E-03     440.429E-03    -226.165E-03     196.904E-03    -222.044E-03     448.106E-03    -225.877E-03     170.553E-03
            1105     11.4986E-03     151.576E-03    -29.7309E+06     105.679E+06     82.3655E+06     3.36339E+06    -214.930E-03     440.202E-03    -225.272E-03     185.828E-03    -222.355E-03     447.659E-03    -224.970E-03     159.839E-03
            1106     12.2250E-03     151.765E-03    -21.1403E+06     117.219E+06     105.514E+06     3.63037E+06    -217.266E-03     441.980E-03    -224.714E-03     167.621E-03    -223.905E-03     448.655E-03    -224.326E-03     142.307E-03
            1107     12.9490E-03     151.927E-03    -13.7003E+06     119.959E+06     126.247E+06     3.16736E+06    -220.771E-03     445.234E-03    -224.463E-03     151.487E-03    -226.947E-03     451.421E-03    -223.985E-03     125.759E-03
            1108     13.6679E-03     152.081E-03    -7.12700E+06     118.157E+06     128.737E+06     2.25662E+06    -224.674E-03     449.093E-03    -224.420E-03     101.175E-03    -228.791E-03     453.232E-03    -223.937E-03     79.7532E-03
            1109     709.594E-06     150.515E-03    -151.486E+06    -291.494E+06    -149.461E+06    -1.88585E+06    -237.018E-03     472.797E-03    -235.779E-03     23.1817E-03    -237.213E-03     471.852E-03    -235.884E-03     20.4638E-03
            1110     1.42075E-03     150.558E-03    -148.909E+06    -279.793E+06    -139.303E+06    -4.68454E+06    -236.102E-03     472.351E-03    -236.249E-03     42.5563E-03    -236.472E-03     471.603E-03    -236.324E-03     37.5591E-03
            1111     2.13140E-03     150.627E-03    -142.806E+06    -263.268E+06    -124.000E+06    -7.53448E+06    -235.610E-03     471.602E-03    -235.992E-03     62.8107E-03    -236.264E-03     471.173E-03    -236.023E-03     55.3865E-03
            1112     2.84277E-03     150.722E-03    -135.257E+06    -242.263E+06    -105.020E+06    -9.17905E+06    -234.580E-03     470.167E-03    -235.586E-03     83.1186E-03    -235.632E-03     470.182E-03    -235.564E-03     73.2697E-03
            1113     3.55600E-03     150.839E-03    -126.394E+06    -218.693E+06    -84.3899E+06    -11.0065E+06    -233.194E-03     468.194E-03    -235.001E-03     103.062E-03    -234.754E-03     468.773E-03    -234.922E-03     90.8068E-03
            1114     4.27082E-03     150.980E-03    -117.200E+06    -194.135E+06    -64.3723E+06    -12.4054E+06    -231.494E-03     465.737E-03    -234.243E-03     122.725E-03    -233.673E-03     466.998E-03    -234.114E-03     108.110E-03
            1115     4.98678E-03     151.142E-03    -108.148E+06    -169.834E+06    -45.2973E+06    -13.3835E+06    -229.283E-03     462.602E-03    -233.318E-03     141.727E-03    -232.189E-03     464.651E-03    -233.142E-03     124.845E-03
            1116     5.70592E-03     151.321E-03    -99.1568E+06    -144.750E+06    -27.7058E+06    -14.5498E+06    -226.772E-03     458.997E-03    -232.225E-03     160.197E-03    -230.503E-03     461.942E-03    -232.010E-03     141.171E-03
            1117     6.42773E-03     151.516E-03    -90.5819E+06    -121.042E+06    -11.5608E+06    -15.4725E+06    -224.157E-03     455.156E-03    -230.999E-03     177.156E-03    -228.774E-03     459.054E-03    -230.750E-03     156.186E-03
            1118     7.15190E-03     151.726E-03    -82.0923E+06    -99.3963E+06     3.28837E+06    -16.0348E+06    -221.418E-03     451.095E-03    -229.677E-03     192.079E-03    -226.937E-03     455.959E-03    -229.397E-03     169.437E-03
            1119     7.87903E-03     151.945E-03    -73.5227E+06    -75.3769E+06     17.2477E+06    -16.4567E+06    -218.818E-03     447.111E-03    -228.293E-03     204.304E-03    -225.188E-03     452.902E-03    -227.991E-03     180.334E-03
            1120     8.60680E-03     152.171E-03    -64.9361E+06    -53.7619E+06     29.4758E+06    -15.9735E+06    -216.860E-03     443.778E-03    -226.918E-03     212.407E-03    -223.926E-03     450.337E-03    -226.598E-03     187.494E-03
            1121     9.33771E-03     152.400E-03    -56.2777E+06    -26.2724E+06     42.0162E+06    -14.8702E+06    -215.757E-03     441.388E-03    -225.630E-03     215.648E-03    -223.291E-03     448.506E-03    -225.300E-03     190.180E-03
            1122     10.0671E-03     152.625E-03    -47.8977E+06     4.39603E+06     53.6745E+06    -12.8673E+06    -215.578E-03     440.078E-03    -224.500E-03     213.470E-03    -223.284E-03     447.474E-03    -224.169E-03     187.812E-03
            1123     10.7983E-03     152.845E-03    -39.8058E+06     47.7009E+06     66.1549E+06    -7.26044E+06    -216.710E-03     440.301E-03    -223.590E-03     205.942E-03    -224.320E-03     447.747E-03    -223.271E-03     180.315E-03
            1124     11.5244E-03     153.051E-03    -31.1931E+06     98.5758E+06     80.8013E+06    -1.08118E+06    -219.357E-03     442.334E-03    -222.977E-03     194.646E-03    -226.701E-03     449.684E-03    -222.671E-03     168.965E-03
            1125     12.2494E-03     153.246E-03     -22.994E+06     116.316E+06     98.1367E+06     1.91884E+06    -223.125E-03     445.887E-03    -222.762E-03     176.344E-03    -229.771E-03     452.581E-03    -222.407E-03     150.976E-03
            1126     12.9688E-03     153.414E-03    -14.6076E+06     119.218E+06     122.553E+06     2.52374E+06    -227.925E-03     450.874E-03    -222.949E-03     160.756E-03    -234.234E-03     457.200E-03    -222.488E-03     134.440E-03
            1127     13.6852E-03     153.577E-03    -5.79800E+06     121.204E+06     133.786E+06     2.10575E+06    -233.650E-03     457.062E-03    -223.412E-03     107.602E-03    -237.892E-03     461.327E-03    -222.910E-03     85.4241E-03
            1128     711.870E-06     152.033E-03    -146.332E+06    -281.951E+06    -144.400E+06    -3.04288E+06    -234.087E-03     468.854E-03    -234.767E-03     23.8919E-03    -234.273E-03     467.938E-03    -234.868E-03     21.3345E-03
            1129     1.42300E-03     152.076E-03    -141.486E+06    -269.071E+06    -132.940E+06    -4.84168E+06    -233.758E-03     467.934E-03    -234.176E-03     45.0965E-03    -234.108E-03     467.212E-03    -234.246E-03     40.4179E-03
            1130     2.13555E-03     152.142E-03    -136.281E+06    -253.350E+06    -116.677E+06    -6.88513E+06    -232.777E-03     466.491E-03    -233.714E-03     66.4093E-03    -233.404E-03     466.072E-03    -233.733E-03     59.4938E-03
            1131     2.84996E-03     152.234E-03    -129.382E+06    -233.324E+06    -98.1212E+06    -9.03592E+06    -231.231E-03     464.283E-03    -233.052E-03     87.8472E-03    -232.242E-03     464.289E-03    -233.016E-03     78.6938E-03
            1132     3.56553E-03     152.347E-03    -120.981E+06    -209.881E+06    -78.2259E+06    -10.8949E+06    -229.460E-03     461.647E-03    -232.187E-03     109.469E-03    -230.963E-03     462.200E-03    -232.098E-03     98.1133E-03
            1133     4.28270E-03     152.484E-03    -111.826E+06    -187.420E+06    -58.3996E+06    -11.9251E+06    -227.098E-03     458.230E-03    -231.132E-03     130.589E-03    -229.190E-03     459.427E-03    -230.990E-03     117.126E-03
            1134     5.00395E-03     152.639E-03    -102.652E+06    -163.308E+06    -39.4076E+06    -12.1851E+06    -224.381E-03     454.258E-03    -229.877E-03     150.979E-03    -227.165E-03     456.210E-03    -229.689E-03     135.500E-03
            1135     5.72755E-03     152.813E-03    -93.7950E+06    -138.109E+06    -21.2811E+06    -12.8905E+06    -221.949E-03     450.434E-03    -228.484E-03     170.457E-03    -225.519E-03     453.240E-03    -228.255E-03     153.037E-03
            1136     6.45290E-03     153.004E-03    -85.1391E+06    -115.271E+06    -4.68095E+06    -13.1456E+06    -219.492E-03     446.511E-03    -227.019E-03     188.279E-03    -223.910E-03     450.229E-03    -226.751E-03     169.067E-03
            1137     7.18118E-03     153.207E-03    -76.6934E+06    -92.7747E+06     10.5669E+06    -13.8334E+06    -217.307E-03     442.827E-03    -225.520E-03     204.252E-03    -222.607E-03     447.492E-03    -225.221E-03     183.422E-03
            1138     7.91140E-03     153.422E-03    -68.7777E+06    -70.2109E+06     23.8949E+06    -14.4429E+06    -216.020E-03     440.081E-03    -224.061E-03     216.929E-03    -222.157E-03     445.654E-03    -223.740E-03     194.696E-03
            1139     8.64403E-03     153.645E-03    -61.4375E+06    -50.9887E+06     35.2378E+06    -14.4911E+06    -215.713E-03     438.453E-03    -222.740E-03     225.009E-03    -222.542E-03     444.780E-03    -222.401E-03     201.665E-03
            1140     9.37495E-03     153.871E-03    -54.5461E+06    -23.9569E+06     46.7249E+06    -13.7606E+06    -216.610E-03     438.244E-03    -221.634E-03     227.965E-03    -223.931E-03     445.151E-03    -221.287E-03     203.800E-03
            1141     10.1060E-03     154.099E-03    -48.4995E+06     1.78978E+06     57.6700E+06    -11.8079E+06    -218.680E-03     439.505E-03    -220.825E-03     224.871E-03    -226.211E-03     446.704E-03    -220.469E-03     200.156E-03
            1142     10.8325E-03     154.318E-03    -42.2685E+06     39.8817E+06     69.4230E+06    -8.62030E+06    -221.831E-03     442.174E-03    -220.344E-03     216.629E-03    -229.311E-03     449.447E-03    -219.993E-03     191.557E-03
            1143     11.5581E-03     154.533E-03    -34.9977E+06     91.8547E+06     82.7504E+06    -4.77674E+06    -226.297E-03     446.518E-03    -220.220E-03     204.638E-03    -233.582E-03     453.767E-03    -219.889E-03     179.081E-03
            1144     12.2766E-03     154.733E-03    -25.6982E+06     112.889E+06     96.4145E+06    -2.32556E+06    -232.104E-03     452.647E-03    -220.543E-03     184.650E-03    -238.759E-03     459.334E-03    -220.187E-03     158.873E-03
            1145     12.9920E-03     154.910E-03    -16.4241E+06     117.206E+06     118.081E+06    -908.224E+03    -238.409E-03     459.736E-03    -221.328E-03     165.818E-03    -244.765E-03     466.111E-03    -220.883E-03     138.551E-03
            1146     13.6994E-03     155.085E-03    -9.02788E+06     121.163E+06     132.695E+06     520.826E+03    -245.084E-03     467.522E-03    -222.438E-03     110.417E-03    -249.360E-03     471.813E-03    -221.937E-03     87.3909E-03
            1147     713.453E-06     153.544E-03    -140.183E+06    -269.846E+06    -136.560E+06    -3.26264E+06    -229.733E-03     460.181E-03    -230.448E-03     26.8044E-03    -229.915E-03     459.301E-03    -230.536E-03     24.4977E-03
            1148     1.42928E-03     153.582E-03    -135.956E+06    -259.673E+06    -126.882E+06    -5.37894E+06    -229.175E-03     458.933E-03    -229.758E-03     48.3502E-03    -229.507E-03     458.226E-03    -229.819E-03     44.1436E-03
            1149     2.14552E-03     153.648E-03    -130.108E+06    -244.615E+06    -110.746E+06    -6.64422E+06    -227.470E-03     456.557E-03    -229.086E-03     71.0539E-03    -228.057E-03     456.131E-03    -229.097E-03     64.8755E-03
            1150     2.86299E-03     153.733E-03    -122.500E+06    -224.109E+06    -91.1880E+06    -8.50476E+06    -225.601E-03     453.748E-03    -228.147E-03     94.5370E-03    -226.551E-03     453.728E-03    -228.100E-03     86.3769E-03
            1151     3.58331E-03     153.844E-03    -114.237E+06    -202.351E+06    -71.2432E+06    -9.90007E+06    -223.286E-03     450.284E-03    -226.998E-03     117.839E-03    -224.692E-03     450.769E-03    -226.895E-03     107.766E-03
            1152     4.30685E-03     153.974E-03    -105.633E+06    -180.800E+06    -51.4684E+06    -10.4922E+06    -220.612E-03     446.260E-03    -225.649E-03     140.275E-03    -222.567E-03     447.344E-03    -225.491E-03     128.370E-03
            1153     5.03221E-03     154.123E-03    -96.4115E+06    -157.267E+06    -32.7225E+06    -11.4184E+06    -218.193E-03     442.340E-03    -224.148E-03     162.500E-03    -220.803E-03     444.140E-03    -223.943E-03     148.765E-03
            1154     5.76023E-03     154.292E-03    -86.9562E+06    -133.311E+06    -14.6550E+06    -11.1692E+06    -215.920E-03     438.489E-03    -222.569E-03     183.679E-03    -219.275E-03     441.100E-03    -222.323E-03     168.190E-03
            1155     6.49174E-03     154.477E-03    -77.8664E+06    -110.792E+06     2.22321E+06    -10.5693E+06    -214.236E-03     435.216E-03    -220.980E-03     202.972E-03    -218.412E-03     438.712E-03    -220.696E-03     185.778E-03
            1156     7.22528E-03     154.675E-03    -69.8390E+06    -87.2375E+06     17.5505E+06    -9.78872E+06    -213.824E-03     433.307E-03    -219.483E-03     219.782E-03    -218.868E-03     437.740E-03    -219.168E-03     200.922E-03
            1157     7.95950E-03     154.890E-03    -63.3768E+06    -65.6010E+06     31.0373E+06    -8.94031E+06    -214.695E-03     432.887E-03    -218.192E-03     232.572E-03    -220.583E-03     438.226E-03    -217.850E-03     212.136E-03
            1158     8.69191E-03     155.111E-03    -58.0385E+06    -45.3584E+06     42.4682E+06    -8.80236E+06    -216.833E-03     434.027E-03    -217.194E-03     239.994E-03    -223.438E-03     440.142E-03    -216.832E-03     218.153E-03
            1159     9.42426E-03     155.341E-03    -53.8676E+06    -21.3536E+06     52.1682E+06    -8.11402E+06    -220.141E-03     436.687E-03    -216.546E-03     241.869E-03    -227.265E-03     443.395E-03    -216.176E-03     218.866E-03
            1160     10.1519E-03     155.571E-03    -49.1693E+06     3.97956E+06     62.9093E+06    -7.53694E+06    -224.582E-03     440.888E-03    -216.306E-03     237.520E-03    -231.954E-03     447.920E-03    -215.926E-03     213.573E-03
            1161     10.8768E-03     155.799E-03    -42.3015E+06     40.8795E+06     75.6400E+06    -7.93374E+06    -230.159E-03     446.648E-03    -216.488E-03     228.154E-03    -237.543E-03     453.810E-03    -216.108E-03     203.333E-03
            1162     11.5944E-03     156.019E-03    -33.4323E+06     88.6158E+06     89.5669E+06    -7.10373E+06    -236.960E-03     454.064E-03    -217.104E-03     214.573E-03    -244.204E-03     461.248E-03    -216.736E-03     188.709E-03
            1163     12.3081E-03     156.233E-03    -24.5360E+06     111.436E+06     101.171E+06    -5.91915E+06    -244.600E-03     462.794E-03    -218.194E-03     192.985E-03    -251.295E-03     469.507E-03    -217.814E-03     166.357E-03
            1164     13.0094E-03     156.424E-03    -16.3170E+06     112.579E+06     113.875E+06    -4.25890E+06    -252.113E-03     471.843E-03    -219.730E-03     173.715E-03    -258.597E-03     478.341E-03    -219.300E-03     145.067E-03
            1165     13.7075E-03     156.608E-03    -6.71239E+06     117.037E+06     126.340E+06    -1.73349E+06    -258.109E-03     479.668E-03    -221.559E-03     116.941E-03    -262.478E-03     484.065E-03    -221.088E-03     92.7393E-03
            1166     720.790E-06     155.036E-03    -132.335E+06    -259.017E+06    -131.331E+06    -2.34969E+06    -222.777E-03     445.352E-03    -222.574E-03     28.6944E-03    -222.938E-03     444.498E-03    -222.664E-03     26.7600E-03
            1167     1.43907E-03     155.076E-03    -130.445E+06    -249.985E+06    -120.090E+06    -4.42898E+06    -221.315E-03     443.544E-03    -222.229E-03     52.5579E-03    -221.625E-03     442.843E-03    -222.277E-03     49.0107E-03
            1168     2.16098E-03     155.133E-03    -124.419E+06    -235.182E+06    -104.679E+06    -6.99956E+06    -219.351E-03     440.703E-03    -221.352E-03     77.7505E-03    -219.894E-03     440.265E-03    -221.354E-03     72.5098E-03
            1169     2.88589E-03     155.217E-03    -116.922E+06    -216.202E+06    -86.3866E+06    -8.80875E+06    -217.251E-03     437.459E-03    -220.208E-03     103.570E-03    -218.118E-03     437.386E-03    -220.157E-03     96.6768E-03
            1170     3.61219E-03     155.320E-03    -108.637E+06    -196.308E+06    -66.1144E+06    -9.19582E+06    -214.739E-03     433.606E-03    -218.867E-03     128.270E-03    -216.016E-03     433.983E-03    -218.755E-03     119.788E-03
            1171     4.34148E-03     155.444E-03    -99.5223E+06    -174.485E+06    -45.7618E+06    -9.58432E+06    -212.282E-03     429.634E-03    -217.352E-03     153.073E-03    -214.066E-03     430.570E-03    -217.184E-03     142.996E-03
            1172     5.07418E-03     155.589E-03    -90.5657E+06    -151.581E+06    -27.0959E+06    -9.78076E+06    -210.396E-03     426.142E-03    -215.746E-03     177.443E-03    -212.792E-03     427.750E-03    -215.531E-03     165.747E-03
            1173     5.80962E-03     155.752E-03    -82.3465E+06    -130.123E+06    -10.0694E+06    -8.95263E+06    -209.277E-03     423.433E-03    -214.156E-03     199.999E-03    -212.382E-03     425.807E-03    -213.898E-03     186.652E-03
            1174     6.54683E-03     155.932E-03    -75.0676E+06    -108.467E+06     5.85284E+06    -7.28575E+06    -209.811E-03     422.521E-03    -212.709E-03     220.216E-03    -213.719E-03     425.756E-03    -212.414E-03     205.129E-03
            1175     7.28363E-03     156.132E-03    -68.8415E+06    -85.7777E+06     20.6689E+06    -5.08032E+06    -211.977E-03     423.518E-03    -211.541E-03     236.717E-03    -216.743E-03     427.674E-03    -211.214E-03     219.817E-03
            1176     8.01949E-03     156.345E-03    -63.1231E+06    -63.6692E+06     34.4005E+06    -2.85091E+06    -215.513E-03     426.254E-03    -210.742E-03     249.078E-03    -221.136E-03     431.327E-03    -210.386E-03     230.356E-03
            1177     8.75373E-03     156.575E-03    -57.7050E+06    -40.4706E+06     46.4679E+06    -1.77823E+06    -220.594E-03     430.963E-03    -210.369E-03     256.093E-03    -226.978E-03     436.866E-03    -209.994E-03     235.593E-03
            1178     9.48191E-03     156.808E-03    -51.2061E+06    -17.3543E+06     57.3455E+06    -1.93025E+06    -226.862E-03     437.337E-03    -210.475E-03     256.846E-03    -233.806E-03     443.875E-03    -210.088E-03     234.711E-03
            1179     10.2068E-03     157.049E-03    -43.7001E+06     11.6966E+06     69.3383E+06    -3.48501E+06    -234.049E-03     445.128E-03    -211.078E-03     250.967E-03    -241.292E-03     452.061E-03    -210.685E-03     227.365E-03
            1180     10.9240E-03     157.285E-03    -35.4440E+06     50.1715E+06     82.2356E+06    -6.96825E+06    -242.329E-03     454.507E-03    -212.178E-03     239.331E-03    -249.621E-03     461.620E-03    -211.789E-03     214.315E-03
            1181     11.6354E-03     157.522E-03    -26.6785E+06     89.6281E+06     93.6554E+06      -8.857E+06    -251.181E-03     464.939E-03    -213.757E-03     224.236E-03    -258.389E-03     472.104E-03    -213.380E-03     197.626E-03
            1182     12.3352E-03     157.749E-03    -18.6317E+06     106.761E+06     102.375E+06    -6.74743E+06    -259.471E-03     475.256E-03    -215.785E-03     201.347E-03    -266.198E-03     482.003E-03    -215.400E-03     173.561E-03
            1183     13.0339E-03     157.954E-03    -11.3082E+06     109.048E+06     112.525E+06    -4.04437E+06    -266.840E-03     485.016E-03    -218.176E-03     180.280E-03    -273.372E-03     491.573E-03    -217.755E-03     150.290E-03
            1184     13.7219E-03     158.158E-03    -5.69147E+06     113.469E+06     121.570E+06    -2.01521E+06    -272.144E-03     492.914E-03    -220.770E-03     120.776E-03    -276.547E-03     497.349E-03    -220.318E-03     95.4241E-03
            1185     725.425E-06     156.502E-03    -130.472E+06    -250.307E+06    -128.349E+06    -2.13572E+06    -211.734E-03     423.155E-03    -211.421E-03     31.1876E-03    -211.896E-03     422.324E-03    -211.511E-03     29.6751E-03
            1186     1.45644E-03     156.538E-03    -126.434E+06    -240.221E+06    -117.048E+06    -4.47931E+06    -209.566E-03     420.547E-03    -210.980E-03     57.5070E-03    -209.849E-03     419.853E-03    -211.034E-03     54.7321E-03
            1187     2.18672E-03     156.592E-03    -120.890E+06    -225.158E+06    -101.408E+06    -6.78999E+06    -207.997E-03     417.934E-03    -209.937E-03     85.5541E-03    -208.484E-03     417.472E-03    -209.942E-03     81.4549E-03
            1188     2.91840E-03     156.670E-03    -114.519E+06    -208.968E+06    -83.7016E+06    -8.06447E+06    -205.830E-03     414.566E-03    -208.736E-03     113.909E-03    -206.599E-03     414.414E-03    -208.685E-03     108.515E-03
            1189     3.65390E-03     156.769E-03    -107.311E+06    -190.917E+06    -65.0636E+06    -8.27085E+06    -203.685E-03     411.027E-03    -207.343E-03     141.453E-03    -204.817E-03     411.276E-03    -207.236E-03     134.754E-03
            1190     4.39223E-03     156.887E-03    -100.129E+06    -169.276E+06    -46.2501E+06    -8.23740E+06    -202.416E-03     408.290E-03    -205.874E-03     168.821E-03    -204.019E-03     409.058E-03    -205.715E-03     160.736E-03
            1191     5.13253E-03     157.028E-03    -93.4727E+06    -148.547E+06    -28.0080E+06    -6.88288E+06    -202.223E-03     406.694E-03    -204.471E-03     194.309E-03    -204.393E-03     408.076E-03    -204.260E-03     184.753E-03
            1192     5.87440E-03     157.188E-03    -87.1731E+06    -128.580E+06    -11.1662E+06    -5.04590E+06    -203.806E-03     407.073E-03    -203.266E-03     217.324E-03    -206.653E-03     409.180E-03    -203.009E-03     206.120E-03
            1193     6.61553E-03     157.372E-03    -81.5601E+06    -108.044E+06     3.97671E+06    -3.09893E+06    -207.233E-03     409.621E-03    -202.388E-03     237.888E-03    -210.868E-03     412.568E-03    -202.093E-03     224.829E-03
            1194     7.35531E-03     157.574E-03    -75.2781E+06    -85.6095E+06     18.6605E+06    -1.21530E+06    -212.346E-03     414.275E-03    -201.929E-03     254.580E-03    -216.848E-03     418.152E-03    -201.603E-03     239.475E-03
            1195     8.09153E-03     157.796E-03    -67.6360E+06    -63.3758E+06     32.0376E+06    -204.615E+03    -219.207E-03     421.166E-03    -201.958E-03     266.637E-03    -224.592E-03     425.996E-03    -201.608E-03     249.325E-03
            1196     8.82267E-03     158.032E-03    -58.9270E+06    -36.3591E+06     45.4256E+06    -90.3224E+03    -227.493E-03     430.020E-03    -202.527E-03     272.554E-03    -233.680E-03     435.742E-03    -202.161E-03     253.008E-03
            1197     9.54904E-03     158.281E-03    -49.5671E+06    -10.9363E+06     58.1345E+06    -2.27052E+06    -236.993E-03     440.664E-03    -203.671E-03     271.420E-03    -243.791E-03     447.086E-03    -203.293E-03     249.669E-03
            1198     10.2660E-03     158.533E-03    -39.7415E+06     19.5951E+06     71.0852E+06    -4.98096E+06    -247.474E-03     452.870E-03    -205.396E-03     263.532E-03    -254.626E-03     459.754E-03    -205.011E-03     239.707E-03
            1199     10.9751E-03     158.789E-03    -31.3221E+06     61.3004E+06     84.5070E+06    -6.77500E+06    -258.056E-03     465.716E-03    -207.660E-03     249.812E-03    -265.322E-03     472.853E-03    -207.281E-03     224.050E-03
            1200     11.6733E-03     159.039E-03    -25.6331E+06     92.9582E+06     93.3353E+06    -8.00609E+06    -267.767E-03     478.144E-03    -210.377E-03     232.313E-03    -274.967E-03     485.320E-03    -210.008E-03     204.632E-03
            1201     12.3680E-03     159.286E-03    -20.1474E+06     101.915E+06     99.3654E+06    -7.37278E+06    -276.495E-03     489.961E-03    -213.466E-03     207.553E-03    -283.262E-03     496.737E-03    -213.088E-03     178.292E-03
            1202     13.0474E-03     159.506E-03    -13.6280E+06     104.824E+06     109.617E+06    -5.13854E+06    -282.378E-03     499.177E-03    -216.799E-03     183.674E-03    -288.988E-03     505.798E-03    -216.383E-03     151.936E-03
            1203     13.7263E-03     159.720E-03    -6.32465E+06     108.282E+06     119.220E+06    -2.05923E+06    -284.795E-03     504.945E-03    -220.150E-03     123.667E-03    -289.240E-03     509.409E-03    -219.702E-03     97.0784E-03
            1204     739.685E-06     157.932E-03    -133.268E+06    -241.467E+06    -131.739E+06    -2.57311E+06    -196.004E-03     391.733E-03    -195.729E-03     34.7923E-03    -196.181E-03     390.938E-03    -195.844E-03     33.7248E-03
            1205     1.47760E-03     157.959E-03    -130.768E+06    -230.771E+06    -123.143E+06    -4.58950E+06    -194.628E-03     390.024E-03    -195.396E-03     64.1286E-03    -194.908E-03     389.352E-03    -195.488E-03     62.1906E-03
            1206     2.21940E-03     158.015E-03    -127.105E+06    -217.987E+06    -108.453E+06    -5.48069E+06    -193.121E-03     387.670E-03    -194.549E-03     95.1992E-03    -193.568E-03     387.182E-03    -194.591E-03     92.3326E-03
            1207     2.96347E-03     158.086E-03    -122.123E+06    -203.422E+06    -90.0405E+06    -5.43249E+06    -191.720E-03     385.231E-03    -193.511E-03     125.686E-03    -192.402E-03     384.997E-03    -193.489E-03     121.860E-03
            1208     3.71000E-03     158.181E-03    -116.523E+06    -186.087E+06    -70.8478E+06    -5.42001E+06    -191.305E-03     383.723E-03    -192.418E-03     155.704E-03    -192.307E-03     383.839E-03    -192.334E-03     150.801E-03
            1209     4.45731E-03     158.298E-03    -110.752E+06    -165.948E+06    -52.1171E+06    -4.40814E+06    -192.419E-03     383.861E-03    -191.442E-03     183.985E-03    -193.836E-03     384.433E-03    -191.301E-03     177.873E-03
            1210     5.20550E-03     158.439E-03    -104.831E+06    -147.815E+06    -34.0137E+06    -2.96018E+06    -195.259E-03     385.985E-03    -190.726E-03     210.484E-03    -197.198E-03     387.117E-03    -190.530E-03     202.949E-03
            1211     5.95186E-03     158.603E-03    -98.3252E+06    -128.792E+06    -17.4600E+06    -1.18414E+06    -200.168E-03     390.540E-03    -190.372E-03     234.750E-03    -202.756E-03     392.367E-03    -190.130E-03     225.514E-03
            1212     6.69616E-03     158.792E-03    -90.4124E+06    -106.182E+06    -1.57971E+06    -392.665E+03    -206.888E-03     397.352E-03    -190.464E-03     255.655E-03    -210.251E-03     400.022E-03    -190.187E-03     244.393E-03
            1213     7.43677E-03     159.004E-03    -81.3863E+06    -83.3183E+06     13.0429E+06    -950.025E+03    -215.525E-03     406.595E-03    -191.070E-03     272.297E-03    -219.767E-03     410.218E-03    -190.766E-03     258.668E-03
            1214     8.17210E-03     159.239E-03    -71.5464E+06    -60.2607E+06     26.5778E+06    -2.22702E+06    -226.129E-03     418.387E-03    -192.259E-03     283.501E-03    -231.290E-03     423.011E-03    -191.935E-03     267.212E-03
            1215     8.89979E-03     159.491E-03    -61.6565E+06    -30.7564E+06     40.7294E+06    -3.96050E+06    -238.063E-03     432.141E-03    -194.078E-03     287.972E-03    -244.098E-03     437.740E-03    -193.740E-03     268.863E-03
            1216     9.61763E-03     159.756E-03    -52.5043E+06    -3.08230E+06     53.7338E+06    -6.30418E+06    -251.001E-03     447.542E-03    -196.541E-03     284.958E-03    -257.726E-03     453.927E-03    -196.192E-03     263.024E-03
            1217     10.3265E-03     160.031E-03    -45.0783E+06     25.6036E+06     65.1359E+06    -8.12637E+06    -264.167E-03     463.782E-03    -199.616E-03     274.689E-03    -271.303E-03     470.674E-03    -199.262E-03     250.132E-03
            1218     11.0235E-03     160.307E-03    -38.5906E+06     68.0899E+06     78.7390E+06    -8.96825E+06    -276.265E-03     479.475E-03    -203.210E-03     258.291E-03    -283.557E-03     486.656E-03    -202.859E-03     231.338E-03
            1219     11.7132E-03     160.579E-03    -30.6622E+06     95.9043E+06     88.5772E+06    -9.75719E+06    -286.523E-03     493.712E-03    -207.189E-03     237.689E-03    -293.744E-03     500.919E-03    -206.841E-03     208.445E-03
            1220     12.3895E-03     160.842E-03    -22.2173E+06     97.5890E+06     95.0381E+06    -8.86843E+06    -293.271E-03     504.654E-03    -211.383E-03     211.854E-03    -300.040E-03     511.421E-03    -211.017E-03     181.094E-03
            1221     13.0649E-03     161.084E-03    -14.6915E+06     100.821E+06     107.203E+06    -7.00751E+06    -296.317E-03     511.907E-03    -215.591E-03     188.274E-03    -302.971E-03     518.561E-03    -215.180E-03     155.108E-03
            1222     13.7349E-03     161.297E-03    -8.08704E+06     101.102E+06     116.126E+06    -4.95282E+06    -296.415E-03     516.025E-03    -219.610E-03     127.972E-03    -300.920E-03     520.525E-03    -219.164E-03     100.259E-03
            1223     753.834E-06     159.308E-03    -145.728E+06    -234.109E+06    -143.947E+06    -1.70756E+06    -175.634E-03     351.518E-03    -175.884E-03     38.7422E-03    -175.858E-03     350.776E-03    -176.053E-03     38.1399E-03
            1224     1.50899E-03     159.338E-03    -145.185E+06    -225.021E+06    -135.755E+06    -1.93528E+06    -176.036E-03     351.607E-03    -175.570E-03     71.4641E-03    -176.344E-03     350.956E-03    -175.712E-03     70.3322E-03
            1225     2.26388E-03     159.387E-03    -142.785E+06    -214.610E+06    -121.283E+06    -1.42426E+06    -176.019E-03     351.358E-03    -175.338E-03     105.233E-03    -176.455E-03     350.845E-03    -175.426E-03     103.499E-03
            1226     3.02060E-03     159.459E-03    -138.666E+06    -199.818E+06    -102.400E+06    -1.20000E+06    -176.959E-03     351.996E-03    -175.037E-03     137.348E-03    -177.581E-03     351.689E-03    -175.058E-03     134.911E-03
            1227     3.77694E-03     159.553E-03    -133.125E+06    -182.783E+06    -81.5158E+06    -1.10128E+06    -179.444E-03     354.305E-03    -174.861E-03     168.714E-03    -180.332E-03     354.289E-03    -174.811E-03     165.395E-03
            1228     4.53318E-03     159.675E-03    -126.174E+06    -164.568E+06    -61.2927E+06    -421.841E+03    -183.697E-03     358.633E-03    -174.936E-03     198.274E-03    -184.939E-03     359.008E-03    -174.821E-03     193.868E-03
            1229     5.28690E-03     159.820E-03    -118.041E+06    -145.820E+06    -42.8978E+06    -223.551E+03    -190.120E-03     365.488E-03    -175.369E-03     225.826E-03    -191.835E-03     366.385E-03    -175.200E-03     220.019E-03
            1230     6.03843E-03     159.995E-03    -108.502E+06    -125.762E+06    -26.3935E+06    -1.69355E+06    -198.615E-03     374.861E-03    -176.246E-03     250.572E-03    -200.942E-03     376.432E-03    -176.039E-03     242.964E-03
            1231     6.78475E-03     160.196E-03    -97.1886E+06    -101.715E+06    -10.2768E+06    -3.68960E+06    -209.263E-03     386.910E-03    -177.647E-03     271.266E-03    -212.349E-03     389.324E-03    -177.410E-03     261.421E-03
            1232     7.52444E-03     160.425E-03    -85.6775E+06    -78.5316E+06     4.58253E+06    -5.67345E+06    -222.025E-03     401.669E-03    -179.644E-03     287.417E-03    -226.005E-03     405.063E-03    -179.383E-03     274.859E-03
            1233     8.25539E-03     160.678E-03    -74.6545E+06    -55.2623E+06     18.4812E+06    -7.42423E+06    -236.345E-03     418.632E-03    -182.287E-03     297.377E-03    -241.286E-03     423.072E-03    -182.006E-03     281.716E-03
            1234     8.97664E-03     160.953E-03    -64.2536E+06    -24.4554E+06     33.2354E+06    -8.81848E+06    -251.890E-03     437.486E-03    -185.596E-03     300.349E-03    -257.771E-03     442.971E-03    -185.301E-03     281.305E-03
            1235     9.68700E-03     161.244E-03    -55.2469E+06     2.56245E+06     46.1678E+06    -9.77462E+06    -267.909E-03     457.474E-03    -189.565E-03     295.769E-03    -274.556E-03     463.817E-03    -189.258E-03     273.294E-03
            1236     10.3837E-03     161.545E-03    -46.0854E+06     31.4172E+06     58.9061E+06    -10.6839E+06    -282.924E-03     477.042E-03    -194.118E-03     283.431E-03    -290.031E-03     483.942E-03    -193.802E-03     257.797E-03
            1237     11.0702E-03     161.846E-03    -35.6933E+06     72.3677E+06     74.8405E+06    -11.3540E+06    -295.711E-03     494.816E-03    -199.105E-03     264.886E-03    -302.952E-03     501.985E-03    -198.784E-03     236.585E-03
            1238     11.7432E-03     162.142E-03    -26.9949E+06     98.9419E+06     86.5213E+06    -11.3490E+06    -304.673E-03     508.991E-03    -204.318E-03     243.423E-03    -311.861E-03     516.193E-03    -203.990E-03     212.712E-03
            1239     12.4128E-03     162.424E-03    -19.5256E+06     96.5162E+06     94.5383E+06    -12.2809E+06    -308.678E-03     518.206E-03    -209.528E-03     215.894E-03    -315.397E-03     524.931E-03    -209.167E-03     183.825E-03
            1240     13.0779E-03     162.667E-03    -10.8774E+06     92.4975E+06     107.215E+06    -10.4645E+06    -308.920E-03     523.445E-03    -214.525E-03     189.977E-03    -315.440E-03     529.947E-03    -214.107E-03     155.868E-03
            1241     13.7406E-03     162.904E-03    -2.91673E+06     90.8048E+06     116.023E+06    -4.38387E+06    -306.621E-03     525.755E-03    -219.134E-03     128.291E-03    -311.021E-03     530.132E-03    -218.681E-03     99.8743E-03
            1242     772.496E-06     160.625E-03    -173.346E+06    -234.192E+06    -168.613E+06     2.32698E+06    -153.632E-03     306.416E-03    -152.784E-03     42.3560E-03    -153.949E-03     305.735E-03    -153.036E-03     42.1237E-03
            1243     1.54398E-03     160.657E-03    -171.884E+06    -225.813E+06    -156.800E+06     3.74614E+06    -155.207E-03     308.541E-03    -153.334E-03     76.5742E-03    -155.579E-03     307.916E-03    -153.541E-03     76.0994E-03
            1244     2.31500E-03     160.709E-03    -167.999E+06    -213.344E+06    -139.093E+06     3.66802E+06    -158.242E-03     312.219E-03    -153.977E-03     112.128E-03    -158.703E-03     311.697E-03    -154.120E-03     111.276E-03
            1245     3.08368E-03     160.785E-03    -161.406E+06    -196.190E+06    -118.314E+06     2.30661E+06    -162.705E-03     317.581E-03    -154.877E-03     146.846E-03    -163.304E-03     317.231E-03    -154.950E-03     145.450E-03
            1246     3.85058E-03     160.886E-03    -152.458E+06    -179.373E+06    -96.3661E+06     444.753E+03    -168.859E-03     324.924E-03    -156.065E-03     179.746E-03    -169.659E-03     324.810E-03    -156.066E-03     177.608E-03
            1247     4.61442E-03     161.016E-03    -141.239E+06    -161.097E+06    -75.2343E+06    -1.81056E+06    -176.964E-03     334.554E-03    -157.590E-03     210.311E-03    -178.054E-03     334.781E-03    -157.528E-03     207.149E-03
            1248     5.37428E-03     161.175E-03    -127.578E+06    -140.235E+06    -55.5594E+06    -4.79833E+06    -187.328E-03     346.853E-03    -159.525E-03     238.294E-03    -188.832E-03     347.567E-03    -159.415E-03     233.727E-03
            1249     6.12722E-03     161.365E-03    -113.350E+06    -118.344E+06    -37.5194E+06    -8.14067E+06    -199.920E-03     361.874E-03    -161.955E-03     262.692E-03    -201.987E-03     363.234E-03    -161.806E-03     256.267E-03
            1250     6.87323E-03     161.585E-03    -100.441E+06    -95.3693E+06    -21.1383E+06    -10.8837E+06    -214.701E-03     379.652E-03    -164.950E-03     282.767E-03    -217.509E-03     381.836E-03    -164.772E-03     273.946E-03
            1251     7.60978E-03     161.837E-03    -88.3991E+06    -72.4819E+06    -5.61011E+06    -13.2049E+06    -231.378E-03     399.951E-03    -168.573E-03     297.783E-03    -235.082E-03     403.115E-03    -168.368E-03     285.986E-03
            1252     8.33562E-03     162.117E-03    -77.0092E+06    -49.8402E+06     9.15865E+06    -15.3141E+06    -249.382E-03     422.236E-03    -172.854E-03     306.310E-03    -254.067E-03     426.463E-03    -172.624E-03     291.009E-03
            1253     9.04900E-03     162.421E-03    -65.6164E+06    -21.3069E+06     24.5581E+06    -16.2852E+06    -267.869E-03     445.653E-03    -177.784E-03     307.791E-03    -273.521E-03     450.946E-03    -177.535E-03     288.640E-03
            1254     9.74797E-03     162.744E-03    -53.3017E+06     5.00682E+06     39.9033E+06    -16.7814E+06    -285.662E-03     468.970E-03    -183.308E-03     301.821E-03    -292.107E-03     475.149E-03    -183.039E-03     278.764E-03
            1255     10.4350E-03     163.075E-03    -41.7656E+06     34.4227E+06     55.5356E+06    -17.0642E+06    -301.489E-03     490.792E-03    -189.303E-03     288.564E-03    -308.433E-03     497.567E-03    -189.015E-03     261.945E-03
            1256     11.1078E-03     163.406E-03    -32.2961E+06     73.3074E+06     73.0800E+06    -16.3765E+06    -313.248E-03     508.815E-03    -195.568E-03     269.240E-03    -320.360E-03     515.875E-03    -195.262E-03     239.796E-03
            1257     11.7748E-03     163.725E-03    -22.6032E+06     97.1174E+06     86.9154E+06    -15.1785E+06    -320.204E-03     522.055E-03    -201.850E-03     245.884E-03    -327.197E-03     529.070E-03    -201.524E-03     214.267E-03
            1258     12.4343E-03     164.019E-03    -15.4688E+06     93.7531E+06     96.7936E+06    -11.3109E+06    -322.767E-03     530.716E-03    -207.949E-03     215.959E-03    -329.301E-03     537.254E-03    -207.579E-03     182.965E-03
            1259     13.0883E-03     164.280E-03    -12.6169E+06     86.9788E+06     107.950E+06    -8.41864E+06    -320.101E-03     533.757E-03    -213.656E-03     188.631E-03    -326.506E-03     540.116E-03    -213.225E-03     153.548E-03
            1260     13.7457E-03     164.507E-03    -8.85942E+06     79.6598E+06     114.641E+06    -6.76402E+06    -314.566E-03     533.339E-03    -218.773E-03     128.549E-03    -318.925E-03     537.618E-03    -218.302E-03     99.4203E-03
            1261     790.330E-06     161.884E-03    -227.960E+06    -239.581E+06    -223.963E+06     1.92463E+06    -131.958E-03     262.723E-03    -130.765E-03     42.5998E-03    -132.448E-03     262.170E-03    -131.207E-03     42.5336E-03
            1262     1.57942E-03     161.918E-03    -217.733E+06    -227.497E+06    -201.224E+06     1.51371E+06    -135.391E-03     267.228E-03    -131.836E-03     78.4657E-03    -135.897E-03     266.705E-03    -132.197E-03     78.2725E-03
            1263     2.36515E-03     161.980E-03    -202.762E+06    -210.182E+06    -172.464E+06    -614.906E+03    -141.224E-03     274.598E-03    -133.374E-03     115.494E-03    -141.760E-03     274.143E-03    -133.637E-03     115.052E-03
            1264     3.14732E-03     162.065E-03    -186.079E+06    -190.878E+06    -143.702E+06    -3.97304E+06    -149.445E-03     284.895E-03    -135.451E-03     151.545E-03    -150.049E-03     284.561E-03    -135.622E-03     150.686E-03
            1265     3.92390E-03     162.181E-03    -168.193E+06    -172.459E+06    -117.021E+06    -7.98203E+06    -159.828E-03     297.876E-03    -138.048E-03     185.464E-03    -160.559E-03     297.728E-03    -138.139E-03     183.963E-03
            1266     4.69376E-03     162.326E-03    -150.071E+06    -152.287E+06    -93.2478E+06    -12.9027E+06    -172.318E-03     313.455E-03    -141.137E-03     216.739E-03    -173.274E-03     313.607E-03    -141.165E-03     214.278E-03
            1267     5.45613E-03     162.504E-03    -133.144E+06    -132.826E+06    -72.0734E+06    -17.0079E+06    -186.963E-03     331.693E-03    -144.730E-03     244.767E-03    -188.275E-03     332.277E-03    -144.705E-03     240.953E-03
            1268     6.21073E-03     162.717E-03    -118.214E+06    -111.098E+06    -51.9312E+06    -19.4225E+06    -203.802E-03     352.673E-03    -148.870E-03     268.432E-03    -205.638E-03     353.857E-03    -148.798E-03     262.781E-03
            1269     6.95418E-03     162.964E-03    -104.284E+06    -88.1577E+06    -32.7374E+06    -22.1304E+06    -222.603E-03     376.208E-03    -153.605E-03     287.299E-03    -225.138E-03     378.172E-03    -153.490E-03     279.186E-03
            1270     7.68596E-03     163.245E-03    -90.1077E+06    -66.2316E+06    -14.6501E+06    -25.1771E+06    -242.778E-03     401.737E-03    -158.959E-03     300.353E-03    -246.154E-03     404.621E-03    -158.805E-03     289.122E-03
            1271     8.40427E-03     163.557E-03    -75.3895E+06    -45.3585E+06     2.69461E+06    -27.5778E+06    -263.548E-03     428.470E-03    -164.922E-03     307.069E-03    -267.842E-03     432.351E-03    -164.734E-03     292.144E-03
            1272     9.10763E-03     163.896E-03    -60.8555E+06    -21.4061E+06     19.8661E+06    -27.7468E+06    -283.680E-03     455.117E-03    -171.437E-03     307.261E-03    -288.889E-03     459.999E-03    -171.218E-03     288.264E-03
            1273     9.79821E-03     164.253E-03    -47.7628E+06     3.43938E+06     36.6237E+06    -26.2246E+06    -301.910E-03     480.302E-03    -178.392E-03     300.718E-03    -307.907E-03     486.056E-03    -178.144E-03     277.585E-03
            1274     10.4738E-03     164.621E-03    -36.9949E+06     31.8308E+06     54.0047E+06    -23.6873E+06    -316.639E-03     502.259E-03    -185.620E-03     287.452E-03    -323.183E-03     508.646E-03    -185.343E-03     260.542E-03
            1275     11.1401E-03     164.981E-03    -29.1231E+06     67.7285E+06     73.1782E+06    -18.4703E+06    -327.078E-03     519.997E-03    -192.919E-03     267.247E-03    -333.858E-03     526.716E-03    -192.609E-03     237.262E-03
            1276     11.7962E-03     165.319E-03    -26.3171E+06     92.7968E+06     87.1517E+06    -12.7895E+06    -332.906E-03     532.979E-03    -200.074E-03     241.895E-03    -339.614E-03     539.681E-03    -199.734E-03     209.681E-03
            1277     12.4461E-03     165.637E-03    -23.4028E+06     92.5483E+06     97.6268E+06    -12.3600E+06    -332.678E-03     539.547E-03    -206.870E-03     211.218E-03    -338.934E-03     545.770E-03    -206.482E-03     177.903E-03
            1278     13.0973E-03     165.899E-03    -13.7725E+06     83.9005E+06     111.567E+06    -12.8089E+06    -327.583E-03     540.669E-03    -213.086E-03     183.350E-03    -333.695E-03     546.708E-03    -212.630E-03     147.967E-03
            1279     13.7490E-03     166.130E-03    -3.32950E+06     66.3020E+06     119.939E+06    -7.66382E+06    -319.697E-03     538.255E-03    -218.558E-03     125.081E-03    -323.869E-03     542.303E-03    -218.050E-03     95.5968E-03
            1280     805.051E-06     163.089E-03    -306.240E+06    -229.597E+06    -303.077E+06    -9.30820E+06    -114.931E-03     228.436E-03    -113.505E-03     41.1512E-03    -115.702E-03     228.168E-03    -114.243E-03     40.9669E-03
            1281     1.60762E-03     163.132E-03    -289.029E+06    -214.772E+06    -274.812E+06    -17.6711E+06    -119.498E-03     234.386E-03    -114.888E-03     75.0182E-03    -120.257E-03     234.140E-03    -115.532E-03     74.6459E-03
            1282     2.40683E-03     163.203E-03    -264.295E+06    -196.861E+06    -236.417E+06    -25.9876E+06    -127.324E-03     244.342E-03    -117.019E-03     111.290E-03    -128.070E-03     244.126E-03    -117.532E-03     110.660E-03
            1283     3.19933E-03     163.306E-03    -234.937E+06    -178.140E+06    -195.956E+06    -33.2436E+06    -138.285E-03     258.224E-03    -119.939E-03     147.010E-03    -139.033E-03     258.067E-03    -120.320E-03     146.012E-03
            1284     3.98391E-03     163.440E-03    -204.466E+06    -161.550E+06    -160.075E+06    -39.4143E+06    -152.155E-03     275.755E-03    -123.600E-03     181.084E-03    -152.949E-03     275.713E-03    -123.869E-03     179.527E-03
            1285     4.75978E-03     163.608E-03    -175.371E+06    -144.022E+06    -127.421E+06    -43.0336E+06    -168.806E-03     296.784E-03    -127.978E-03     212.453E-03    -169.739E-03     296.958E-03    -128.152E-03     210.068E-03
            1286     5.52487E-03     163.812E-03    -148.921E+06    -129.467E+06    -96.8002E+06    -43.7005E+06    -187.824E-03     320.890E-03    -133.066E-03     239.705E-03    -189.019E-03     321.390E-03    -133.146E-03     236.117E-03
            1287     6.27712E-03     164.053E-03    -124.405E+06    -110.307E+06    -68.2742E+06    -42.0229E+06    -208.760E-03     347.580E-03    -138.821E-03     261.997E-03    -210.373E-03     348.576E-03    -138.822E-03     256.701E-03
            1288     7.01670E-03     164.333E-03    -102.614E+06    -84.6941E+06    -41.8838E+06    -40.3098E+06    -231.094E-03     376.307E-03    -145.213E-03     278.588E-03    -233.286E-03     377.976E-03    -145.150E-03     270.971E-03
            1289     7.74146E-03     164.648E-03    -84.3452E+06    -62.4883E+06    -18.8618E+06    -40.1060E+06    -253.879E-03     406.084E-03    -152.205E-03     289.214E-03    -256.775E-03     408.537E-03    -152.087E-03     278.620E-03
            1290     8.45097E-03     164.998E-03    -69.7140E+06    -42.1905E+06     1.12386E+06    -40.3439E+06    -275.938E-03     435.648E-03    -159.710E-03     293.827E-03    -279.622E-03     438.954E-03    -159.542E-03     279.680E-03
            1291     9.14687E-03     165.374E-03    -58.8826E+06    -25.0817E+06     18.3759E+06    -38.9764E+06    -296.150E-03     463.756E-03    -167.606E-03     292.113E-03    -300.624E-03     467.901E-03    -167.392E-03     274.033E-03
            1292     9.82695E-03     165.770E-03    -51.9115E+06    -2.46145E+06     35.1203E+06    -35.2803E+06    -313.004E-03     488.730E-03    -175.726E-03     284.482E-03    -318.205E-03     493.655E-03    -175.472E-03     262.380E-03
            1293     10.4964E-03     166.171E-03     -46.836E+06     25.4198E+06     53.3562E+06    -31.9647E+06    -325.666E-03     509.548E-03    -183.882E-03     270.696E-03    -331.426E-03     515.093E-03    -183.584E-03     244.785E-03
            1294     11.1552E-03     166.561E-03    -41.0758E+06     48.2002E+06     70.0536E+06    -26.3557E+06    -334.248E-03     526.133E-03    -191.885E-03     251.599E-03    -340.314E-03     532.035E-03    -191.545E-03     222.370E-03
            1295     11.8049E-03     166.932E-03    -30.1586E+06     75.7076E+06     87.7339E+06    -17.3251E+06    -337.926E-03     537.465E-03    -199.539E-03     228.733E-03    -344.058E-03     543.514E-03    -199.167E-03     196.915E-03
            1296     12.4526E-03     167.255E-03    -17.0805E+06     100.076E+06     109.850E+06    -13.5144E+06    -335.801E-03     542.467E-03    -206.666E-03     198.750E-03    -341.557E-03     548.204E-03    -206.237E-03     165.902E-03
            1297     13.0993E-03     167.528E-03    -11.1382E+06     81.7619E+06     121.194E+06    -13.9374E+06    -328.502E-03     541.563E-03    -213.060E-03     171.931E-03    -334.076E-03     547.036E-03    -212.557E-03     137.578E-03
            1298     13.7482E-03     167.758E-03    -8.64406E+06     44.8927E+06     124.213E+06    -8.80280E+06    -318.785E-03     537.364E-03    -218.579E-03     118.348E-03    -322.634E-03     540.980E-03    -218.010E-03     89.7815E-03
            1299     812.059E-06     164.263E-03    -306.107E+06    -191.315E+06    -301.246E+06    -19.9971E+06    -107.212E-03     211.892E-03    -104.681E-03     34.7521E-03    -108.036E-03     211.822E-03    -105.466E-03     34.3820E-03
            1300     1.62242E-03     164.312E-03    -292.215E+06    -177.978E+06    -278.326E+06    -35.7547E+06    -111.736E-03     218.518E-03    -106.781E-03     64.2231E-03    -112.561E-03     218.478E-03    -107.491E-03     63.5393E-03
            1301     2.42768E-03     164.396E-03    -272.247E+06    -163.318E+06    -245.645E+06    -51.1820E+06    -120.025E-03     229.236E-03    -109.210E-03     95.3892E-03    -120.853E-03     229.229E-03    -109.807E-03     94.3232E-03
            1302     3.22677E-03     164.515E-03    -247.371E+06    -149.948E+06    -211.436E+06    -64.1154E+06    -131.527E-03     244.015E-03    -112.488E-03     126.814E-03    -132.362E-03     244.053E-03    -112.969E-03     125.304E-03
            1303     4.01747E-03     164.671E-03    -220.985E+06    -139.917E+06    -180.389E+06    -73.7056E+06    -146.790E-03     263.430E-03    -116.640E-03     157.461E-03    -147.659E-03     263.547E-03    -117.019E-03     155.383E-03
            1304     4.79593E-03     164.866E-03    -195.347E+06    -132.154E+06    -152.655E+06    -79.1167E+06    -165.615E-03     287.345E-03    -121.729E-03     185.756E-03    -166.580E-03     287.599E-03    -122.018E-03     182.913E-03
            1305     5.56073E-03     165.101E-03    -170.883E+06    -125.111E+06    -127.234E+06    -81.3568E+06    -187.207E-03     314.946E-03    -127.739E-03     210.202E-03    -188.349E-03     315.419E-03    -127.946E-03     206.293E-03
            1306     6.31099E-03     165.377E-03    -148.109E+06    -114.742E+06    -102.854E+06    -81.3185E+06    -210.774E-03     345.371E-03    -134.597E-03     230.023E-03    -212.202E-03     346.182E-03    -134.731E-03     224.622E-03
            1307     7.04449E-03     165.693E-03    -126.537E+06    -93.2490E+06    -73.8030E+06    -78.9493E+06    -235.179E-03     377.397E-03    -142.219E-03     244.083E-03    -237.014E-03     378.687E-03    -142.269E-03     236.712E-03
            1308     7.76156E-03     166.048E-03    -106.299E+06    -73.9987E+06    -41.6554E+06    -75.0173E+06    -259.042E-03     409.518E-03    -150.477E-03     251.722E-03    -261.370E-03     411.347E-03    -150.423E-03     241.851E-03
            1309     8.46328E-03     166.435E-03    -89.0059E+06    -56.6889E+06    -12.9268E+06    -68.4451E+06    -280.984E-03     440.149E-03    -159.165E-03     253.318E-03    -283.858E-03     442.563E-03    -159.018E-03     240.469E-03
            1310     9.14828E-03     166.851E-03    -73.9732E+06    -42.4454E+06     11.7959E+06    -59.9885E+06    -299.568E-03     467.632E-03    -168.064E-03     249.738E-03    -302.994E-03     470.629E-03    -167.837E-03     233.575E-03
            1311     9.82196E-03     167.281E-03    -58.6716E+06    -22.0798E+06     35.8198E+06    -50.1387E+06    -313.751E-03     490.682E-03    -176.931E-03     241.410E-03    -317.674E-03     494.230E-03    -176.635E-03     221.888E-03
            1312     10.4845E-03     167.714E-03    -43.9488E+06     6.45470E+06     59.8758E+06    -36.4871E+06    -323.375E-03     508.905E-03    -185.531E-03     229.706E-03    -327.696E-03     512.935E-03    -185.177E-03     207.094E-03
            1313     11.1382E-03     168.137E-03    -29.9768E+06     36.0631E+06     80.9589E+06    -27.0596E+06    -328.322E-03     521.966E-03    -193.644E-03     216.196E-03    -332.948E-03     526.391E-03    -193.248E-03     190.729E-03
            1314     11.7909E-03     168.525E-03    -19.0428E+06     60.6074E+06     99.5146E+06    -24.1482E+06    -328.943E-03     530.056E-03    -201.112E-03     200.589E-03    -333.785E-03     534.766E-03    -200.675E-03     172.491E-03
            1315     12.4387E-03     168.876E-03    -12.6366E+06     82.5929E+06     117.847E+06    -14.9818E+06    -326.816E-03     534.686E-03    -207.870E-03     179.876E-03    -331.701E-03     539.485E-03    -207.382E-03     149.774E-03
            1316     13.0877E-03     169.148E-03    -7.64141E+06     78.4230E+06     132.571E+06    -3.64124E+06    -320.130E-03     533.998E-03    -213.868E-03     155.241E-03    -324.961E-03     538.698E-03    -213.308E-03     123.672E-03
            1317     13.7480E-03     169.370E-03    -1.84526E+06     38.6151E+06     141.448E+06    -1.74536E+06    -309.249E-03     528.247E-03    -218.998E-03     106.049E-03    -312.518E-03     531.235E-03    -218.344E-03     80.2576E-03
            1318     810.076E-06     165.429E-03    -220.022E+06    -136.008E+06    -216.428E+06    -22.6517E+06    -112.084E-03     221.768E-03    -109.684E-03     22.5413E-03    -112.692E-03     221.720E-03    -110.250E-03     22.0167E-03
            1319     1.61679E-03     165.487E-03    -211.514E+06    -126.383E+06    -197.645E+06    -39.7575E+06    -116.207E-03     228.210E-03    -112.004E-03     41.3141E-03    -116.834E-03     228.192E-03    -112.502E-03     40.3480E-03
            1320     2.41884E-03     165.580E-03    -199.136E+06    -115.285E+06    -174.838E+06    -55.6658E+06    -123.336E-03     237.920E-03    -114.584E-03     61.2009E-03    -123.991E-03     237.947E-03    -115.002E-03     59.7217E-03
            1321     3.21459E-03     165.713E-03    -186.597E+06    -107.566E+06    -154.152E+06    -69.3931E+06    -133.479E-03     251.496E-03    -118.017E-03     81.3853E-03    -134.176E-03     251.579E-03    -118.361E-03     79.3187E-03
            1322     4.00091E-03     165.889E-03    -174.536E+06    -104.177E+06    -137.176E+06    -79.9220E+06    -146.862E-03     269.262E-03    -122.400E-03     101.101E-03    -147.624E-03     269.416E-03    -122.681E-03     98.3461E-03
            1323     4.77602E-03     166.109E-03    -163.065E+06    -104.005E+06    -123.432E+06    -87.6934E+06    -163.295E-03     291.069E-03    -127.774E-03     119.348E-03    -164.146E-03     291.319E-03    -128.004E-03     115.756E-03
            1324     5.53693E-03     166.374E-03    -151.904E+06    -103.779E+06    -111.284E+06    -93.2538E+06    -182.448E-03     316.580E-03    -134.133E-03     135.052E-03    -183.422E-03     316.963E-03    -134.318E-03     130.435E-03
            1325     6.28102E-03     166.684E-03    -140.091E+06    -100.098E+06    -97.1131E+06    -97.4099E+06    -203.521E-03     344.941E-03    -141.420E-03     147.463E-03    -204.655E-03     345.503E-03    -141.558E-03     141.599E-03
            1326     7.00805E-03     167.037E-03    -126.836E+06    -88.1673E+06    -76.2063E+06    -99.6467E+06    -225.194E-03     374.711E-03    -149.517E-03     155.741E-03    -226.530E-03     375.507E-03    -149.586E-03     148.384E-03
            1327     7.71756E-03     167.430E-03    -113.014E+06    -78.3325E+06    -50.4333E+06    -97.8179E+06    -246.077E-03     404.300E-03    -158.223E-03     159.607E-03    -247.641E-03     405.340E-03    -158.197E-03     150.498E-03
            1328     8.40898E-03     167.856E-03    -98.9036E+06    -72.2426E+06    -26.1271E+06    -92.2100E+06    -264.553E-03     431.786E-03    -167.233E-03     160.362E-03    -266.359E-03     433.075E-03    -167.115E-03     149.275E-03
            1329     9.08803E-03     168.307E-03    -83.7772E+06    -64.2126E+06    -3.27199E+06    -85.0625E+06    -279.242E-03     455.443E-03    -176.201E-03     159.418E-03    -281.287E-03     456.991E-03    -176.003E-03     146.318E-03
            1330     9.75532E-03     168.770E-03    -69.3312E+06    -54.1247E+06     18.4196E+06    -76.6571E+06    -289.805E-03     474.595E-03    -184.790E-03     158.510E-03    -292.070E-03     476.394E-03    -184.519E-03     143.543E-03
            1331     10.4157E-03     169.232E-03    -54.9392E+06    -41.8280E+06     42.1950E+06    -64.6073E+06    -296.197E-03     488.921E-03    -192.724E-03     158.610E-03    -298.672E-03     490.958E-03    -192.373E-03     141.996E-03
            1332     11.0775E-03     169.676E-03    -41.2166E+06    -884.099E+03     74.6104E+06    -50.0579E+06    -298.792E-03     498.593E-03    -199.801E-03     159.032E-03    -301.556E-03     501.018E-03    -199.367E-03     140.751E-03
            1333     11.7365E-03     170.092E-03    -30.8672E+06     32.6607E+06     109.781E+06    -33.0522E+06    -299.039E-03     505.037E-03    -205.998E-03     157.550E-03    -302.154E-03     507.862E-03    -205.451E-03     137.230E-03
            1334     12.4035E-03     170.451E-03    -23.1584E+06     46.1981E+06     128.790E+06    -15.8913E+06    -297.740E-03     509.055E-03    -211.315E-03     151.488E-03    -301.272E-03     512.312E-03    -210.704E-03     128.312E-03
            1335     13.0690E-03     170.759E-03    -13.5879E+06     60.9440E+06     137.426E+06    -5.13232E+06    -294.439E-03     510.293E-03    -215.854E-03     138.671E-03    -298.414E-03     514.048E-03    -215.236E-03     112.114E-03
            1336     13.7293E-03     170.959E-03    -3.36198E+06     40.0451E+06     154.199E+06    -5.11975E+03    -288.986E-03     508.813E-03    -219.828E-03     98.7291E-03    -291.857E-03     511.370E-03    -219.110E-03     76.3374E-03
            1337     792.088E-06     166.627E-03    -134.435E+06    -78.7486E+06    -128.980E+06    -20.1234E+06    -136.368E-03     271.008E-03    -134.640E-03    -1.19888E-03    -136.806E-03     270.930E-03    -134.976E-03    -1.94108E-03
            1338     1.58087E-03     166.689E-03    -128.287E+06    -73.3593E+06    -115.897E+06    -34.9154E+06    -138.111E-03     275.201E-03    -137.090E-03    -2.38997E-03    -138.543E-03     275.124E-03    -137.377E-03    -3.77420E-03
            1339     2.36592E-03     166.790E-03    -121.238E+06    -67.9069E+06    -99.5951E+06    -47.4475E+06    -142.534E-03     282.244E-03    -139.710E-03    -3.39961E-03    -142.967E-03     282.162E-03    -139.934E-03    -5.49980E-03
            1340     3.14310E-03     166.933E-03    -113.633E+06    -63.9304E+06    -84.3679E+06    -57.1314E+06    -148.568E-03     291.940E-03    -143.372E-03    -4.39938E-03    -148.996E-03     291.852E-03    -143.537E-03    -7.28626E-03
            1341     3.91072E-03     167.122E-03    -106.483E+06    -64.4395E+06    -71.3503E+06    -64.6217E+06    -155.784E-03     303.815E-03    -148.031E-03    -5.23527E-03    -156.205E-03     303.708E-03    -148.139E-03    -8.98170E-03
            1342     4.66652E-03     167.358E-03    -99.4965E+06    -67.0599E+06    -58.8802E+06    -70.0262E+06    -163.997E-03     317.619E-03    -153.622E-03    -6.35607E-03    -164.411E-03     317.490E-03    -153.675E-03    -11.0183E-03
            1343     5.40907E-03     167.642E-03    -91.4267E+06    -68.7061E+06    -44.7732E+06    -74.3046E+06    -173.187E-03     333.281E-03    -160.094E-03    -7.79737E-03    -173.595E-03     333.136E-03    -160.086E-03    -13.4554E-03
            1344     6.13699E-03     167.975E-03    -82.5484E+06    -66.3901E+06    -30.0329E+06    -77.8067E+06    -182.877E-03     350.218E-03    -167.341E-03    -9.57306E-03    -183.275E-03     350.075E-03    -167.275E-03    -16.2823E-03
            1345     6.84906E-03     168.353E-03    -75.4030E+06    -60.5959E+06    -16.8613E+06    -78.9400E+06    -192.282E-03     367.441E-03    -175.159E-03    -11.1236E-03    -192.683E-03     367.332E-03    -175.046E-03    -18.8655E-03
            1346     7.54568E-03     168.773E-03    -70.6370E+06    -55.1241E+06    -4.79761E+06    -78.0268E+06    -200.623E-03     383.876E-03    -183.253E-03    -11.3011E-03    -201.052E-03     383.823E-03    -183.095E-03    -19.9781E-03
            1347     8.23148E-03     169.226E-03    -67.4055E+06    -54.5142E+06     6.57020E+06    -76.4814E+06    -207.214E-03     398.458E-03    -191.244E-03    -8.94167E-03    -207.696E-03     398.470E-03    -191.034E-03    -18.4112E-03
            1348     8.90753E-03     169.702E-03    -65.2755E+06    -53.4180E+06     18.0605E+06    -75.1802E+06    -211.608E-03     410.294E-03    -198.686E-03    -2.08380E-03    -212.173E-03     410.404E-03    -198.424E-03    -12.1114E-03
            1349     9.58174E-03     170.190E-03    -64.4048E+06    -52.1679E+06     31.3527E+06    -73.4643E+06    -213.991E-03     419.159E-03    -205.168E-03     11.0025E-03    -214.689E-03     419.402E-03    -204.843E-03     660.984E-06
            1350     10.2605E-03     170.675E-03    -63.9568E+06    -53.2711E+06     46.7445E+06    -72.6554E+06    -215.589E-03     425.995E-03    -210.406E-03     30.0515E-03    -216.461E-03     426.396E-03    -210.002E-03     19.4817E-03
            1351     10.9407E-03     171.144E-03    -58.8351E+06    -39.0988E+06     68.9418E+06    -67.5364E+06    -217.580E-03     431.866E-03    -214.286E-03     53.7054E-03    -218.692E-03     432.528E-03    -213.799E-03     42.8027E-03
            1352     11.6331E-03     171.578E-03    -48.3076E+06    -20.6341E+06     98.4273E+06    -50.0602E+06    -221.406E-03     438.331E-03    -216.925E-03     81.3754E-03    -222.832E-03     439.326E-03    -216.333E-03     69.8423E-03
            1353     12.3219E-03     171.972E-03    -32.9855E+06     3.01989E+06     125.500E+06    -30.7869E+06    -227.819E-03     446.398E-03    -218.580E-03     108.318E-03    -229.640E-03     447.826E-03    -217.909E-03     95.4549E-03
            1354     13.0205E-03     172.283E-03    -18.8111E+06     32.5284E+06     143.146E+06    -14.7295E+06    -240.141E-03     459.966E-03    -219.825E-03     123.198E-03    -242.642E-03     462.134E-03    -219.129E-03     106.945E-03
            1355     13.7282E-03     172.524E-03    -8.86667E+06     32.6770E+06     157.995E+06    -1.92060E+06    -252.384E-03     473.712E-03    -221.328E-03     91.6924E-03    -254.511E-03     475.475E-03    -220.573E-03     75.9343E-03
            1356     750.600E-06     167.914E-03    -41.4053E+06    -31.2772E+06    -37.7935E+06    -11.8965E+06    -190.455E-03     384.066E-03    -193.611E-03    -44.9766E-03    -190.810E-03     383.701E-03    -193.695E-03    -46.0139E-03
            1357     1.50151E-03     167.978E-03    -40.3095E+06    -29.7963E+06    -29.3540E+06    -20.3722E+06    -189.339E-03     384.166E-03    -194.827E-03    -82.3106E-03    -189.637E-03     383.713E-03    -194.872E-03    -84.1870E-03
            1358     2.24556E-03     168.083E-03    -39.4987E+06    -28.8813E+06    -18.7903E+06    -27.6413E+06    -186.819E-03     384.422E-03    -197.604E-03    -121.065E-03    -187.005E-03     383.843E-03    -197.598E-03    -123.800E-03
            1359     2.98225E-03     168.230E-03    -38.3256E+06    -28.5979E+06    -7.61125E+06    -32.7509E+06    -182.761E-03     384.205E-03    -201.444E-03    -158.387E-03    -182.796E-03     383.456E-03    -201.385E-03    -161.963E-03
            1360     3.70949E-03     168.422E-03    -36.8943E+06    -29.9905E+06     4.77429E+06    -36.3846E+06    -176.576E-03     382.763E-03    -206.187E-03    -192.559E-03    -176.429E-03     381.812E-03    -206.066E-03    -196.916E-03
            1361     4.42596E-03     168.660E-03    -35.3485E+06    -32.7694E+06     17.7812E+06    -39.1936E+06    -168.164E-03     379.817E-03    -211.653E-03    -221.996E-03    -167.813E-03     378.648E-03    -211.465E-03    -227.064E-03
            1362     5.13049E-03     168.945E-03    -33.4655E+06    -32.9516E+06     31.2210E+06    -42.1100E+06    -157.780E-03     375.435E-03    -217.655E-03    -244.830E-03    -157.232E-03     374.082E-03    -217.402E-03    -250.520E-03
            1363     5.82243E-03     169.277E-03    -32.5942E+06    -32.1827E+06     43.2003E+06    -43.9414E+06    -145.818E-03     369.765E-03    -223.947E-03    -259.508E-03    -145.113E-03     368.295E-03    -223.637E-03    -265.689E-03
            1364     6.50364E-03     169.654E-03    -32.3780E+06    -29.9406E+06     53.5009E+06    -44.0160E+06    -132.878E-03     363.068E-03    -230.190E-03    -264.290E-03    -132.087E-03     361.575E-03    -229.832E-03    -270.770E-03
            1365     7.17787E-03     170.070E-03    -31.7143E+06    -25.7029E+06     63.6306E+06    -42.1282E+06    -119.833E-03     355.816E-03    -235.983E-03    -258.295E-03    -119.035E-03     354.405E-03    -235.582E-03    -264.845E-03
            1366     7.84782E-03     170.519E-03    -30.1902E+06    -22.6405E+06     74.7036E+06    -39.1295E+06    -107.510E-03     348.386E-03    -240.876E-03    -241.552E-03    -106.782E-03     347.138E-03    -240.426E-03    -247.954E-03
            1367     8.52236E-03     170.992E-03    -29.1774E+06    -20.9789E+06     86.7174E+06    -35.3146E+06    -96.7337E-03     341.164E-03    -244.430E-03    -215.465E-03    -96.1594E-03     340.140E-03    -243.924E-03    -221.573E-03
            1368     9.20835E-03     171.476E-03    -26.8949E+06    -18.4880E+06     100.515E+06    -32.5913E+06    -87.7888E-03     334.095E-03    -246.306E-03    -182.448E-03    -87.4173E-03     333.331E-03    -245.737E-03    -188.160E-03
            1369     9.90841E-03     171.965E-03    -24.0767E+06    -17.3340E+06     112.305E+06    -29.8998E+06    -80.8015E-03     327.072E-03    -246.270E-03    -143.160E-03    -80.6551E-03     326.574E-03    -245.649E-03    -148.402E-03
            1370     10.6368E-03     172.444E-03    -21.1469E+06    -17.9998E+06     119.202E+06    -29.2363E+06    -77.1502E-03     321.440E-03    -244.290E-03    -99.2909E-03    -77.2207E-03     321.192E-03    -243.637E-03    -104.126E-03
            1371     11.3832E-03     172.904E-03    -23.2033E+06    -25.8972E+06     119.003E+06    -28.6040E+06    -78.0731E-03     318.695E-03    -240.622E-03    -54.5468E-03    -78.3617E-03     318.639E-03    -239.956E-03    -59.0604E-03
            1372     12.1647E-03     173.325E-03    -23.4213E+06    -15.5434E+06     128.088E+06    -28.5603E+06    -87.6171E-03     323.589E-03    -235.972E-03    -16.1112E-03    -88.1256E-03     323.734E-03    -235.275E-03    -20.4851E-03
            1373     12.9470E-03     173.702E-03    -14.1115E+06     1.19058E+06     145.890E+06    -18.5120E+06    -112.567E-03     343.911E-03    -231.344E-03     18.1882E-03    -113.343E-03     344.389E-03    -230.596E-03     12.6997E-03
            1374     13.6797E-03     174.015E-03    -388.114E+03     10.1240E+06     134.270E+06    -4.23508E+06    -136.802E-03     363.791E-03    -226.989E-03     22.0640E-03    -137.523E-03     364.308E-03    -226.332E-03     16.0895E-03
            1375     13.6266E-03     86.4649E-03    -6.00806E+06     72.5520E+06     92.8780E+06    -135.734E+03    -226.159E-03     453.941E-03    -227.782E-03     86.5342E-03    -230.040E-03     457.788E-03    -227.414E-03     64.7321E-03
            1376     12.9060E-03     86.3178E-03    -11.4027E+06     68.8419E+06     93.8973E+06     612.699E+03    -225.739E-03     453.544E-03    -227.805E-03     135.838E-03    -231.881E-03     459.618E-03    -227.419E-03     108.214E-03
            1377     12.1858E-03     86.1380E-03    -16.9817E+06     62.4576E+06     93.3402E+06     1.37228E+06    -226.646E-03     454.488E-03    -227.842E-03     153.433E-03    -233.642E-03     461.374E-03    -227.441E-03     124.565E-03
            1378     11.4712E-03     85.9337E-03    -23.7161E+06     57.9486E+06     89.0487E+06     1.72586E+06    -228.029E-03     455.871E-03    -227.842E-03     173.579E-03    -236.169E-03     463.874E-03    -227.446E-03     142.826E-03
            1379     10.7536E-03     85.6952E-03    -32.0401E+06     50.8879E+06     78.3520E+06    -2.69956E+03    -228.676E-03     456.491E-03    -227.815E-03     187.772E-03    -237.464E-03     465.118E-03    -227.450E-03     156.214E-03
            1380     10.0370E-03     85.4490E-03    -39.6286E+06     42.8273E+06     66.8073E+06    -1.13007E+06    -229.151E-03     456.970E-03    -227.819E-03     198.211E-03    -238.251E-03     465.887E-03    -227.489E-03     166.401E-03
            1381     9.31817E-03     85.1850E-03    -46.9498E+06     28.0432E+06     56.5645E+06    -395.780E+03    -230.260E-03     458.116E-03    -227.855E-03     202.643E-03    -239.221E-03     466.846E-03    -227.545E-03     171.168E-03
            1382     8.60188E-03     84.9218E-03    -54.7197E+06     12.9016E+06     49.2796E+06     22.0317E+03    -230.962E-03     458.857E-03    -227.895E-03     200.661E-03    -239.346E-03     466.950E-03    -227.588E-03     170.286E-03
            1383     7.88405E-03     84.6599E-03    -62.7297E+06    -18.1091E+06     38.3471E+06    -77.5590E+03    -231.164E-03     459.099E-03    -227.935E-03     193.639E-03    -238.638E-03     466.175E-03    -227.626E-03     165.032E-03
            1384     7.16795E-03     84.4110E-03    -71.5290E+06    -66.2999E+06     20.3620E+06     71.8927E+03    -231.236E-03     459.200E-03    -227.964E-03     182.742E-03    -237.595E-03     465.011E-03    -227.663E-03     156.410E-03
            1385     6.45000E-03     84.1778E-03    -80.6218E+06    -109.286E+06     2.03656E+06     115.584E+03    -231.079E-03     459.060E-03    -227.981E-03     169.049E-03    -236.287E-03     463.588E-03    -227.696E-03     145.330E-03
            1386     5.73432E-03     83.9622E-03    -89.7004E+06    -146.735E+06    -16.5200E+06     138.596E+03    -230.662E-03     458.654E-03    -227.992E-03     153.472E-03    -234.781E-03     461.982E-03    -227.732E-03     132.541E-03
            1387     5.01612E-03     83.7698E-03    -98.9009E+06    -184.777E+06    -35.2174E+06    -15.4590E+03    -230.265E-03     458.271E-03    -228.006E-03     136.587E-03    -233.401E-03     460.502E-03    -227.771E-03     118.492E-03
            1388     4.30013E-03     83.5974E-03    -107.849E+06    -216.840E+06    -54.0939E+06     189.478E+03    -229.936E-03     457.930E-03    -227.994E-03     118.593E-03    -232.228E-03     459.226E-03    -227.794E-03     103.302E-03
            1389     3.58324E-03     83.4507E-03    -116.673E+06    -243.483E+06    -74.4280E+06     368.905E+03    -229.452E-03     457.397E-03    -227.945E-03     99.9256E-03    -231.044E-03     457.926E-03    -227.794E-03     87.3820E-03
            1390     2.86649E-03     83.3276E-03    -125.024E+06    -278.534E+06    -93.9020E+06     133.896E+03    -229.008E-03     456.898E-03    -227.890E-03     80.6686E-03    -230.025E-03     456.754E-03    -227.775E-03     70.7766E-03
            1391     2.15083E-03     83.2322E-03    -132.211E+06    -304.314E+06    -111.732E+06     139.781E+03    -228.514E-03     456.326E-03    -227.812E-03     61.1975E-03    -229.098E-03     455.684E-03    -227.738E-03     53.8561E-03
            1392     1.43303E-03     83.1615E-03    -138.205E+06    -314.758E+06    -128.481E+06    -15.6737E+03    -228.054E-03     455.774E-03    -227.720E-03     41.7004E-03    -228.348E-03     454.832E-03    -227.705E-03     36.7774E-03
            1393     716.513E-06     83.1200E-03    -141.201E+06    -321.871E+06    -139.804E+06    -430.248E+03    -227.921E-03     455.444E-03    -227.523E-03     23.1456E-03    -228.036E-03     454.321E-03    -227.550E-03     20.5521E-03
            1394     13.6167E-03     84.9781E-03    -4.97791E+06     71.1516E+06     92.3089E+06     465.530E+03    -225.474E-03     453.280E-03    -227.805E-03     85.9271E-03    -229.331E-03     457.103E-03    -227.440E-03     64.1956E-03
            1395     12.9018E-03     84.8151E-03    -10.1045E+06     68.4445E+06     93.6783E+06     434.357E+03    -226.331E-03     454.159E-03    -227.828E-03     134.283E-03    -232.440E-03     460.203E-03    -227.444E-03     106.563E-03
            1396     12.1890E-03     84.6486E-03    -15.9506E+06     60.5053E+06     92.9665E+06     838.203E+03    -227.214E-03     455.042E-03    -227.828E-03     152.356E-03    -234.197E-03     461.913E-03    -227.428E-03     123.377E-03
            1397     11.4704E-03     84.4330E-03    -22.3698E+06     57.8395E+06     89.7095E+06     1.51459E+06    -227.507E-03     455.335E-03    -227.828E-03     174.120E-03    -235.652E-03     463.346E-03    -227.431E-03     143.439E-03
            1398     10.7545E-03     84.2056E-03    -28.1642E+06     54.4724E+06     81.4529E+06     1.37019E+06    -228.040E-03     455.888E-03    -227.847E-03     188.450E-03    -236.820E-03     464.525E-03    -227.478E-03     157.029E-03
            1399     10.0347E-03     83.9543E-03    -35.6875E+06     43.0669E+06     68.9492E+06     832.283E+03    -229.377E-03     457.250E-03    -227.873E-03     198.521E-03    -238.464E-03     466.164E-03    -227.539E-03     166.714E-03
            1400     9.31882E-03     83.6911E-03    -43.9747E+06     27.8801E+06     58.1636E+06     279.389E+03    -230.581E-03     458.473E-03    -227.891E-03     202.042E-03    -239.513E-03     467.179E-03    -227.577E-03     170.540E-03
            1401     8.60114E-03     83.4263E-03    -52.2938E+06     12.9283E+06     50.9050E+06    -74.8744E+03    -231.072E-03     458.983E-03    -227.911E-03     200.017E-03    -239.437E-03     467.060E-03    -227.600E-03     169.617E-03
            1402     7.88524E-03     83.1659E-03    -61.5804E+06    -18.8591E+06     38.9766E+06     189.990E+03    -231.239E-03     459.176E-03    -227.937E-03     193.445E-03    -238.707E-03     466.246E-03    -227.626E-03     164.822E-03
            1403     7.16692E-03     82.9173E-03    -70.8231E+06    -66.7690E+06     20.4311E+06     407.119E+03    -231.277E-03     459.235E-03    -227.958E-03     182.570E-03    -237.626E-03     465.035E-03    -227.656E-03     156.246E-03
            1404     6.45122E-03     82.6824E-03    -80.2572E+06    -109.286E+06     1.95977E+06     473.200E+03    -231.045E-03     459.016E-03    -227.971E-03     168.820E-03    -236.245E-03     463.537E-03    -227.686E-03     145.115E-03
            1405     5.73300E-03     82.4695E-03    -89.7284E+06    -146.892E+06    -16.6554E+06     389.998E+03    -230.722E-03     458.699E-03    -227.977E-03     153.284E-03    -234.837E-03     462.022E-03    -227.717E-03     132.357E-03
            1406     5.01723E-03     82.2745E-03    -98.7752E+06    -184.799E+06    -35.3368E+06     238.214E+03    -230.473E-03     458.440E-03    -227.967E-03     136.502E-03    -233.608E-03     460.670E-03    -227.732E-03     118.392E-03
            1407     4.30019E-03     82.1037E-03    -108.076E+06    -217.480E+06    -54.2583E+06     191.379E+03    -230.002E-03     457.928E-03    -227.927E-03     118.607E-03    -232.292E-03     459.221E-03    -227.726E-03     103.318E-03
            1408     3.58372E-03     81.9563E-03    -116.820E+06    -243.383E+06    -73.8672E+06     365.991E+03    -229.359E-03     457.231E-03    -227.872E-03     100.145E-03    -230.954E-03     457.761E-03    -227.719E-03     87.6107E-03
            1409     2.86729E-03     81.8341E-03    -124.823E+06    -277.935E+06    -93.7266E+06     301.575E+03    -228.823E-03     456.659E-03    -227.836E-03     81.1606E-03    -229.844E-03     456.522E-03    -227.721E-03     71.2744E-03
            1410     2.14965E-03     81.7381E-03    -132.249E+06    -304.561E+06    -111.853E+06    -54.4454E+03    -228.449E-03     456.236E-03    -227.786E-03     61.4542E-03    -229.035E-03     455.595E-03    -227.712E-03     54.1066E-03
            1411     1.43381E-03     81.6691E-03    -138.163E+06    -314.620E+06    -128.119E+06    -6.65259E+03    -228.041E-03     455.742E-03    -227.701E-03     41.5521E-03    -228.335E-03     454.800E-03    -227.685E-03     36.6373E-03
            1412     717.036E-06     81.6252E-03    -142.443E+06    -322.462E+06    -139.172E+06     141.099E+03    -227.630E-03     455.395E-03    -227.765E-03     23.0543E-03    -227.751E-03     454.270E-03    -227.787E-03     20.4184E-03
            1413     13.6249E-03     83.4800E-03    -4.06802E+06     71.1012E+06     92.8921E+06     293.225E+03    -226.181E-03     453.969E-03    -227.788E-03     85.1674E-03    -230.027E-03     457.783E-03    -227.421E-03     63.3763E-03
            1414     12.9075E-03     83.3234E-03    -9.35316E+06     68.8880E+06     94.3785E+06     659.735E+03    -226.071E-03     453.868E-03    -227.797E-03     134.070E-03    -232.171E-03     459.905E-03    -227.411E-03     106.410E-03
            1415     12.1872E-03     83.1498E-03    -15.9686E+06     59.7890E+06     92.1997E+06     -30.794E+03    -226.380E-03     454.206E-03    -227.826E-03     153.215E-03    -233.358E-03     461.072E-03    -227.428E-03     124.375E-03
            1416     11.4715E-03     82.9428E-03    -21.4001E+06     56.6397E+06     89.3292E+06    -519.629E+03    -226.986E-03     454.861E-03    -227.876E-03     174.835E-03    -235.125E-03     462.866E-03    -227.480E-03     144.225E-03
            1417     10.7506E-03     82.7111E-03    -28.4329E+06     52.3833E+06     81.5442E+06     576.094E+03    -228.538E-03     456.443E-03    -227.906E-03     188.448E-03    -237.323E-03     465.077E-03    -227.533E-03     156.930E-03
            1418     10.0363E-03     82.4587E-03    -36.0054E+06     44.3462E+06     70.7586E+06     1.59062E+06    -230.015E-03     457.909E-03    -227.894E-03     197.690E-03    -239.100E-03     466.817E-03    -227.552E-03     165.784E-03
            1419     9.31845E-03     82.1973E-03    -43.8265E+06     29.6328E+06     59.3302E+06     922.594E+03    -230.531E-03     458.411E-03    -227.881E-03     201.669E-03    -239.457E-03     467.115E-03    -227.563E-03     170.187E-03
            1420     8.60223E-03     81.9310E-03    -52.5044E+06     12.3854E+06     50.2712E+06     640.978E+03    -230.937E-03     458.838E-03    -227.901E-03     200.102E-03    -239.302E-03     466.914E-03    -227.591E-03     169.732E-03
            1421     7.88384E-03     81.6727E-03    -61.5250E+06    -19.4103E+06     38.4703E+06     843.435E+03    -231.321E-03     459.249E-03    -227.929E-03     193.366E-03    -238.786E-03     466.315E-03    -227.619E-03     164.739E-03
            1422     7.16841E-03     81.4213E-03    -71.0838E+06    -66.6797E+06     20.2326E+06     889.555E+03    -231.308E-03     459.250E-03    -227.943E-03     182.481E-03    -237.657E-03     465.052E-03    -227.642E-03     156.154E-03
            1423     6.45019E-03     81.1902E-03    -80.4178E+06    -109.048E+06     1.95344E+06     770.553E+03    -231.094E-03     459.043E-03    -227.949E-03     168.705E-03    -236.294E-03     463.564E-03    -227.664E-03     144.999E-03
            1424     5.73436E-03     80.9739E-03    -89.4234E+06    -146.573E+06    -16.2965E+06     558.710E+03    -230.889E-03     458.826E-03    -227.937E-03     153.130E-03    -235.000E-03     462.146E-03    -227.677E-03     132.197E-03
            1425     5.01699E-03     80.7811E-03    -98.7981E+06    -184.576E+06    -35.0230E+06     473.551E+03    -230.387E-03     458.303E-03    -227.916E-03     136.394E-03    -233.518E-03     460.529E-03    -227.680E-03     118.308E-03
            1426     4.30047E-03     80.6090E-03    -107.831E+06    -217.291E+06    -54.1006E+06     470.490E+03    -229.736E-03     457.634E-03    -227.898E-03     118.803E-03    -232.027E-03     458.928E-03    -227.697E-03     103.541E-03
            1427     3.58369E-03     80.4628E-03    -116.810E+06    -243.700E+06    -74.0765E+06     238.455E+03    -229.168E-03     457.054E-03    -227.886E-03     100.455E-03    -230.764E-03     457.585E-03    -227.734E-03     87.9330E-03
            1428     2.86626E-03     80.3406E-03    -125.077E+06    -278.093E+06    -93.6359E+06     93.4124E+03    -228.776E-03     456.666E-03    -227.890E-03     81.4401E-03    -229.800E-03     456.530E-03    -227.773E-03     71.5464E-03
            1429     2.15041E-03     80.2442E-03    -132.165E+06    -304.275E+06    -111.985E+06     262.175E+03    -228.474E-03     456.335E-03    -227.861E-03     61.5879E-03    -229.060E-03     455.696E-03    -227.788E-03     54.2369E-03
            1430     1.43333E-03     80.1750E-03    -138.225E+06    -314.820E+06    -128.250E+06     75.6056E+03    -228.145E-03     455.926E-03    -227.781E-03     41.6632E-03    -228.438E-03     454.983E-03    -227.766E-03     36.7630E-03
            1431     716.397E-06     80.1335E-03    -141.965E+06    -322.681E+06    -139.859E+06     10.6849E+03    -227.877E-03     455.546E-03    -227.669E-03     22.9634E-03    -227.995E-03     454.421E-03    -227.694E-03     20.2908E-03
            1432     13.6199E-03     81.9833E-03    -5.15471E+06     70.3041E+06     92.1795E+06    -422.746E+03    -225.786E-03     453.584E-03    -227.798E-03     87.2333E-03    -229.680E-03     457.442E-03    -227.432E-03     65.4015E-03
            1433     12.9029E-03     81.8296E-03    -11.1800E+06     66.8404E+06     92.3430E+06    -543.249E+03    -225.639E-03     453.471E-03    -227.832E-03     135.968E-03    -231.778E-03     459.541E-03    -227.451E-03     108.331E-03
            1434     12.1878E-03     81.6562E-03    -16.1522E+06     61.1312E+06     92.6036E+06    -784.943E+03    -226.211E-03     454.102E-03    -227.891E-03     153.758E-03    -233.196E-03     460.979E-03    -227.493E-03     124.961E-03
            1435     11.4673E-03     81.4503E-03    -23.5839E+06     54.9553E+06     88.4900E+06    -682.954E+03    -227.855E-03     455.775E-03    -227.920E-03     173.901E-03    -235.999E-03     463.774E-03    -227.523E-03     143.129E-03
            1436     10.7541E-03     81.2140E-03    -31.4381E+06     49.4941E+06     79.3249E+06     257.752E+03    -229.083E-03     456.977E-03    -227.894E-03     187.506E-03    -237.863E-03     465.592E-03    -227.524E-03     155.886E-03
            1437     10.0355E-03     80.9650E-03    -38.6841E+06     44.7555E+06     68.5557E+06    -35.3515E+03    -229.752E-03     457.613E-03    -227.862E-03     197.518E-03    -238.843E-03     466.528E-03    -227.528E-03     165.615E-03
            1438     9.31939E-03     80.7016E-03    -45.9726E+06     29.0931E+06     57.4478E+06    -11.3111E+03    -230.445E-03     458.306E-03    -227.861E-03     201.708E-03    -239.378E-03     467.013E-03    -227.549E-03     170.220E-03
            1439     8.60098E-03     80.4389E-03    -53.8980E+06     11.5204E+06     49.3558E+06     527.822E+03    -230.997E-03     458.881E-03    -227.884E-03     200.045E-03    -239.360E-03     466.951E-03    -227.576E-03     169.673E-03
            1440     7.88545E-03     80.1756E-03    -62.9274E+06    -19.3508E+06     37.8844E+06     557.283E+03    -231.288E-03     459.196E-03    -227.909E-03     193.142E-03    -238.750E-03     466.257E-03    -227.600E-03     164.524E-03
            1441     7.16714E-03     79.9295E-03    -71.8662E+06    -66.7530E+06     19.8502E+06     371.637E+03    -231.293E-03     459.213E-03    -227.920E-03     182.168E-03    -237.639E-03     465.010E-03    -227.620E-03     155.838E-03
            1442     6.45128E-03     79.6938E-03    -80.6836E+06    -108.980E+06     2.04807E+06     439.167E+03    -231.168E-03     459.088E-03    -227.920E-03     168.692E-03    -236.366E-03     463.606E-03    -227.635E-03     144.987E-03
            1443     5.73400E-03     79.4809E-03    -90.1700E+06    -146.689E+06    -16.7370E+06     453.965E+03    -230.785E-03     458.692E-03    -227.907E-03     153.365E-03    -234.900E-03     462.014E-03    -227.647E-03     132.447E-03
            1444     5.01763E-03     79.2861E-03    -99.3671E+06    -184.776E+06    -35.4593E+06     471.442E+03    -230.164E-03     458.073E-03    -227.909E-03     136.689E-03    -233.299E-03     460.302E-03    -227.674E-03     118.629E-03
            1445     4.30043E-03     79.1166E-03    -108.329E+06    -217.174E+06    -54.4012E+06     391.867E+03    -229.574E-03     457.500E-03    -227.926E-03     119.086E-03    -231.868E-03     458.797E-03    -227.726E-03     103.839E-03
            1446     3.58293E-03     78.9686E-03    -116.829E+06    -243.484E+06    -74.1933E+06     338.440E+03    -229.188E-03     457.123E-03    -227.934E-03     100.429E-03    -230.785E-03     457.655E-03    -227.783E-03     87.9087E-03
            1447     2.86687E-03     78.8470E-03    -125.184E+06    -278.318E+06    -94.0711E+06     305.228E+03    -228.801E-03     456.743E-03    -227.942E-03     81.1869E-03    -229.820E-03     456.603E-03    -227.827E-03     71.3100E-03
            1448     2.14939E-03     78.7500E-03    -132.717E+06    -304.298E+06    -112.649E+06     120.478E+03    -228.358E-03     456.307E-03    -227.949E-03     61.5466E-03    -228.947E-03     455.671E-03    -227.878E-03     54.1886E-03
            1449     1.43296E-03     78.6819E-03    -138.569E+06    -314.683E+06    -128.250E+06     94.8918E+03    -228.219E-03     456.140E-03    -227.921E-03     41.6133E-03    -228.514E-03     455.198E-03    -227.905E-03     36.7178E-03
            1450     717.052E-06     78.6379E-03    -142.483E+06    -322.655E+06    -139.347E+06     452.212E+03    -228.056E-03     455.852E-03    -227.796E-03     22.5731E-03    -228.176E-03     454.726E-03    -227.819E-03     19.9267E-03
            1451     13.6209E-03     80.4894E-03    -4.02334E+06     70.4150E+06     92.2325E+06     881.991E+03    -225.029E-03     452.866E-03    -227.836E-03     86.4835E-03    -228.867E-03     456.671E-03    -227.471E-03     64.8563E-03
            1452     12.9046E-03     80.3331E-03    -9.94219E+06     69.1818E+06     93.7662E+06    -446.795E+03    -225.777E-03     453.666E-03    -227.889E-03     133.700E-03    -231.858E-03     459.685E-03    -227.506E-03     106.083E-03
            1453     12.1844E-03     80.1655E-03    -17.3986E+06     61.2274E+06     92.4172E+06    -1.06124E+06    -227.140E-03     455.048E-03    -227.908E-03     152.076E-03    -234.124E-03     461.919E-03    -227.510E-03     123.076E-03
            1454     11.4717E-03     79.9497E-03    -23.8826E+06     53.1621E+06     87.8106E+06    -377.420E+03    -228.135E-03     456.028E-03    -227.893E-03     173.347E-03    -236.274E-03     464.016E-03    -227.496E-03     142.513E-03
            1455     10.7528E-03     79.7227E-03    -30.2994E+06     49.0655E+06     78.9888E+06    -471.425E+03    -228.831E-03     456.692E-03    -227.861E-03     187.649E-03    -237.608E-03     465.306E-03    -227.493E-03     156.046E-03
            1456     10.0363E-03     79.4688E-03    -37.1930E+06     44.2679E+06     68.1597E+06    -114.636E+03    -229.625E-03     457.466E-03    -227.841E-03     197.672E-03    -238.704E-03     466.373E-03    -227.510E-03     165.805E-03
            1457     9.31826E-03     79.2091E-03    -45.3129E+06     28.0306E+06     57.0242E+06     341.252E+03    -230.547E-03     458.389E-03    -227.841E-03     201.389E-03    -239.465E-03     467.079E-03    -227.531E-03     169.902E-03
            1458     8.60285E-03     78.9422E-03    -54.0889E+06     11.3751E+06     49.4224E+06     457.976E+03    -231.077E-03     458.933E-03    -227.856E-03     199.843E-03    -239.435E-03     466.996E-03    -227.547E-03     169.466E-03
            1459     7.88438E-03     78.6838E-03    -62.7943E+06    -19.3948E+06     37.8531E+06     356.335E+03    -231.182E-03     459.059E-03    -227.877E-03     193.040E-03    -238.635E-03     466.110E-03    -227.569E-03     164.455E-03
            1460     7.16862E-03     78.4330E-03    -71.8288E+06    -67.0518E+06     19.5455E+06     263.096E+03    -231.199E-03     459.094E-03    -227.895E-03     182.251E-03    -237.537E-03     464.882E-03    -227.596E-03     155.959E-03
            1461     6.45103E-03     78.2016E-03    -81.2677E+06    -109.715E+06     1.41623E+06     257.789E+03    -231.011E-03     458.921E-03    -227.910E-03     169.047E-03    -236.212E-03     463.440E-03    -227.626E-03     145.362E-03
            1462     5.73421E-03     77.9855E-03    -90.4246E+06    -146.719E+06    -17.0047E+06     501.740E+03    -230.538E-03     458.464E-03    -227.926E-03     153.539E-03    -234.651E-03     461.784E-03    -227.667E-03     132.661E-03
            1463     5.01677E-03     77.7935E-03    -99.4105E+06    -184.803E+06    -35.7862E+06     319.982E+03    -230.090E-03     458.044E-03    -227.955E-03     136.785E-03    -233.224E-03     460.274E-03    -227.721E-03     118.727E-03
            1464     4.29965E-03     77.6222E-03    -108.386E+06    -217.662E+06    -54.6536E+06     69.4001E+03    -229.802E-03     457.768E-03    -227.966E-03     119.015E-03    -232.096E-03     459.063E-03    -227.767E-03     103.742E-03
            1465     3.58362E-03     77.4750E-03    -117.149E+06    -243.616E+06    -74.0883E+06     308.931E+03    -229.257E-03     457.212E-03    -227.954E-03     100.222E-03    -230.850E-03     457.739E-03    -227.802E-03     87.7111E-03
            1466     2.86621E-03     77.3527E-03    -125.222E+06    -277.826E+06    -93.8270E+06     486.480E+03    -228.661E-03     456.638E-03    -227.977E-03     81.1859E-03    -229.684E-03     456.502E-03    -227.861E-03     71.3053E-03
            1467     2.15000E-03     77.2572E-03    -132.540E+06    -304.124E+06    -112.349E+06     260.114E+03    -228.377E-03     456.390E-03    -228.013E-03     61.7045E-03    -228.966E-03     455.755E-03    -227.942E-03     54.3496E-03
            1468     1.43308E-03     77.1866E-03    -138.487E+06    -314.844E+06    -128.574E+06     28.6483E+03    -228.147E-03     456.188E-03    -228.041E-03     41.8020E-03    -228.443E-03     455.247E-03    -228.027E-03     36.8783E-03
            1469     716.156E-06     77.1445E-03    -142.640E+06    -322.776E+06    -139.486E+06    -522.367E+03    -228.165E-03     456.194E-03    -228.030E-03     22.5427E-03    -228.286E-03     455.068E-03    -228.052E-03     19.9188E-03
            1470     13.6217E-03     78.9976E-03    -6.73282E+06     69.2293E+06     91.2327E+06    -242.814E+03    -225.901E-03     453.730E-03    -227.829E-03     85.9356E-03    -229.749E-03     457.536E-03    -227.464E-03     64.1877E-03
            1471     12.9016E-03     78.8394E-03    -10.6172E+06     70.5405E+06     94.5899E+06     687.469E+03    -226.067E-03     453.917E-03    -227.850E-03     133.287E-03    -232.144E-03     459.932E-03    -227.464E-03     105.684E-03
            1472     12.1898E-03     78.6657E-03    -15.4595E+06     62.0241E+06     93.8049E+06    -224.293E+03    -226.955E-03     454.819E-03    -227.864E-03     152.041E-03    -233.930E-03     461.687E-03    -227.462E-03     123.062E-03
            1473     11.4693E-03     78.4597E-03    -22.2810E+06     51.9089E+06     87.9600E+06    -1.09821E+06    -227.693E-03     455.559E-03    -227.865E-03     173.944E-03    -235.823E-03     463.539E-03    -227.469E-03     143.179E-03
            1474     10.7532E-03     78.2245E-03    -29.0741E+06     48.1580E+06     80.0169E+06    -413.264E+03    -228.749E-03     456.605E-03    -227.856E-03     187.568E-03    -237.514E-03     465.206E-03    -227.483E-03     155.991E-03
            1475     10.0360E-03     77.9770E-03    -37.3031E+06     42.3936E+06     69.1120E+06     468.068E+03    -229.826E-03     457.657E-03    -227.832E-03     197.310E-03    -238.897E-03     466.546E-03    -227.494E-03     165.427E-03
            1476     9.31999E-03     77.7125E-03    -45.3766E+06     27.9971E+06     57.7863E+06     1.09354E+06    -230.558E-03     458.377E-03    -227.819E-03     201.603E-03    -239.475E-03     467.065E-03    -227.505E-03     170.147E-03
            1477     8.60165E-03     77.4497E-03    -53.4363E+06     11.7887E+06     49.4075E+06     793.766E+03    -230.976E-03     458.808E-03    -227.833E-03     199.891E-03    -239.324E-03     466.865E-03    -227.525E-03     169.557E-03
            1478     7.88591E-03     77.1880E-03    -62.4341E+06    -19.5944E+06     37.7330E+06     560.098E+03    -231.006E-03     458.874E-03    -227.868E-03     193.363E-03    -238.455E-03     465.923E-03    -227.561E-03     164.824E-03
            1479     7.16765E-03     76.9406E-03    -71.8435E+06     -67.226E+06     19.4977E+06     605.821E+03    -231.062E-03     458.971E-03    -227.909E-03     182.894E-03    -237.409E-03     464.767E-03    -227.610E-03     156.628E-03
            1480     6.45078E-03     76.7063E-03    -80.9867E+06    -109.624E+06     1.45371E+06     481.668E+03    -230.901E-03     458.845E-03    -227.944E-03     169.193E-03    -236.102E-03     463.365E-03    -227.660E-03     145.523E-03
            1481     5.73374E-03     76.4925E-03    -90.0942E+06    -146.637E+06    -16.6345E+06     393.767E+03    -230.563E-03     458.534E-03    -227.971E-03     153.535E-03    -234.676E-03     461.856E-03    -227.711E-03     132.648E-03
            1482     5.01663E-03     76.2999E-03    -99.2704E+06    -184.845E+06    -35.5925E+06     267.691E+03    -230.378E-03     458.359E-03    -227.981E-03     136.519E-03    -233.511E-03     460.586E-03    -227.747E-03     118.434E-03
            1483     4.30037E-03     76.1274E-03    -108.369E+06    -217.880E+06    -54.6644E+06     144.398E+03    -229.809E-03     457.777E-03    -227.968E-03     118.591E-03    -232.097E-03     459.066E-03    -227.768E-03     103.320E-03
            1484     3.58309E-03     75.9814E-03    -117.126E+06    -243.977E+06    -74.3486E+06      53.808E+03    -229.128E-03     457.094E-03    -227.966E-03     100.225E-03    -230.722E-03     457.622E-03    -227.814E-03     87.7036E-03
            1485     2.86650E-03     75.8594E-03    -125.128E+06    -278.048E+06    -93.8161E+06    -21.6415E+03    -228.765E-03     456.756E-03    -227.991E-03     81.0943E-03    -229.788E-03     456.620E-03    -227.876E-03     71.1904E-03
            1486     2.14911E-03     75.7628E-03    -132.350E+06    -304.028E+06    -111.951E+06     202.408E+03    -228.382E-03     456.397E-03    -228.015E-03     61.5000E-03    -228.969E-03     455.759E-03    -227.942E-03     54.1575E-03
            1487     1.43287E-03     75.6925E-03    -138.398E+06    -314.875E+06    -128.464E+06     189.448E+03    -228.068E-03     456.133E-03    -228.065E-03     41.5499E-03    -228.361E-03     455.190E-03    -228.050E-03     36.6568E-03
            1488     716.149E-06     75.6509E-03    -142.217E+06    -323.120E+06    -140.102E+06     45.6251E+03    -228.380E-03     456.291E-03    -227.911E-03     22.8936E-03    -228.498E-03     455.163E-03    -227.937E-03     20.2516E-03
            1489     13.6201E-03     77.4998E-03    -5.03590E+06     69.1590E+06     92.6144E+06    -456.802E+03    -226.047E-03     453.842E-03    -227.795E-03     85.1613E-03    -229.895E-03     457.649E-03    -227.425E-03     63.3119E-03
            1490     12.9084E-03     77.3445E-03    -10.9055E+06     68.9026E+06     93.4761E+06    -1.53914E+06    -225.772E-03     453.583E-03    -227.810E-03     134.287E-03    -231.885E-03     459.630E-03    -227.427E-03     106.587E-03
            1491     12.1851E-03     77.1737E-03    -16.3210E+06     62.0936E+06     92.9262E+06    -806.339E+03    -226.583E-03     454.428E-03    -227.845E-03     153.234E-03    -233.575E-03     461.313E-03    -227.447E-03     124.311E-03
            1492     11.4711E-03     76.9625E-03    -22.7193E+06     51.1860E+06     87.7149E+06    -218.007E+03    -227.862E-03     455.719E-03    -227.857E-03     173.397E-03    -235.978E-03     463.681E-03    -227.459E-03     142.645E-03
            1493     10.7534E-03     76.7325E-03    -30.7723E+06     46.2651E+06     78.5473E+06     281.517E+03    -228.690E-03     456.529E-03    -227.839E-03     187.519E-03    -237.450E-03     465.116E-03    -227.469E-03     155.985E-03
            1494     10.0367E-03     76.4797E-03    -38.1876E+06     41.2950E+06     68.0406E+06     602.576E+03    -229.697E-03     457.520E-03    -227.823E-03     197.703E-03    -238.773E-03     466.410E-03    -227.487E-03     165.850E-03
            1495     9.31879E-03     76.2205E-03    -45.4346E+06     27.4787E+06     57.4429E+06     535.946E+03    -230.534E-03     458.355E-03    -227.821E-03     202.010E-03    -239.459E-03     467.050E-03    -227.508E-03     170.550E-03
            1496     8.60290E-03     75.9531E-03    -53.6994E+06     11.7444E+06     49.3928E+06     746.480E+03    -230.778E-03     458.627E-03    -227.849E-03     200.208E-03    -239.128E-03     466.685E-03    -227.541E-03     169.913E-03
            1497     7.88435E-03     75.6963E-03    -62.6883E+06    -19.2318E+06     37.9008E+06     755.554E+03    -231.008E-03     458.906E-03    -227.898E-03     193.560E-03    -238.466E-03     465.963E-03    -227.590E-03     165.014E-03
            1498     7.16754E-03     75.4454E-03    -71.8134E+06    -67.0196E+06     19.7906E+06     441.878E+03    -231.107E-03     459.046E-03    -227.939E-03     182.673E-03    -237.451E-03     464.840E-03    -227.639E-03     156.394E-03
            1499     6.45074E-03     75.2126E-03    -80.9681E+06    -109.294E+06     1.70385E+06     443.315E+03    -230.917E-03     458.886E-03    -227.969E-03     168.706E-03    -236.109E-03     463.398E-03    -227.685E-03     145.043E-03
            1500     5.73315E-03     74.9994E-03    -90.0672E+06    -147.141E+06    -16.7302E+06     94.5002E+03    -230.780E-03     458.759E-03    -227.979E-03     153.180E-03    -234.890E-03     462.075E-03    -227.718E-03     132.256E-03
            1501     5.01714E-03     74.8034E-03    -99.2330E+06    -184.907E+06    -35.1500E+06     288.269E+03    -230.289E-03     458.269E-03    -227.980E-03     136.450E-03    -233.422E-03     460.495E-03    -227.744E-03     118.366E-03
            1502     4.30018E-03     74.6352E-03    -108.295E+06    -217.544E+06    -54.4160E+06     461.902E+03    -229.642E-03     457.630E-03    -227.988E-03     118.880E-03    -231.936E-03     458.926E-03    -227.788E-03     103.613E-03
            1503     3.58304E-03     74.4873E-03    -117.123E+06    -244.308E+06    -74.6973E+06    -49.2219E+03    -229.310E-03     457.296E-03    -227.986E-03     100.437E-03    -230.908E-03     457.828E-03    -227.836E-03     87.8892E-03
            1504     2.86632E-03     74.3651E-03    -125.477E+06    -278.635E+06    -94.3641E+06    -82.2202E+03    -228.976E-03     456.943E-03    -227.967E-03     80.9478E-03    -229.995E-03     456.801E-03    -227.853E-03     71.0501E-03
            1505     2.15050E-03     74.2691E-03    -132.747E+06    -304.608E+06    -112.292E+06     54.3960E+03    -228.417E-03     456.360E-03    -227.943E-03     61.2927E-03    -229.002E-03     455.718E-03    -227.870E-03     53.9549E-03
            1506     1.43298E-03     74.1993E-03    -138.090E+06    -314.708E+06    -128.099E+06     273.322E+03    -228.142E-03     456.063E-03    -227.922E-03     41.7165E-03    -228.433E-03     455.119E-03    -227.906E-03     36.8363E-03
            1507     716.834E-06     74.1548E-03    -142.406E+06    -323.119E+06    -139.448E+06     258.987E+03    -228.217E-03     455.900E-03    -227.682E-03     22.7476E-03    -228.337E-03     454.772E-03    -227.704E-03     20.0844E-03
            1508     13.6244E-03     76.0025E-03    -3.37651E+06     70.1625E+06     93.8658E+06    -164.347E+03    -225.388E-03     453.172E-03    -227.784E-03     86.5035E-03    -229.241E-03     456.990E-03    -227.412E-03     64.7373E-03
            1509     12.9008E-03     75.8542E-03    -8.42514E+06     69.9410E+06     95.2765E+06     168.098E+03    -225.992E-03     453.806E-03    -227.814E-03     134.167E-03    -232.089E-03     459.844E-03    -227.426E-03     106.480E-03
            1510     12.1890E-03     75.6756E-03    -16.9775E+06     61.1444E+06     92.1983E+06    -52.2573E+03    -226.813E-03     454.641E-03    -227.828E-03     152.303E-03    -233.787E-03     461.504E-03    -227.431E-03     123.378E-03
            1511     11.4702E-03     75.4698E-03    -24.5085E+06     50.6895E+06     86.2820E+06     119.951E+03    -227.469E-03     455.309E-03    -227.840E-03     173.462E-03    -235.587E-03     463.269E-03    -227.447E-03     142.779E-03
            1512     10.7537E-03     75.2361E-03    -31.4212E+06     45.4396E+06     77.1770E+06    -183.774E+03    -228.609E-03     456.447E-03    -227.839E-03     188.040E-03    -237.376E-03     465.041E-03    -227.473E-03     156.518E-03
            1513     10.0356E-03     74.9883E-03    -38.2848E+06     40.8739E+06     67.4354E+06    -236.395E+03    -229.650E-03     457.483E-03    -227.833E-03     197.854E-03    -238.720E-03     466.366E-03    -227.499E-03     166.018E-03
            1514     9.31952E-03     74.7226E-03    -46.0842E+06     26.3720E+06     56.9641E+06    -28.0908E+03    -230.261E-03     458.108E-03    -227.847E-03     201.795E-03    -239.176E-03     466.788E-03    -227.534E-03     170.375E-03
            1515     8.60114E-03     74.4624E-03    -54.2436E+06     11.1235E+06     49.3051E+06     200.376E+03    -230.835E-03     458.721E-03    -227.886E-03     200.215E-03    -239.194E-03     466.784E-03    -227.577E-03     169.883E-03
            1516     7.88462E-03     74.1996E-03    -62.9039E+06    -19.1492E+06     38.0873E+06     206.039E+03    -231.266E-03     459.186E-03    -227.920E-03     193.179E-03    -238.724E-03     466.242E-03    -227.611E-03     164.574E-03
            1517     7.16817E-03     73.9523E-03    -71.8768E+06    -67.1382E+06     19.7856E+06     334.711E+03    -231.168E-03     459.109E-03    -227.941E-03     182.228E-03    -237.506E-03     464.897E-03    -227.641E-03     155.935E-03
            1518     6.45015E-03     73.7191E-03    -80.8878E+06    -109.836E+06     1.70759E+06     188.978E+03    -231.061E-03     459.018E-03    -227.957E-03     168.750E-03    -236.257E-03     463.532E-03    -227.672E-03     145.053E-03
            1519     5.73460E-03     73.5033E-03    -90.0579E+06    -146.909E+06    -16.4832E+06     360.530E+03    -230.627E-03     458.594E-03    -227.967E-03     153.236E-03    -234.737E-03     461.911E-03    -227.706E-03     132.333E-03
            1520     5.01682E-03     73.3119E-03    -99.2155E+06    -185.105E+06    -35.2700E+06     328.424E+03    -230.031E-03     458.028E-03    -227.997E-03     136.604E-03    -233.164E-03     460.254E-03    -227.761E-03     118.543E-03
            1521     4.29919E-03     73.1401E-03    -108.345E+06    -217.865E+06    -54.4050E+06     148.562E+03    -229.839E-03     457.851E-03    -228.012E-03     118.688E-03    -232.129E-03     459.141E-03    -227.811E-03     103.414E-03
            1522     3.58317E-03     72.9932E-03    -117.100E+06    -244.036E+06    -74.3398E+06     344.158E+03    -229.422E-03     457.404E-03    -227.982E-03     100.063E-03    -231.014E-03     457.929E-03    -227.830E-03     87.5325E-03
            1523     2.86670E-03     72.8707E-03    -125.150E+06    -278.686E+06    -94.1344E+06     158.930E+03    -228.808E-03     456.778E-03    -227.970E-03     81.0908E-03    -229.827E-03     456.636E-03    -227.855E-03     71.2065E-03
            1524     2.14936E-03     72.7753E-03    -132.355E+06    -305.122E+06    -112.327E+06    -50.7301E+03    -228.568E-03     456.514E-03    -227.946E-03     61.7634E-03    -229.154E-03     455.873E-03    -227.874E-03     54.4119E-03
            1525     1.43353E-03     72.7055E-03    -138.610E+06    -315.456E+06    -128.102E+06     75.5984E+03    -228.273E-03     456.133E-03    -227.859E-03     42.1428E-03    -228.568E-03     455.187E-03    -227.841E-03     37.2561E-03
            1526     716.616E-06     72.6607E-03    -140.989E+06    -322.318E+06    -139.439E+06     70.0786E+03    -228.080E-03     455.685E-03    -227.604E-03     22.8551E-03    -228.194E-03     454.558E-03    -227.630E-03     20.2150E-03
            1527     13.6180E-03     74.5160E-03    -5.68138E+06     69.7756E+06     91.4742E+06    -918.937E+03    -225.800E-03     453.553E-03    -227.753E-03     84.6167E-03    -229.622E-03     457.337E-03    -227.388E-03     62.8875E-03
            1528     12.9079E-03     74.3507E-03    -11.1073E+06     68.0546E+06     93.5887E+06    -337.251E+03    -225.743E-03     453.524E-03    -227.781E-03     133.367E-03    -231.818E-03     459.530E-03    -227.396E-03     105.779E-03
            1529     12.1878E-03     74.1868E-03    -16.0687E+06     60.6219E+06     93.2127E+06     1.11001E+06    -226.406E-03     454.226E-03    -227.820E-03     152.761E-03    -233.376E-03     461.084E-03    -227.419E-03     123.941E-03
            1530     11.4706E-03     73.9733E-03    -22.5450E+06     52.3648E+06     87.6598E+06     622.081E+03    -227.348E-03     455.197E-03    -227.850E-03     174.085E-03    -235.459E-03     463.160E-03    -227.455E-03     143.462E-03
            1531     10.7525E-03     73.7445E-03    -29.5364E+06     45.4865E+06     78.3789E+06    -273.050E+03    -228.671E-03     456.525E-03    -227.854E-03     187.882E-03    -237.425E-03     465.108E-03    -227.486E-03     156.356E-03
            1532     10.0368E-03     73.4901E-03    -37.3502E+06     39.7730E+06     67.8778E+06     119.744E+03    -229.565E-03     457.413E-03    -227.848E-03     197.572E-03    -238.626E-03     466.286E-03    -227.512E-03     165.744E-03
            1533     9.31842E-03     73.2328E-03    -45.3065E+06     26.3053E+06     57.3424E+06     350.700E+03    -230.308E-03     458.169E-03    -227.861E-03     201.508E-03    -239.214E-03     466.841E-03    -227.547E-03     170.083E-03
            1534     8.60161E-03     72.9652E-03    -53.4570E+06     10.7972E+06     49.6308E+06     184.792E+03    -231.009E-03     458.897E-03    -227.888E-03     199.782E-03    -239.357E-03     466.949E-03    -227.578E-03     169.421E-03
            1535     7.88520E-03     72.7060E-03    -62.3454E+06    -19.7229E+06     38.0918E+06     303.628E+03    -231.119E-03     459.037E-03    -227.918E-03     192.934E-03    -238.565E-03     466.081E-03    -227.608E-03     164.357E-03
            1536     7.16702E-03     72.4584E-03    -71.5221E+06    -67.5983E+06     19.8564E+06     319.008E+03    -231.248E-03     459.190E-03    -227.942E-03     182.465E-03    -237.594E-03     464.985E-03    -227.641E-03     156.144E-03
            1537     6.45158E-03     72.2236E-03    -80.7965E+06    -109.600E+06     1.90161E+06     447.866E+03    -230.961E-03     458.923E-03    -227.962E-03     168.997E-03    -236.162E-03     463.443E-03    -227.676E-03     145.308E-03
            1538     5.73311E-03     72.0110E-03    -90.1263E+06    -147.157E+06    -16.6589E+06     380.486E+03    -230.505E-03     458.494E-03    -227.989E-03     153.440E-03    -234.615E-03     461.810E-03    -227.728E-03     132.558E-03
            1539     5.01625E-03     71.8172E-03    -99.1698E+06    -185.377E+06    -35.4365E+06     126.723E+03    -230.385E-03     458.388E-03    -228.003E-03     136.385E-03    -233.512E-03     460.608E-03    -227.768E-03     118.308E-03
            1540     4.30062E-03     71.6460E-03    -108.046E+06    -217.980E+06    -54.1615E+06     137.806E+03    -229.868E-03     457.858E-03    -227.989E-03     118.565E-03    -232.153E-03     459.142E-03    -227.787E-03     103.300E-03
            1541     3.58345E-03     71.4988E-03    -116.851E+06    -243.974E+06    -73.9090E+06     228.661E+03    -229.158E-03     457.140E-03    -227.982E-03     100.190E-03    -230.749E-03     457.664E-03    -227.828E-03     87.6805E-03
            1542     2.86614E-03     71.3779E-03    -125.028E+06    -278.476E+06    -93.9978E+06     196.529E+03    -228.842E-03     456.837E-03    -227.996E-03     81.1915E-03    -229.862E-03     456.698E-03    -227.880E-03     71.2998E-03
            1543     2.14973E-03     71.2809E-03    -132.426E+06    -305.583E+06    -112.312E+06     97.6645E+03    -228.677E-03     456.631E-03    -227.954E-03     61.4593E-03    -229.261E-03     455.985E-03    -227.880E-03     54.1180E-03
            1544     1.43310E-03     71.2102E-03    -138.187E+06    -315.589E+06    -128.432E+06    -123.045E+03    -228.236E-03     456.084E-03    -227.848E-03     41.4224E-03    -228.525E-03     455.135E-03    -227.833E-03     36.5362E-03
            1545     716.543E-06     71.1693E-03    -142.372E+06    -322.939E+06    -139.009E+06    -323.502E+03    -228.022E-03     455.667E-03    -227.645E-03     22.9330E-03    -228.142E-03     454.539E-03    -227.666E-03     20.3117E-03
            1546     13.6280E-03     73.0152E-03    -4.62533E+06     70.7627E+06     92.1335E+06    -251.324E+03    -225.702E-03     453.474E-03    -227.772E-03     87.1488E-03    -229.599E-03     457.338E-03    -227.407E-03     65.3330E-03
            1547     12.9034E-03     72.8650E-03    -10.6937E+06     66.5418E+06     92.2854E+06    -924.962E+03    -225.554E-03     453.365E-03    -227.812E-03     136.593E-03    -231.714E-03     459.456E-03    -227.431E-03     108.922E-03
            1548     12.1867E-03     72.6875E-03    -17.0577E+06     58.5558E+06     91.3012E+06    -914.830E+03    -226.709E-03     454.565E-03    -227.855E-03     153.514E-03    -233.691E-03     461.429E-03    -227.459E-03     124.639E-03
            1549     11.4701E-03     72.4823E-03    -22.3667E+06     52.9638E+06     88.3460E+06    -415.293E+03    -227.884E-03     455.752E-03    -227.868E-03     173.734E-03    -236.005E-03     463.725E-03    -227.470E-03     142.998E-03
            1550     10.7539E-03     72.2471E-03    -29.1726E+06     44.3719E+06     78.7457E+06     713.160E+03    -228.583E-03     456.442E-03    -227.858E-03     187.887E-03    -237.337E-03     465.021E-03    -227.487E-03     156.386E-03
            1551     10.0354E-03     71.9987E-03    -36.8826E+06     38.9757E+06     68.0814E+06     998.943E+03    -229.560E-03     457.413E-03    -227.853E-03     197.332E-03    -238.614E-03     466.277E-03    -227.516E-03     165.509E-03
            1552     9.31884E-03     71.7365E-03    -44.7077E+06     27.2417E+06     58.0792E+06     963.246E+03    -230.587E-03     458.440E-03    -227.853E-03     201.420E-03    -239.501E-03     467.124E-03    -227.538E-03     169.935E-03
            1553     8.60272E-03     71.4708E-03    -53.4941E+06     10.8822E+06     49.4364E+06     735.380E+03    -230.830E-03     458.703E-03    -227.873E-03     199.800E-03    -239.176E-03     466.754E-03    -227.564E-03     169.479E-03
            1554     7.88400E-03     71.2137E-03    -62.5054E+06    -20.1911E+06     37.8638E+06     450.409E+03    -231.028E-03     458.944E-03    -227.916E-03     193.135E-03    -238.474E-03     465.986E-03    -227.607E-03     164.579E-03
            1555     7.16827E-03     70.9618E-03    -71.8096E+06    -67.4935E+06     19.8471E+06     377.982E+03    -231.081E-03     459.036E-03    -227.955E-03     182.415E-03    -237.421E-03     464.824E-03    -227.654E-03     156.130E-03
            1556     6.44987E-03     70.7317E-03    -80.9712E+06    -109.972E+06     1.59537E+06     314.739E+03    -230.866E-03     458.856E-03    -227.990E-03     168.843E-03    -236.060E-03     463.368E-03    -227.705E-03     145.175E-03
            1557     5.73352E-03     70.5162E-03    -89.8276E+06    -147.348E+06    -16.7040E+06     127.143E+03    -230.820E-03     458.824E-03    -228.004E-03     153.292E-03    -234.925E-03     462.136E-03    -227.743E-03     132.384E-03
            1558     5.01743E-03     70.3225E-03    -98.9573E+06    -185.403E+06    -35.2623E+06     149.169E+03    -230.375E-03     458.377E-03    -228.001E-03     136.493E-03    -233.500E-03     460.594E-03    -227.765E-03     118.424E-03
            1559     4.29973E-03     70.1521E-03    -107.985E+06    -217.988E+06    -54.2207E+06     301.893E+03    -229.666E-03     457.674E-03    -228.008E-03     118.887E-03    -231.955E-03     458.963E-03    -227.806E-03     103.637E-03
            1560     3.58269E-03     70.0059E-03    -116.704E+06    -244.058E+06    -74.1553E+06     143.341E+03    -229.277E-03     457.289E-03    -228.013E-03     100.397E-03    -230.869E-03     457.817E-03    -227.861E-03     87.8762E-03
            1561     2.86630E-03     69.8830E-03    -125.050E+06    -279.016E+06    -93.8214E+06     61.5716E+03    -229.106E-03     457.094E-03    -227.988E-03     81.1403E-03    -230.125E-03     456.951E-03    -227.871E-03     71.2424E-03
            1562     2.15021E-03     69.7862E-03    -132.152E+06    -305.500E+06    -111.670E+06     198.976E+03    -228.575E-03     456.499E-03    -227.925E-03     61.4659E-03    -229.157E-03     455.852E-03    -227.848E-03     54.1275E-03
            1563     1.43350E-03     69.7176E-03    -137.694E+06    -315.329E+06    -127.862E+06     106.150E+03    -228.152E-03     456.006E-03    -227.854E-03     41.6580E-03    -228.442E-03     455.058E-03    -227.836E-03     36.7671E-03
            1564     716.861E-06     69.6741E-03    -141.265E+06    -323.553E+06    -140.271E+06     184.018E+03    -227.894E-03     455.723E-03    -227.829E-03     22.9348E-03    -228.007E-03     454.592E-03    -227.856E-03     20.2990E-03
            1565     13.6137E-03     71.5224E-03    -4.62859E+06     71.1075E+06     92.3835E+06     589.394E+03    -225.094E-03     452.932E-03    -227.838E-03     86.5558E-03    -228.956E-03     456.761E-03    -227.472E-03     64.8083E-03
            1566     12.9035E-03     71.3667E-03    -10.9283E+06     67.1613E+06     92.4124E+06     12.6405E+03    -226.535E-03     454.396E-03    -227.861E-03     133.654E-03    -232.632E-03     460.424E-03    -227.480E-03     105.908E-03
            1567     12.1873E-03     71.1941E-03    -17.2179E+06     59.3602E+06     91.5416E+06    -867.474E+03    -226.943E-03     454.805E-03    -227.863E-03     151.973E-03    -233.913E-03     461.660E-03    -227.466E-03     123.011E-03
            1568     11.4704E-03     70.9855E-03    -25.2687E+06     51.4779E+06     86.0772E+06    -1.54679E+06    -227.595E-03     455.462E-03    -227.867E-03     173.563E-03    -235.734E-03     463.444E-03    -227.474E-03     142.795E-03
            1569     10.7528E-03     70.7540E-03    -32.3123E+06     41.4979E+06     76.4118E+06    -1.24294E+06    -228.724E-03     456.586E-03    -227.862E-03     187.840E-03    -237.496E-03     465.169E-03    -227.493E-03     156.260E-03
            1570     10.0362E-03     70.5047E-03    -38.6128E+06     37.2833E+06     67.0778E+06    -108.775E+03    -229.774E-03     457.620E-03    -227.846E-03     197.497E-03    -238.840E-03     466.487E-03    -227.509E-03     165.624E-03
            1571     9.31971E-03     70.2398E-03    -45.9434E+06     26.3949E+06     57.1217E+06     658.745E+03    -230.334E-03     458.181E-03    -227.847E-03     201.487E-03    -239.246E-03     466.858E-03    -227.533E-03     170.053E-03
            1572     8.60094E-03     69.9802E-03    -53.9264E+06     11.3820E+06      49.501E+06     818.422E+03    -230.761E-03     458.643E-03    -227.883E-03     199.952E-03    -239.109E-03     466.697E-03    -227.574E-03     169.647E-03
            1573     7.88537E-03     69.7158E-03    -62.8440E+06    -19.7172E+06     37.8812E+06     464.570E+03    -231.014E-03     458.946E-03    -227.932E-03     193.385E-03    -238.464E-03     465.994E-03    -227.623E-03     164.838E-03
            1574     7.16713E-03     69.4713E-03    -71.7223E+06    -67.7941E+06     19.5851E+06     182.806E+03    -231.036E-03     459.014E-03    -227.978E-03     182.541E-03    -237.372E-03     464.798E-03    -227.678E-03     156.276E-03
            1575     6.45044E-03     69.2357E-03    -80.7068E+06    -110.160E+06     1.61004E+06     92.4424E+03    -231.133E-03     459.138E-03    -228.005E-03     168.848E-03    -236.324E-03     463.646E-03    -227.720E-03     145.159E-03
            1576     5.73392E-03     69.0221E-03    -90.0022E+06    -147.450E+06    -16.6025E+06     103.474E+03    -230.753E-03     458.764E-03    -228.011E-03     153.381E-03    -234.860E-03     462.076E-03    -227.750E-03     132.478E-03
            1577     5.01609E-03     68.8285E-03    -99.1077E+06    -185.621E+06    -35.3789E+06     162.883E+03    -230.144E-03     458.176E-03    -228.032E-03     136.586E-03    -233.273E-03     460.396E-03    -227.796E-03     118.529E-03
            1578     4.29968E-03     68.6586E-03    -108.181E+06    -218.382E+06    -54.5779E+06     86.6599E+03    -229.826E-03     457.871E-03    -228.045E-03     118.631E-03    -232.112E-03     459.156E-03    -227.844E-03     103.367E-03
            1579     3.58309E-03     68.5113E-03    -116.732E+06    -244.396E+06    -74.2585E+06     16.4458E+03    -229.505E-03     457.520E-03    -228.015E-03     100.217E-03    -231.096E-03     458.045E-03    -227.862E-03     87.6749E-03
            1580     2.86675E-03     68.3882E-03    -124.578E+06    -279.201E+06    -93.4782E+06     33.2394E+03    -228.909E-03     456.902E-03    -227.993E-03     81.2365E-03    -229.926E-03     456.757E-03    -227.875E-03     71.3481E-03
            1581     2.14955E-03     68.2931E-03    -131.928E+06    -305.727E+06    -111.695E+06    -59.5657E+03    -228.434E-03     456.424E-03    -227.990E-03     61.6329E-03    -229.018E-03     455.778E-03    -227.913E-03     54.2769E-03
            1582     1.43274E-03     68.2231E-03    -137.966E+06    -315.682E+06    -127.786E+06     83.3190E+03    -228.221E-03     456.188E-03    -227.967E-03     41.8784E-03    -228.512E-03     455.239E-03    -227.948E-03     36.9953E-03
            1583     716.462E-06     68.1802E-03    -142.116E+06    -323.385E+06    -138.094E+06      268.77E+03    -227.567E-03     455.976E-03    -228.409E-03     22.6845E-03    -227.687E-03     454.844E-03    -228.425E-03     20.0143E-03
            1584     13.6264E-03     70.0283E-03    -4.79136E+06     71.3448E+06     93.0574E+06     627.162E+03    -226.037E-03     453.810E-03    -227.773E-03     84.2175E-03    -229.845E-03     457.585E-03    -227.404E-03     62.5455E-03
            1585     12.9053E-03     69.8686E-03    -9.84693E+06     67.8085E+06     94.0906E+06     1.03427E+06    -225.609E-03     453.403E-03    -227.794E-03     132.268E-03    -231.646E-03     459.373E-03    -227.408E-03     104.741E-03
            1586     12.1881E-03     69.7023E-03    -16.7425E+06     59.3351E+06     92.2140E+06     669.909E+03    -226.269E-03     454.104E-03    -227.835E-03     151.866E-03    -233.216E-03     460.934E-03    -227.436E-03     123.055E-03
            1587     11.4699E-03     69.4900E-03    -23.6707E+06     53.0471E+06     87.2517E+06     406.385E+03    -227.407E-03     455.271E-03    -227.865E-03     173.791E-03    -235.534E-03     463.250E-03    -227.471E-03     143.102E-03
            1588     10.7530E-03     69.2613E-03    -31.2101E+06     41.6265E+06     76.1390E+06    -974.794E+03    -228.799E-03     456.657E-03    -227.859E-03     187.615E-03    -237.562E-03     465.237E-03    -227.493E-03     156.014E-03
            1589     10.0366E-03     69.0064E-03    -38.9601E+06     34.1400E+06     65.2465E+06    -1.31403E+06    -229.544E-03     457.393E-03    -227.848E-03     197.622E-03    -238.605E-03     466.247E-03    -227.515E-03     165.772E-03
            1590     9.31812E-03     68.7507E-03    -46.1423E+06     24.2521E+06     56.3815E+06    -343.329E+03    -230.250E-03     458.119E-03    -227.868E-03     201.781E-03    -239.157E-03     466.784E-03    -227.555E-03     170.366E-03
            1591     8.60241E-03     68.4811E-03    -53.8844E+06     11.1426E+06     49.3676E+06     62.2027E+03    -230.788E-03     458.699E-03    -227.911E-03     200.085E-03    -239.134E-03     466.750E-03    -227.602E-03     169.776E-03
            1592     7.88389E-03     68.2262E-03    -62.1720E+06    -19.5502E+06     38.1817E+06     302.399E+03    -231.002E-03     458.966E-03    -227.964E-03     193.357E-03    -238.447E-03     466.010E-03    -227.655E-03     164.819E-03
            1593     7.16693E-03     67.9739E-03    -71.3255E+06    -67.6960E+06     19.9525E+06     245.183E+03    -231.322E-03     459.321E-03    -227.999E-03     182.486E-03    -237.657E-03     465.105E-03    -227.698E-03     156.188E-03
            1594     6.45070E-03     67.7425E-03    -80.6916E+06    -110.220E+06     1.84155E+06     155.428E+03    -231.139E-03     459.151E-03    -228.012E-03     168.790E-03    -236.329E-03     463.658E-03    -227.725E-03     145.099E-03
            1595     5.73298E-03     67.5275E-03    -89.7795E+06    -147.755E+06    -16.5312E+06     108.386E+03    -230.598E-03     458.624E-03    -228.026E-03     153.117E-03    -234.700E-03     461.931E-03    -227.764E-03     132.224E-03
            1596     5.01685E-03     67.3352E-03    -98.8491E+06    -186.118E+06    -35.3245E+06    -29.8606E+03    -230.236E-03     458.285E-03    -228.049E-03     136.290E-03    -233.359E-03     460.499E-03    -227.812E-03     118.220E-03
            1597     4.29958E-03     67.1638E-03    -107.656E+06    -218.622E+06    -54.0622E+06    -18.5872E+03    -229.938E-03     457.985E-03    -228.047E-03     118.762E-03    -232.224E-03     459.270E-03    -227.845E-03     103.481E-03
            1598     3.58333E-03     67.0164E-03    -116.430E+06    -244.631E+06    -73.8021E+06    -33.7996E+03    -229.362E-03     457.387E-03    -228.026E-03     100.359E-03    -230.953E-03     457.911E-03    -227.871E-03     87.8249E-03
            1599     2.86598E-03     66.8954E-03    -124.785E+06    -279.598E+06    -93.4566E+06    -39.8370E+03    -228.819E-03     456.854E-03    -228.035E-03     81.2156E-03    -229.838E-03     456.709E-03    -227.916E-03     71.3170E-03
            1600     2.14949E-03     66.7983E-03    -131.981E+06    -306.195E+06    -111.520E+06     47.0887E+03    -228.489E-03     456.536E-03    -228.047E-03     61.4285E-03    -229.070E-03     455.885E-03    -227.969E-03     54.0851E-03
            1601     1.43332E-03     66.7293E-03    -138.145E+06    -315.944E+06    -127.937E+06    -30.0891E+03    -228.184E-03     456.235E-03    -228.051E-03     41.7436E-03    -228.476E-03     455.286E-03    -228.032E-03     36.8311E-03
            1602     716.423E-06     66.6857E-03    -142.041E+06    -323.859E+06    -139.506E+06    -310.086E+03    -228.049E-03     456.194E-03    -228.145E-03     22.2435E-03    -228.166E-03     455.062E-03    -228.167E-03     19.6141E-03
            1603     13.6217E-03     68.5350E-03    -5.26405E+06     69.5233E+06     92.3688E+06    -25.1642E+03    -225.946E-03     453.698E-03    -227.752E-03     87.6722E-03    -229.849E-03     457.561E-03    -227.383E-03     65.8435E-03
            1604     12.9054E-03     68.3786E-03    -10.6680E+06     65.6659E+06     93.0634E+06     842.328E+03    -225.412E-03     453.201E-03    -227.788E-03     135.621E-03    -231.535E-03     459.249E-03    -227.403E-03     108.051E-03
            1605     12.1872E-03     68.2055E-03    -15.7229E+06     60.3390E+06     93.3042E+06     1.40242E+06    -226.393E-03     454.235E-03    -227.842E-03     152.665E-03    -233.361E-03     461.091E-03    -227.440E-03     123.843E-03
            1606     11.4703E-03     67.9994E-03    -22.3197E+06     54.2559E+06     88.6227E+06     689.430E+03    -227.684E-03     455.546E-03    -227.862E-03     173.987E-03    -235.816E-03     463.535E-03    -227.465E-03     143.266E-03
            1607     10.7537E-03     67.7618E-03    -29.2391E+06     43.2071E+06     77.5102E+06     537.018E+03    -228.342E-03     456.205E-03    -227.863E-03     187.696E-03    -237.080E-03     464.768E-03    -227.496E-03     156.237E-03
            1608     10.0353E-03     67.5183E-03    -36.6298E+06     34.3776E+06     66.4241E+06     199.724E+03    -229.402E-03     457.280E-03    -227.878E-03     197.792E-03    -238.446E-03     466.123E-03    -227.543E-03     166.007E-03
            1609     9.31896E-03     67.2508E-03    -44.9285E+06     22.8860E+06     56.6729E+06    -360.259E+03    -230.394E-03     458.295E-03    -227.901E-03     201.750E-03    -239.294E-03     466.952E-03    -227.586E-03     170.314E-03
            1610     8.60077E-03     66.9914E-03    -53.2312E+06     10.4703E+06     49.6481E+06    -195.915E+03    -230.822E-03     458.759E-03    -227.937E-03     199.764E-03    -239.158E-03     466.799E-03    -227.627E-03     169.450E-03
            1611     7.88404E-03     66.7286E-03    -62.4103E+06    -20.0528E+06     38.3440E+06    -77.7345E+03    -231.272E-03     459.247E-03    -227.975E-03     193.073E-03    -238.718E-03     466.289E-03    -227.664E-03     164.479E-03
            1612     7.16791E-03     66.4813E-03    -71.6634E+06    -67.7866E+06     20.1884E+06     184.468E+03    -231.298E-03     459.294E-03    -227.995E-03     182.245E-03    -237.633E-03     465.075E-03    -227.692E-03     155.940E-03
            1613     6.44985E-03     66.2474E-03    -80.5516E+06    -110.697E+06     1.90971E+06    -15.3083E+03    -230.948E-03     458.964E-03    -228.016E-03     168.578E-03    -236.133E-03     463.465E-03    -227.729E-03     144.901E-03
            1614     5.73398E-03     66.0337E-03    -89.5073E+06    -147.979E+06    -16.3594E+06    -64.7145E+03    -230.650E-03     458.687E-03    -228.037E-03     153.123E-03    -234.753E-03     461.994E-03    -227.774E-03     132.217E-03
            1615     5.01613E-03     65.8411E-03    -98.5871E+06    -186.256E+06    -35.0229E+06     28.9206E+03    -230.366E-03     458.416E-03    -228.050E-03     136.563E-03    -233.493E-03     460.633E-03    -227.812E-03     118.477E-03
            1616     4.30003E-03     65.6690E-03    -107.710E+06    -219.050E+06    -53.8774E+06     31.1337E+03    -229.831E-03     457.882E-03    -228.051E-03     118.755E-03    -232.116E-03     459.163E-03    -227.846E-03     103.488E-03
            1617     3.58248E-03     65.5234E-03    -116.596E+06    -244.860E+06    -73.6854E+06     198.363E+03    -229.290E-03     457.335E-03    -228.045E-03     100.086E-03    -230.878E-03     457.853E-03    -227.889E-03     87.5668E-03
            1618     2.86638E-03     65.4000E-03    -124.921E+06    -280.039E+06    -93.5841E+06     76.8158E+03    -228.917E-03     456.966E-03    -228.049E-03     80.9715E-03    -229.934E-03     456.817E-03    -227.930E-03     71.0729E-03
            1619     2.14981E-03     65.3052E-03    -132.342E+06    -306.499E+06    -111.586E+06     13.3743E+03    -228.521E-03     456.563E-03    -228.043E-03     61.4641E-03    -229.105E-03     455.913E-03    -227.964E-03     54.1105E-03
            1620     1.43259E-03     65.2343E-03    -138.448E+06    -316.083E+06    -127.922E+06     142.431E+03    -228.214E-03     456.239E-03    -228.025E-03     41.6245E-03    -228.507E-03     455.290E-03    -228.006E-03     36.7210E-03
            1621     716.259E-06     65.1923E-03    -141.830E+06    -324.430E+06    -139.895E+06     627.956E+03    -228.453E-03     456.116E-03    -227.663E-03     22.8020E-03    -228.566E-03     454.981E-03    -227.686E-03     20.2078E-03
            1622     13.6196E-03     67.0373E-03    -4.40436E+06     67.6118E+06     91.8691E+06     469.319E+03    -225.302E-03     453.088E-03    -227.786E-03     84.5934E-03    -229.123E-03     456.867E-03    -227.418E-03     62.8878E-03
            1623     12.9039E-03     66.8819E-03    -9.69455E+06     65.3267E+06     93.2792E+06     105.647E+03    -225.636E-03     453.466E-03    -227.830E-03     133.549E-03    -231.717E-03     459.473E-03    -227.444E-03     105.931E-03
            1624     12.1871E-03     66.7145E-03    -15.6658E+06     60.6675E+06     93.0483E+06     172.793E+03    -226.766E-03     454.628E-03    -227.862E-03     153.093E-03    -233.756E-03     461.508E-03    -227.462E-03     124.162E-03
            1625     11.4709E-03     66.4990E-03    -21.7659E+06     54.2313E+06     88.5752E+06     666.099E+03    -227.467E-03     455.349E-03    -227.882E-03     174.169E-03    -235.591E-03     463.331E-03    -227.486E-03     143.504E-03
            1626     10.7525E-03     66.2750E-03    -29.0299E+06     43.3808E+06     78.3659E+06     560.535E+03    -228.442E-03     456.338E-03    -227.896E-03     188.120E-03    -237.183E-03     464.903E-03    -227.525E-03     156.674E-03
            1627     10.0355E-03     66.0182E-03    -36.4648E+06     34.6839E+06     67.4765E+06     716.234E+03    -229.689E-03     457.589E-03    -227.900E-03     197.554E-03    -238.728E-03     466.426E-03    -227.560E-03     165.744E-03
            1628     9.31819E-03     65.7606E-03    -44.2271E+06     23.5961E+06     57.5839E+06     758.463E+03    -230.372E-03     458.281E-03    -227.909E-03     201.134E-03    -239.259E-03     466.927E-03    -227.591E-03     169.713E-03
            1629     8.60137E-03     65.4943E-03    -53.0401E+06     10.6709E+06     50.2976E+06     303.791E+03    -230.999E-03     458.933E-03    -227.934E-03     199.494E-03    -239.335E-03     466.973E-03    -227.621E-03     169.146E-03
            1630     7.88493E-03     65.2355E-03    -62.0033E+06    -20.3172E+06     38.6962E+06     144.520E+03    -231.217E-03     459.180E-03    -227.963E-03     192.986E-03    -238.660E-03     466.219E-03    -227.650E-03     164.398E-03
            1631     7.16673E-03     64.9863E-03    -70.9503E+06    -68.4417E+06     20.4172E+06     74.3184E+03    -231.122E-03     459.116E-03    -227.994E-03     182.395E-03    -237.455E-03     464.895E-03    -227.690E-03     156.106E-03
            1632     6.45105E-03     64.7534E-03    -80.0904E+06    -110.577E+06     2.24264E+06     208.545E+03    -230.924E-03     458.951E-03    -228.027E-03     168.674E-03    -236.108E-03     463.452E-03    -227.739E-03     145.007E-03
            1633     5.73252E-03     64.5403E-03    -89.4956E+06    -148.422E+06    -16.3137E+06     107.405E+03    -230.698E-03     458.748E-03    -228.049E-03     153.263E-03    -234.800E-03     462.052E-03    -227.786E-03     132.362E-03
            1634     5.01688E-03     64.3453E-03    -98.8087E+06    -186.484E+06    -34.9561E+06     249.596E+03    -230.381E-03     458.441E-03    -228.060E-03     136.485E-03    -233.508E-03     460.657E-03    -227.821E-03     118.400E-03
            1635     4.29943E-03     64.1764E-03    -108.057E+06    -219.294E+06    -54.2607E+06     283.132E+03    -229.883E-03     457.936E-03    -228.053E-03     118.613E-03    -232.167E-03     459.215E-03    -227.850E-03     103.346E-03
            1636     3.58339E-03     64.0278E-03    -116.846E+06    -245.580E+06    -74.0380E+06     83.5466E+03    -229.329E-03     457.368E-03    -228.038E-03     100.097E-03    -230.919E-03     457.885E-03    -227.883E-03     87.5673E-03
            1637     2.86623E-03     63.9073E-03    -124.791E+06    -279.835E+06    -93.4208E+06     268.769E+03    -228.836E-03     456.885E-03    -228.049E-03     81.0768E-03    -229.853E-03     456.736E-03    -227.929E-03     71.1875E-03
            1638     2.14934E-03     63.8098E-03    -132.248E+06    -306.488E+06    -111.884E+06     232.276E+03    -228.565E-03     456.611E-03    -228.046E-03     61.6432E-03    -229.150E-03     455.963E-03    -227.970E-03     54.2846E-03
            1639     1.43354E-03     63.7412E-03    -137.950E+06    -316.435E+06    -128.232E+06    -5.57729E+03    -228.326E-03     456.314E-03    -227.988E-03     41.7356E-03    -228.616E-03     455.363E-03    -227.971E-03     36.8306E-03
            1640     716.912E-06     63.6968E-03    -141.803E+06    -324.541E+06    -138.858E+06    -430.829E+03    -228.061E-03     455.982E-03    -227.920E-03     23.0104E-03    -228.176E-03     454.846E-03    -227.938E-03     20.3626E-03
            1641     13.6257E-03     65.5447E-03    -4.95050E+06     66.9419E+06     91.8096E+06    -616.478E+03    -225.334E-03     453.132E-03    -227.798E-03     86.2979E-03    -229.202E-03     456.954E-03    -227.429E-03     64.4932E-03
            1642     12.9043E-03     65.3928E-03    -9.58283E+06     65.2211E+06     93.2252E+06     163.919E+03    -225.645E-03     453.489E-03    -227.844E-03     134.990E-03    -231.743E-03     459.515E-03    -227.459E-03     107.399E-03
            1643     12.1875E-03     65.2134E-03    -15.9029E+06     60.0263E+06     92.2975E+06     445.750E+03    -226.479E-03     454.367E-03    -227.888E-03     153.226E-03    -233.440E-03     461.218E-03    -227.491E-03     124.428E-03
            1644     11.4689E-03     65.0119E-03    -22.9407E+06     53.8380E+06     88.1204E+06     395.848E+03    -227.589E-03     455.507E-03    -227.917E-03     173.851E-03    -235.705E-03     463.476E-03    -227.522E-03     143.184E-03
            1645     10.7520E-03     64.7743E-03    -29.9680E+06     43.2588E+06     78.3318E+06     487.602E+03    -228.950E-03     456.859E-03    -227.909E-03     187.478E-03    -237.701E-03     465.430E-03    -227.537E-03     155.913E-03
            1646     10.0362E-03     64.5272E-03    -37.4246E+06     33.9085E+06     67.1090E+06     280.555E+03    -229.683E-03     457.573E-03    -227.890E-03     197.005E-03    -238.722E-03     466.405E-03    -227.550E-03     165.165E-03
            1647     9.31852E-03     64.2647E-03    -44.9697E+06     23.4011E+06     57.5839E+06     408.146E+03    -230.362E-03     458.259E-03    -227.897E-03     201.265E-03    -239.252E-03     466.906E-03    -227.578E-03     169.842E-03
            1648     8.60193E-03     64.0001E-03    -52.6580E+06     10.8465E+06     50.5068E+06     596.611E+03    -230.875E-03     458.804E-03    -227.929E-03     199.996E-03    -239.218E-03     466.852E-03    -227.616E-03     169.670E-03
            1649     7.88387E-03     63.7414E-03    -61.4377E+06    -20.5409E+06     38.7558E+06     613.112E+03    -231.154E-03     459.124E-03    -227.971E-03     193.293E-03    -238.597E-03     466.165E-03    -227.658E-03     164.723E-03
            1650     7.16796E-03     63.4919E-03    -70.7634E+06    -68.4738E+06     20.4674E+06     495.850E+03    -231.154E-03     459.159E-03    -228.006E-03     182.252E-03    -237.479E-03     464.931E-03    -227.701E-03     155.978E-03
            1651     6.44923E-03     63.2601E-03    -80.0908E+06    -110.665E+06     2.47941E+06     522.789E+03    -230.994E-03     459.028E-03    -228.034E-03     168.507E-03    -236.175E-03     463.524E-03    -227.745E-03     144.841E-03
            1652     5.73408E-03     63.0447E-03    -89.5439E+06    -148.293E+06    -16.2637E+06     670.666E+03    -230.798E-03     458.841E-03    -228.043E-03     153.061E-03    -234.899E-03     462.144E-03    -227.779E-03     132.158E-03
            1653     5.01602E-03     62.8527E-03    -98.8807E+06    -186.913E+06    -35.3571E+06     352.681E+03    -230.334E-03     458.379E-03    -228.045E-03     136.173E-03    -233.455E-03     460.588E-03    -227.807E-03     118.097E-03
            1654     4.29994E-03     62.6804E-03    -107.649E+06    -219.264E+06    -54.1335E+06     133.766E+03    -229.783E-03     457.830E-03    -228.047E-03     118.488E-03    -232.064E-03     459.107E-03    -227.844E-03     103.227E-03
            1655     3.58272E-03     62.5351E-03    -116.282E+06    -245.397E+06    -73.8030E+06     80.5796E+03    -229.254E-03     457.302E-03    -228.049E-03     100.171E-03    -230.842E-03     457.820E-03    -227.893E-03     87.6434E-03
            1656     2.86613E-03     62.4122E-03    -124.646E+06    -280.322E+06    -93.4049E+06     125.511E+03    -228.841E-03     456.912E-03    -228.072E-03     81.1715E-03    -229.857E-03     456.762E-03    -227.952E-03     71.2774E-03
            1657     2.14976E-03     62.3167E-03    -131.721E+06    -306.476E+06    -111.691E+06     158.265E+03    -228.486E-03     456.581E-03    -228.095E-03     61.8866E-03    -229.068E-03     455.932E-03    -228.018E-03     54.5327E-03
            1658     1.43258E-03     62.2453E-03    -137.668E+06    -316.540E+06    -127.703E+06    -69.1187E+03    -228.272E-03     456.381E-03    -228.108E-03     42.1623E-03    -228.564E-03     455.430E-03    -228.088E-03     37.2376E-03
            1659     716.170E-06     62.2045E-03    -141.200E+06    -324.792E+06    -139.157E+06    -22.7609E+03    -228.280E-03     456.312E-03    -228.031E-03     23.0160E-03    -228.392E-03     455.174E-03    -228.051E-03     20.3760E-03
            1660     13.6154E-03     64.0515E-03    -4.99521E+06     66.3669E+06     90.9241E+06    -328.497E+03    -224.993E-03     452.812E-03    -227.819E-03     85.2471E-03    -228.820E-03     456.593E-03    -227.453E-03     63.5591E-03
            1661     12.9039E-03     63.8915E-03    -12.0151E+06     64.0791E+06     91.3292E+06    -526.906E+03    -225.732E-03     453.602E-03    -227.871E-03     134.603E-03    -231.829E-03     459.619E-03    -227.489E-03     106.995E-03
            1662     12.1860E-03     63.7266E-03    -17.7492E+06     59.2463E+06     91.8837E+06    -11.8613E+03    -226.884E-03     454.788E-03    -227.904E-03     152.618E-03    -233.861E-03     461.646E-03    -227.505E-03     123.704E-03
            1663     11.4694E-03     63.5110E-03    -24.3653E+06     53.7379E+06     87.9447E+06     5.86828E+03    -227.934E-03     455.837E-03    -227.903E-03     172.833E-03    -236.048E-03     463.800E-03    -227.506E-03     142.075E-03
            1664     10.7542E-03     63.2826E-03    -31.2011E+06     43.3165E+06     77.8307E+06    -194.540E+03    -228.579E-03     456.467E-03    -227.889E-03     187.191E-03    -237.331E-03     465.037E-03    -227.517E-03     155.651E-03
            1665     10.0351E-03     63.0317E-03    -38.0238E+06     33.2714E+06     66.4907E+06    -354.341E+03    -229.490E-03     457.379E-03    -227.888E-03     197.512E-03    -238.538E-03     466.216E-03    -227.549E-03     165.693E-03
            1666     9.31909E-03     62.7702E-03    -45.1763E+06     22.3428E+06     57.0079E+06    -276.425E+03    -230.346E-03     458.254E-03    -227.908E-03     201.767E-03    -239.245E-03     466.907E-03    -227.590E-03     170.339E-03
            1667     8.60066E-03     62.5074E-03    -53.5091E+06     9.56971E+06     49.6492E+06     222.545E+03    -230.938E-03     458.879E-03    -227.942E-03     200.052E-03    -239.279E-03     466.921E-03    -227.630E-03     169.725E-03
            1668     7.88448E-03     62.2451E-03    -62.4596E+06    -20.6620E+06     38.2397E+06     458.088E+03    -231.239E-03     459.215E-03    -227.976E-03     192.826E-03    -238.674E-03     466.244E-03    -227.664E-03     164.256E-03
            1669     7.16650E-03     61.9989E-03    -71.6256E+06    -68.6700E+06     20.0394E+06     359.992E+03    -231.255E-03     459.252E-03    -227.997E-03     181.770E-03    -237.578E-03     465.018E-03    -227.693E-03     155.477E-03
            1670     6.45127E-03     61.7647E-03    -80.8284E+06    -111.081E+06     2.00224E+06     448.840E+03    -231.092E-03     459.099E-03    -228.008E-03     168.300E-03    -236.273E-03     463.594E-03    -227.720E-03     144.618E-03
            1671     5.73274E-03     61.5516E-03    -89.8423E+06    -148.222E+06    -16.3242E+06     434.639E+03    -230.709E-03     458.721E-03    -228.012E-03     152.908E-03    -234.809E-03     462.023E-03    -227.748E-03     132.009E-03
            1672     5.01728E-03     61.3569E-03    -98.6839E+06    -186.335E+06    -35.1250E+06     270.623E+03    -230.156E-03     458.185E-03    -228.029E-03     136.225E-03    -233.276E-03     460.395E-03    -227.791E-03     118.169E-03
            1673     4.29972E-03     61.1883E-03    -107.766E+06    -219.400E+06    -54.0958E+06     45.6373E+03    -229.609E-03     457.669E-03    -228.060E-03     118.801E-03    -231.893E-03     458.949E-03    -227.856E-03     103.548E-03
            1674     3.58293E-03     61.0398E-03    -116.649E+06    -245.485E+06    -73.9495E+06     240.686E+03    -229.267E-03     457.349E-03    -228.082E-03     100.392E-03    -230.858E-03     457.870E-03    -227.927E-03     87.8669E-03
            1675     2.86621E-03     60.9191E-03    -124.835E+06    -280.664E+06    -93.7995E+06     69.7411E+03    -229.028E-03     457.115E-03    -228.087E-03     81.1445E-03    -230.043E-03     456.963E-03    -227.968E-03     71.2455E-03
            1676     2.14915E-03     60.8216E-03    -132.038E+06    -307.032E+06    -111.913E+06    -152.603E+03    -228.570E-03     456.638E-03    -228.068E-03     61.2827E-03    -229.149E-03     455.983E-03    -227.991E-03     53.9324E-03
            1677     1.43276E-03     60.7525E-03    -137.886E+06    -316.772E+06    -127.915E+06     68.0498E+03    -228.138E-03     456.220E-03    -228.081E-03     41.5730E-03    -228.425E-03     455.264E-03    -228.062E-03     36.6871E-03
            1678     716.393E-06     60.7069E-03    -142.232E+06    -325.170E+06    -138.678E+06     16.7984E+03    -228.510E-03     456.300E-03    -227.790E-03     22.5528E-03    -228.626E-03     455.160E-03    -227.806E-03     19.9346E-03
            1679     13.6276E-03     62.5566E-03    -5.14794E+06     66.1696E+06     91.4906E+06     1.33020E+06    -225.617E-03     453.449E-03    -227.831E-03     86.5640E-03    -229.469E-03     457.252E-03    -227.463E-03     64.8705E-03
            1680     12.9030E-03     62.4036E-03    -10.0156E+06     67.0599E+06     94.2110E+06     1.14799E+06    -226.120E-03     453.978E-03    -227.858E-03     133.934E-03    -232.218E-03     460.006E-03    -227.470E-03     106.272E-03
            1681     12.1870E-03     62.2246E-03    -16.9487E+06     58.7055E+06     92.2603E+06    -598.304E+03    -226.876E-03     454.747E-03    -227.870E-03     151.779E-03    -233.840E-03     461.591E-03    -227.470E-03     122.827E-03
            1682     11.4721E-03     62.0197E-03    -23.2277E+06     52.2012E+06     87.7700E+06    -345.238E+03    -227.368E-03     455.253E-03    -227.885E-03     173.644E-03    -235.493E-03     463.226E-03    -227.488E-03     142.943E-03
            1683     10.7514E-03     61.7882E-03    -30.0621E+06     44.3051E+06     78.1139E+06    -217.505E+03    -228.419E-03     456.316E-03    -227.898E-03     188.010E-03    -237.172E-03     464.893E-03    -227.528E-03     156.520E-03
            1684     10.0363E-03     61.5368E-03    -37.5977E+06     32.9194E+06     66.2831E+06    -578.608E+03    -229.554E-03     457.460E-03    -227.906E-03     197.495E-03    -238.591E-03     466.288E-03    -227.568E-03     165.682E-03
            1685     9.31728E-03     61.2777E-03    -45.5609E+06     20.9976E+06     56.3288E+06    -152.345E+03    -230.591E-03     458.504E-03    -227.913E-03     201.296E-03    -239.483E-03     467.145E-03    -227.596E-03     169.829E-03
            1686     8.60187E-03     61.0100E-03    -53.9885E+06     9.00960E+06     49.2389E+06     235.698E+03    -231.159E-03     459.081E-03    -227.922E-03     199.247E-03    -239.483E-03     467.102E-03    -227.610E-03     168.898E-03
            1687     7.88428E-03     60.7533E-03    -62.9340E+06    -21.2195E+06     37.8629E+06     7.45995E+03    -231.164E-03     459.105E-03    -227.941E-03     192.362E-03    -238.588E-03     466.121E-03    -227.630E-03     163.801E-03
            1688     7.16822E-03     60.5024E-03    -71.9929E+06    -69.0432E+06     19.6946E+06     176.459E+03    -231.125E-03     459.091E-03    -227.966E-03     181.716E-03    -237.443E-03     464.851E-03    -227.663E-03     155.445E-03
            1689     6.44990E-03     60.2721E-03    -81.0875E+06    -111.429E+06     1.59464E+06       93.86E+03    -230.995E-03     458.983E-03    -227.988E-03     168.629E-03    -236.182E-03     463.481E-03    -227.700E-03     144.952E-03
            1690     5.73460E-03     60.0560E-03    -89.8839E+06    -148.477E+06    -16.3399E+06    -48.8884E+03    -230.535E-03     458.547E-03    -228.012E-03     153.277E-03    -234.639E-03     461.853E-03    -227.748E-03     132.387E-03
            1691     5.01610E-03     59.8651E-03     -98.935E+06    -186.441E+06    -34.7556E+06     159.992E+03    -230.020E-03     458.078E-03    -228.058E-03     136.552E-03    -233.146E-03     460.291E-03    -227.818E-03     118.507E-03
            1692     4.29935E-03     59.6929E-03    -108.096E+06    -219.470E+06    -54.1666E+06     408.281E+03    -229.740E-03     457.833E-03    -228.093E-03     118.885E-03    -232.028E-03     459.116E-03    -227.889E-03     103.623E-03
            1693     3.58253E-03     59.5470E-03    -116.846E+06    -245.825E+06    -74.2653E+06     169.276E+03    -229.462E-03     457.548E-03    -228.086E-03     100.263E-03    -231.052E-03     458.066E-03    -227.932E-03     87.7275E-03
            1694     2.86585E-03     59.4232E-03    -124.823E+06    -280.750E+06    -93.6578E+06    -45.0575E+03    -229.244E-03     457.282E-03    -228.038E-03     80.8653E-03    -230.257E-03     457.127E-03    -227.918E-03     70.9647E-03
            1695     2.15036E-03     59.3279E-03    -132.075E+06    -307.310E+06    -111.689E+06    -18.9842E+03    -228.878E-03     456.780E-03    -227.903E-03     60.7336E-03    -229.453E-03     456.120E-03    -227.824E-03     53.3946E-03
            1696     1.43365E-03     59.2582E-03    -137.973E+06    -317.291E+06    -127.837E+06     19.8624E+03    -228.226E-03     455.943E-03    -227.717E-03     41.0980E-03    -228.511E-03     454.982E-03    -227.696E-03     36.2341E-03
            1697     716.420E-06     59.2143E-03    -141.350E+06    -325.304E+06    -139.882E+06    -38.2365E+03    -227.601E-03     455.336E-03    -227.735E-03     22.7593E-03    -227.709E-03     454.197E-03    -227.758E-03     20.1412E-03
            1698     13.6136E-03     61.0622E-03    -5.98164E+06     65.1696E+06     91.9651E+06     106.215E+03    -226.224E-03     454.050E-03    -227.826E-03     85.4766E-03    -230.087E-03     457.856E-03    -227.452E-03     63.6286E-03
            1699     12.9057E-03     60.9025E-03    -10.3077E+06     66.2361E+06     94.1200E+06     146.799E+03    -226.082E-03     453.914E-03    -227.831E-03     134.103E-03    -232.183E-03     459.940E-03    -227.442E-03     106.434E-03
            1700     12.1893E-03     60.7345E-03    -14.7066E+06     59.1161E+06     93.6047E+06     419.229E+03    -226.109E-03     453.981E-03    -227.872E-03     153.230E-03    -233.076E-03     460.834E-03    -227.469E-03     124.437E-03
            1701     11.4671E-03     60.5260E-03    -21.5935E+06     50.7203E+06     88.1362E+06     522.331E+03    -227.399E-03     455.314E-03    -227.915E-03     174.135E-03    -235.514E-03     463.277E-03    -227.516E-03     143.470E-03
            1702     10.7538E-03     60.2914E-03    -29.3323E+06     44.5765E+06     78.6201E+06     705.123E+03    -228.738E-03     456.655E-03    -227.917E-03     187.344E-03    -237.477E-03     465.220E-03    -227.546E-03     155.816E-03
            1703     10.0344E-03     60.0456E-03    -37.6309E+06     33.8767E+06     66.4997E+06     736.459E+03    -229.950E-03     457.844E-03    -227.894E-03     196.961E-03    -238.989E-03     466.677E-03    -227.556E-03     165.083E-03
            1704     9.31964E-03     59.7791E-03    -45.9518E+06     20.5888E+06     56.0092E+06     358.803E+03    -230.776E-03     458.649E-03    -227.873E-03     200.805E-03    -239.654E-03     467.275E-03    -227.556E-03     169.329E-03
            1705     8.60180E-03     59.5190E-03    -54.1616E+06     8.68485E+06     49.1668E+06     34.9215E+03    -230.953E-03     458.831E-03    -227.878E-03     199.187E-03    -239.272E-03     466.846E-03    -227.566E-03     168.871E-03
            1706     7.88521E-03     59.2560E-03    -62.8445E+06    -21.4296E+06     37.8904E+06     93.5259E+03    -230.945E-03     458.860E-03    -227.915E-03     192.640E-03    -238.370E-03     465.875E-03    -227.603E-03     164.122E-03
            1707     7.16721E-03     59.0114E-03    -71.8638E+06    -69.3686E+06     19.6803E+06    -103.008E+03    -230.994E-03     458.954E-03    -227.960E-03     182.289E-03    -237.318E-03     464.719E-03    -227.656E-03     156.041E-03
            1708     6.45102E-03     58.7758E-03    -80.6178E+06    -111.633E+06     1.86338E+06    -280.982E+03    -230.867E-03     458.867E-03    -228.000E-03     168.724E-03    -236.051E-03     463.363E-03    -227.712E-03     145.063E-03
            1709     5.73245E-03     58.5637E-03    -89.7501E+06    -149.040E+06    -16.2959E+06    -139.850E+03    -230.438E-03     458.478E-03    -228.040E-03     152.981E-03    -234.532E-03     461.772E-03    -227.775E-03     132.114E-03
            1710     5.01642E-03     58.3700E-03    -99.0114E+06    -187.433E+06    -35.0473E+06     44.2694E+03    -230.248E-03     458.323E-03    -228.075E-03     136.354E-03    -233.372E-03     460.531E-03    -227.835E-03     118.280E-03
            1711     4.29960E-03     58.1995E-03    -107.962E+06    -219.884E+06    -54.0787E+06     91.8508E+03    -230.078E-03     458.139E-03    -228.061E-03     118.421E-03    -232.361E-03     459.415E-03    -227.856E-03     103.132E-03
            1712     3.58304E-03     58.0516E-03    -116.427E+06    -245.844E+06    -73.8438E+06     8.46162E+03    -229.655E-03     457.643E-03    -227.989E-03     99.6713E-03    -231.237E-03     458.153E-03    -227.832E-03     87.1343E-03
            1713     2.86695E-03     57.9292E-03    -124.565E+06    -280.923E+06    -93.3126E+06     96.1891E+03    -229.012E-03     456.932E-03    -227.919E-03     80.5666E-03    -230.021E-03     456.771E-03    -227.798E-03     70.6890E-03
            1714     2.14978E-03     57.8327E-03    -131.974E+06    -307.271E+06    -111.519E+06     218.291E+03    -228.527E-03     456.375E-03    -227.848E-03     61.2996E-03    -229.105E-03     455.717E-03    -227.769E-03     53.9670E-03
            1715     1.43402E-03     57.7648E-03    -137.785E+06    -317.429E+06    -127.676E+06     47.6794E+03    -228.254E-03     455.967E-03    -227.712E-03     42.0918E-03    -228.544E-03     455.011E-03    -227.691E-03     37.1793E-03
            1716     717.949E-06     57.7221E-03    -142.170E+06    -325.709E+06    -138.665E+06     533.143E+03    -227.173E-03     455.333E-03    -228.160E-03     23.4955E-03    -227.288E-03     454.195E-03    -228.175E-03     20.8347E-03
            1717     13.6294E-03     59.5654E-03    -3.31053E+06     65.6903E+06     93.2511E+06    -225.536E+03    -225.097E-03     452.875E-03    -227.778E-03     84.9174E-03    -228.894E-03     456.623E-03    -227.402E-03     63.3623E-03
            1718     12.9044E-03     59.4107E-03    -10.2121E+06     64.9629E+06     93.2938E+06    -299.927E+03    -224.879E-03     452.725E-03    -227.847E-03     134.870E-03    -230.961E-03     458.731E-03    -227.460E-03     107.405E-03
            1719     12.1834E-03     59.2421E-03    -17.2164E+06     57.3666E+06     91.9557E+06    -448.723E+03    -226.789E-03     454.693E-03    -227.904E-03     152.768E-03    -233.761E-03     461.540E-03    -227.502E-03     123.854E-03
            1720     11.4722E-03     59.0271E-03    -23.6358E+06     49.3054E+06     87.5803E+06     458.011E+03    -227.835E-03     455.746E-03    -227.912E-03     172.876E-03    -235.934E-03     463.682E-03    -227.511E-03     142.148E-03
            1721     10.7513E-03     58.8020E-03    -30.9265E+06     43.9922E+06     78.3842E+06     1.57651E+06    -228.847E-03     456.735E-03    -227.889E-03     186.959E-03    -237.590E-03     465.298E-03    -227.516E-03     155.413E-03
            1722     10.0371E-03     58.5447E-03    -38.1397E+06     34.9961E+06     66.9374E+06     1.22010E+06    -229.962E-03     457.819E-03    -227.857E-03     196.935E-03    -239.001E-03     466.653E-03    -227.518E-03     165.072E-03
            1723     9.31889E-03     58.2893E-03    -45.3674E+06     21.3976E+06     56.7653E+06     621.953E+03    -230.528E-03     458.373E-03    -227.845E-03     201.231E-03    -239.413E-03     467.008E-03    -227.526E-03     169.798E-03
            1724     8.60219E-03     58.0206E-03    -53.4248E+06     8.81791E+06     49.6441E+06     91.1329E+03    -230.727E-03     458.599E-03    -227.871E-03     199.497E-03    -239.044E-03     466.613E-03    -227.559E-03     169.227E-03
            1725     7.88455E-03     57.7659E-03    -61.9574E+06    -21.4233E+06     38.5648E+06    -225.185E+03    -230.881E-03     458.805E-03    -227.925E-03     192.819E-03    -238.301E-03     465.818E-03    -227.611E-03     164.315E-03
            1726     7.16749E-03     57.5148E-03    -70.7039E+06    -69.3869E+06     20.4768E+06    -318.357E+03    -231.129E-03     459.097E-03    -227.968E-03     182.178E-03    -237.450E-03     464.861E-03    -227.662E-03     155.902E-03
            1727     6.45002E-03     57.2832E-03    -79.9676E+06    -112.263E+06     2.26837E+06    -74.3249E+03    -230.864E-03     458.862E-03    -227.998E-03     168.121E-03    -236.032E-03     463.340E-03    -227.708E-03     144.473E-03
            1728     5.73403E-03     57.0696E-03    -89.4539E+06    -149.660E+06    -16.3756E+06     166.850E+03    -230.665E-03     458.680E-03    -228.014E-03     152.585E-03    -234.752E-03     461.965E-03    -227.750E-03     131.702E-03
            1729     5.01639E-03     56.8760E-03    -98.6221E+06    -187.922E+06    -35.2736E+06     54.1823E+03    -230.582E-03     458.580E-03    -227.998E-03     135.826E-03    -233.694E-03     460.777E-03    -227.759E-03     117.739E-03
            1730     4.30000E-03     56.7044E-03    -107.593E+06    -220.379E+06    -54.0006E+06    -28.7037E+03    -230.107E-03     458.046E-03    -227.939E-03     118.011E-03    -232.378E-03     459.310E-03    -227.733E-03     102.742E-03
            1731     3.58398E-03     56.5571E-03    -116.441E+06    -246.012E+06    -73.6191E+06     75.9875E+03    -229.313E-03     457.189E-03    -227.876E-03     99.8132E-03    -230.896E-03     457.699E-03    -227.719E-03     87.2989E-03
            1732     2.86694E-03     56.4357E-03    -124.591E+06    -280.978E+06    -93.1815E+06     258.755E+03    -228.525E-03     456.415E-03    -227.890E-03     81.0718E-03    -229.539E-03     456.259E-03    -227.768E-03     71.2021E-03
            1733     2.15006E-03     56.3403E-03    -131.776E+06    -307.618E+06    -111.567E+06     265.406E+03    -228.076E-03     456.054E-03    -227.978E-03     61.8408E-03    -228.657E-03     455.399E-03    -227.899E-03     54.5077E-03
            1734     1.43211E-03     56.2699E-03    -137.749E+06    -317.741E+06    -127.759E+06     128.959E+03    -228.066E-03     456.149E-03    -228.083E-03     42.0388E-03    -228.356E-03     455.193E-03    -228.062E-03     37.1091E-03
            1735     715.216E-06     56.2283E-03    -141.294E+06    -325.525E+06    -138.865E+06    -266.816E+03    -228.461E-03     456.345E-03    -227.883E-03     22.6883E-03    -228.573E-03     455.206E-03    -227.901E-03     19.9817E-03
            1736     13.6168E-03     58.0758E-03    -5.00330E+06     64.9941E+06     91.3322E+06     127.928E+03    -225.375E-03     453.213E-03    -227.838E-03     88.4921E-03    -229.264E-03     457.050E-03    -227.468E-03     66.6904E-03
            1737     12.9014E-03     57.9208E-03    -9.80936E+06     66.5057E+06     94.3564E+06     321.449E+03    -226.444E-03     454.310E-03    -227.866E-03     134.778E-03    -232.559E-03     460.353E-03    -227.477E-03     107.050E-03
            1738     12.1904E-03     57.7390E-03    -16.2811E+06     57.6596E+06     92.4790E+06     293.260E+03    -226.877E-03     454.747E-03    -227.870E-03     151.485E-03    -233.830E-03     461.579E-03    -227.468E-03     122.541E-03
            1739     11.4682E-03     57.5405E-03    -23.6930E+06     47.1139E+06     86.3541E+06     440.640E+03    -227.759E-03     455.628E-03    -227.869E-03     173.092E-03    -235.864E-03     463.566E-03    -227.472E-03     142.349E-03
            1740     10.7547E-03     57.2998E-03    -30.4186E+06     42.9473E+06     78.0356E+06     665.281E+03    -228.827E-03     456.679E-03    -227.852E-03     187.404E-03    -237.564E-03     465.235E-03    -227.480E-03     155.878E-03
            1741     10.0358E-03     57.0568E-03    -36.8517E+06     36.0164E+06     68.0823E+06     771.976E+03    -229.626E-03     457.465E-03    -227.839E-03     197.213E-03    -238.650E-03     466.288E-03    -227.497E-03     165.432E-03
            1742     9.31891E-03     56.7897E-03    -44.1072E+06     21.7493E+06     57.6900E+06     181.486E+03    -230.330E-03     458.177E-03    -227.847E-03     201.096E-03    -239.195E-03     466.796E-03    -227.526E-03     169.712E-03
            1743     8.60195E-03     56.5306E-03    -51.8136E+06     9.14973E+06     50.7886E+06       20.13E+03    -230.661E-03     458.544E-03    -227.883E-03     199.037E-03    -238.957E-03     466.542E-03    -227.567E-03     168.787E-03
            1744     7.88424E-03     56.2695E-03    -60.6045E+06    -21.6232E+06     39.2609E+06     75.0708E+03    -231.165E-03     459.088E-03    -227.923E-03     192.689E-03    -238.586E-03     466.103E-03    -227.607E-03     164.132E-03
            1745     7.16788E-03     56.0215E-03    -70.2740E+06    -70.0236E+06     20.6359E+06     486.714E+03    -231.215E-03     459.158E-03    -227.942E-03     181.617E-03    -237.523E-03     464.908E-03    -227.636E-03     155.345E-03
            1746     6.45104E-03     55.7893E-03    -80.0550E+06    -112.617E+06     2.09335E+06     743.045E+03    -231.001E-03     458.952E-03    -227.951E-03     167.877E-03    -236.163E-03     463.425E-03    -227.662E-03     144.232E-03
            1747     5.73326E-03     55.5750E-03    -89.3917E+06    -149.679E+06    -16.5070E+06      532.32E+03    -230.990E-03     458.921E-03    -227.931E-03     152.580E-03    -235.077E-03     462.207E-03    -227.666E-03     131.679E-03
            1748     5.01776E-03     55.3813E-03    -98.5107E+06    -187.871E+06    -35.2101E+06     297.651E+03    -230.556E-03     458.440E-03    -227.884E-03     135.888E-03    -233.666E-03     460.635E-03    -227.645E-03     117.818E-03
            1749     4.30133E-03     55.2103E-03    -107.497E+06    -220.275E+06    -54.0191E+06     323.168E+03    -229.685E-03     457.534E-03    -227.848E-03     118.352E-03    -231.959E-03     458.801E-03    -227.643E-03     103.122E-03
            1750     3.58354E-03     55.0644E-03    -116.265E+06    -246.017E+06    -73.6770E+06     268.654E+03    -228.836E-03     456.700E-03    -227.864E-03     100.050E-03    -230.418E-03     457.210E-03    -227.707E-03     87.5701E-03
            1751     2.86624E-03     54.9424E-03    -124.631E+06    -281.163E+06    -93.3164E+06     137.465E+03    -228.450E-03     456.392E-03    -227.942E-03     81.0234E-03    -229.463E-03     456.235E-03    -227.820E-03     71.1572E-03
            1752     2.14911E-03     54.8468E-03    -132.120E+06    -308.017E+06    -111.686E+06     191.915E+03    -228.356E-03     456.357E-03    -228.001E-03     61.4178E-03    -228.935E-03     455.698E-03    -227.921E-03     54.0741E-03
            1753     1.43324E-03     54.7760E-03    -137.846E+06    -317.852E+06    -127.848E+06     162.847E+03    -228.185E-03     456.191E-03    -228.006E-03     41.1822E-03    -228.471E-03     455.230E-03    -227.984E-03     36.2846E-03
            1754     717.086E-06     54.7326E-03    -141.464E+06    -325.714E+06    -139.401E+06     82.4986E+03    -228.428E-03     456.074E-03    -227.646E-03     22.5133E-03    -228.538E-03     454.931E-03    -227.666E-03     19.8417E-03
            1755     13.6197E-03     56.5773E-03    -5.70089E+06     65.5155E+06     90.9884E+06    -674.347E+03    -226.443E-03     454.264E-03    -227.821E-03     82.9559E-03    -230.250E-03     458.019E-03    -227.452E-03     61.1401E-03
            1756     12.9086E-03     56.4162E-03    -9.94273E+06     63.9978E+06     92.8989E+06    -422.492E+03    -226.088E-03     453.907E-03    -227.819E-03     132.847E-03    -232.153E-03     459.895E-03    -227.433E-03     105.166E-03
            1757     12.1851E-03     56.2556E-03    -15.6267E+06     56.4642E+06     92.0735E+06     1.20436E+06    -226.558E-03     454.402E-03    -227.844E-03     152.951E-03    -233.523E-03     461.245E-03    -227.443E-03     124.093E-03
            1758     11.4720E-03     56.0367E-03    -21.8424E+06     48.5122E+06     87.1576E+06     824.706E+03    -227.806E-03     455.664E-03    -227.858E-03     173.757E-03    -235.904E-03     463.604E-03    -227.461E-03     143.064E-03
            1759     10.7527E-03     55.8125E-03    -28.1758E+06     41.5657E+06     78.5165E+06     84.6444E+03    -228.804E-03     456.648E-03    -227.845E-03     187.435E-03    -237.518E-03     465.183E-03    -227.472E-03     155.939E-03
            1760     10.0362E-03     55.5573E-03    -35.4372E+06     35.5367E+06     68.4644E+06     566.157E+03    -229.712E-03     457.540E-03    -227.828E-03     196.991E-03    -238.719E-03     466.349E-03    -227.486E-03     165.212E-03
            1761     9.31973E-03     55.2992E-03    -43.1479E+06     22.6609E+06     58.3838E+06     693.327E+03    -230.185E-03     458.022E-03    -227.836E-03     200.506E-03    -239.028E-03     466.623E-03    -227.514E-03     169.168E-03
            1762     8.60139E-03     55.0349E-03    -52.0963E+06     8.79192E+06     50.5418E+06     485.151E+03    -230.872E-03     458.736E-03    -227.864E-03     199.026E-03    -239.176E-03     466.739E-03    -227.548E-03     168.737E-03
            1763     7.88549E-03     54.7757E-03    -61.8024E+06    -22.2761E+06     38.4768E+06     943.372E+03    -231.265E-03     459.150E-03    -227.885E-03     192.320E-03    -238.680E-03     466.154E-03    -227.570E-03     163.769E-03
            1764     7.16790E-03     54.5271E-03    -71.4158E+06    -70.4657E+06     19.8200E+06     1.14445E+06    -231.192E-03     459.085E-03    -227.893E-03     181.453E-03    -237.496E-03     464.828E-03    -227.589E-03     155.210E-03
            1765     6.45079E-03     54.2954E-03    -80.4324E+06    -112.344E+06     1.76574E+06     747.712E+03    -231.263E-03     459.145E-03    -227.883E-03     167.960E-03    -236.429E-03     463.622E-03    -227.594E-03     144.292E-03
            1766     5.73523E-03     54.0803E-03    -89.2598E+06    -149.225E+06    -16.1637E+06     614.810E+03    -230.868E-03     458.718E-03    -227.850E-03     152.682E-03    -234.952E-03     462.002E-03    -227.585E-03     131.808E-03
            1767     5.01769E-03     53.8873E-03    -98.4240E+06    -187.415E+06    -34.9379E+06     587.581E+03    -230.074E-03     457.913E-03    -227.839E-03     136.193E-03    -233.187E-03     460.113E-03    -227.600E-03     118.170E-03
            1768     4.30010E-03     53.7173E-03    -107.666E+06    -220.308E+06    -54.1517E+06     364.309E+03    -229.417E-03     457.278E-03    -227.861E-03     118.630E-03    -231.696E-03     458.549E-03    -227.656E-03     103.412E-03
            1769     3.58355E-03     53.5711E-03    -116.407E+06    -246.104E+06    -73.9661E+06     372.637E+03    -229.063E-03     456.942E-03    -227.879E-03     99.9343E-03    -230.646E-03     457.453E-03    -227.723E-03     87.4409E-03
            1770     2.86664E-03     53.4495E-03    -124.616E+06    -281.256E+06    -93.6327E+06     222.777E+03    -228.862E-03     456.734E-03    -227.873E-03     80.5907E-03    -229.870E-03     456.573E-03    -227.752E-03     70.7258E-03
            1771     2.15037E-03     53.3520E-03    -131.786E+06    -308.008E+06    -111.555E+06     9.55541E+03    -228.513E-03     456.324E-03    -227.811E-03     61.0137E-03    -229.087E-03     455.660E-03    -227.731E-03     53.6871E-03
            1772     1.43358E-03     53.2821E-03    -137.580E+06    -317.621E+06    -127.695E+06     135.800E+03    -228.030E-03     455.757E-03    -227.727E-03     41.5559E-03    -228.315E-03     454.796E-03    -227.705E-03     36.6716E-03
            1773     716.519E-06     53.2394E-03    -141.911E+06    -325.805E+06    -138.457E+06     101.603E+03    -227.470E-03     455.469E-03    -228.000E-03     22.9808E-03    -227.585E-03     454.326E-03    -228.014E-03     20.3475E-03
            1774     13.6281E-03     55.0820E-03    -3.92645E+06     65.8802E+06     91.4517E+06    -414.467E+03    -225.210E-03     452.976E-03    -227.766E-03     87.4198E-03    -229.084E-03     456.804E-03    -227.399E-03     65.6878E-03
            1775     12.9008E-03     54.9318E-03    -11.1551E+06     60.1814E+06     90.7396E+06    -87.9752E+03    -225.441E-03     453.264E-03    -227.822E-03     135.838E-03    -231.549E-03     459.282E-03    -227.440E-03     108.268E-03
            1776     12.1889E-03     54.7523E-03    -17.0457E+06     55.4024E+06     91.0179E+06    -22.1961E+03    -227.039E-03     454.899E-03    -227.860E-03     152.785E-03    -233.983E-03     461.715E-03    -227.461E-03     123.926E-03
            1777     11.4694E-03     54.5481E-03    -23.0149E+06     50.1935E+06     87.6257E+06    -648.327E+03    -227.931E-03     455.789E-03    -227.858E-03     173.429E-03    -236.021E-03     463.722E-03    -227.460E-03     142.726E-03
            1778     10.7533E-03     54.3138E-03    -30.1863E+06      39.858E+06     77.6287E+06    -482.595E+03    -228.972E-03     456.804E-03    -227.831E-03     186.965E-03    -237.688E-03     465.329E-03    -227.457E-03     155.425E-03
            1779     10.0373E-03     54.0645E-03    -37.5888E+06     33.7755E+06     67.2801E+06     65.3665E+03    -229.563E-03     457.371E-03    -227.807E-03     196.444E-03    -238.569E-03     466.168E-03    -227.465E-03     164.668E-03
            1780     9.31864E-03     53.8053E-03    -45.6396E+06     22.4560E+06     57.1370E+06     557.256E+03    -230.333E-03     458.141E-03    -227.808E-03     200.628E-03    -239.195E-03     466.755E-03    -227.489E-03     169.249E-03
            1781     8.60284E-03     53.5402E-03    -54.0373E+06     8.40048E+06     49.3053E+06     925.956E+03    -231.061E-03     458.880E-03    -227.819E-03     199.023E-03    -239.368E-03     466.882E-03    -227.506E-03     168.725E-03
            1782     7.88513E-03     53.2811E-03    -62.6563E+06    -22.8559E+06     37.8303E+06      960.74E+03    -231.168E-03     459.000E-03    -227.833E-03     192.049E-03    -238.570E-03     465.989E-03    -227.520E-03     163.540E-03
            1783     7.16836E-03     53.0341E-03    -71.3942E+06    -70.1116E+06     19.8813E+06     782.543E+03    -231.296E-03     459.132E-03    -227.835E-03     181.416E-03    -237.596E-03     464.871E-03    -227.531E-03     155.172E-03
            1784     6.45205E-03     52.7997E-03    -80.4017E+06    -111.788E+06     2.01236E+06     679.790E+03    -231.087E-03     458.913E-03    -227.825E-03     168.111E-03    -236.250E-03     463.387E-03    -227.536E-03     144.484E-03
            1785     5.73441E-03     52.5870E-03    -89.7597E+06    -149.417E+06    -16.4478E+06     493.729E+03    -230.507E-03     458.328E-03    -227.821E-03     152.889E-03    -234.594E-03     461.614E-03    -227.557E-03     132.049E-03
            1786     5.01748E-03     52.3942E-03    -98.8373E+06    -187.244E+06    -35.0524E+06     648.435E+03    -229.953E-03     457.794E-03    -227.841E-03     136.024E-03    -233.066E-03     459.993E-03    -227.601E-03     118.020E-03
            1787     4.30067E-03     52.2244E-03    -107.896E+06    -220.091E+06    -54.4937E+06     519.662E+03    -229.581E-03     457.432E-03    -227.851E-03     118.062E-03    -231.852E-03     458.697E-03    -227.648E-03     102.849E-03
            1788     3.58333E-03     52.0770E-03    -116.649E+06    -246.396E+06    -74.4915E+06     101.045E+03    -229.260E-03     457.084E-03    -227.825E-03     99.6579E-03    -230.840E-03     457.592E-03    -227.671E-03     87.1563E-03
            1789     2.86731E-03     51.9550E-03    -124.442E+06    -281.256E+06    -93.5758E+06     10.0663E+03    -228.941E-03     456.714E-03    -227.773E-03     80.9993E-03    -229.951E-03     456.556E-03    -227.653E-03     71.1174E-03
            1790     2.15063E-03     51.8588E-03    -131.587E+06    -307.962E+06    -111.792E+06     22.2787E+03    -228.433E-03     456.119E-03    -227.686E-03     61.4574E-03    -229.009E-03     455.459E-03    -227.608E-03     54.1355E-03
            1791     1.43351E-03     51.7897E-03    -137.771E+06    -317.946E+06    -128.027E+06     186.399E+03    -227.867E-03     455.478E-03    -227.611E-03     41.5016E-03    -228.151E-03     454.515E-03    -227.591E-03     36.6379E-03
            1792     716.694E-06     51.7457E-03    -140.850E+06    -325.359E+06    -138.902E+06    -51.5158E+03    -227.398E-03     455.262E-03    -227.865E-03     22.7719E-03    -227.507E-03     454.120E-03    -227.883E-03     20.1366E-03
            1793     13.6131E-03     53.5925E-03    -4.36020E+06     64.9814E+06     91.5463E+06     1.24438E+06    -225.323E-03     453.168E-03    -227.845E-03     87.4590E-03    -229.194E-03     456.988E-03    -227.475E-03     65.6502E-03
            1794     12.9064E-03     53.4296E-03    -10.2649E+06     62.5178E+06     92.8188E+06     122.803E+03    -226.881E-03     454.740E-03    -227.859E-03     134.323E-03    -232.978E-03     460.753E-03    -227.470E-03     106.533E-03
            1795     12.1864E-03     53.2616E-03    -16.8179E+06     55.2682E+06     91.4736E+06    -739.201E+03    -227.262E-03     455.101E-03    -227.839E-03     151.560E-03    -234.197E-03     461.907E-03    -227.437E-03     122.608E-03
            1796     11.4708E-03     53.0513E-03    -24.2375E+06     50.2855E+06     87.2355E+06    -192.591E+03    -227.936E-03     455.755E-03    -227.819E-03     172.508E-03    -236.020E-03     463.679E-03    -227.421E-03     141.784E-03
            1797     10.7547E-03     52.8185E-03    -32.0792E+06     39.9287E+06     76.7603E+06    -721.578E+03    -228.558E-03     456.356E-03    -227.798E-03     186.688E-03    -237.276E-03     464.879E-03    -227.425E-03     155.189E-03
            1798     10.0360E-03     52.5724E-03    -39.5652E+06     31.9251E+06     65.6072E+06    -923.344E+03    -229.562E-03     457.346E-03    -227.783E-03     196.505E-03    -238.573E-03     466.139E-03    -227.444E-03     164.708E-03
            1799     9.32014E-03     52.3094E-03    -46.5400E+06     21.2096E+06     56.0371E+06    -431.930E+03    -230.638E-03     458.408E-03    -227.771E-03     200.609E-03    -239.495E-03     467.013E-03    -227.454E-03     169.189E-03
            1800     8.60269E-03     52.0464E-03    -53.9963E+06     6.73927E+06     48.6799E+06     197.073E+03    -230.978E-03     458.749E-03    -227.772E-03     198.824E-03    -239.264E-03     466.727E-03    -227.460E-03     168.564E-03
            1801     7.88584E-03     51.7876E-03    -62.5111E+06    -22.9480E+06     37.7246E+06     617.828E+03    -231.218E-03     459.001E-03    -227.783E-03     192.138E-03    -238.615E-03     465.985E-03    -227.471E-03     163.641E-03
            1802     7.16917E-03     51.5387E-03    -71.5952E+06    -70.1329E+06     19.8419E+06     597.923E+03    -231.210E-03     458.996E-03    -227.786E-03     181.516E-03    -237.505E-03     464.730E-03    -227.481E-03     155.301E-03
            1803     6.45161E-03     51.3073E-03    -80.8571E+06    -111.859E+06     1.84242E+06     529.000E+03    -230.819E-03     458.611E-03    -227.791E-03     168.133E-03    -235.983E-03     463.084E-03    -227.502E-03     144.536E-03
            1804     5.73469E-03     51.0931E-03    -89.9866E+06    -149.254E+06    -16.6671E+06     475.316E+03    -230.473E-03     458.270E-03    -227.797E-03     152.365E-03    -234.552E-03     461.548E-03    -227.534E-03     131.542E-03
            1805     5.01763E-03     50.9010E-03    -99.0626E+06    -187.519E+06    -35.4841E+06     265.559E+03    -230.142E-03     457.936E-03    -227.794E-03     135.455E-03    -233.245E-03     460.124E-03    -227.556E-03     117.441E-03
            1806     4.30075E-03     50.7301E-03    -107.774E+06    -219.889E+06    -54.5087E+06     439.322E+03    -229.691E-03     457.460E-03    -227.769E-03     117.944E-03    -231.961E-03     458.724E-03    -227.566E-03     102.727E-03
            1807     3.58459E-03     50.5840E-03    -116.322E+06    -245.997E+06    -74.5870E+06     366.482E+03    -229.168E-03     456.891E-03    -227.724E-03     99.6823E-03    -230.744E-03     457.398E-03    -227.571E-03     87.2038E-03
            1808     2.86679E-03     50.4615E-03    -124.684E+06    -281.627E+06    -94.0051E+06     10.5475E+03    -228.645E-03     456.344E-03    -227.699E-03     80.6988E-03    -229.653E-03     456.182E-03    -227.580E-03     70.8380E-03
            1809     2.15003E-03     50.3651E-03    -132.050E+06    -308.257E+06    -112.005E+06     119.098E+03    -228.257E-03     455.919E-03    -227.662E-03     61.1490E-03    -228.834E-03     455.258E-03    -227.584E-03     53.8196E-03
            1810     1.43395E-03     50.2963E-03    -137.626E+06    -317.866E+06    -128.075E+06    -27.4485E+03    -228.072E-03     455.611E-03    -227.540E-03     41.5168E-03    -228.356E-03     454.650E-03    -227.520E-03     36.6363E-03
            1811     717.139E-06     50.2536E-03    -141.726E+06    -325.807E+06    -138.616E+06    -17.3626E+03    -228.034E-03     454.978E-03    -226.944E-03     22.2319E-03    -228.146E-03     453.834E-03    -226.959E-03     19.5898E-03
            1812     13.6270E-03     52.0911E-03    -5.35283E+06     64.5224E+06     92.1642E+06     509.868E+03    -226.609E-03     454.404E-03    -227.795E-03     84.5958E-03    -230.417E-03     458.154E-03    -227.420E-03     62.8792E-03
            1813     12.9029E-03     51.9370E-03    -9.28872E+06     64.2601E+06     94.4917E+06     1.37547E+06    -226.237E-03     454.021E-03    -227.784E-03     132.481E-03    -232.277E-03     459.982E-03    -227.391E-03     104.865E-03
            1814     12.1889E-03     51.7646E-03    -16.6346E+06     55.2964E+06     92.2908E+06     1.16164E+06    -226.910E-03     454.695E-03    -227.785E-03     151.149E-03    -233.838E-03     461.493E-03    -227.380E-03     122.257E-03
            1815     11.4725E-03     51.5561E-03    -23.6058E+06     50.6689E+06     87.6423E+06     490.580E+03    -227.499E-03     455.283E-03    -227.784E-03     173.055E-03    -235.593E-03     463.219E-03    -227.385E-03     142.380E-03
            1816     10.7532E-03     51.3277E-03    -29.9451E+06     41.5263E+06     77.5130E+06    -160.109E+03    -228.521E-03     456.299E-03    -227.777E-03     187.022E-03    -237.223E-03     464.817E-03    -227.407E-03     155.571E-03
            1817     10.0373E-03     51.0754E-03    -36.8381E+06     31.1549E+06     65.8701E+06    -549.428E+03    -229.835E-03     457.592E-03    -227.756E-03     196.546E-03    -238.820E-03     466.366E-03    -227.419E-03     164.753E-03
            1818     9.32011E-03     50.8159E-03    -44.6973E+06     19.4520E+06     56.1045E+06     121.623E+03    -230.586E-03     458.324E-03    -227.738E-03     200.636E-03    -239.426E-03     466.912E-03    -227.421E-03     169.253E-03
            1819     8.60309E-03     50.5523E-03    -53.6754E+06     6.15099E+06     48.6160E+06     577.937E+03    -231.064E-03     458.800E-03    -227.736E-03     198.948E-03    -239.349E-03     466.775E-03    -227.424E-03     168.693E-03
            1820     7.88623E-03     50.2928E-03    -62.9713E+06    -23.2374E+06     37.4499E+06     403.329E+03    -231.213E-03     458.954E-03    -227.741E-03     192.105E-03    -238.607E-03     465.934E-03    -227.429E-03     163.616E-03
            1821     7.16882E-03     50.0456E-03    -71.9570E+06    -70.2068E+06     19.6485E+06     280.629E+03    -231.123E-03     458.866E-03    -227.743E-03     181.249E-03    -237.414E-03     464.595E-03    -227.439E-03     155.044E-03
            1822     6.45207E-03     49.8134E-03    -80.8247E+06    -112.140E+06     1.87304E+06     243.132E+03    -230.945E-03     458.681E-03    -227.736E-03     167.482E-03    -236.097E-03     463.143E-03    -227.447E-03     143.871E-03
            1823     5.73513E-03     49.5996E-03    -89.9013E+06    -149.184E+06    -16.4575E+06     264.885E+03    -230.555E-03     458.271E-03    -227.716E-03     151.938E-03    -234.626E-03     461.541E-03    -227.452E-03     131.116E-03
            1824     5.01843E-03     49.4073E-03    -98.8108E+06    -187.747E+06    -35.4460E+06    -14.0643E+03    -230.115E-03     457.809E-03    -227.693E-03     135.275E-03    -233.213E-03     459.991E-03    -227.455E-03     117.271E-03
            1825     4.30155E-03     49.2371E-03    -107.628E+06    -220.680E+06    -54.5944E+06    -108.159E+03    -229.600E-03     457.259E-03    -227.659E-03     117.710E-03    -231.862E-03     458.514E-03    -227.456E-03     102.507E-03
            1826     3.58388E-03     49.0904E-03    -116.172E+06    -246.089E+06    -74.4148E+06     507.116E+03    -229.062E-03     456.672E-03    -227.610E-03     99.4896E-03    -230.635E-03     457.176E-03    -227.457E-03     87.0220E-03
            1827     2.86814E-03     48.9683E-03    -124.200E+06    -281.021E+06    -93.5372E+06     768.340E+03    -228.521E-03     456.104E-03    -227.583E-03     80.4480E-03    -229.527E-03     455.943E-03    -227.463E-03     70.6073E-03
            1828     2.15093E-03     48.8731E-03    -131.521E+06    -307.945E+06    -110.743E+06     162.230E+03    -228.029E-03     455.600E-03    -227.571E-03     61.0510E-03    -228.602E-03     454.935E-03    -227.488E-03     53.7527E-03
            1829     1.43321E-03     48.8024E-03    -137.491E+06    -317.943E+06    -126.989E+06    -177.824E+03    -227.819E-03     455.350E-03    -227.531E-03     41.5035E-03    -228.103E-03     454.385E-03    -227.506E-03     36.6419E-03
            1830     717.202E-06     48.7603E-03    -140.972E+06    -326.561E+06    -139.422E+06    -216.588E+03    -228.412E-03     455.073E-03    -226.661E-03     22.4078E-03    -228.519E-03     453.925E-03    -226.680E-03     19.7548E-03
            1831     13.6200E-03     50.6020E-03    -5.55362E+06     62.7313E+06     90.9912E+06    -303.255E+03    -226.726E-03     454.441E-03    -227.714E-03     85.9617E-03    -230.573E-03     458.226E-03    -227.342E-03     64.1543E-03
            1832     12.9081E-03     50.4408E-03    -10.5299E+06     60.2373E+06     92.3809E+06     150.821E+03    -225.534E-03     453.256E-03    -227.722E-03     134.389E-03    -231.611E-03     459.242E-03    -227.332E-03     106.836E-03
            1833     12.1890E-03     50.2710E-03    -14.3492E+06     56.1000E+06     93.6021E+06     1.53062E+06    -226.191E-03     453.966E-03    -227.775E-03     152.647E-03    -233.112E-03     460.763E-03    -227.367E-03     123.923E-03
            1834     11.4697E-03     50.0636E-03    -20.4476E+06     51.9185E+06     89.3852E+06     1.15340E+06    -227.652E-03     455.450E-03    -227.798E-03     173.517E-03    -235.730E-03     463.380E-03    -227.397E-03     142.872E-03
            1835     10.7547E-03     49.8310E-03    -28.2681E+06     42.4374E+06     78.6287E+06     841.653E+03    -229.015E-03     456.787E-03    -227.772E-03     186.987E-03    -237.712E-03     465.306E-03    -227.399E-03     155.493E-03
            1836     10.0374E-03     49.5822E-03    -36.8601E+06     30.9278E+06     66.2085E+06     1.19742E+06    -229.847E-03     457.581E-03    -227.734E-03     196.596E-03    -238.827E-03     466.348E-03    -227.394E-03     164.848E-03
            1837     9.31995E-03     49.3216E-03    -45.6260E+06     18.8778E+06     55.8502E+06     1.20276E+06    -230.663E-03     458.372E-03    -227.709E-03     200.489E-03    -239.501E-03     466.954E-03    -227.391E-03     169.119E-03
            1838     8.60339E-03     49.0573E-03    -53.8020E+06     7.02216E+06     49.1410E+06     675.996E+03    -231.124E-03     458.821E-03    -227.696E-03     198.478E-03    -239.402E-03     466.790E-03    -227.383E-03     168.218E-03
            1839     7.88640E-03     48.7994E-03    -62.0921E+06    -23.3078E+06     38.0812E+06     251.680E+03    -231.227E-03     458.917E-03    -227.690E-03     191.607E-03    -238.607E-03     465.883E-03    -227.376E-03     163.117E-03
            1840     7.16965E-03     48.5517E-03    -71.2393E+06    -70.1690E+06     20.2281E+06     296.084E+03    -231.261E-03     458.933E-03    -227.673E-03     180.752E-03    -237.541E-03     464.653E-03    -227.366E-03     154.533E-03
            1841     6.45292E-03     48.3192E-03    -80.6283E+06    -112.293E+06     2.20336E+06     335.136E+03    -230.929E-03     458.576E-03    -227.647E-03     167.188E-03    -236.070E-03     463.026E-03    -227.356E-03     143.604E-03
            1842     5.73602E-03     48.1070E-03    -89.6105E+06    -149.490E+06    -16.0432E+06     64.5857E+03    -230.508E-03     458.127E-03    -227.619E-03     152.024E-03    -234.576E-03     461.393E-03    -227.353E-03     131.214E-03
            1843     5.01871E-03     47.9136E-03    -98.8125E+06    -187.907E+06    -34.8118E+06     104.792E+03    -230.063E-03     457.655E-03    -227.592E-03     135.298E-03    -233.160E-03     459.835E-03    -227.350E-03     117.310E-03
            1844     4.30183E-03     47.7442E-03    -108.097E+06    -220.928E+06    -54.3219E+06     114.439E+03    -229.526E-03     457.076E-03    -227.551E-03     117.716E-03    -231.788E-03     458.328E-03    -227.345E-03     102.534E-03
            1845     3.58561E-03     47.5976E-03    -117.268E+06    -247.849E+06    -74.5644E+06     355.031E+03    -228.938E-03     456.439E-03    -227.501E-03     99.5528E-03    -230.515E-03     456.936E-03    -227.344E-03     87.0929E-03
            1846     2.86739E-03     47.4757E-03    -125.597E+06    -279.663E+06    -94.1423E+06     748.883E+03    -228.465E-03     455.924E-03    -227.459E-03     80.3826E-03    -229.475E-03     455.769E-03    -227.342E-03     70.5684E-03
            1847     2.15066E-03     47.3803E-03    -132.825E+06    -306.253E+06    -112.174E+06    -236.682E+03    -228.038E-03     455.441E-03    -227.403E-03     60.8177E-03    -228.615E-03     454.785E-03    -227.328E-03     53.5282E-03
            1848     1.43438E-03     47.3103E-03    -138.785E+06    -319.549E+06    -128.238E+06    -692.859E+03    -227.410E-03     454.817E-03    -227.407E-03     41.1617E-03    -227.695E-03     453.847E-03    -227.383E-03     36.2884E-03
            1849     716.108E-06     47.2677E-03    -142.095E+06    -327.207E+06    -139.421E+06     82.8554E+03    -227.638E-03     454.960E-03    -227.323E-03     22.4754E-03    -227.749E-03     453.810E-03    -227.339E-03     19.8412E-03
            1850     13.6252E-03     49.1000E-03    -4.17980E+06     62.6956E+06     92.0314E+06     5.55622E+03    -225.785E-03     453.558E-03    -227.772E-03     86.3302E-03    -229.645E-03     457.358E-03    -227.397E-03     64.5360E-03
            1851     12.9047E-03     48.9508E-03    -9.68831E+06     59.4468E+06     92.4832E+06     235.552E+03    -226.027E-03     453.824E-03    -227.796E-03     136.275E-03    -232.148E-03     459.853E-03    -227.406E-03     108.615E-03
            1852     12.1865E-03     48.7770E-03    -16.6588E+06     54.6534E+06     91.4558E+06    -628.752E+03    -227.050E-03     454.861E-03    -227.811E-03     153.081E-03    -233.997E-03     461.678E-03    -227.409E-03     124.189E-03
            1853     11.4720E-03     48.5678E-03    -23.1606E+06     50.4952E+06     88.0510E+06     423.478E+03    -228.113E-03     455.911E-03    -227.799E-03     173.005E-03    -236.186E-03     463.827E-03    -227.398E-03     142.314E-03
            1854     10.7540E-03     48.3363E-03    -30.2780E+06     41.4543E+06     78.1606E+06     1.84397E+06    -229.018E-03     456.775E-03    -227.757E-03     186.632E-03    -237.714E-03     465.285E-03    -227.383E-03     155.152E-03
            1855     10.0371E-03     48.0881E-03    -37.5936E+06     31.5208E+06     66.6502E+06     1.95537E+06    -230.108E-03     457.813E-03    -227.705E-03     196.161E-03    -239.093E-03     466.583E-03    -227.363E-03     164.365E-03
            1856     9.32102E-03     47.8262E-03    -44.2808E+06     19.8551E+06     57.2178E+06     1.25293E+06    -230.856E-03     458.512E-03    -227.656E-03     199.891E-03    -239.678E-03     467.081E-03    -227.334E-03     168.497E-03
            1857     8.60414E-03     47.5637E-03    -51.9846E+06     7.51155E+06     50.2755E+06     908.752E+03    -231.057E-03     458.685E-03    -227.627E-03     197.891E-03    -239.309E-03     466.632E-03    -227.311E-03     167.661E-03
            1858     7.88707E-03     47.3054E-03    -61.3433E+06    -23.0112E+06     38.7462E+06     1.00634E+06    -231.244E-03     458.857E-03    -227.613E-03     191.362E-03    -238.612E-03     465.813E-03    -227.297E-03     162.898E-03
            1859     7.17049E-03     47.0571E-03    -70.9363E+06    -69.9011E+06     20.6688E+06     801.049E+03    -231.109E-03     458.703E-03    -227.594E-03     180.720E-03    -237.380E-03     464.414E-03    -227.286E-03     154.554E-03
            1860     6.45327E-03     46.8270E-03    -80.0280E+06    -112.269E+06     2.76528E+06     408.507E+03    -230.850E-03     458.424E-03    -227.575E-03     167.430E-03    -235.990E-03     462.874E-03    -227.282E-03     143.866E-03
            1861     5.73600E-03     46.6128E-03    -89.5241E+06    -149.410E+06    -15.4136E+06     413.016E+03    -230.531E-03     458.075E-03    -227.544E-03     152.025E-03    -234.596E-03     461.337E-03    -227.275E-03     131.234E-03
            1862     5.01953E-03     46.4212E-03    -99.2139E+06    -188.036E+06    -34.2855E+06     548.381E+03    -230.000E-03     457.510E-03    -227.510E-03     135.269E-03    -233.095E-03     459.684E-03    -227.265E-03     117.312E-03
            1863     4.30234E-03     46.2512E-03    -108.772E+06    -221.055E+06    -53.6560E+06     724.859E+03    -229.526E-03     456.986E-03    -227.460E-03     117.700E-03    -231.792E-03     458.236E-03    -227.250E-03     102.534E-03
            1864     3.58459E-03     46.1049E-03    -118.012E+06    -248.654E+06    -74.1794E+06     899.000E+03    -228.956E-03     456.341E-03    -227.385E-03     99.0781E-03    -230.528E-03     456.827E-03    -227.224E-03     86.6548E-03
            1865     2.86868E-03     45.9836E-03    -126.334E+06    -278.255E+06    -94.7892E+06     262.425E+03    -228.318E-03     455.636E-03    -227.318E-03     80.1767E-03    -229.330E-03     455.486E-03    -227.205E-03     70.3727E-03
            1866     2.15176E-03     45.8872E-03    -133.581E+06    -304.641E+06    -113.572E+06    -536.307E+03    -227.837E-03     455.106E-03    -227.269E-03     60.9255E-03    -228.422E-03     454.465E-03    -227.202E-03     53.6204E-03
            1867     1.43406E-03     45.8194E-03    -139.288E+06    -321.429E+06    -129.529E+06    -746.108E+03    -227.473E-03     454.706E-03    -227.232E-03     41.3146E-03    -227.757E-03     453.730E-03    -227.212E-03     36.4436E-03
            1868     717.427E-06     45.7761E-03    -143.187E+06    -328.831E+06    -140.480E+06    -724.075E+03    -227.028E-03     454.508E-03    -227.479E-03     23.0344E-03    -227.142E-03     453.353E-03    -227.497E-03     20.4025E-03
            1869     13.6176E-03     47.6129E-03    -4.62377E+06     61.7763E+06     90.5837E+06    -431.294E+03    -225.439E-03     453.266E-03    -227.827E-03     85.7665E-03    -229.268E-03     457.035E-03    -227.457E-03     64.0069E-03
            1870     12.9020E-03     47.4503E-03    -10.3740E+06     59.8228E+06     91.9235E+06    -172.828E+03    -226.825E-03     454.662E-03    -227.837E-03     133.487E-03    -232.877E-03     460.623E-03    -227.449E-03     105.785E-03
            1871     12.1892E-03     47.2815E-03    -16.0751E+06     54.8307E+06     91.7060E+06     206.406E+03    -227.631E-03     455.438E-03    -227.807E-03     151.117E-03    -234.553E-03     462.231E-03    -227.404E-03     122.133E-03
            1872     11.4707E-03     47.0726E-03    -23.0206E+06     47.6333E+06     86.8180E+06     409.968E+03    -228.135E-03     455.902E-03    -227.767E-03     172.699E-03    -236.206E-03     463.808E-03    -227.369E-03     141.967E-03
            1873     10.7547E-03     46.8423E-03    -29.5575E+06     39.1010E+06     77.5487E+06     1.16468E+06    -229.261E-03     456.974E-03    -227.713E-03     186.150E-03    -237.938E-03     465.460E-03    -227.339E-03     154.625E-03
            1874     10.0384E-03     46.5923E-03    -35.8511E+06     32.5154E+06     67.7402E+06     1.42738E+06    -230.261E-03     457.903E-03    -227.642E-03     195.595E-03    -239.223E-03     466.657E-03    -227.298E-03     163.780E-03
            1875     9.32166E-03     46.3317E-03    -43.7435E+06     20.2241E+06     57.5704E+06     1.33713E+06    -230.716E-03     458.300E-03    -227.584E-03     199.584E-03    -239.518E-03     466.851E-03    -227.262E-03     168.240E-03
            1876     8.60466E-03     46.0702E-03    -52.6338E+06     7.15251E+06     50.0580E+06     1.70592E+06    -231.066E-03     458.621E-03    -227.555E-03     198.045E-03    -239.314E-03     466.562E-03    -227.239E-03     167.852E-03
            1877     7.88810E-03     45.8106E-03    -61.6534E+06    -22.0032E+06     38.9790E+06     1.48037E+06    -231.072E-03     458.615E-03    -227.543E-03     191.404E-03    -238.434E-03     465.567E-03    -227.227E-03     162.999E-03
            1878     7.17050E-03     45.5652E-03    -70.5057E+06    -69.4814E+06     21.1769E+06     921.814E+03    -231.005E-03     458.538E-03    -227.534E-03     180.717E-03    -237.265E-03     464.240E-03    -227.225E-03     154.596E-03
            1879     6.45335E-03     45.3326E-03    -79.9867E+06    -111.935E+06     3.28436E+06     820.516E+03    -230.932E-03     458.441E-03    -227.509E-03     167.128E-03    -236.062E-03     462.880E-03    -227.214E-03     143.581E-03
            1880     5.73704E-03     45.1201E-03    -89.7809E+06    -149.233E+06    -14.9297E+06     957.815E+03    -230.463E-03     457.929E-03    -227.466E-03     151.593E-03    -234.519E-03     461.180E-03    -227.194E-03     130.838E-03
            1881     5.01934E-03     44.9283E-03    -99.3281E+06    -187.983E+06    -33.8786E+06     956.752E+03    -230.032E-03     457.450E-03    -227.418E-03     134.982E-03    -233.120E-03     459.616E-03    -227.171E-03     117.048E-03
            1882     4.30257E-03     44.7583E-03    -108.609E+06    -221.486E+06    -53.3609E+06     817.099E+03    -229.483E-03     456.833E-03    -227.349E-03     117.284E-03    -231.739E-03     458.072E-03    -227.138E-03     102.143E-03
            1883     3.58665E-03     44.6122E-03    -117.268E+06    -248.107E+06    -73.1023E+06     785.276E+03    -228.783E-03     456.058E-03    -227.275E-03     99.0914E-03    -230.352E-03     456.542E-03    -227.110E-03     86.6845E-03
            1884     2.86861E-03     44.4918E-03    -125.530E+06    -276.821E+06    -93.8058E+06     469.515E+03    -228.161E-03     455.381E-03    -227.220E-03     80.3661E-03    -229.173E-03     455.237E-03    -227.106E-03     70.5746E-03
            1885     2.15083E-03     44.3960E-03    -132.792E+06    -304.204E+06    -113.051E+06    -93.7030E+03    -227.611E-03     454.819E-03    -227.208E-03     60.9328E-03    -228.190E-03     454.175E-03    -227.140E-03     53.6711E-03
            1886     1.43416E-03     44.3269E-03    -138.878E+06    -322.404E+06    -128.947E+06    -328.253E+03    -227.482E-03     454.674E-03    -227.192E-03     41.5256E-03    -227.763E-03     453.691E-03    -227.168E-03     36.6752E-03
            1887     717.222E-06     44.2839E-03    -143.879E+06    -330.316E+06    -140.622E+06    -204.207E+03    -227.055E-03     454.402E-03    -227.347E-03     23.0472E-03    -227.170E-03     453.242E-03    -227.362E-03     20.4178E-03
            1888     13.6231E-03     46.1131E-03    -5.47410E+06     61.8589E+06     89.7814E+06     119.654E+03    -226.864E-03     454.658E-03    -227.795E-03     85.1735E-03    -230.705E-03     458.440E-03    -227.428E-03     63.2581E-03
            1889     12.9080E-03     45.9564E-03    -10.2036E+06     60.9852E+06     92.0871E+06    -897.435E+03    -226.720E-03     454.485E-03    -227.766E-03     132.697E-03    -232.768E-03     460.447E-03    -227.379E-03     104.960E-03
            1890     12.1874E-03     45.7857E-03    -16.1984E+06     53.1721E+06     91.0464E+06    -619.754E+03    -227.055E-03     454.805E-03    -227.750E-03     150.921E-03    -233.948E-03     461.565E-03    -227.348E-03     122.049E-03
            1891     11.4725E-03     45.5782E-03    -22.1664E+06     45.7826E+06     86.6371E+06     540.234E+03    -228.371E-03     456.088E-03    -227.717E-03     172.217E-03    -236.419E-03     463.968E-03    -227.318E-03     141.464E-03
            1892     10.7554E-03     45.3466E-03    -29.1820E+06     38.2995E+06     77.3948E+06     958.458E+03    -229.359E-03     457.006E-03    -227.647E-03     186.002E-03    -238.017E-03     465.473E-03    -227.274E-03     154.492E-03
            1893     10.0392E-03     45.0969E-03    -37.3287E+06     31.6333E+06     66.5989E+06     1.30346E+06    -230.022E-03     457.598E-03    -227.576E-03     195.696E-03    -238.968E-03     466.331E-03    -227.235E-03     163.964E-03
            1894     9.32197E-03     44.8391E-03    -45.4300E+06     20.3061E+06     56.7887E+06     1.80930E+06    -230.664E-03     458.191E-03    -227.527E-03     199.651E-03    -239.460E-03     466.733E-03    -227.207E-03     168.357E-03
            1895     8.60527E-03     44.5744E-03    -53.3665E+06     7.61408E+06     49.8756E+06     1.15489E+06    -230.971E-03     458.473E-03    -227.502E-03     197.961E-03    -239.212E-03     466.407E-03    -227.186E-03     167.798E-03
            1896     7.88790E-03     44.3186E-03    -61.7278E+06    -21.8286E+06     39.2092E+06     769.146E+03    -231.079E-03     458.568E-03    -227.489E-03     191.086E-03    -238.427E-03     465.506E-03    -227.172E-03     162.692E-03
            1897     7.17097E-03     44.0710E-03    -71.0477E+06    -69.2914E+06     21.4220E+06     1.06553E+06    -231.204E-03     458.665E-03    -227.461E-03     180.389E-03    -237.456E-03     464.357E-03    -227.150E-03     154.261E-03
            1898     6.45469E-03     43.8394E-03    -80.6139E+06    -111.589E+06     3.40788E+06     1.20372E+06    -230.900E-03     458.314E-03    -227.414E-03     166.648E-03    -236.017E-03     462.738E-03    -227.118E-03     143.146E-03
            1899     5.73689E-03     43.6276E-03    -89.7885E+06    -149.160E+06    -14.9757E+06     907.468E+03    -230.473E-03     457.828E-03    -227.355E-03     151.170E-03    -234.514E-03     461.064E-03    -227.083E-03     130.448E-03
            1900     5.02057E-03     43.4352E-03    -98.7730E+06    -188.100E+06    -33.4877E+06     716.763E+03    -229.937E-03     457.232E-03    -227.296E-03     134.643E-03    -233.012E-03     459.386E-03    -227.047E-03     116.742E-03
            1901     4.30381E-03     43.2657E-03    -107.877E+06    -220.875E+06    -52.6196E+06     896.809E+03    -229.160E-03     456.402E-03    -227.242E-03     117.180E-03    -231.407E-03     457.634E-03    -227.029E-03     102.097E-03
            1902     3.58513E-03     43.1212E-03    -117.021E+06    -247.881E+06    -73.0128E+06     553.419E+03    -228.598E-03     455.792E-03    -227.195E-03     99.1382E-03    -230.164E-03     456.275E-03    -227.031E-03     86.7527E-03
            1903     2.86867E-03     42.9989E-03    -125.351E+06    -276.405E+06    -93.3288E+06     346.839E+03    -228.141E-03     455.285E-03    -227.144E-03     79.8460E-03    -229.146E-03     455.135E-03    -227.028E-03     70.0917E-03
            1904     2.15218E-03     42.9055E-03    -132.808E+06    -303.737E+06    -112.298E+06     246.869E+03    -227.617E-03     454.719E-03    -227.102E-03     60.5207E-03    -228.192E-03     454.070E-03    -227.030E-03     53.2892E-03
            1905     1.43415E-03     42.8348E-03    -139.321E+06    -323.130E+06    -128.671E+06     263.782E+03    -227.252E-03     454.347E-03    -227.095E-03     41.3995E-03    -227.535E-03     453.362E-03    -227.068E-03     36.5518E-03
            1906     716.904E-06     42.7922E-03    -142.607E+06    -330.158E+06    -140.183E+06     637.966E+03    -227.425E-03     454.262E-03    -226.836E-03     22.3214E-03    -227.533E-03     453.098E-03    -226.852E-03     19.7394E-03
            1907     13.6217E-03     44.6154E-03    -5.04698E+06     61.9827E+06     90.6274E+06     64.0498E+03    -226.699E-03     454.435E-03    -227.736E-03     85.0788E-03    -230.520E-03     458.196E-03    -227.366E-03     63.2971E-03
            1908     12.9040E-03     44.4612E-03    -10.1965E+06     60.8452E+06     92.0796E+06    -30.1414E+03    -226.204E-03     453.926E-03    -227.723E-03     133.613E-03    -232.273E-03     459.909E-03    -227.336E-03     105.919E-03
            1909     12.1902E-03     44.2922E-03    -16.5283E+06     52.4282E+06     90.8285E+06    -14.6498E+03    -227.476E-03     455.187E-03    -227.711E-03     151.689E-03    -234.378E-03     461.953E-03    -227.308E-03     122.778E-03
            1910     11.4722E-03     44.0814E-03    -24.0668E+06     43.6773E+06     85.4578E+06    -7.74844E+03    -228.436E-03     456.099E-03    -227.663E-03     172.250E-03    -236.461E-03     463.945E-03    -227.264E-03     141.562E-03
            1911     10.7566E-03     43.8520E-03    -31.2026E+06     36.6981E+06     76.3298E+06     902.766E+03    -229.093E-03     456.692E-03    -227.599E-03     186.141E-03    -237.741E-03     465.138E-03    -227.225E-03     154.714E-03
            1912     10.0388E-03     43.6037E-03    -38.0640E+06     31.1306E+06     66.4648E+06     1.52021E+06    -230.024E-03     457.560E-03    -227.536E-03     195.659E-03    -238.958E-03     466.276E-03    -227.194E-03     163.967E-03
            1913     9.32255E-03     43.3430E-03    -44.9806E+06     20.7883E+06     57.3466E+06     681.979E+03    -230.713E-03     458.194E-03    -227.481E-03     199.294E-03    -239.492E-03     466.721E-03    -227.160E-03     167.996E-03
            1914     8.60559E-03     43.0823E-03    -52.7842E+06     7.92646E+06     50.4498E+06     584.505E+03    -231.019E-03     458.464E-03    -227.444E-03     197.444E-03    -239.240E-03     466.379E-03    -227.127E-03     167.285E-03
            1915     7.88858E-03     42.8242E-03    -62.1086E+06    -22.2365E+06     39.2165E+06     989.364E+03    -231.288E-03     458.698E-03    -227.410E-03     190.608E-03    -238.618E-03     465.614E-03    -227.091E-03     162.221E-03
            1916     7.17230E-03     42.5774E-03    -71.5547E+06    -69.2474E+06     21.2837E+06     1.01461E+06    -231.219E-03     458.576E-03    -227.357E-03     179.887E-03    -237.453E-03     464.249E-03    -227.046E-03     153.797E-03
            1917     6.45456E-03     42.3469E-03    -80.3947E+06    -111.577E+06     3.50847E+06     789.135E+03    -230.878E-03     458.173E-03    -227.296E-03     166.282E-03    -235.976E-03     462.580E-03    -227.000E-03     142.819E-03
            1918     5.73846E-03     42.1343E-03    -89.3299E+06    -149.014E+06    -14.7546E+06     582.226E+03    -230.390E-03     457.617E-03    -227.227E-03     150.900E-03    -234.414E-03     460.837E-03    -226.955E-03     130.225E-03
            1919     5.02115E-03     41.9430E-03    -98.5212E+06    -188.103E+06    -33.3643E+06     555.511E+03    -229.649E-03     456.824E-03    -227.175E-03     134.441E-03    -232.712E-03     458.967E-03    -226.927E-03     116.599E-03
            1920     4.30298E-03     41.7750E-03    -107.762E+06    -220.962E+06      -52.47E+06     565.270E+03    -229.157E-03     456.280E-03    -227.123E-03     116.808E-03    -231.393E-03     457.501E-03    -226.908E-03     101.757E-03
            1921     3.58710E-03     41.6286E-03    -116.482E+06    -247.342E+06    -72.3838E+06     595.086E+03    -228.594E-03     455.639E-03    -227.045E-03     98.1992E-03    -230.143E-03     456.107E-03    -226.880E-03     85.8664E-03
            1922     2.86940E-03     41.5081E-03    -124.912E+06    -276.099E+06    -92.6831E+06      515.05E+03    -227.880E-03     454.866E-03    -226.986E-03     79.3757E-03    -228.878E-03     454.709E-03    -226.867E-03     69.6574E-03
            1923     2.15139E-03     41.4134E-03    -132.689E+06    -303.736E+06    -111.838E+06     605.997E+03    -227.543E-03     454.480E-03    -226.937E-03     60.4164E-03    -228.119E-03     453.831E-03    -226.863E-03     53.1925E-03
            1924     1.43499E-03     41.3445E-03    -138.524E+06    -322.800E+06    -128.426E+06     306.735E+03    -227.194E-03     454.063E-03    -226.870E-03     41.2737E-03    -227.472E-03     453.076E-03    -226.843E-03     36.4489E-03
            1925     717.430E-06     41.3008E-03    -142.292E+06    -330.042E+06    -139.791E+06    -29.8623E+03    -227.285E-03     453.736E-03    -226.451E-03     22.7330E-03    -227.392E-03     452.572E-03    -226.465E-03     20.1349E-03
            1926     13.6242E-03     43.1224E-03    -4.01180E+06     61.6561E+06     91.0839E+06     58.5169E+03    -226.140E-03     453.883E-03    -227.744E-03     85.9520E-03    -229.971E-03     457.655E-03    -227.372E-03     64.1598E-03
            1927     12.9070E-03     42.9681E-03    -10.3034E+06     59.2951E+06     91.6871E+06     517.790E+03    -226.837E-03     454.567E-03    -227.730E-03     134.374E-03    -232.902E-03     460.540E-03    -227.343E-03     106.672E-03
            1928     12.1883E-03     42.7932E-03    -16.4353E+06     52.1281E+06     90.7100E+06     1.19942E+06    -227.843E-03     455.534E-03    -227.691E-03     151.565E-03    -234.736E-03     462.291E-03    -227.289E-03     122.646E-03
            1929     11.4740E-03     42.5880E-03    -22.7006E+06     44.2275E+06     86.0470E+06     1.27396E+06    -228.343E-03     455.978E-03    -227.635E-03     172.257E-03    -236.357E-03     463.819E-03    -227.236E-03     141.608E-03
            1930     10.7555E-03     42.3574E-03    -29.8426E+06     35.4560E+06     76.7101E+06     508.928E+03    -229.304E-03     456.870E-03    -227.566E-03     185.858E-03    -237.931E-03     465.294E-03    -227.190E-03     154.414E-03
            1931     10.0401E-03     42.1084E-03    -36.4040E+06     30.9866E+06     67.5104E+06     230.258E+03    -230.118E-03     457.607E-03    -227.489E-03     195.148E-03    -239.027E-03     466.301E-03    -227.144E-03     163.440E-03
            1932     9.32303E-03     41.8496E-03    -43.9557E+06     20.5637E+06     57.8502E+06     842.162E+03    -230.763E-03     458.184E-03    -227.420E-03     198.920E-03    -239.518E-03     466.688E-03    -227.097E-03     167.644E-03
            1933     8.60616E-03     41.5881E-03    -52.7628E+06     7.24485E+06     50.4370E+06     1.40910E+06    -231.269E-03     458.632E-03    -227.362E-03     196.939E-03    -239.463E-03     466.517E-03    -227.044E-03     166.798E-03
            1934     7.88994E-03     41.3301E-03    -61.5864E+06    -21.5003E+06     39.6481E+06     1.23259E+06    -231.319E-03     458.624E-03    -227.305E-03     190.289E-03    -238.624E-03     465.519E-03    -226.986E-03     161.954E-03
            1935     7.17242E-03     41.0848E-03    -70.2752E+06    -69.0121E+06     21.8558E+06     718.124E+03    -231.215E-03     458.455E-03    -227.239E-03     179.528E-03    -237.421E-03     464.103E-03    -226.928E-03     153.489E-03
            1936     6.45634E-03     40.8535E-03    -79.2859E+06    -111.508E+06     4.11268E+06     449.742E+03    -230.819E-03     457.987E-03    -227.167E-03     165.914E-03    -235.893E-03     462.371E-03    -226.870E-03     142.501E-03
            1937     5.73873E-03     40.6420E-03    -88.6784E+06    -148.831E+06    -13.9797E+06     705.704E+03    -230.201E-03     457.298E-03    -227.097E-03     150.542E-03    -234.209E-03     460.504E-03    -226.823E-03     129.927E-03
            1938     5.02119E-03     40.4520E-03    -98.1619E+06    -188.057E+06    -33.1940E+06     738.866E+03    -229.802E-03     456.823E-03    -227.020E-03     133.648E-03    -232.846E-03     458.946E-03    -226.771E-03     115.842E-03
            1939     4.30505E-03     40.2824E-03    -107.384E+06    -221.346E+06    -52.4644E+06     339.938E+03    -229.231E-03     456.145E-03    -226.914E-03     116.026E-03    -231.450E-03     457.349E-03    -226.700E-03     101.001E-03
            1940     3.58719E-03     40.1370E-03    -116.450E+06    -247.372E+06    -71.9023E+06     590.301E+03    -228.356E-03     455.164E-03    -226.808E-03     97.6276E-03    -229.898E-03     455.623E-03    -226.640E-03     85.3362E-03
            1941     2.86976E-03     40.0187E-03    -124.974E+06    -275.792E+06    -92.4745E+06     717.393E+03    -227.716E-03     454.446E-03    -226.729E-03     78.9871E-03    -228.709E-03     454.284E-03    -226.611E-03     69.3021E-03
            1942     2.15279E-03     39.9217E-03    -132.064E+06    -303.455E+06    -111.670E+06     388.280E+03    -227.314E-03     453.968E-03    -226.654E-03     59.8119E-03    -227.882E-03     453.314E-03    -226.581E-03     52.6258E-03
            1943     1.43479E-03     39.8543E-03    -137.861E+06    -322.061E+06    -127.768E+06     182.496E+03    -226.984E-03     453.529E-03    -226.545E-03     40.6993E-03    -227.256E-03     452.539E-03    -226.517E-03     35.8945E-03
            1944     717.524E-06     39.8101E-03    -143.012E+06    -330.255E+06    -139.322E+06    -183.296E+03    -226.893E-03     453.011E-03    -226.118E-03     22.1435E-03    -227.004E-03     451.846E-03    -226.129E-03     19.5416E-03
            1945     13.6192E-03     41.6289E-03    -5.23981E+06     61.2971E+06     89.8893E+06     174.265E+03    -226.839E-03     454.597E-03    -227.758E-03     85.1716E-03    -230.663E-03     458.359E-03    -227.390E-03     63.2952E-03
            1946     12.9039E-03     41.4671E-03    -10.3666E+06     58.3573E+06     91.1015E+06     565.067E+03    -227.270E-03     454.984E-03    -227.714E-03     133.378E-03    -233.301E-03     460.921E-03    -227.328E-03     105.665E-03
            1947     12.1911E-03     41.3000E-03    -16.1748E+06     50.3480E+06     90.0204E+06     487.375E+03    -227.563E-03     455.231E-03    -227.668E-03     150.894E-03    -234.427E-03     461.954E-03    -227.267E-03     122.022E-03
            1948     11.4717E-03     41.0919E-03    -22.2125E+06     44.4559E+06     86.3227E+06     781.030E+03    -228.627E-03     456.236E-03    -227.608E-03     171.798E-03    -236.631E-03     464.068E-03    -227.209E-03     141.093E-03
            1949     10.7578E-03     40.8617E-03    -28.1137E+06     36.9178E+06     77.7812E+06     545.195E+03    -229.468E-03     456.988E-03    -227.520E-03     185.265E-03    -238.073E-03     465.398E-03    -227.144E-03     153.806E-03
            1950     10.0403E-03     40.6145E-03    -35.6602E+06     29.2326E+06     66.9606E+06     687.221E+03    -230.204E-03     457.632E-03    -227.427E-03     194.951E-03    -239.090E-03     466.300E-03    -227.083E-03     163.261E-03
            1951     9.32349E-03     40.3556E-03    -43.7335E+06     19.2294E+06     57.6588E+06     1.77367E+06    -231.026E-03     458.368E-03    -227.342E-03     198.623E-03    -239.748E-03     466.836E-03    -227.018E-03     167.381E-03
            1952     8.60757E-03     40.0928E-03    -51.6700E+06     8.39489E+06     51.2105E+06     1.47993E+06    -231.283E-03     458.549E-03    -227.265E-03     196.501E-03    -239.440E-03     466.403E-03    -226.947E-03     166.428E-03
            1953     7.89018E-03     39.8381E-03    -60.1403E+06    -20.9292E+06     40.4911E+06     822.821E+03    -231.391E-03     458.585E-03    -227.194E-03     189.938E-03    -238.668E-03     465.457E-03    -226.874E-03     161.639E-03
            1954     7.17395E-03     39.5903E-03    -69.3861E+06    -68.7020E+06     22.5613E+06     767.362E+03    -231.256E-03     458.366E-03    -227.110E-03     179.000E-03    -237.434E-03     463.989E-03    -226.797E-03     153.005E-03
            1955     6.45660E-03     39.3616E-03    -78.8596E+06    -111.368E+06     4.44839E+06     1.00980E+06    -230.774E-03     457.792E-03    -227.018E-03     165.175E-03    -235.822E-03     462.152E-03    -226.720E-03     141.820E-03
            1956     5.73949E-03     39.1505E-03    -88.3268E+06    -149.179E+06    -14.0658E+06     878.856E+03    -230.434E-03     457.340E-03    -226.907E-03     149.606E-03    -234.418E-03     460.522E-03    -226.632E-03     129.014E-03
            1957     5.02324E-03     38.9591E-03    -97.5933E+06    -187.971E+06    -32.6164E+06     853.752E+03    -229.888E-03     456.661E-03    -226.772E-03     132.752E-03    -232.912E-03     458.765E-03    -226.521E-03     114.977E-03
            1958     4.30579E-03     38.7913E-03    -107.017E+06    -220.705E+06    -51.8427E+06     1.16320E+06    -228.919E-03     455.554E-03    -226.636E-03     115.276E-03    -231.125E-03     456.748E-03    -226.420E-03     100.313E-03
            1959     3.58845E-03     38.6477E-03    -116.264E+06    -247.582E+06    -72.2561E+06     730.264E+03    -228.181E-03     454.691E-03    -226.510E-03     97.0901E-03    -229.713E-03     455.141E-03    -226.344E-03     84.8315E-03
            1960     2.87117E-03     38.5270E-03    -124.529E+06    -275.604E+06    -92.4537E+06     262.332E+03    -227.715E-03     454.084E-03    -226.369E-03     78.3802E-03    -228.700E-03     453.917E-03    -226.251E-03     68.7137E-03
            1961     2.15336E-03     38.4332E-03    -132.134E+06    -303.035E+06    -111.175E+06     326.564E+03    -227.116E-03     453.319E-03    -226.203E-03     59.2693E-03    -227.679E-03     452.660E-03    -226.128E-03     52.1198E-03
            1962     1.43597E-03     38.3639E-03    -137.951E+06    -321.867E+06    -127.244E+06     524.061E+03    -226.577E-03     452.589E-03    -226.012E-03     40.0033E-03    -226.847E-03     451.596E-03    -225.982E-03     35.2486E-03
            1963     718.267E-06     38.3216E-03    -141.283E+06    -329.560E+06    -139.578E+06     320.596E+03    -226.215E-03     451.863E-03    -225.648E-03     21.6122E-03    -226.315E-03     450.697E-03    -225.664E-03     19.0582E-03
            1964     13.6245E-03     40.1272E-03    -5.00776E+06     60.8325E+06     89.7624E+06     303.824E+03    -227.211E-03     454.926E-03    -227.716E-03     84.5056E-03    -231.003E-03     458.657E-03    -227.348E-03     62.7009E-03
            1965     12.9092E-03     39.9748E-03    -9.86706E+06     58.2240E+06     91.2776E+06     343.495E+03    -226.846E-03     454.517E-03    -227.671E-03     132.786E-03    -232.851E-03     460.429E-03    -227.285E-03     105.144E-03
            1966     12.1880E-03     39.8040E-03    -15.2518E+06     49.4519E+06     90.5661E+06     411.979E+03    -227.774E-03     455.403E-03    -227.629E-03     150.589E-03    -234.615E-03     462.102E-03    -227.226E-03     121.717E-03
            1967     11.4753E-03     39.5955E-03    -21.7460E+06     44.4150E+06     86.2605E+06     306.842E+03    -228.554E-03     456.113E-03    -227.558E-03     171.233E-03    -236.527E-03     463.916E-03    -227.160E-03     140.563E-03
            1968     10.7569E-03     39.3672E-03    -29.5746E+06     36.5992E+06     76.4141E+06     452.024E+03    -229.381E-03     456.849E-03    -227.468E-03     185.165E-03    -237.970E-03     465.242E-03    -227.096E-03     153.743E-03
            1969     10.0407E-03     39.1202E-03    -37.0119E+06     27.8556E+06     66.0189E+06     1.13253E+06    -230.607E-03     457.971E-03    -227.363E-03     194.731E-03    -239.468E-03     466.608E-03    -227.020E-03     163.046E-03
            1970     9.32514E-03     38.8594E-03    -43.9816E+06     18.9347E+06     57.6044E+06     586.008E+03    -231.102E-03     458.358E-03    -227.256E-03     198.119E-03    -239.792E-03     466.791E-03    -226.931E-03     166.912E-03
            1971     8.60773E-03     38.6010E-03    -51.5010E+06     8.57659E+06     51.4925E+06     370.515E+03    -231.421E-03     458.582E-03    -227.161E-03     196.243E-03    -239.557E-03     466.416E-03    -226.841E-03     166.182E-03
            1972     7.89157E-03     38.3426E-03    -60.2998E+06    -21.1689E+06     40.3836E+06     785.072E+03    -231.645E-03     458.703E-03    -227.057E-03     189.155E-03    -238.895E-03     465.546E-03    -226.737E-03     160.863E-03
            1973     7.17482E-03     38.0985E-03    -69.5827E+06    -68.9750E+06     22.3064E+06     1.15130E+06    -231.342E-03     458.274E-03    -226.933E-03     177.819E-03    -237.486E-03     463.862E-03    -226.620E-03     151.869E-03
            1974     6.45795E-03     37.8693E-03    -78.8214E+06    -111.494E+06     4.37535E+06     1.20143E+06    -231.017E-03     457.807E-03    -226.790E-03     163.964E-03    -236.036E-03     462.137E-03    -226.492E-03     140.631E-03
            1975     5.74182E-03     37.6577E-03    -88.1626E+06    -148.565E+06    -13.7864E+06     1.27301E+06    -230.419E-03     457.044E-03    -226.625E-03     148.647E-03    -234.380E-03     460.204E-03    -226.351E-03     128.102E-03
            1976     5.02451E-03     37.4683E-03    -97.8779E+06    -187.926E+06    -32.7273E+06     1.21531E+06    -229.483E-03     455.957E-03    -226.474E-03     132.200E-03    -232.494E-03     458.048E-03    -226.223E-03     114.497E-03
            1977     4.30722E-03     37.3014E-03    -107.055E+06    -220.635E+06    -51.8958E+06     1.06597E+06    -228.764E-03     455.090E-03    -226.326E-03     114.737E-03    -230.960E-03     456.273E-03    -226.111E-03     99.8189E-03
            1978     3.58973E-03     37.1575E-03    -115.668E+06    -246.391E+06    -71.7775E+06     799.458E+03    -228.138E-03     454.290E-03    -226.152E-03     96.6984E-03    -229.661E-03     454.736E-03    -225.986E-03     84.4767E-03
            1979     2.87215E-03     37.0377E-03    -124.283E+06    -275.078E+06    -92.3360E+06     533.789E+03    -227.417E-03     453.380E-03    -225.962E-03     78.0200E-03    -228.396E-03     453.208E-03    -225.845E-03     68.4059E-03
            1980     2.15484E-03     36.9442E-03    -131.653E+06    -302.996E+06    -111.352E+06     232.466E+03    -226.802E-03     452.561E-03    -225.759E-03     59.1937E-03    -227.361E-03     451.899E-03    -225.685E-03     52.0698E-03
            1981     1.43695E-03     36.8758E-03    -137.549E+06    -321.908E+06    -127.155E+06    -7.22462E+03    -226.095E-03     451.650E-03    -225.555E-03     40.0424E-03    -226.364E-03     450.657E-03    -225.525E-03     35.2951E-03
            1982     718.456E-06     36.8353E-03    -141.377E+06    -328.940E+06    -137.784E+06     308.931E+03    -225.115E-03     450.969E-03    -225.854E-03     22.0217E-03    -225.220E-03     449.804E-03    -225.861E-03     19.4357E-03
            1983     13.6228E-03     38.6352E-03    -5.14169E+06     59.9661E+06     89.9906E+06     2.15703E+03    -227.199E-03     454.924E-03    -227.725E-03     86.4234E-03    -231.047E-03     458.706E-03    -227.355E-03     64.5045E-03
            1984     12.9035E-03     38.4774E-03    -9.69663E+06     57.8548E+06     91.7409E+06     146.359E+03    -227.532E-03     455.196E-03    -227.664E-03     133.891E-03    -233.582E-03     461.151E-03    -227.275E-03     106.074E-03
            1985     12.1930E-03     38.3076E-03    -15.6977E+06     48.9721E+06     90.2028E+06    -332.049E+03    -227.930E-03     455.525E-03    -227.596E-03     150.717E-03    -234.775E-03     462.228E-03    -227.193E-03     121.804E-03
            1986     11.4735E-03     38.1008E-03    -22.2846E+06     43.4259E+06     85.6837E+06     591.005E+03    -228.495E-03     456.017E-03    -227.523E-03     171.582E-03    -236.450E-03     463.799E-03    -227.125E-03     140.981E-03
            1987     10.7577E-03     37.8737E-03    -28.9350E+06     36.3356E+06     76.7583E+06     1.40226E+06    -229.915E-03     457.333E-03    -227.418E-03     185.012E-03    -238.464E-03     465.686E-03    -227.045E-03     153.618E-03
            1988     10.0422E-03     37.6222E-03    -36.0110E+06     28.5454E+06     66.7715E+06     409.449E+03    -230.806E-03     458.089E-03    -227.283E-03     193.968E-03    -239.625E-03     466.688E-03    -226.939E-03     162.306E-03
            1989     9.32506E-03     37.3679E-03    -43.2985E+06     18.9411E+06     57.9098E+06     139.952E+03    -231.320E-03     458.467E-03    -227.147E-03     197.218E-03    -239.972E-03     466.865E-03    -226.822E-03     166.016E-03
            1990     8.60909E-03     37.1047E-03    -51.6485E+06     7.40167E+06     50.8207E+06     533.941E+03    -231.786E-03     458.795E-03    -227.009E-03     195.222E-03    -239.888E-03     466.592E-03    -226.691E-03     165.149E-03
            1991     7.89310E-03     36.8497E-03    -60.6174E+06    -22.0185E+06     39.7315E+06     961.082E+03    -231.727E-03     458.588E-03    -226.861E-03     187.893E-03    -238.938E-03     465.390E-03    -226.542E-03     159.638E-03
            1992     7.17653E-03     36.6056E-03    -69.8372E+06    -69.2276E+06     21.9334E+06     1.16880E+06    -231.526E-03     458.218E-03    -226.693E-03     176.924E-03    -237.646E-03     463.781E-03    -226.381E-03     150.985E-03
            1993     6.46069E-03     36.3763E-03    -79.3328E+06    -111.127E+06     4.22548E+06     1.28233E+06    -231.002E-03     457.510E-03    -226.508E-03     163.514E-03    -236.006E-03     461.826E-03    -226.211E-03     140.224E-03
            1994     5.74339E-03     36.1671E-03    -88.8352E+06    -148.199E+06    -13.8849E+06     1.29970E+06    -230.107E-03     456.434E-03    -226.326E-03     148.236E-03    -234.056E-03     459.581E-03    -226.052E-03     127.766E-03
            1995     5.02597E-03     35.9782E-03    -97.7697E+06    -187.407E+06    -32.7179E+06     1.15477E+06    -229.323E-03     455.482E-03    -226.159E-03     131.552E-03    -232.315E-03     457.556E-03    -225.909E-03     113.921E-03
            1996     4.30850E-03     35.8115E-03    -106.805E+06    -220.432E+06    -52.0750E+06     639.993E+03    -228.625E-03     454.603E-03    -225.978E-03     114.138E-03    -230.802E-03     455.769E-03    -225.764E-03     99.2835E-03
            1997     3.59127E-03     35.6680E-03    -115.804E+06    -246.119E+06    -71.8020E+06     545.767E+03    -227.788E-03     453.569E-03    -225.781E-03     96.1926E-03    -229.300E-03     454.004E-03    -225.615E-03     84.0412E-03
            1998     2.87354E-03     35.5499E-03    -123.842E+06    -274.330E+06    -92.0381E+06     570.685E+03    -226.891E-03     452.499E-03    -225.608E-03     77.8348E-03    -227.862E-03     452.323E-03    -225.490E-03     68.2808E-03
            1999     2.15502E-03     35.4563E-03    -131.131E+06    -302.404E+06    -110.944E+06     188.475E+03    -226.121E-03     451.617E-03    -225.497E-03     59.3484E-03    -226.678E-03     450.957E-03    -225.423E-03     52.2591E-03
            2000     1.43677E-03     35.3894E-03    -137.395E+06    -322.108E+06    -127.507E+06     17.7288E+03    -225.656E-03     451.103E-03    -225.447E-03     40.2672E-03    -225.925E-03     450.110E-03    -225.418E-03     35.5120E-03
            2001     718.260E-06     35.3495E-03    -140.961E+06    -329.401E+06    -138.794E+06    -314.100E+03    -225.512E-03     450.923E-03    -225.411E-03     21.6331E-03    -225.613E-03     449.758E-03    -225.423E-03     19.0598E-03
            2002     13.6199E-03     37.1360E-03    -4.79856E+06     59.9836E+06     90.1490E+06    -430.514E+03    -227.318E-03     455.067E-03    -227.749E-03     85.1103E-03    -231.142E-03     458.826E-03    -227.378E-03     63.1344E-03
            2003     12.9097E-03     36.9788E-03    -10.5676E+06     56.6279E+06     90.4284E+06    -715.795E+03    -227.538E-03     455.216E-03    -227.679E-03     133.181E-03    -233.567E-03     461.147E-03    -227.293E-03     105.349E-03
            2004     12.1889E-03     36.8124E-03    -16.0490E+06     48.2030E+06     89.3063E+06     374.841E+03    -228.120E-03     455.726E-03    -227.606E-03     151.031E-03    -234.951E-03     462.412E-03    -227.206E-03     122.140E-03
            2005     11.4744E-03     36.6066E-03    -22.9048E+06     41.5880E+06      85.024E+06     502.128E+03    -229.561E-03     457.059E-03    -227.498E-03     171.271E-03    -237.494E-03     464.812E-03    -227.100E-03     140.575E-03
            2006     10.7590E-03     36.3745E-03    -29.3386E+06     36.1991E+06     77.2715E+06     257.462E+03    -230.450E-03     457.788E-03    -227.338E-03     184.039E-03    -238.973E-03     466.111E-03    -226.962E-03     152.587E-03
            2007     10.0425E-03     36.1301E-03    -36.0747E+06     29.6119E+06     67.2643E+06     237.165E+03    -230.998E-03     458.160E-03    -227.161E-03     192.755E-03    -239.783E-03     466.726E-03    -226.815E-03     161.090E-03
            2008     9.32704E-03     35.8707E-03    -43.9213E+06     17.9951E+06     57.0994E+06     191.405E+03    -231.749E-03     458.728E-03    -226.979E-03     196.239E-03    -240.371E-03     467.092E-03    -226.656E-03     165.001E-03
            2009     8.61171E-03     35.6116E-03    -52.2205E+06     6.31566E+06     50.1277E+06     755.537E+03    -231.916E-03     458.712E-03    -226.796E-03     194.133E-03    -239.979E-03     466.467E-03    -226.479E-03     164.090E-03
            2010     7.89481E-03     35.3563E-03    -61.2827E+06    -22.5303E+06     39.2030E+06     1.10379E+06    -231.662E-03     458.281E-03    -226.619E-03     187.199E-03    -238.839E-03     465.047E-03    -226.302E-03     159.018E-03
            2011     7.17893E-03     35.1123E-03    -70.7873E+06    -69.1685E+06     21.5226E+06     1.08730E+06    -231.319E-03     457.757E-03    -226.437E-03     176.566E-03    -237.418E-03     463.296E-03    -226.127E-03     150.713E-03
            2012     6.46159E-03     34.8852E-03    -79.8040E+06    -110.944E+06     3.89786E+06     1.00567E+06    -230.726E-03     456.976E-03    -226.249E-03     163.192E-03    -235.713E-03     461.273E-03    -225.953E-03     139.980E-03
            2013     5.74473E-03     34.6763E-03    -88.5042E+06    -148.066E+06    -14.2063E+06     739.892E+03    -230.069E-03     456.118E-03    -226.050E-03     147.681E-03    -233.994E-03     459.245E-03    -225.778E-03     127.270E-03
            2014     5.02788E-03     34.4885E-03    -97.5002E+06    -187.472E+06    -32.6873E+06     603.796E+03    -229.291E-03     455.139E-03    -225.847E-03     131.174E-03    -232.265E-03     457.196E-03    -225.598E-03     113.595E-03
            2015     4.31062E-03     34.3227E-03    -106.495E+06    -219.868E+06    -51.7632E+06     833.100E+03    -228.355E-03     453.994E-03    -225.639E-03     113.930E-03    -230.522E-03     455.152E-03    -225.425E-03     99.1451E-03
            2016     3.59239E-03     34.1804E-03    -115.347E+06    -245.796E+06    -71.8745E+06     593.628E+03    -227.347E-03     452.791E-03    -225.444E-03     95.8552E-03    -228.847E-03     453.217E-03    -225.280E-03     83.7795E-03
            2017     2.87401E-03     34.0628E-03    -123.847E+06    -274.127E+06    -92.1062E+06     297.347E+03    -226.425E-03     451.724E-03    -225.299E-03     77.3259E-03    -227.390E-03     451.544E-03    -225.182E-03     67.8178E-03
            2018     2.15565E-03     33.9706E-03    -131.339E+06    -302.165E+06    -110.847E+06     360.716E+03    -225.695E-03     450.922E-03    -225.227E-03     58.4836E-03    -226.247E-03     450.257E-03    -225.153E-03     51.4327E-03
            2019     1.43642E-03     33.9034E-03    -137.284E+06    -321.856E+06    -126.959E+06     261.038E+03    -225.347E-03     450.559E-03    -225.212E-03     39.4123E-03    -225.611E-03     449.561E-03    -225.182E-03     34.7042E-03
            2020     718.386E-06     33.8615E-03    -140.886E+06    -329.551E+06    -139.008E+06     220.242E+03    -225.469E-03     450.474E-03    -225.005E-03     21.6697E-03    -225.566E-03     449.308E-03    -225.018E-03     19.1381E-03
            2021     13.6253E-03     35.6358E-03    -3.48651E+06     59.7967E+06     90.4480E+06     79.5294E+03    -226.842E-03     454.572E-03    -227.730E-03     85.5927E-03    -230.621E-03     458.289E-03    -227.359E-03     63.8156E-03
            2022     12.9031E-03     35.4863E-03    -10.4925E+06     55.5523E+06     89.7811E+06     1.14347E+06    -227.386E-03     455.064E-03    -227.677E-03     132.710E-03    -233.349E-03     460.926E-03    -227.294E-03     105.090E-03
            2023     12.1903E-03     35.3140E-03    -17.3581E+06     48.4383E+06     89.0292E+06     716.287E+03    -229.099E-03     456.678E-03    -227.579E-03     149.304E-03    -235.881E-03     463.312E-03    -227.179E-03     120.368E-03
            2024     11.4754E-03     35.1078E-03    -23.2806E+06     42.4593E+06     85.6575E+06    -609.615E+03    -230.119E-03     457.533E-03    -227.414E-03     169.575E-03    -238.024E-03     465.258E-03    -227.013E-03     138.766E-03
            2025     10.7600E-03     34.8795E-03    -30.0116E+06     35.0373E+06     76.6751E+06    -1.08146E+06    -230.626E-03     457.837E-03    -227.212E-03     182.897E-03    -239.128E-03     466.135E-03    -226.835E-03     151.373E-03
            2026     10.0450E-03     34.6339E-03    -36.9128E+06     28.6193E+06     66.4403E+06    -340.058E+03    -231.361E-03     458.359E-03    -226.998E-03     192.128E-03    -240.127E-03     466.902E-03    -226.654E-03     160.414E-03
            2027     9.32933E-03     34.3761E-03    -44.4346E+06     17.0967E+06     56.4950E+06     408.531E+03    -231.815E-03     458.600E-03    -226.785E-03     195.959E-03    -240.415E-03     466.938E-03    -226.463E-03     164.757E-03
            2028     8.61278E-03     34.1173E-03    -52.8285E+06     5.16046E+06     49.5322E+06     852.342E+03    -231.827E-03     458.414E-03    -226.587E-03     193.931E-03    -239.864E-03     466.138E-03    -226.271E-03     163.967E-03
            2029     7.89740E-03     33.8633E-03    -61.7224E+06    -22.4809E+06     38.9565E+06     1.02882E+06    -231.595E-03     457.994E-03    -226.399E-03     187.138E-03    -238.755E-03     464.742E-03    -226.082E-03     159.023E-03
            2030     7.18003E-03     33.6211E-03    -70.3519E+06    -68.6972E+06     21.4605E+06     773.639E+03    -231.187E-03     457.393E-03    -226.205E-03     176.220E-03    -237.255E-03     462.904E-03    -225.896E-03     150.457E-03
            2031     6.46349E-03     33.3941E-03    -78.9595E+06    -111.135E+06     3.78984E+06     310.628E+03    -230.672E-03     456.671E-03    -225.999E-03     162.412E-03    -235.618E-03     460.931E-03    -225.705E-03     139.287E-03
            2032     5.74660E-03     33.1859E-03    -88.0039E+06    -148.058E+06    -14.1013E+06     392.286E+03    -229.927E-03     455.705E-03    -225.777E-03     146.979E-03    -233.821E-03     458.801E-03    -225.505E-03     126.656E-03
            2033     5.02901E-03     32.9995E-03    -97.2306E+06    -187.701E+06    -32.8659E+06     570.849E+03    -229.070E-03     454.627E-03    -225.556E-03     130.560E-03    -232.023E-03     456.663E-03    -225.307E-03     113.055E-03
            2034     4.31113E-03     32.8343E-03    -106.346E+06    -220.003E+06    -51.8109E+06     531.495E+03    -228.033E-03     453.374E-03    -225.340E-03     113.238E-03    -230.184E-03     454.516E-03    -225.126E-03     98.5134E-03
            2035     3.59348E-03     32.6937E-03    -115.326E+06    -245.109E+06    -71.4784E+06     832.944E+03    -227.032E-03     452.175E-03    -225.143E-03     95.2934E-03    -228.525E-03     452.596E-03    -224.978E-03     83.2618E-03
            2036     2.87522E-03     32.5768E-03    -123.653E+06    -273.737E+06    -91.9491E+06     722.633E+03    -226.289E-03     451.257E-03    -224.967E-03     76.6940E-03    -227.246E-03     451.070E-03    -224.851E-03     67.2364E-03
            2037     2.15652E-03     32.4853E-03    -131.091E+06    -301.969E+06    -110.940E+06     302.648E+03    -225.660E-03     450.458E-03    -224.798E-03     57.8544E-03    -226.205E-03     449.787E-03    -224.725E-03     50.8389E-03
            2038     1.43858E-03     32.4181E-03    -137.132E+06    -321.808E+06    -126.889E+06     229.164E+03    -225.014E-03     449.674E-03    -224.660E-03     39.1347E-03    -225.274E-03     448.673E-03    -224.629E-03     34.4746E-03
            2039     718.982E-06     32.3773E-03    -141.417E+06    -329.299E+06    -137.714E+06     240.808E+03    -224.491E-03     449.257E-03    -224.766E-03     21.2967E-03    -224.590E-03     448.089E-03    -224.772E-03     18.7626E-03
            2040     13.6196E-03     34.1466E-03    -5.24475E+06     57.6867E+06     89.4972E+06     1.06704E+06    -228.138E-03     455.846E-03    -227.707E-03     84.4306E-03    -231.881E-03     459.515E-03    -227.336E-03     62.6513E-03
            2041     12.9085E-03     33.9847E-03    -10.5004E+06     55.4662E+06     91.2081E+06     592.442E+03    -228.365E-03     455.957E-03    -227.592E-03     130.660E-03    -234.286E-03     461.772E-03    -227.201E-03     102.940E-03
            2042     12.1927E-03     33.8174E-03    -15.4951E+06     51.6507E+06     91.4969E+06    -261.768E+03    -229.221E-03     456.668E-03    -227.447E-03     147.982E-03    -235.975E-03     463.285E-03    -227.041E-03     118.989E-03
            2043     11.4772E-03     33.6099E-03    -21.7336E+06     43.0880E+06     86.3621E+06    -989.070E+03    -229.700E-03     456.974E-03    -227.273E-03     168.716E-03    -237.557E-03     464.656E-03    -226.872E-03     137.998E-03
            2044     10.7619E-03     33.3841E-03    -28.8526E+06     33.7929E+06     76.4019E+06    -524.108E+03    -230.576E-03     457.650E-03    -227.075E-03     182.824E-03    -239.046E-03     465.917E-03    -226.700E-03     151.362E-03
            2045     10.0462E-03     33.1371E-03    -36.6795E+06     26.9549E+06     65.8540E+06    -22.2053E+03    -231.484E-03     458.336E-03    -226.852E-03     192.333E-03    -240.229E-03     466.855E-03    -226.509E-03     160.658E-03
            2046     9.33050E-03     32.8823E-03    -44.4035E+06     15.5011E+06     55.9719E+06     715.383E+03    -231.781E-03     458.409E-03    -226.628E-03     195.770E-03    -240.346E-03     466.709E-03    -226.306E-03     164.654E-03
            2047     8.61491E-03     32.6233E-03    -52.1582E+06     5.09159E+06     49.3658E+06     1.03416E+06    -231.730E-03     458.153E-03    -226.423E-03     193.821E-03    -239.734E-03     465.847E-03    -226.108E-03     163.950E-03
            2048     7.89770E-03     32.3708E-03    -60.2493E+06    -22.3756E+06     39.1902E+06     641.031E+03    -231.655E-03     457.878E-03    -226.223E-03     186.750E-03    -238.777E-03     464.593E-03    -225.908E-03     158.695E-03
            2049     7.18184E-03     32.1292E-03    -69.0049E+06    -68.2083E+06     21.9542E+06     502.782E+03    -231.420E-03     457.416E-03    -225.996E-03     175.675E-03    -237.454E-03     462.899E-03    -225.687E-03     149.948E-03
            2050     6.46524E-03     31.9029E-03    -78.4028E+06    -110.951E+06     3.92029E+06     611.872E+03    -230.689E-03     456.439E-03    -225.749E-03     161.719E-03    -235.603E-03     460.669E-03    -225.455E-03     138.670E-03
            2051     5.74786E-03     31.6972E-03    -87.8295E+06    -148.477E+06    -14.3812E+06     378.533E+03    -229.796E-03     455.294E-03    -225.498E-03     146.267E-03    -233.664E-03     458.364E-03    -225.227E-03     126.016E-03
            2052     5.03070E-03     31.5102E-03    -96.9353E+06    -187.697E+06    -32.7477E+06     579.421E+03    -228.856E-03     454.111E-03    -225.255E-03     129.551E-03    -231.784E-03     456.123E-03    -225.006E-03     112.121E-03
            2053     4.31325E-03     31.3480E-03    -106.283E+06    -220.017E+06    -52.0629E+06     916.386E+03    -227.796E-03     452.810E-03    -225.014E-03     112.079E-03    -229.925E-03     453.932E-03    -224.801E-03     97.4295E-03
            2054     3.59441E-03     31.2072E-03    -115.405E+06    -245.383E+06    -71.8910E+06     710.630E+03    -226.809E-03     451.593E-03    -224.784E-03     94.1942E-03    -228.285E-03     451.997E-03    -224.620E-03     82.2263E-03
            2055     2.87596E-03     31.0914E-03    -123.663E+06    -273.206E+06    -91.9122E+06     798.420E+03    -225.977E-03     450.554E-03    -224.576E-03     75.9304E-03    -226.924E-03     450.358E-03    -224.461E-03     66.5332E-03
            2056     2.15775E-03     31.0000E-03    -130.935E+06    -301.430E+06    -110.836E+06     751.738E+03    -225.264E-03     449.655E-03    -224.390E-03     57.5918E-03    -225.806E-03     448.983E-03    -224.317E-03     50.6241E-03
            2057     1.43815E-03     30.9350E-03    -136.697E+06    -321.339E+06    -126.858E+06     437.869E+03    -224.695E-03     448.914E-03    -224.219E-03     39.1954E-03    -224.953E-03     447.914E-03    -224.189E-03     34.5673E-03
            2058     719.377E-06     30.8940E-03    -140.496E+06    -328.978E+06    -138.621E+06    -54.2376E+03    -224.482E-03     448.320E-03    -223.839E-03     21.4319E-03    -224.575E-03     447.155E-03    -223.851E-03     18.9187E-03
            2059     13.6268E-03     32.6416E-03    -5.74307E+06     57.5606E+06     90.3170E+06    -81.2514E+03    -229.791E-03     457.491E-03    -227.700E-03     84.9590E-03    -233.606E-03     461.228E-03    -227.323E-03     62.8568E-03
            2060     12.9095E-03     32.4912E-03    -8.57076E+06     57.1322E+06     93.0214E+06    -242.454E+03    -229.314E-03     456.829E-03    -227.514E-03     133.149E-03    -235.316E-03     462.733E-03    -227.120E-03     105.203E-03
            2061     12.1941E-03     32.3175E-03    -13.8394E+06     51.2481E+06     91.9769E+06    -118.427E+03    -229.080E-03     456.427E-03    -227.347E-03     149.703E-03    -235.845E-03     463.058E-03    -226.941E-03     120.781E-03
            2062     11.4790E-03     32.1159E-03    -20.9106E+06     42.0716E+06     86.0463E+06     960.660E+03    -229.733E-03     456.911E-03    -227.178E-03     169.778E-03    -237.585E-03     464.589E-03    -226.779E-03     139.144E-03
            2063     10.7625E-03     31.8871E-03    -28.6167E+06     33.6630E+06     76.0674E+06     1.45231E+06    -230.705E-03     457.680E-03    -226.975E-03     183.271E-03    -239.152E-03     465.924E-03    -226.602E-03     151.901E-03
            2064     10.0473E-03     31.6419E-03    -36.3804E+06     26.9248E+06     65.6739E+06     1.12433E+06    -231.389E-03     458.138E-03    -226.749E-03     192.166E-03    -240.094E-03     466.619E-03    -226.407E-03     160.605E-03
            2065     9.33172E-03     31.3870E-03    -43.8522E+06     14.8816E+06     55.8876E+06     560.834E+03    -231.832E-03     458.353E-03    -226.521E-03     195.562E-03    -240.368E-03     466.623E-03    -226.199E-03     164.490E-03
            2066     8.61527E-03     31.1304E-03    -51.5458E+06     4.95405E+06     49.4196E+06     268.055E+03    -232.021E-03     458.312E-03    -226.292E-03     193.388E-03    -239.998E-03     465.981E-03    -225.977E-03     163.510E-03
            2067     7.89965E-03     30.8780E-03    -60.1293E+06    -22.1099E+06     39.1438E+06     302.420E+03    -231.914E-03     457.965E-03    -226.050E-03     185.925E-03    -238.998E-03     464.643E-03    -225.735E-03     157.901E-03
            2068     7.18318E-03     30.6367E-03    -69.5746E+06    -68.6064E+06     21.5888E+06     516.818E+03    -231.451E-03     457.236E-03    -225.785E-03     174.685E-03    -237.451E-03     462.682E-03    -225.476E-03     149.019E-03
            2069     6.46648E-03     30.4132E-03    -78.8044E+06    -110.977E+06     3.67001E+06     809.811E+03    -230.748E-03     456.248E-03    -225.500E-03     160.706E-03    -235.633E-03     460.448E-03    -225.206E-03     137.711E-03
            2070     5.74987E-03     30.2073E-03    -87.9200E+06    -148.129E+06    -14.7308E+06     742.066E+03    -229.780E-03     454.982E-03    -225.202E-03     145.104E-03    -233.617E-03     458.024E-03    -224.934E-03     124.925E-03
            2071     5.03232E-03     30.0232E-03    -97.4189E+06    -188.561E+06    -33.6770E+06     686.444E+03    -228.655E-03     453.578E-03    -224.923E-03     128.539E-03    -231.557E-03     455.563E-03    -224.677E-03     111.192E-03
            2072     4.31404E-03     29.8609E-03    -106.324E+06    -220.286E+06    -52.4334E+06     1.01738E+06    -227.650E-03     452.296E-03    -224.647E-03     111.200E-03    -229.759E-03     453.399E-03    -224.435E-03     96.6217E-03
            2073     3.59663E-03     29.7223E-03    -114.918E+06    -244.660E+06    -72.1118E+06     1.03836E+06    -226.545E-03     450.920E-03    -224.376E-03     93.4065E-03    -228.003E-03     451.312E-03    -224.215E-03     81.5180E-03
            2074     2.87784E-03     29.6074E-03    -123.398E+06    -272.803E+06    -92.3701E+06     812.255E+03    -225.466E-03     449.627E-03    -224.161E-03     75.4546E-03    -226.404E-03     449.426E-03    -224.048E-03     66.1167E-03
            2075     2.15799E-03     29.5171E-03    -130.565E+06    -300.860E+06    -110.799E+06     749.093E+03    -224.793E-03     448.791E-03    -223.998E-03     57.0178E-03    -225.328E-03     448.116E-03    -223.926E-03     50.1023E-03
            2076     1.43918E-03     29.4521E-03    -136.134E+06    -320.597E+06    -126.039E+06     557.530E+03    -224.366E-03     448.184E-03    -223.818E-03     38.4455E-03    -224.619E-03     447.181E-03    -223.786E-03     33.8448E-03
            2077     719.709E-06     29.4113E-03    -140.945E+06    -328.381E+06    -137.058E+06     666.646E+03    -224.138E-03     447.463E-03    -223.325E-03     20.7497E-03    -224.236E-03     446.297E-03    -223.330E-03     18.2897E-03
            2078     13.6184E-03     31.1431E-03    -4.71244E+06     58.1288E+06     89.0718E+06    -850.325E+03    -228.852E-03     456.519E-03    -227.667E-03     83.5582E-03    -232.614E-03     460.212E-03    -227.300E-03     61.6015E-03
            2079     12.9076E-03     30.9860E-03    -10.5675E+06     56.0913E+06     89.8273E+06    -1.41563E+06    -228.944E-03     456.455E-03    -227.511E-03     131.949E-03    -234.913E-03     462.325E-03    -227.128E-03     104.025E-03
            2080     12.1939E-03     30.8239E-03    -16.7882E+06     47.8922E+06     88.8342E+06    -253.373E+03    -229.440E-03     456.787E-03    -227.347E-03     149.731E-03    -236.204E-03     463.403E-03    -226.948E-03     120.780E-03
            2081     11.4774E-03     30.6164E-03    -23.1618E+06      39.807E+06     84.3609E+06     1.03957E+06    -230.302E-03     457.458E-03    -227.156E-03     170.183E-03    -238.161E-03     465.131E-03    -226.758E-03     139.495E-03
            2082     10.7639E-03     30.3913E-03    -29.5114E+06     33.8151E+06     75.9408E+06     1.47974E+06    -231.061E-03     457.985E-03    -226.924E-03     183.037E-03    -239.498E-03     466.217E-03    -226.550E-03     151.641E-03
            2083     10.0480E-03     30.1465E-03    -36.1437E+06     27.7865E+06     65.8561E+06     1.38722E+06    -231.497E-03     458.173E-03    -226.676E-03     191.906E-03    -240.179E-03     466.634E-03    -226.334E-03     160.374E-03
            2084     9.33186E-03     29.8924E-03    -43.7387E+06     16.3827E+06     56.1606E+06     672.604E+03    -232.099E-03     458.524E-03    -226.425E-03     194.934E-03    -240.602E-03     466.767E-03    -226.104E-03     163.872E-03
            2085     8.61674E-03     29.6359E-03    -52.4030E+06     5.11912E+06     49.2486E+06    -16.4810E+03    -232.439E-03     458.593E-03    -226.154E-03     192.402E-03    -240.384E-03     466.227E-03    -225.839E-03     162.505E-03
            2086     7.90102E-03     29.3844E-03    -61.5808E+06    -22.6876E+06     38.2274E+06     79.6337E+03    -232.161E-03     458.020E-03    -225.859E-03     184.920E-03    -239.214E-03     464.663E-03    -225.546E-03     156.913E-03
            2087     7.18487E-03     29.1462E-03    -70.4174E+06    -69.3978E+06     20.4735E+06     406.755E+03    -231.594E-03     457.138E-03    -225.544E-03     173.447E-03    -237.549E-03     462.538E-03    -225.239E-03     147.844E-03
            2088     6.46848E-03     28.9219E-03    -79.2652E+06    -111.542E+06     2.85175E+06     456.688E+03    -230.727E-03     455.943E-03    -225.215E-03     159.308E-03    -235.564E-03     460.093E-03    -224.925E-03     136.405E-03
            2089     5.75159E-03     28.7190E-03    -88.2598E+06    -148.146E+06    -15.0705E+06     773.840E+03    -229.660E-03     454.542E-03    -224.881E-03     143.792E-03    -233.459E-03     457.545E-03    -224.614E-03     123.714E-03
            2090     5.03402E-03     28.5363E-03    -97.0972E+06    -188.592E+06    -33.9249E+06     853.994E+03    -228.560E-03     453.119E-03    -224.559E-03     127.230E-03    -231.426E-03     455.069E-03    -224.314E-03     109.981E-03
            2091     4.31655E-03     28.3752E-03    -105.958E+06    -220.784E+06    -52.6700E+06     794.367E+03    -227.287E-03     451.537E-03    -224.251E-03     109.995E-03    -229.364E-03     452.608E-03    -224.040E-03     95.5257E-03
            2092     3.59731E-03     28.2379E-03    -114.733E+06    -244.104E+06    -71.9390E+06     1.16474E+06    -226.139E-03     450.108E-03    -223.968E-03     92.4296E-03    -227.580E-03     450.484E-03    -223.808E-03     80.6297E-03
            2093     2.87822E-03     28.1249E-03    -122.772E+06    -271.916E+06    -92.0907E+06     965.782E+03    -225.258E-03     448.971E-03    -223.713E-03     74.4267E-03    -226.180E-03     448.760E-03    -223.602E-03     65.1601E-03
            2094     2.15949E-03     28.0349E-03    -129.857E+06    -300.316E+06    -110.393E+06     717.869E+03    -224.486E-03     447.963E-03    -223.477E-03     56.0952E-03    -225.009E-03     447.279E-03    -223.405E-03     49.2493E-03
            2095     1.43980E-03     27.9702E-03    -135.619E+06    -319.961E+06    -125.515E+06     745.161E+03    -223.766E-03     447.033E-03    -223.267E-03     37.6634E-03    -224.013E-03     446.026E-03    -223.234E-03     33.1255E-03
            2096     720.062E-06     27.9314E-03    -139.014E+06    -327.113E+06    -136.853E+06     422.926E+03    -223.688E-03     446.372E-03    -222.684E-03     20.1926E-03    -223.778E-03     445.206E-03    -222.692E-03     17.7459E-03
            2097     13.6291E-03     29.6450E-03    -3.70474E+06     58.5381E+06     89.5415E+06     555.373E+03    -228.596E-03     456.248E-03    -227.652E-03     84.3836E-03    -232.345E-03     459.932E-03    -227.284E-03     62.5478E-03
            2098     12.9092E-03     29.4913E-03    -10.1883E+06     55.7519E+06     89.7843E+06     265.068E+03    -228.445E-03     455.964E-03    -227.519E-03     132.200E-03    -234.389E-03     461.809E-03    -227.136E-03     104.427E-03
            2099     12.1923E-03     29.3233E-03    -17.5624E+06     46.7770E+06     87.6073E+06     4.74497E+03    -229.799E-03     457.154E-03    -227.355E-03     148.821E-03    -236.535E-03     463.739E-03    -226.959E-03     119.827E-03
            2100     11.4796E-03     29.1198E-03    -23.9354E+06     38.9120E+06     83.3650E+06    -322.710E+03    -230.601E-03     457.741E-03    -227.141E-03     169.332E-03    -238.430E-03     465.382E-03    -226.746E-03     138.601E-03
            2101     10.7630E-03     28.8934E-03    -30.4575E+06     32.6553E+06     75.3226E+06    -586.911E+03    -231.201E-03     458.093E-03    -226.892E-03     182.519E-03    -239.620E-03     466.301E-03    -226.518E-03     151.084E-03
            2102     10.0484E-03     28.6511E-03    -37.0547E+06     26.5695E+06     65.7723E+06     189.827E+03    -232.125E-03     458.736E-03    -226.612E-03     191.185E-03    -240.785E-03     467.168E-03    -226.268E-03     159.563E-03
            2103     9.33354E-03     28.3972E-03    -44.2942E+06     17.1381E+06     56.6395E+06     1.08164E+06    -232.625E-03     458.929E-03    -226.305E-03     193.933E-03    -241.085E-03     467.129E-03    -225.982E-03     162.865E-03
            2104     8.61819E-03     28.1408E-03    -52.3693E+06     6.46115E+06     49.4312E+06     787.596E+03    -232.630E-03     458.614E-03    -225.984E-03     191.308E-03    -240.520E-03     466.198E-03    -225.670E-03     161.483E-03
            2105     7.90246E-03     27.8922E-03    -61.0409E+06    -23.2720E+06     37.6702E+06     233.990E+03    -232.475E-03     458.116E-03    -225.641E-03     183.564E-03    -239.463E-03     464.696E-03    -225.330E-03     155.616E-03
            2106     7.18688E-03     27.6531E-03    -69.8336E+06    -70.1125E+06     20.0214E+06     298.660E+03    -231.782E-03     457.051E-03    -225.269E-03     171.820E-03    -237.668E-03     462.381E-03    -224.966E-03     146.306E-03
            2107     6.47077E-03     27.4331E-03    -78.6644E+06    -111.883E+06     2.45304E+06     557.424E+03    -230.699E-03     455.588E-03    -224.889E-03     157.825E-03    -235.474E-03     459.680E-03    -224.600E-03     135.046E-03
            2108     5.75335E-03     27.2308E-03    -87.7251E+06    -148.477E+06    -15.3728E+06     540.700E+03    -229.664E-03     454.167E-03    -224.503E-03     142.091E-03    -233.404E-03     457.114E-03    -224.238E-03     122.132E-03
            2109     5.03638E-03     27.0492E-03    -96.7613E+06    -188.617E+06    -33.4245E+06     785.326E+03    -228.389E-03     452.516E-03    -224.127E-03     125.292E-03    -231.203E-03     454.414E-03    -223.881E-03     108.179E-03
            2110     4.31784E-03     26.8914E-03    -105.886E+06    -220.681E+06    -52.3808E+06     1.06662E+06    -227.001E-03     450.767E-03    -223.767E-03     108.098E-03    -229.037E-03     451.797E-03    -223.555E-03     93.7712E-03
            2111     3.59937E-03     26.7552E-03    -114.484E+06    -243.915E+06    -71.5846E+06     777.804E+03    -225.841E-03     449.266E-03    -223.426E-03     90.5070E-03    -227.247E-03     449.608E-03    -223.264E-03     78.8372E-03
            2112     2.88062E-03     26.6423E-03    -122.493E+06    -271.588E+06    -91.2678E+06     726.187E+03    -224.861E-03     447.966E-03    -223.105E-03     72.7182E-03    -225.759E-03     447.730E-03    -222.990E-03     63.5712E-03
            2113     2.16090E-03     26.5545E-03    -129.195E+06    -299.729E+06    -109.977E+06     689.677E+03    -223.835E-03     446.660E-03    -222.825E-03     54.9728E-03    -224.343E-03     445.964E-03    -222.753E-03     48.2145E-03
            2114     1.44095E-03     26.4907E-03    -134.482E+06    -319.162E+06    -125.217E+06     369.320E+03    -223.020E-03     445.655E-03    -222.634E-03     37.0619E-03    -223.258E-03     444.646E-03    -222.603E-03     32.5719E-03
            2115     720.297E-06     26.4529E-03    -138.354E+06    -325.592E+06    -135.364E+06     229.068E+03    -222.850E-03     445.164E-03    -222.314E-03     20.2542E-03    -222.940E-03     444.001E-03    -222.318E-03     17.8269E-03
            2116     13.6181E-03     28.1469E-03    -4.54074E+06     57.2897E+06     89.2716E+06     106.119E+03    -229.053E-03     456.750E-03    -227.697E-03     83.9473E-03    -232.790E-03     460.415E-03    -227.327E-03     62.0541E-03
            2117     12.9067E-03     27.9919E-03    -9.21656E+06     54.7443E+06     90.8600E+06     1.36924E+06    -229.163E-03     456.700E-03    -227.537E-03     132.126E-03    -235.084E-03     462.519E-03    -227.149E-03     104.357E-03
            2118     12.1945E-03     27.8241E-03    -14.3973E+06     47.7231E+06     90.0242E+06     1.57458E+06    -229.869E-03     457.222E-03    -227.353E-03     148.818E-03    -236.581E-03     463.792E-03    -226.952E-03     119.869E-03
            2119     11.4780E-03     27.6215E-03    -21.3438E+06     40.8325E+06     85.1124E+06     770.591E+03    -230.720E-03     457.849E-03    -227.129E-03     168.942E-03    -238.523E-03     465.474E-03    -226.732E-03     138.214E-03
            2120     10.7643E-03     27.3971E-03    -28.6726E+06     32.8892E+06     75.7714E+06     208.457E+03    -231.711E-03     458.564E-03    -226.853E-03     182.009E-03    -240.094E-03     466.743E-03    -226.481E-03     150.540E-03
            2121     10.0491E-03     27.1534E-03    -36.2218E+06     24.4712E+06     64.9471E+06     316.060E+03    -232.706E-03     459.234E-03    -226.528E-03     190.518E-03    -241.320E-03     467.618E-03    -226.186E-03     158.860E-03
            2122     9.33499E-03     26.9005E-03    -43.5550E+06     16.1554E+06     56.4224E+06     746.496E+03    -233.178E-03     459.347E-03    -226.169E-03     193.127E-03    -241.592E-03     467.500E-03    -225.847E-03     162.029E-03
            2123     8.61967E-03     26.6480E-03    -50.9920E+06     7.23165E+06     50.1228E+06     1.03251E+06    -233.248E-03     459.031E-03    -225.783E-03     190.081E-03    -241.069E-03     466.552E-03    -225.469E-03     160.276E-03
            2124     7.90473E-03     26.3969E-03    -59.5528E+06    -22.6102E+06     38.3921E+06     942.947E+03    -232.772E-03     458.142E-03    -225.370E-03     181.670E-03    -239.665E-03     464.633E-03    -225.059E-03     153.839E-03
            2125     7.18940E-03     26.1629E-03    -68.8739E+06    -70.1970E+06     20.4357E+06     766.846E+03    -231.892E-03     456.829E-03    -224.937E-03     169.675E-03    -237.685E-03     462.069E-03    -224.633E-03     144.307E-03
            2126     6.47247E-03     25.9434E-03    -78.1018E+06    -112.008E+06     2.50403E+06     734.230E+03    -230.981E-03     455.460E-03    -224.479E-03     155.468E-03    -235.671E-03     459.468E-03    -224.191E-03     132.814E-03
            2127     5.75673E-03     25.7426E-03    -87.1127E+06    -148.394E+06    -15.4678E+06     915.876E+03    -229.662E-03     453.666E-03    -224.003E-03     139.437E-03    -233.318E-03     456.530E-03    -223.739E-03     119.657E-03
            2128     5.03887E-03     25.5647E-03    -96.1262E+06    -188.872E+06    -33.2792E+06     1.02327E+06    -228.197E-03     451.746E-03    -223.549E-03     122.622E-03    -230.937E-03     453.571E-03    -223.302E-03     105.708E-03
            2129     4.32105E-03     25.4076E-03    -104.770E+06    -220.013E+06    -51.1015E+06     758.616E+03    -226.858E-03     449.956E-03    -223.098E-03     105.509E-03    -228.836E-03     450.929E-03    -222.882E-03     91.3474E-03
            2130     3.60243E-03     25.2735E-03    -113.105E+06    -243.432E+06    -70.1892E+06     644.385E+03    -225.429E-03     448.086E-03    -222.657E-03     88.3272E-03    -226.790E-03     448.385E-03    -222.491E-03     76.8239E-03
            2131     2.88255E-03     25.1627E-03    -120.852E+06    -271.707E+06    -90.0007E+06     658.741E+03    -224.024E-03     446.309E-03    -222.285E-03     70.9901E-03    -224.890E-03     446.042E-03    -222.166E-03     61.9962E-03
            2132     2.16253E-03     25.0758E-03    -128.342E+06    -299.226E+06    -108.913E+06     577.675E+03    -222.934E-03     444.939E-03    -222.005E-03     53.4079E-03    -223.424E-03     444.227E-03    -221.930E-03     46.7708E-03
            2133     1.44157E-03     25.0142E-03    -134.405E+06    -318.505E+06    -124.953E+06     515.441E+03    -222.209E-03     444.017E-03    -221.808E-03     36.0561E-03    -222.441E-03     443.003E-03    -221.776E-03     31.6457E-03
            2134     721.171E-06     24.9744E-03    -137.516E+06    -324.820E+06    -135.545E+06     229.305E+03    -221.593E-03     443.483E-03    -221.890E-03     19.3335E-03    -221.677E-03     442.319E-03    -221.897E-03     16.9936E-03
            2135     13.6262E-03     26.6451E-03    -4.59910E+06     56.5518E+06     89.1272E+06    -125.511E+03    -229.454E-03     457.170E-03    -227.716E-03     82.1922E-03    -233.150E-03     460.792E-03    -227.346E-03     60.3233E-03
            2136     12.9100E-03     26.4936E-03    -9.95641E+06     53.5993E+06     90.1447E+06    -246.734E+03    -229.089E-03     456.634E-03    -227.545E-03     131.610E-03    -234.992E-03     462.431E-03    -227.157E-03     103.839E-03
            2137     12.1924E-03     26.3259E-03    -15.5606E+06     46.2100E+06     89.2645E+06     605.511E+03    -229.880E-03     457.246E-03    -227.365E-03     149.324E-03    -236.593E-03     463.808E-03    -226.964E-03     120.389E-03
            2138     11.4792E-03     26.1229E-03    -21.4689E+06     41.4756E+06     85.7747E+06     1.45157E+06    -231.149E-03     458.280E-03    -227.131E-03     168.846E-03    -238.942E-03     465.896E-03    -226.732E-03     138.089E-03
            2139     10.7640E-03     25.8986E-03    -28.3844E+06     34.0293E+06     76.7016E+06     1.42669E+06    -232.469E-03     459.285E-03    -226.816E-03     181.872E-03    -240.842E-03     467.456E-03    -226.441E-03     150.318E-03
            2140     10.0506E-03     25.6556E-03    -35.6216E+06     24.4445E+06     65.0817E+06     966.101E+03    -233.387E-03     459.818E-03    -226.431E-03     189.747E-03    -241.956E-03     468.159E-03    -226.090E-03     158.040E-03
            2141     9.33540E-03     25.4048E-03    -43.1785E+06     15.8635E+06     56.1849E+06     482.404E+03    -234.008E-03     460.006E-03    -225.998E-03     191.515E-03    -242.341E-03     468.080E-03    -225.678E-03     160.380E-03
            2142     8.62207E-03     25.1503E-03    -51.4051E+06     6.44793E+06     49.8738E+06     637.217E+03    -234.017E-03     459.538E-03    -225.521E-03     187.870E-03    -241.737E-03     466.954E-03    -225.206E-03     158.087E-03
            2143     7.90776E-03     24.9049E-03    -60.2004E+06    -22.7334E+06     38.3440E+06     1.12537E+06    -233.241E-03     458.253E-03    -225.012E-03     178.973E-03    -240.016E-03     464.622E-03    -224.700E-03     151.274E-03
            2144     7.19162E-03     24.6715E-03    -69.2301E+06    -69.4656E+06     20.6627E+06     1.12977E+06    -232.473E-03     456.940E-03    -224.467E-03     166.535E-03    -238.140E-03     462.055E-03    -224.163E-03     141.332E-03
            2145     6.47730E-03     24.4533E-03    -78.3342E+06    -111.352E+06     2.86776E+06     906.473E+03    -231.271E-03     455.153E-03    -223.882E-03     151.681E-03    -235.829E-03     459.029E-03    -223.593E-03     129.260E-03
            2146     5.76003E-03     24.2570E-03    -87.4796E+06    -148.991E+06    -15.4734E+06     1.08819E+06    -229.624E-03     452.909E-03    -223.285E-03     135.573E-03    -233.161E-03     455.652E-03    -223.019E-03     116.063E-03
            2147     5.04302E-03     24.0798E-03    -96.2842E+06    -187.352E+06    -33.7858E+06     791.943E+03    -228.077E-03     450.776E-03    -222.699E-03     118.855E-03    -230.721E-03     452.511E-03    -222.457E-03     102.196E-03
            2148     4.32494E-03     23.9259E-03    -104.755E+06    -218.971E+06    -51.7790E+06    -254.941E+03    -226.331E-03     448.459E-03    -222.129E-03     101.920E-03    -228.229E-03     449.359E-03    -221.918E-03     88.0188E-03
            2149     3.60571E-03     23.7939E-03    -112.987E+06    -244.912E+06    -70.5750E+06    -158.447E+03    -224.599E-03     446.205E-03    -221.606E-03     85.2582E-03    -225.903E-03     446.442E-03    -221.439E-03     73.9813E-03
            2150     2.88607E-03     23.6858E-03    -120.990E+06    -271.981E+06    -89.8180E+06     803.700E+03    -223.106E-03     444.267E-03    -221.161E-03     68.1819E-03    -223.935E-03     443.961E-03    -221.040E-03     59.3944E-03
            2151     2.16482E-03     23.6006E-03    -128.075E+06    -298.689E+06    -108.480E+06     1.16839E+06    -221.896E-03     442.699E-03    -220.804E-03     51.1495E-03    -222.361E-03     441.965E-03    -220.727E-03     44.6967E-03
            2152     1.44400E-03     23.5390E-03    -133.757E+06    -317.187E+06    -124.550E+06     919.935E+03    -221.046E-03     441.577E-03    -220.531E-03     34.3755E-03    -221.265E-03     440.556E-03    -220.500E-03     30.1078E-03
            2153     721.600E-06     23.5019E-03    -137.364E+06    -323.793E+06    -135.297E+06     498.408E+03    -220.376E-03     440.846E-03    -220.470E-03     18.5245E-03    -220.456E-03     439.682E-03    -220.478E-03     16.2644E-03
            2154     13.6205E-03     25.1462E-03    -4.78460E+06     56.0510E+06     89.1525E+06    -137.040E+03    -229.097E-03     456.884E-03    -227.787E-03     84.6587E-03    -232.843E-03     460.554E-03    -227.416E-03     62.7768E-03
            2155     12.9056E-03     24.9952E-03    -10.0484E+06     53.3422E+06     89.8974E+06     581.307E+03    -229.540E-03     457.160E-03    -227.621E-03     133.680E-03    -235.509E-03     463.023E-03    -227.234E-03     105.794E-03
            2156     12.1936E-03     24.8262E-03    -16.1800E+06     45.4561E+06     88.5696E+06     387.225E+03    -230.630E-03     458.043E-03    -227.413E-03     149.965E-03    -237.377E-03     464.637E-03    -227.013E-03     120.876E-03
            2157     11.4779E-03     24.6242E-03    -22.3974E+06     40.3367E+06     85.1127E+06     222.486E+03    -231.891E-03     459.029E-03    -227.138E-03     169.046E-03    -239.694E-03     466.648E-03    -226.738E-03     138.138E-03
            2158     10.7649E-03     24.3984E-03    -28.4020E+06     33.5238E+06     76.9489E+06     562.344E+03    -233.387E-03     460.155E-03    -226.768E-03     181.360E-03    -241.735E-03     468.298E-03    -226.391E-03     149.662E-03
            2159     10.0509E-03     24.1572E-03    -34.8194E+06     24.6736E+06     66.3717E+06     972.970E+03    -234.731E-03     461.027E-03    -226.296E-03     188.171E-03    -243.224E-03     469.291E-03    -225.949E-03     156.334E-03
            2160     9.33897E-03     23.9061E-03    -42.3194E+06     16.0334E+06     57.2027E+06     1.47553E+06    -235.267E-03     461.005E-03    -225.739E-03     189.093E-03    -243.472E-03     468.952E-03    -225.414E-03     157.954E-03
            2161     8.62520E-03     23.6547E-03    -50.8878E+06     6.03285E+06     49.9689E+06     1.72111E+06    -234.893E-03     460.023E-03    -225.129E-03     184.331E-03    -242.434E-03     467.260E-03    -224.814E-03     154.696E-03
            2162     7.91070E-03     23.4112E-03    -60.0058E+06    -22.4344E+06     38.4617E+06     1.63610E+06    -234.343E-03     458.810E-03    -224.467E-03     174.695E-03    -240.922E-03     464.986E-03    -224.156E-03     147.178E-03
            2163     7.19795E-03     23.1792E-03    -69.1838E+06    -68.1341E+06     21.1092E+06     1.34227E+06    -233.338E-03     457.076E-03    -223.738E-03     161.637E-03    -238.805E-03     461.995E-03    -223.433E-03     136.701E-03
            2164     6.48186E-03     22.9655E-03    -78.2517E+06    -110.711E+06     3.39085E+06     1.15548E+06    -231.637E-03     454.603E-03    -222.966E-03     146.100E-03    -235.996E-03     458.281E-03    -222.675E-03     124.052E-03
            2165     5.76651E-03     22.7713E-03    -87.0740E+06    -149.187E+06    -14.7159E+06     1.03407E+06    -229.757E-03     451.936E-03    -222.179E-03     129.735E-03    -233.114E-03     454.497E-03    -221.910E-03     110.621E-03
            2166     5.04937E-03     22.5976E-03    -95.6916E+06    -184.615E+06    -33.2374E+06     471.418E+03    -227.643E-03     449.046E-03    -221.403E-03     113.072E-03    -230.136E-03     450.640E-03    -221.163E-03     96.8440E-03
            2167     4.33100E-03     22.4468E-03    -104.438E+06    -217.890E+06    -52.2499E+06    -378.485E+03    -225.544E-03     446.211E-03    -220.667E-03     96.3291E-03    -227.320E-03     446.994E-03    -220.461E-03     82.8515E-03
            2168     3.61126E-03     22.3185E-03    -112.957E+06    -247.208E+06    -71.3545E+06    -443.835E+03    -223.580E-03     443.565E-03    -219.985E-03     79.8035E-03    -224.786E-03     443.699E-03    -219.820E-03     68.9065E-03
            2169     2.89014E-03     22.2113E-03    -120.725E+06    -272.876E+06    -90.1830E+06     367.953E+03    -221.745E-03     441.129E-03    -219.384E-03     63.3401E-03    -222.504E-03     440.752E-03    -219.264E-03     54.8980E-03
            2170     2.16908E-03     22.1295E-03    -127.365E+06    -298.330E+06    -108.243E+06     861.236E+03    -220.233E-03     439.129E-03    -218.897E-03     47.4594E-03    -220.658E-03     438.357E-03    -218.821E-03     41.2763E-03
            2171     1.44594E-03     22.0686E-03    -132.773E+06    -315.633E+06    -123.220E+06     816.279E+03    -219.140E-03     437.675E-03    -218.535E-03     32.0076E-03    -219.341E-03     436.641E-03    -218.501E-03     27.9236E-03
            2172     723.808E-06     22.0326E-03    -136.676E+06    -322.205E+06    -133.487E+06     522.268E+03    -218.563E-03     436.767E-03    -218.204E-03     17.1672E-03    -218.640E-03     435.602E-03    -218.206E-03     14.9835E-03
            2173     13.6194E-03     23.6454E-03    -5.32898E+06     55.4239E+06     87.4673E+06     391.692E+03    -228.855E-03     456.717E-03    -227.861E-03     82.3961E-03    -232.540E-03     460.326E-03    -227.497E-03     60.6565E-03
            2174     12.9066E-03     23.4933E-03    -10.9036E+06     52.5510E+06     88.5735E+06    -300.807E+03    -229.777E-03     457.472E-03    -227.696E-03     131.858E-03    -235.718E-03     463.305E-03    -227.313E-03     103.891E-03
            2175     12.1909E-03     23.3260E-03    -15.5999E+06     45.5652E+06     88.6492E+06    -36.3810E+03    -231.358E-03     458.820E-03    -227.463E-03     149.683E-03    -238.118E-03     465.429E-03    -227.063E-03     120.388E-03
            2176     11.4789E-03     23.1229E-03    -21.7342E+06     40.4137E+06     84.9993E+06    -50.0554E+03    -233.190E-03     460.313E-03    -227.123E-03     168.649E-03    -240.977E-03     467.920E-03    -226.725E-03     137.520E-03
            2177     10.7653E-03     22.8981E-03    -28.8630E+06     32.4612E+06     76.0495E+06    -226.591E+03    -235.087E-03     461.733E-03    -226.647E-03     179.865E-03    -243.349E-03     469.788E-03    -226.272E-03     147.989E-03
            2178     10.0539E-03     22.6554E-03    -36.1032E+06     22.7568E+06     65.1572E+06     295.833E+03    -236.377E-03     462.415E-03    -226.037E-03     185.440E-03    -244.709E-03     470.510E-03    -225.692E-03     153.565E-03
            2179     9.34165E-03     22.4062E-03    -43.1664E+06     14.4531E+06     56.3331E+06     1.08562E+06    -236.954E-03     462.271E-03    -225.316E-03     185.252E-03    -244.944E-03     469.995E-03    -224.993E-03     154.174E-03
            2180     8.62990E-03     22.1583E-03    -50.6573E+06     5.43094E+06     49.7987E+06     1.91330E+06    -236.869E-03     461.362E-03    -224.493E-03     178.830E-03    -244.128E-03     468.316E-03    -224.178E-03     149.367E-03
            2181     7.91854E-03     21.9159E-03    -59.0161E+06    -20.9282E+06     39.2320E+06     2.25367E+06    -236.004E-03     459.574E-03    -223.570E-03     167.958E-03    -242.272E-03     465.444E-03    -223.258E-03     140.768E-03
            2182     7.20455E-03     21.6880E-03    -67.6774E+06    -66.1844E+06     22.5353E+06     1.80077E+06    -234.452E-03     457.015E-03    -222.563E-03     153.566E-03    -239.597E-03     461.620E-03    -222.256E-03     129.104E-03
            2183     6.49161E-03     21.4781E-03    -76.3294E+06    -109.881E+06     4.92506E+06     1.35523E+06    -232.302E-03     453.802E-03    -221.500E-03     137.283E-03    -236.350E-03     457.176E-03    -221.206E-03     115.794E-03
            2184     5.77600E-03     21.2876E-03    -84.9605E+06    -147.732E+06    -12.8719E+06     1.06928E+06    -229.748E-03     450.168E-03    -220.420E-03     120.773E-03    -232.830E-03     452.462E-03    -220.147E-03     102.286E-03
            2185     5.05909E-03     21.1191E-03    -93.7896E+06    -182.583E+06    -31.4434E+06     512.292E+03    -227.016E-03     446.381E-03    -219.365E-03     104.090E-03    -229.276E-03     447.752E-03    -219.121E-03     88.5266E-03
            2186     4.34014E-03     20.9719E-03    -102.619E+06    -217.169E+06    -50.2783E+06     291.239E+03    -224.462E-03     442.821E-03    -218.360E-03     87.8781E-03    -226.054E-03     443.424E-03    -218.147E-03     75.0445E-03
            2187     3.62053E-03     20.8462E-03    -111.377E+06    -247.714E+06    -69.6359E+06     440.162E+03    -221.919E-03     439.339E-03    -217.420E-03     72.0129E-03    -222.985E-03     439.331E-03    -217.247E-03     61.7299E-03
            2188     2.89910E-03     20.7450E-03    -119.885E+06    -273.644E+06    -89.0870E+06     493.861E+03    -219.506E-03     436.105E-03    -216.599E-03     57.0929E-03    -220.175E-03     435.635E-03    -216.474E-03     49.1648E-03
            2189     2.17506E-03     20.6633E-03    -127.360E+06    -297.831E+06    -107.527E+06     731.407E+03    -217.672E-03     433.596E-03    -215.924E-03     42.4577E-03    -218.049E-03     432.774E-03    -215.845E-03     36.6834E-03
            2190     1.45124E-03     20.6072E-03    -132.799E+06    -314.450E+06    -123.278E+06     376.492E+03    -216.213E-03     431.608E-03    -215.395E-03     28.2977E-03    -216.390E-03     430.554E-03    -215.363E-03     24.5099E-03
            2191     725.002E-06     20.5692E-03    -135.882E+06    -321.837E+06    -133.833E+06    -96.1674E+03    -215.239E-03     430.329E-03    -215.090E-03     15.2771E-03    -215.305E-03     429.157E-03    -215.095E-03     13.2307E-03
            2192     13.6223E-03     22.1470E-03    -4.71014E+06     55.7089E+06     88.4467E+06     625.437E+03    -229.135E-03     457.051E-03    -227.916E-03     84.7497E-03    -232.870E-03     460.710E-03    -227.547E-03     62.9224E-03
            2193     12.9048E-03     21.9949E-03    -9.68964E+06     53.1732E+06     89.1089E+06     142.218E+03    -230.267E-03     457.998E-03    -227.731E-03     133.133E-03    -236.238E-03     463.866E-03    -227.349E-03     105.064E-03
            2194     12.1923E-03     21.8236E-03    -15.6272E+06     44.9394E+06     87.7649E+06    -441.875E+03    -232.427E-03     459.879E-03    -227.453E-03     149.493E-03    -239.163E-03     466.465E-03    -227.056E-03     120.048E-03
            2195     11.4784E-03     21.6207E-03    -21.9052E+06     39.6162E+06     84.0137E+06    -61.1812E+03    -235.316E-03     462.325E-03    -227.009E-03     167.201E-03    -243.014E-03     469.843E-03    -226.615E-03     135.845E-03
            2196     10.7685E-03     21.3930E-03    -28.4779E+06     32.0088E+06     75.2361E+06     711.313E+03    -237.649E-03     464.009E-03    -226.360E-03     176.528E-03    -245.711E-03     471.865E-03    -225.989E-03     144.535E-03
            2197     10.0580E-03     21.1531E-03    -35.8185E+06     22.0810E+06     63.9614E+06     730.512E+03    -238.977E-03     464.501E-03    -225.525E-03     179.771E-03    -246.981E-03     472.272E-03    -225.185E-03     147.971E-03
            2198     9.34791E-03     20.9057E-03    -43.3877E+06     13.2693E+06     55.1887E+06     687.125E+03    -239.693E-03     464.219E-03    -224.526E-03     177.317E-03    -247.259E-03     471.519E-03    -224.206E-03     146.480E-03
            2199     8.63898E-03     20.6569E-03    -51.0409E+06     4.15355E+06     49.1004E+06     727.802E+03    -239.477E-03     462.841E-03    -223.364E-03     168.956E-03    -246.262E-03     469.318E-03    -223.050E-03     139.888E-03
            2200     7.92865E-03     20.4220E-03    -58.6570E+06    -20.4862E+06     39.6775E+06     899.214E+03    -238.117E-03     460.175E-03    -222.058E-03     156.721E-03    -243.896E-03     465.559E-03    -221.745E-03     130.110E-03
            2201     7.21890E-03     20.1961E-03    -66.4949E+06    -64.9406E+06     23.7056E+06     1.16907E+06    -235.750E-03     456.402E-03    -220.651E-03     141.481E-03    -240.422E-03     460.539E-03    -220.342E-03     117.785E-03
            2202     6.50592E-03     19.9934E-03    -74.9218E+06    -108.719E+06     6.21113E+06     1.19110E+06    -232.787E-03     451.979E-03    -219.192E-03     125.191E-03    -236.419E-03     454.942E-03    -218.894E-03     104.559E-03
            2203     5.79162E-03     19.8077E-03    -83.8395E+06    -146.046E+06    -11.4554E+06     1.16158E+06    -229.442E-03     447.165E-03    -217.723E-03     108.773E-03    -232.173E-03     449.114E-03    -217.447E-03     91.1994E-03
            2204     5.07476E-03     19.6458E-03    -92.8062E+06    -180.923E+06    -29.9257E+06     881.017E+03    -225.961E-03     442.251E-03    -216.290E-03     92.8607E-03    -227.943E-03     443.348E-03    -216.042E-03     78.1917E-03
            2205     4.35616E-03     19.5028E-03    -101.706E+06    -216.608E+06    -48.8488E+06     822.597E+03    -222.491E-03     437.432E-03    -214.941E-03     77.8922E-03    -223.876E-03     437.828E-03    -214.723E-03     65.9057E-03
            2206     3.63405E-03     19.3838E-03    -110.740E+06    -247.595E+06    -68.0374E+06     1.33999E+06    -219.148E-03     432.865E-03    -213.717E-03     63.3358E-03    -220.068E-03     432.710E-03    -213.538E-03     53.8205E-03
            2207     2.90972E-03     19.2855E-03    -119.207E+06    -273.059E+06    -87.5439E+06     1.64788E+06    -216.293E-03     428.940E-03    -212.647E-03     49.9341E-03    -216.870E-03     428.377E-03    -212.516E-03     42.6359E-03
            2208     2.18473E-03     19.2092E-03    -126.402E+06    -295.827E+06    -106.690E+06     889.936E+03    -213.901E-03     425.657E-03    -211.756E-03     37.1537E-03    -214.225E-03     424.790E-03    -211.677E-03     31.8629E-03
            2209     1.45727E-03     19.1533E-03    -132.026E+06    -313.346E+06    -122.446E+06    -30.2581E+03    -212.101E-03     423.176E-03    -211.075E-03     24.8341E-03    -212.255E-03     422.102E-03    -211.042E-03     21.3498E-03
            2210     729.749E-06     19.1216E-03    -136.883E+06    -322.323E+06    -133.260E+06     116.748E+03    -210.927E-03     421.533E-03    -210.606E-03     13.3644E-03    -210.991E-03     420.352E-03    -210.606E-03     11.5057E-03
            2211     13.6146E-03     20.6426E-03    -4.24436E+06     55.2860E+06     89.1234E+06    -96.4950E+03    -229.158E-03     457.109E-03    -227.952E-03     83.9585E-03    -232.881E-03     460.756E-03    -227.580E-03     62.0547E-03
            2212     12.9055E-03     20.4928E-03    -9.02628E+06     52.8499E+06     89.8267E+06     284.329E+03    -231.600E-03     459.328E-03    -227.727E-03     132.356E-03    -237.551E-03     465.174E-03    -227.342E-03     104.069E-03
            2213     12.1917E-03     20.3208E-03    -15.0252E+06     45.4538E+06     88.2282E+06     818.148E+03    -235.222E-03     462.543E-03    -227.320E-03     148.346E-03    -241.883E-03     469.055E-03    -226.923E-03     118.604E-03
            2214     11.4826E-03     20.1138E-03    -21.9453E+06     39.1156E+06     83.7569E+06     519.008E+03    -238.737E-03     465.403E-03    -226.665E-03     163.496E-03    -246.211E-03     472.695E-03    -226.272E-03     131.945E-03
            2215     10.7738E-03     19.8855E-03    -28.9202E+06     30.5218E+06     74.7342E+06     521.980E+03    -241.434E-03     467.167E-03    -225.733E-03     169.473E-03    -249.103E-03     474.625E-03    -225.362E-03     137.473E-03
            2216     10.0668E-03     19.6477E-03    -35.6044E+06     22.5365E+06     64.4434E+06     948.012E+03    -243.171E-03     467.702E-03    -224.532E-03     170.034E-03    -250.658E-03     474.957E-03    -224.190E-03     138.405E-03
            2217     9.36172E-03     19.3997E-03    -42.4518E+06     14.3137E+06     56.1160E+06     438.508E+03    -243.573E-03     466.663E-03    -223.090E-03     165.312E-03    -250.533E-03     473.362E-03    -222.769E-03     134.903E-03
            2218     8.65494E-03     19.1593E-03    -49.4355E+06     4.35621E+06     49.9940E+06    -355.327E+03    -242.420E-03     463.872E-03    -221.452E-03     155.284E-03    -248.556E-03     469.704E-03    -221.137E-03     126.940E-03
            2219     7.94871E-03     18.9239E-03    -57.1769E+06    -20.9326E+06     40.1417E+06    -234.591E+03    -240.033E-03     459.698E-03    -219.665E-03     142.054E-03    -245.184E-03     464.456E-03    -219.351E-03     116.387E-03
            2220     7.23923E-03     18.7100E-03    -65.7650E+06    -65.2165E+06     23.7327E+06     503.519E+03    -236.695E-03     454.478E-03    -217.782E-03     127.042E-03    -240.816E-03     458.066E-03    -217.474E-03     104.407E-03
            2221     6.52793E-03     18.5107E-03    -74.4639E+06    -107.783E+06     6.30658E+06     1.05001E+06    -232.802E-03     448.657E-03    -215.855E-03     111.037E-03    -235.969E-03     451.159E-03    -215.559E-03     91.5356E-03
            2222     5.81379E-03     18.3350E-03    -83.0635E+06    -144.669E+06    -10.7856E+06     1.09084E+06    -228.447E-03     442.385E-03    -213.938E-03     95.2177E-03    -230.799E-03     443.960E-03    -213.661E-03     78.7751E-03
            2223     5.09642E-03     18.1788E-03    -91.6301E+06    -179.166E+06    -28.4412E+06     1.05708E+06    -223.894E-03     435.990E-03    -212.096E-03     80.6873E-03    -225.590E-03     436.807E-03    -211.845E-03     67.0909E-03
            2224     4.37529E-03     18.0446E-03    -100.227E+06    -216.099E+06    -47.4461E+06     1.42487E+06    -219.411E-03     429.807E-03    -210.396E-03     66.9535E-03    -220.582E-03     429.992E-03    -210.175E-03     55.9528E-03
            2225     3.65178E-03     17.9314E-03    -108.755E+06    -247.638E+06    -67.1884E+06     2.00732E+06    -215.379E-03     424.251E-03    -208.871E-03     54.1677E-03    -216.150E-03     423.950E-03    -208.691E-03     45.4947E-03
            2226     2.92578E-03     17.8391E-03    -116.454E+06    -271.130E+06    -86.4180E+06     2.02821E+06    -211.901E-03     419.446E-03    -207.545E-03     42.3968E-03    -212.379E-03     418.797E-03    -207.415E-03     35.7830E-03
            2227     2.19616E-03     17.7672E-03    -123.593E+06    -292.832E+06    -104.761E+06     1.41578E+06    -208.901E-03     415.376E-03    -206.475E-03     31.3943E-03    -209.169E-03     414.468E-03    -206.395E-03     26.6108E-03
            2228     1.46504E-03     17.7161E-03    -129.831E+06    -312.313E+06    -120.252E+06     785.832E+03    -206.773E-03     412.479E-03    -205.706E-03     20.9702E-03    -206.899E-03     411.382E-03    -205.666E-03     17.8284E-03
            2229     732.242E-06     17.6835E-03    -133.409E+06    -321.670E+06    -131.223E+06     325.842E+03    -205.570E-03     410.729E-03    -205.159E-03     11.3979E-03    -205.614E-03     409.536E-03    -205.155E-03     9.72073E-03
            2230     13.6248E-03     19.1500E-03    -4.22665E+06     54.8233E+06     88.4909E+06    -298.650E+03    -230.766E-03     458.674E-03    -227.908E-03     85.5867E-03    -234.514E-03     462.345E-03    -227.539E-03     63.4283E-03
            2231     12.9049E-03     18.9875E-03    -9.44984E+06     51.8499E+06     89.1579E+06     228.236E+03    -234.692E-03     462.246E-03    -227.555E-03     132.037E-03    -240.579E-03     468.025E-03    -227.170E-03     103.461E-03
            2232     12.1971E-03     18.8127E-03    -15.3549E+06     44.5893E+06     87.9647E+06     501.020E+03    -239.846E-03     466.753E-03    -226.907E-03     144.404E-03    -246.293E-03     473.049E-03    -226.510E-03     114.315E-03
            2233     11.4899E-03     18.6016E-03    -21.0314E+06     39.3205E+06     84.7525E+06     1.15166E+06    -243.967E-03     469.870E-03    -225.903E-03     156.166E-03    -251.045E-03     476.768E-03    -225.506E-03     124.454E-03
            2234     10.7863E-03     18.3752E-03    -27.6147E+06     31.0968E+06     76.6224E+06     950.348E+03    -246.795E-03     471.332E-03    -224.537E-03     158.964E-03    -253.911E-03     478.239E-03    -224.159E-03     127.050E-03
            2235     10.0845E-03     18.1352E-03    -34.1065E+06     23.2140E+06     66.7118E+06    -45.7451E+03    -248.177E-03     471.006E-03    -222.829E-03     157.078E-03    -255.005E-03     477.603E-03    -222.479E-03     125.804E-03
            2236     9.38191E-03     17.8948E-03    -40.1539E+06     15.4606E+06     58.1234E+06    -593.715E+03    -247.629E-03     468.467E-03    -220.837E-03     150.643E-03    -253.875E-03     474.458E-03    -220.511E-03     120.921E-03
            2237     8.68038E-03     17.6562E-03    -47.3067E+06     4.38195E+06     50.6698E+06    -387.292E+03    -245.228E-03     463.872E-03    -218.644E-03     140.079E-03    -250.664E-03     469.011E-03    -218.329E-03     112.727E-03
            2238     7.97503E-03     17.4335E-03    -55.8239E+06    -20.9911E+06     39.9574E+06     194.509E+03    -241.635E-03     457.951E-03    -216.316E-03     126.614E-03    -246.147E-03     462.077E-03    -216.005E-03     102.128E-03
            2239     7.26752E-03     17.2246E-03    -64.4078E+06    -64.3815E+06     23.7827E+06     524.062E+03    -237.356E-03     451.252E-03    -213.896E-03     111.136E-03    -240.912E-03     454.284E-03    -213.591E-03     89.7612E-03
            2240     6.55707E-03     17.0366E-03    -72.6671E+06    -106.732E+06     6.72811E+06     777.211E+03    -232.124E-03     443.569E-03    -211.446E-03     95.1861E-03    -234.809E-03     445.600E-03    -211.152E-03     77.0021E-03
            2241     5.84221E-03     16.8697E-03    -81.0691E+06    -143.102E+06    -10.1748E+06     1.08113E+06    -226.399E-03     435.455E-03    -209.055E-03     80.3910E-03    -228.370E-03     436.660E-03    -208.781E-03     65.2415E-03
            2242     5.12354E-03     16.7237E-03    -89.8653E+06    -177.649E+06    -27.6538E+06     1.09034E+06    -220.724E-03     427.526E-03    -206.802E-03     67.0725E-03    -222.131E-03     428.063E-03    -206.553E-03     54.6780E-03
            2243     4.40093E-03     16.5987E-03    -98.6368E+06    -216.106E+06    -46.1487E+06     1.56130E+06    -215.296E-03     420.047E-03    -204.751E-03     54.9273E-03    -216.256E-03     420.023E-03    -204.525E-03     44.9941E-03
            2244     3.67379E-03     16.4934E-03    -106.896E+06    -247.142E+06    -65.7497E+06     2.31348E+06    -210.432E-03     413.364E-03    -202.932E-03     44.1914E-03    -211.061E-03     412.925E-03    -202.747E-03     36.4165E-03
            2245     2.94298E-03     16.4078E-03    -114.718E+06    -268.828E+06    -85.2949E+06     2.33724E+06    -206.295E-03     407.672E-03    -201.376E-03     34.3305E-03    -206.687E-03     406.946E-03    -201.246E-03     28.4403E-03
            2246     2.21030E-03     16.3420E-03    -121.074E+06    -290.495E+06    -103.691E+06     2.02291E+06    -203.002E-03     403.116E-03    -200.114E-03     25.1188E-03    -203.216E-03     402.167E-03    -200.035E-03     20.8779E-03
            2247     1.47498E-03     16.2944E-03    -125.645E+06    -309.692E+06    -118.704E+06     1.40572E+06    -200.527E-03     399.690E-03    -199.163E-03     16.6248E-03    -200.615E-03     398.574E-03    -199.126E-03     13.8662E-03
            2248     738.388E-06     16.2652E-03    -128.484E+06    -320.077E+06    -126.813E+06     482.019E+03    -198.570E-03     397.484E-03    -198.914E-03     8.60577E-03    -198.591E-03     396.277E-03    -198.898E-03     7.13842E-03
            2249     13.6137E-03     17.6394E-03    -4.24552E+06     54.6274E+06     87.9923E+06    -174.531E+03    -234.940E-03     462.716E-03    -227.776E-03     87.4348E-03    -238.735E-03     466.434E-03    -227.409E-03     64.5682E-03
            2250     12.9126E-03     17.4807E-03    -10.0782E+06     50.9921E+06     88.0126E+06    -606.888E+03    -241.242E-03     468.350E-03    -227.109E-03     129.515E-03    -247.035E-03     474.034E-03    -226.728E-03     100.162E-03
            2251     12.2058E-03     17.2953E-03    -15.2437E+06     43.7934E+06     87.5022E+06    -600.789E+03    -246.279E-03     472.322E-03    -226.043E-03     138.361E-03    -252.441E-03     478.332E-03    -225.647E-03     107.817E-03
            2252     11.5058E-03     17.0855E-03    -20.6032E+06     37.5969E+06     84.8180E+06    -214.664E+03    -250.498E-03     475.056E-03    -224.559E-03     146.762E-03    -257.121E-03     481.495E-03    -224.159E-03     114.817E-03
            2253     10.8072E-03     16.8560E-03    -25.8766E+06     32.3967E+06     78.2525E+06    -76.8198E+03    -252.938E-03     475.581E-03    -222.643E-03     147.228E-03    -259.474E-03     481.915E-03    -222.261E-03     115.412E-03
            2254     10.1095E-03     16.6225E-03    -31.6979E+06     24.9984E+06     68.1365E+06    -746.496E+03    -253.232E-03     473.580E-03    -220.348E-03     143.385E-03    -259.390E-03     479.518E-03    -219.997E-03     112.630E-03
            2255     9.41261E-03     16.3854E-03    -38.8802E+06     14.6055E+06     57.7156E+06    -589.869E+03    -251.366E-03     469.131E-03    -217.764E-03     135.578E-03    -256.910E-03     474.423E-03    -217.441E-03     106.756E-03
            2256     8.71173E-03     16.1591E-03    -46.8495E+06     3.78882E+06     49.6257E+06     76.6117E+03    -247.932E-03     462.907E-03    -214.975E-03     123.929E-03    -252.693E-03     467.374E-03    -214.664E-03     97.7009E-03
            2257     8.00914E-03     15.9436E-03    -54.5296E+06    -19.7524E+06     39.8369E+06     34.8256E+03    -243.475E-03     455.501E-03    -212.026E-03     109.280E-03    -247.361E-03     459.012E-03    -211.719E-03     86.0317E-03
            2258     7.30371E-03     15.7463E-03    -62.3306E+06    -62.6597E+06     24.4539E+06     288.714E+03    -237.504E-03     446.495E-03    -208.991E-03     93.0681E-03    -240.497E-03     448.976E-03    -208.687E-03     73.0945E-03
            2259     6.59306E-03     15.5708E-03    -70.5283E+06    -105.640E+06     7.09552E+06     812.952E+03    -230.525E-03     436.510E-03    -205.985E-03     77.8044E-03    -232.744E-03     438.085E-03    -205.694E-03     61.0670E-03
            2260     5.87763E-03     15.4163E-03    -78.8393E+06    -141.929E+06    -10.1816E+06     1.29865E+06    -223.455E-03     426.562E-03    -203.107E-03     64.2536E-03    -225.060E-03     427.414E-03    -202.838E-03     50.4857E-03
            2261     5.15650E-03     15.2823E-03    -87.3285E+06    -176.154E+06    -27.3569E+06     1.94588E+06    -216.524E-03     416.960E-03    -200.435E-03     52.3421E-03    -217.653E-03     417.232E-03    -200.190E-03     41.2234E-03
            2262     4.43018E-03     15.1678E-03    -96.1598E+06    -214.969E+06    -44.3203E+06     2.39189E+06    -210.132E-03     408.172E-03    -198.040E-03     42.1218E-03    -210.896E-03     407.958E-03    -197.810E-03     33.2958E-03
            2263     3.69971E-03     15.0729E-03    -104.907E+06    -246.289E+06    -62.5491E+06     2.61599E+06    -204.450E-03     400.386E-03    -195.936E-03     33.2520E-03    -204.947E-03     399.816E-03    -195.740E-03     26.3994E-03
            2264     2.96520E-03     14.9949E-03    -113.028E+06    -266.731E+06    -83.1533E+06     2.76058E+06    -199.624E-03     393.773E-03    -194.149E-03     25.4413E-03    -199.934E-03     392.973E-03    -194.015E-03     20.2908E-03
            2265     2.22670E-03     14.9353E-03    -120.379E+06    -288.562E+06    -103.158E+06     2.77555E+06    -195.925E-03     388.640E-03    -192.715E-03     18.5489E-03    -196.096E-03     387.654E-03    -192.638E-03     14.8713E-03
            2266     1.48612E-03     14.8925E-03    -126.271E+06    -305.831E+06    -118.579E+06     2.42198E+06    -193.184E-03     384.814E-03    -191.630E-03     12.2538E-03    -193.263E-03     383.698E-03    -191.597E-03     9.86720E-03
            2267     743.288E-06     14.8668E-03    -130.008E+06    -316.521E+06    -128.537E+06     1.36181E+06    -191.022E-03     382.270E-03    -191.248E-03     6.40541E-03    -191.048E-03     381.079E-03    -191.243E-03     5.15623E-03
            2268     13.6291E-03     16.1296E-03    -4.01399E+06     55.2562E+06     88.3604E+06         684.281    -242.246E-03     469.609E-03    -227.363E-03     85.8247E-03    -246.014E-03     473.303E-03    -226.996E-03     62.1473E-03
            2269     12.9204E-03     15.9564E-03    -9.08203E+06     51.9925E+06     88.9212E+06    -876.430E+03    -248.077E-03     474.350E-03    -226.273E-03     125.199E-03    -253.747E-03     479.915E-03    -225.891E-03     95.0532E-03
            2270     12.2246E-03     15.7752E-03    -14.8974E+06     44.1309E+06      87.798E+06    -1.24937E+06    -253.769E-03     478.493E-03    -224.723E-03     133.600E-03    -259.756E-03     484.329E-03    -224.327E-03     102.301E-03
            2271     11.5280E-03     15.5583E-03    -20.6699E+06     37.3659E+06     84.5314E+06    -2.09149E+06    -257.845E-03     480.523E-03    -222.678E-03     139.607E-03    -264.139E-03     486.632E-03    -222.279E-03     107.229E-03
            2272     10.8350E-03     15.3350E-03    -26.3527E+06     31.6485E+06     77.1450E+06    -2.65026E+06    -259.392E-03     479.545E-03    -220.153E-03     137.015E-03    -265.457E-03     485.407E-03    -219.775E-03     105.217E-03
            2273     10.1424E-03     15.1040E-03    -32.6638E+06     23.6368E+06     66.1942E+06    -1.63530E+06    -258.502E-03     475.729E-03    -217.227E-03     130.824E-03    -264.109E-03     481.114E-03    -216.883E-03     100.519E-03
            2274     9.44711E-03     14.8790E-03    -39.5017E+06     13.2021E+06     56.0814E+06    -571.170E+03    -255.709E-03     469.698E-03    -213.989E-03     120.407E-03    -260.649E-03     474.386E-03    -213.671E-03     92.3551E-03
            2275     8.75099E-03     14.6615E-03    -46.0456E+06     4.27339E+06     49.1882E+06    -749.443E+03    -251.490E-03     461.985E-03    -210.496E-03     106.855E-03    -255.655E-03     465.864E-03    -210.189E-03     81.5534E-03
            2276     8.05204E-03     14.4580E-03    -53.1276E+06    -18.7583E+06     39.4405E+06    -644.996E+03    -245.172E-03     452.000E-03    -206.828E-03     90.5511E-03    -248.487E-03     454.951E-03    -206.527E-03     68.4966E-03
            2277     7.34722E-03     14.2764E-03    -61.2595E+06    -61.4762E+06     23.6714E+06     299.030E+03    -236.943E-03     440.084E-03    -203.141E-03     74.1317E-03    -239.434E-03     442.074E-03    -202.844E-03     55.5546E-03
            2278     6.63623E-03     14.1167E-03    -69.5882E+06    -104.332E+06     6.17455E+06     1.07365E+06    -228.269E-03     427.836E-03    -199.567E-03     59.8418E-03    -230.087E-03     429.022E-03    -199.284E-03     44.4966E-03
            2279     5.91853E-03     13.9766E-03    -78.0343E+06    -141.195E+06    -11.3406E+06     1.89404E+06    -219.694E-03     415.889E-03    -196.195E-03     47.4642E-03    -220.987E-03     416.438E-03    -195.934E-03     35.0208E-03
            2280     5.19497E-03     13.8572E-03    -86.9019E+06    -175.615E+06    -28.7445E+06     3.16477E+06    -211.487E-03     404.589E-03    -193.102E-03     37.1390E-03    -212.385E-03     404.639E-03    -192.866E-03     27.2268E-03
            2281     4.46517E-03     13.7557E-03    -96.0768E+06    -211.583E+06    -45.4767E+06     3.71804E+06    -203.995E-03     394.353E-03    -190.358E-03     28.8591E-03    -204.601E-03     393.997E-03    -190.139E-03     21.0907E-03
            2282     3.72971E-03     13.6710E-03    -105.083E+06    -244.043E+06    -62.5941E+06     2.95597E+06    -197.507E-03     385.494E-03    -187.986E-03     22.2909E-03    -197.903E-03     384.828E-03    -187.793E-03     16.3080E-03
            2283     2.98941E-03     13.6034E-03    -113.851E+06    -266.409E+06    -82.3654E+06     3.31307E+06    -192.106E-03     378.094E-03    -185.988E-03     16.7618E-03    -192.358E-03     377.230E-03    -185.848E-03     12.3039E-03
            2284     2.24557E-03     13.5504E-03    -121.764E+06    -285.720E+06    -101.861E+06     4.30636E+06    -187.799E-03     372.208E-03    -184.409E-03     11.9583E-03    -187.947E-03     371.200E-03    -184.328E-03     8.82133E-03
            2285     1.49865E-03     13.5128E-03    -128.132E+06    -301.003E+06    -118.137E+06     3.85749E+06    -184.737E-03     368.021E-03    -183.284E-03     7.66553E-03    -184.817E-03     366.914E-03    -183.252E-03     5.64776E-03
            2286     750.047E-06     13.4908E-03    -131.864E+06    -310.292E+06    -129.458E+06     2.42511E+06    -182.747E-03     365.564E-03    -182.817E-03     4.10594E-03    -182.785E-03     364.402E-03    -182.823E-03     3.03693E-03
            2287     13.6327E-03     14.6063E-03    -4.81735E+06     55.6403E+06     88.7839E+06    -723.540E+03    -251.074E-03     477.903E-03    -226.829E-03     91.7622E-03    -255.075E-03     481.827E-03    -226.459E-03     66.6474E-03
            2288     12.9393E-03     14.4317E-03    -8.70626E+06     53.4266E+06     90.3228E+06    -630.019E+03    -256.504E-03     481.754E-03    -225.250E-03     129.573E-03    -262.378E-03     487.525E-03    -224.863E-03     98.0764E-03
            2289     12.2422E-03     14.2409E-03    -13.8015E+06     45.8938E+06     89.2183E+06    -1.73220E+06    -262.470E-03     485.622E-03    -223.152E-03     132.978E-03    -268.455E-03     491.463E-03    -222.752E-03     100.616E-03
            2290     11.5543E-03     14.0254E-03    -19.5322E+06     38.8803E+06     85.0812E+06    -2.43467E+06    -265.879E-03     486.367E-03    -220.489E-03     134.741E-03    -271.997E-03     492.309E-03    -220.091E-03     101.698E-03
            2291     10.8663E-03     13.8055E-03    -26.2826E+06     30.6410E+06     76.0669E+06    -2.47005E+06    -266.704E-03     484.005E-03    -217.301E-03     129.018E-03    -272.488E-03     489.588E-03    -216.927E-03     96.8833E-03
            2292     10.1781E-03     13.5841E-03    -33.1104E+06     21.5164E+06     64.3090E+06    -2.23630E+06    -265.168E-03     478.824E-03    -213.656E-03     118.727E-03    -270.376E-03     483.809E-03    -213.317E-03     88.4155E-03
            2293     9.48943E-03     13.3697E-03    -39.0270E+06     12.8304E+06     54.8315E+06    -2.32433E+06    -261.416E-03     471.053E-03    -209.637E-03     105.528E-03    -265.899E-03     475.289E-03    -209.325E-03     77.7549E-03
            2294     8.79760E-03     13.1643E-03    -45.3044E+06     3.71697E+06     47.5308E+06    -2.03375E+06    -255.204E-03     460.552E-03    -205.348E-03     90.1107E-03    -258.902E-03     463.971E-03    -205.050E-03     65.4502E-03
            2295     8.10046E-03     12.9781E-03    -52.8841E+06    -19.5089E+06     36.7935E+06    -584.779E+03    -246.213E-03     447.167E-03    -200.954E-03     72.8276E-03    -249.078E-03     449.675E-03    -200.665E-03     51.8143E-03
            2296     7.39626E-03     12.8165E-03    -61.1228E+06    -59.9947E+06     21.0578E+06     915.418E+03    -236.102E-03     432.733E-03    -196.631E-03     56.8819E-03    -238.225E-03     434.369E-03    -196.350E-03     39.4332E-03
            2297     6.68440E-03     12.6745E-03    -69.7583E+06    -103.078E+06     3.81451E+06     2.00737E+06    -225.716E-03     418.211E-03    -192.495E-03     43.3665E-03    -227.241E-03     419.116E-03    -192.226E-03     29.1536E-03
            2298     5.96505E-03     12.5534E-03    -78.6178E+06    -140.712E+06    -13.7359E+06     3.24017E+06    -215.447E-03     404.088E-03    -188.642E-03     32.3769E-03    -216.520E-03     404.425E-03    -188.392E-03     21.0117E-03
            2299     5.23739E-03     12.4498E-03    -87.4348E+06    -175.203E+06    -31.5888E+06     4.53707E+06    -205.919E-03     391.068E-03    -185.149E-03     23.8250E-03    -206.659E-03     390.968E-03    -184.926E-03     14.8753E-03
            2300     4.50311E-03     12.3634E-03    -95.9204E+06    -207.326E+06    -48.9421E+06     4.78794E+06    -197.414E-03     379.482E-03    -182.068E-03     17.4454E-03    -197.913E-03     379.044E-03    -181.873E-03     10.5045E-03
            2301     3.76221E-03     12.2920E-03    -104.292E+06    -240.353E+06    -64.5349E+06     4.38566E+06    -190.085E-03     369.524E-03    -179.439E-03     12.6164E-03    -190.409E-03     368.808E-03    -179.262E-03     7.32547E-03
            2302     3.01642E-03     12.2333E-03    -112.824E+06    -266.057E+06    -81.0476E+06     4.56487E+06    -184.012E-03     361.269E-03    -177.257E-03     8.89688E-03    -184.217E-03     360.360E-03    -177.113E-03     4.98480E-03
            2303     2.26621E-03     12.1895E-03    -120.421E+06    -281.961E+06    -99.6005E+06     4.53142E+06    -179.222E-03     354.760E-03    -175.538E-03     6.12075E-03    -179.348E-03     353.741E-03    -175.453E-03     3.37877E-03
            2304     1.51235E-03     12.1573E-03    -125.779E+06    -295.262E+06    -115.828E+06     3.64362E+06    -175.838E-03     350.178E-03    -174.340E-03     3.89359E-03    -175.908E-03     349.082E-03    -174.308E-03     2.14336E-03
            2305     756.388E-06     12.1381E-03    -129.053E+06    -303.345E+06    -126.308E+06     2.12489E+06    -174.214E-03     347.642E-03    -173.428E-03     1.90229E-03    -174.250E-03     346.503E-03    -173.433E-03     971.148E-06
            2306     13.6402E-03     13.0679E-03    -5.21516E+06     56.4324E+06     89.7249E+06    -1.40340E+06    -259.554E-03     485.973E-03    -226.419E-03     97.8765E-03    -263.858E-03     490.198E-03    -226.045E-03     71.0378E-03
            2307     12.9459E-03     12.8906E-03    -10.2508E+06     53.5987E+06     89.9194E+06    -2.12911E+06    -267.424E-03     491.714E-03    -224.290E-03     133.678E-03    -273.626E-03     497.809E-03    -223.903E-03     100.143E-03
            2308     12.2647E-03     12.6927E-03    -15.1074E+06     47.5315E+06     89.1698E+06    -2.50518E+06    -272.686E-03     494.221E-03    -221.535E-03     133.437E-03    -278.827E-03     500.219E-03    -221.136E-03     99.5325E-03
            2309     11.5808E-03     12.4852E-03    -21.5682E+06     39.5154E+06     84.6631E+06    -2.67377E+06    -275.195E-03     493.372E-03    -218.177E-03     130.489E-03    -281.322E-03     499.320E-03    -217.780E-03     96.2438E-03
            2310     10.8990E-03     12.2670E-03    -27.6085E+06     29.9381E+06     75.5278E+06    -3.12696E+06    -274.958E-03     489.214E-03    -214.255E-03     121.120E-03    -280.624E-03     494.673E-03    -213.881E-03     88.1566E-03
            2311     10.2187E-03     12.0571E-03    -32.9046E+06     21.5110E+06     63.9208E+06    -3.50671E+06    -272.731E-03     482.554E-03    -209.823E-03     108.707E-03    -277.747E-03     487.350E-03    -209.487E-03     77.8165E-03
            2312     9.53489E-03     11.8560E-03    -39.1570E+06     12.0562E+06     52.4788E+06    -3.34709E+06    -267.704E-03     472.675E-03    -204.971E-03     93.3352E-03    -271.941E-03     476.671E-03    -204.669E-03     65.3261E-03
            2313     8.84724E-03     11.6682E-03    -46.4947E+06     1.07996E+06     42.7249E+06    -2.01596E+06    -258.294E-03     458.196E-03    -199.902E-03     75.4271E-03    -261.679E-03     461.304E-03    -199.622E-03     51.1695E-03
            2314     8.15135E-03     11.5065E-03    -54.4819E+06    -21.1313E+06     31.4505E+06     16.1015E+03    -246.605E-03     441.467E-03    -194.862E-03     58.4181E-03    -249.192E-03     443.702E-03    -194.595E-03     38.1148E-03
            2315     7.44693E-03     11.3645E-03    -62.8018E+06    -59.7196E+06     16.2154E+06     2.07271E+06    -234.678E-03     424.678E-03    -190.000E-03     43.7782E-03    -236.593E-03     426.118E-03    -189.742E-03     27.0845E-03
            2316     6.73405E-03     11.2465E-03    -71.4367E+06    -101.641E+06    -139.547E+03     3.79577E+06    -222.697E-03     408.105E-03    -185.408E-03     31.8060E-03    -224.076E-03     408.875E-03    -185.158E-03     18.3405E-03
            2317     6.01121E-03     11.1455E-03    -80.1144E+06    -139.529E+06    -16.8117E+06     4.65176E+06    -211.092E-03     392.265E-03    -181.174E-03     22.6621E-03    -212.071E-03     392.516E-03    -180.939E-03     11.9543E-03
            2318     5.28040E-03     11.0617E-03    -88.0410E+06    -173.473E+06    -34.3049E+06     5.06551E+06    -200.451E-03     377.811E-03    -177.359E-03     15.7530E-03    -201.130E-03     377.662E-03    -177.152E-03     7.35684E-03
            2319     4.54096E-03     10.9916E-03    -95.5410E+06    -204.467E+06    -51.7425E+06     5.72725E+06    -191.146E-03     365.144E-03    -173.998E-03     10.7276E-03    -191.604E-03     364.686E-03    -173.822E-03     4.24034E-03
            2320     3.79552E-03     10.9334E-03    -103.431E+06    -236.432E+06    -67.7846E+06     6.10706E+06    -183.090E-03     354.209E-03    -171.119E-03     7.08659E-03    -183.387E-03     353.494E-03    -170.966E-03     2.16955E-03
            2321     3.04341E-03     10.8878E-03    -111.091E+06    -262.281E+06    -81.8287E+06     5.16800E+06    -176.293E-03     345.046E-03    -168.753E-03     4.58155E-03    -176.480E-03     344.141E-03    -168.620E-03     955.727E-06
            2322     2.28642E-03     10.8513E-03    -117.971E+06    -278.217E+06    -97.3013E+06     4.11580E+06    -171.023E-03     337.925E-03    -166.902E-03     2.80919E-03    -171.139E-03     336.912E-03    -166.814E-03     259.476E-06
            2323     1.52643E-03     10.8267E-03    -123.949E+06    -290.037E+06    -113.943E+06     2.98469E+06    -167.357E-03     332.929E-03    -165.573E-03     1.79789E-03    -167.424E-03     331.852E-03    -165.542E-03     160.263E-06
            2324     763.887E-06     10.8097E-03    -128.011E+06    -297.393E+06    -125.309E+06     1.68558E+06    -165.892E-03     329.979E-03    -164.087E-03     1.18299E-03    -165.932E-03     328.866E-03    -164.097E-03     327.176E-06
            2325     13.6404E-03     11.5166E-03    -3.69503E+06     58.7914E+06     91.1028E+06    -722.946E+03    -268.639E-03     494.577E-03    -225.937E-03     99.5172E-03    -273.094E-03     498.962E-03    -225.562E-03     71.3928E-03
            2326     12.9633E-03     11.3287E-03    -9.83151E+06     55.1147E+06     90.1482E+06    -1.78149E+06    -276.631E-03     499.911E-03    -223.280E-03     134.188E-03    -283.071E-03     506.249E-03    -222.895E-03     98.9347E-03
            2327     12.2815E-03     11.1362E-03    -16.2651E+06     47.8491E+06     88.6359E+06    -2.52171E+06    -282.654E-03     502.568E-03    -219.914E-03     132.201E-03    -289.005E-03     508.775E-03    -219.517E-03     96.5683E-03
            2328     11.6081E-03     10.9249E-03    -21.5353E+06     40.7695E+06     85.2036E+06    -3.63258E+06    -284.692E-03     500.558E-03    -215.865E-03     127.383E-03    -290.994E-03     506.684E-03    -215.467E-03     91.4912E-03
            2329     10.9355E-03     10.7229E-03    -27.4076E+06     30.8919E+06     75.2119E+06    -4.29336E+06    -284.172E-03     495.355E-03    -211.183E-03     115.928E-03    -289.914E-03     500.896E-03    -210.812E-03     81.5848E-03
            2330     10.2573E-03     10.5232E-03    -34.1652E+06     20.3962E+06     60.5002E+06    -4.11637E+06    -280.484E-03     486.426E-03    -205.942E-03     100.151E-03    -285.445E-03     491.170E-03    -205.619E-03     68.3659E-03
            2331     9.58019E-03     10.3347E-03    -41.0126E+06     9.47228E+06     47.2709E+06    -2.80296E+06    -271.914E-03     472.269E-03    -200.355E-03     81.8764E-03    -276.002E-03     476.117E-03    -200.073E-03     53.6645E-03
            2332     8.89500E-03     10.1773E-03    -48.4970E+06    -2.88821E+06     36.5757E+06    -548.062E+03    -259.456E-03     454.170E-03    -194.714E-03     64.5244E-03    -262.677E-03     457.112E-03    -194.457E-03     40.5536E-03
            2333     8.19938E-03     10.0394E-03    -56.8381E+06    -23.5619E+06     25.1674E+06     2.13914E+06    -245.653E-03     434.901E-03    -189.248E-03     50.2735E-03    -248.150E-03     437.047E-03    -189.006E-03     30.3671E-03
            2334     7.49374E-03     9.92518E-03    -65.9325E+06    -59.4145E+06     10.5963E+06     4.17261E+06    -231.840E-03     415.928E-03    -184.088E-03     38.1324E-03    -233.719E-03     417.338E-03    -183.853E-03     21.8979E-03
            2335     6.77695E-03     9.83022E-03    -74.5548E+06    -100.167E+06    -5.12804E+06     5.13470E+06    -218.649E-03     397.955E-03    -179.306E-03     28.6576E-03    -220.038E-03     398.743E-03    -179.078E-03     15.5645E-03
            2336     6.05156E-03     9.75316E-03    -82.5487E+06    -136.704E+06    -20.3227E+06     5.39078E+06    -206.438E-03     381.384E-03    -174.946E-03     21.7928E-03    -207.454E-03     381.683E-03    -174.729E-03     11.3407E-03
            2337     5.31587E-03     9.68981E-03    -90.6496E+06    -171.304E+06    -36.6709E+06     5.37931E+06    -195.460E-03     366.489E-03    -171.029E-03     16.8429E-03    -196.189E-03     366.397E-03    -170.832E-03     8.59877E-03
            2338     4.57318E-03     9.63691E-03    -98.6937E+06    -203.857E+06    -54.1881E+06     6.27984E+06    -185.738E-03     353.311E-03    -167.572E-03     13.0127E-03    -186.247E-03     352.904E-03    -167.404E-03     6.61741E-03
            2339     3.82212E-03     9.59512E-03    -105.918E+06    -231.812E+06    -70.8556E+06     6.46116E+06    -177.365E-03     341.962E-03    -164.597E-03     9.92702E-03    -177.707E-03     341.310E-03    -164.462E-03     5.06252E-03
            2340     3.06566E-03     9.56087E-03    -112.272E+06    -256.390E+06    -85.5703E+06     4.57500E+06    -170.424E-03     332.543E-03    -162.119E-03     7.31493E-03    -170.641E-03     331.699E-03    -162.012E-03     3.69911E-03
            2341     2.30407E-03     9.53582E-03    -117.904E+06    -275.069E+06    -98.7536E+06     2.95635E+06    -164.910E-03     325.048E-03    -160.138E-03     5.13078E-03    -165.040E-03     324.068E-03    -160.062E-03     2.56812E-03
            2342     1.53792E-03     9.51625E-03    -122.430E+06    -285.610E+06    -111.590E+06     2.46612E+06    -160.936E-03     319.563E-03    -158.627E-03     3.22243E-03    -161.009E-03     318.509E-03    -158.593E-03     1.58033E-03
            2343     769.697E-06     9.50500E-03    -125.703E+06    -292.527E+06    -122.974E+06     1.41511E+06    -158.461E-03     315.880E-03    -157.419E-03     2.02737E-03    -158.500E-03     314.788E-03    -157.427E-03     1.16099E-03
            2344     13.6595E-03     9.95916E-03     -4.6689E+06     59.6872E+06     91.0972E+06    -791.473E+03    -279.471E-03     504.954E-03    -225.483E-03     108.705E-03    -284.354E-03     509.767E-03    -225.107E-03     78.6190E-03
            2345     12.9726E-03     9.76196E-03    -8.31646E+06     58.2530E+06     92.9120E+06    -943.020E+03    -286.313E-03     508.590E-03    -222.276E-03     139.905E-03    -293.199E-03     515.383E-03    -221.884E-03     102.720E-03
            2346     12.3046E-03     9.55771E-03    -13.4046E+06     50.2973E+06     91.1504E+06    -1.70661E+06    -291.323E-03     509.664E-03    -218.341E-03     133.116E-03    -297.987E-03     516.196E-03    -217.939E-03     95.8143E-03
            2347     11.6343E-03     9.36241E-03    -20.5312E+06     42.3708E+06     85.1688E+06    -2.53493E+06    -294.157E-03     507.803E-03    -213.646E-03     125.633E-03    -300.712E-03     514.191E-03    -213.252E-03     87.9821E-03
            2348     10.9633E-03     9.16023E-03    -28.1921E+06     31.8494E+06     72.9165E+06    -2.84627E+06    -293.363E-03     501.580E-03    -208.218E-03     109.569E-03    -299.203E-03     507.229E-03    -207.858E-03     73.7352E-03
            2349     10.2993E-03     8.97809E-03    -35.5015E+06     18.7785E+06     56.4856E+06    -2.32140E+06    -285.406E-03     487.701E-03    -202.295E-03     90.9872E-03    -290.325E-03     492.406E-03    -201.988E-03     58.6184E-03
            2350     9.62241E-03     8.81970E-03    -43.1467E+06     5.94944E+06     41.6730E+06    -703.778E+03    -271.802E-03     468.087E-03    -196.285E-03     74.4483E-03    -275.806E-03     471.848E-03    -196.023E-03     46.5350E-03
            2351     8.93435E-03     8.68888E-03    -51.3764E+06    -8.39343E+06     30.2998E+06     2.47283E+06    -256.674E-03     447.161E-03    -190.487E-03     60.5924E-03    -259.866E-03     450.062E-03    -190.249E-03     37.1483E-03
            2352     8.23652E-03     8.58191E-03    -60.1059E+06    -25.8445E+06     20.3758E+06     5.29196E+06    -241.281E-03     426.322E-03    -185.041E-03     50.4951E-03    -243.823E-03     428.508E-03    -184.814E-03     31.0981E-03
            2353     7.52632E-03     8.49609E-03    -68.3301E+06    -56.9692E+06     7.91488E+06     5.86040E+06    -226.410E-03     406.447E-03    -180.038E-03     43.0693E-03    -228.400E-03     407.976E-03    -179.816E-03     27.2202E-03
            2354     6.80616E-03     8.42715E-03    -75.8263E+06    -98.5680E+06    -7.20893E+06     5.59497E+06    -212.986E-03     388.499E-03    -175.513E-03     37.2445E-03    -214.505E-03     389.424E-03    -175.296E-03     24.3903E-03
            2355     6.07453E-03     8.37391E-03    -83.1546E+06    -134.142E+06    -21.5859E+06     5.63023E+06    -201.159E-03     372.610E-03    -171.451E-03     32.9703E-03    -202.308E-03     373.053E-03    -171.244E-03     22.6274E-03
            2356     5.33576E-03     8.32967E-03    -90.6891E+06    -170.083E+06    -35.5368E+06     5.96636E+06    -190.775E-03     358.617E-03    -167.842E-03     29.3885E-03    -191.623E-03     358.646E-03    -167.642E-03     21.1632E-03
            2357     4.58797E-03     8.29639E-03    -98.2100E+06    -202.901E+06    -50.7089E+06     6.21963E+06    -181.622E-03     346.296E-03    -164.674E-03     25.9815E-03    -182.228E-03     345.982E-03    -164.491E-03     19.5501E-03
            2358     3.83448E-03     8.26813E-03    -105.335E+06    -227.401E+06    -67.0246E+06     5.52363E+06    -173.845E-03     335.787E-03    -161.942E-03     22.5806E-03    -174.266E-03     335.222E-03    -161.795E-03     17.6461E-03
            2359     3.07477E-03     8.24778E-03    -112.090E+06    -250.358E+06    -83.6275E+06     3.85640E+06    -167.488E-03     327.136E-03    -159.648E-03     18.8091E-03    -167.763E-03     326.367E-03    -159.540E-03     15.1198E-03
            2360     2.31048E-03     8.23129E-03    -117.916E+06    -271.057E+06    -99.8852E+06     1.44060E+06    -162.458E-03     320.229E-03    -157.771E-03     14.8495E-03    -162.620E-03     319.300E-03    -157.707E-03     12.2135E-03
            2361     1.54340E-03     8.22054E-03    -121.842E+06    -284.275E+06    -112.799E+06     135.790E+03    -158.582E-03     314.912E-03    -156.330E-03     10.5261E-03    -158.666E-03     313.881E-03    -156.305E-03     8.81997E-03
            2362     772.893E-06     8.21316E-03    -124.595E+06    -289.733E+06    -121.017E+06     504.171E+03    -155.802E-03     311.387E-03    -155.585E-03     5.89847E-03    -155.846E-03     310.310E-03    -155.589E-03     5.00068E-03
            2363     13.6460E-03     8.37203E-03    -4.79031E+06     61.2969E+06     91.5608E+06    -1.55691E+06    -288.382E-03     513.570E-03    -225.189E-03     112.719E-03    -293.611E-03     518.734E-03    -224.813E-03     81.0423E-03
            2364     12.9897E-03     8.17149E-03    -9.96812E+06     58.0130E+06     91.2995E+06    -2.23732E+06    -295.745E-03     517.226E-03    -221.481E-03     147.478E-03    -303.288E-03     524.673E-03    -221.095E-03     107.887E-03
            2365     12.3189E-03     7.98095E-03    -15.7995E+06     49.9532E+06     88.3877E+06    -1.35510E+06    -302.842E-03     519.765E-03    -216.924E-03     136.775E-03    -309.983E-03     526.772E-03    -216.531E-03     97.0338E-03
            2366     11.6560E-03     7.77469E-03    -21.8476E+06     43.4724E+06     83.2142E+06    -710.885E+03    -304.419E-03     515.923E-03    -211.504E-03     120.252E-03    -311.107E-03     522.452E-03    -211.119E-03     80.8557E-03
            2367     11.0014E-03     7.58932E-03    -28.3703E+06     31.7296E+06     70.9845E+06    -111.469E+03    -297.076E-03     502.576E-03    -205.500E-03     101.463E-03    -302.860E-03     508.175E-03    -205.150E-03     65.2633E-03
            2368     10.3302E-03     7.43315E-03    -36.0659E+06     16.2632E+06     54.5995E+06     1.57532E+06    -282.759E-03     482.144E-03    -199.384E-03     85.2255E-03    -287.544E-03     486.710E-03    -199.083E-03     53.7127E-03
            2369     9.65084E-03     7.31150E-03    -44.4628E+06     2.29288E+06     40.1904E+06     4.05450E+06    -265.500E-03     459.045E-03    -193.545E-03     74.3152E-03    -269.435E-03     462.724E-03    -193.283E-03     47.6694E-03
            2370     8.95907E-03     7.21102E-03    -52.9015E+06    -12.5415E+06     28.5835E+06     6.21676E+06    -248.127E-03     436.314E-03    -188.187E-03     67.2414E-03    -251.354E-03     439.235E-03    -187.949E-03     45.0638E-03
            2371     8.25316E-03     7.13765E-03    -60.5794E+06    -25.8765E+06     21.3212E+06     7.08479E+06    -232.080E-03     415.470E-03    -183.390E-03     62.8141E-03    -234.721E-03     417.750E-03    -183.158E-03     44.5100E-03
            2372     7.53598E-03     7.07869E-03    -67.8422E+06    -53.7881E+06     11.4447E+06     6.43741E+06    -217.844E-03     396.997E-03    -179.152E-03     60.0372E-03    -219.979E-03     398.673E-03    -178.919E-03     45.0025E-03
            2373     6.80755E-03     7.03614E-03    -75.4429E+06    -96.6236E+06    -2.93645E+06     5.23011E+06    -205.741E-03     381.176E-03    -175.436E-03     57.3907E-03    -207.412E-03     382.251E-03    -175.201E-03     45.1252E-03
            2374     6.07222E-03     7.00215E-03    -83.0174E+06    -133.796E+06    -17.0600E+06     4.92706E+06    -195.525E-03     367.706E-03    -172.181E-03     54.6699E-03    -196.813E-03     368.278E-03    -171.952E-03     44.7390E-03
            2375     5.32814E-03     6.97789E-03    -90.0731E+06    -168.632E+06    -30.1924E+06     4.66337E+06    -186.837E-03     356.191E-03    -169.354E-03     51.4132E-03    -187.805E-03     356.332E-03    -169.130E-03     43.4629E-03
            2376     4.57904E-03     6.95873E-03    -96.7713E+06    -201.240E+06    -42.8749E+06     3.68912E+06    -179.596E-03     346.520E-03    -166.923E-03     47.2471E-03    -180.299E-03     346.291E-03    -166.706E-03     40.9636E-03
            2377     3.82360E-03     6.94532E-03    -103.524E+06    -224.718E+06    -57.6577E+06     3.05800E+06    -173.475E-03     338.327E-03    -164.853E-03     41.9818E-03    -173.970E-03     337.824E-03    -164.665E-03     37.1284E-03
            2378     3.06414E-03     6.93428E-03    -110.270E+06    -245.204E+06    -74.8847E+06     1.28395E+06    -168.541E-03     331.693E-03    -163.151E-03     35.7484E-03    -168.871E-03     330.976E-03    -163.010E-03     32.1089E-03
            2379     2.30145E-03     6.92728E-03    -116.087E+06    -268.345E+06    -94.4286E+06    -685.895E+03    -164.807E-03     326.625E-03    -161.818E-03     28.4628E-03    -165.000E-03     325.723E-03    -161.732E-03     25.8479E-03
            2380     1.53510E-03     6.92217E-03    -121.301E+06    -285.022E+06    -112.030E+06    -1.15738E+06    -162.125E-03     322.990E-03    -160.865E-03     20.1290E-03    -162.222E-03     321.964E-03    -160.836E-03     18.4260E-03
            2381     767.336E-06     6.92036E-03    -124.536E+06    -290.922E+06    -121.851E+06    -1.08151E+06    -160.510E-03     320.913E-03    -160.403E-03     11.3597E-03    -160.557E-03     319.834E-03    -160.410E-03     10.4524E-03
            2382     13.6701E-03     6.78408E-03    -4.28345E+06     63.5419E+06     89.8808E+06    -270.288E+03    -296.708E-03     521.851E-03    -225.143E-03     128.413E-03    -302.619E-03     527.707E-03    -224.780E-03     94.5827E-03
            2383     12.9860E-03     6.58175E-03    -11.3436E+06     57.7535E+06     86.4120E+06    -714.696E+03    -310.374E-03     531.224E-03    -220.850E-03     153.494E-03    -318.415E-03     539.175E-03    -220.485E-03     111.060E-03
            2384     12.3341E-03     6.36172E-03    -16.7849E+06     49.2744E+06     83.4604E+06    -1.43589E+06    -315.472E-03     530.981E-03    -215.509E-03     130.108E-03    -322.667E-03     538.055E-03    -215.139E-03     88.2939E-03
            2385     11.6884E-03     6.17893E-03    -21.6892E+06     40.8815E+06     79.8527E+06    -275.871E+03    -307.737E-03     517.283E-03    -209.546E-03     111.608E-03    -314.204E-03     523.596E-03    -209.175E-03     72.2669E-03
            2386     11.0220E-03     6.02001E-03    -28.4653E+06     27.3522E+06     68.6643E+06     2.92347E+06    -290.776E-03     494.324E-03    -203.548E-03     95.8162E-03    -296.173E-03     499.530E-03    -203.203E-03     61.7108E-03
            2387     10.3497E-03     5.90444E-03    -36.1048E+06     12.5447E+06     54.0466E+06     6.12946E+06    -270.145E-03     468.141E-03    -197.996E-03     86.5125E-03    -274.576E-03     472.343E-03    -197.692E-03     57.9935E-03
            2388     9.65957E-03     5.81559E-03    -43.4478E+06       4.555E+03     43.4597E+06     7.93255E+06    -250.696E-03     443.822E-03    -193.126E-03     84.8522E-03    -254.419E-03     447.275E-03    -192.845E-03     61.1713E-03
            2389     8.95416E-03     5.75425E-03    -50.2700E+06    -12.4418E+06     35.2165E+06     7.94631E+06    -233.785E-03     422.733E-03    -188.948E-03     85.3113E-03    -236.899E-03     425.533E-03    -188.681E-03     65.7598E-03
            2390     8.23745E-03     5.70568E-03    -57.4319E+06    -24.2497E+06     30.0032E+06     7.35846E+06    -219.585E-03     405.003E-03    -185.418E-03     85.3001E-03    -222.169E-03     407.220E-03    -185.150E-03     69.2064E-03
            2391     7.51096E-03     5.67473E-03    -65.3850E+06    -51.1321E+06     22.2003E+06     6.24151E+06    -208.043E-03     390.498E-03    -182.455E-03     84.5718E-03    -210.151E-03     392.136E-03    -182.175E-03     71.3401E-03
            2392     6.77732E-03     5.64968E-03    -73.6053E+06    -94.7331E+06     8.85899E+06     4.32956E+06    -198.819E-03     378.784E-03    -179.966E-03     82.7419E-03    -200.490E-03     379.837E-03    -179.677E-03     71.8826E-03
            2393     6.03615E-03     5.63427E-03    -81.3249E+06    -132.964E+06    -4.09968E+06     2.16944E+06    -191.455E-03     369.333E-03    -177.878E-03     79.1363E-03    -192.752E-03     369.883E-03    -177.587E-03     70.2689E-03
            2394     5.29089E-03     5.62273E-03    -87.9965E+06    -165.684E+06    -17.5186E+06    -779.348E+03    -185.600E-03     361.733E-03    -176.132E-03     74.2084E-03    -186.585E-03     361.867E-03    -175.852E-03     67.0001E-03
            2395     4.54070E-03     5.61533E-03    -93.2810E+06    -201.115E+06    -32.0726E+06    -3.26482E+06    -181.078E-03     355.770E-03    -174.693E-03     67.6338E-03    -181.787E-03     355.524E-03    -174.426E-03     61.8398E-03
            2396     3.78856E-03     5.61052E-03    -97.6696E+06    -224.649E+06    -46.8175E+06    -4.01022E+06    -177.576E-03     351.080E-03    -173.504E-03     59.4325E-03    -178.067E-03     350.556E-03    -173.271E-03     54.8768E-03
            2397     3.03322E-03     5.60798E-03    -102.422E+06    -245.015E+06    -65.1930E+06    -3.89744E+06    -174.879E-03     347.427E-03    -172.548E-03     49.7186E-03    -175.194E-03     346.688E-03    -172.370E-03     46.2464E-03
            2398     2.27563E-03     5.60536E-03    -108.767E+06    -271.588E+06    -86.7438E+06    -2.58666E+06    -173.015E-03     344.840E-03    -171.825E-03     38.3959E-03    -173.184E-03     343.899E-03    -171.707E-03     35.8861E-03
            2399     1.51791E-03     5.60494E-03    -114.791E+06    -286.237E+06    -103.779E+06    -1.21626E+06    -171.881E-03     343.169E-03    -171.288E-03     26.1623E-03    -171.960E-03     342.112E-03    -171.226E-03     24.5213E-03
            2400     759.672E-06     5.60289E-03    -118.792E+06    -294.212E+06    -115.849E+06    -1.08847E+06    -170.920E-03     342.004E-03    -171.084E-03     14.1886E-03    -170.946E-03     340.888E-03    -171.065E-03     13.3086E-03
            2401     13.6318E-03     5.17638E-03    -5.60947E+06     64.0228E+06     85.9108E+06     912.832E+03    -313.348E-03     538.425E-03    -225.076E-03     130.282E-03    -319.160E-03     544.188E-03    -224.731E-03     95.3765E-03
            2402     13.0037E-03     4.92961E-03    -8.88851E+06     60.0040E+06     84.8078E+06     58.9446E+03    -324.742E-03     544.711E-03    -219.969E-03     142.940E-03    -332.411E-03     552.314E-03    -219.619E-03     99.4615E-03
            2403     12.3628E-03     4.74566E-03    -13.3015E+06     48.3310E+06     80.6264E+06     1.05734E+06    -317.188E-03     531.320E-03    -214.132E-03     118.777E-03    -323.788E-03     537.821E-03    -213.780E-03     78.4582E-03
            2404     11.7000E-03     4.58208E-03    -21.9200E+06     35.1711E+06     75.1646E+06     4.12692E+06    -296.686E-03     505.082E-03    -208.396E-03     104.784E-03    -302.293E-03     510.533E-03    -208.040E-03     69.6882E-03
            2405     11.0350E-03     4.47379E-03    -29.7233E+06     22.5169E+06     67.9573E+06     6.23559E+06    -271.475E-03     474.829E-03    -203.354E-03     98.1694E-03    -276.006E-03     479.153E-03    -203.003E-03     69.5888E-03
            2406     10.3407E-03     4.40086E-03    -36.2582E+06     10.6555E+06     58.1976E+06     6.87287E+06    -249.094E-03     448.316E-03    -199.222E-03     100.727E-03    -252.847E-03     451.822E-03    -198.894E-03     77.7013E-03
            2407     9.63164E-03     4.35015E-03    -41.5954E+06     189.660E+03     50.8583E+06     6.76680E+06    -232.035E-03     427.973E-03    -195.939E-03     103.778E-03    -235.157E-03     430.813E-03    -195.624E-03     85.0576E-03
            2408     8.91294E-03     4.31217E-03    -47.0172E+06    -10.9494E+06     46.2312E+06     6.46209E+06    -218.804E-03     412.153E-03    -193.349E-03     104.758E-03    -221.383E-03     414.402E-03    -193.034E-03     89.4503E-03
            2409     8.18574E-03     4.28923E-03    -53.4954E+06    -21.8463E+06     45.1711E+06     5.49451E+06    -208.717E-03     400.049E-03    -191.332E-03     104.194E-03    -210.854E-03     401.795E-03    -190.997E-03     91.5966E-03
            2410     7.45219E-03     4.27211E-03    -60.4677E+06    -48.5516E+06     39.2466E+06     2.95329E+06    -201.323E-03     391.079E-03    -189.756E-03     101.820E-03    -203.068E-03     392.327E-03    -189.401E-03     91.3640E-03
            2411     6.71387E-03     4.26288E-03    -66.8081E+06    -92.0662E+06     24.5117E+06    -849.387E+03    -195.946E-03     384.452E-03    -188.506E-03     97.6413E-03    -197.322E-03     385.194E-03    -188.154E-03     88.9066E-03
            2412     5.97311E-03     4.25607E-03    -71.4943E+06    -128.102E+06     8.96304E+06    -5.91022E+06    -192.098E-03     379.614E-03    -187.516E-03     91.4119E-03    -193.156E-03     379.934E-03    -187.181E-03     84.0932E-03
            2413     5.22943E-03     4.25359E-03    -75.1230E+06    -165.077E+06    -7.58733E+06    -10.1675E+06    -189.399E-03     376.138E-03    -186.739E-03     83.5358E-03    -190.176E-03     376.078E-03    -186.428E-03     77.4121E-03
            2414     4.48461E-03     4.25175E-03    -79.4011E+06    -204.316E+06    -26.9363E+06    -11.5080E+06    -187.533E-03     373.664E-03    -186.131E-03     74.2123E-03    -188.066E-03     373.259E-03    -185.854E-03     69.1559E-03
            2415     3.73765E-03     4.25175E-03    -84.9281E+06    -230.016E+06    -45.8221E+06    -10.7895E+06    -186.406E-03     372.048E-03    -185.642E-03     63.5365E-03    -186.755E-03     371.400E-03    -185.415E-03     59.4536E-03
            2416     2.99101E-03     4.25153E-03    -91.2331E+06    -255.296E+06    -63.7940E+06    -6.77642E+06    -185.704E-03     370.951E-03    -185.247E-03     51.8842E-03    -185.907E-03     370.096E-03    -185.063E-03     48.7160E-03
            2417     2.24434E-03     4.25255E-03    -97.5568E+06    -278.055E+06    -81.4481E+06    -2.29041E+06    -185.175E-03     370.095E-03    -184.920E-03     39.6608E-03    -185.263E-03     369.071E-03    -184.783E-03     37.3648E-03
            2418     1.49656E-03     4.25186E-03    -102.783E+06    -288.678E+06    -95.1072E+06    -599.822E+03    -184.744E-03     369.420E-03    -184.676E-03     27.2526E-03    -184.763E-03     368.309E-03    -184.584E-03     25.7385E-03
            2419     748.299E-06     4.25354E-03    -106.592E+06    -295.825E+06    -104.293E+06     255.824E+03    -184.519E-03     369.054E-03    -184.535E-03     14.9414E-03    -184.498E-03     367.890E-03    -184.473E-03     14.1275E-03
            2420     13.6811E-03     3.52430E-03    -7.74907E+06     64.2102E+06     81.6546E+06    -1.45844E+06    -338.681E-03     563.903E-03    -225.222E-03     156.010E-03    -345.198E-03     570.380E-03    -224.896E-03     118.486E-03
            2421     13.0240E-03     3.29047E-03    -8.13851E+06     55.7014E+06     80.8927E+06     1.00497E+06    -331.953E-03     551.346E-03    -219.393E-03     143.961E-03    -339.130E-03     558.464E-03    -219.058E-03     102.469E-03
            2422     12.3673E-03     3.12524E-03    -13.3568E+06     41.8749E+06     76.7346E+06     5.35008E+06    -303.097E-03     516.901E-03    -213.804E-03     114.397E-03    -308.208E-03     521.911E-03    -213.461E-03     81.4716E-03
            2423     11.7060E-03     3.02293E-03    -18.0427E+06     32.5822E+06     76.4506E+06      7.7186E+06    -271.944E-03     481.228E-03    -209.284E-03     108.447E-03    -275.886E-03     485.018E-03    -208.923E-03     82.8048E-03
            2424     11.0016E-03     2.96886E-03    -23.9608E+06     23.0797E+06     73.6880E+06     7.74031E+06    -247.732E-03     453.634E-03    -205.902E-03     108.773E-03    -250.817E-03     456.513E-03    -205.532E-03     89.1315E-03
            2425     10.2897E-03     2.92900E-03    -30.6487E+06     12.9615E+06     67.0339E+06     6.36727E+06    -231.443E-03     434.848E-03    -203.405E-03     109.116E-03    -233.930E-03     437.086E-03    -203.044E-03     93.6336E-03
            2426     9.57041E-03     2.89975E-03    -37.8190E+06     2.13717E+06     58.4371E+06     4.54196E+06    -219.493E-03     421.057E-03    -201.565E-03     106.849E-03    -221.497E-03     422.772E-03    -201.221E-03     94.3989E-03
            2427     8.84313E-03     2.88325E-03    -44.0465E+06    -8.34799E+06     50.8308E+06     2.38821E+06    -210.845E-03     411.097E-03    -200.252E-03     103.579E-03    -212.484E-03     412.406E-03    -199.922E-03     93.3671E-03
            2428     8.11114E-03     2.87057E-03    -48.8872E+06    -17.5597E+06     44.9881E+06    -619.458E+03    -205.042E-03     404.387E-03    -199.346E-03     99.0882E-03    -206.398E-03     405.378E-03    -199.024E-03     90.5331E-03
            2429     7.37684E-03     2.86428E-03    -52.5075E+06    -44.3819E+06     33.8060E+06    -5.11323E+06    -201.349E-03     400.076E-03    -198.727E-03     93.3788E-03    -202.441E-03     400.725E-03    -198.418E-03     86.0815E-03
            2430     6.64098E-03     2.85994E-03    -55.1568E+06    -87.2767E+06     15.9668E+06    -11.0314E+06    -199.122E-03     397.426E-03    -198.304E-03     86.7040E-03    -199.956E-03     397.704E-03    -198.018E-03     80.3871E-03
            2431     5.90347E-03     2.85855E-03    -58.0550E+06    -126.394E+06    -2.53353E+06    -15.0914E+06    -197.848E-03     395.865E-03    -198.017E-03     79.1380E-03    -198.462E-03     395.827E-03    -197.763E-03     73.6636E-03
            2432     5.16603E-03     2.85791E-03    -63.1133E+06    -171.997E+06    -19.8213E+06    -15.0732E+06    -197.308E-03     395.151E-03    -197.843E-03     70.6556E-03    -197.732E-03     394.791E-03    -197.601E-03     65.9613E-03
            2433     4.42792E-03     2.85918E-03    -70.4267E+06    -213.307E+06    -36.5571E+06    -12.4574E+06    -197.117E-03     394.840E-03    -197.724E-03     61.5739E-03    -197.389E-03     394.203E-03    -197.495E-03     57.6307E-03
            2434     3.69070E-03     2.85930E-03    -78.7256E+06    -241.782E+06    -54.7912E+06    -8.20561E+06    -197.018E-03     394.641E-03    -197.623E-03     52.0824E-03    -197.178E-03     393.813E-03    -197.432E-03     48.8792E-03
            2435     2.95261E-03     2.86089E-03    -86.4504E+06    -268.135E+06    -70.8485E+06    -4.02900E+06    -197.077E-03     394.641E-03    -197.564E-03     42.3633E-03    -197.145E-03     393.647E-03    -197.404E-03     39.8571E-03
            2436     2.21413E-03     2.86157E-03    -91.7505E+06    -283.969E+06    -81.7293E+06    -1.15508E+06    -197.165E-03     394.705E-03    -197.540E-03     32.4778E-03    -197.169E-03     393.602E-03    -197.404E-03     30.6295E-03
            2437     1.47585E-03     2.86352E-03    -94.9941E+06    -290.497E+06    -89.8146E+06     461.968E+03    -197.263E-03     394.814E-03    -197.551E-03     22.1200E-03    -197.225E-03     393.657E-03    -197.441E-03     20.8955E-03
            2438     737.428E-06     2.86322E-03    -97.3127E+06    -294.766E+06    -95.8600E+06     628.995E+03    -197.581E-03     395.064E-03    -197.483E-03     12.0682E-03    -197.517E-03     393.875E-03    -197.394E-03     11.4130E-03
            2439     13.6163E-03     1.78469E-03    -3.50535E+06     65.0910E+06     87.9718E+06     1.03811E+06    -382.003E-03     609.313E-03    -227.310E-03     173.896E-03    -387.437E-03     614.709E-03    -226.959E-03     141.812E-03
            2440     13.0120E-03     1.62601E-03    -7.68651E+06     50.0853E+06     81.9974E+06     2.56130E+06    -332.368E-03     553.048E-03    -220.680E-03     128.197E-03    -336.636E-03     557.260E-03    -220.332E-03     101.191E-03
            2441     12.3575E-03     1.55462E-03    -12.3378E+06     38.2026E+06     78.8762E+06     3.06487E+06    -286.281E-03     502.001E-03    -215.720E-03     104.778E-03    -288.800E-03     504.402E-03    -215.363E-03     86.4128E-03
            2442     11.6454E-03     1.51499E-03    -15.0545E+06     30.5404E+06      79.552E+06     4.12067E+06    -255.615E-03     467.962E-03    -212.346E-03     92.0094E-03    -257.398E-03     469.574E-03    -211.971E-03     79.2470E-03
            2443     10.9408E-03     1.48437E-03    -18.6748E+06     23.3943E+06     75.8503E+06     5.52663E+06    -237.420E-03     447.464E-03    -210.044E-03     82.1881E-03    -238.738E-03     448.583E-03    -209.672E-03     72.7168E-03
            2444     10.2267E-03     1.46476E-03    -22.9626E+06     15.7416E+06     64.4120E+06     5.69813E+06    -225.542E-03     433.953E-03    -208.411E-03     75.8172E-03    -226.568E-03     434.770E-03    -208.079E-03     68.3159E-03
            2445     9.50379E-03     1.45479E-03    -28.0849E+06     6.95959E+06     48.7948E+06     3.74183E+06    -217.052E-03     424.329E-03    -207.277E-03     70.5838E-03    -217.873E-03     424.934E-03    -207.002E-03     64.5196E-03
            2446     8.77724E-03     1.44633E-03    -33.2711E+06    -2.10235E+06     33.9925E+06    -293.282E+03    -211.515E-03     418.055E-03    -206.541E-03     65.4816E-03    -212.192E-03     418.508E-03    -206.319E-03     60.3712E-03
            2447     8.04848E-03     1.44199E-03    -38.5261E+06    -11.5817E+06     18.5329E+06    -4.66316E+06    -207.983E-03     414.071E-03    -206.088E-03     60.1844E-03    -208.549E-03     414.403E-03    -205.922E-03     55.7745E-03
            2448     7.31722E-03     1.43856E-03    -43.9752E+06    -38.1182E+06     964.188E+03    -9.62823E+06    -205.892E-03     411.748E-03    -205.857E-03     55.0152E-03    -206.344E-03     411.904E-03    -205.733E-03     51.1156E-03
            2449     6.58518E-03     1.43719E-03    -50.0501E+06    -84.8660E+06    -15.6337E+06    -13.7163E+06    -204.860E-03     410.663E-03    -205.804E-03     49.9052E-03    -205.191E-03     410.558E-03    -205.686E-03     46.4263E-03
            2450     5.85322E-03     1.43667E-03    -57.8332E+06    -134.785E+06    -29.7315E+06    -12.9559E+06    -204.469E-03     410.334E-03    -205.865E-03     44.8634E-03    -204.696E-03     409.960E-03    -205.734E-03     41.8162E-03
            2451     5.12064E-03     1.43673E-03    -66.6386E+06    -183.399E+06    -41.5090E+06    -9.31339E+06    -204.548E-03     410.540E-03    -205.992E-03     39.8228E-03    -204.690E-03     409.911E-03    -205.837E-03     37.2182E-03
            2452     4.38904E-03     1.43714E-03    -74.9708E+06    -224.803E+06    -51.4416E+06    -5.85719E+06    -204.860E-03     411.001E-03    -206.141E-03     34.7487E-03    -204.933E-03     410.156E-03    -205.964E-03     32.5560E-03
            2453     3.65639E-03     1.43871E-03    -81.8680E+06    -252.962E+06    -63.3525E+06    -2.36326E+06    -205.202E-03     411.469E-03    -206.268E-03     29.5065E-03    -205.222E-03     410.482E-03    -206.099E-03     27.7230E-03
            2454     2.92437E-03     1.43933E-03    -86.7132E+06    -273.523E+06    -75.0429E+06    -363.422E+03    -205.585E-03     411.970E-03    -206.385E-03     23.7884E-03    -205.560E-03     410.879E-03    -206.237E-03     22.3886E-03
            2455     2.19292E-03     1.44053E-03    -90.0431E+06    -286.624E+06    -83.0021E+06    -209.972E+03    -206.013E-03     412.506E-03    -206.493E-03     17.8594E-03    -205.955E-03     411.347E-03    -206.362E-03     16.8063E-03
            2456     1.46184E-03     1.44039E-03    -92.2833E+06    -291.307E+06    -88.3800E+06    -189.042E+03    -206.391E-03     412.946E-03    -206.555E-03     12.0736E-03    -206.315E-03     411.761E-03    -206.441E-03     11.3639E-03
            2457     731.584E-06     1.44098E-03    -93.3754E+06    -293.808E+06    -92.1956E+06     130.336E+03    -206.585E-03     413.106E-03    -206.521E-03     6.62959E-03    -206.498E-03     411.908E-03    -206.421E-03     6.24841E-03


