********************************************************************************
Field Output Report, written Mon Aug 12 21:33:02 2024

Source 1
---------

   ODB: G:/Abaqus_calc_2019/1740/Vel_40/odb/zeides_2a_32_red_1000_cal_75_vel_40_fric_050.odb
   Step: Step-1
   Frame: Increment   2486503: Step Time =   0.2860

Loc 1 : Nodal values from source 1

Output sorted by column "Nodal Label".

Field Output reported at nodes for region: DIE_2A_32_D0_36-1.Region_1
   Computation algorithm: EXTRAPOLATE_COMPUTE_AVERAGE
   Averaged at nodes
   Averaging regions: ODB_REGIONS

      Node Label     COORD.COOR1     COORD.COOR2
                          @Loc 1          @Loc 1
-------------------------------------------------
               1     20.6653E-03     127.937E-03


Field Output reported at nodes for region: DIE_2A_32_D0_36-1.Region_2
   Computation algorithm: EXTRAPOLATE_COMPUTE_AVERAGE
   Averaged at nodes
   Averaging regions: ODB_REGIONS

      Node Label     COORD.COOR1     COORD.COOR2
                          @Loc 1          @Loc 1
-------------------------------------------------
               1     20.6653E-03     127.937E-03


Field Output reported at nodes for part: WIRE-1
   Computation algorithm: EXTRAPOLATE_COMPUTE_AVERAGE
   Averaged at nodes
   Averaging regions: ODB_REGIONS

      Node Label     COORD.COOR1     COORD.COOR2           S.S11           S.S22           S.S33           S.S12         PE.PE11         PE.PE22         PE.PE33         PE.PE12         LE.LE11         LE.LE22         LE.LE33         LE.LE12
                          @Loc 1          @Loc 1          @Loc 1          @Loc 1          @Loc 1          @Loc 1          @Loc 1          @Loc 1          @Loc 1          @Loc 1          @Loc 1          @Loc 1          @Loc 1          @Loc 1
-------------------------------------------------------------------------------------------------------------------------------------------------------------------------------------------------------------------------------------------------
               1    -547.290E-09     67.2675E-03     -96.404E+06    -244.647E+06    -96.5392E+06     545.188E+03    -110.736E-03     221.362E-03    -110.625E-03     9.21742E-03    -110.727E-03     220.422E-03    -110.613E-03     9.02833E-03
               2     16.1189E-03     69.7976E-03    -4.59240E+06     122.601E+06     93.5052E+06     1.06459E+06    -112.291E-03     222.655E-03    -110.365E-03     50.3070E-03    -114.067E-03     224.580E-03    -110.068E-03     46.8338E-03
               3     15.4795E-03     139.458E-03     7.77263E+06    -29.3992E+06     47.3686E+06     37.0326E+06     74.5647E-03     62.5675E-03    -137.132E-03     175.629E-06     74.4672E-03     62.2302E-03    -136.864E-03     653.483E-06
               4    -8.37477E-06     134.362E-03     48.1224E+06    -2.16345E+06     42.7023E+06    -1.43216E+06    -102.133E-03     209.464E-03    -107.331E-03    -10.0844E-03    -101.982E-03     209.290E-03    -107.184E-03    -10.1283E-03
               5    -278.541E-09     152.656E-18    -53.3366E+06    -192.611E+06    -52.2505E+06     2.33430E+06    -113.374E-03     226.416E-03    -113.042E-03     1.59053E-03    -113.285E-03     225.606E-03    -112.947E-03     1.60283E-03
               6     15.7451E-03     152.656E-18     28.3651E+06     134.440E+06     118.032E+06    -2.46052E+06    -219.618E-03     345.931E-03    -126.314E-03     200.694E-03    -222.300E-03     348.787E-03    -125.960E-03     191.480E-03
               7     805.607E-06     67.2792E-03    -95.5126E+06    -242.879E+06    -93.6766E+06     231.956E+03    -110.691E-03     221.326E-03    -110.635E-03     15.3608E-03    -110.693E-03     220.398E-03    -110.612E-03     15.0297E-03
               8     1.61154E-03     67.3029E-03    -92.7648E+06    -237.873E+06    -85.9707E+06    -37.9874E+03    -110.765E-03     221.413E-03    -110.648E-03     28.2016E-03    -110.799E-03     220.523E-03    -110.598E-03     27.5748E-03
               9     2.41716E-03     67.3421E-03    -88.8647E+06    -230.466E+06    -74.8346E+06     120.390E+03    -110.962E-03     221.626E-03    -110.664E-03     41.5885E-03    -111.051E-03     220.798E-03    -110.575E-03     40.6400E-03
              10     3.22356E-03     67.3957E-03    -83.7501E+06    -221.167E+06    -61.4909E+06     240.371E+03    -111.228E-03     221.917E-03    -110.689E-03     55.0411E-03    -111.395E-03     221.180E-03    -110.555E-03     53.7413E-03
              11     4.02897E-03     67.4651E-03    -77.6686E+06    -210.803E+06    -47.6985E+06     262.044E+03    -111.613E-03     222.331E-03    -110.718E-03     68.0054E-03    -111.883E-03     221.716E-03    -110.538E-03     66.3133E-03
              12     4.83501E-03     67.5476E-03    -71.7466E+06    -194.289E+06    -36.4363E+06     220.056E+03    -111.972E-03     222.700E-03    -110.728E-03     80.6863E-03    -112.387E-03     222.276E-03    -110.524E-03     78.5556E-03
              13     5.64089E-03     67.6445E-03    -66.0164E+06    -178.634E+06    -26.1236E+06     126.964E+03    -112.384E-03     223.115E-03    -110.731E-03     93.1502E-03    -112.983E-03     222.922E-03    -110.507E-03     90.5334E-03
              14     6.44678E-03     67.7549E-03    -60.4607E+06    -164.007E+06    -17.6014E+06    -101.268E+03    -112.865E-03     223.594E-03    -110.729E-03     105.215E-03    -113.699E-03     223.682E-03    -110.492E-03     102.046E-03
              15     7.25284E-03     67.8782E-03    -55.1385E+06    -142.520E+06    -11.1189E+06     248.244E+03    -113.257E-03     223.965E-03    -110.708E-03     117.076E-03    -114.396E-03     224.434E-03    -110.477E-03     113.308E-03
              16     8.05845E-03     68.0145E-03    -50.6546E+06    -118.626E+06    -5.33266E+06     339.612E+03    -113.566E-03     224.241E-03    -110.675E-03     128.469E-03    -115.099E-03     225.189E-03    -110.457E-03     124.028E-03
              17     8.86519E-03     68.1624E-03    -46.5155E+06    -91.6837E+06    -283.914E+03     153.116E+03    -113.810E-03     224.440E-03    -110.630E-03     139.246E-03    -115.841E-03     225.982E-03    -110.431E-03     134.054E-03
              18     9.67079E-03     68.3218E-03    -42.4291E+06    -54.2942E+06     4.59728E+06     354.364E+03    -113.915E-03     224.481E-03    -110.566E-03     149.569E-03    -116.584E-03     226.794E-03    -110.403E-03     143.568E-03
              19     10.4779E-03     68.4917E-03    -38.5100E+06    -1.29685E+06     12.2824E+06     204.198E+03    -113.888E-03     224.377E-03    -110.489E-03     160.997E-03    -117.429E-03     227.740E-03    -110.369E-03     154.084E-03
              20     11.2834E-03     68.6752E-03    -34.7351E+06     57.9902E+06     22.7004E+06    -202.828E+03    -114.129E-03     224.541E-03    -110.412E-03     176.804E-03    -118.907E-03     229.336E-03    -110.333E-03     168.851E-03
              21     12.0903E-03     68.8800E-03    -31.0393E+06     95.4872E+06     44.0440E+06     57.9997E+03    -114.536E-03     224.959E-03    -110.423E-03     196.804E-03    -120.997E-03     231.521E-03    -110.296E-03     187.761E-03
              22     12.8962E-03     69.1078E-03    -24.9705E+06     110.340E+06     75.5012E+06     614.997E+03    -114.083E-03     224.589E-03    -110.506E-03     209.050E-03    -122.094E-03     232.684E-03    -110.252E-03     199.465E-03
              23     13.7057E-03     69.3408E-03    -17.1627E+06     121.211E+06     95.7170E+06     34.0810E+03    -111.490E-03     222.001E-03    -110.511E-03     192.955E-03    -119.590E-03     230.193E-03    -110.183E-03     184.158E-03
              24     14.5100E-03     69.5309E-03    -8.95375E+06     133.765E+06     104.627E+06     89.6320E+03    -109.311E-03     219.740E-03    -110.429E-03     177.488E-03    -117.285E-03     227.853E-03    -110.087E-03     169.861E-03
              25     15.3272E-03     69.7393E-03    -4.53499E+06     132.401E+06     100.770E+06     882.846E+03    -110.717E-03     221.086E-03    -110.369E-03     115.103E-03    -115.783E-03     226.314E-03    -110.051E-03     109.739E-03
              26     16.1267E-03     70.9842E-03     131.419E+03     126.476E+06     96.4388E+06     2.05474E+06    -105.622E-03     216.126E-03    -110.504E-03     57.4527E-03    -107.516E-03     218.191E-03    -110.206E-03     54.2296E-03
              27     16.1203E-03     72.1542E-03    -1.89341E+06     126.473E+06     95.7243E+06     104.170E+03    -105.316E-03     215.818E-03    -110.501E-03     55.9606E-03    -107.215E-03     217.882E-03    -110.203E-03     52.7339E-03
              28     16.1259E-03     73.3288E-03    -3.32992E+06     125.856E+06     95.1278E+06    -193.747E+03    -109.596E-03     219.993E-03    -110.397E-03     50.6643E-03    -111.404E-03     221.960E-03    -110.099E-03     47.2764E-03
              29     16.1206E-03     74.5209E-03    -3.25214E+06     126.121E+06     95.5918E+06     186.931E+03    -110.426E-03     220.828E-03    -110.402E-03     50.9885E-03    -112.239E-03     222.801E-03    -110.102E-03     47.5619E-03
              30     16.1240E-03     75.7058E-03    -1.87593E+06     126.131E+06     95.4026E+06     881.900E+03    -107.066E-03     217.528E-03    -110.462E-03     53.9113E-03    -108.913E-03     219.541E-03    -110.166E-03     50.6287E-03
              31     16.1241E-03     76.8747E-03    -1.42805E+06     126.949E+06     96.1224E+06    -319.141E+03    -107.345E-03     217.769E-03    -110.424E-03     53.1712E-03    -109.186E-03     219.778E-03    -110.126E-03     49.8546E-03
              32     16.1226E-03     78.0670E-03    -3.73919E+06     125.772E+06     95.0017E+06    -415.275E+03    -109.584E-03     219.982E-03    -110.398E-03     51.0014E-03    -111.406E-03     221.961E-03    -110.100E-03     47.5963E-03
              33     16.1235E-03     79.2417E-03    -2.77079E+06     126.222E+06     95.3141E+06    -577.165E+03    -109.338E-03     219.738E-03    -110.400E-03     50.9756E-03    -111.151E-03     221.713E-03    -110.103E-03     47.5661E-03
              34     16.1234E-03     80.4285E-03    -2.91760E+06     126.002E+06     95.4181E+06    -42.5846E+03    -108.946E-03     219.347E-03    -110.401E-03     48.6076E-03    -110.719E-03     221.280E-03    -110.102E-03     45.2718E-03
              35     16.1233E-03     81.6083E-03    -3.15934E+06     126.439E+06     95.8354E+06     253.726E+03    -108.768E-03     219.200E-03    -110.433E-03     50.5245E-03    -110.583E-03     221.175E-03    -110.132E-03     47.1893E-03
              36     16.1220E-03     82.7947E-03    -3.54517E+06     125.863E+06     95.0778E+06     295.310E+03    -108.362E-03     218.789E-03    -110.427E-03     52.5566E-03    -110.197E-03     220.783E-03    -110.129E-03     49.2142E-03
              37     16.1256E-03     83.9721E-03    -1.22980E+06     128.077E+06     97.2180E+06     337.660E+03    -108.807E-03     219.219E-03    -110.412E-03     54.3689E-03    -110.660E-03     221.240E-03    -110.110E-03     50.9798E-03
              38     16.1203E-03     85.1635E-03    -2.85019E+06     126.548E+06     95.6967E+06     489.167E+03    -108.970E-03     219.413E-03    -110.443E-03     52.2564E-03    -110.805E-03     221.410E-03    -110.144E-03     48.8732E-03
              39     16.1248E-03     86.3310E-03    -3.15158E+06     125.993E+06     95.1220E+06    -227.702E+03    -107.927E-03     218.375E-03    -110.447E-03     50.4507E-03    -109.740E-03     220.348E-03    -110.150E-03     47.1240E-03
              40     16.1224E-03     87.5216E-03    -1.44559E+06     127.981E+06     97.1084E+06    -577.396E+03    -108.288E-03     218.696E-03    -110.408E-03     51.5496E-03    -110.114E-03     220.689E-03    -110.106E-03     48.1976E-03
              41     16.1249E-03     88.7031E-03    -2.04978E+06     128.263E+06     97.5281E+06    -96.1803E+03    -109.797E-03     220.208E-03    -110.411E-03     53.8811E-03    -111.656E-03     222.232E-03    -110.106E-03     50.4476E-03
              42     16.1199E-03     89.8862E-03    -3.68671E+06     126.443E+06     95.6854E+06     760.591E+03    -109.938E-03     220.382E-03    -110.444E-03     51.4964E-03    -111.753E-03     222.356E-03    -110.144E-03     48.0846E-03
              43     16.1247E-03     91.0680E-03    -2.53227E+06     127.682E+06     96.4975E+06     401.515E+03    -107.112E-03     217.594E-03    -110.482E-03     50.4735E-03    -108.916E-03     219.563E-03    -110.181E-03     47.2062E-03
              44     16.1222E-03     92.2450E-03    -1.74608E+06     128.792E+06     97.4068E+06    -566.114E+03    -107.239E-03     217.680E-03    -110.441E-03     51.0919E-03    -109.067E-03     219.676E-03    -110.138E-03     47.8064E-03
              45     16.1249E-03     93.4271E-03    -3.49661E+06     127.227E+06     96.0127E+06    -422.962E+03    -111.265E-03     221.645E-03    -110.380E-03     50.8180E-03    -113.082E-03     223.623E-03    -110.079E-03     47.3393E-03
              46     16.1193E-03     94.6203E-03    -3.51203E+06     126.671E+06     95.2116E+06     1.46383E+06    -110.384E-03     220.797E-03    -110.413E-03     52.0579E-03    -112.194E-03     222.769E-03    -110.116E-03     48.6377E-03
              47     16.1270E-03     95.7967E-03    -910.979E+03     130.472E+06     98.4337E+06     1.22086E+06    -107.097E-03     217.570E-03    -110.473E-03     54.4395E-03    -108.957E-03     219.605E-03    -110.169E-03     51.1480E-03
              48     16.1192E-03     96.9815E-03    -1.49348E+06     130.834E+06     99.1313E+06     136.528E+03    -106.239E-03     216.730E-03    -110.491E-03     53.5308E-03    -108.102E-03     218.765E-03    -110.182E-03     50.2748E-03
              49     16.1276E-03     98.1516E-03    -3.00075E+06     128.067E+06     97.5125E+06    -1.14367E+06    -108.396E-03     218.820E-03    -110.424E-03     52.0809E-03    -110.232E-03     220.818E-03    -110.118E-03     48.7074E-03
              50     16.1191E-03     99.3395E-03    -3.51941E+06     126.707E+06     97.2121E+06    -296.987E+03    -111.272E-03     221.643E-03    -110.372E-03     50.4589E-03    -113.082E-03     223.611E-03    -110.065E-03     46.9797E-03
              51     16.1263E-03     100.531E-03    -1.75650E+06     129.801E+06     98.7993E+06     2.05297E+06    -108.293E-03     218.729E-03    -110.435E-03     52.5608E-03    -110.133E-03     220.738E-03    -110.127E-03     49.2393E-03
              52     16.1214E-03     101.701E-03    -2.19725E+06     131.550E+06     99.2136E+06     896.387E+03    -107.521E-03     217.959E-03    -110.438E-03     53.3514E-03    -109.381E-03     219.992E-03    -110.130E-03     50.0468E-03
              53     16.1251E-03     102.888E-03    -3.40578E+06     132.340E+06     99.0200E+06     470.192E+03    -108.979E-03     219.344E-03    -110.365E-03     51.3425E-03    -110.811E-03     221.347E-03    -110.057E-03     47.9593E-03
              54     16.1247E-03     104.066E-03    -3.20200E+06     134.480E+06     100.923E+06     -31.195E+03    -109.381E-03     219.720E-03    -110.339E-03     51.4434E-03    -111.224E-03     221.737E-03    -110.025E-03     48.0355E-03
              55     16.1231E-03     105.256E-03    -3.79067E+06     133.638E+06     100.122E+06     461.395E+03    -109.370E-03     219.708E-03    -110.337E-03     51.5605E-03    -111.213E-03     221.721E-03    -110.025E-03     48.1662E-03
              56     16.1267E-03     106.431E-03    -2.14330E+06     135.848E+06     101.894E+06    -290.205E+03    -108.467E-03     218.777E-03    -110.310E-03     53.2551E-03    -110.331E-03     220.820E-03    -109.994E-03     49.8532E-03
              57     16.1246E-03     107.620E-03    -2.80110E+06     135.611E+06     101.926E+06    -23.4803E+03    -107.598E-03     217.853E-03    -110.255E-03     52.5426E-03    -109.455E-03     219.886E-03    -109.938E-03     49.2060E-03
              58     16.1302E-03     108.790E-03    -1.31020E+06     136.117E+06     103.043E+06    -225.623E+03    -107.715E-03     217.858E-03    -110.143E-03     53.9876E-03    -109.595E-03     219.918E-03    -109.823E-03     50.6047E-03
              59     16.1281E-03     109.982E-03    -2.13024E+06     136.141E+06     103.662E+06     1.04517E+06    -107.794E-03     217.788E-03    -109.993E-03     53.7339E-03    -109.667E-03     219.836E-03    -109.669E-03     50.3654E-03
              60     16.1363E-03     111.154E-03    -1.60480E+06     138.193E+06     105.384E+06     1.05974E+06    -107.533E-03     217.333E-03    -109.800E-03     56.7359E-03    -109.449E-03     219.428E-03    -109.471E-03     53.3258E-03
              61     16.1350E-03     112.340E-03    -4.50809E+06     136.516E+06     103.697E+06     1.24340E+06    -109.873E-03     219.358E-03    -109.486E-03     56.1247E-03    -111.781E-03     221.435E-03    -109.158E-03     52.5786E-03
              62     16.1452E-03     113.516E-03    -3.49801E+06     139.227E+06     106.488E+06     1.56144E+06    -109.738E-03     218.879E-03    -109.141E-03     56.8916E-03    -111.655E-03     220.968E-03    -108.805E-03     53.3487E-03
              63     16.1486E-03     114.709E-03    -1.14099E+06     139.777E+06     108.469E+06     1.12391E+06    -107.735E-03     216.470E-03    -108.735E-03     60.3961E-03    -109.712E-03     218.624E-03    -108.393E-03     56.8924E-03
              64     16.1608E-03     115.874E-03    -2.41889E+06     139.018E+06     109.174E+06     828.810E+03    -112.161E-03     220.260E-03    -108.099E-03     62.4283E-03    -114.190E-03     222.459E-03    -107.751E-03     58.6339E-03
              65     16.1662E-03     117.068E-03    -4.32784E+06     138.647E+06     110.435E+06     270.834E+03    -120.292E-03     227.675E-03    -107.383E-03     61.6935E-03    -122.334E-03     229.876E-03    -107.026E-03     57.4637E-03
              66     16.1760E-03     118.274E-03    -2.88955E+06     139.061E+06     112.749E+06     1.46162E+06    -123.908E-03     230.708E-03    -106.800E-03     66.9853E-03    -126.088E-03     233.045E-03    -106.433E-03     62.4900E-03
              67     16.1828E-03     119.462E-03    -2.09688E+06     138.750E+06     114.087E+06     1.02075E+06    -130.853E-03     237.010E-03    -106.157E-03     70.8230E-03    -133.127E-03     239.440E-03    -105.785E-03     65.8711E-03
              68     16.1893E-03     120.682E-03    -3.87368E+06     135.278E+06     112.257E+06    -43.2702E+03    -143.361E-03     248.846E-03    -105.485E-03     72.2487E-03    -145.710E-03     251.338E-03    -105.114E-03     66.4860E-03
              69     16.1923E-03     121.909E-03    -3.13324E+06     133.894E+06     113.137E+06    -1.15261E+06    -154.502E-03     259.465E-03    -104.963E-03     79.0785E-03    -157.008E-03     262.110E-03    -104.587E-03     72.5136E-03
              70     16.1961E-03     123.155E-03    -2.03547E+06     127.761E+06     111.626E+06    -2.26635E+06    -164.754E-03     269.287E-03    -104.533E-03     85.7014E-03    -167.409E-03     272.067E-03    -104.157E-03     78.3290E-03
              71     16.1972E-03     124.402E-03    -3.81608E+06     119.140E+06     109.397E+06    -4.32096E+06    -177.002E-03     281.096E-03    -104.093E-03     92.7988E-03    -179.835E-03     284.023E-03    -103.713E-03     84.3732E-03
              72     16.2010E-03     125.676E-03     696.047E+03     112.766E+06     112.387E+06    -1.28178E+06    -189.540E-03     293.215E-03    -103.675E-03     97.6431E-03    -192.485E-03     296.240E-03    -103.278E-03     88.2092E-03
              73     16.2015E-03     126.959E-03    -4.28852E+06     103.802E+06     111.340E+06    -2.90515E+06    -202.030E-03     305.344E-03    -103.314E-03     105.464E-03    -205.277E-03     308.626E-03    -102.902E-03     94.5634E-03
              74     16.2023E-03     128.261E-03    -1.93609E+06     89.9669E+06     109.340E+06    -2.80097E+06    -217.622E-03     320.542E-03    -102.920E-03     115.573E-03    -221.117E-03     324.039E-03    -102.501E-03     103.009E-03
              75     16.2034E-03     129.588E-03    -4.92074E+06     77.2358E+06     110.762E+06    -3.90915E+06    -232.966E-03     335.523E-03    -102.556E-03     128.927E-03    -236.754E-03     339.257E-03    -102.107E-03     114.767E-03
              76     16.2044E-03     130.938E-03     1.98968E+06     67.8613E+06     120.096E+06    -924.273E+03    -243.747E-03     346.058E-03    -102.312E-03     145.385E-03    -247.957E-03     350.179E-03    -101.812E-03     129.648E-03
              77     16.2063E-03     132.289E-03    -9.29727E+06     52.3304E+06     127.040E+06    -7.06597E+06    -250.373E-03     352.546E-03    -102.172E-03     160.905E-03    -255.197E-03     357.162E-03    -101.599E-03     143.433E-03
              78     16.2069E-03     133.646E-03     4.47753E+06     52.7641E+06     145.170E+06     3.27253E+06    -254.778E-03     356.841E-03    -102.062E-03     178.250E-03    -260.117E-03     361.975E-03    -101.420E-03     159.669E-03
              79     16.2111E-03     135.016E-03    -5.35706E+06     67.9687E+06     156.445E+06     6.39223E+06    -244.445E-03     346.730E-03    -102.285E-03     211.967E-03    -250.921E-03     353.008E-03    -101.594E-03     192.751E-03
              80     16.2101E-03     136.387E-03    -16.7376E+06     49.7233E+06     115.681E+06    -12.3174E+06    -190.178E-03     293.635E-03    -103.457E-03     269.635E-03    -196.690E-03     299.971E-03    -102.927E-03     254.933E-03
              81     16.2159E-03     137.586E-03     4.45107E+06     4.03039E+06     61.2695E+06    -17.1293E+06    -68.5823E-03     177.719E-03    -109.136E-03     235.523E-03    -71.4964E-03     180.560E-03    -108.842E-03     230.511E-03
              82     15.9956E-03     138.525E-03    -8.27269E+06    -25.9758E+06     41.2678E+06     5.30608E+06     42.7110E-03     82.8183E-03    -125.529E-03     83.0304E-03     42.4864E-03     82.7482E-03    -125.273E-03     83.0555E-03
              83     14.6693E-03     138.991E-03     7.88392E+06     25.9517E+06     102.102E+06    -3.92149E+06     66.0628E-03     73.6749E-03    -139.738E-03     16.8774E-03     65.9190E-03     73.6580E-03    -139.276E-03     16.8273E-03
              84     13.7652E-03     138.541E-03    -6.75710E+06    -336.624E+03     126.108E+06    -18.9453E+06     34.7420E-03     108.539E-03    -143.281E-03    -7.75759E-03     34.5523E-03     108.412E-03    -142.640E-03    -8.11913E-03
              85     13.0072E-03     138.044E-03    -6.51267E+06    -17.8629E+06     111.492E+06    -15.3347E+06     7.71632E-03     136.146E-03    -143.863E-03    -48.1902E-03     7.49013E-03     135.865E-03    -143.270E-03    -48.6495E-03
              86     12.2444E-03     137.560E-03     5.13342E+06    -3.35012E+06     120.003E+06    -14.1639E+06    -3.24599E-03     146.344E-03    -143.099E-03    -63.9799E-03    -3.41079E-03     146.090E-03    -142.501E-03    -64.5438E-03
              87     11.4769E-03     137.117E-03     11.6747E+06    -14.0419E+06     121.090E+06    -1.75244E+06    -19.7812E-03     161.470E-03    -141.689E-03    -101.553E-03    -19.8372E-03     161.067E-03    -141.080E-03    -102.182E-03
              88     10.7348E-03     136.701E-03     21.2214E+06      -626.5E+03     120.850E+06    -2.05896E+06    -38.5185E-03     177.702E-03    -139.183E-03    -136.622E-03    -38.4864E-03     177.239E-03    -138.609E-03    -137.478E-03
              89     9.99803E-03     136.329E-03     22.7302E+06    -5.23773E+06     114.921E+06     4.38411E+06    -56.0515E-03     191.933E-03    -135.881E-03    -159.045E-03    -55.9546E-03     191.381E-03    -135.332E-03    -159.953E-03
              90     9.26639E-03     135.993E-03     25.0689E+06     4.07699E+06     111.893E+06     2.88207E+06    -71.6916E-03     203.860E-03    -132.169E-03    -168.617E-03    -71.5819E-03     203.333E-03    -131.651E-03    -169.594E-03
              91     8.53007E-03     135.700E-03     26.6160E+06     1.32719E+06     105.449E+06     2.71760E+06    -84.8634E-03     213.181E-03    -128.318E-03    -166.619E-03    -84.7478E-03     212.664E-03    -127.831E-03    -167.581E-03
              92     7.78974E-03     135.441E-03     28.8123E+06     2.06887E+06     100.533E+06     872.700E+03    -94.9940E-03     219.508E-03    -124.514E-03    -156.206E-03    -94.8944E-03     219.037E-03    -124.056E-03    -157.123E-03
              93     7.04231E-03     135.218E-03     30.7169E+06    -2.15853E+06     93.6087E+06     1.31384E+06    -101.775E-03     222.690E-03    -120.915E-03    -140.341E-03    -101.682E-03     222.257E-03    -120.489E-03    -141.152E-03
              94     6.28455E-03     135.026E-03     31.7953E+06     121.660E+03     86.6835E+06      782.78E+03    -105.914E-03     223.527E-03    -117.613E-03    -122.344E-03    -105.839E-03     223.162E-03    -117.226E-03    -123.048E-03
              95     5.52023E-03     134.863E-03     32.5110E+06     200.855E+03     80.9225E+06     264.788E+03    -107.764E-03     222.444E-03    -114.680E-03    -103.839E-03    -107.702E-03     222.129E-03    -114.323E-03    -104.436E-03
              96     4.74610E-03     134.727E-03     33.3714E+06     1.47249E+06     75.9002E+06    -965.421E+03    -108.184E-03     220.335E-03    -112.151E-03    -86.1080E-03    -108.129E-03     220.069E-03    -111.822E-03    -86.6096E-03
              97     3.96561E-03     134.616E-03     34.6549E+06     455.343E+03     67.5612E+06    -2.33476E+06    -107.834E-03     217.838E-03    -110.004E-03    -69.8699E-03    -107.774E-03     217.603E-03    -109.717E-03    -70.2884E-03
              98     3.17901E-03     134.527E-03     36.7703E+06    -719.182E+03     58.4181E+06    -2.92992E+06    -107.073E-03     215.309E-03    -108.237E-03    -54.8568E-03    -106.996E-03     215.098E-03    -107.997E-03    -55.1952E-03
              99     2.38780E-03     134.458E-03     39.5036E+06    -659.917E+03     51.4829E+06    -2.71524E+06    -106.135E-03     213.015E-03    -106.879E-03    -40.5299E-03    -106.044E-03     212.821E-03    -106.678E-03    -40.7803E-03
             100     1.59398E-03     134.409E-03     42.4085E+06    -1.07527E+06     48.1825E+06    -2.63097E+06    -105.661E-03     211.556E-03    -105.896E-03    -27.0487E-03    -105.555E-03     211.370E-03    -105.715E-03    -27.2242E-03
             101     797.999E-06     134.381E-03     45.9933E+06    -2.12314E+06     44.9778E+06    -1.97843E+06    -103.898E-03     210.304E-03    -106.406E-03    -15.3861E-03    -103.765E-03     210.123E-03    -106.245E-03    -15.4784E-03
             102     4.37531E-06     133.198E-03     27.3715E+06    -8.51344E+06     27.9697E+06    -1.97166E+06    -90.9061E-03     182.484E-03    -91.5783E-03    -5.77486E-03    -90.8228E-03     182.336E-03    -91.4658E-03    -5.84007E-03
             103    -1.04921E-06     132.091E-03    -5.82177E+06    -20.9442E+06    -3.05883E+06    -4.39626E+06    -68.8059E-03     136.161E-03    -67.3554E-03    -262.701E-06    -68.8151E-03     136.055E-03    -67.3319E-03    -364.415E-06
             104     288.194E-09     131.025E-03    -41.7214E+06    -38.8259E+06    -42.5416E+06    -5.51729E+06    -52.2209E-03     104.842E-03    -52.6213E-03     3.68616E-03    -52.3181E-03     104.764E-03    -52.7172E-03     3.59020E-03
             105    -156.955E-09     129.985E-03    -86.6880E+06    -60.3651E+06    -85.3991E+06    -5.83092E+06    -43.3818E-03     86.6646E-03    -43.2827E-03     7.32793E-03    -43.6058E-03     86.6109E-03    -43.4965E-03     7.24340E-03
             106     202.865E-09     128.958E-03    -133.209E+06    -83.2348E+06    -132.476E+06    -7.25638E+06    -39.4891E-03     79.0043E-03    -39.5152E-03     9.71831E-03    -39.8427E-03     78.9732E-03    -39.8637E-03     9.62310E-03
             107    -326.364E-09     127.934E-03    -183.800E+06    -106.407E+06    -183.999E+06    -5.81364E+06    -40.3537E-03     80.5541E-03    -40.2004E-03     11.7394E-03    -40.8518E-03     80.5547E-03    -40.6996E-03     11.6688E-03
             108     652.030E-09     126.903E-03    -191.136E+06    -117.887E+06    -192.553E+06    -258.432E+03    -45.4418E-03     90.6086E-03    -45.1668E-03     13.0444E-03    -45.9490E-03     90.5733E-03    -45.6815E-03     13.0473E-03
             109    -578.498E-09     125.859E-03    -138.598E+06    -109.325E+06    -139.299E+06     4.90079E+06    -53.5776E-03     106.896E-03    -53.3183E-03     13.4216E-03    -53.9132E-03     106.749E-03    -53.6553E-03     13.4871E-03
             110     884.568E-09     124.793E-03    -94.6651E+06    -97.5770E+06    -92.6105E+06     1.92058E+06    -62.8163E-03     125.262E-03    -62.4453E-03     13.2271E-03    -63.0174E-03     125.042E-03    -62.6296E-03     13.2416E-03
             111    -591.328E-09     123.710E-03    -79.0562E+06    -99.3288E+06    -79.1160E+06    -2.82674E+06    -71.7492E-03     143.375E-03    -71.6257E-03     13.2458E-03    -71.8898E-03     143.106E-03    -71.7627E-03     13.1804E-03
             112     456.352E-09     122.604E-03    -72.4581E+06    -110.828E+06    -72.6522E+06    -3.31926E+06    -79.9297E-03     159.781E-03    -79.8509E-03     12.6906E-03    -80.0295E-03     159.436E-03    -79.9484E-03     12.6009E-03
             113    -247.785E-09     121.485E-03    -70.6477E+06    -126.261E+06    -70.6317E+06    -3.93276E+06    -86.9845E-03     173.642E-03    -86.6576E-03     12.3752E-03    -87.0558E-03     173.216E-03    -86.7252E-03     12.2536E-03
             114     523.901E-09     120.348E-03    -70.7587E+06    -141.161E+06    -71.0901E+06    -3.74634E+06    -93.0311E-03     185.825E-03    -92.7934E-03     11.9146E-03    -93.0810E-03     185.326E-03    -92.8416E-03     11.7691E-03
             115    -464.639E-09     119.202E-03    -73.4421E+06    -154.880E+06    -73.7344E+06    -3.19962E+06    -97.8615E-03     195.549E-03    -97.6878E-03     11.2012E-03    -97.9005E-03     194.991E-03    -97.7254E-03     11.0422E-03
             116     635.371E-09     118.042E-03    -78.0372E+06    -168.620E+06    -78.3539E+06    -2.53477E+06    -101.708E-03     203.083E-03    -101.374E-03     11.2152E-03    -101.744E-03     202.469E-03    -101.408E-03     11.0503E-03
             117    -318.431E-09     116.880E-03    -82.0807E+06    -180.777E+06    -81.7567E+06    -2.86165E+06    -104.790E-03     209.167E-03    -104.377E-03     10.5024E-03    -104.823E-03     208.504E-03    -104.405E-03     10.3105E-03
             118     628.848E-09     115.706E-03    -85.6815E+06    -192.249E+06    -86.2262E+06    -2.31924E+06    -106.963E-03     213.413E-03    -106.450E-03     10.0346E-03    -106.991E-03     212.705E-03    -106.478E-03     9.83107E-03
             119    -157.508E-09     114.534E-03    -89.8685E+06    -202.429E+06    -89.4093E+06    -1.94782E+06    -108.224E-03     216.179E-03    -107.955E-03     10.3872E-03    -108.254E-03     215.430E-03    -107.978E-03     10.1876E-03
             120     80.0787E-09     113.352E-03    -93.8798E+06    -212.147E+06    -94.9045E+06    -1.98026E+06    -108.906E-03     217.851E-03    -108.945E-03     9.97320E-03    -108.933E-03     217.068E-03    -108.976E-03     9.76689E-03
             121    -120.097E-09     112.179E-03    -97.4426E+06    -218.654E+06    -97.8399E+06    -1.43681E+06    -109.675E-03     219.436E-03    -109.761E-03     9.45721E-03    -109.707E-03     218.630E-03    -109.792E-03     9.23606E-03
             122    -19.4992E-09     110.992E-03    -100.235E+06    -224.219E+06    -99.7134E+06    -1.65553E+06    -110.600E-03     220.550E-03    -109.950E-03     9.46002E-03    -110.635E-03     219.723E-03    -109.979E-03     9.24404E-03
             123     1.17384E-06     109.814E-03    -102.898E+06    -231.498E+06    -103.408E+06    -869.170E+03    -110.545E-03     220.617E-03    -110.071E-03     9.95630E-03    -110.577E-03     219.763E-03    -110.104E-03     9.75948E-03
             124    -1.61218E-06     108.632E-03    -102.683E+06    -233.537E+06    -102.514E+06     42.8300E+03    -110.468E-03     221.036E-03    -110.567E-03     9.57055E-03    -110.498E-03     220.170E-03    -110.593E-03     9.37138E-03
             125     1.85412E-06     107.449E-03    -103.225E+06    -236.495E+06    -102.959E+06    -1.66074E+06    -110.904E-03     221.191E-03    -110.287E-03     8.94385E-03    -110.931E-03     220.312E-03    -110.309E-03     8.71877E-03
             126    -1.13126E-06     106.270E-03    -103.037E+06    -241.840E+06    -103.529E+06    -1.58890E+06    -110.586E-03     221.078E-03    -110.492E-03     9.13675E-03    -110.604E-03     220.173E-03    -110.510E-03     8.91117E-03
             127     519.753E-09     105.085E-03    -101.919E+06    -246.377E+06    -101.600E+06    -715.158E+03    -110.747E-03     221.569E-03    -110.822E-03     9.93011E-03    -110.756E-03     220.637E-03    -110.825E-03     9.72452E-03
             128    -68.4727E-09     103.902E-03    -100.919E+06    -249.613E+06    -101.372E+06     52.1213E+03    -111.067E-03     221.138E-03    -110.071E-03     9.98173E-03    -111.066E-03     220.188E-03    -110.070E-03     9.79281E-03
             129     1.17461E-06     102.723E-03    -100.747E+06    -250.789E+06    -101.047E+06    -305.474E+03    -110.872E-03     220.746E-03    -109.874E-03     9.27238E-03    -110.870E-03     219.789E-03    -109.870E-03     9.06456E-03
             130    -709.839E-09     101.543E-03    -99.2528E+06    -250.109E+06    -99.1143E+06    -823.852E+03    -110.427E-03     221.300E-03    -110.873E-03     8.79302E-03    -110.420E-03     220.342E-03    -110.862E-03     8.57053E-03
             131    -503.660E-09     100.357E-03    -99.2412E+06    -250.971E+06    -99.4921E+06     590.378E+03    -110.500E-03     221.258E-03    -110.758E-03     8.98880E-03    -110.491E-03     220.296E-03    -110.748E-03     8.79968E-03
             132     1.26520E-06     99.1764E-03    -99.2611E+06    -250.984E+06    -98.6986E+06    -242.294E+03    -110.928E-03     221.102E-03    -110.174E-03     9.99238E-03    -110.921E-03     220.139E-03    -110.159E-03     9.78895E-03
             133    -846.693E-09     97.9957E-03    -96.8632E+06    -249.651E+06    -97.5917E+06    -50.9139E+03    -110.682E-03     221.308E-03    -110.627E-03     9.01487E-03    -110.666E-03     220.346E-03    -110.612E-03     8.80991E-03
             134     475.560E-09     96.8137E-03    -96.9765E+06    -249.448E+06    -96.8449E+06     314.527E+03    -110.617E-03     221.264E-03    -110.648E-03     8.89049E-03    -110.603E-03     220.302E-03    -110.630E-03     8.69904E-03
             135    -186.332E-09     95.6296E-03    -95.9470E+06    -248.561E+06    -95.8422E+06     304.456E+03    -110.830E-03     221.202E-03    -110.373E-03     10.1645E-03    -110.814E-03     220.242E-03    -110.352E-03     9.97636E-03
             136     590.421E-09     94.4489E-03    -96.1414E+06    -248.445E+06    -95.7413E+06     342.616E+03    -110.890E-03     221.000E-03    -110.109E-03     9.83192E-03    -110.875E-03     220.040E-03    -110.089E-03     9.64143E-03
             137     226.556E-09     93.2677E-03    -95.1985E+06    -247.648E+06    -95.6635E+06    -266.510E+03    -110.583E-03     220.666E-03    -110.084E-03     8.89378E-03    -110.565E-03     219.709E-03    -110.065E-03     8.68882E-03
             138    -276.162E-09     92.0890E-03    -95.6444E+06    -247.517E+06    -95.3462E+06    -392.883E+03    -110.525E-03     221.184E-03    -110.659E-03     9.07895E-03    -110.510E-03     220.228E-03    -110.639E-03     8.86687E-03
             139     78.2524E-09     90.9017E-03    -94.5815E+06    -246.540E+06    -94.8380E+06     327.860E+03    -110.855E-03     221.476E-03    -110.621E-03     9.34851E-03    -110.837E-03     220.522E-03    -110.601E-03     9.15289E-03
             140     457.939E-09     89.7237E-03    -94.5312E+06    -246.049E+06    -94.5683E+06    -116.606E+03    -110.575E-03     220.845E-03    -110.270E-03     9.25585E-03    -110.558E-03     219.893E-03    -110.249E-03     9.05405E-03
             141    -536.950E-09     88.5407E-03    -94.2629E+06    -245.555E+06    -94.4079E+06    -50.6813E+03    -110.502E-03     220.895E-03    -110.393E-03     8.97035E-03    -110.484E-03     219.945E-03    -110.373E-03     8.76540E-03
             142     756.376E-09     87.3603E-03    -94.1406E+06    -244.968E+06    -94.0378E+06     13.1546E+03    -110.579E-03     221.186E-03    -110.607E-03     9.17554E-03    -110.561E-03     220.238E-03    -110.585E-03     8.97722E-03
             143    -1.05563E-06     86.1763E-03    -95.0208E+06    -245.669E+06    -95.3943E+06     86.3523E+03    -110.753E-03     221.121E-03    -110.368E-03     9.40479E-03    -110.737E-03     220.173E-03    -110.351E-03     9.21092E-03
             144     1.93358E-06     84.9958E-03    -95.9412E+06    -246.247E+06    -96.0673E+06       406.4E+03    -110.751E-03     220.933E-03    -110.182E-03     9.68215E-03    -110.737E-03     219.985E-03    -110.166E-03     9.49485E-03
             145    -1.93714E-06     83.8140E-03    -95.7634E+06    -245.433E+06    -95.1613E+06     151.119E+03    -110.404E-03     220.821E-03    -110.417E-03     9.52354E-03    -110.392E-03     219.876E-03    -110.398E-03     9.32990E-03
             146     1.88620E-06     82.6327E-03    -95.6927E+06    -245.681E+06    -96.0136E+06    -356.398E+03    -110.617E-03     221.025E-03    -110.408E-03     9.04412E-03    -110.603E-03     220.079E-03    -110.393E-03     8.83668E-03
             147    -1.53480E-06     81.4521E-03    -95.9831E+06    -245.465E+06    -95.5118E+06    -233.054E+03    -110.735E-03     221.270E-03    -110.535E-03     9.06136E-03    -110.724E-03     220.325E-03    -110.517E-03     8.85634E-03
             148     1.47627E-06     80.2676E-03    -95.9261E+06    -245.623E+06    -96.1556E+06     4.38852E+03    -110.719E-03     221.117E-03    -110.399E-03     9.49639E-03    -110.706E-03     220.172E-03    -110.384E-03     9.30223E-03
             149    -943.183E-09     79.0869E-03    -96.6365E+06    -246.066E+06    -96.5154E+06     268.948E+03    -110.658E-03     220.918E-03    -110.260E-03     9.71265E-03    -110.648E-03     219.972E-03    -110.246E-03     9.52032E-03
             150     1.01192E-06     77.9068E-03    -95.8923E+06    -245.201E+06    -95.7494E+06    -379.596E+03    -110.612E-03     221.145E-03    -110.533E-03     9.25924E-03    -110.601E-03     220.201E-03    -110.517E-03     9.05394E-03
             151    -987.810E-09     76.7223E-03    -96.0518E+06    -245.535E+06    -96.4274E+06     323.497E+03    -110.815E-03     221.124E-03    -110.309E-03     9.56048E-03    -110.803E-03     220.180E-03    -110.296E-03     9.36720E-03
             152     1.73626E-06     75.5421E-03    -95.9282E+06    -245.097E+06     -95.758E+06    -44.3289E+03    -110.899E-03     221.136E-03    -110.236E-03     9.44703E-03    -110.888E-03     220.193E-03    -110.221E-03     9.24360E-03
             153    -1.45214E-06     74.3614E-03    -96.0908E+06    -245.331E+06    -96.1229E+06    -251.392E+03    -110.574E-03     221.227E-03    -110.653E-03     9.16122E-03    -110.563E-03     220.284E-03    -110.639E-03     8.95650E-03
             154     1.00611E-06     73.1761E-03    -96.1223E+06    -245.323E+06    -96.1170E+06     541.941E+03    -110.988E-03     221.511E-03    -110.523E-03     9.88708E-03    -110.977E-03     220.568E-03    -110.509E-03     9.69370E-03
             155     146.353E-09     71.9963E-03    -95.6106E+06    -244.968E+06    -96.3502E+06     75.5807E+03    -111.037E-03     221.476E-03    -110.439E-03     9.94268E-03    -111.024E-03     220.534E-03    -110.427E-03     9.74263E-03
             156    -385.155E-09     70.8124E-03    -96.3240E+06    -244.657E+06    -95.6609E+06     595.026E+03    -110.458E-03     220.788E-03    -110.330E-03     9.42710E-03    -110.450E-03     219.847E-03    -110.314E-03     9.24594E-03
             157     799.749E-09     69.6332E-03    -96.3837E+06    -244.725E+06    -95.8585E+06    -518.598E+03    -110.784E-03     220.917E-03    -110.133E-03     9.19015E-03    -110.776E-03     219.977E-03    -110.118E-03     8.97811E-03
             158    -194.157E-09     68.4520E-03    -95.8557E+06    -244.654E+06    -96.4510E+06    -658.647E+03    -110.678E-03     221.416E-03    -110.739E-03     8.84975E-03    -110.666E-03     220.476E-03    -110.727E-03     8.63066E-03
             159     1.43122E-06     66.0858E-03    -96.5049E+06    -244.457E+06    -96.4441E+06      189.75E+03    -110.769E-03     221.047E-03    -110.279E-03     9.49524E-03    -110.760E-03     220.109E-03    -110.266E-03     9.30008E-03
             160    -1.56215E-06     64.9068E-03    -95.6512E+06    -243.848E+06    -96.0063E+06    -374.782E+03    -110.583E-03     221.374E-03    -110.791E-03     9.05726E-03    -110.572E-03     220.437E-03    -110.779E-03     8.84424E-03
             161     1.32102E-06     63.7210E-03    -95.6458E+06    -243.503E+06    -95.6894E+06     -121.71E+03    -110.881E-03     221.541E-03    -110.660E-03     8.83655E-03    -110.871E-03     220.605E-03    -110.647E-03     8.63366E-03
             162    -756.945E-09     62.5412E-03    -96.6824E+06    -244.050E+06    -96.5862E+06     126.121E+03    -110.669E-03     220.945E-03    -110.277E-03     9.34356E-03    -110.662E-03     220.009E-03    -110.266E-03     9.15272E-03
             163     788.390E-09     61.3582E-03    -96.2208E+06    -243.493E+06    -96.5237E+06     239.907E+03    -110.754E-03     221.075E-03    -110.322E-03     9.38996E-03    -110.745E-03     220.141E-03    -110.312E-03     9.19753E-03
             164    -163.758E-09     60.1777E-03    -96.2138E+06    -242.746E+06    -95.2943E+06    -350.220E+03    -110.857E-03     221.366E-03    -110.510E-03     9.30510E-03    -110.851E-03     220.434E-03    -110.495E-03     9.10114E-03
             165     71.7984E-09     58.9940E-03    -95.6589E+06    -242.875E+06    -95.9774E+06    -427.315E+03    -110.861E-03     221.431E-03    -110.571E-03     8.94870E-03    -110.851E-03     220.499E-03    -110.560E-03     8.73547E-03
             166     451.127E-09     57.8141E-03    -95.3124E+06    -242.689E+06    -95.9498E+06     296.463E+03    -110.827E-03     221.332E-03    -110.505E-03     9.37830E-03    -110.816E-03     220.400E-03    -110.495E-03     9.18655E-03
             167    -499.062E-09     56.6277E-03    -96.4974E+06    -243.199E+06    -96.2602E+06     932.387E+03    -110.625E-03     220.791E-03    -110.166E-03     9.70991E-03    -110.618E-03     219.858E-03    -110.154E-03     9.54689E-03
             168     1.24883E-06     55.4516E-03    -95.4171E+06    -242.435E+06    -95.8221E+06     143.190E+03    -110.598E-03     221.010E-03    -110.412E-03     9.50501E-03    -110.588E-03     220.080E-03    -110.401E-03     9.31030E-03
             169    -1.74014E-06     54.2673E-03    -94.7835E+06    -241.293E+06    -94.5179E+06    -448.810E+03    -110.600E-03     221.687E-03    -111.086E-03     9.29484E-03    -110.590E-03     220.759E-03    -111.072E-03     9.08413E-03
             170     1.41592E-06     53.0828E-03    -95.8933E+06    -242.421E+06    -96.3120E+06     250.913E+03    -110.880E-03     221.257E-03    -110.377E-03     9.93823E-03    -110.872E-03     220.328E-03    -110.368E-03     9.75200E-03
             171    -327.276E-09     51.9029E-03    -96.3626E+06    -241.984E+06    -95.3137E+06     445.696E+03    -110.695E-03     220.415E-03    -109.721E-03     9.95941E-03    -110.691E-03     219.488E-03    -109.707E-03     9.76816E-03
             172     776.891E-09     50.7232E-03    -95.7198E+06    -241.861E+06    -95.8934E+06    -796.538E+03    -110.371E-03     220.518E-03    -110.148E-03     8.81095E-03    -110.363E-03     219.591E-03    -110.138E-03     8.59056E-03
             173    -899.457E-09     49.5429E-03    -94.9962E+06    -241.559E+06    -95.7847E+06    -308.930E+03    -110.515E-03     221.008E-03    -110.492E-03     8.27874E-03    -110.505E-03     220.081E-03    -110.483E-03     8.06371E-03
             174     1.02398E-06     48.3584E-03    -95.7946E+06    -241.628E+06    -95.6136E+06    -99.2971E+03    -110.169E-03     220.606E-03    -110.437E-03     9.05813E-03    -110.162E-03     219.680E-03    -110.426E-03     8.86472E-03
             175    -1.61404E-06     47.1788E-03    -95.9636E+06    -241.977E+06    -96.6417E+06     182.864E+03    -110.123E-03     220.321E-03    -110.198E-03     9.42641E-03    -110.115E-03     219.395E-03    -110.192E-03     9.23362E-03
             176     2.03638E-06     45.9977E-03    -95.3019E+06    -240.819E+06    -95.1244E+06     222.213E+03    -110.332E-03     220.270E-03    -109.938E-03     8.90047E-03    -110.324E-03     219.346E-03    -109.926E-03     8.70102E-03
             177    -1.85457E-06     44.8172E-03    -95.1610E+06    -240.380E+06    -94.8876E+06    -220.786E+03    -109.878E-03     219.974E-03    -110.097E-03     9.28430E-03    -109.871E-03     219.053E-03    -110.085E-03     9.08587E-03
             178     1.28541E-06     43.6364E-03    -94.9999E+06    -239.980E+06    -94.8639E+06     227.761E+03    -110.171E-03     220.073E-03    -109.903E-03     9.27728E-03    -110.164E-03     219.153E-03    -109.891E-03     9.08629E-03
             179    -319.122E-09     42.4551E-03    -95.5302E+06    -239.750E+06    -95.2235E+06     510.377E+03    -109.836E-03     219.221E-03    -109.385E-03     9.67547E-03    -109.832E-03     218.302E-03    -109.375E-03     9.49585E-03
             180     43.9500E-09     41.2767E-03    -95.7084E+06    -238.728E+06    -95.3241E+06     325.316E+03    -109.567E-03     218.698E-03    -109.131E-03     9.46914E-03    -109.565E-03     217.785E-03    -109.122E-03     9.28341E-03
             181     900.316E-09     40.0995E-03    -94.9984E+06    -237.813E+06    -95.8686E+06     310.559E+03    -109.355E-03     218.604E-03    -109.248E-03     9.21098E-03    -109.350E-03     217.696E-03    -109.245E-03     9.02349E-03
             182    -1.71756E-06     38.9175E-03    -95.2653E+06    -237.653E+06    -95.6996E+06     785.898E+03    -108.400E-03     217.247E-03    -108.847E-03     8.99394E-03    -108.395E-03     216.340E-03    -108.843E-03     8.82390E-03
             183     1.77294E-06     37.7449E-03    -95.4380E+06    -237.333E+06    -95.0596E+06    -96.5050E+03    -108.401E-03     216.381E-03    -107.979E-03     8.72817E-03    -108.399E-03     215.474E-03    -107.972E-03     8.54123E-03
             184    -1.17357E-06     36.5677E-03    -94.3169E+06    -235.763E+06    -94.5076E+06    -146.458E+03    -108.082E-03     216.240E-03    -108.157E-03     8.66388E-03    -108.078E-03     215.339E-03    -108.151E-03     8.47135E-03
             185     420.610E-09     35.3910E-03    -94.9641E+06    -235.215E+06    -95.4480E+06     320.837E+03    -107.476E-03     215.327E-03    -107.852E-03     9.15699E-03    -107.474E-03     214.431E-03    -107.850E-03     8.97977E-03
             186    -316.160E-09     34.2153E-03    -95.9456E+06    -235.154E+06    -95.3481E+06     128.044E+03    -107.392E-03     213.946E-03    -106.554E-03     9.09144E-03    -107.395E-03     213.051E-03    -106.551E-03     8.91179E-03
             187     1.53737E-06     33.0470E-03    -95.2106E+06    -234.005E+06    -95.0989E+06    -109.035E+03    -106.460E-03     212.416E-03    -105.956E-03     8.04049E-03    -106.461E-03     211.527E-03    -105.955E-03     7.85477E-03
             188    -1.97003E-06     31.8735E-03    -95.2687E+06    -232.861E+06    -95.5287E+06     280.908E+03    -105.557E-03     211.345E-03    -105.788E-03     8.19779E-03    -105.559E-03     210.462E-03    -105.790E-03     8.02641E-03
             189     1.99625E-06     30.7045E-03    -95.4915E+06    -232.800E+06    -95.4392E+06     78.5053E+03    -105.464E-03     210.320E-03    -104.857E-03     8.00893E-03    -105.468E-03     209.437E-03    -104.858E-03     7.83941E-03
             190    -1.06453E-06     29.5358E-03     -95.128E+06    -231.871E+06    -94.5868E+06    -13.3194E+03    -104.363E-03     208.073E-03    -103.710E-03     7.76083E-03    -104.368E-03     207.192E-03    -103.709E-03     7.59182E-03
             191     1.17240E-06     28.3715E-03    -94.9251E+06    -231.495E+06    -95.0612E+06    -290.701E+03    -103.595E-03     206.265E-03    -102.670E-03     7.32918E-03    -103.598E-03     205.386E-03    -102.672E-03     7.16293E-03
             192     198.380E-09     27.2086E-03    -94.7962E+06    -231.503E+06    -95.1500E+06    -310.756E+03    -102.485E-03     204.938E-03    -102.453E-03     7.09821E-03    -102.488E-03     204.059E-03    -102.455E-03     6.92900E-03
             193    -1.54142E-06     26.0462E-03    -94.2860E+06    -230.452E+06    -94.6505E+06     252.445E+03    -101.385E-03     203.624E-03    -102.239E-03     7.79195E-03    -101.387E-03     202.749E-03    -102.241E-03     7.64278E-03
             194     1.46730E-06     24.8819E-03    -94.7576E+06    -230.143E+06    -95.0264E+06     1.37977E+06    -101.406E-03     202.065E-03    -100.659E-03     9.10093E-03    -101.410E-03     201.193E-03    -100.663E-03     8.97819E-03
             195    -216.808E-09     23.7257E-03    -94.7154E+06    -228.699E+06    -93.9808E+06     1.28920E+06    -100.278E-03     199.576E-03    -99.2979E-03     8.41327E-03    -100.286E-03     198.709E-03    -99.2989E-03     8.28931E-03
             196     538.031E-09     22.5728E-03    -93.8211E+06    -227.407E+06    -94.3312E+06     144.183E+03    -98.8548E-03     197.749E-03    -98.8947E-03     7.00055E-03    -98.8598E-03     196.888E-03    -98.9005E-03     6.85610E-03
             197    -949.084E-09     21.4180E-03    -93.1111E+06    -225.260E+06    -93.1339E+06    -384.146E+03    -98.4416E-03     196.973E-03    -98.5310E-03     6.30240E-03    -98.4478E-03     196.119E-03    -98.5351E-03     6.14431E-03
             198     1.19918E-06     20.2655E-03    -93.2788E+06    -224.424E+06    -93.4659E+06    -318.581E+03    -97.8605E-03     195.486E-03    -97.6253E-03     5.93063E-03    -97.8681E-03     194.637E-03    -97.6319E-03     5.77593E-03
             199    -1.08008E-06     19.1137E-03    -92.1044E+06    -221.756E+06    -92.2367E+06     164.317E+03    -96.7265E-03     193.228E-03    -96.5018E-03     5.39016E-03    -96.7336E-03     192.389E-03    -96.5078E-03     5.25156E-03
             200     1.31612E-06     17.9685E-03    -91.3031E+06    -219.551E+06    -91.6427E+06    -53.6283E+03    -95.5852E-03     190.904E-03    -95.3185E-03     4.50445E-03    -95.5919E-03     190.073E-03    -95.3260E-03     4.37295E-03
             201    -1.12611E-06     16.8208E-03    -90.9877E+06    -217.754E+06    -91.3223E+06     430.206E+03    -93.4795E-03     187.146E-03    -93.6662E-03     4.16932E-03    -93.4878E-03     186.323E-03    -93.6752E-03     4.05635E-03
             202     622.405E-09     15.6819E-03    -90.9428E+06    -215.446E+06    -90.7430E+06     998.226E+03    -90.7951E-03     181.148E-03    -90.3534E-03     3.05067E-03    -90.8071E-03     180.335E-03    -90.3628E-03     2.97013E-03
             203     615.459E-09     14.5512E-03    -90.2068E+06    -212.183E+06    -89.8014E+06     1.12880E+06    -87.0535E-03     173.671E-03    -86.6170E-03     2.51371E-03    -87.0679E-03     172.871E-03    -86.6276E-03     2.44583E-03
             204    -1.12912E-06     13.4283E-03    -86.5470E+06    -205.987E+06    -86.7685E+06     1.09427E+06    -82.5181E-03     165.279E-03    -82.7605E-03     1.31441E-03    -82.5274E-03     164.500E-03    -82.7702E-03     1.25525E-03
             205     1.24821E-06     12.3162E-03    -84.2096E+06    -201.155E+06    -84.6991E+06     1.57301E+06    -78.1434E-03     156.004E-03    -77.8601E-03     663.359E-06    -78.1509E-03     155.242E-03    -77.8698E-03     626.242E-06
             206    -890.318E-09     11.2138E-03    -81.0402E+06    -195.227E+06    -80.6530E+06     1.69923E+06    -73.1765E-03     146.601E-03    -73.4242E-03     1.21455E-03    -73.1827E-03     145.859E-03    -73.4269E-03     1.18599E-03
             207     126.647E-09     10.1211E-03    -77.0689E+06    -189.885E+06    -77.2046E+06     1.20857E+06    -69.3014E-03     138.389E-03    -69.0876E-03     745.926E-06    -69.3002E-03     137.664E-03    -69.0865E-03     709.521E-06
             208     1.00526E-06     9.03937E-03    -74.6282E+06    -185.786E+06    -73.0400E+06     454.392E+03    -66.9601E-03     132.968E-03    -66.0077E-03     1.34357E-03    -66.9583E-03     132.254E-03    -65.9952E-03     1.29874E-03
             209    -514.502E-09     7.95753E-03    -72.2277E+06    -184.706E+06    -72.2948E+06    -544.922E+03    -66.3305E-03     132.926E-03    -66.5958E-03     2.89764E-03    -66.3200E-03     132.213E-03    -66.5847E-03     2.84078E-03
             210    -422.692E-09     6.87575E-03    -72.1749E+06    -187.575E+06    -72.7093E+06    -507.505E+03    -70.1088E-03     140.439E-03    -70.3305E-03     4.28624E-03    -70.0947E-03     139.711E-03    -70.3174E-03     4.22909E-03
             211     983.553E-09     5.77734E-03    -70.7788E+06    -190.114E+06    -69.9762E+06    -536.080E+03    -77.3752E-03     154.512E-03    -77.1364E-03     5.95740E-03    -77.3554E-03     153.763E-03    -77.1080E-03     5.90230E-03
             212    -1.12228E-06     4.66376E-03    -68.3881E+06    -193.746E+06    -68.7130E+06    -1.02698E+06    -86.2066E-03     172.694E-03    -86.4875E-03     6.60985E-03    -86.1726E-03     171.921E-03    -86.4510E-03     6.54784E-03
             213     813.833E-09     3.52582E-03    -64.5716E+06    -194.970E+06    -64.7113E+06     240.156E+03    -96.2406E-03     192.522E-03    -96.2815E-03     6.25297E-03    -96.1914E-03     191.731E-03    -96.2287E-03     6.20454E-03
             214    -557.531E-09     2.36575E-03    -58.8567E+06    -193.830E+06    -59.0330E+06     81.9103E+03    -105.047E-03     209.947E-03    -104.899E-03     4.93364E-03    -104.977E-03     209.147E-03    -104.828E-03     4.89215E-03
             215     551.123E-09     1.18845E-03    -54.7340E+06    -193.494E+06    -55.3429E+06     418.525E+03    -111.055E-03     221.944E-03    -110.888E-03     2.68336E-03    -110.969E-03     221.135E-03    -110.805E-03     2.66328E-03
             216     802.834E-06     152.656E-18    -53.2369E+06    -193.137E+06    -52.7640E+06     606.977E+03    -113.245E-03     226.355E-03    -113.110E-03     2.25075E-03    -113.154E-03     225.543E-03    -113.017E-03     2.23384E-03
             217     1.60602E-03     152.656E-18    -52.9364E+06    -192.646E+06    -52.3775E+06    -199.669E+03    -113.149E-03     226.324E-03    -113.176E-03     4.17782E-03    -113.059E-03     225.514E-03    -113.081E-03     4.13067E-03
             218     2.40838E-03     152.656E-18    -52.9649E+06    -191.698E+06    -51.4164E+06     877.162E+03    -113.238E-03     226.424E-03    -113.186E-03     6.62412E-03    -113.151E-03     225.617E-03    -113.088E-03     6.57227E-03
             219     3.21129E-03     152.656E-18    -52.6184E+06    -191.253E+06    -51.3430E+06    -250.442E+03    -113.302E-03     226.513E-03    -113.211E-03     8.54488E-03    -113.214E-03     225.709E-03    -113.115E-03     8.45293E-03
             220     4.01442E-03     152.656E-18    -51.2896E+06    -190.110E+06    -51.1699E+06    -1.41688E+06    -113.348E-03     226.584E-03    -113.237E-03     10.5394E-03    -113.256E-03     225.784E-03    -113.142E-03     10.4054E-03
             221     4.81647E-03     152.656E-18    -48.8711E+06    -187.603E+06    -52.2330E+06    -2.57821E+06    -113.504E-03     226.763E-03    -113.259E-03     13.0894E-03    -113.404E-03     225.975E-03    -113.177E-03     12.9160E-03
             222     5.61926E-03     152.656E-18    -44.0222E+06    -178.323E+06    -55.4073E+06    -5.47640E+06    -113.776E-03     227.054E-03    -113.278E-03     15.0214E-03    -113.662E-03     226.311E-03    -113.233E-03     14.7784E-03
             223     6.42200E-03     152.656E-18    -38.0038E+06    -157.411E+06    -60.3679E+06    -6.98899E+06    -114.186E-03     227.483E-03    -113.298E-03     17.3296E-03    -114.066E-03     226.845E-03    -113.316E-03     17.0286E-03
             224     7.22255E-03     152.656E-18    -31.0148E+06    -125.895E+06    -66.5128E+06    -8.54944E+06    -114.732E-03     228.062E-03    -113.331E-03     20.0402E-03    -114.616E-03     227.583E-03    -113.436E-03     19.6848E-03
             225     8.02508E-03     152.656E-18    -22.7063E+06    -85.8765E+06    -68.0291E+06    -10.4459E+06    -115.574E-03     228.994E-03    -113.420E-03     22.6165E-03    -115.476E-03     228.708E-03    -113.603E-03     22.1762E-03
             226     8.82429E-03     152.656E-18    -15.4666E+06    -34.9407E+06    -64.5825E+06    -7.94338E+06    -116.787E-03     230.374E-03    -113.587E-03     25.6711E-03    -116.737E-03     230.331E-03    -113.837E-03     25.2089E-03
             227     9.62358E-03     152.656E-18    -10.9586E+06     17.7816E+06    -46.0600E+06    -3.19178E+06    -118.405E-03     232.322E-03    -113.917E-03     29.7642E-03    -118.442E-03     232.516E-03    -114.157E-03     29.2803E-03
             228     10.4198E-03     152.656E-18    -10.5689E+06     51.4230E+06    -11.7816E+06     305.779E+03    -120.675E-03     235.142E-03    -114.467E-03     33.5138E-03    -120.818E-03     235.464E-03    -114.585E-03     32.9541E-03
             229     11.2162E-03     152.656E-18    -11.5876E+06     69.1727E+06     23.4922E+06     1.96765E+06    -123.796E-03     238.984E-03    -115.188E-03     39.6683E-03    -124.038E-03     239.361E-03    -115.154E-03     38.9781E-03
             230     12.0027E-03     152.656E-18    -9.96976E+06     81.4650E+06     59.3401E+06     1.74218E+06    -128.264E-03     244.362E-03    -116.099E-03     46.3907E-03    -128.592E-03     244.772E-03    -115.906E-03     45.4635E-03
             231     12.7960E-03     152.656E-18    -8.25568E+06     88.3729E+06     84.0836E+06     2.59051E+06    -135.854E-03     253.099E-03    -117.245E-03     57.0767E-03    -136.271E-03     253.554E-03    -116.940E-03     55.7946E-03
             232     13.5629E-03     152.656E-18    -6.73404E+06     94.7228E+06     91.1670E+06     6.24941E+06    -148.803E-03     267.587E-03    -118.784E-03     82.9047E-03    -149.373E-03     268.196E-03    -118.456E-03     80.9569E-03
             233     14.3208E-03     152.656E-18    -7.12433E+06     99.4590E+06     88.2824E+06     7.18696E+06    -168.372E-03     289.374E-03    -121.002E-03     108.368E-03    -169.193E-03     290.270E-03    -120.695E-03     105.139E-03
             234     15.0741E-03     152.656E-18     9.71991E+06     117.404E+06     101.466E+06     1.63161E+06    -199.770E-03     324.086E-03    -124.315E-03     158.821E-03    -201.598E-03     326.046E-03    -123.992E-03     152.180E-03
             235     15.9214E-03     1.39604E-03     851.228E+03     119.620E+06     94.2249E+06     71.4663E+03    -206.779E-03     329.242E-03    -122.463E-03     207.034E-03    -210.285E-03     332.894E-03    -122.166E-03     197.186E-03
             236     16.0022E-03     2.70506E-03    -12.8866E+06     108.431E+06     74.6998E+06     8.00063E+06    -188.492E-03     304.838E-03    -116.346E-03     158.319E-03    -191.561E-03     308.039E-03    -116.111E-03     149.596E-03
             237     16.0707E-03     3.96487E-03    -3.71629E+06     111.606E+06     77.3693E+06     6.16180E+06    -179.669E-03     292.548E-03    -112.879E-03     104.122E-03    -181.793E-03     294.829E-03    -112.649E-03     96.5149E-03
             238     16.0816E-03     5.23800E-03    -5.87365E+06     114.920E+06     80.3370E+06     2.55950E+06    -181.752E-03     292.794E-03    -111.041E-03     80.4045E-03    -183.762E-03     294.969E-03    -110.798E-03     72.4483E-03
             239     16.1033E-03     6.51898E-03    -3.12828E+06     118.075E+06     85.4951E+06     2.65885E+06    -180.582E-03     290.870E-03    -110.287E-03     60.3929E-03    -182.258E-03     292.705E-03    -110.026E-03     52.7735E-03
             240     16.0992E-03     7.77139E-03    -1.97926E+06     117.422E+06     87.3412E+06      964.23E+03    -173.020E-03     283.206E-03    -110.186E-03     50.8554E-03    -174.585E-03     284.929E-03    -109.917E-03     43.7057E-03
             241     16.1037E-03     9.03419E-03    -1.08499E+06     117.037E+06     88.0165E+06     1.42891E+06    -163.858E-03     274.201E-03    -110.343E-03     39.2762E-03    -165.234E-03     275.733E-03    -110.071E-03     32.9271E-03
             242     16.1028E-03     10.2585E-03    -1.14600E+06     115.989E+06     87.3050E+06     819.221E+03    -153.460E-03     263.994E-03    -110.535E-03     35.0686E-03    -154.753E-03     265.441E-03    -110.265E-03     29.4286E-03
             243     16.1039E-03     11.4984E-03    -2.73806E+06     114.192E+06     85.7965E+06     1.02416E+06    -147.186E-03     257.833E-03    -110.647E-03     29.9113E-03    -148.406E-03     259.200E-03    -110.380E-03     24.7622E-03
             244     16.1051E-03     12.7133E-03    -4.34689E+06     113.719E+06     84.5676E+06     241.727E+03    -140.570E-03     251.278E-03    -110.708E-03     29.0244E-03    -141.802E-03     252.652E-03    -110.444E-03     24.1985E-03
             245     16.1079E-03     13.9342E-03    -2.65813E+06     116.433E+06     86.5686E+06    -416.318E+03    -135.273E-03     245.953E-03    -110.680E-03     31.0945E-03    -136.558E-03     247.391E-03    -110.412E-03     26.4748E-03
             246     16.1114E-03     15.1495E-03    -1.66105E+06     117.636E+06     88.2949E+06    -773.979E+03    -131.961E-03     242.562E-03    -110.601E-03     37.7299E-03    -133.355E-03     244.112E-03    -110.327E-03     33.1570E-03
             247     16.1121E-03     16.3601E-03    -2.54138E+06     116.917E+06     88.4991E+06     334.420E+03    -130.803E-03     241.314E-03    -110.511E-03     39.6784E-03    -132.242E-03     242.903E-03    -110.235E-03     35.1727E-03
             248     16.1148E-03     17.5668E-03    -2.82749E+06     117.632E+06     88.6339E+06     1.16497E+06    -129.450E-03     239.861E-03    -110.412E-03     41.1088E-03    -130.923E-03     241.486E-03    -110.135E-03     36.6604E-03
             249     16.1171E-03     18.7750E-03    -1.92879E+06     119.105E+06     89.7419E+06      281.85E+03    -128.488E-03     238.795E-03    -110.307E-03     43.4958E-03    -130.015E-03     240.478E-03    -110.029E-03     39.0311E-03
             250     16.1181E-03     19.9834E-03    -1.21808E+06     119.875E+06     90.7407E+06     651.684E+03    -127.143E-03     237.401E-03    -110.259E-03     44.7258E-03    -128.713E-03     239.129E-03    -109.977E-03     40.3087E-03
             251     16.1192E-03     21.1834E-03    -1.89876E+06     121.766E+06     90.9264E+06     1.16145E+06    -125.612E-03     235.832E-03    -110.220E-03     45.3226E-03    -127.219E-03     237.601E-03    -109.939E-03     40.9746E-03
             252     16.1208E-03     22.3858E-03    -2.66827E+06     123.459E+06     91.3900E+06    -734.465E+03    -125.073E-03     235.248E-03    -110.174E-03     45.4161E-03    -126.703E-03     237.042E-03    -109.893E-03     41.0790E-03
             253     16.1202E-03     23.5894E-03    -1.80165E+06     122.135E+06     91.3000E+06    -918.571E+03    -123.601E-03     233.771E-03    -110.170E-03     46.0331E-03    -125.246E-03     235.578E-03    -109.888E-03     41.7694E-03
             254     16.1224E-03     24.7848E-03    -1.87315E+06     122.420E+06     91.6803E+06     311.561E+03    -122.308E-03     232.488E-03    -110.181E-03     47.0128E-03    -123.984E-03     234.327E-03    -109.897E-03     42.8355E-03
             255     16.1201E-03     25.9868E-03    -3.63751E+06     123.218E+06     91.3803E+06     749.609E+03    -120.631E-03     230.836E-03    -110.205E-03     48.0677E-03    -122.334E-03     232.700E-03    -109.922E-03     44.0099E-03
             256     16.1236E-03     27.1798E-03    -1.75384E+06     122.259E+06     91.5085E+06    -45.1148E+03    -118.382E-03     228.612E-03    -110.230E-03     49.0710E-03    -120.102E-03     230.494E-03    -109.947E-03     45.1027E-03
             257     16.1210E-03     28.3704E-03    -1.83767E+06     122.424E+06     91.9339E+06    -161.717E+03    -117.980E-03     228.203E-03    -110.224E-03     48.8278E-03    -119.706E-03     230.092E-03    -109.939E-03     44.9005E-03
             258     16.1239E-03     29.5675E-03    -2.46090E+06     124.763E+06     93.1985E+06     810.589E+03    -117.285E-03     227.543E-03    -110.258E-03     51.1910E-03    -119.049E-03     229.471E-03    -109.969E-03     47.3318E-03
             259     16.1200E-03     30.7615E-03    -3.32286E+06     123.809E+06     91.9009E+06     1.65831E+06    -114.563E-03     224.893E-03    -110.330E-03     52.7095E-03    -116.360E-03     226.851E-03    -110.045E-03     48.9870E-03
             260     16.1244E-03     31.9413E-03    -2.52395E+06     124.644E+06     92.3819E+06     432.689E+03    -111.989E-03     222.342E-03    -110.352E-03     51.4652E-03    -113.792E-03     224.310E-03    -110.067E-03     47.8580E-03
             261     16.1220E-03     33.1295E-03    -768.653E+03     126.491E+06     94.1055E+06    -745.880E+03    -111.808E-03     222.113E-03    -110.305E-03     52.1624E-03    -113.625E-03     224.103E-03    -110.016E-03     48.5493E-03
             262     16.1259E-03     34.3165E-03    -1.29255E+06     126.052E+06     94.3562E+06    -627.895E+03    -113.196E-03     223.478E-03    -110.283E-03     53.8315E-03    -115.039E-03     225.491E-03    -109.992E-03     50.1427E-03
             263     16.1199E-03     35.5075E-03    -3.22949E+06     123.883E+06     92.7337E+06     588.194E+03    -112.763E-03     223.100E-03    -110.337E-03     52.4668E-03    -114.585E-03     225.081E-03    -110.048E-03     48.8473E-03
             264     16.1251E-03     36.6861E-03    -2.94682E+06     123.899E+06     92.4241E+06     216.230E+03    -110.045E-03     220.424E-03    -110.379E-03     49.9939E-03    -111.829E-03     222.369E-03    -110.092E-03     46.5435E-03
             265     16.1223E-03     37.8688E-03    -1.77023E+06     125.287E+06     93.8988E+06    -992.167E+03    -110.252E-03     220.595E-03    -110.343E-03     50.7331E-03    -112.057E-03     222.567E-03    -110.053E-03     47.2584E-03
             266     16.1249E-03     39.0586E-03    -2.13753E+06     124.858E+06     93.9953E+06     55.9247E+03    -111.949E-03     222.269E-03    -110.320E-03     51.9804E-03    -113.757E-03     224.240E-03    -110.028E-03     48.4445E-03
             267     16.1213E-03     40.2425E-03    -3.13725E+06     123.561E+06     92.6149E+06     647.634E+03    -111.184E-03     221.548E-03    -110.364E-03     51.3923E-03    -112.983E-03     223.506E-03    -110.076E-03     47.9014E-03
             268     16.1240E-03     41.4267E-03    -3.33676E+06     123.321E+06     92.3442E+06    -144.116E+03    -108.895E-03     219.305E-03    -110.410E-03     50.6675E-03    -110.698E-03     221.266E-03    -110.122E-03     47.2856E-03
             269     16.1230E-03     42.6047E-03    -2.20399E+06     124.669E+06     94.1726E+06    -695.056E+03    -108.829E-03     219.223E-03    -110.393E-03     52.4700E-03    -110.666E-03     221.221E-03    -110.100E-03     49.0931E-03
             270     16.1239E-03     43.7941E-03    -638.989E+03     126.027E+06       95.52E+06     811.168E+03    -109.504E-03     219.885E-03    -110.381E-03     54.9918E-03    -111.362E-03     221.911E-03    -110.085E-03     51.5723E-03
             271     16.1230E-03     44.9772E-03    -1.84825E+06     124.548E+06     94.2861E+06     547.185E+03    -108.056E-03     218.485E-03    -110.428E-03     54.8647E-03    -109.911E-03     220.502E-03    -110.135E-03     51.5034E-03
             272     16.1231E-03     46.1505E-03    -2.72811E+06     123.615E+06     93.2004E+06    -313.177E+03    -107.603E-03     218.019E-03    -110.415E-03     51.5886E-03    -109.431E-03     220.005E-03    -110.124E-03     48.2633E-03
             273     16.1251E-03     47.3313E-03    -1.89931E+06     124.409E+06     94.4071E+06    -801.407E+03    -109.570E-03     219.923E-03    -110.353E-03     51.0051E-03    -111.386E-03     221.900E-03    -110.059E-03     47.5957E-03
             274     16.1220E-03     48.5246E-03    -3.09784E+06     123.124E+06     93.2888E+06     226.031E+03    -110.585E-03     220.939E-03    -110.353E-03     54.6167E-03    -112.450E-03     222.959E-03    -110.061E-03     51.1348E-03
             275     16.1246E-03     49.7036E-03    -2.59089E+06     123.290E+06     93.4152E+06     73.5113E+03    -109.140E-03     219.545E-03    -110.405E-03     54.1478E-03    -110.996E-03     221.559E-03    -110.113E-03     50.7157E-03
             276     16.1215E-03     50.8843E-03    -2.65659E+06     122.989E+06     93.5052E+06    -137.768E+03    -107.256E-03     217.703E-03    -110.447E-03     50.6778E-03    -109.057E-03     219.660E-03    -110.154E-03     47.4066E-03
             277     16.1254E-03     52.0607E-03    -1.16612E+06     124.545E+06     95.0407E+06    -348.748E+03    -107.411E-03     217.835E-03    -110.424E-03     51.5922E-03    -109.233E-03     219.820E-03    -110.128E-03     48.2916E-03
             278     16.1221E-03     53.2469E-03    -2.24840E+06     123.351E+06     94.2566E+06    -411.890E+03    -109.214E-03     219.587E-03    -110.373E-03     52.0157E-03    -111.035E-03     221.565E-03    -110.077E-03     48.6262E-03
             279     16.1252E-03     54.4278E-03    -3.04578E+06     122.518E+06     93.7009E+06     208.947E+03    -109.943E-03     220.316E-03    -110.373E-03     53.1473E-03    -111.777E-03     222.302E-03    -110.078E-03     49.7216E-03
             280     16.1211E-03     55.6164E-03    -3.09357E+06     122.257E+06     93.4482E+06     661.469E+03    -109.131E-03     219.544E-03    -110.413E-03     52.7227E-03    -110.959E-03     221.524E-03    -110.118E-03     49.3423E-03
             281     16.1249E-03     56.7904E-03    -1.97736E+06     123.169E+06     94.2797E+06     766.522E+03    -107.952E-03     218.399E-03    -110.447E-03     52.1367E-03    -109.760E-03     220.365E-03    -110.152E-03     48.8474E-03
             282     16.1212E-03     57.9778E-03    -2.39590E+06     122.634E+06     93.4725E+06     420.019E+03    -107.175E-03     217.628E-03    -110.454E-03     51.6136E-03    -108.981E-03     219.591E-03    -110.161E-03     48.3453E-03
             283     16.1254E-03     59.1505E-03    -2.91152E+06     123.000E+06     93.4813E+06    -902.677E+03    -108.637E-03     219.045E-03    -110.408E-03     51.0281E-03    -110.441E-03     221.005E-03    -110.115E-03     47.6652E-03
             284     16.1211E-03     60.3367E-03    -3.85749E+06     123.531E+06     94.1307E+06    -175.591E+03    -111.022E-03     221.413E-03    -110.391E-03     50.1387E-03    -112.821E-03     223.365E-03    -110.094E-03     46.6994E-03
             285     16.1229E-03     61.5297E-03    -3.23682E+06     123.088E+06     93.6931E+06     1.27628E+06    -106.986E-03     217.465E-03    -110.479E-03     52.2915E-03    -108.816E-03     219.450E-03    -110.185E-03     49.0453E-03
             286     16.1246E-03     62.6942E-03    -45.8010E+03     124.910E+06     95.3661E+06    -710.131E+03    -105.023E-03     215.482E-03    -110.459E-03     53.0116E-03    -106.861E-03     217.487E-03    -110.164E-03     49.8041E-03
             287     16.1240E-03     63.8777E-03    -2.57393E+06     124.731E+06     95.2796E+06    -875.830E+03    -111.101E-03     221.452E-03    -110.352E-03     49.4070E-03    -112.880E-03     223.389E-03    -110.052E-03     45.9610E-03
             288     16.1206E-03     65.0684E-03    -4.43472E+06     123.592E+06     93.6222E+06     1.19764E+06    -111.452E-03     221.838E-03    -110.386E-03     50.2087E-03    -113.231E-03     223.769E-03    -110.091E-03     46.7699E-03
             289     16.1251E-03     66.2531E-03    -1.78434E+06     125.423E+06     94.8662E+06     387.635E+03    -105.570E-03     216.061E-03    -110.491E-03     53.8770E-03    -107.425E-03     218.081E-03    -110.196E-03     50.6573E-03
             290     16.1224E-03     67.4255E-03        -827.719     126.390E+06     96.2212E+06    -734.895E+03    -104.982E-03     215.449E-03    -110.467E-03     53.5130E-03    -106.842E-03     217.478E-03    -110.169E-03     50.3076E-03
             291     16.1258E-03     68.5991E-03    -3.77687E+06     123.782E+06     94.2167E+06    -984.700E+03    -111.591E-03     221.932E-03    -110.340E-03     49.4107E-03    -113.379E-03     223.873E-03    -110.043E-03     45.9252E-03
             292     805.724E-06     68.4604E-03    -95.1305E+06    -242.968E+06    -93.7303E+06    -246.414E+03    -110.607E-03     221.287E-03    -110.681E-03     15.3340E-03    -110.607E-03     220.359E-03    -110.659E-03     14.9927E-03
             293     1.61160E-03     68.4853E-03    -92.8635E+06    -238.100E+06    -86.0196E+06     145.719E+03    -110.697E-03     221.314E-03    -110.617E-03     28.4370E-03    -110.731E-03     220.423E-03    -110.567E-03     27.8159E-03
             294     2.41756E-03     68.5237E-03    -88.7197E+06    -230.444E+06    -74.5821E+06    -6.30762E+03    -111.080E-03     221.726E-03    -110.646E-03     41.7256E-03    -111.169E-03     220.898E-03    -110.556E-03     40.7727E-03
             295     3.22282E-03     68.5780E-03    -83.4075E+06    -221.029E+06    -61.1809E+06     21.1796E+03    -111.325E-03     222.029E-03    -110.704E-03     54.9332E-03    -111.491E-03     221.292E-03    -110.569E-03     53.6277E-03
             296     4.02913E-03     68.6468E-03    -77.5970E+06    -211.099E+06    -47.8193E+06    -39.4627E+03    -111.503E-03     222.234E-03    -110.731E-03     67.9573E-03    -111.773E-03     221.618E-03    -110.551E-03     66.2621E-03
             297     4.83500E-03     68.7297E-03    -71.5510E+06    -194.478E+06    -36.4626E+06     404.550E+03    -111.914E-03     222.638E-03    -110.724E-03     80.6921E-03    -112.328E-03     222.213E-03    -110.521E-03     78.5663E-03
             298     5.64091E-03     68.8265E-03    -65.9534E+06    -178.524E+06    -25.8774E+06     406.432E+03    -112.386E-03     223.110E-03    -110.724E-03     93.2055E-03    -112.986E-03     222.917E-03    -110.499E-03     90.5923E-03
             299     6.44689E-03     68.9369E-03    -60.6329E+06    -163.713E+06    -17.3552E+06    -169.463E+03    -112.847E-03     223.569E-03    -110.722E-03     105.396E-03    -113.683E-03     223.659E-03    -110.483E-03     102.228E-03
             300     7.25272E-03     69.0604E-03    -55.5203E+06    -143.174E+06    -11.4000E+06     70.6651E+03    -113.240E-03     223.939E-03    -110.698E-03     117.097E-03    -114.381E-03     224.406E-03    -110.467E-03     113.327E-03
             301     8.05927E-03     69.1963E-03    -50.6349E+06    -118.841E+06    -5.44845E+06     508.491E+03    -113.546E-03     224.210E-03    -110.664E-03     128.471E-03    -115.079E-03     225.157E-03    -110.446E-03     124.031E-03
             302     8.86479E-03     69.3445E-03    -46.2900E+06    -91.4975E+06     57.6554E+03     342.176E+03    -113.818E-03     224.439E-03    -110.621E-03     139.196E-03    -115.850E-03     225.981E-03    -110.421E-03     134.005E-03
             303     9.67149E-03     69.5036E-03    -42.2846E+06    -54.6600E+06     4.38103E+06     253.105E+03    -113.900E-03     224.456E-03    -110.556E-03     149.399E-03    -116.567E-03     226.766E-03    -110.394E-03     143.395E-03
             304     10.4771E-03     69.6736E-03    -38.3382E+06    -455.820E+03     12.7130E+06     242.369E+03    -113.951E-03     224.435E-03    -110.484E-03     160.892E-03    -117.494E-03     227.803E-03    -110.364E-03     153.971E-03
             305     11.2841E-03     69.8572E-03     -34.581E+06     57.5704E+06     22.6105E+06     780.883E+03    -114.169E-03     224.580E-03    -110.411E-03     176.749E-03    -118.947E-03     229.374E-03    -110.332E-03     168.800E-03
             306     12.0900E-03     70.0622E-03    -30.2165E+06     95.1814E+06     43.9260E+06     779.115E+03    -114.709E-03     225.138E-03    -110.429E-03     196.783E-03    -121.191E-03     231.723E-03    -110.303E-03     187.711E-03
             307     12.8970E-03     70.2897E-03    -24.2069E+06     110.909E+06     76.2758E+06    -903.054E+03    -114.319E-03     224.852E-03    -110.532E-03     207.883E-03    -122.324E-03     232.943E-03    -110.277E-03     198.246E-03
             308     13.7015E-03     70.5206E-03    -16.9970E+06     121.402E+06     96.1803E+06    -1.23051E+06    -112.899E-03     223.491E-03    -110.592E-03     191.901E-03    -121.005E-03     231.688E-03    -110.262E-03     182.954E-03
             309     14.5098E-03     70.7146E-03    -11.5090E+06     131.274E+06     101.668E+06    -287.780E+03    -111.869E-03     222.482E-03    -110.612E-03     176.447E-03    -119.840E-03     230.582E-03    -110.278E-03     168.525E-03
             310     15.3051E-03     70.9149E-03    -4.77084E+06     131.421E+06     98.9948E+06     1.13361E+06    -108.542E-03     219.103E-03    -110.560E-03     117.467E-03    -113.625E-03     224.348E-03    -110.249E-03     112.077E-03
             311     805.739E-06     69.6428E-03    -95.4972E+06    -243.181E+06    -93.4952E+06    -297.608E+03    -110.771E-03     221.104E-03    -110.332E-03     15.3575E-03    -110.773E-03     220.175E-03    -110.309E-03     15.0160E-03
             312     1.61175E-03     69.6663E-03    -92.5584E+06    -238.137E+06    -85.9935E+06    -92.2054E+03    -110.839E-03     221.411E-03    -110.572E-03     28.3609E-03    -110.872E-03     220.519E-03    -110.523E-03     27.7344E-03
             313     2.41747E-03     69.7063E-03    -88.3435E+06    -230.395E+06    -74.4953E+06     49.7897E+03    -111.069E-03     221.714E-03    -110.645E-03     41.7983E-03    -111.156E-03     220.885E-03    -110.556E-03     40.8488E-03
             314     3.22323E-03     69.7603E-03    -83.3769E+06    -221.178E+06    -61.2151E+06    -58.9003E+03    -111.310E-03     222.010E-03    -110.700E-03     54.9486E-03    -111.476E-03     221.273E-03    -110.564E-03     53.6405E-03
             315     4.02885E-03     69.8282E-03    -77.7748E+06    -211.134E+06    -47.5550E+06     66.4302E+03    -111.539E-03     222.269E-03    -110.730E-03     68.0231E-03    -111.810E-03     221.653E-03    -110.549E-03     66.3284E-03
             316     4.83502E-03     69.9118E-03    -72.0047E+06    -195.227E+06    -37.0339E+06     251.213E+03    -111.883E-03     222.605E-03    -110.722E-03     80.7960E-03    -112.297E-03     222.177E-03    -110.519E-03     78.6704E-03
             317     5.64101E-03     70.0084E-03    -65.9900E+06    -178.801E+06    -26.6982E+06     310.957E+03    -112.360E-03     223.075E-03    -110.715E-03     93.2000E-03    -112.958E-03     222.882E-03    -110.493E-03     90.5856E-03
             318     6.44702E-03     70.1190E-03    -60.4572E+06     -162.98E+06    -16.8772E+06     256.546E+03    -112.819E-03     223.533E-03    -110.715E-03     105.301E-03    -113.655E-03     223.625E-03    -110.475E-03     102.140E-03
             319     7.25309E-03     70.2425E-03    -55.4476E+06    -142.996E+06    -10.8612E+06    -27.2334E+03    -113.204E-03     223.895E-03    -110.691E-03     116.950E-03    -114.345E-03     224.363E-03    -110.457E-03     113.177E-03
             320     8.05864E-03     70.3782E-03    -50.7402E+06    -119.998E+06    -6.03747E+06     176.695E+03    -113.573E-03     224.227E-03    -110.654E-03     128.396E-03    -115.104E-03     225.170E-03    -110.437E-03     123.949E-03
             321     8.86533E-03     70.5266E-03    -46.2606E+06    -91.2963E+06    -117.724E+03     496.597E+03    -113.804E-03     224.417E-03    -110.613E-03     139.164E-03    -115.834E-03     225.959E-03    -110.414E-03     133.976E-03
             322     9.67088E-03     70.6856E-03    -42.1499E+06    -54.5289E+06     4.73564E+06     220.982E+03    -113.949E-03     224.503E-03    -110.553E-03     149.390E-03    -116.619E-03     226.816E-03    -110.389E-03     143.378E-03
             323     10.4779E-03     70.8553E-03    -38.4421E+06    -1.83651E+06     11.9479E+06     588.528E+03    -114.045E-03     224.528E-03    -110.483E-03     160.942E-03    -117.590E-03     227.895E-03    -110.365E-03     154.015E-03
             324     11.2833E-03     71.0398E-03    -34.4388E+06     57.6007E+06     22.3550E+06     784.780E+03    -114.283E-03     224.703E-03    -110.419E-03     176.536E-03    -119.062E-03     229.499E-03    -110.341E-03     168.575E-03
             325     12.0904E-03     71.2432E-03    -28.9590E+06     96.5420E+06     45.1619E+06    -152.005E+03    -114.844E-03     225.293E-03    -110.448E-03     196.929E-03    -121.333E-03     231.890E-03    -110.321E-03     187.831E-03
             326     12.8951E-03     71.4742E-03    -22.9692E+06     112.294E+06     78.1366E+06    -390.374E+03    -114.692E-03     225.261E-03    -110.568E-03     207.948E-03    -122.683E-03     233.342E-03    -110.307E-03     198.296E-03
             327     13.7032E-03     71.7006E-03    -18.0579E+06     120.580E+06     95.9592E+06    -26.1585E+03    -113.148E-03     223.780E-03    -110.632E-03     195.032E-03    -121.318E-03     232.035E-03    -110.301E-03     186.069E-03
             328     14.5040E-03     71.9038E-03    -12.4611E+06     130.387E+06     100.871E+06     367.372E+03    -111.872E-03     222.507E-03    -110.634E-03     182.115E-03    -120.003E-03     230.763E-03    -110.301E-03     174.153E-03
             329     15.3193E-03     72.0959E-03    -5.52233E+06     131.625E+06     99.0276E+06     299.596E+03    -108.488E-03     219.053E-03    -110.565E-03     118.972E-03    -113.650E-03     224.376E-03    -110.253E-03     113.545E-03
             330     806.401E-06     70.8248E-03    -95.1017E+06    -242.813E+06    -92.8626E+06     214.937E+03    -110.696E-03     221.136E-03    -110.440E-03     15.4911E-03    -110.698E-03     220.207E-03    -110.414E-03     15.1629E-03
             331     1.61146E-03     70.8486E-03    -92.4306E+06    -238.056E+06    -85.5771E+06    -27.9239E+03    -110.938E-03     221.543E-03    -110.606E-03     28.2716E-03    -110.970E-03     220.651E-03    -110.554E-03     27.6442E-03
             332     2.41715E-03     70.8882E-03    -88.5830E+06    -230.832E+06    -74.8001E+06         745.391    -110.948E-03     221.618E-03    -110.670E-03     41.7410E-03    -111.035E-03     220.788E-03    -110.581E-03     40.7918E-03
             333     3.22332E-03     70.9419E-03    -83.5160E+06    -221.560E+06    -61.4933E+06     177.004E+03    -111.185E-03     221.871E-03    -110.686E-03     54.9028E-03    -111.351E-03     221.132E-03    -110.551E-03     53.6000E-03
             334     4.02924E-03     71.0109E-03    -77.9128E+06    -211.356E+06    -47.5168E+06     320.106E+03    -111.589E-03     222.300E-03    -110.711E-03     67.9387E-03    -111.860E-03     221.683E-03    -110.529E-03     66.2459E-03
             335     4.83494E-03     71.0931E-03    -71.9256E+06    -195.132E+06    -36.6532E+06    -98.2971E+03    -111.956E-03     222.674E-03    -110.717E-03     80.8366E-03    -112.371E-03     222.247E-03    -110.513E-03     78.7016E-03
             336     5.64103E-03     71.1907E-03    -66.0894E+06    -179.511E+06    -27.0387E+06     3.01697E+03    -112.373E-03     223.088E-03    -110.716E-03     93.2265E-03    -112.971E-03     222.893E-03    -110.495E-03     90.6063E-03
             337     6.44679E-03     71.3008E-03    -60.4679E+06    -163.132E+06    -17.5412E+06     363.549E+03    -112.763E-03     223.473E-03    -110.710E-03     105.287E-03    -113.597E-03     223.565E-03    -110.474E-03     102.130E-03
             338     7.25283E-03     71.4244E-03    -55.3018E+06    -142.281E+06    -10.6255E+06     237.981E+03    -113.162E-03     223.845E-03    -110.683E-03     117.042E-03    -114.304E-03     224.317E-03    -110.450E-03     113.275E-03
             339     8.05936E-03     71.5603E-03    -50.7674E+06    -120.376E+06    -5.86377E+06     105.114E+03    -113.566E-03     224.213E-03    -110.646E-03     128.492E-03    -115.099E-03     225.155E-03    -110.427E-03     124.043E-03
             340     8.86482E-03     71.7085E-03    -46.5011E+06    -91.9457E+06    -510.044E+03     333.260E+03    -113.838E-03     224.442E-03    -110.605E-03     139.176E-03    -115.868E-03     225.982E-03    -110.406E-03     133.986E-03
             341     9.67176E-03     71.8673E-03    -42.4771E+06    -54.4122E+06     4.61488E+06     286.124E+03    -114.069E-03     224.621E-03    -110.552E-03     149.438E-03    -116.744E-03     226.938E-03    -110.388E-03     143.418E-03
             342     10.4769E-03     72.0380E-03    -38.3498E+06    -2.55335E+06     12.1016E+06     292.234E+03    -114.126E-03     224.619E-03    -110.492E-03     160.748E-03    -117.667E-03     227.979E-03    -110.372E-03     153.815E-03
             343     11.2840E-03     72.2210E-03    -33.6492E+06     58.3346E+06     22.9212E+06     27.6193E+03    -114.325E-03     224.755E-03    -110.431E-03     176.829E-03    -119.105E-03     229.557E-03    -110.352E-03     168.859E-03
             344     12.0888E-03     72.4271E-03    -29.2170E+06     97.3416E+06     45.7462E+06    -638.038E+03    -114.749E-03     225.205E-03    -110.456E-03     197.527E-03    -121.234E-03     231.799E-03    -110.326E-03     188.444E-03
             345     12.8971E-03     72.6544E-03    -24.5166E+06     110.846E+06     77.1376E+06     466.234E+03    -114.290E-03     224.841E-03    -110.551E-03     209.075E-03    -122.287E-03     232.920E-03    -110.290E-03     199.485E-03
             346     13.7007E-03     72.8863E-03    -18.2294E+06     120.583E+06     95.6866E+06     1.13686E+06    -112.051E-03     222.614E-03    -110.564E-03     196.132E-03    -120.234E-03     230.884E-03    -110.234E-03     187.286E-03
             347     14.5149E-03     73.0814E-03    -11.2810E+06     131.243E+06     102.600E+06     151.186E+03    -110.286E-03     220.783E-03    -110.497E-03     182.650E-03    -118.411E-03     229.036E-03    -110.158E-03     174.872E-03
             348     15.3126E-03     73.2834E-03    -5.57225E+06     131.722E+06     99.6979E+06    -249.851E+03    -109.874E-03     220.298E-03    -110.424E-03     116.805E-03    -114.993E-03     225.576E-03    -110.108E-03     111.399E-03
             349     805.274E-06     72.0055E-03    -94.9289E+06    -243.143E+06    -93.2621E+06     331.047E+03    -110.843E-03     221.403E-03    -110.560E-03     15.8788E-03    -110.842E-03     220.473E-03    -110.536E-03     15.5495E-03
             350     1.61154E-03     72.0318E-03    -92.4064E+06    -238.073E+06    -85.3391E+06     230.563E+03    -110.745E-03     221.419E-03    -110.674E-03     28.3513E-03    -110.778E-03     220.526E-03    -110.621E-03     27.7293E-03
             351     2.41743E-03     72.0692E-03    -88.3109E+06    -230.748E+06    -74.5122E+06     118.035E+03    -110.944E-03     221.616E-03    -110.672E-03     41.6824E-03    -111.031E-03     220.786E-03    -110.582E-03     40.7326E-03
             352     3.22315E-03     72.1245E-03    -83.3656E+06    -221.735E+06    -61.5518E+06     247.036E+03    -111.167E-03     221.852E-03    -110.684E-03     54.9449E-03    -111.332E-03     221.111E-03    -110.550E-03     53.6442E-03
             353     4.02910E-03     72.1920E-03    -77.4904E+06    -211.482E+06    -47.6877E+06     148.877E+03    -111.559E-03     222.263E-03    -110.703E-03     67.9316E-03    -111.829E-03     221.645E-03    -110.523E-03     66.2353E-03
             354     4.83516E-03     72.2759E-03    -71.6426E+06    -194.891E+06    -36.3199E+06     237.182E+03    -111.986E-03     222.699E-03    -110.712E-03     80.7817E-03    -112.401E-03     222.272E-03    -110.508E-03     78.6504E-03
             355     5.64079E-03     72.3721E-03    -66.1778E+06    -179.625E+06    -26.6085E+06    -80.5414E+03    -112.347E-03     223.060E-03    -110.714E-03     93.3280E-03    -112.946E-03     222.864E-03    -110.490E-03     90.7071E-03
             356     6.44713E-03     72.4831E-03    -60.7019E+06    -163.937E+06    -18.1016E+06     60.1492E+03    -112.724E-03     223.425E-03    -110.701E-03     105.319E-03    -113.558E-03     223.513E-03    -110.465E-03     102.161E-03
             357     7.25324E-03     72.6060E-03    -55.5323E+06    -142.345E+06    -11.0209E+06     381.775E+03    -113.151E-03     223.822E-03    -110.671E-03     117.106E-03    -114.294E-03     224.295E-03    -110.439E-03     113.341E-03
             358     8.05887E-03     72.7425E-03    -50.6296E+06    -119.979E+06    -5.27647E+06     124.589E+03    -113.569E-03     224.207E-03    -110.638E-03     128.435E-03    -115.101E-03     225.150E-03    -110.417E-03     123.986E-03
             359     8.86564E-03     72.8902E-03    -46.2095E+06    -92.5366E+06    -450.030E+03     201.911E+03    -113.929E-03     224.529E-03    -110.600E-03     139.152E-03    -115.958E-03     226.068E-03    -110.401E-03     133.954E-03
             360     9.67072E-03     73.0499E-03    -42.2075E+06    -54.8506E+06     4.54144E+06     325.973E+03    -114.135E-03     224.688E-03    -110.553E-03     149.576E-03    -116.807E-03     227.003E-03    -110.390E-03     143.556E-03
             361     10.4776E-03     73.2199E-03    -38.2202E+06    -1.36435E+06     12.8132E+06    -24.2929E+03    -114.029E-03     224.523E-03    -110.493E-03     160.932E-03    -117.572E-03     227.887E-03    -110.372E-03     154.006E-03
             362     11.2828E-03     73.4034E-03    -34.5648E+06     58.8274E+06     22.9139E+06    -491.287E+03    -114.191E-03     224.611E-03    -110.420E-03     177.415E-03    -118.982E-03     229.422E-03    -110.341E-03     169.447E-03
             363     12.0910E-03     73.6085E-03    -30.5693E+06     96.0421E+06     44.1562E+06     285.614E+03    -114.436E-03     224.860E-03    -110.424E-03     197.744E-03    -120.919E-03     231.447E-03    -110.298E-03     188.708E-03
             364     12.8955E-03     73.8375E-03    -24.8740E+06     110.005E+06     75.7555E+06     497.655E+03    -113.758E-03     224.251E-03    -110.493E-03     208.924E-03    -121.755E-03     232.331E-03    -110.238E-03     199.385E-03
             365     13.7071E-03     74.0655E-03    -17.6534E+06     120.848E+06     95.9084E+06     78.1093E+03    -112.059E-03     222.562E-03    -110.503E-03     194.580E-03    -120.219E-03     230.811E-03    -110.173E-03     185.719E-03
             366     14.5073E-03     74.2636E-03    -10.6797E+06     131.498E+06     103.112E+06     148.989E+03    -110.503E-03     220.963E-03    -110.460E-03     178.857E-03    -118.510E-03     229.099E-03    -110.119E-03     171.089E-03
             367     15.3254E-03     74.4620E-03    -5.41075E+06     131.797E+06     100.019E+06     71.5717E+03    -110.212E-03     220.628E-03    -110.415E-03     114.735E-03    -115.245E-03     225.819E-03    -110.098E-03     109.346E-03
             368     805.764E-06     73.1897E-03    -95.0604E+06    -243.419E+06    -93.3811E+06     120.938E+03    -110.798E-03     221.399E-03    -110.600E-03     15.7416E-03    -110.798E-03     220.468E-03    -110.577E-03     15.4072E-03
             369     1.61151E-03     73.2117E-03    -92.3872E+06    -238.353E+06    -85.7263E+06     86.5808E+03    -110.700E-03     221.362E-03    -110.661E-03     28.4365E-03    -110.732E-03     220.468E-03    -110.610E-03     27.8115E-03
             370     2.41733E-03     73.2528E-03    -88.4147E+06    -230.938E+06    -74.5221E+06     196.983E+03    -110.930E-03     221.583E-03    -110.653E-03     41.7214E-03    -111.016E-03     220.752E-03    -110.562E-03     40.7736E-03
             371     3.22325E-03     73.3049E-03    -83.1377E+06    -221.700E+06    -61.4013E+06    -39.8503E+03    -111.233E-03     221.908E-03    -110.675E-03     54.9517E-03    -111.397E-03     221.168E-03    -110.540E-03     53.6443E-03
             372     4.02926E-03     73.3750E-03    -77.4646E+06    -211.688E+06    -47.7831E+06     169.457E+03    -111.555E-03     222.257E-03    -110.702E-03     68.0579E-03    -111.824E-03     221.638E-03    -110.522E-03     66.3632E-03
             373     4.83485E-03     73.4570E-03    -71.6290E+06    -195.286E+06    -36.6975E+06     358.137E+03    -111.920E-03     222.624E-03    -110.704E-03     80.8171E-03    -112.334E-03     222.196E-03    -110.500E-03     78.6890E-03
             374     5.64132E-03     73.5546E-03    -65.9691E+06    -178.727E+06    -26.1161E+06     313.708E+03    -112.326E-03     223.027E-03    -110.702E-03     93.2769E-03    -112.925E-03     222.834E-03    -110.477E-03     90.6637E-03
             375     6.44691E-03     73.6646E-03    -60.6605E+06    -163.773E+06    -17.2139E+06    -24.3323E+03    -112.748E-03     223.442E-03    -110.694E-03     105.247E-03    -113.583E-03     223.530E-03    -110.455E-03     102.085E-03
             376     7.25301E-03     73.7880E-03    -55.2384E+06    -143.184E+06    -11.2535E+06    -62.6039E+03    -113.184E-03     223.849E-03    -110.665E-03     117.081E-03    -114.325E-03     224.318E-03    -110.433E-03     113.307E-03
             377     8.05947E-03     73.9244E-03    -50.3847E+06    -119.884E+06    -5.37096E+06     236.229E+03    -113.588E-03     224.223E-03    -110.635E-03     128.415E-03    -115.119E-03     225.165E-03    -110.415E-03     123.970E-03
             378     8.86480E-03     74.0722E-03    -46.1982E+06      -92.81E+06     -299.64E+03     147.926E+03    -113.916E-03     224.515E-03    -110.599E-03     139.334E-03    -115.949E-03     226.056E-03    -110.399E-03     134.132E-03
             379     9.67167E-03     74.2322E-03    -42.0693E+06    -54.4799E+06     4.70257E+06     233.242E+03    -113.933E-03     224.474E-03    -110.541E-03     149.782E-03    -116.603E-03     226.788E-03    -110.378E-03     143.779E-03
             380     10.4771E-03     74.4018E-03    -38.2417E+06    -1.11180E+06     12.8748E+06     199.549E+03    -113.930E-03     224.398E-03    -110.468E-03     161.224E-03    -117.477E-03     227.768E-03    -110.347E-03     154.304E-03
             381     11.2849E-03     74.5851E-03    -34.7552E+06     58.2680E+06     22.3387E+06     549.341E+03    -114.151E-03     224.540E-03    -110.389E-03     177.382E-03    -118.943E-03     229.351E-03    -110.312E-03     169.428E-03
             382     12.0893E-03     74.7913E-03    -30.5652E+06      95.952E+06     43.2399E+06     377.725E+03    -114.270E-03     224.658E-03    -110.388E-03     197.123E-03    -120.742E-03     231.237E-03    -110.267E-03     188.106E-03
             383     12.8993E-03     75.0169E-03    -24.3790E+06     110.298E+06     75.9845E+06    -539.007E+03    -114.187E-03     224.665E-03    -110.477E-03     207.851E-03    -122.174E-03     232.736E-03    -110.222E-03     198.250E-03
             384     13.7013E-03     75.2487E-03    -17.6312E+06     120.554E+06     96.0788E+06    -575.279E+03    -112.876E-03     223.409E-03    -110.533E-03     193.290E-03    -121.005E-03     231.625E-03    -110.202E-03     184.350E-03
             385     14.5133E-03     75.4455E-03    -11.1488E+06     130.936E+06     102.198E+06    -184.756E+03    -111.586E-03     222.128E-03    -110.542E-03     177.793E-03    -119.566E-03     230.236E-03    -110.205E-03     169.905E-03
             386     15.3077E-03     75.6421E-03    -4.76702E+06     131.804E+06     99.6181E+06     499.103E+03    -109.287E-03     219.789E-03    -110.502E-03     115.727E-03    -114.334E-03     224.997E-03    -110.188E-03     110.315E-03
             387     805.854E-06     74.3697E-03    -95.0530E+06    -243.382E+06    -93.1933E+06    -23.7843E+03    -110.630E-03     221.263E-03    -110.633E-03     15.4292E-03    -110.630E-03     220.332E-03    -110.608E-03     15.0927E-03
             388     1.61157E-03     74.3952E-03    -92.4616E+06    -238.548E+06    -85.8628E+06     47.9652E+03    -110.741E-03     221.356E-03    -110.616E-03     28.3629E-03    -110.773E-03     220.462E-03    -110.565E-03     27.7385E-03
             389     2.41752E-03     74.4331E-03    -88.5142E+06    -231.084E+06    -74.6826E+06     3.93578E+03    -110.933E-03     221.565E-03    -110.632E-03     41.7326E-03    -111.020E-03     220.734E-03    -110.542E-03     40.7824E-03
             390     3.22339E-03     74.4882E-03    -83.5213E+06    -221.799E+06    -61.1756E+06     28.2427E+03    -111.228E-03     221.891E-03    -110.662E-03     54.9893E-03    -111.395E-03     221.150E-03    -110.526E-03     53.6829E-03
             391     4.02893E-03     74.5560E-03    -77.8497E+06    -211.976E+06    -47.8371E+06     18.3590E+03    -111.546E-03     222.236E-03    -110.690E-03     68.0697E-03    -111.817E-03     221.617E-03    -110.509E-03     66.3730E-03
             392     4.83548E-03     74.6394E-03    -71.8164E+06    -195.619E+06    -36.9825E+06     71.5517E+03    -111.931E-03     222.624E-03    -110.693E-03     80.8580E-03    -112.345E-03     222.195E-03    -110.490E-03     78.7250E-03
             393     5.64079E-03     74.7362E-03    -65.7727E+06    -178.807E+06    -26.3184E+06     374.531E+03    -112.313E-03     223.005E-03    -110.692E-03     93.1675E-03    -112.911E-03     222.811E-03    -110.469E-03     90.5559E-03
             394     6.44734E-03     74.8465E-03    -60.1080E+06    -162.841E+06    -16.6588E+06     204.280E+03    -112.754E-03     223.441E-03    -110.687E-03     105.349E-03    -113.590E-03     223.533E-03    -110.447E-03     102.189E-03
             395     7.25316E-03     74.9702E-03    -55.2865E+06    -143.278E+06    -11.0972E+06    -67.3494E+03    -113.222E-03     223.882E-03    -110.660E-03     117.148E-03    -114.363E-03     224.350E-03    -110.428E-03     113.374E-03
             396     8.05888E-03     75.1060E-03    -50.7749E+06    -120.612E+06    -5.97335E+06     137.775E+03    -113.568E-03     224.197E-03    -110.629E-03     128.555E-03    -115.101E-03     225.139E-03    -110.410E-03     124.106E-03
             397     8.86564E-03     75.2547E-03    -46.1686E+06    -92.4508E+06    -23.5434E+03     155.053E+03    -113.755E-03     224.342E-03    -110.587E-03     139.476E-03    -115.787E-03     225.882E-03    -110.386E-03     134.286E-03
             398     9.67109E-03     75.4136E-03    -42.2834E+06    -54.6950E+06     4.60589E+06     283.795E+03    -113.808E-03     224.325E-03    -110.517E-03     149.649E-03    -116.476E-03     226.636E-03    -110.354E-03     143.654E-03
             399     10.4789E-03     75.5834E-03    -38.6949E+06    -1.94151E+06     12.3132E+06     494.453E+03    -114.000E-03     224.443E-03    -110.443E-03     161.198E-03    -117.548E-03     227.812E-03    -110.323E-03     154.275E-03
             400     11.2830E-03     75.7682E-03    -34.3622E+06     57.8764E+06     21.8421E+06     527.757E+03    -114.144E-03     224.513E-03    -110.369E-03     176.794E-03    -118.925E-03     229.314E-03    -110.294E-03     168.843E-03
             401     12.0922E-03     75.9711E-03    -29.0591E+06     97.2050E+06     44.8808E+06     53.8705E+03    -114.536E-03     224.923E-03    -110.387E-03     196.637E-03    -120.997E-03     231.496E-03    -110.261E-03     187.592E-03
             402     12.8951E-03     76.2007E-03    -23.6377E+06     111.174E+06     77.7434E+06    -229.042E+03    -114.657E-03     225.158E-03    -110.501E-03     208.468E-03    -122.654E-03     233.240E-03    -110.239E-03     198.828E-03
             403     13.7045E-03     76.4308E-03    -17.8266E+06     120.135E+06     95.7353E+06    -143.442E+03    -113.102E-03     223.665E-03    -110.563E-03     194.801E-03    -121.265E-03     231.913E-03    -110.233E-03     185.842E-03
             404     14.5046E-03     76.6276E-03    -11.7950E+06     130.039E+06     101.379E+06     154.397E+03    -111.096E-03     221.648E-03    -110.552E-03     180.845E-03    -119.157E-03     229.834E-03    -110.216E-03     173.002E-03
             405     15.3209E-03     76.8287E-03    -5.29464E+06     131.366E+06     99.1397E+06     75.8278E+03    -108.850E-03     219.326E-03    -110.476E-03     117.377E-03    -113.951E-03     224.588E-03    -110.163E-03     112.001E-03
             406     805.635E-06     75.5524E-03    -95.1238E+06    -243.577E+06    -93.3758E+06       -24.4E+03    -110.800E-03     221.209E-03    -110.410E-03     15.5489E-03    -110.799E-03     220.278E-03    -110.385E-03     15.2128E-03
             407     1.61168E-03     75.5763E-03    -92.5074E+06    -238.574E+06    -85.7262E+06     17.4315E+03    -110.756E-03     221.354E-03    -110.598E-03     28.2691E-03    -110.788E-03     220.460E-03    -110.547E-03     27.6443E-03
             408     2.41742E-03     75.6156E-03    -88.5337E+06    -231.094E+06    -74.5026E+06     48.8949E+03    -110.923E-03     221.548E-03    -110.624E-03     41.7055E-03    -111.010E-03     220.716E-03    -110.533E-03     40.7557E-03
             409     3.22320E-03     75.6696E-03    -83.6384E+06    -221.927E+06    -61.2643E+06     124.405E+03    -111.177E-03     221.826E-03    -110.648E-03     54.9993E-03    -111.343E-03     221.085E-03    -110.512E-03     53.6961E-03
             410     4.02963E-03     75.7381E-03    -77.8226E+06    -211.697E+06    -47.3748E+06     17.3659E+03    -111.577E-03     222.255E-03    -110.678E-03     68.0624E-03    -111.849E-03     221.637E-03    -110.495E-03     66.3637E-03
             411     4.83477E-03     75.8213E-03    -71.6978E+06    -195.637E+06    -36.8808E+06    -169.500E+03    -111.933E-03     222.618E-03    -110.685E-03     80.8108E-03    -112.346E-03     222.189E-03    -110.482E-03     78.6756E-03
             412     5.64144E-03     75.9180E-03    -65.8406E+06    -179.627E+06    -27.0687E+06    -18.8137E+03    -112.293E-03     222.974E-03    -110.681E-03     93.1910E-03    -112.890E-03     222.778E-03    -110.460E-03     90.5735E-03
             413     6.44699E-03     76.0284E-03    -60.4545E+06    -163.243E+06    -17.4140E+06     419.151E+03    -112.756E-03     223.431E-03    -110.675E-03     105.398E-03    -113.592E-03     223.523E-03    -110.438E-03     102.242E-03
             414     7.25323E-03     76.1521E-03    -55.4340E+06    -142.573E+06    -10.6575E+06     307.214E+03    -113.152E-03     223.802E-03    -110.650E-03     117.170E-03    -114.295E-03     224.274E-03    -110.416E-03     113.404E-03
             415     8.05953E-03     76.2881E-03    -50.6573E+06    -120.691E+06    -5.68066E+06    -18.9112E+03    -113.507E-03     224.120E-03    -110.613E-03     128.687E-03    -115.042E-03     225.063E-03    -110.393E-03     124.236E-03
             416     8.86511E-03     76.4363E-03    -46.3887E+06    -92.6300E+06    -255.119E+03     163.401E+03    -113.705E-03     224.270E-03    -110.565E-03     139.347E-03    -115.734E-03     225.806E-03    -110.365E-03     134.164E-03
             417     9.67248E-03     76.5952E-03    -42.1988E+06    -55.6711E+06     4.51864E+06     345.244E+03    -113.929E-03     224.431E-03    -110.502E-03     149.618E-03    -116.600E-03     226.741E-03    -110.338E-03     143.611E-03
             418     10.4769E-03     76.7659E-03    -38.0741E+06    -2.55834E+06     12.1075E+06     448.884E+03    -114.051E-03     224.485E-03    -110.434E-03     161.190E-03    -117.593E-03     227.848E-03    -110.315E-03     154.267E-03
             419     11.2855E-03     76.9495E-03    -33.8645E+06     59.3361E+06     23.3241E+06    -192.960E+03    -114.186E-03     224.556E-03    -110.370E-03     176.614E-03    -118.961E-03     229.354E-03    -110.290E-03     168.660E-03
             420     12.0889E-03     77.1537E-03    -29.5089E+06     97.1505E+06     45.3272E+06    -365.158E+03    -114.693E-03     225.085E-03    -110.392E-03     197.071E-03    -121.169E-03     231.670E-03    -110.263E-03     188.000E-03
             421     12.8985E-03     77.3828E-03    -23.9560E+06     110.579E+06     77.0867E+06     399.841E+03    -114.313E-03     224.805E-03    -110.492E-03     209.162E-03    -122.308E-03     232.883E-03    -110.232E-03     199.569E-03
             422     13.7020E-03     77.6132E-03    -17.6700E+06     120.102E+06     95.9900E+06     650.885E+03    -112.164E-03     222.677E-03    -110.514E-03     196.061E-03    -120.343E-03     230.942E-03    -110.182E-03     187.211E-03
             423     14.5141E-03     77.8120E-03    -11.2176E+06     130.613E+06     102.253E+06     159.577E+03    -110.638E-03     221.102E-03    -110.464E-03     180.863E-03    -118.707E-03     229.298E-03    -110.126E-03     173.068E-03
             424     15.3152E-03     78.0031E-03    -5.62956E+06     131.627E+06     99.6487E+06    -373.796E+03    -110.080E-03     220.496E-03    -110.415E-03     115.299E-03    -115.150E-03     225.724E-03    -110.100E-03     109.871E-03
             425     806.136E-06     76.7348E-03    -95.1372E+06    -243.610E+06    -93.3426E+06     66.6758E+03    -110.745E-03     221.187E-03    -110.442E-03     15.4492E-03    -110.744E-03     220.255E-03    -110.418E-03     15.1158E-03
             426     1.61150E-03     76.7580E-03    -92.5935E+06    -238.609E+06    -85.5887E+06     33.4153E+03    -110.740E-03     221.328E-03    -110.588E-03     28.2491E-03    -110.773E-03     220.433E-03    -110.535E-03     27.6229E-03
             427     2.41746E-03     76.7976E-03    -88.7437E+06    -231.201E+06    -74.4331E+06     145.007E+03    -110.894E-03     221.505E-03    -110.610E-03     41.7492E-03    -110.982E-03     220.673E-03    -110.519E-03     40.8009E-03
             428     3.22360E-03     76.8511E-03    -83.4629E+06    -221.931E+06    -61.2178E+06     22.7913E+03    -111.223E-03     221.862E-03    -110.638E-03     55.0345E-03    -111.389E-03     221.121E-03    -110.501E-03     53.7286E-03
             429     4.02893E-03     76.9203E-03    -77.4663E+06    -211.577E+06    -47.3930E+06     76.8807E+03    -111.568E-03     222.241E-03    -110.673E-03     68.0549E-03    -111.837E-03     221.622E-03    -110.491E-03     66.3582E-03
             430     4.83551E-03     77.0031E-03    -71.7527E+06    -195.456E+06    -36.5909E+06    -73.3787E+03    -111.854E-03     222.530E-03    -110.676E-03     80.7446E-03    -112.268E-03     222.101E-03    -110.471E-03     78.6127E-03
             431     5.64101E-03     77.0997E-03    -66.2284E+06    -180.132E+06    -27.0558E+06    -45.3371E+03    -112.309E-03     222.978E-03    -110.668E-03     93.3178E-03    -112.908E-03     222.780E-03    -110.447E-03     90.6985E-03
             432     6.44737E-03     77.2105E-03    -60.5376E+06    -163.706E+06    -17.6062E+06     218.410E+03    -112.736E-03     223.398E-03    -110.662E-03     105.430E-03    -113.571E-03     223.488E-03    -110.425E-03     102.273E-03
             433     7.25330E-03     77.3337E-03    -55.0385E+06    -142.600E+06    -10.6853E+06     186.553E+03    -113.090E-03     223.723E-03    -110.633E-03     117.212E-03    -114.232E-03     224.195E-03    -110.400E-03     113.447E-03
             434     8.05937E-03     77.4700E-03    -50.3631E+06    -120.298E+06    -5.31386E+06     102.970E+03    -113.451E-03     224.045E-03    -110.593E-03     128.594E-03    -114.984E-03     224.987E-03    -110.372E-03     124.150E-03
             435     8.86612E-03     77.6181E-03    -45.9966E+06    -93.1051E+06    -245.741E+03     198.026E+03    -113.781E-03     224.329E-03    -110.548E-03     139.279E-03    -115.810E-03     225.865E-03    -110.348E-03     134.088E-03
             436     9.67111E-03     77.7771E-03    -41.9291E+06    -56.1094E+06     4.29758E+06     130.958E+03    -114.018E-03     224.510E-03    -110.492E-03     149.802E-03    -116.689E-03     226.820E-03    -110.328E-03     143.787E-03
             437     10.4790E-03     77.9480E-03    -37.8173E+06    -1.68039E+06     12.5841E+06     41.3593E+03    -114.023E-03     224.451E-03    -110.428E-03     161.193E-03    -117.565E-03     227.816E-03    -110.308E-03     154.271E-03
             438     11.2830E-03     78.1312E-03    -34.0334E+06     59.4496E+06     23.7563E+06     67.0028E+03    -114.127E-03     224.488E-03    -110.361E-03     176.905E-03    -118.907E-03     229.290E-03    -110.280E-03     168.958E-03
             439     12.0922E-03     78.3362E-03    -29.9437E+06     96.8557E+06     45.8749E+06     251.747E+03    -114.528E-03     224.904E-03    -110.376E-03     197.539E-03    -121.018E-03     231.499E-03    -110.244E-03     188.489E-03
             440     12.8956E-03     78.5642E-03    -24.7385E+06     109.722E+06     76.4870E+06     334.289E+03    -113.927E-03     224.383E-03    -110.456E-03     208.965E-03    -121.929E-03     232.464E-03    -110.196E-03     199.407E-03
             441     13.7062E-03     78.7944E-03    -17.5129E+06     120.062E+06     95.9396E+06    -10.5859E+03    -111.755E-03     222.216E-03    -110.461E-03     194.686E-03    -119.896E-03     230.443E-03    -110.130E-03     185.872E-03
             442     14.5103E-03     78.9900E-03    -10.7501E+06     130.925E+06     102.934E+06     96.2475E+03    -111.172E-03     221.597E-03    -110.425E-03     180.223E-03    -119.225E-03     229.777E-03    -110.084E-03     172.376E-03
             443     15.3187E-03     79.1940E-03    -5.68775E+06     131.318E+06     99.3571E+06    -104.456E+03    -110.633E-03     221.037E-03    -110.404E-03     115.736E-03    -115.719E-03     226.281E-03    -110.089E-03     110.241E-03
             444     805.370E-06     77.9155E-03    -95.1413E+06    -243.665E+06    -93.2940E+06         927.313    -110.589E-03     221.127E-03    -110.538E-03     15.5216E-03    -110.589E-03     220.195E-03    -110.513E-03     15.1871E-03
             445     1.61183E-03     77.9405E-03    -92.8104E+06    -238.898E+06    -85.8264E+06     154.180E+03    -110.693E-03     221.246E-03    -110.553E-03     28.3716E-03    -110.727E-03     220.351E-03    -110.501E-03     27.7483E-03
             446     2.41759E-03     77.9788E-03    -88.5054E+06    -231.133E+06    -74.3728E+06     150.603E+03    -110.981E-03     221.572E-03    -110.590E-03     41.6944E-03    -111.068E-03     220.740E-03    -110.499E-03     40.7449E-03
             447     3.22326E-03     78.0334E-03    -83.3012E+06    -221.774E+06     -61.012E+06     149.425E+03    -111.239E-03     221.878E-03    -110.639E-03     55.0495E-03    -111.405E-03     221.137E-03    -110.501E-03     53.7454E-03
             448     4.02947E-03     78.1021E-03    -77.6104E+06    -211.853E+06    -47.5301E+06    -43.9296E+03    -111.463E-03     222.129E-03    -110.666E-03     68.0199E-03    -111.733E-03     221.509E-03    -110.483E-03     66.3228E-03
             449     4.83507E-03     78.1846E-03    -71.6762E+06    -195.352E+06    -36.2641E+06     154.719E+03    -111.847E-03     222.507E-03    -110.661E-03     80.8128E-03    -112.261E-03     222.079E-03    -110.455E-03     78.6831E-03
             450     5.64155E-03     78.2819E-03    -65.9631E+06    -179.494E+06    -25.9405E+06     52.4779E+03    -112.292E-03     222.948E-03    -110.657E-03     93.3435E-03    -112.891E-03     222.752E-03    -110.430E-03     90.7261E-03
             451     6.44722E-03     78.3921E-03    -60.3436E+06    -163.980E+06    -17.5339E+06    -17.3191E+03    -112.671E-03     223.315E-03    -110.644E-03     105.402E-03    -113.505E-03     223.403E-03    -110.406E-03     102.242E-03
             452     7.25356E-03     78.5156E-03    -55.4274E+06    -142.970E+06    -11.2637E+06     122.329E+03    -113.110E-03     223.722E-03    -110.612E-03     117.258E-03    -114.252E-03     224.192E-03    -110.380E-03     113.492E-03
             453     8.05973E-03     78.6517E-03    -50.7602E+06    -120.507E+06    -5.65866E+06     87.1872E+03    -113.498E-03     224.076E-03    -110.578E-03     128.536E-03    -115.031E-03     225.018E-03    -110.358E-03     124.091E-03
             454     8.86542E-03     78.7997E-03    -46.5010E+06    -93.1588E+06    -473.267E+03    -18.0498E+03    -113.798E-03     224.336E-03    -110.538E-03     139.321E-03    -115.832E-03     225.875E-03    -110.338E-03     134.124E-03
             455     9.67263E-03     78.9595E-03    -42.3259E+06    -55.2884E+06     4.45562E+06    -256.051E+03    -113.971E-03     224.453E-03    -110.482E-03     149.847E-03    -116.645E-03     226.767E-03    -110.318E-03     143.831E-03
             456     10.4771E-03     79.1295E-03    -38.4027E+06    -2.11443E+06     12.3036E+06    -125.556E+03    -113.897E-03     224.309E-03    -110.412E-03     161.269E-03    -117.442E-03     227.674E-03    -110.292E-03     154.352E-03
             457     11.2858E-03     79.3135E-03    -34.4479E+06     58.4217E+06     22.9043E+06     403.053E+03    -114.086E-03     224.424E-03    -110.338E-03     177.053E-03    -118.873E-03     229.230E-03    -110.258E-03     169.106E-03
             458     12.0898E-03     79.5173E-03    -29.8863E+06     96.4312E+06     44.9485E+06     665.009E+03    -114.361E-03     224.707E-03    -110.346E-03     197.168E-03    -120.837E-03     231.289E-03    -110.218E-03     188.146E-03
             459     12.8996E-03     79.7469E-03    -23.7017E+06     110.477E+06     77.4649E+06     164.781E+03    -113.974E-03     224.407E-03    -110.433E-03     208.147E-03    -121.955E-03     232.471E-03    -110.172E-03     198.590E-03
             460     13.7034E-03     79.9738E-03    -17.2622E+06     120.137E+06     96.5161E+06    -12.2892E+03    -112.650E-03     223.122E-03    -110.472E-03     193.866E-03    -120.776E-03     231.333E-03    -110.138E-03     184.964E-03
             461     14.5119E-03     80.1746E-03    -10.9874E+06     130.315E+06     102.410E+06     88.2435E+03    -111.273E-03     221.734E-03    -110.462E-03     180.096E-03    -119.309E-03     229.897E-03    -110.123E-03     172.241E-03
             462     15.3167E-03     80.3731E-03    -5.05940E+06     131.634E+06     99.8801E+06    -74.3951E+03    -109.889E-03     220.314E-03    -110.425E-03     114.787E-03    -114.950E-03     225.534E-03    -110.109E-03     109.383E-03
             463     806.368E-06     79.0979E-03    -95.5077E+06    -244.074E+06    -93.5620E+06     67.7332E+03    -110.666E-03     221.049E-03    -110.383E-03     15.5750E-03    -110.666E-03     220.115E-03    -110.358E-03     15.2435E-03
             464     1.61169E-03     79.1215E-03    -92.4472E+06    -238.802E+06    -85.7087E+06     62.3638E+03    -110.764E-03     221.300E-03    -110.536E-03     28.2644E-03    -110.796E-03     220.405E-03    -110.484E-03     27.6402E-03
             465     2.41756E-03     79.1613E-03    -88.4083E+06    -231.311E+06    -74.5057E+06     62.5371E+03    -110.987E-03     221.581E-03    -110.595E-03     41.7516E-03    -111.073E-03     220.748E-03    -110.504E-03     40.8011E-03
             466     3.22332E-03     79.2151E-03    -83.2977E+06    -221.869E+06    -61.0357E+06     126.171E+03    -111.156E-03     221.790E-03    -110.634E-03     54.9777E-03    -111.321E-03     221.049E-03    -110.496E-03     53.6741E-03
             467     4.02926E-03     79.2836E-03    -77.5528E+06    -211.647E+06    -47.2009E+06     93.9910E+03    -111.427E-03     222.078E-03    -110.650E-03     68.0038E-03    -111.698E-03     221.459E-03    -110.467E-03     66.3084E-03
             468     4.83565E-03     79.3666E-03    -71.6004E+06    -195.417E+06    -36.2588E+06     125.106E+03    -111.860E-03     222.505E-03    -110.645E-03     80.8431E-03    -112.274E-03     222.076E-03    -110.439E-03     78.7123E-03
             469     5.64114E-03     79.4635E-03    -65.8010E+06    -179.346E+06    -26.0975E+06     228.192E+03    -112.245E-03     222.885E-03    -110.640E-03     93.2857E-03    -112.843E-03     222.688E-03    -110.415E-03     90.6729E-03
             470     6.44769E-03     79.5738E-03    -60.4793E+06    -164.153E+06    -17.3877E+06    -57.5771E+03    -112.665E-03     223.293E-03    -110.628E-03     105.340E-03    -113.499E-03     223.380E-03    -110.389E-03     102.179E-03
             471     7.25361E-03     79.6973E-03    -55.1856E+06    -143.046E+06    -11.0805E+06     272.250E+03    -113.096E-03     223.693E-03    -110.597E-03     117.213E-03    -114.237E-03     224.162E-03    -110.365E-03     113.450E-03
             472     8.05962E-03     79.8336E-03    -50.6177E+06    -120.459E+06    -5.45178E+06     284.591E+03    -113.504E-03     224.068E-03    -110.564E-03     128.610E-03    -115.037E-03     225.010E-03    -110.343E-03     124.168E-03
             473     8.86613E-03     79.9815E-03    -46.2756E+06    -93.0337E+06    -104.201E+03    -92.2234E+03    -113.849E-03     224.377E-03    -110.527E-03     139.506E-03    -115.886E-03     225.919E-03    -110.326E-03     134.302E-03
             474     9.67128E-03     80.1412E-03    -42.4122E+06    -55.0923E+06     4.57852E+06    -33.6269E+03    -113.924E-03     224.396E-03    -110.472E-03     149.775E-03    -116.599E-03     226.711E-03    -110.307E-03     143.763E-03
             475     10.4795E-03     80.3115E-03    -38.8076E+06    -2.61142E+06     12.1369E+06         555.953    -113.864E-03     224.265E-03    -110.401E-03     160.926E-03    -117.405E-03     227.624E-03    -110.280E-03     154.014E-03
             476     11.2838E-03     80.4947E-03    -34.7887E+06     57.7564E+06     22.1784E+06     91.5884E+03    -114.103E-03     224.430E-03    -110.326E-03     176.834E-03    -118.886E-03     229.230E-03    -110.249E-03     168.883E-03
             477     12.0923E-03     80.7005E-03    -29.6148E+06     96.6073E+06     44.7092E+06    -79.0026E+03    -114.483E-03     224.826E-03    -110.343E-03     196.386E-03    -120.940E-03     231.391E-03    -110.217E-03     187.347E-03
             478     12.8965E-03     80.9257E-03    -23.7658E+06     110.298E+06     77.2752E+06     8.81384E+03    -114.469E-03     224.924E-03    -110.455E-03     207.560E-03    -122.440E-03     232.978E-03    -110.194E-03     197.944E-03
             479     13.7049E-03     81.1596E-03    -17.5203E+06     119.828E+06     96.3970E+06     471.056E+03    -112.978E-03     223.498E-03    -110.520E-03     193.686E-03    -121.113E-03     231.716E-03    -110.186E-03     184.742E-03
             480     14.5083E-03     81.3539E-03    -10.8505E+06     130.419E+06     102.808E+06     44.9813E+03    -111.091E-03     221.605E-03    -110.514E-03     179.914E-03    -119.132E-03     229.773E-03    -110.174E-03     172.063E-03
             481     15.3167E-03     81.5567E-03    -5.48381E+06     131.502E+06     99.9653E+06    -111.341E+03    -109.654E-03     220.118E-03    -110.464E-03     115.902E-03    -114.740E-03     225.362E-03    -110.147E-03     110.502E-03
             482     805.503E-06     80.2798E-03    -95.0008E+06    -243.875E+06    -93.3953E+06    -3.89791E+03    -110.694E-03     221.177E-03    -110.484E-03     15.4344E-03    -110.692E-03     220.244E-03    -110.459E-03     15.1011E-03
             483     1.61165E-03     80.3035E-03    -92.3928E+06    -238.923E+06    -85.7413E+06    -59.4055E+03    -110.744E-03     221.327E-03    -110.583E-03     28.2684E-03    -110.775E-03     220.430E-03    -110.531E-03     27.6410E-03
             484     2.41741E-03     80.3430E-03    -88.3473E+06    -231.359E+06    -74.4188E+06     10.5771E+03    -110.859E-03     221.461E-03    -110.602E-03     41.7729E-03    -110.945E-03     220.628E-03    -110.511E-03     40.8229E-03
             485     3.22352E-03     80.3968E-03    -83.3312E+06    -222.103E+06    -61.1750E+06    -33.1235E+03    -111.088E-03     221.701E-03    -110.612E-03     54.9337E-03    -111.253E-03     220.958E-03    -110.475E-03     53.6279E-03
             486     4.02957E-03     80.4653E-03    -77.4957E+06    -211.697E+06    -47.2316E+06     174.871E+03    -111.455E-03     222.083E-03    -110.628E-03     68.0832E-03    -111.725E-03     221.464E-03    -110.445E-03     66.3904E-03
             487     4.83514E-03     80.5484E-03    -71.6620E+06    -195.509E+06    -36.3335E+06     244.297E+03    -111.835E-03     222.461E-03    -110.626E-03     80.9376E-03    -112.249E-03     222.032E-03    -110.420E-03     78.8096E-03
             488     5.64178E-03     80.6452E-03    -65.8920E+06    -179.556E+06    -26.4180E+06     155.947E+03    -112.256E-03     222.877E-03    -110.621E-03     93.2759E-03    -112.854E-03     222.681E-03    -110.397E-03     90.6621E-03
             489     6.44741E-03     80.7556E-03    -60.1622E+06    -163.697E+06    -16.9015E+06     132.569E+03    -112.698E-03     223.315E-03    -110.617E-03     105.370E-03    -113.533E-03     223.404E-03    -110.377E-03     102.210E-03
             490     7.25362E-03     80.8790E-03    -55.0880E+06    -143.845E+06    -10.9468E+06      43.565E+03    -113.105E-03     223.694E-03    -110.590E-03     117.151E-03    -114.245E-03     224.160E-03    -110.356E-03     113.381E-03
             491     8.06006E-03     81.0152E-03    -50.1168E+06    -120.271E+06    -5.18063E+06     373.769E+03    -113.498E-03     224.056E-03    -110.557E-03     128.530E-03    -115.029E-03     224.996E-03    -110.336E-03     124.092E-03
             492     8.86578E-03     81.1637E-03    -45.9053E+06    -92.7008E+06     345.362E+03     215.832E+03    -113.844E-03     224.367E-03    -110.522E-03     139.352E-03    -115.878E-03     225.908E-03    -110.320E-03     134.153E-03
             493     9.67279E-03     81.3232E-03    -42.1064E+06    -55.8131E+06     4.62095E+06     432.949E+03    -113.986E-03     224.456E-03    -110.470E-03     149.483E-03    -116.656E-03     226.765E-03    -110.305E-03     143.474E-03
             494     10.4772E-03     81.4928E-03    -38.3686E+06    -2.44777E+06     12.4142E+06     466.959E+03    -114.007E-03     224.415E-03    -110.409E-03     160.729E-03    -117.549E-03     227.776E-03    -110.288E-03     153.809E-03
             495     11.2854E-03     81.6771E-03    -34.3079E+06     58.2692E+06     23.4423E+06    -274.826E+03    -114.161E-03     224.507E-03    -110.347E-03     176.533E-03    -118.937E-03     229.301E-03    -110.264E-03     168.576E-03
             496     12.0901E-03     81.8811E-03    -29.9296E+06     96.5936E+06     45.6303E+06    -333.050E+03    -114.692E-03     225.065E-03    -110.373E-03     196.347E-03    -121.152E-03     231.629E-03    -110.241E-03     187.286E-03
             497     12.8978E-03     82.1102E-03    -24.5653E+06     109.624E+06     76.5857E+06     45.9767E+03    -114.866E-03     225.360E-03    -110.493E-03     208.292E-03    -122.877E-03     233.450E-03    -110.234E-03     198.618E-03
             498     13.7016E-03     82.3397E-03    -17.6863E+06     119.559E+06     95.8221E+06    -129.483E+03    -112.849E-03     223.411E-03    -110.562E-03     193.914E-03    -121.005E-03     231.650E-03    -110.230E-03     184.954E-03
             499     14.5107E-03     82.5382E-03    -10.3351E+06     130.666E+06     103.295E+06     113.350E+03    -110.695E-03     221.238E-03    -110.543E-03     179.659E-03    -118.720E-03     229.391E-03    -110.201E-03     171.862E-03
             500     15.3165E-03     82.7355E-03    -5.00172E+06     131.691E+06     100.271E+06     524.084E+03    -109.352E-03     219.822E-03    -110.471E-03     116.975E-03    -114.436E-03     225.066E-03    -110.153E-03     111.608E-03
             501     805.916E-06     81.4607E-03    -94.9758E+06    -243.786E+06    -93.0337E+06    -111.421E+03    -110.670E-03     221.235E-03    -110.565E-03     15.5416E-03    -110.669E-03     220.302E-03    -110.539E-03     15.2039E-03
             502     1.61157E-03     81.4859E-03    -92.3662E+06    -239.034E+06    -85.7872E+06    -13.6772E+03    -110.659E-03     221.246E-03    -110.587E-03     28.4626E-03    -110.690E-03     220.350E-03    -110.536E-03     27.8359E-03
             503     2.41756E-03     81.5243E-03    -88.4817E+06    -231.603E+06    -74.6019E+06    -25.9124E+03    -110.799E-03     221.377E-03    -110.578E-03     41.7260E-03    -110.886E-03     220.543E-03    -110.487E-03     40.7750E-03
             504     3.22358E-03     81.5786E-03    -83.3545E+06    -222.123E+06    -61.0206E+06     122.620E+03    -111.062E-03     221.645E-03    -110.583E-03     55.0212E-03    -111.227E-03     220.902E-03    -110.446E-03     53.7191E-03
             505     4.02941E-03     81.6469E-03    -77.6797E+06    -212.131E+06    -47.3822E+06     152.931E+03    -111.463E-03     222.065E-03    -110.602E-03     68.1065E-03    -111.734E-03     221.444E-03    -110.419E-03     66.4124E-03
             506     4.83595E-03     81.7300E-03    -71.5026E+06    -195.626E+06    -36.2502E+06     52.1519E+03    -111.867E-03     222.475E-03    -110.608E-03     80.8695E-03    -112.280E-03     222.045E-03    -110.402E-03     78.7390E-03
             507     5.64135E-03     81.8270E-03    -65.4681E+06    -179.493E+06    -25.8565E+06     66.5033E+03    -112.262E-03     222.873E-03    -110.611E-03     93.1951E-03    -112.859E-03     222.675E-03    -110.385E-03     90.5788E-03
             508     6.44781E-03     81.9372E-03    -60.0343E+06    -163.586E+06    -16.7807E+06     162.262E+03    -112.723E-03     223.331E-03    -110.608E-03     105.370E-03    -113.558E-03     223.421E-03    -110.368E-03     102.209E-03
             509     7.25379E-03     82.0609E-03    -54.7876E+06    -143.575E+06    -10.4815E+06     57.2365E+03    -113.189E-03     223.779E-03    -110.590E-03     117.054E-03    -114.329E-03     224.245E-03    -110.355E-03     113.281E-03
             510     8.05950E-03     82.1968E-03    -50.2344E+06    -121.309E+06    -5.60989E+06     221.046E+03    -113.569E-03     224.133E-03    -110.564E-03     128.472E-03    -115.100E-03     225.071E-03    -110.343E-03     124.022E-03
             511     8.86602E-03     82.3455E-03    -45.9228E+06    -92.5079E+06     410.408E+03     673.596E+03    -113.830E-03     224.361E-03    -110.532E-03     139.292E-03    -115.861E-03     225.901E-03    -110.329E-03     134.104E-03
             512     9.67131E-03     82.5048E-03    -41.8126E+06    -55.7223E+06     5.18759E+06     441.078E+03    -114.001E-03     224.483E-03    -110.481E-03     149.472E-03    -116.673E-03     226.793E-03    -110.314E-03     143.460E-03
             513     10.4790E-03     82.6754E-03    -37.5746E+06    -2.61100E+06     12.6769E+06     365.774E+03    -114.115E-03     224.537E-03    -110.422E-03     160.856E-03    -117.658E-03     227.900E-03    -110.300E-03     153.923E-03
             514     11.2834E-03     82.8584E-03    -33.8585E+06     58.6602E+06     23.8668E+06     511.362E+03    -114.324E-03     224.692E-03    -110.368E-03     176.575E-03    -119.105E-03     229.492E-03    -110.285E-03     168.612E-03
             515     12.0912E-03     83.0639E-03    -29.9541E+06     96.4054E+06     45.7184E+06     329.660E+03    -114.853E-03     225.255E-03    -110.402E-03     196.734E-03    -121.328E-03     231.834E-03    -110.270E-03     187.656E-03
             516     12.8962E-03     83.2915E-03    -24.2294E+06     110.061E+06     77.1580E+06    -205.646E+03    -114.597E-03     225.114E-03    -110.517E-03     208.690E-03    -122.604E-03     233.202E-03    -110.255E-03     199.045E-03
             517     13.7037E-03     83.5250E-03    -17.4385E+06     119.905E+06     96.2390E+06    -601.341E+03    -112.498E-03     223.060E-03    -110.562E-03     194.328E-03    -120.645E-03     231.292E-03    -110.229E-03     185.427E-03
             518     14.5082E-03     83.7161E-03    -11.7326E+06     128.986E+06     101.483E+06    -38.8240E+03    -110.518E-03     221.038E-03    -110.520E-03     180.185E-03    -118.563E-03     229.206E-03    -110.183E-03     172.408E-03
             519     15.3163E-03     83.9196E-03    -5.44884E+06     131.009E+06     99.4109E+06     397.650E+03    -109.413E-03     219.860E-03    -110.446E-03     118.000E-03    -114.524E-03     225.128E-03    -110.132E-03     112.607E-03
             520     805.706E-06     82.6432E-03    -94.8438E+06    -243.871E+06    -93.1093E+06    -91.7027E+03    -110.598E-03     221.055E-03    -110.458E-03     15.4385E-03    -110.595E-03     220.122E-03    -110.432E-03     15.1023E-03
             521     1.61175E-03     82.6672E-03    -92.3090E+06    -238.982E+06    -85.4923E+06    -11.1182E+03    -110.645E-03     221.159E-03    -110.514E-03     28.4453E-03    -110.676E-03     220.262E-03    -110.461E-03     27.8200E-03
             522     2.41772E-03     82.7062E-03    -88.2005E+06    -231.615E+06    -74.5756E+06    -106.077E+03    -110.817E-03     221.346E-03    -110.529E-03     41.6942E-03    -110.902E-03     220.512E-03    -110.438E-03     40.7420E-03
             523     3.22363E-03     82.7600E-03    -83.2289E+06    -222.203E+06    -60.9659E+06     257.867E+03    -111.107E-03     221.662E-03    -110.555E-03     55.0153E-03    -111.271E-03     220.919E-03    -110.417E-03     53.7146E-03
             524     4.02991E-03     82.8286E-03    -77.2872E+06    -211.848E+06    -46.8036E+06     57.1913E+03    -111.532E-03     222.125E-03    -110.593E-03     68.0805E-03    -111.802E-03     221.504E-03    -110.407E-03     66.3826E-03
             525     4.83515E-03     82.9119E-03    -71.2426E+06    -195.669E+06     -36.153E+06    -53.0984E+03    -111.887E-03     222.494E-03    -110.607E-03     80.6783E-03    -112.298E-03     222.063E-03    -110.401E-03     78.5453E-03
             526     5.64183E-03     83.0085E-03    -65.6650E+06    -180.057E+06    -26.2779E+06     7.14623E+03    -112.261E-03     222.872E-03    -110.611E-03     93.1307E-03    -112.858E-03     222.673E-03    -110.387E-03     90.5112E-03
             527     6.44755E-03     83.1191E-03    -60.0949E+06    -164.081E+06    -17.0046E+06     139.211E+03    -112.748E-03     223.359E-03    -110.611E-03     105.305E-03    -113.581E-03     223.446E-03    -110.371E-03     102.144E-03
             528     7.25355E-03     83.2427E-03    -55.2223E+06    -143.605E+06    -10.6579E+06     337.451E+03    -113.211E-03     223.806E-03    -110.595E-03     117.081E-03    -114.352E-03     224.273E-03    -110.360E-03     113.313E-03
             529     8.05984E-03     83.3789E-03    -50.6076E+06    -121.544E+06    -5.48835E+06     256.745E+03    -113.611E-03     224.185E-03    -110.573E-03     128.524E-03    -115.146E-03     225.125E-03    -110.351E-03     124.068E-03
             530     8.86552E-03     83.5272E-03    -46.2165E+06    -93.0842E+06     95.7682E+03     592.464E+03    -113.815E-03     224.355E-03    -110.540E-03     139.371E-03    -115.847E-03     225.893E-03    -110.338E-03     134.183E-03
             531     9.67250E-03     83.6870E-03    -42.0730E+06    -55.1476E+06     5.25449E+06     342.888E+03    -113.977E-03     224.463E-03    -110.486E-03     149.780E-03    -116.653E-03     226.779E-03    -110.319E-03     143.768E-03
             532     10.4772E-03     83.8568E-03    -38.5045E+06    -2.49542E+06     12.6579E+06     230.297E+03    -114.154E-03     224.580E-03    -110.426E-03     161.150E-03    -117.706E-03     227.949E-03    -110.303E-03     154.212E-03
             533     11.2849E-03     84.0415E-03    -34.3886E+06     58.1749E+06     22.5495E+06     569.498E+03    -114.415E-03     224.784E-03    -110.369E-03     176.832E-03    -119.203E-03     229.591E-03    -110.291E-03     168.859E-03
             534     12.0897E-03     84.2451E-03    -29.2560E+06     96.5778E+06     45.3258E+06     363.869E+03    -114.858E-03     225.263E-03    -110.406E-03     197.485E-03    -121.357E-03     231.870E-03    -110.277E-03     188.393E-03
             535     12.8964E-03     84.4757E-03    -23.5609E+06     110.681E+06     78.2551E+06     7.97826E+03    -114.100E-03     224.609E-03    -110.508E-03     208.964E-03    -122.108E-03     232.699E-03    -110.243E-03     199.382E-03
             536     13.7033E-03     84.7028E-03    -17.7001E+06     119.576E+06     96.2718E+06     247.127E+03    -111.760E-03     222.272E-03    -110.512E-03     194.961E-03    -119.895E-03     230.490E-03    -110.179E-03     186.170E-03
             537     14.5118E-03     84.9030E-03    -11.6417E+06     129.259E+06     101.733E+06    -66.3816E+03    -111.267E-03     221.737E-03    -110.469E-03     180.738E-03    -119.351E-03     229.943E-03    -110.131E-03     172.871E-03
             538     15.3189E-03     85.0951E-03    -5.52291E+06     131.343E+06     99.6028E+06    -127.791E+03    -110.546E-03     220.996E-03    -110.450E-03     116.541E-03    -115.679E-03     226.286E-03    -110.134E-03     111.017E-03
             539     806.108E-06     83.8249E-03    -94.8549E+06    -243.850E+06    -92.6986E+06     79.0064E+03    -110.502E-03     220.934E-03    -110.432E-03     15.5194E-03    -110.500E-03     220.000E-03    -110.405E-03     15.1882E-03
             540     1.61193E-03     83.8485E-03    -92.1971E+06    -239.017E+06    -85.3085E+06     47.2139E+03    -110.656E-03     221.125E-03    -110.469E-03     28.2422E-03    -110.687E-03     220.227E-03    -110.415E-03     27.6179E-03
             541     2.41774E-03     83.8880E-03    -88.2123E+06    -231.538E+06    -74.1185E+06     16.6946E+03    -110.852E-03     221.362E-03    -110.510E-03     41.5373E-03    -110.937E-03     220.527E-03    -110.417E-03     40.5883E-03
             542     3.22383E-03     83.9412E-03    -82.8591E+06    -222.358E+06    -61.0456E+06    -162.036E+03    -111.202E-03     221.757E-03    -110.555E-03     54.9370E-03    -111.364E-03     221.013E-03    -110.418E-03     53.6275E-03
             543     4.02927E-03     84.0109E-03    -76.9597E+06    -211.961E+06    -47.0313E+06     180.019E+03    -111.513E-03     222.114E-03    -110.601E-03     68.0513E-03    -111.781E-03     221.492E-03    -110.417E-03     66.3571E-03
             544     4.83584E-03     84.0933E-03    -71.2252E+06    -195.637E+06    -36.0315E+06     197.448E+03    -111.859E-03     222.471E-03    -110.612E-03     80.7297E-03    -112.271E-03     222.040E-03    -110.405E-03     78.6000E-03
             545     5.64132E-03     84.1903E-03    -65.6193E+06    -180.248E+06    -26.3700E+06     19.4055E+03    -112.337E-03     222.953E-03    -110.617E-03     93.2248E-03    -112.933E-03     222.754E-03    -110.392E-03     90.6030E-03
             546     6.44755E-03     84.3009E-03    -60.3616E+06    -164.685E+06    -17.1156E+06     382.676E+03    -112.747E-03     223.368E-03    -110.621E-03     105.334E-03    -113.581E-03     223.453E-03    -110.381E-03     102.176E-03
             547     7.25372E-03     84.4244E-03    -55.0782E+06    -143.641E+06    -10.3051E+06     447.818E+03    -113.169E-03     223.771E-03    -110.602E-03     117.211E-03    -114.312E-03     224.239E-03    -110.366E-03     113.443E-03
             548     8.05947E-03     84.5609E-03    -50.2299E+06    -121.664E+06    -4.98157E+06     390.718E+03    -113.564E-03     224.139E-03    -110.575E-03     128.617E-03    -115.098E-03     225.077E-03    -110.351E-03     124.168E-03
             549     8.86586E-03     84.7091E-03    -45.8572E+06    -93.6653E+06     172.684E+03     490.909E+03    -113.828E-03     224.366E-03    -110.538E-03     139.420E-03    -115.861E-03     225.903E-03    -110.335E-03     134.227E-03
             550     9.67149E-03     84.8683E-03    -42.0210E+06    -55.1062E+06     5.35929E+06     630.796E+03    -114.027E-03     224.513E-03    -110.486E-03     149.897E-03    -116.704E-03     226.830E-03    -110.319E-03     143.886E-03
             551     10.4790E-03     85.0399E-03    -38.0158E+06    -2.39719E+06     13.2693E+06     462.899E+03    -114.072E-03     224.498E-03    -110.426E-03     161.207E-03    -117.622E-03     227.867E-03    -110.302E-03     154.279E-03
             552     11.2836E-03     85.2227E-03    -33.7626E+06     58.3299E+06     23.4470E+06     102.072E+03    -114.254E-03     224.615E-03    -110.361E-03     177.197E-03    -119.045E-03     229.426E-03    -110.279E-03     169.230E-03
             553     12.0910E-03     85.4287E-03    -29.2410E+06     96.7693E+06     45.7032E+06     125.069E+03    -114.483E-03     224.858E-03    -110.376E-03     197.882E-03    -120.985E-03     231.468E-03    -110.245E-03     188.830E-03
             554     12.8977E-03     85.6560E-03    -23.8639E+06     109.777E+06     77.3400E+06     393.110E+03    -113.841E-03     224.296E-03    -110.455E-03     208.763E-03    -121.832E-03     232.368E-03    -110.193E-03     199.227E-03
             555     13.7049E-03     85.8857E-03    -17.0967E+06     119.452E+06     96.3635E+06     494.214E+03    -112.473E-03     222.953E-03    -110.481E-03     193.814E-03    -120.596E-03     231.160E-03    -110.147E-03     184.938E-03
             556     14.5125E-03     86.0798E-03    -10.1442E+06     130.447E+06     103.156E+06     629.139E+03    -111.967E-03     222.454E-03    -110.487E-03     179.992E-03    -120.020E-03     230.635E-03    -110.146E-03     172.061E-03
             557     15.3121E-03     86.2901E-03    -5.18696E+06     131.445E+06     99.8151E+06     256.811E+03    -110.055E-03     220.525E-03    -110.470E-03     115.828E-03    -115.142E-03     225.771E-03    -110.154E-03     110.368E-03
             558     805.851E-06     85.0059E-03    -94.7912E+06    -244.144E+06    -92.8965E+06     369.479E+03    -110.672E-03     221.005E-03    -110.333E-03     15.5797E-03    -110.669E-03     220.069E-03    -110.306E-03     15.2528E-03
             559     1.61164E-03     85.0307E-03    -92.0069E+06    -238.993E+06    -85.0371E+06     100.809E+03    -110.657E-03     221.155E-03    -110.498E-03     28.1322E-03    -110.687E-03     220.256E-03    -110.444E-03     27.5097E-03
             560     2.41778E-03     85.0690E-03    -87.8932E+06    -231.576E+06    -73.9704E+06     13.3959E+03    -110.902E-03     221.438E-03    -110.536E-03     41.5486E-03    -110.985E-03     220.602E-03    -110.443E-03     40.5989E-03
             561     3.22338E-03     85.1238E-03    -82.8642E+06    -222.489E+06    -60.9301E+06    -123.590E+03    -111.181E-03     221.761E-03    -110.580E-03     54.9890E-03    -111.344E-03     221.016E-03    -110.441E-03     53.6803E-03
             562     4.02968E-03     85.1921E-03    -77.0688E+06    -212.631E+06    -47.4896E+06    -44.4728E+03    -111.450E-03     222.060E-03    -110.610E-03     68.0164E-03    -111.716E-03     221.435E-03    -110.428E-03     66.3205E-03
             563     4.83540E-03     85.2751E-03    -70.9853E+06    -195.962E+06    -36.1384E+06     320.944E+03    -111.863E-03     222.477E-03    -110.614E-03     80.7707E-03    -112.273E-03     222.044E-03    -110.408E-03     78.6422E-03
             564     5.64169E-03     85.3724E-03    -65.4482E+06    -180.052E+06    -25.5468E+06     373.344E+03    -112.333E-03     222.955E-03    -110.622E-03     93.2658E-03    -112.930E-03     222.755E-03    -110.394E-03     90.6509E-03
             565     6.44748E-03     85.4825E-03    -59.8754E+06    -164.835E+06    -16.4249E+06     326.539E+03    -112.759E-03     223.386E-03    -110.626E-03     105.374E-03    -113.593E-03     223.469E-03    -110.382E-03     102.211E-03
             566     7.25347E-03     85.6064E-03    -54.6579E+06    -143.963E+06    -10.0052E+06     467.052E+03    -113.144E-03     223.748E-03    -110.604E-03     117.284E-03    -114.285E-03     224.213E-03    -110.367E-03     113.517E-03
             567     8.05987E-03     85.7427E-03    -49.9882E+06    -121.574E+06    -4.53541E+06     460.516E+03    -113.524E-03     224.098E-03    -110.574E-03     128.611E-03    -115.056E-03     225.034E-03    -110.348E-03     124.167E-03
             568     8.86588E-03     85.8908E-03    -45.5497E+06    -94.1866E+06     486.577E+03     457.401E+03    -113.878E-03     224.415E-03    -110.538E-03     139.378E-03    -115.911E-03     225.951E-03    -110.333E-03     134.176E-03
             569     9.67227E-03     86.0509E-03    -41.2722E+06    -55.7176E+06     5.58296E+06     806.570E+03    -114.024E-03     224.511E-03    -110.487E-03     149.948E-03    -116.699E-03     226.826E-03    -110.318E-03     143.938E-03
             570     10.4772E-03     86.2209E-03    -37.4066E+06    -1.96545E+06     13.8669E+06     409.293E+03    -113.904E-03     224.324E-03    -110.421E-03     161.316E-03    -117.450E-03     227.691E-03    -110.294E-03     154.402E-03
             571     11.2852E-03     86.4054E-03    -33.5754E+06     58.7638E+06     24.3329E+06     276.222E+03    -114.005E-03     224.347E-03    -110.342E-03     177.306E-03    -118.797E-03     229.158E-03    -110.257E-03     169.363E-03
             572     12.0911E-03     86.6096E-03    -29.2982E+06     96.4585E+06     46.0303E+06     596.254E+03    -114.256E-03     224.598E-03    -110.343E-03     197.224E-03    -120.731E-03     231.179E-03    -110.210E-03     188.213E-03
             573     12.8981E-03     86.8380E-03    -23.7378E+06     109.829E+06     77.5846E+06     431.973E+03    -114.255E-03     224.688E-03    -110.433E-03     207.749E-03    -122.221E-03     232.735E-03    -110.170E-03     198.170E-03
             574     13.7050E-03     87.0661E-03    -17.4594E+06     119.296E+06     96.2409E+06     348.677E+03    -113.575E-03     224.082E-03    -110.506E-03     194.408E-03    -121.754E-03     232.343E-03    -110.173E-03     185.384E-03
             575     14.5053E-03     87.2690E-03    -11.4763E+06     129.198E+06     101.965E+06     886.048E+03    -111.298E-03     221.818E-03    -110.520E-03     180.579E-03    -119.343E-03     229.985E-03    -110.181E-03     172.717E-03
             576     15.3210E-03     87.4622E-03    -4.90201E+06     131.851E+06     100.203E+06     410.109E+03    -108.973E-03     219.428E-03    -110.456E-03     116.055E-03    -114.007E-03     224.622E-03    -110.139E-03     110.730E-03
             577     805.783E-06     86.1884E-03    -94.1219E+06    -244.028E+06    -92.7588E+06    -89.6711E+03    -110.649E-03     221.096E-03    -110.447E-03     15.4514E-03    -110.643E-03     220.160E-03    -110.421E-03     15.1181E-03
             578     1.61189E-03     86.2116E-03    -91.4543E+06    -239.091E+06    -85.1360E+06    -1.67217E+03    -110.669E-03     221.203E-03    -110.534E-03     28.2181E-03    -110.696E-03     220.303E-03    -110.481E-03     27.5930E-03
             579     2.41749E-03     86.2514E-03    -87.5532E+06    -231.606E+06    -73.7855E+06     6.67296E+03    -110.895E-03     221.455E-03    -110.560E-03     41.7198E-03    -110.978E-03     220.619E-03    -110.466E-03     40.7687E-03
             580     3.22361E-03     86.3050E-03    -82.5113E+06    -222.492E+06    -60.5461E+06    -41.8489E+03    -111.129E-03     221.720E-03    -110.591E-03     55.0078E-03    -111.290E-03     220.973E-03    -110.451E-03     53.7020E-03
             581     4.02945E-03     86.3739E-03    -76.9490E+06    -212.837E+06    -47.2471E+06     26.4037E+03    -111.489E-03     222.105E-03    -110.617E-03     68.0398E-03    -111.755E-03     221.480E-03    -110.433E-03     66.3412E-03
             582     4.83554E-03     86.4569E-03    -71.2830E+06    -196.513E+06    -36.4021E+06     131.334E+03    -111.883E-03     222.506E-03    -110.623E-03     80.8046E-03    -112.293E-03     222.072E-03    -110.417E-03     78.6731E-03
             583     5.64141E-03     86.5538E-03    -65.2241E+06    -180.211E+06    -25.5389E+06     363.683E+03    -112.272E-03     222.900E-03    -110.628E-03     93.2435E-03    -112.868E-03     222.698E-03    -110.399E-03     90.6297E-03
             584     6.44761E-03     86.6647E-03    -59.5681E+06    -164.956E+06    -16.0936E+06     371.102E+03    -112.751E-03     223.379E-03    -110.628E-03     105.381E-03    -113.584E-03     223.461E-03    -110.382E-03     102.219E-03
             585     7.25367E-03     86.7878E-03    -54.3803E+06    -144.363E+06    -9.74374E+06     523.873E+03    -113.186E-03     223.794E-03    -110.608E-03     117.152E-03    -114.325E-03     224.255E-03    -110.369E-03     113.384E-03
             586     8.05963E-03     86.9245E-03    -49.9104E+06    -121.555E+06    -4.30361E+06     702.473E+03    -113.533E-03     224.113E-03    -110.580E-03     128.542E-03    -115.065E-03     225.048E-03    -110.353E-03     124.099E-03
             587     8.86564E-03     87.0729E-03    -45.9234E+06    -94.3042E+06     678.281E+03     540.723E+03    -113.840E-03     224.383E-03    -110.543E-03     139.462E-03    -115.876E-03     225.919E-03    -110.336E-03     134.263E-03
             588     9.67156E-03     87.2323E-03    -41.8908E+06    -56.3091E+06     5.23028E+06     426.089E+03    -113.894E-03     224.377E-03    -110.483E-03     149.878E-03    -116.569E-03     226.688E-03    -110.315E-03     143.873E-03
             589     10.4792E-03     87.4034E-03    -38.0516E+06    -1.73719E+06     13.6356E+06     623.409E+03    -113.828E-03     224.237E-03    -110.409E-03     161.181E-03    -117.375E-03     227.604E-03    -110.284E-03     154.277E-03
             590     11.2844E-03     87.5860E-03    -34.3023E+06     58.7484E+06     24.2930E+06     573.814E+03    -113.976E-03     224.307E-03    -110.331E-03     176.921E-03    -118.763E-03     229.111E-03    -110.245E-03     168.987E-03
             591     12.0915E-03     87.7922E-03    -29.5378E+06     96.0502E+06     46.1705E+06     486.782E+03    -114.467E-03     224.809E-03    -110.342E-03     196.623E-03    -120.928E-03     231.373E-03    -110.208E-03     187.596E-03
             592     12.8981E-03     88.0182E-03    -23.8514E+06     110.059E+06     78.2117E+06     981.919E+03    -114.786E-03     225.243E-03    -110.457E-03     208.343E-03    -122.789E-03     233.325E-03    -110.191E-03     198.697E-03
             593     13.7017E-03     88.2525E-03    -18.1491E+06     119.084E+06     96.2994E+06     1.11691E+06    -112.669E-03     223.182E-03    -110.513E-03     195.579E-03    -120.855E-03     231.447E-03    -110.178E-03     186.668E-03
             594     14.5141E-03     88.4484E-03    -12.0424E+06     129.122E+06     101.953E+06     278.983E+03    -110.537E-03     221.012E-03    -110.475E-03     180.746E-03    -118.594E-03     229.189E-03    -110.135E-03     172.954E-03
             595     15.3132E-03     88.6442E-03    -5.45904E+06     132.262E+06     100.564E+06    -181.504E+03    -110.139E-03     220.564E-03    -110.425E-03     117.033E-03    -115.236E-03     225.820E-03    -110.106E-03     111.581E-03
             596     805.876E-06     87.3691E-03    -93.5698E+06    -243.569E+06    -91.6920E+06    -73.9333E+03    -110.542E-03     221.115E-03    -110.572E-03     15.3271E-03    -110.537E-03     220.178E-03    -110.542E-03     14.9913E-03
             597     1.61156E-03     87.3941E-03    -91.3519E+06    -239.235E+06    -84.8498E+06    -155.145E+03    -110.644E-03     221.181E-03    -110.536E-03     28.3801E-03    -110.671E-03     220.280E-03    -110.481E-03     27.7519E-03
             598     2.41770E-03     87.4325E-03    -87.3302E+06    -231.915E+06    -73.9213E+06    -25.1684E+03    -110.891E-03     221.444E-03    -110.553E-03     41.7823E-03    -110.971E-03     220.606E-03    -110.460E-03     40.8311E-03
             599     3.22355E-03     87.4870E-03    -82.4950E+06    -222.695E+06    -60.4797E+06     185.075E+03    -111.167E-03     221.757E-03    -110.590E-03     54.9812E-03    -111.328E-03     221.010E-03    -110.450E-03     53.6765E-03
             600     4.02951E-03     87.5554E-03    -76.9440E+06    -212.708E+06    -46.7491E+06     204.763E+03    -111.525E-03     222.151E-03    -110.625E-03     68.0891E-03    -111.793E-03     221.525E-03    -110.439E-03     66.3923E-03
             601     4.83540E-03     87.6388E-03    -70.9696E+06    -196.244E+06    -35.9438E+06     159.031E+03    -111.888E-03     222.522E-03    -110.634E-03     80.7807E-03    -112.299E-03     222.088E-03    -110.426E-03     78.6478E-03
             602     5.64147E-03     87.7356E-03    -65.4309E+06    -180.805E+06    -25.9532E+06     171.544E+03    -112.294E-03     222.931E-03    -110.637E-03     93.2398E-03    -112.890E-03     222.728E-03    -110.409E-03     90.6210E-03
             603     6.44752E-03     87.8462E-03    -59.9359E+06    -165.505E+06    -16.4105E+06     358.445E+03    -112.745E-03     223.382E-03    -110.637E-03     105.347E-03    -113.578E-03     223.462E-03    -110.392E-03     102.186E-03
             604     7.25345E-03     87.9701E-03    -54.8841E+06    -144.991E+06    -9.86136E+06     711.072E+03    -113.171E-03     223.788E-03    -110.617E-03     117.117E-03    -114.312E-03     224.248E-03    -110.376E-03     113.351E-03
             605     8.05949E-03     88.1061E-03    -50.2224E+06    -121.854E+06    -4.31871E+06     998.669E+03    -113.528E-03     224.115E-03    -110.587E-03     128.621E-03    -115.063E-03     225.051E-03    -110.359E-03     124.180E-03
             606     8.86595E-03     88.2546E-03    -45.9213E+06    -93.8880E+06     1.01769E+06     895.013E+03    -113.791E-03     224.338E-03    -110.547E-03     139.531E-03    -115.828E-03     225.876E-03    -110.339E-03     134.339E-03
             607     9.67224E-03     88.4146E-03    -42.3295E+06    -55.9723E+06     5.38213E+06     785.889E+03    -113.878E-03     224.362E-03    -110.485E-03     149.584E-03    -116.553E-03     226.673E-03    -110.316E-03     143.583E-03
             608     10.4776E-03     88.5838E-03    -38.5879E+06    -2.28040E+06     13.2475E+06     676.259E+03    -113.853E-03     224.265E-03    -110.412E-03     160.948E-03    -117.399E-03     227.628E-03    -110.286E-03     154.043E-03
             609     11.2849E-03     88.7694E-03    -34.2522E+06     58.3857E+06     24.2380E+06     671.604E+03    -114.095E-03     224.435E-03    -110.340E-03     176.682E-03    -118.877E-03     229.232E-03    -110.254E-03     168.741E-03
             610     12.0912E-03     88.9718E-03    -30.1305E+06     96.1912E+06     46.3189E+06     856.193E+03    -114.754E-03     225.120E-03    -110.366E-03     196.801E-03    -121.231E-03     231.697E-03    -110.230E-03     187.742E-03
             611     12.8964E-03     89.2034E-03    -24.8842E+06     108.906E+06     77.3752E+06     871.206E+03    -114.493E-03     224.968E-03    -110.476E-03     208.886E-03    -122.514E-03     233.064E-03    -110.211E-03     199.266E-03
             612     13.7055E-03     89.4323E-03    -17.8442E+06     118.960E+06     96.4441E+06     941.542E+03    -112.030E-03     222.537E-03    -110.507E-03     193.707E-03    -120.148E-03     230.734E-03    -110.171E-03     184.882E-03
             613     14.5092E-03     89.6278E-03    -10.5397E+06     131.190E+06     104.024E+06     164.296E+03    -110.866E-03     221.339E-03    -110.473E-03     179.108E-03    -118.912E-03     229.512E-03    -110.128E-03     171.303E-03
             614     15.3222E-03     89.8307E-03    -5.25113E+06     132.721E+06     100.989E+06     68.6594E+03    -110.710E-03     221.159E-03    -110.449E-03     116.164E-03    -115.843E-03     226.451E-03    -110.128E-03     110.676E-03
             615     805.660E-06     88.5518E-03    -93.6013E+06    -243.993E+06    -91.7780E+06     79.9596E+03    -110.583E-03     221.026E-03    -110.443E-03     15.3416E-03    -110.576E-03     220.088E-03    -110.413E-03     15.0051E-03
             616     1.61199E-03     88.5746E-03    -91.2543E+06    -239.151E+06    -84.1591E+06     211.438E+03    -110.714E-03     221.232E-03    -110.518E-03     28.3800E-03    -110.742E-03     220.331E-03    -110.459E-03     27.7566E-03
             617     2.41766E-03     88.6152E-03    -87.4856E+06    -232.036E+06    -73.4714E+06     131.707E+03    -110.889E-03     221.447E-03    -110.557E-03     41.6808E-03    -110.972E-03     220.608E-03    -110.461E-03     40.7310E-03
             618     3.22351E-03     88.6681E-03    -82.4175E+06    -222.939E+06    -60.5087E+06     188.413E+03    -111.205E-03     221.801E-03    -110.595E-03     55.0078E-03    -111.365E-03     221.052E-03    -110.455E-03     53.7021E-03
             619     4.02946E-03     88.7377E-03    -76.6187E+06    -212.599E+06    -46.3464E+06     422.817E+03    -111.535E-03     222.172E-03    -110.636E-03     68.0497E-03    -111.802E-03     221.546E-03    -110.449E-03     66.3561E-03
             620     4.83537E-03     88.8202E-03    -70.9922E+06    -196.515E+06    -35.9144E+06     369.120E+03    -111.896E-03     222.540E-03    -110.644E-03     80.7755E-03    -112.307E-03     222.105E-03    -110.436E-03     78.6432E-03
             621     5.64142E-03     88.9175E-03    -65.4051E+06    -180.720E+06    -25.6706E+06     528.390E+03    -112.327E-03     222.976E-03    -110.649E-03     93.2420E-03    -112.924E-03     222.773E-03    -110.420E-03     90.6265E-03
             622     6.44725E-03     89.0280E-03    -60.2922E+06    -166.267E+06    -16.1885E+06     589.391E+03    -112.723E-03     223.373E-03    -110.650E-03     105.431E-03    -113.557E-03     223.450E-03    -110.402E-03     102.272E-03
             623     7.25352E-03     89.1517E-03    -55.2412E+06    -146.036E+06    -9.96892E+06     877.707E+03    -113.130E-03     223.753E-03    -110.623E-03     117.229E-03    -114.271E-03     224.208E-03    -110.381E-03     113.466E-03
             624     8.05977E-03     89.2880E-03    -50.4880E+06    -121.998E+06    -4.25413E+06     1.24610E+06    -113.543E-03     224.134E-03    -110.591E-03     128.596E-03    -115.080E-03     225.071E-03    -110.362E-03     124.155E-03
             625     8.86545E-03     89.4365E-03    -46.2244E+06    -93.7647E+06     1.27387E+06     1.06563E+06    -113.815E-03     224.368E-03    -110.553E-03     139.436E-03    -115.854E-03     225.906E-03    -110.344E-03     134.246E-03
             626     9.67169E-03     89.5959E-03    -42.1135E+06    -56.0713E+06     5.85901E+06     1.38951E+06    -113.915E-03     224.410E-03    -110.495E-03     149.546E-03    -116.590E-03     226.720E-03    -110.323E-03     143.550E-03
             627     10.4785E-03     89.7667E-03    -38.5931E+06    -1.90683E+06     13.7492E+06     1.46648E+06    -113.925E-03     224.350E-03    -110.425E-03     160.912E-03    -117.475E-03     227.717E-03    -110.298E-03     154.007E-03
             628     11.2845E-03     89.9494E-03    -35.5928E+06     58.3158E+06     24.0723E+06     880.285E+03    -114.250E-03     224.611E-03    -110.360E-03     176.864E-03    -119.047E-03     229.418E-03    -110.273E-03     168.908E-03
             629     12.0903E-03     90.1562E-03    -31.0183E+06     95.4807E+06     45.4796E+06     766.914E+03    -114.802E-03     225.189E-03    -110.388E-03     197.069E-03    -121.301E-03     231.786E-03    -110.254E-03     187.991E-03
             630     12.8978E-03     90.3832E-03    -24.6362E+06     109.010E+06     77.2469E+06     559.027E+03    -114.308E-03     224.803E-03    -110.495E-03     208.239E-03    -122.309E-03     232.879E-03    -110.231E-03     198.641E-03
             631     13.7023E-03     90.6150E-03    -17.8080E+06     119.460E+06     96.8214E+06    -122.822E+03    -112.766E-03     223.314E-03    -110.547E-03     192.913E-03    -120.894E-03     231.521E-03    -110.211E-03     183.994E-03
             632     14.5115E-03     90.8090E-03    -11.2384E+06     130.846E+06     103.354E+06     220.696E+03    -111.824E-03     222.382E-03    -110.559E-03     179.010E-03    -119.865E-03     230.548E-03    -110.215E-03     171.107E-03
             633     15.3099E-03     91.0133E-03    -5.42679E+06     132.408E+06     100.463E+06     612.618E+03    -109.412E-03     219.933E-03    -110.521E-03     115.695E-03    -114.495E-03     225.175E-03    -110.203E-03     110.298E-03
             634     806.465E-06     89.7320E-03    -93.6638E+06    -244.456E+06    -92.0278E+06     84.1152E+03    -110.674E-03     221.064E-03    -110.391E-03     15.4221E-03    -110.667E-03     220.124E-03    -110.360E-03     15.0870E-03
             635     1.61142E-03     89.7580E-03    -91.2762E+06    -239.650E+06    -84.4919E+06     328.574E+03    -110.747E-03     221.287E-03    -110.539E-03     28.1856E-03    -110.774E-03     220.383E-03    -110.482E-03     27.5613E-03
             636     2.41753E-03     89.7954E-03    -87.3128E+06    -231.933E+06    -72.9482E+06     383.669E+03    -110.886E-03     221.467E-03    -110.581E-03     41.7131E-03    -110.968E-03     220.627E-03    -110.483E-03     40.7657E-03
             637     3.22361E-03     89.8510E-03    -82.3902E+06    -223.001E+06    -60.1010E+06     457.539E+03    -111.195E-03     221.806E-03    -110.611E-03     55.0522E-03    -111.355E-03     221.057E-03    -110.469E-03     53.7522E-03
             638     4.02927E-03     89.9188E-03    -76.7499E+06    -213.421E+06    -46.8948E+06     563.937E+03    -111.518E-03     222.160E-03    -110.643E-03     68.0399E-03    -111.783E-03     221.531E-03    -110.456E-03     66.3472E-03
             639     4.83546E-03     90.0024E-03    -70.8754E+06    -196.601E+06    -35.6614E+06     818.609E+03    -111.903E-03     222.553E-03    -110.650E-03     80.8895E-03    -112.314E-03     222.118E-03    -110.441E-03     78.7640E-03
             640     5.64119E-03     90.0993E-03    -65.5157E+06    -181.024E+06    -25.7951E+06     947.130E+03    -112.311E-03     222.963E-03    -110.652E-03     93.3209E-03    -112.908E-03     222.759E-03    -110.423E-03     90.7104E-03
             641     6.44755E-03     90.2097E-03    -60.0059E+06    -166.274E+06    -16.1301E+06     961.422E+03    -112.737E-03     223.389E-03    -110.652E-03     105.432E-03    -113.571E-03     223.466E-03    -110.405E-03     102.276E-03
             642     7.25350E-03     90.3335E-03    -54.9079E+06    -146.748E+06    -9.41337E+06     1.13968E+06    -113.156E-03     223.787E-03    -110.631E-03     117.171E-03    -114.296E-03     224.238E-03    -110.386E-03     113.409E-03
             643     8.05934E-03     90.4699E-03    -50.1395E+06    -122.844E+06    -4.09610E+06     1.40570E+06    -113.546E-03     224.143E-03    -110.597E-03     128.649E-03    -115.081E-03     225.076E-03    -110.367E-03     124.210E-03
             644     8.86591E-03     90.6183E-03    -45.8347E+06    -93.7961E+06     1.83417E+06     1.57808E+06    -113.841E-03     224.402E-03    -110.561E-03     139.464E-03    -115.879E-03     225.939E-03    -110.349E-03     134.279E-03
             645     9.67188E-03     90.7782E-03    -42.0087E+06    -56.8096E+06     6.30663E+06     1.53350E+06    -113.956E-03     224.462E-03    -110.506E-03     149.557E-03    -116.634E-03     226.770E-03    -110.331E-03     143.556E-03
             646     10.4778E-03     90.9476E-03    -37.8510E+06    -2.51333E+06     14.2511E+06     2.06768E+06    -114.044E-03     224.485E-03    -110.441E-03     160.873E-03    -117.595E-03     227.852E-03    -110.311E-03     153.961E-03
             647     11.2841E-03     91.1327E-03    -33.6932E+06     59.1624E+06     25.4312E+06     2.43638E+06    -114.311E-03     224.692E-03    -110.381E-03     177.022E-03    -119.109E-03     229.507E-03    -110.291E-03     169.076E-03
             648     12.0909E-03     91.3370E-03    -29.8217E+06     96.5476E+06     47.0156E+06     1.08325E+06    -114.681E-03     225.087E-03    -110.406E-03     197.324E-03    -121.181E-03     231.687E-03    -110.268E-03     188.265E-03
             649     12.8957E-03     91.5669E-03    -24.4258E+06     109.682E+06     78.3925E+06     322.154E+03    -114.420E-03     224.930E-03    -110.509E-03     208.568E-03    -122.426E-03     233.011E-03    -110.241E-03     198.963E-03
             650     13.7043E-03     91.7952E-03    -18.0488E+06     119.680E+06     96.7388E+06     663.444E+03    -112.978E-03     223.537E-03    -110.559E-03     195.350E-03    -121.169E-03     231.809E-03    -110.223E-03     186.411E-03
             651     14.5053E-03     91.9960E-03    -12.1650E+06     129.717E+06     101.966E+06     436.390E+03    -111.519E-03     222.068E-03    -110.549E-03     182.615E-03    -119.625E-03     230.296E-03    -110.210E-03     174.722E-03
             652     15.3187E-03     92.1931E-03    -5.41238E+06     132.419E+06     100.275E+06    -152.080E+03    -109.153E-03     219.640E-03    -110.487E-03     117.468E-03    -114.255E-03     224.902E-03    -110.170E-03     112.075E-03
             653     805.154E-06     90.9158E-03    -93.8723E+06    -244.865E+06    -92.1138E+06     226.471E+03    -110.647E-03     221.265E-03    -110.617E-03     15.3363E-03    -110.641E-03     220.323E-03    -110.587E-03     15.0021E-03
             654     1.61186E-03     90.9382E-03    -91.4226E+06    -240.113E+06    -84.7666E+06     133.321E+03    -110.610E-03     221.201E-03    -110.592E-03     28.1984E-03    -110.636E-03     220.296E-03    -110.535E-03     27.5714E-03
             655     2.41768E-03     90.9783E-03    -87.4119E+06    -232.572E+06    -73.4886E+06     591.379E+03    -110.917E-03     221.504E-03    -110.587E-03     41.8473E-03    -110.998E-03     220.663E-03    -110.491E-03     40.9043E-03
             656     3.22322E-03     91.0320E-03    -82.4841E+06    -223.489E+06    -60.2813E+06     827.048E+03    -111.165E-03     221.783E-03    -110.618E-03     55.0822E-03    -111.325E-03     221.032E-03    -110.475E-03     53.7867E-03
             657     4.02962E-03     91.1010E-03    -76.9190E+06    -214.028E+06    -47.0554E+06     645.612E+03    -111.506E-03     222.150E-03    -110.643E-03     68.1141E-03    -111.771E-03     221.518E-03    -110.457E-03     66.4221E-03
             658     4.83521E-03     91.1841E-03    -71.0785E+06    -197.272E+06    -36.0018E+06     1.19194E+06    -111.900E-03     222.548E-03    -110.648E-03     80.8977E-03    -112.310E-03     222.110E-03    -110.439E-03     78.7777E-03
             659     5.64162E-03     91.2810E-03    -65.3504E+06    -181.172E+06    -25.7560E+06     1.14357E+06    -112.320E-03     222.971E-03    -110.651E-03     93.2740E-03    -112.916E-03     222.766E-03    -110.422E-03     90.6645E-03
             660     6.44725E-03     91.3917E-03    -59.9520E+06    -166.807E+06    -16.0696E+06     1.11797E+06    -112.778E-03     223.433E-03    -110.655E-03     105.417E-03    -113.610E-03     223.507E-03    -110.407E-03     102.263E-03
             661     7.25329E-03     91.5153E-03    -54.7320E+06    -146.843E+06    -8.69523E+06     1.37726E+06    -113.197E-03     223.838E-03    -110.641E-03     117.193E-03    -114.338E-03     224.289E-03    -110.392E-03     113.432E-03
             662     8.05976E-03     91.6515E-03    -49.9796E+06    -123.794E+06    -3.73055E+06     1.33670E+06    -113.562E-03     224.172E-03    -110.609E-03     128.597E-03    -115.095E-03     225.098E-03    -110.376E-03     124.157E-03
             663     8.86534E-03     91.8005E-03    -45.4228E+06    -94.3993E+06     1.98703E+06     1.93102E+06    -113.785E-03     224.354E-03    -110.569E-03     139.376E-03    -115.819E-03     225.885E-03    -110.356E-03     134.202E-03
             664     9.67175E-03     91.9595E-03    -41.4594E+06    -56.8465E+06     7.13453E+06     2.19376E+06    -113.990E-03     224.503E-03    -110.513E-03     149.725E-03    -116.670E-03     226.813E-03    -110.335E-03     143.727E-03
             665     10.4779E-03     92.1306E-03    -38.1072E+06    -3.65430E+06     14.2068E+06     2.06978E+06    -114.113E-03     224.562E-03    -110.449E-03     161.191E-03    -117.670E-03     227.930E-03    -110.318E-03     154.273E-03
             666     11.2842E-03     92.3137E-03    -33.7614E+06     58.9915E+06     24.9169E+06     1.85640E+06    -114.238E-03     224.621E-03    -110.384E-03     177.315E-03    -119.041E-03     229.442E-03    -110.296E-03     169.366E-03
             667     12.0899E-03     92.5202E-03    -28.4001E+06     97.9418E+06     47.9621E+06     2.16466E+06    -114.412E-03     224.809E-03    -110.397E-03     197.647E-03    -120.903E-03     231.407E-03    -110.258E-03     188.635E-03
             668     12.8984E-03     92.7475E-03    -23.7329E+06     110.328E+06     78.8481E+06     1.85281E+06    -114.164E-03     224.644E-03    -110.479E-03     209.524E-03    -122.178E-03     232.736E-03    -110.211E-03     199.967E-03
             669     13.7023E-03     92.9795E-03    -17.8777E+06     119.532E+06     96.4882E+06     1.07586E+06    -112.224E-03     222.717E-03    -110.493E-03     196.286E-03    -120.412E-03     230.986E-03    -110.158E-03     187.429E-03
             670     14.5151E-03     93.1763E-03    -10.4340E+06     131.443E+06     103.635E+06     515.472E+03    -110.336E-03     220.771E-03    -110.435E-03     182.517E-03    -118.443E-03     229.007E-03    -110.092E-03     174.752E-03
             671     15.3164E-03     93.3762E-03    -5.25023E+06     132.846E+06     100.737E+06    -247.729E+03    -110.680E-03     221.066E-03    -110.386E-03     117.091E-03    -115.801E-03     226.347E-03    -110.067E-03     111.649E-03
             672     805.955E-06     92.0960E-03    -94.3540E+06    -245.541E+06    -92.5469E+06    -185.347E+03    -110.546E-03     221.155E-03    -110.608E-03     15.3492E-03    -110.541E-03     220.211E-03    -110.578E-03     15.0075E-03
             673     1.61159E-03     92.1206E-03    -91.6202E+06    -240.496E+06    -84.8478E+06     303.485E+03    -110.717E-03     221.285E-03    -110.569E-03     28.4286E-03    -110.743E-03     220.379E-03    -110.511E-03     27.8059E-03
             674     2.41739E-03     92.1597E-03    -87.8561E+06    -233.433E+06    -74.1242E+06     615.236E+03    -110.908E-03     221.500E-03    -110.592E-03     41.7658E-03    -110.989E-03     220.656E-03    -110.497E-03     40.8225E-03
             675     3.22376E-03     92.2139E-03    -82.6623E+06    -224.263E+06    -60.9624E+06     743.991E+03    -111.155E-03     221.773E-03    -110.618E-03     55.0383E-03    -111.314E-03     221.019E-03    -110.478E-03     53.7408E-03
             676     4.02919E-03     92.2826E-03    -77.0343E+06    -214.316E+06    -46.8764E+06     1.07460E+06    -111.533E-03     222.181E-03    -110.648E-03     68.0917E-03    -111.798E-03     221.548E-03    -110.460E-03     66.4061E-03
             677     4.83558E-03     92.3658E-03    -71.2741E+06    -198.069E+06    -36.5622E+06     1.00083E+06    -111.902E-03     222.554E-03    -110.653E-03     80.7927E-03    -112.311E-03     222.114E-03    -110.445E-03     78.6674E-03
             678     5.64110E-03     92.4629E-03    -65.4325E+06    -181.689E+06    -26.2068E+06     1.19031E+06    -112.323E-03     222.978E-03    -110.655E-03     93.3025E-03    -112.918E-03     222.772E-03    -110.428E-03     90.6947E-03
             679     6.44745E-03     92.5735E-03    -59.8865E+06    -167.342E+06    -15.4984E+06     1.40338E+06    -112.776E-03     223.440E-03    -110.664E-03     105.417E-03    -113.609E-03     223.511E-03    -110.412E-03     102.267E-03
             680     7.25358E-03     92.6971E-03    -54.7353E+06    -147.572E+06    -8.51425E+06     1.51069E+06    -113.217E-03     223.865E-03    -110.648E-03     117.231E-03    -114.357E-03     224.311E-03    -110.397E-03     113.471E-03
             681     8.05898E-03     92.8338E-03    -50.0908E+06    -123.688E+06    -3.22023E+06     1.65435E+06    -113.547E-03     224.163E-03    -110.616E-03     128.672E-03    -115.081E-03     225.090E-03    -110.380E-03     124.238E-03
             682     8.86575E-03     92.9817E-03    -45.9305E+06    -95.8167E+06     1.73620E+06     1.88006E+06    -113.797E-03     224.370E-03    -110.573E-03     139.538E-03    -115.833E-03     225.897E-03    -110.359E-03     134.361E-03
             683     9.67180E-03     93.1420E-03    -41.7619E+06    -57.7732E+06     6.77795E+06     2.41607E+06    -113.966E-03     224.480E-03    -110.515E-03     149.861E-03    -116.645E-03     226.786E-03    -110.336E-03     143.870E-03
             684     10.4780E-03     93.3120E-03    -37.3942E+06    -2.54148E+06     15.3432E+06     2.48520E+06    -113.956E-03     224.401E-03    -110.446E-03     161.290E-03    -117.510E-03     227.770E-03    -110.311E-03     154.392E-03
             685     11.2840E-03     93.4966E-03     -33.806E+06     59.0971E+06     25.6913E+06     2.00347E+06    -114.099E-03     224.469E-03    -110.369E-03     177.504E-03    -118.905E-03     229.290E-03    -110.278E-03     169.570E-03
             686     12.0916E-03     93.7008E-03    -30.0266E+06     96.5013E+06     46.1369E+06     1.68922E+06    -114.400E-03     224.771E-03    -110.371E-03     197.313E-03    -120.891E-03     231.365E-03    -110.237E-03     188.291E-03
             687     12.8968E-03     93.9296E-03    -23.1828E+06     110.618E+06     77.6728E+06     1.98791E+06    -114.061E-03     224.514E-03    -110.454E-03     208.584E-03    -122.061E-03     232.600E-03    -110.192E-03     199.025E-03
             688     13.7069E-03     94.1607E-03    -15.8773E+06     121.279E+06     97.6376E+06     1.05995E+06    -112.005E-03     222.482E-03    -110.477E-03     193.348E-03    -120.109E-03     230.677E-03    -110.141E-03     184.523E-03
             689     14.5090E-03     94.3557E-03    -9.62043E+06     132.292E+06     104.403E+06     280.528E+03    -110.777E-03     221.219E-03    -110.442E-03     178.562E-03    -118.785E-03     229.360E-03    -110.098E-03     170.775E-03
             690     15.3224E-03     94.5580E-03    -4.84265E+06     133.083E+06     100.801E+06     1.00958E+06    -110.768E-03     221.185E-03    -110.417E-03     116.198E-03    -115.861E-03     226.441E-03    -110.099E-03     110.744E-03
             691     806.127E-06     93.2784E-03    -94.5616E+06    -246.063E+06    -92.8834E+06     76.4298E+03    -110.721E-03     221.004E-03    -110.283E-03     15.2925E-03    -110.715E-03     220.059E-03    -110.254E-03     14.9575E-03
             692     1.61176E-03     93.3022E-03    -92.0422E+06    -241.232E+06    -85.3021E+06     406.571E+03    -110.831E-03     221.362E-03    -110.531E-03     28.3704E-03    -110.857E-03     220.453E-03    -110.475E-03     27.7488E-03
             693     2.41761E-03     93.3417E-03    -87.9886E+06    -233.911E+06    -74.4233E+06     438.893E+03    -110.932E-03     221.528E-03    -110.596E-03     41.7488E-03    -111.013E-03     220.682E-03    -110.502E-03     40.8014E-03
             694     3.22317E-03     93.3953E-03    -83.2396E+06    -225.005E+06    -61.3884E+06     788.045E+03    -111.198E-03     221.828E-03    -110.630E-03     55.0396E-03    -111.359E-03     221.072E-03    -110.490E-03     53.7419E-03
             695     4.02957E-03     93.4648E-03    -77.4159E+06    -215.004E+06    -47.3899E+06     1.00305E+06    -111.519E-03     222.179E-03    -110.660E-03     68.0750E-03    -111.784E-03     221.544E-03    -110.473E-03     66.3894E-03
             696     4.83501E-03     93.5474E-03    -71.3723E+06    -198.221E+06    -36.5166E+06     951.981E+03    -111.906E-03     222.570E-03    -110.663E-03     80.8476E-03    -112.316E-03     222.128E-03    -110.455E-03     78.7225E-03
             697     5.64155E-03     93.6448E-03    -65.7687E+06    -182.253E+06    -26.6078E+06     1.17790E+06    -112.330E-03     222.994E-03    -110.664E-03     93.2864E-03    -112.925E-03     222.786E-03    -110.437E-03     90.6778E-03
             698     6.44727E-03     93.7552E-03    -60.2835E+06    -168.242E+06    -16.3441E+06     1.46152E+06    -112.772E-03     223.441E-03    -110.670E-03     105.402E-03    -113.603E-03     223.509E-03    -110.420E-03     102.252E-03
             699     7.25305E-03     93.8793E-03    -54.9812E+06    -148.272E+06    -8.57204E+06     1.60410E+06    -113.132E-03     223.784E-03    -110.652E-03     117.238E-03    -114.272E-03     224.227E-03    -110.400E-03     113.483E-03
             700     8.05993E-03     94.0152E-03    -50.0847E+06    -124.055E+06    -2.94628E+06     2.07026E+06    -113.505E-03     224.119E-03    -110.614E-03     128.698E-03    -115.038E-03     225.042E-03    -110.376E-03     124.274E-03
             701     8.86547E-03     94.1640E-03    -45.7555E+06    -96.4468E+06     1.99243E+06     2.13538E+06    -113.869E-03     224.442E-03    -110.572E-03     139.542E-03    -115.905E-03     225.966E-03    -110.356E-03     134.362E-03
             702     9.67164E-03     94.3234E-03    -41.5454E+06    -58.6004E+06     6.66055E+06     2.10824E+06    -113.916E-03     224.430E-03    -110.513E-03     149.845E-03    -116.591E-03     226.729E-03    -110.335E-03     143.856E-03
             703     10.4780E-03     94.4944E-03    -37.4861E+06    -3.01577E+06     15.1677E+06     2.54220E+06    -113.864E-03     224.303E-03    -110.439E-03     161.225E-03    -117.417E-03     227.669E-03    -110.304E-03     154.333E-03
             704     11.2851E-03     94.6774E-03    -33.4891E+06     58.8829E+06     25.3746E+06     3.04330E+06    -114.105E-03     224.465E-03    -110.360E-03     176.966E-03    -118.898E-03     229.275E-03    -110.270E-03     169.045E-03
             705     12.0904E-03     94.8839E-03    -28.9441E+06     97.3428E+06     47.4914E+06     2.54628E+06    -114.704E-03     225.086E-03    -110.382E-03     196.733E-03    -121.194E-03     231.681E-03    -110.243E-03     187.690E-03
             706     12.8980E-03     95.1104E-03    -23.7702E+06     111.655E+06     79.1267E+06     736.973E+03    -114.536E-03     225.032E-03    -110.496E-03     207.750E-03    -122.545E-03     233.124E-03    -110.228E-03     198.121E-03
             707     13.7009E-03     95.3424E-03    -17.0065E+06     121.639E+06     97.2054E+06     427.058E+03    -112.973E-03     223.531E-03    -110.558E-03     192.471E-03    -121.082E-03     231.730E-03    -110.224E-03     183.536E-03
             708     14.5120E-03     95.5369E-03    -10.9233E+06     130.619E+06     102.744E+06     1.34655E+06    -111.554E-03     222.122E-03    -110.568E-03     178.577E-03    -119.558E-03     230.253E-03    -110.228E-03     170.708E-03
             709     15.3088E-03     95.7423E-03    -4.89687E+06     133.197E+06     100.813E+06     1.43931E+06    -109.118E-03     219.635E-03    -110.517E-03     117.550E-03    -114.218E-03     224.899E-03    -110.199E-03     112.158E-03
             710     805.818E-06     94.4598E-03    -94.9061E+06    -246.581E+06    -93.0523E+06     350.824E+03    -110.776E-03     221.093E-03    -110.317E-03     15.6778E-03    -110.770E-03     220.146E-03    -110.288E-03     15.3496E-03
             711     1.61159E-03     94.4845E-03    -92.1635E+06    -241.722E+06    -85.7177E+06     380.221E+03    -110.749E-03     221.298E-03    -110.549E-03     28.2667E-03    -110.775E-03     220.388E-03    -110.493E-03     27.6451E-03
             712     2.41755E-03     94.5229E-03    -88.5004E+06    -234.491E+06    -74.7254E+06     567.690E+03    -110.979E-03     221.577E-03    -110.598E-03     41.7544E-03    -111.061E-03     220.729E-03    -110.503E-03     40.8090E-03
             713     3.22355E-03     94.5779E-03    -83.3876E+06    -225.294E+06    -61.4279E+06     666.129E+03    -111.226E-03     221.868E-03    -110.642E-03     55.0294E-03    -111.387E-03     221.111E-03    -110.501E-03     53.7294E-03
             714     4.02903E-03     94.6458E-03    -77.5735E+06    -215.640E+06    -48.0141E+06     750.517E+03    -111.519E-03     222.190E-03    -110.671E-03     68.1070E-03    -111.784E-03     221.553E-03    -110.486E-03     66.4165E-03
             715     4.83560E-03     94.7298E-03    -71.8431E+06    -198.993E+06    -37.2403E+06     1.12559E+06    -111.913E-03     222.585E-03    -110.672E-03     80.8386E-03    -112.322E-03     222.141E-03    -110.466E-03     78.7179E-03
             716     5.64095E-03     94.8262E-03    -66.3756E+06    -182.722E+06    -26.8173E+06      1.2906E+06    -112.341E-03     223.016E-03    -110.675E-03     93.2977E-03    -112.939E-03     222.807E-03    -110.448E-03     90.6895E-03
             717     6.44720E-03     94.9375E-03    -60.8692E+06    -168.907E+06    -16.5331E+06     1.30378E+06    -112.725E-03     223.403E-03    -110.678E-03     105.452E-03    -113.558E-03     223.468E-03    -110.427E-03     102.302E-03
             718     7.25362E-03     95.0606E-03    -55.4160E+06    -149.012E+06    -9.06242E+06     1.53166E+06    -113.119E-03     223.773E-03    -110.654E-03     117.156E-03    -114.258E-03     224.212E-03    -110.403E-03     113.402E-03
             719     8.05914E-03     95.1972E-03    -50.5625E+06    -125.228E+06    -3.59951E+06     1.96952E+06    -113.541E-03     224.158E-03    -110.617E-03     128.606E-03    -115.073E-03     225.077E-03    -110.380E-03     124.177E-03
             720     8.86572E-03     95.3457E-03    -45.9718E+06    -96.4617E+06     1.97686E+06     2.29566E+06    -113.773E-03     224.347E-03    -110.574E-03     139.481E-03    -115.806E-03     225.869E-03    -110.358E-03     134.313E-03
             721     9.67177E-03     95.5057E-03    -41.9181E+06    -58.4969E+06     6.76650E+06     2.18435E+06    -113.879E-03     224.389E-03    -110.511E-03     149.770E-03    -116.555E-03     226.690E-03    -110.331E-03     143.784E-03
             722     10.4784E-03     95.6751E-03    -38.0075E+06    -4.77190E+06     14.2373E+06     2.48806E+06    -114.071E-03     224.512E-03    -110.441E-03     161.198E-03    -117.627E-03     227.875E-03    -110.308E-03     154.287E-03
             723     11.2835E-03     95.8607E-03    -33.6993E+06     57.7654E+06     24.4773E+06     2.87361E+06    -114.330E-03     224.707E-03    -110.377E-03     176.712E-03    -119.123E-03     229.514E-03    -110.290E-03     168.769E-03
             724     12.0912E-03     96.0640E-03    -29.1438E+06     98.4265E+06     47.4278E+06     2.80641E+06    -114.765E-03     225.173E-03    -110.408E-03     197.073E-03    -121.261E-03     231.777E-03    -110.271E-03     188.031E-03
             725     12.8953E-03     96.2955E-03    -24.1514E+06      113.85E+06     80.5650E+06     2.42092E+06    -114.755E-03     225.286E-03    -110.531E-03     208.592E-03    -122.776E-03     233.392E-03    -110.258E-03     198.974E-03
             726     13.7046E-03     96.5228E-03    -19.5504E+06     121.772E+06     97.5664E+06     1.45554E+06    -113.416E-03     224.018E-03    -110.602E-03     195.155E-03    -121.623E-03     232.305E-03    -110.263E-03     186.167E-03
             727     14.5033E-03     96.7243E-03    -13.6684E+06     130.262E+06     102.086E+06     564.475E+03    -111.660E-03     222.272E-03    -110.612E-03     180.725E-03    -119.759E-03     230.488E-03    -110.270E-03     172.796E-03
             728     15.3213E-03     96.9174E-03    -5.63565E+06     133.912E+06     101.534E+06     191.212E+03    -108.584E-03     219.132E-03    -110.548E-03     116.774E-03    -113.688E-03     224.397E-03    -110.226E-03     111.388E-03
             729     805.734E-06     95.6423E-03    -95.2658E+06    -247.092E+06    -93.5313E+06     184.229E+03    -110.704E-03     221.172E-03    -110.468E-03     15.8097E-03    -110.699E-03     220.223E-03    -110.439E-03     15.4805E-03
             730     1.61187E-03     95.6654E-03    -92.8415E+06    -242.410E+06    -86.2925E+06     346.625E+03    -110.749E-03     221.329E-03    -110.580E-03     28.3443E-03    -110.777E-03     220.417E-03    -110.525E-03     27.7220E-03
             731     2.41744E-03     95.7057E-03    -88.7003E+06    -234.870E+06    -75.0626E+06     583.569E+03    -110.978E-03     221.595E-03    -110.618E-03     41.7092E-03    -111.059E-03     220.746E-03    -110.524E-03     40.7640E-03
             732     3.22319E-03     95.7589E-03    -83.6561E+06    -225.758E+06    -61.9519E+06     632.454E+03    -111.202E-03     221.855E-03    -110.653E-03     54.9499E-03    -111.362E-03     221.097E-03    -110.514E-03     53.6490E-03
             733     4.02953E-03     95.8284E-03    -78.1557E+06    -216.180E+06    -48.3695E+06     837.907E+03    -111.556E-03     222.238E-03    -110.682E-03     68.0905E-03    -111.822E-03     221.599E-03    -110.497E-03     66.4012E-03
             734     4.83480E-03     95.9109E-03     -72.416E+06    -199.907E+06    -38.0528E+06     1.04015E+06    -111.901E-03     222.583E-03    -110.682E-03     80.8570E-03    -112.311E-03     222.136E-03    -110.477E-03     78.7346E-03
             735     5.64145E-03     96.0087E-03    -66.6257E+06    -183.357E+06    -27.4400E+06     1.31244E+06    -112.284E-03     222.961E-03    -110.678E-03     93.3772E-03    -112.880E-03     222.750E-03    -110.452E-03     90.7718E-03
             736     6.44725E-03     96.1187E-03    -61.0257E+06    -169.082E+06    -16.3896E+06     1.43762E+06    -112.732E-03     223.412E-03    -110.679E-03     105.432E-03    -113.566E-03     223.476E-03    -110.428E-03     102.285E-03
             737     7.25308E-03     96.2427E-03    -55.8960E+06    -149.929E+06    -9.70409E+06     1.47233E+06    -113.199E-03     223.857E-03    -110.658E-03     117.218E-03    -114.338E-03     224.294E-03    -110.408E-03     113.460E-03
             738     8.05957E-03     96.3790E-03    -50.9582E+06    -126.233E+06    -4.28342E+06     1.83455E+06    -113.533E-03     224.157E-03    -110.624E-03     128.670E-03    -115.067E-03     225.074E-03    -110.388E-03     124.238E-03
             739     8.86529E-03     96.5276E-03    -46.3608E+06    -97.1728E+06     1.58098E+06     2.23759E+06    -113.701E-03     224.279E-03    -110.578E-03     139.409E-03    -115.732E-03     225.796E-03    -110.362E-03     134.247E-03
             740     9.67206E-03     96.6867E-03    -42.3227E+06    -58.8473E+06     6.33694E+06     2.57467E+06    -113.961E-03     224.475E-03    -110.513E-03     149.794E-03    -116.639E-03     226.775E-03    -110.335E-03     143.809E-03
             741     10.4775E-03     96.8583E-03    -38.7533E+06    -5.50859E+06     13.7284E+06     2.58321E+06    -114.171E-03     224.621E-03    -110.451E-03     161.355E-03    -117.730E-03     227.984E-03    -110.318E-03     154.440E-03
             742     11.2847E-03     97.0419E-03    -35.1796E+06     56.8937E+06     23.3246E+06     2.71486E+06    -114.318E-03     224.703E-03    -110.386E-03     177.110E-03    -119.116E-03     229.511E-03    -110.300E-03     169.174E-03
             743     12.0892E-03     97.2475E-03    -31.0320E+06     98.6044E+06     45.9471E+06     2.92404E+06    -114.674E-03     225.080E-03    -110.406E-03     197.762E-03    -121.181E-03     231.693E-03    -110.274E-03     188.734E-03
             744     12.8984E-03     97.4756E-03    -25.7508E+06     113.274E+06     78.5964E+06     3.05242E+06    -114.490E-03     225.000E-03    -110.510E-03     209.606E-03    -122.528E-03     233.121E-03    -110.244E-03     200.015E-03
             745     13.7008E-03     97.7086E-03    -18.7004E+06     122.986E+06     98.6799E+06     3.01367E+06    -112.494E-03     223.046E-03    -110.551E-03     196.094E-03    -120.714E-03     231.349E-03    -110.209E-03     187.219E-03
             746     14.5151E-03     97.9046E-03    -12.0818E+06     134.077E+06     105.673E+06     827.883E+03    -110.979E-03     221.498E-03    -110.519E-03     182.773E-03    -119.137E-03     229.782E-03    -110.168E-03     174.934E-03
             747     15.3078E-03     98.1043E-03    -6.21631E+06     134.280E+06     101.967E+06    -1.10735E+06    -109.718E-03     220.174E-03    -110.456E-03     117.835E-03    -114.869E-03     225.485E-03    -110.132E-03     112.385E-03
             748     805.888E-06     96.8230E-03    -95.9756E+06    -247.613E+06    -93.9791E+06     393.393E+03    -110.654E-03     221.291E-03    -110.637E-03     15.3495E-03    -110.651E-03     220.341E-03    -110.609E-03     15.0204E-03
             749     1.61141E-03     96.8481E-03    -93.4399E+06    -242.895E+06    -86.7286E+06     382.532E+03    -110.750E-03     221.379E-03    -110.629E-03     28.4052E-03    -110.779E-03     220.466E-03    -110.575E-03     27.7826E-03
             750     2.41739E-03     96.8870E-03    -89.4532E+06    -235.633E+06    -75.9258E+06     445.982E+03    -110.909E-03     221.547E-03    -110.638E-03     41.6874E-03    -110.992E-03     220.697E-03    -110.546E-03     40.7404E-03
             751     3.22346E-03     96.9411E-03    -84.4212E+06    -226.563E+06    -62.7024E+06     633.970E+03    -111.204E-03     221.863E-03    -110.658E-03     55.0832E-03    -111.366E-03     221.103E-03    -110.521E-03     53.7829E-03
             752     4.02890E-03     97.0099E-03    -78.8801E+06    -216.760E+06    -48.8585E+06     932.220E+03    -111.544E-03     222.229E-03    -110.686E-03     68.1590E-03    -111.812E-03     221.589E-03    -110.501E-03     66.4720E-03
             753     4.83550E-03     97.0932E-03    -72.8798E+06    -200.065E+06    -38.0581E+06     897.004E+03    -111.878E-03     222.562E-03    -110.683E-03     80.9082E-03    -112.290E-03     222.115E-03    -110.478E-03     78.7838E-03
             754     5.64096E-03     97.1900E-03    -66.9449E+06    -184.426E+06    -28.6035E+06     999.493E+03    -112.290E-03     222.963E-03    -110.673E-03     93.3924E-03    -112.884E-03     222.748E-03    -110.451E-03     90.7842E-03
             755     6.44729E-03     97.3009E-03    -61.4414E+06    -169.507E+06    -17.7477E+06     1.60629E+06    -112.751E-03     223.425E-03    -110.674E-03     105.469E-03    -113.584E-03     223.489E-03    -110.428E-03     102.324E-03
             756     7.25345E-03     97.4244E-03    -56.2672E+06    -149.702E+06    -9.70775E+06     1.57869E+06    -113.186E-03     223.844E-03    -110.658E-03     117.324E-03    -114.328E-03     224.283E-03    -110.408E-03     113.569E-03
             757     8.05909E-03     97.5610E-03    -51.2557E+06    -127.524E+06    -4.87104E+06     1.46760E+06    -113.510E-03     224.132E-03    -110.621E-03     128.662E-03    -115.042E-03     225.043E-03    -110.386E-03     124.227E-03
             758     8.86583E-03     97.7090E-03    -46.7225E+06    -98.6269E+06     400.161E+03     2.19439E+06    -113.803E-03     224.378E-03    -110.576E-03     139.439E-03    -115.832E-03     225.891E-03    -110.363E-03     134.271E-03
             759     9.67138E-03     97.8691E-03    -42.6159E+06    -60.0331E+06     5.49205E+06     2.71876E+06    -114.028E-03     224.547E-03    -110.519E-03     150.064E-03    -116.707E-03     226.845E-03    -110.342E-03     144.077E-03
             760     10.4782E-03     98.0399E-03    -38.8930E+06    -6.47027E+06     13.1715E+06     3.34656E+06    -113.973E-03     224.422E-03    -110.449E-03     161.565E-03    -117.527E-03     227.777E-03    -110.318E-03     154.679E-03
             761     11.2834E-03     98.2245E-03    -35.7562E+06     57.2819E+06     22.9464E+06     3.94042E+06    -114.078E-03     224.444E-03    -110.366E-03     177.467E-03    -118.878E-03     229.254E-03    -110.283E-03     169.570E-03
             762     12.0921E-03     98.4285E-03    -31.8339E+06     98.9195E+06     44.4506E+06     3.47581E+06    -114.632E-03     225.002E-03    -110.370E-03     198.115E-03    -121.149E-03     231.629E-03    -110.245E-03     189.091E-03
             763     12.8954E-03     98.6592E-03    -25.7515E+06     113.035E+06     77.4397E+06     2.49431E+06    -114.176E-03     224.642E-03    -110.466E-03     209.689E-03    -122.222E-03     232.774E-03    -110.206E-03     200.121E-03
             764     13.7069E-03     98.8885E-03    -18.1109E+06     123.333E+06     98.5951E+06     1.20046E+06    -111.880E-03     222.368E-03    -110.488E-03     195.184E-03    -120.070E-03     230.646E-03    -110.148E-03     186.357E-03
             765     14.5073E-03     99.0859E-03    -9.51504E+06     136.359E+06     107.275E+06     834.612E+03    -110.153E-03     220.582E-03    -110.428E-03     180.780E-03    -118.225E-03     228.792E-03    -110.076E-03     173.058E-03
             766     15.3300E-03     99.2869E-03    -4.24314E+06     135.696E+06     103.686E+06     417.277E+03    -110.604E-03     220.984E-03    -110.379E-03     115.988E-03    -115.690E-03     226.236E-03    -110.051E-03     110.581E-03
             767     805.545E-06     98.0051E-03    -96.3345E+06    -248.130E+06    -94.9556E+06     185.956E+03    -110.692E-03     221.326E-03    -110.634E-03     15.5636E-03    -110.689E-03     220.376E-03    -110.609E-03     15.2294E-03
             768     1.61157E-03     98.0300E-03    -94.1514E+06    -243.450E+06    -87.4421E+06     433.230E+03    -110.721E-03     221.357E-03    -110.636E-03     28.5097E-03    -110.752E-03     220.443E-03    -110.584E-03     27.8898E-03
             769     2.41746E-03     98.0686E-03    -90.2910E+06    -236.232E+06    -76.5489E+06     450.705E+03    -110.890E-03     221.524E-03    -110.634E-03     41.7494E-03    -110.975E-03     220.672E-03    -110.543E-03     40.8031E-03
             770     3.22323E-03     98.1231E-03    -85.4019E+06    -227.180E+06    -63.3229E+06     692.105E+03    -111.189E-03     221.840E-03    -110.651E-03     55.1512E-03    -111.354E-03     221.079E-03    -110.514E-03     53.8534E-03
             771     4.02953E-03     98.1917E-03    -79.3721E+06    -217.190E+06    -49.4394E+06     645.606E+03    -111.517E-03     222.192E-03    -110.675E-03     68.1590E-03    -111.787E-03     221.552E-03    -110.492E-03     66.4680E-03
             772     4.83495E-03     98.2748E-03    -73.2300E+06    -200.461E+06    -38.5825E+06     813.983E+03    -111.892E-03     222.565E-03    -110.673E-03     80.9180E-03    -112.305E-03     222.118E-03    -110.469E-03     78.7937E-03
             773     5.64146E-03     98.3720E-03    -67.8402E+06    -184.999E+06    -28.9856E+06     820.910E+03    -112.331E-03     223.000E-03    -110.669E-03     93.4230E-03    -112.929E-03     222.785E-03    -110.448E-03     90.8108E-03
             774     6.44718E-03     98.4825E-03    -62.1293E+06    -170.428E+06    -19.0055E+06     1.03407E+06    -112.751E-03     223.421E-03    -110.670E-03     105.520E-03    -113.584E-03     223.484E-03    -110.427E-03     102.368E-03
             775     7.25316E-03     98.6064E-03    -56.3059E+06    -150.153E+06    -10.6848E+06     1.41422E+06    -113.132E-03     223.782E-03    -110.650E-03     117.297E-03    -114.270E-03     224.219E-03    -110.404E-03     113.545E-03
             776     8.05975E-03     98.7427E-03    -51.3654E+06    -127.913E+06    -5.41665E+06     1.36833E+06    -113.522E-03     224.136E-03    -110.614E-03     128.643E-03    -115.051E-03     225.044E-03    -110.381E-03     124.210E-03
             777     8.86525E-03     98.8910E-03    -46.9304E+06    -100.326E+06    -582.519E+03     1.91500E+06    -113.854E-03     224.425E-03    -110.571E-03     139.567E-03    -115.884E-03     225.934E-03    -110.360E-03     134.390E-03
             778     9.67197E-03     99.0508E-03    -42.6933E+06    -61.8462E+06     4.25316E+06     2.71934E+06    -113.923E-03     224.433E-03    -110.509E-03     150.237E-03    -116.598E-03     226.724E-03    -110.336E-03     144.257E-03
             779     10.4775E-03     99.2220E-03    -38.8791E+06    -8.18303E+06     12.4147E+06     3.92669E+06    -113.760E-03     224.189E-03    -110.429E-03     161.627E-03    -117.309E-03     227.535E-03    -110.299E-03     154.765E-03
             780     11.2858E-03     99.4051E-03    -34.7272E+06     56.9611E+06     21.8981E+06     4.91804E+06    -114.033E-03     224.365E-03    -110.332E-03     177.628E-03    -118.834E-03     229.182E-03    -110.255E-03     169.736E-03
             781     12.0898E-03     99.6118E-03    -29.8876E+06     100.584E+06     44.5307E+06     3.82383E+06    -114.534E-03     224.869E-03    -110.335E-03     198.014E-03    -121.051E-03     231.507E-03    -110.215E-03     188.998E-03
             782     12.8997E-03     99.8398E-03    -23.6336E+06     115.085E+06     79.1748E+06     1.90329E+06    -114.020E-03     224.455E-03    -110.435E-03     208.984E-03    -122.046E-03     232.576E-03    -110.172E-03     199.434E-03
             783     13.7021E-03     100.070E-03    -16.6570E+06     125.073E+06     99.0987E+06     653.307E+03    -112.431E-03     222.901E-03    -110.470E-03     194.300E-03    -120.604E-03     231.172E-03    -110.131E-03     185.421E-03
             784     14.5160E-03     100.267E-03    -11.0670E+06     134.704E+06     104.988E+06    -59.7538E+03    -111.600E-03     222.068E-03    -110.469E-03     178.392E-03    -119.615E-03     230.218E-03    -110.123E-03     170.495E-03
             785     15.3072E-03     100.465E-03    -5.21128E+06     135.103E+06     102.301E+06     987.438E+03    -109.998E-03     220.450E-03    -110.452E-03     115.071E-03    -115.042E-03     225.658E-03    -110.129E-03     109.631E-03
             786     806.004E-06     99.1877E-03    -97.9468E+06    -249.097E+06    -95.9957E+06     76.4620E+03    -110.816E-03     221.190E-03    -110.374E-03     15.7539E-03    -110.818E-03     220.239E-03    -110.351E-03     15.4207E-03
             787     1.61161E-03     99.2113E-03    -94.8709E+06    -243.883E+06    -88.2374E+06     285.702E+03    -110.734E-03     221.320E-03    -110.586E-03     28.3346E-03    -110.767E-03     220.406E-03    -110.536E-03     27.7125E-03
             788     2.41748E-03     99.2508E-03    -90.9076E+06    -236.537E+06    -77.1220E+06     329.437E+03    -110.915E-03     221.524E-03    -110.609E-03     41.8397E-03    -111.002E-03     220.672E-03    -110.520E-03     40.8919E-03
             789     3.22344E-03     99.3046E-03    -85.5347E+06    -227.471E+06    -64.0881E+06     283.578E+03    -111.199E-03     221.833E-03    -110.635E-03     55.1519E-03    -111.363E-03     221.072E-03    -110.501E-03     53.8480E-03
             790     4.02910E-03     99.3737E-03    -79.6484E+06    -217.595E+06    -50.3681E+06     398.800E+03    -111.509E-03     222.171E-03    -110.661E-03     68.1313E-03    -111.778E-03     221.530E-03    -110.482E-03     66.4376E-03
             791     4.83554E-03     99.4566E-03    -73.9563E+06    -201.334E+06    -39.7476E+06     521.280E+03    -111.920E-03     222.583E-03    -110.663E-03     80.9216E-03    -112.333E-03     222.134E-03    -110.462E-03     78.7931E-03
             792     5.64106E-03     99.5537E-03    -67.8266E+06    -184.677E+06    -28.7426E+06     609.820E+03    -112.359E-03     223.028E-03    -110.669E-03     93.3900E-03    -112.958E-03     222.813E-03    -110.446E-03     90.7762E-03
             793     6.44728E-03     99.6645E-03    -61.9370E+06    -171.013E+06    -18.7926E+06     351.413E+03    -112.742E-03     223.413E-03    -110.672E-03     105.418E-03    -113.573E-03     223.472E-03    -110.428E-03     102.257E-03
             794     7.25349E-03     99.7880E-03    -56.2483E+06    -151.518E+06    -12.3051E+06     551.443E+03    -113.104E-03     223.747E-03    -110.643E-03     117.269E-03    -114.237E-03     224.178E-03    -110.403E-03     113.508E-03
             795     8.05918E-03     99.9246E-03    -50.9244E+06    -128.210E+06    -6.18086E+06     1.30634E+06    -113.488E-03     224.092E-03    -110.605E-03     128.712E-03    -115.012E-03     224.999E-03    -110.376E-03     124.283E-03
             796     8.86592E-03     100.073E-03    -46.1252E+06    -101.541E+06    -1.01636E+06     1.55761E+06    -113.779E-03     224.338E-03    -110.559E-03     139.715E-03    -115.805E-03     225.843E-03    -110.350E-03     134.532E-03
             797     9.67147E-03     100.233E-03    -41.9302E+06    -64.2410E+06     3.22981E+06     2.70352E+06    -113.818E-03     224.307E-03    -110.489E-03     150.122E-03    -116.481E-03     226.583E-03    -110.319E-03     144.152E-03
             798     10.4791E-03     100.403E-03    -37.7991E+06    -10.7656E+06     11.4192E+06     4.08193E+06    -113.792E-03     224.200E-03    -110.408E-03     161.369E-03    -117.329E-03     227.531E-03    -110.280E-03     154.507E-03
             799     11.2838E-03     100.588E-03    -33.2720E+06     56.5969E+06     21.9959E+06     4.01153E+06    -114.098E-03     224.415E-03    -110.317E-03     177.551E-03    -118.895E-03     229.231E-03    -110.241E-03     169.638E-03
             800     12.0927E-03     100.793E-03    -27.9085E+06     102.267E+06     45.7687E+06     3.42665E+06    -114.389E-03     224.711E-03    -110.322E-03     197.589E-03    -120.887E-03     231.340E-03    -110.201E-03     188.592E-03
             801     12.8961E-03     101.022E-03    -22.1187E+06     117.479E+06     80.5013E+06     2.32962E+06    -114.228E-03     224.655E-03    -110.427E-03     208.600E-03    -122.239E-03     232.771E-03    -110.162E-03     199.038E-03
             802     13.7074E-03     101.251E-03    -16.3957E+06     126.147E+06     99.7101E+06     1.71264E+06    -113.179E-03     223.668E-03    -110.490E-03     194.735E-03    -121.357E-03     231.946E-03    -110.150E-03     185.784E-03
             803     14.5043E-03     101.451E-03    -10.9845E+06     134.269E+06     104.844E+06     1.96508E+06    -111.898E-03     222.406E-03    -110.508E-03     181.168E-03    -119.993E-03     230.635E-03    -110.163E-03     173.243E-03
             804     15.3218E-03     101.652E-03    -5.45161E+06     135.792E+06     102.434E+06     1.34031E+06    -109.505E-03     219.978E-03    -110.473E-03     117.859E-03    -114.636E-03     225.276E-03    -110.150E-03     112.433E-03
             805     805.756E-06     100.369E-03    -98.3190E+06    -248.988E+06    -96.4227E+06     132.254E+03    -110.507E-03     221.170E-03    -110.663E-03     15.2006E-03    -110.510E-03     220.221E-03    -110.642E-03     14.8674E-03
             806     1.61167E-03     100.393E-03    -95.7318E+06    -244.120E+06    -88.9258E+06    -181.160E+03    -110.661E-03     221.226E-03    -110.565E-03     28.2874E-03    -110.697E-03     220.313E-03    -110.516E-03     27.6579E-03
             807     2.41759E-03     100.432E-03    -91.3674E+06    -236.777E+06      -78.11E+06    -153.758E+03    -110.950E-03     221.533E-03    -110.583E-03     41.8727E-03    -111.038E-03     220.682E-03    -110.497E-03     40.9191E-03
             808     3.22338E-03     100.487E-03    -86.2057E+06    -227.579E+06    -64.7868E+06    -137.654E+03    -111.212E-03     221.835E-03    -110.623E-03     55.0715E-03    -111.378E-03     221.075E-03    -110.492E-03     53.7625E-03
             809     4.02949E-03     100.555E-03    -80.3738E+06    -217.986E+06    -51.3927E+06    -80.8453E+03    -111.541E-03     222.197E-03    -110.656E-03     68.1033E-03    -111.811E-03     221.557E-03    -110.480E-03     66.4026E-03
             810     4.83508E-03     100.638E-03    -73.8514E+06    -201.148E+06    -39.9434E+06    -159.821E+03    -111.964E-03     222.630E-03    -110.666E-03     80.9087E-03    -112.376E-03     222.182E-03    -110.467E-03     78.7703E-03
             811     5.64134E-03     100.736E-03    -67.7853E+06    -185.069E+06    -29.3291E+06    -102.167E+03    -112.329E-03     223.001E-03    -110.672E-03     93.2916E-03    -112.925E-03     222.784E-03    -110.452E-03     90.6709E-03
             812     6.44716E-03     100.846E-03    -61.8992E+06    -171.039E+06    -20.0906E+06    -272.677E+03    -112.705E-03     223.371E-03    -110.666E-03     105.435E-03    -113.534E-03     223.432E-03    -110.429E-03     102.268E-03
             813     7.25314E-03     100.970E-03    -56.4729E+06    -151.990E+06    -13.5720E+06    -254.938E+03    -113.100E-03     223.735E-03    -110.636E-03     117.244E-03    -114.231E-03     224.166E-03    -110.401E-03     113.472E-03
             814     8.05983E-03     101.106E-03    -51.3173E+06    -130.071E+06    -8.27285E+06     160.958E+03    -113.438E-03     224.032E-03    -110.593E-03     128.740E-03    -114.958E-03     224.931E-03    -110.372E-03     124.299E-03
             815     8.86546E-03     101.255E-03    -46.4172E+06    -102.356E+06    -2.44853E+06     730.109E+03    -113.688E-03     224.231E-03    -110.543E-03     139.583E-03    -115.708E-03     225.730E-03    -110.339E-03     134.399E-03
             816     9.67262E-03     101.414E-03    -41.5940E+06    -66.1059E+06     2.38092E+06     1.74950E+06    -113.810E-03     224.284E-03    -110.474E-03     149.875E-03    -116.464E-03     226.549E-03    -110.306E-03     143.894E-03
             817     10.4775E-03     101.585E-03    -36.5479E+06    -13.6124E+06     10.3131E+06     2.83129E+06    -113.961E-03     224.359E-03    -110.399E-03     161.397E-03    -117.488E-03     227.678E-03    -110.274E-03     154.507E-03
             818     11.2858E-03     101.769E-03    -32.1490E+06     56.1200E+06     22.1881E+06     3.81517E+06    -114.091E-03     224.408E-03    -110.318E-03     177.435E-03    -118.877E-03     229.215E-03    -110.242E-03     169.528E-03
             819     12.0897E-03     101.975E-03    -28.7610E+06     103.266E+06     45.5101E+06     3.57429E+06    -114.340E-03     224.659E-03    -110.319E-03     197.421E-03    -120.825E-03     231.277E-03    -110.200E-03     188.441E-03
             820     12.9002E-03     102.202E-03    -24.2545E+06     118.193E+06     79.5156E+06     3.04094E+06    -114.446E-03     224.872E-03    -110.425E-03     209.274E-03    -122.469E-03     232.997E-03    -110.164E-03     199.698E-03
             821     13.7006E-03     102.436E-03    -18.2595E+06     126.284E+06     99.7834E+06     2.68618E+06    -112.708E-03     223.188E-03    -110.481E-03     196.237E-03    -120.921E-03     231.496E-03    -110.138E-03     187.335E-03
             822     14.5156E-03     102.633E-03    -11.4104E+06     135.224E+06     106.239E+06     2.28606E+06    -110.788E-03     221.242E-03    -110.454E-03     181.848E-03    -118.897E-03     229.482E-03    -110.102E-03     174.065E-03
             823     15.3139E-03     102.831E-03    -5.43295E+06     137.387E+06     103.736E+06     1.46918E+06    -109.732E-03     220.128E-03    -110.395E-03     116.688E-03    -114.843E-03     225.406E-03    -110.068E-03     111.307E-03
             824     805.529E-06     101.550E-03    -98.5933E+06    -248.719E+06    -96.8635E+06    -297.008E+03    -110.459E-03     221.181E-03    -110.721E-03     15.2397E-03    -110.464E-03     220.234E-03    -110.702E-03     14.8948E-03
             825     1.61184E-03     101.575E-03    -96.0752E+06    -243.842E+06    -89.3319E+06    -35.8672E+03    -110.685E-03     221.258E-03    -110.573E-03     28.3785E-03    -110.722E-03     220.347E-03    -110.526E-03     27.7526E-03
             826     2.41753E-03     101.614E-03    -92.1243E+06    -236.452E+06    -78.2720E+06    -354.799E+03    -110.958E-03     221.555E-03    -110.596E-03     41.7252E-03    -111.050E-03     220.707E-03    -110.511E-03     40.7695E-03
             827     3.22340E-03     101.669E-03    -87.0881E+06    -227.434E+06    -65.4243E+06    -421.735E+03    -111.194E-03     221.826E-03    -110.633E-03     54.9568E-03    -111.363E-03     221.069E-03    -110.504E-03     53.6446E-03
             828     4.02920E-03     101.737E-03    -80.9085E+06    -217.078E+06    -51.7513E+06    -1.06830E+06    -111.588E-03     222.254E-03    -110.666E-03     68.1029E-03    -111.862E-03     221.620E-03    -110.492E-03     66.3886E-03
             829     4.83529E-03     101.821E-03    -74.5540E+06    -201.318E+06    -41.1761E+06    -1.34355E+06    -111.944E-03     222.619E-03    -110.675E-03     80.8903E-03    -112.358E-03     222.173E-03    -110.481E-03     78.7377E-03
             830     5.64095E-03     101.917E-03    -68.3464E+06    -185.464E+06    -31.1701E+06    -1.06088E+06    -112.274E-03     222.945E-03    -110.671E-03     93.2566E-03    -112.869E-03     222.730E-03    -110.459E-03     90.6240E-03
             831     6.44736E-03     102.028E-03    -62.3978E+06    -170.575E+06    -21.7851E+06    -1.29013E+06    -112.677E-03     223.336E-03    -110.659E-03     105.391E-03    -113.505E-03     223.400E-03    -110.430E-03     102.214E-03
             832     7.25354E-03     102.152E-03    -56.5751E+06    -152.447E+06    -15.1091E+06    -1.35012E+06    -113.085E-03     223.713E-03    -110.628E-03     117.197E-03    -114.214E-03     224.143E-03    -110.400E-03     113.411E-03
             833     8.05918E-03     102.288E-03    -51.2915E+06    -130.977E+06    -9.67792E+06    -1.09054E+06    -113.435E-03     224.021E-03    -110.586E-03     128.668E-03    -114.951E-03     224.918E-03    -110.370E-03     124.210E-03
             834     8.86610E-03     102.436E-03    -46.4021E+06    -103.845E+06    -4.00720E+06    -478.353E+03    -113.673E-03     224.208E-03    -110.535E-03     139.529E-03    -115.685E-03     225.698E-03    -110.337E-03     134.338E-03
             835     9.67144E-03     102.596E-03    -41.8240E+06    -67.9468E+06     1.00616E+06     120.703E+03    -113.829E-03     224.297E-03    -110.468E-03     149.845E-03    -116.479E-03     226.554E-03    -110.304E-03     143.843E-03
             836     10.4794E-03     102.766E-03    -38.2203E+06    -16.1671E+06     8.40211E+06     1.81058E+06    -113.890E-03     224.281E-03    -110.391E-03     161.628E-03    -117.417E-03     227.590E-03    -110.270E-03     154.736E-03
             837     11.2833E-03     102.952E-03    -35.1844E+06     53.7142E+06     17.8462E+06     3.69656E+06    -113.993E-03     224.286E-03    -110.292E-03     177.635E-03    -118.779E-03     229.085E-03    -110.230E-03     169.741E-03
             838     12.0932E-03     103.155E-03    -30.8366E+06     103.627E+06     42.1884E+06     4.21438E+06    -114.439E-03     224.730E-03    -110.291E-03     197.960E-03    -120.941E-03     231.368E-03    -110.186E-03     188.971E-03
             839     12.8955E-03     103.386E-03    -25.5312E+06     118.634E+06     78.3496E+06     3.89827E+06    -114.134E-03     224.532E-03    -110.397E-03     210.134E-03    -122.177E-03     232.677E-03    -110.141E-03     200.597E-03
             840     13.7084E-03     103.617E-03    -19.2882E+06     126.965E+06     99.9531E+06     3.04044E+06    -112.119E-03     222.550E-03    -110.432E-03     196.048E-03    -120.331E-03     230.855E-03    -110.088E-03     187.227E-03
             841     14.5085E-03     103.814E-03    -12.6400E+06     136.296E+06     107.033E+06     1.87392E+06    -110.840E-03     221.237E-03    -110.397E-03     181.321E-03    -118.937E-03     229.462E-03    -110.041E-03     173.529E-03
             842     15.3220E-03     104.016E-03    -6.51893E+06     138.317E+06     104.374E+06     524.142E+03    -110.151E-03     220.505E-03    -110.354E-03     116.652E-03    -115.263E-03     225.783E-03    -110.024E-03     111.211E-03
             843     806.158E-06     102.733E-03    -99.5951E+06    -248.851E+06    -97.9845E+06    -382.982E+03    -110.925E-03     221.137E-03    -110.212E-03     15.4127E-03    -110.933E-03     220.192E-03    -110.196E-03     15.0697E-03
             844     1.61145E-03     102.756E-03    -96.7502E+06    -243.604E+06    -89.9152E+06    -183.980E+03    -110.875E-03     221.469E-03    -110.594E-03     28.2905E-03    -110.915E-03     220.562E-03    -110.550E-03     27.6606E-03
             845     2.41732E-03     102.797E-03    -92.6535E+06    -235.865E+06    -78.4224E+06    -191.374E+03    -110.883E-03     221.525E-03    -110.642E-03     41.6792E-03    -110.978E-03     220.681E-03    -110.558E-03     40.7259E-03
             846     3.22333E-03     102.850E-03     -87.234E+06    -226.256E+06    -65.2456E+06    -1.14775E+06    -111.223E-03     221.882E-03    -110.659E-03     55.0181E-03    -111.395E-03     221.131E-03    -110.531E-03     53.6959E-03
             847     4.02924E-03     102.920E-03    -81.1949E+06    -215.777E+06    -51.9987E+06    -1.79981E+06    -111.569E-03     222.256E-03    -110.687E-03     68.1105E-03    -111.845E-03     221.629E-03    -110.516E-03     66.3885E-03
             848     4.83491E-03     103.002E-03    -74.9442E+06    -200.775E+06    -41.6035E+06    -2.44900E+06    -111.874E-03     222.560E-03    -110.686E-03     80.8325E-03    -112.289E-03     222.117E-03    -110.494E-03     78.6675E-03
             849     5.64140E-03     103.099E-03    -68.4645E+06    -185.735E+06    -32.1585E+06    -2.66172E+06    -112.270E-03     222.943E-03    -110.673E-03     93.2360E-03    -112.863E-03     222.727E-03    -110.465E-03     90.5832E-03
             850     6.44701E-03     103.210E-03    -62.2831E+06    -169.872E+06    -22.7258E+06    -2.44496E+06    -112.671E-03     223.329E-03    -110.658E-03     105.334E-03    -113.497E-03     223.397E-03    -110.435E-03     102.144E-03
             851     7.25319E-03     103.333E-03    -56.7901E+06    -152.241E+06    -16.3665E+06    -2.91296E+06    -113.054E-03     223.678E-03    -110.624E-03     117.163E-03    -114.181E-03     224.111E-03    -110.403E-03     113.360E-03
             852     8.05983E-03     103.470E-03    -51.4202E+06    -131.531E+06    -11.2371E+06    -2.52087E+06    -113.399E-03     223.977E-03    -110.578E-03     128.643E-03    -114.911E-03     224.872E-03    -110.369E-03     124.170E-03
             853     8.86539E-03     103.618E-03    -46.5983E+06    -105.354E+06    -5.79590E+06    -1.82062E+06    -113.624E-03     224.147E-03    -110.523E-03     139.598E-03    -115.630E-03     225.631E-03    -110.332E-03     134.395E-03
             854     9.67277E-03     103.778E-03    -42.7241E+06    -70.2402E+06    -1.27310E+06    -526.008E+03    -113.744E-03     224.193E-03    -110.449E-03     150.194E-03    -116.391E-03     226.443E-03    -110.292E-03     144.195E-03
             855     10.4772E-03     103.948E-03    -39.2675E+06    -20.4961E+06     5.82159E+06     1.99865E+06    -113.737E-03     224.099E-03    -110.363E-03     161.906E-03    -117.259E-03     227.392E-03    -110.247E-03     155.030E-03
             856     11.2870E-03     104.132E-03    -35.6969E+06     51.6005E+06     15.1939E+06     4.13712E+06    -113.917E-03     224.168E-03    -110.251E-03     177.864E-03    -118.696E-03     228.959E-03    -110.198E-03     169.987E-03
             857     12.0900E-03     104.338E-03    -32.1004E+06     104.197E+06     38.6152E+06     4.13056E+06    -114.398E-03     224.637E-03    -110.239E-03     198.341E-03    -120.916E-03     231.299E-03    -110.150E-03     189.348E-03
             858     12.9012E-03     104.567E-03    -26.3134E+06     118.242E+06     76.4063E+06     3.50448E+06    -114.044E-03     224.398E-03    -110.353E-03     209.608E-03    -122.090E-03     232.548E-03    -110.104E-03     200.067E-03
             859     13.7029E-03     104.798E-03    -19.0316E+06     127.858E+06     100.350E+06     3.30388E+06    -112.186E-03     222.587E-03    -110.401E-03     195.339E-03    -120.371E-03     230.868E-03    -110.057E-03     186.513E-03
             860     14.5156E-03     104.997E-03    -11.5793E+06     138.740E+06     108.397E+06     1.47734E+06    -111.090E-03     221.471E-03    -110.380E-03     181.216E-03    -119.193E-03     229.711E-03    -110.023E-03     173.375E-03
             861     15.3163E-03     105.195E-03    -5.51857E+06     139.994E+06     105.474E+06     260.710E+03    -110.313E-03     220.664E-03    -110.351E-03     116.631E-03    -115.444E-03     225.966E-03    -110.019E-03     111.163E-03
             862     806.008E-06     103.915E-03    -100.224E+06    -248.014E+06    -98.5117E+06    -389.077E+03    -110.923E-03     221.266E-03    -110.343E-03     15.6424E-03    -110.934E-03     220.327E-03    -110.330E-03     15.3046E-03
             863     1.61136E-03     103.939E-03    -97.5695E+06    -243.222E+06    -90.8159E+06    -1.00404E+06    -110.803E-03     221.434E-03    -110.631E-03     28.1670E-03    -110.846E-03     220.531E-03    -110.591E-03     27.5246E-03
             864     2.41744E-03     103.977E-03    -92.8287E+06    -235.299E+06    -79.1191E+06    -1.15072E+06    -110.964E-03     221.625E-03    -110.661E-03     41.7744E-03    -111.060E-03     220.786E-03    -110.581E-03     40.8078E-03
             865     3.22320E-03     104.033E-03    -87.2208E+06    -224.876E+06    -65.0632E+06    -1.36192E+06    -111.215E-03     221.901E-03    -110.686E-03     55.0927E-03    -111.390E-03     221.157E-03    -110.559E-03     53.7694E-03
             866     4.02889E-03     104.101E-03    -81.2482E+06    -213.847E+06    -51.9586E+06    -2.48192E+06    -111.513E-03     222.213E-03    -110.701E-03     68.1316E-03    -111.792E-03     221.596E-03    -110.533E-03     66.4022E-03
             867     4.83531E-03     104.184E-03    -74.7992E+06    -198.847E+06    -41.0266E+06    -3.59005E+06    -111.863E-03     222.557E-03    -110.694E-03     80.8403E-03    -112.281E-03     222.123E-03    -110.502E-03     78.6617E-03
             868     5.64075E-03     104.281E-03    -68.4628E+06    -185.398E+06    -32.0896E+06    -4.25442E+06    -112.247E-03     222.924E-03    -110.678E-03     93.2586E-03    -112.841E-03     222.710E-03    -110.470E-03     90.5863E-03
             869     6.44739E-03     104.391E-03    -62.4375E+06    -169.769E+06    -24.7725E+06    -4.12849E+06    -112.648E-03     223.297E-03    -110.649E-03     105.385E-03    -113.472E-03     223.368E-03    -110.436E-03     102.175E-03
             870     7.25337E-03     104.515E-03    -56.9380E+06    -151.198E+06    -17.8751E+06    -3.96692E+06    -112.995E-03     223.606E-03    -110.611E-03     117.238E-03    -114.121E-03     224.045E-03    -110.399E-03     113.429E-03
             871     8.05924E-03     104.651E-03    -52.1833E+06    -132.378E+06    -13.1584E+06    -4.16575E+06    -113.299E-03     223.857E-03    -110.558E-03     128.812E-03    -114.810E-03     224.751E-03    -110.356E-03     124.327E-03
             872     8.86629E-03     104.799E-03    -47.6062E+06    -106.840E+06    -8.08796E+06    -2.97113E+06    -113.505E-03     223.998E-03    -110.493E-03     139.782E-03    -115.509E-03     225.477E-03    -110.309E-03     134.576E-03
             873     9.67174E-03     104.959E-03    -43.3240E+06    -73.1590E+06    -3.46788E+06    -1.21743E+06    -113.617E-03     224.027E-03    -110.410E-03     150.394E-03    -116.258E-03     226.264E-03    -110.259E-03     144.397E-03
             874     10.4806E-03     105.130E-03    -38.9370E+06    -25.2571E+06     3.65990E+06     1.05385E+06    -113.750E-03     224.072E-03    -110.322E-03     161.897E-03    -117.257E-03     227.340E-03    -110.211E-03     155.013E-03
             875     11.2838E-03     105.313E-03    -34.4566E+06     48.3356E+06     13.3818E+06     3.84117E+06    -113.977E-03     224.191E-03    -110.213E-03     177.779E-03    -118.746E-03     228.970E-03    -110.166E-03     169.891E-03
             876     12.0945E-03     105.519E-03    -29.8521E+06     104.963E+06     39.0197E+06     5.23884E+06    -114.375E-03     224.584E-03    -110.209E-03     197.990E-03    -120.869E-03     231.232E-03    -110.123E-03     189.021E-03
             877     12.8966E-03     105.749E-03    -25.0952E+06     119.722E+06     76.4787E+06     4.16350E+06    -114.219E-03     224.549E-03    -110.329E-03     209.334E-03    -122.246E-03     232.690E-03    -110.084E-03     199.793E-03
             878     13.7077E-03     105.980E-03    -18.2859E+06     128.898E+06     99.6110E+06     2.09216E+06    -112.599E-03     222.993E-03    -110.394E-03     195.077E-03    -120.791E-03     231.289E-03    -110.057E-03     186.176E-03
             879     14.5098E-03     106.176E-03    -11.3557E+06     139.596E+06     108.315E+06     1.63975E+06    -111.053E-03     221.443E-03    -110.390E-03     181.215E-03    -119.157E-03     229.688E-03    -110.034E-03     173.379E-03
             880     15.3196E-03     106.382E-03    -5.59055E+06     140.513E+06     105.483E+06     887.040E+03    -109.591E-03     219.931E-03    -110.340E-03     117.846E-03    -114.732E-03     225.245E-03    -110.008E-03     112.426E-03
             881     805.047E-06     105.097E-03    -100.886E+06    -246.002E+06    -99.2056E+06    -1.04814E+06    -110.597E-03     221.331E-03    -110.733E-03     15.7091E-03    -110.614E-03     220.404E-03    -110.727E-03     15.3608E-03
             882     1.61191E-03     105.120E-03    -97.9085E+06    -241.972E+06    -91.0692E+06    -1.45437E+06    -110.728E-03     221.372E-03    -110.643E-03     28.3258E-03    -110.775E-03     220.476E-03    -110.606E-03     27.6794E-03
             883     2.41721E-03     105.160E-03    -93.5635E+06    -234.020E+06    -79.5148E+06    -1.97529E+06    -111.031E-03     221.694E-03    -110.663E-03     41.7355E-03    -111.132E-03     220.862E-03    -110.586E-03     40.7571E-03
             884     3.22299E-03     105.213E-03    -88.1058E+06    -224.033E+06    -66.7111E+06    -2.34366E+06    -111.174E-03     221.862E-03    -110.688E-03     55.1273E-03    -111.351E-03     221.125E-03    -110.569E-03     53.7914E-03
             885     4.02940E-03     105.283E-03    -81.7769E+06    -210.474E+06    -53.7975E+06    -3.29157E+06    -111.490E-03     222.179E-03    -110.689E-03     68.2206E-03    -111.774E-03     221.581E-03    -110.534E-03     66.4828E-03
             886     4.83470E-03     105.366E-03    -75.5744E+06    -196.639E+06    -43.1919E+06    -5.04888E+06    -111.846E-03     222.525E-03    -110.679E-03     80.8433E-03    -112.268E-03     222.106E-03    -110.501E-03     78.6471E-03
             887     5.64150E-03     105.463E-03    -69.4512E+06    -184.268E+06    -33.8230E+06    -5.74127E+06    -112.200E-03     222.864E-03    -110.663E-03     93.3282E-03    -112.798E-03     222.659E-03    -110.464E-03     90.6401E-03
             888     6.44694E-03     105.573E-03    -63.4843E+06    -169.006E+06    -26.6744E+06    -5.82686E+06    -112.535E-03     223.161E-03    -110.625E-03     105.470E-03    -113.362E-03     223.239E-03    -110.421E-03     102.246E-03
             889     7.25344E-03     105.696E-03    -57.9189E+06    -151.577E+06    -20.2913E+06    -5.57372E+06    -112.881E-03     223.456E-03    -110.575E-03     117.420E-03    -114.006E-03     223.895E-03    -110.372E-03     113.600E-03
             890     8.06016E-03     105.833E-03    -52.8774E+06    -131.790E+06    -14.6093E+06    -5.38607E+06    -113.198E-03     223.713E-03    -110.515E-03     128.954E-03    -114.708E-03     224.610E-03    -110.321E-03     124.466E-03
             891     8.86600E-03     105.980E-03    -48.2300E+06    -108.962E+06    -10.0644E+06    -4.55598E+06    -113.429E-03     223.875E-03    -110.445E-03     139.863E-03    -115.428E-03     225.344E-03    -110.268E-03     134.646E-03
             892     9.67374E-03     106.140E-03    -43.6021E+06    -76.2910E+06    -5.69996E+06    -2.82954E+06    -113.654E-03     224.018E-03    -110.363E-03     150.457E-03    -116.288E-03     226.242E-03    -110.218E-03     144.440E-03
             893     10.4778E-03     106.311E-03    -39.3836E+06    -29.4294E+06     1.61675E+06    -812.203E+03    -113.761E-03     224.042E-03    -110.282E-03     162.027E-03    -117.257E-03     227.289E-03    -110.174E-03     155.127E-03
             894     11.2878E-03     106.495E-03    -34.9408E+06     43.5632E+06     10.8144E+06     2.00466E+06    -114.100E-03     224.276E-03    -110.176E-03     178.154E-03    -118.863E-03     229.038E-03    -110.134E-03     170.239E-03
             895     12.0901E-03     106.701E-03    -30.0485E+06     102.597E+06     35.1019E+06     4.44940E+06    -114.497E-03     224.665E-03    -110.169E-03     198.290E-03    -120.982E-03     231.307E-03    -110.098E-03     189.308E-03
             896     12.9014E-03     106.930E-03    -23.7522E+06     122.092E+06     75.5353E+06     4.67057E+06    -114.260E-03     224.558E-03    -110.298E-03     209.844E-03    -122.288E-03     232.716E-03    -110.063E-03     200.307E-03
             897     13.7037E-03     107.161E-03    -18.3736E+06     131.193E+06     100.097E+06     3.28529E+06    -112.680E-03     223.051E-03    -110.372E-03     196.206E-03    -120.897E-03     231.379E-03    -110.035E-03     187.324E-03
             898     14.5127E-03     107.361E-03    -12.6773E+06     140.479E+06     107.988E+06     1.70086E+06    -110.968E-03     221.330E-03    -110.363E-03     182.288E-03    -119.099E-03     229.603E-03    -110.008E-03     174.459E-03
             899     15.3192E-03     107.557E-03    -5.65069E+06     141.964E+06     106.425E+06     380.866E+03    -109.070E-03     219.370E-03    -110.300E-03     117.900E-03    -114.220E-03     224.695E-03    -109.965E-03     112.494E-03
             900     806.401E-06     106.278E-03    -101.775E+06    -242.844E+06    -99.6828E+06    -1.78372E+06    -110.710E-03     221.268E-03    -110.558E-03     15.4839E-03    -110.735E-03     220.359E-03    -110.557E-03     15.1236E-03
             901     1.61126E-03     106.303E-03    -98.3632E+06    -240.512E+06    -91.0201E+06    -1.90339E+06    -110.804E-03     221.443E-03    -110.639E-03     28.4317E-03    -110.856E-03     220.555E-03    -110.602E-03     27.7813E-03
             902     2.41731E-03     106.342E-03    -93.9066E+06    -231.919E+06    -79.9391E+06    -2.37718E+06    -110.917E-03     221.574E-03    -110.657E-03     41.7420E-03    -111.022E-03     220.754E-03    -110.585E-03     40.7595E-03
             903     3.22342E-03     106.396E-03    -88.3459E+06    -221.537E+06    -67.2109E+06    -3.74006E+06    -111.214E-03     221.884E-03    -110.670E-03     55.1329E-03    -111.396E-03     221.161E-03    -110.557E-03     53.7780E-03
             904     4.02875E-03     106.465E-03    -81.9019E+06    -207.748E+06    -56.1560E+06    -4.98488E+06    -111.432E-03     222.096E-03    -110.664E-03     68.1888E-03    -111.716E-03     221.515E-03    -110.525E-03     66.4318E-03
             905     4.83554E-03     106.547E-03    -75.6727E+06    -193.428E+06    -45.0988E+06    -6.08069E+06    -111.742E-03     222.386E-03    -110.644E-03     80.9999E-03    -112.166E-03     221.985E-03    -110.479E-03     78.7968E-03
             906     5.64076E-03     106.644E-03    -69.9646E+06    -182.344E+06    -34.7980E+06    -6.97628E+06    -112.107E-03     222.730E-03    -110.623E-03     93.4712E-03    -112.707E-03     222.535E-03    -110.431E-03     90.7755E-03
             907     6.44777E-03     106.754E-03    -64.2350E+06    -167.475E+06    -27.7621E+06    -7.62726E+06    -112.414E-03     222.989E-03    -110.575E-03     105.631E-03    -113.244E-03     223.077E-03    -110.378E-03     102.390E-03
             908     7.25395E-03     106.878E-03    -58.4618E+06    -151.612E+06    -21.7774E+06    -7.72951E+06    -112.773E-03     223.289E-03    -110.516E-03     117.577E-03    -113.896E-03     223.730E-03    -110.320E-03     113.738E-03
             909     8.06003E-03     107.014E-03    -53.0678E+06    -131.650E+06    -16.2739E+06    -7.11723E+06    -113.100E-03     223.548E-03    -110.449E-03     129.078E-03    -114.604E-03     224.444E-03    -110.262E-03     124.583E-03
             910     8.86724E-03     107.162E-03    -47.9876E+06    -110.213E+06    -11.2206E+06    -6.76750E+06    -113.423E-03     223.804E-03    -110.381E-03     140.137E-03    -115.417E-03     225.269E-03    -110.208E-03     134.894E-03
             911     9.67245E-03     107.321E-03    -43.2594E+06    -80.1101E+06    -7.85261E+06    -4.91572E+06    -113.610E-03     223.907E-03    -110.297E-03     150.939E-03    -116.229E-03     226.111E-03    -110.158E-03     144.914E-03
             912     10.4814E-03     107.492E-03    -38.6479E+06    -32.3129E+06     465.101E+03    -2.34611E+06    -113.755E-03     223.972E-03    -110.216E-03     162.728E-03    -117.245E-03     227.208E-03    -110.111E-03     155.820E-03
             913     11.2847E-03     107.676E-03    -34.6292E+06     37.4012E+06     9.34839E+06     589.141E+03    -114.027E-03     224.137E-03    -110.110E-03     179.111E-03    -118.777E-03     228.869E-03    -110.067E-03     171.200E-03
             914     12.0954E-03     107.884E-03    -30.3949E+06     99.3817E+06     32.7131E+06     3.35370E+06    -114.551E-03     224.641E-03    -110.090E-03     199.431E-03    -121.046E-03     231.286E-03    -110.026E-03     190.443E-03
             915     12.8976E-03     108.110E-03    -25.7256E+06     122.509E+06     72.0083E+06     4.20235E+06    -114.351E-03     224.563E-03    -110.212E-03     211.111E-03    -122.420E-03     232.766E-03    -109.992E-03     201.557E-03
             916     13.7080E-03     108.346E-03    -18.5640E+06     132.761E+06     99.3905E+06     4.00152E+06    -112.238E-03     222.521E-03    -110.284E-03     197.140E-03    -120.470E-03     230.871E-03    -109.952E-03     188.309E-03
             917     14.5141E-03     108.539E-03    -11.2218E+06     143.432E+06     110.345E+06     2.26141E+06    -110.576E-03     220.838E-03    -110.262E-03     183.400E-03    -118.729E-03     229.140E-03    -109.902E-03     175.610E-03
             918     15.3189E-03     108.746E-03    -5.09035E+06     142.618E+06     107.246E+06     371.242E+03    -109.085E-03     219.270E-03    -110.186E-03     119.498E-03    -114.265E-03     224.629E-03    -109.849E-03     114.073E-03
             919     805.399E-06     107.461E-03    -101.766E+06    -239.161E+06    -99.2165E+06    -1.61579E+06    -110.793E-03     221.244E-03    -110.451E-03     15.3914E-03    -110.823E-03     220.352E-03    -110.452E-03     15.0341E-03
             920     1.61150E-03     107.485E-03    -98.6154E+06    -238.037E+06    -91.2089E+06    -2.55726E+06    -110.715E-03     221.327E-03    -110.612E-03     28.4299E-03    -110.771E-03     220.452E-03    -110.580E-03     27.7719E-03
             921     2.41757E-03     107.523E-03    -93.7021E+06    -229.282E+06    -80.4633E+06    -3.60144E+06    -110.927E-03     221.547E-03    -110.619E-03     41.8932E-03    -111.034E-03     220.740E-03    -110.553E-03     40.8972E-03
             922     3.22298E-03     107.578E-03    -87.8279E+06    -217.537E+06    -68.2107E+06    -4.87967E+06    -111.144E-03     221.773E-03    -110.629E-03     55.1706E-03    -111.327E-03     221.070E-03    -110.527E-03     53.8050E-03
             923     4.02948E-03     107.646E-03    -82.0680E+06    -204.288E+06    -57.1538E+06    -6.74758E+06    -111.313E-03     221.925E-03    -110.612E-03     68.2731E-03    -111.602E-03     221.363E-03    -110.482E-03     66.4956E-03
             924     4.83504E-03     107.729E-03    -76.0533E+06    -190.974E+06    -45.6908E+06    -7.51329E+06    -111.570E-03     222.148E-03    -110.578E-03     81.2545E-03    -111.997E-03     221.759E-03    -110.419E-03     79.0429E-03
             925     5.64213E-03     107.826E-03    -69.7766E+06    -179.598E+06    -35.1457E+06    -8.38297E+06    -111.930E-03     222.469E-03    -110.539E-03     93.7061E-03    -112.531E-03     222.287E-03    -110.353E-03     91.0053E-03
             926     6.44776E-03     107.936E-03    -63.6938E+06    -165.087E+06    -28.1643E+06    -9.43472E+06    -112.353E-03     222.837E-03    -110.484E-03     105.939E-03    -113.183E-03     222.937E-03    -110.293E-03     102.682E-03
             927     7.25431E-03     108.059E-03    -58.2194E+06    -150.074E+06    -22.4520E+06    -9.88905E+06    -112.673E-03     223.096E-03    -110.423E-03     117.822E-03    -113.794E-03     223.543E-03    -110.234E-03     113.969E-03
             928     8.06132E-03     108.195E-03    -52.6297E+06    -132.114E+06    -17.6789E+06    -9.74166E+06    -112.967E-03     223.316E-03    -110.349E-03     129.519E-03    -114.464E-03     224.209E-03    -110.170E-03     125.006E-03
             929     8.86724E-03     108.343E-03    -47.3646E+06    -110.760E+06    -12.3542E+06    -9.17785E+06    -113.266E-03     223.540E-03    -110.274E-03     140.833E-03    -115.251E-03     224.999E-03    -110.106E-03     135.585E-03
             930     9.67519E-03     108.502E-03    -42.2242E+06    -83.1271E+06    -8.66358E+06    -7.68901E+06    -113.481E-03     223.666E-03    -110.185E-03     151.668E-03    -116.085E-03     225.850E-03    -110.047E-03     145.635E-03
             931     10.4799E-03     108.673E-03    -37.4542E+06    -38.1734E+06    -1.82240E+06    -4.42577E+06    -113.605E-03     223.696E-03    -110.091E-03     163.782E-03    -117.076E-03     226.904E-03    -109.990E-03     156.876E-03
             932     11.2895E-03     108.859E-03    -33.5893E+06     31.3520E+06     8.11655E+06     207.353E+03    -113.852E-03     223.830E-03    -109.978E-03     180.136E-03    -118.587E-03     228.534E-03    -109.934E-03     172.254E-03
             933     12.0933E-03     109.062E-03    -30.6190E+06     96.4436E+06     30.3408E+06     3.99968E+06    -114.331E-03     224.266E-03    -109.935E-03     201.051E-03    -120.828E-03     230.909E-03    -109.879E-03     192.113E-03
             934     12.9036E-03     109.296E-03    -25.5202E+06     123.542E+06     69.0530E+06     4.10469E+06    -114.201E-03     224.235E-03    -110.033E-03     212.776E-03    -122.285E-03     232.466E-03    -109.830E-03     203.254E-03
             935     13.7077E-03     109.522E-03    -18.5460E+06     133.401E+06     98.0626E+06     2.45867E+06    -112.476E-03     222.593E-03    -110.117E-03     198.380E-03    -120.747E-03     230.987E-03    -109.793E-03     189.497E-03
             936     14.5150E-03     109.725E-03    -10.7483E+06     145.002E+06     111.475E+06     1.99926E+06    -110.456E-03     220.571E-03    -110.115E-03     183.187E-03    -118.582E-03     228.850E-03    -109.752E-03     175.405E-03
             937     15.3272E-03     109.919E-03    -4.06423E+06     144.335E+06     109.583E+06     1.57001E+06    -108.774E-03     218.816E-03    -110.042E-03     118.287E-03    -113.892E-03     224.115E-03    -109.698E-03     112.928E-03
             938     805.843E-06     108.643E-03    -102.024E+06    -235.500E+06    -99.4742E+06    -1.06833E+06    -110.488E-03     221.022E-03    -110.534E-03     15.6520E-03    -110.525E-03     220.150E-03    -110.542E-03     15.3064E-03
             939     1.61194E-03     108.666E-03    -98.7796E+06    -233.633E+06    -91.3129E+06    -3.05569E+06    -110.695E-03     221.213E-03    -110.518E-03     28.5328E-03    -110.758E-03     220.361E-03    -110.493E-03     27.8710E-03
             940     2.41728E-03     108.706E-03    -93.8262E+06    -225.553E+06    -80.6471E+06    -4.93434E+06    -110.853E-03     221.396E-03    -110.544E-03     41.9943E-03    -110.965E-03     220.609E-03    -110.484E-03     40.9839E-03
             941     3.22366E-03     108.759E-03    -88.1643E+06    -213.043E+06    -69.5450E+06    -6.70402E+06    -110.906E-03     221.434E-03    -110.528E-03     55.3430E-03    -111.095E-03     220.755E-03    -110.439E-03     53.9608E-03
             942     4.02945E-03     108.828E-03    -82.1686E+06    -200.129E+06    -57.4848E+06    -8.11500E+06    -111.166E-03     221.659E-03    -110.493E-03     68.5821E-03    -111.460E-03     221.118E-03    -110.371E-03     66.7954E-03
             943     4.83619E-03     108.910E-03    -76.0246E+06    -187.809E+06    -45.4778E+06    -9.29311E+06    -111.430E-03     221.887E-03    -110.457E-03     81.4200E-03    -111.860E-03     221.512E-03    -110.302E-03     79.1950E-03
             944     5.64206E-03     109.007E-03    -69.6707E+06    -176.221E+06    -35.8519E+06    -10.4383E+06    -111.738E-03     222.143E-03    -110.405E-03     94.0112E-03    -112.341E-03     221.977E-03    -110.228E-03     91.2984E-03
             945     6.44915E-03     109.117E-03    -63.7153E+06    -162.367E+06    -29.0733E+06    -11.6167E+06    -112.137E-03     222.474E-03    -110.338E-03     106.332E-03    -112.965E-03     222.584E-03    -110.155E-03     103.072E-03
             946     7.25554E-03     109.240E-03    -57.6649E+06    -147.899E+06    -22.9374E+06    -12.3369E+06    -112.468E-03     222.735E-03    -110.267E-03     118.362E-03    -113.585E-03     223.190E-03    -110.084E-03     114.501E-03
             947     8.06184E-03     109.375E-03    -52.1975E+06    -131.700E+06    -18.5411E+06    -12.5560E+06    -112.744E-03     222.927E-03    -110.183E-03     130.304E-03    -114.236E-03     223.819E-03    -110.009E-03     125.781E-03
             948     8.86956E-03     109.523E-03    -46.9825E+06    -111.172E+06    -13.4323E+06    -11.9284E+06    -113.012E-03     223.105E-03    -110.093E-03     141.764E-03    -114.985E-03     224.556E-03    -109.931E-03     136.523E-03
             949     9.67540E-03     109.683E-03    -42.2274E+06    -85.2960E+06    -9.78559E+06    -10.5439E+06    -113.229E-03     223.222E-03    -109.993E-03     152.805E-03    -115.826E-03     225.394E-03    -109.857E-03     146.773E-03
             950     10.4842E-03     109.854E-03    -38.0437E+06    -44.9883E+06    -4.34151E+06    -7.01382E+06    -113.341E-03     223.226E-03    -109.885E-03     165.050E-03    -116.798E-03     226.401E-03    -109.786E-03     158.158E-03
             951     11.2891E-03     110.038E-03    -34.0671E+06     22.3066E+06     3.66925E+06    -943.080E+03    -113.639E-03     223.391E-03    -109.752E-03     181.656E-03    -118.360E-03     228.059E-03    -109.717E-03     173.807E-03
             952     12.0990E-03     110.246E-03    -29.4067E+06     92.7405E+06     25.2070E+06     3.99740E+06    -114.065E-03     223.747E-03    -109.682E-03     202.427E-03    -120.541E-03     230.374E-03    -109.648E-03     193.544E-03
             953     12.9043E-03     110.473E-03    -24.5384E+06     125.754E+06     65.6607E+06     4.37799E+06    -113.917E-03     223.683E-03    -109.766E-03     214.259E-03    -121.984E-03     231.919E-03    -109.584E-03     204.804E-03
             954     13.7130E-03     110.710E-03    -19.3365E+06      135.82E+06     97.7429E+06     2.43942E+06    -112.519E-03     222.382E-03    -109.863E-03     200.150E-03    -120.804E-03     230.797E-03    -109.543E-03     191.299E-03
             955     14.5197E-03     110.902E-03    -13.4502E+06     144.962E+06     111.173E+06     1.50304E+06    -110.910E-03     220.796E-03    -109.886E-03     184.962E-03    -119.105E-03     229.135E-03    -109.520E-03     177.125E-03
             956     15.3206E-03     111.104E-03    -6.18419E+06     144.403E+06     109.422E+06     1.11818E+06    -108.959E-03     218.797E-03    -109.838E-03     120.775E-03    -114.157E-03     224.168E-03    -109.491E-03     115.330E-03
             957     806.204E-06     109.823E-03    -101.121E+06    -231.230E+06    -99.3416E+06    -1.67219E+06    -110.584E-03     220.818E-03    -110.234E-03     15.7175E-03    -110.623E-03     219.966E-03    -110.249E-03     15.3688E-03
             958     1.61158E-03     109.848E-03    -97.4825E+06    -228.051E+06    -90.4013E+06    -3.74041E+06    -110.544E-03     220.949E-03    -110.405E-03     28.5470E-03    -110.610E-03     220.121E-03    -110.385E-03     27.8789E-03
             959     2.41794E-03     109.887E-03    -92.7279E+06    -219.845E+06    -79.6367E+06    -6.30943E+06    -110.514E-03     220.904E-03    -110.389E-03     42.1442E-03    -110.631E-03     220.142E-03    -110.334E-03     41.1238E-03
             960     3.22396E-03     109.941E-03    -87.2040E+06    -207.988E+06    -68.1965E+06    -8.37247E+06    -110.702E-03     221.044E-03    -110.342E-03     55.5936E-03    -110.895E-03     220.387E-03    -110.255E-03     54.1984E-03
             961     4.03065E-03     110.009E-03    -81.2303E+06    -196.148E+06    -56.1766E+06     -9.6467E+06    -110.953E-03     221.256E-03    -110.302E-03     68.8726E-03    -111.248E-03     220.729E-03    -110.181E-03     67.0829E-03
             962     4.83660E-03     110.091E-03    -74.8826E+06    -183.690E+06    -44.8589E+06    -10.8453E+06    -111.227E-03     221.484E-03    -110.257E-03     81.7667E-03    -111.657E-03     221.126E-03    -110.107E-03     79.5376E-03
             963     5.64363E-03     110.188E-03    -68.9006E+06    -172.102E+06    -35.8889E+06    -12.3074E+06    -111.505E-03     221.701E-03    -110.196E-03     94.5864E-03    -112.107E-03     221.551E-03    -110.026E-03     91.8726E-03
             964     6.44992E-03     110.298E-03    -62.9941E+06    -158.305E+06    -29.0165E+06    -13.8952E+06    -111.731E-03     221.841E-03    -110.110E-03     107.040E-03    -112.555E-03     221.964E-03    -109.934E-03     103.790E-03
             965     7.25710E-03     110.420E-03    -57.4485E+06    -146.178E+06    -23.7283E+06    -15.0224E+06    -112.053E-03     222.065E-03    -110.012E-03     119.314E-03    -113.166E-03     222.524E-03    -109.836E-03     115.457E-03
             966     8.06464E-03     110.556E-03    -52.1957E+06    -129.844E+06    -19.2130E+06    -15.0140E+06    -112.421E-03     222.329E-03    -109.908E-03     131.408E-03    -113.907E-03     223.224E-03    -109.740E-03     126.900E-03
             967     8.87112E-03     110.704E-03    -47.6196E+06    -111.121E+06    -14.5302E+06    -14.4959E+06    -112.655E-03     222.459E-03    -109.804E-03     143.123E-03    -114.623E-03     223.906E-03    -109.647E-03     137.901E-03
             968     9.67957E-03     110.863E-03    -43.4986E+06    -87.3490E+06    -11.5697E+06    -12.9694E+06    -112.811E-03     222.496E-03    -109.685E-03     154.426E-03    -115.400E-03     224.654E-03    -109.553E-03     148.428E-03
             969     10.4855E-03     111.033E-03    -39.1894E+06    -50.2584E+06    -6.24524E+06    -9.63107E+06    -113.031E-03     222.594E-03    -109.563E-03     166.897E-03    -116.478E-03     225.741E-03    -109.464E-03     160.037E-03
             970     11.2950E-03     111.220E-03    -34.5168E+06     10.9650E+06    -206.829E+03    -3.83821E+06    -113.471E-03     222.890E-03    -109.419E-03     183.682E-03    -118.167E-03     227.503E-03    -109.385E-03     175.857E-03
             971     12.1007E-03     111.424E-03    -30.0867E+06     86.2029E+06     18.4150E+06     2.08244E+06    -114.086E-03     223.415E-03    -109.329E-03     204.302E-03    -120.549E-03     230.024E-03    -109.318E-03     195.440E-03
             972     12.9096E-03     111.657E-03    -24.8961E+06     127.367E+06     59.7681E+06     4.31551E+06    -113.957E-03     223.370E-03    -109.414E-03     215.873E-03    -122.028E-03     231.632E-03    -109.264E-03     206.451E-03
             973     13.7169E-03     111.886E-03    -18.6511E+06     137.968E+06     95.7736E+06     3.27634E+06    -111.643E-03     221.155E-03    -109.512E-03     201.467E-03    -119.898E-03     229.555E-03    -109.206E-03     192.759E-03
             974     14.5231E-03     112.089E-03    -11.3750E+06     147.140E+06     113.050E+06     1.96237E+06    -110.226E-03     219.741E-03    -109.514E-03     187.884E-03    -118.466E-03     228.134E-03    -109.146E-03     180.151E-03
             975     15.3375E-03     112.281E-03    -5.77325E+06     145.464E+06     110.859E+06     1.51645E+06    -110.274E-03     219.764E-03    -109.491E-03     122.837E-03    -115.540E-03     225.206E-03    -109.139E-03     117.319E-03
             976     805.703E-06     111.006E-03    -98.9366E+06    -225.389E+06    -96.9705E+06    -2.68326E+06    -110.360E-03     220.435E-03    -110.075E-03     15.7646E-03    -110.400E-03     219.605E-03    -110.090E-03     15.4002E-03
             977     1.61214E-03     111.029E-03    -95.6213E+06    -221.753E+06    -89.6477E+06    -4.80103E+06    -110.126E-03     220.285E-03    -110.159E-03     28.8134E-03    -110.192E-03     219.485E-03    -110.147E-03     28.1382E-03
             978     2.41854E-03     111.068E-03    -91.4498E+06    -212.769E+06    -79.2031E+06    -7.39016E+06    -110.216E-03     220.310E-03    -110.094E-03     42.3826E-03    -110.337E-03     219.580E-03    -110.049E-03     41.3600E-03
             979     3.22512E-03     111.121E-03    -86.3897E+06    -202.541E+06    -66.9128E+06    -9.48386E+06    -110.423E-03     220.474E-03    -110.051E-03     55.9682E-03    -110.620E-03     219.840E-03    -109.967E-03     54.5755E-03
             980     4.03125E-03     111.190E-03    -80.6228E+06    -191.278E+06    -55.0330E+06    -11.0397E+06    -110.614E-03     220.621E-03    -110.007E-03     69.3040E-03    -110.913E-03     220.114E-03    -109.887E-03     67.5181E-03
             981     4.83850E-03     111.272E-03    -74.4307E+06    -179.178E+06    -44.9518E+06    -12.9200E+06    -110.803E-03     220.741E-03    -109.938E-03     82.4571E-03    -111.233E-03     220.401E-03    -109.795E-03     80.2317E-03
             982     5.64496E-03     111.368E-03    -67.8229E+06    -167.536E+06    -36.0243E+06    -14.4920E+06    -110.999E-03     220.847E-03    -109.848E-03     95.4608E-03    -111.597E-03     220.713E-03    -109.687E-03     92.7594E-03
             983     6.45257E-03     111.477E-03    -61.9404E+06    -154.156E+06    -28.8904E+06    -15.6811E+06    -111.214E-03     220.949E-03    -109.734E-03     108.258E-03    -112.035E-03     221.085E-03    -109.565E-03     105.032E-03
             984     7.26007E-03     111.600E-03    -56.8685E+06    -142.153E+06    -23.1986E+06    -16.8405E+06    -111.533E-03     221.145E-03    -109.612E-03     120.770E-03    -112.641E-03     221.614E-03    -109.440E-03     116.951E-03
             985     8.06722E-03     111.735E-03    -52.1743E+06    -128.406E+06    -19.6719E+06    -17.2500E+06    -111.852E-03     221.334E-03    -109.481E-03     133.102E-03    -113.331E-03     222.228E-03    -109.318E-03     128.634E-03
             986     8.87565E-03     111.883E-03    -47.6149E+06    -110.589E+06    -15.0782E+06    -16.4504E+06    -112.104E-03     221.456E-03    -109.352E-03     145.104E-03    -114.062E-03     222.896E-03    -109.198E-03     139.937E-03
             987     9.68279E-03     112.042E-03    -43.4488E+06    -88.4402E+06    -11.9709E+06    -14.9131E+06    -112.354E-03     221.568E-03    -109.214E-03     156.759E-03    -114.929E-03     223.710E-03    -109.083E-03     150.823E-03
             988     10.4922E-03     112.214E-03    -39.4983E+06    -55.4291E+06    -7.83636E+06    -12.2482E+06    -112.693E-03     221.772E-03    -109.079E-03     169.466E-03    -116.121E-03     224.886E-03    -108.981E-03     162.659E-03
             989     11.2986E-03     112.398E-03    -35.7952E+06     11.0345E+03    -2.91170E+06    -6.62915E+06    -113.363E-03     222.300E-03    -108.937E-03     186.525E-03    -118.041E-03     226.860E-03    -108.900E-03     178.747E-03
             990     12.1078E-03     112.607E-03    -31.6866E+06     78.6576E+06     13.2363E+06    -238.709E+03    -114.224E-03     223.065E-03    -108.840E-03     207.439E-03    -120.689E-03     229.658E-03    -108.842E-03     198.604E-03
             991     12.9146E-03     112.835E-03    -26.1208E+06     127.014E+06     52.4949E+06     2.37100E+06    -114.030E-03     222.947E-03    -108.917E-03     218.999E-03    -122.126E-03     231.249E-03    -108.801E-03     209.606E-03
             992     13.7212E-03     113.071E-03    -18.7230E+06     138.618E+06     91.7980E+06     2.48643E+06    -112.110E-03     221.166E-03    -109.055E-03     202.764E-03    -120.356E-03     229.571E-03    -108.770E-03     194.056E-03
             993     14.5347E-03     113.260E-03    -11.9074E+06     147.735E+06     112.332E+06     2.04229E+06    -110.661E-03     219.781E-03    -109.120E-03     186.768E-03    -118.823E-03     228.100E-03    -108.756E-03     179.035E-03
             994     15.3339E-03     113.473E-03    -6.47188E+06     145.659E+06     111.567E+06     1.58462E+06    -110.142E-03     219.277E-03    -109.135E-03     122.371E-03    -115.361E-03     224.667E-03    -108.779E-03     116.875E-03
             995     806.448E-06     112.185E-03    -96.6721E+06    -218.357E+06    -95.0900E+06    -2.83492E+06    -109.666E-03     219.382E-03    -109.715E-03     15.9463E-03    -109.708E-03     218.581E-03    -109.734E-03     15.5838E-03
             996     1.61315E-03     112.211E-03    -94.1702E+06    -214.129E+06    -88.4612E+06    -5.73905E+06    -109.737E-03     219.391E-03    -109.654E-03     29.1179E-03    -109.808E-03     218.624E-03    -109.649E-03     28.4433E-03
             997     2.41949E-03     112.247E-03    -90.0162E+06    -205.509E+06    -77.9425E+06    -8.16734E+06    -109.876E-03     219.510E-03    -109.634E-03     42.8063E-03    -110.000E-03     218.811E-03    -109.595E-03     41.7898E-03
             998     3.22619E-03     112.302E-03    -84.7653E+06    -196.062E+06    -65.2107E+06    -10.4700E+06    -109.931E-03     219.536E-03    -109.605E-03     56.5405E-03    -110.130E-03     218.927E-03    -109.524E-03     55.1610E-03
             999     4.03351E-03     112.369E-03    -78.5758E+06    -185.301E+06    -53.8422E+06    -12.6967E+06    -110.012E-03     219.544E-03    -109.532E-03     70.1298E-03    -110.308E-03     219.060E-03    -109.419E-03     68.3558E-03
            1000     4.84026E-03     112.452E-03    -72.3934E+06    -172.706E+06    -43.9909E+06    -14.5797E+06    -110.118E-03     219.544E-03    -109.425E-03     83.5807E-03    -110.545E-03     219.228E-03    -109.290E-03     81.3809E-03
            1001     5.64833E-03     112.547E-03    -66.7428E+06    -162.568E+06    -35.6575E+06    -16.6764E+06    -110.267E-03     219.565E-03    -109.298E-03     96.7907E-03    -110.861E-03     219.449E-03    -109.144E-03     94.1166E-03
            1002     6.45606E-03     112.656E-03    -61.0070E+06    -150.439E+06    -28.7162E+06    -17.7443E+06    -110.496E-03     219.647E-03    -109.151E-03     109.817E-03    -111.308E-03     219.792E-03    -108.988E-03     106.632E-03
            1003     7.26401E-03     112.778E-03    -55.6929E+06    -138.011E+06    -22.5921E+06    -18.2618E+06    -110.737E-03     219.734E-03    -108.997E-03     122.809E-03    -111.834E-03     220.209E-03    -108.829E-03     119.060E-03
            1004     8.07286E-03     112.913E-03    -50.9396E+06    -125.945E+06    -18.6120E+06    -18.9804E+06    -111.033E-03     219.866E-03    -108.833E-03     135.602E-03    -112.498E-03     220.756E-03    -108.669E-03     131.213E-03
            1005     8.88102E-03     113.061E-03    -46.5402E+06    -110.545E+06    -15.2522E+06    -18.3993E+06    -111.365E-03     220.034E-03    -108.668E-03     147.928E-03    -113.301E-03     221.456E-03    -108.517E-03     142.850E-03
            1006     9.69045E-03     113.220E-03    -42.2440E+06    -89.8240E+06    -12.0328E+06    -16.7572E+06    -111.798E-03     220.311E-03    -108.512E-03     160.078E-03    -114.351E-03     222.429E-03    -108.381E-03     154.234E-03
            1007     10.4979E-03     113.391E-03    -38.2318E+06    -59.0831E+06    -7.80229E+06    -14.1191E+06    -112.346E-03     220.719E-03    -108.373E-03     173.194E-03    -115.749E-03     223.799E-03    -108.271E-03     166.483E-03
            1008     11.3077E-03     113.578E-03    -33.8188E+06    -9.13288E+06    -2.47648E+06    -8.88334E+06    -113.252E-03     221.496E-03    -108.243E-03     190.758E-03    -117.908E-03     226.006E-03    -108.193E-03     183.056E-03
            1009     12.1150E-03     113.785E-03    -29.1127E+06     70.0621E+06     11.6625E+06    -1.90813E+06    -114.209E-03     222.353E-03    -108.143E-03     211.980E-03    -120.652E-03     228.906E-03    -108.145E-03     203.234E-03
            1010     12.9230E-03     114.019E-03    -24.8890E+06     126.233E+06     48.5428E+06     1.94634E+06    -114.345E-03     222.564E-03    -108.218E-03     222.969E-03    -122.427E-03     230.864E-03    -108.122E-03     213.657E-03
            1011     13.7337E-03     114.247E-03    -19.9576E+06     138.923E+06     87.6331E+06     2.04759E+06    -113.868E-03     222.296E-03    -108.428E-03     207.460E-03    -122.202E-03     230.798E-03    -108.162E-03     198.634E-03
            1012     14.5299E-03     114.451E-03    -13.2816E+06     147.515E+06     109.798E+06     1.63535E+06    -112.894E-03     221.519E-03    -108.625E-03     191.100E-03    -121.185E-03     229.968E-03    -108.270E-03     183.142E-03
            1013     15.3463E-03     114.641E-03    -5.25883E+06     146.460E+06     113.038E+06     1.28732E+06    -109.965E-03     218.689E-03    -108.724E-03     125.447E-03    -115.256E-03     224.154E-03    -108.364E-03     119.877E-03
            1014     807.256E-06     113.367E-03    -93.1225E+06    -210.340E+06    -92.1721E+06    -3.42743E+06    -109.016E-03     217.968E-03    -108.952E-03     16.0381E-03    -109.055E-03     217.197E-03    -108.973E-03     15.6819E-03
            1015     1.61386E-03     113.388E-03    -90.8885E+06    -205.268E+06    -84.6967E+06    -6.35834E+06    -109.134E-03     218.102E-03    -108.969E-03     29.3622E-03    -109.206E-03     217.369E-03    -108.963E-03     28.6948E-03
            1016     2.42130E-03     113.428E-03    -86.7582E+06    -197.637E+06    -74.4405E+06    -9.08775E+06    -109.149E-03     218.107E-03    -108.958E-03     43.4625E-03    -109.273E-03     217.437E-03    -108.918E-03     42.4609E-03
            1017     3.22842E-03     113.480E-03    -81.2982E+06    -188.591E+06    -63.1537E+06    -11.6782E+06    -109.124E-03     218.018E-03    -108.894E-03     57.4158E-03    -109.317E-03     217.436E-03    -108.818E-03     56.0561E-03
            1018     4.03597E-03     113.548E-03    -75.5876E+06    -178.322E+06    -52.3040E+06    -14.3067E+06    -109.089E-03     217.869E-03    -108.780E-03     71.4256E-03    -109.378E-03     217.408E-03    -108.673E-03     69.6818E-03
            1019     4.84449E-03     113.629E-03    -69.7668E+06    -166.870E+06    -42.7841E+06    -16.1028E+06    -109.161E-03     217.791E-03    -108.630E-03     85.1051E-03    -109.578E-03     217.492E-03    -108.501E-03     82.9502E-03
            1020     5.65261E-03     113.724E-03    -64.3173E+06    -156.041E+06    -34.0788E+06    -17.8371E+06    -109.300E-03     217.764E-03    -108.465E-03     98.7080E-03    -109.885E-03     217.666E-03    -108.316E-03     96.0972E-03
            1021     6.46128E-03     113.833E-03    -59.3080E+06    -145.852E+06    -27.4358E+06    -19.3655E+06    -109.406E-03     217.685E-03    -108.279E-03     112.220E-03    -110.205E-03     217.836E-03    -108.119E-03     109.113E-03
            1022     7.27081E-03     113.955E-03    -54.2806E+06    -134.952E+06    -22.3741E+06    -20.1336E+06    -109.604E-03     217.679E-03    -108.075E-03     125.730E-03    -110.682E-03     218.150E-03    -107.912E-03     122.076E-03
            1023     8.07997E-03     114.090E-03    -49.5891E+06    -122.724E+06    -17.7344E+06    -20.3050E+06    -109.929E-03     217.798E-03    -107.869E-03     138.992E-03    -111.369E-03     218.678E-03    -107.708E-03     134.731E-03
            1024     8.89000E-03     114.237E-03    -45.3840E+06    -109.131E+06    -14.5909E+06    -20.2968E+06    -110.398E-03     218.070E-03    -107.671E-03     151.951E-03    -112.310E-03     219.475E-03    -107.520E-03     147.001E-03
            1025     9.69927E-03     114.396E-03    -41.3216E+06    -91.3313E+06    -12.1119E+06    -18.9591E+06    -110.998E-03     218.491E-03    -107.492E-03     164.764E-03    -113.522E-03     220.578E-03    -107.361E-03     159.056E-03
            1026     10.5097E-03     114.569E-03    -37.0340E+06    -61.7983E+06    -7.66635E+06    -16.4690E+06    -111.848E-03     219.194E-03    -107.346E-03     178.596E-03    -115.225E-03     222.242E-03    -107.241E-03     172.018E-03
            1027     11.3181E-03     114.754E-03    -32.6458E+06    -17.3379E+06    -1.89414E+06    -11.9362E+06    -112.995E-03     220.225E-03    -107.230E-03     196.764E-03    -117.628E-03     224.686E-03    -107.167E-03     189.181E-03
            1028     12.1271E-03     114.966E-03    -28.6320E+06     59.1481E+06     8.84224E+06    -4.05065E+06    -114.293E-03     221.427E-03    -107.133E-03     218.222E-03    -120.722E-03     227.938E-03    -107.134E-03     209.591E-03
            1029     12.9370E-03     115.195E-03    -24.2900E+06     123.241E+06     42.3941E+06     2.12367E+06    -115.289E-03     222.515E-03    -107.226E-03     229.435E-03    -123.409E-03     230.864E-03    -107.158E-03     220.161E-03
            1030     13.7393E-03     115.434E-03    -18.9096E+06     140.447E+06     83.4794E+06     2.84743E+06    -114.338E-03     221.831E-03    -107.492E-03     214.931E-03    -122.773E-03     230.454E-03    -107.251E-03     206.183E-03
            1031     14.5554E-03     115.631E-03    -12.7341E+06     149.006E+06     109.119E+06     1.22414E+06    -113.742E-03     221.494E-03    -107.753E-03     199.956E-03    -122.251E-03     230.171E-03    -107.405E-03     191.962E-03
            1032     15.3477E-03     115.833E-03    -5.96545E+06     146.333E+06     114.142E+06     828.655E+03    -113.275E-03     221.266E-03    -107.991E-03     131.150E-03    -118.746E-03     226.905E-03    -107.624E-03     125.316E-03
            1033     807.464E-06     114.542E-03    -89.0744E+06    -200.823E+06    -87.2126E+06    -3.74363E+06    -108.154E-03     216.157E-03    -108.003E-03     16.5266E-03    -108.194E-03     215.421E-03    -108.019E-03     16.1786E-03
            1034     1.61569E-03     114.567E-03    -86.3416E+06    -196.311E+06    -80.5110E+06    -6.75629E+06    -108.048E-03     216.070E-03    -108.022E-03     29.9536E-03    -108.115E-03     215.367E-03    -108.015E-03     29.3059E-03
            1035     2.42323E-03     114.604E-03    -82.4575E+06    -188.963E+06    -71.4314E+06    -9.84353E+06    -107.929E-03     215.860E-03    -107.931E-03     44.3801E-03    -108.046E-03     215.220E-03    -107.894E-03     43.4062E-03
            1036     3.23196E-03     114.657E-03    -77.8911E+06    -180.238E+06     -61.309E+06    -12.8631E+06    -107.878E-03     215.677E-03    -107.800E-03     58.7627E-03    -108.065E-03     215.126E-03    -107.732E-03     57.4413E-03
            1037     4.04072E-03     114.723E-03    -72.7510E+06    -170.354E+06    -50.6173E+06    -15.3939E+06    -107.849E-03     215.492E-03    -107.643E-03     73.0311E-03    -108.132E-03     215.059E-03    -107.544E-03     71.3433E-03
            1038     4.84965E-03     114.805E-03    -67.4760E+06    -160.793E+06    -41.3264E+06    -17.6975E+06    -107.806E-03     215.260E-03    -107.454E-03     87.2774E-03    -108.214E-03     214.977E-03    -107.329E-03     85.1900E-03
            1039     5.65930E-03     114.899E-03    -62.1231E+06    -150.109E+06    -33.2228E+06    -18.9370E+06    -107.804E-03     215.035E-03    -107.232E-03     101.440E-03    -108.374E-03     214.948E-03    -107.090E-03     98.9322E-03
            1040     6.46971E-03     115.007E-03    -57.1209E+06    -140.356E+06    -25.9859E+06    -20.3262E+06    -107.897E-03     214.889E-03    -106.992E-03     115.519E-03    -108.679E-03     215.045E-03    -106.836E-03     112.536E-03
            1041     7.27994E-03     115.129E-03    -52.6155E+06    -130.848E+06    -21.2554E+06    -21.5190E+06    -108.095E-03     214.831E-03    -106.736E-03     129.668E-03    -109.149E-03     215.295E-03    -106.577E-03     126.160E-03
            1042     8.09117E-03     115.263E-03    -48.4385E+06    -120.238E+06    -17.2490E+06    -21.7387E+06    -108.435E-03     214.916E-03    -106.481E-03     143.738E-03    -109.845E-03     215.778E-03    -106.323E-03     139.647E-03
            1043     8.90226E-03     115.411E-03    -44.4628E+06    -106.733E+06    -13.8576E+06    -21.6438E+06    -109.070E-03     215.314E-03    -106.244E-03     157.618E-03    -110.952E-03     216.698E-03    -106.094E-03     152.856E-03
            1044     9.71354E-03     115.571E-03    -40.8406E+06    -91.2071E+06    -11.1794E+06    -20.9047E+06    -109.905E-03     215.948E-03    -106.043E-03     171.117E-03    -112.395E-03     218.001E-03    -105.907E-03     165.607E-03
            1045     10.5241E-03     115.743E-03    -37.4366E+06    -64.4260E+06    -8.41075E+06    -18.7704E+06    -111.093E-03     216.976E-03    -105.883E-03     186.049E-03    -114.443E-03     219.989E-03    -105.778E-03     179.664E-03
            1046     11.3346E-03     115.934E-03    -34.1049E+06    -24.0251E+06    -1.96773E+06    -14.4142E+06    -112.702E-03     218.491E-03    -105.789E-03     204.393E-03    -117.320E-03     222.908E-03    -105.715E-03     196.984E-03
            1047     12.1452E-03     116.141E-03    -30.3851E+06     47.2501E+06     6.98549E+06    -6.57251E+06    -114.909E-03     220.648E-03    -105.739E-03     226.353E-03    -121.363E-03     227.142E-03    -105.729E-03     217.809E-03
            1048     12.9513E-03     116.381E-03    -25.4076E+06     118.018E+06     36.2733E+06    -152.934E+03    -116.126E-03     221.999E-03    -105.874E-03     237.382E-03    -124.323E-03     230.420E-03    -105.827E-03     228.156E-03
            1049     13.7641E-03     116.612E-03    -18.9034E+06     141.377E+06     77.4833E+06     1.58922E+06    -115.626E-03     221.850E-03    -106.225E-03     220.443E-03    -124.117E-03     230.552E-03    -106.015E-03     211.688E-03
            1050     14.5618E-03     116.815E-03    -12.2868E+06     149.969E+06     107.232E+06     1.75668E+06    -115.666E-03     222.303E-03    -106.637E-03     202.084E-03    -124.184E-03     230.999E-03    -106.301E-03     194.021E-03
            1051     15.3801E-03     117.018E-03    -6.79666E+06     146.558E+06     116.029E+06     899.180E+03    -118.192E-03     225.317E-03    -107.125E-03     130.758E-03    -123.665E-03     230.950E-03    -106.747E-03     124.679E-03
            1052     808.954E-06     115.718E-03    -84.8004E+06    -190.499E+06    -83.7604E+06    -3.88391E+06    -106.764E-03     213.298E-03    -106.534E-03     16.8811E-03    -106.802E-03     212.601E-03    -106.554E-03     16.5466E-03
            1053     1.61741E-03     115.740E-03    -82.4307E+06    -186.700E+06    -77.6801E+06    -7.32037E+06    -106.439E-03     212.986E-03    -106.547E-03     30.8792E-03    -106.504E-03     212.321E-03    -106.545E-03     30.2580E-03
            1054     2.42738E-03     115.779E-03    -78.9002E+06    -179.753E+06    -69.2503E+06    -10.7409E+06    -106.282E-03     212.673E-03    -106.391E-03     45.6471E-03    -106.395E-03     212.068E-03    -106.362E-03     44.7124E-03
            1055     3.23683E-03     115.830E-03    -74.5698E+06    -171.275E+06    -58.9664E+06    -13.7712E+06    -106.172E-03     212.385E-03    -106.214E-03     60.4844E-03    -106.353E-03     211.865E-03    -106.152E-03     59.2237E-03
            1056     4.04694E-03     115.897E-03    -69.7037E+06    -161.856E+06    -48.6367E+06    -16.2865E+06    -106.032E-03     212.038E-03    -106.007E-03     75.2573E-03    -106.306E-03     211.631E-03    -105.914E-03     73.6517E-03
            1057     4.85771E-03     115.976E-03    -64.7342E+06    -153.488E+06    -39.5306E+06    -18.7266E+06    -105.864E-03     211.623E-03    -105.758E-03     90.1833E-03    -106.258E-03     211.356E-03    -105.640E-03     88.2054E-03
            1058     5.66928E-03     116.071E-03    -59.6094E+06    -144.610E+06    -31.8895E+06    -20.4260E+06    -105.760E-03     211.230E-03    -105.470E-03     104.978E-03    -106.307E-03     211.144E-03    -105.333E-03     102.603E-03
            1059     6.48092E-03     116.178E-03    -54.7038E+06    -135.387E+06    -24.9760E+06    -21.2421E+06    -105.819E-03     210.981E-03    -105.162E-03     119.911E-03    -106.571E-03     211.131E-03    -105.012E-03     117.099E-03
            1060     7.29364E-03     116.299E-03    -50.4182E+06    -125.585E+06    -19.3745E+06    -22.0833E+06    -105.997E-03     210.843E-03    -104.846E-03     134.878E-03    -107.016E-03     211.293E-03    -104.688E-03     131.577E-03
            1061     8.10654E-03     116.433E-03    -46.5958E+06    -117.249E+06    -15.6932E+06    -22.7262E+06    -106.482E-03     211.018E-03    -104.537E-03     150.052E-03    -107.852E-03     211.852E-03    -104.378E-03     146.187E-03
            1062     8.91962E-03     116.582E-03    -43.0083E+06    -104.419E+06    -12.7693E+06    -22.4535E+06    -107.323E-03     211.580E-03    -104.256E-03     164.906E-03    -109.156E-03     212.926E-03    -104.106E-03     160.402E-03
            1063     9.73279E-03     116.741E-03    -39.6503E+06    -89.6857E+06    -9.20077E+06    -21.7768E+06    -108.614E-03     212.657E-03    -104.043E-03     179.321E-03    -111.064E-03     214.675E-03    -103.902E-03     174.065E-03
            1064     10.5453E-03     116.917E-03    -36.7076E+06    -66.4885E+06    -7.38426E+06    -19.9297E+06    -110.389E-03     214.289E-03    -103.900E-03     194.727E-03    -113.702E-03     217.257E-03    -103.787E-03     188.581E-03
            1065     11.3574E-03     117.106E-03    -33.5667E+06    -29.5022E+06    -380.596E+03    -15.4065E+06    -112.971E-03     216.844E-03    -103.873E-03     213.280E-03    -117.579E-03     221.230E-03    -103.784E-03     206.044E-03
            1066     12.1658E-03     117.321E-03    -29.8181E+06     36.8628E+06     8.39545E+06    -8.61673E+06    -115.963E-03     219.897E-03    -103.934E-03     235.067E-03    -122.442E-03     226.377E-03    -103.903E-03     226.603E-03
            1067     12.9773E-03     117.559E-03    -25.4405E+06     112.797E+06     36.0064E+06    -2.10499E+06    -118.151E-03     222.354E-03    -104.203E-03     244.429E-03    -126.401E-03     230.810E-03    -104.149E-03     235.167E-03
            1068     13.7784E-03     117.797E-03    -20.3132E+06     141.358E+06     73.5315E+06    -198.833E+03    -119.724E-03     224.486E-03    -104.763E-03     225.597E-03    -128.329E-03     233.309E-03    -104.570E-03     216.538E-03
            1069     14.5876E-03     118.003E-03    -13.0374E+06     148.417E+06     103.077E+06    -112.532E+03    -121.873E-03     227.389E-03    -105.516E-03     204.417E-03    -130.507E-03     236.205E-03    -105.197E-03     195.737E-03
            1070     15.3727E-03     118.204E-03    -5.73542E+06     146.324E+06     117.055E+06     1.00336E+06    -123.588E-03     229.966E-03    -106.378E-03     133.528E-03    -129.175E-03     235.714E-03    -105.997E-03     126.930E-03
            1071     810.228E-06     116.888E-03    -81.2952E+06    -179.635E+06    -80.1929E+06    -4.51535E+06    -104.552E-03     208.964E-03    -104.411E-03     17.3972E-03    -104.593E-03     208.311E-03    -104.434E-03     17.0781E-03
            1072     1.62156E-03     116.912E-03    -79.0351E+06    -175.720E+06    -74.8352E+06    -8.22015E+06    -104.272E-03     208.644E-03    -104.372E-03     31.8907E-03    -104.339E-03     208.022E-03    -104.376E-03     31.3005E-03
            1073     2.43212E-03     116.947E-03    -75.6128E+06    -169.425E+06    -66.4582E+06    -11.9089E+06    -104.094E-03     208.300E-03    -104.206E-03     47.2500E-03    -104.205E-03     207.734E-03    -104.183E-03     46.3676E-03
            1074     3.24385E-03     117.000E-03    -71.1744E+06    -162.125E+06    -56.5905E+06    -14.8088E+06    -103.785E-03     207.777E-03    -103.992E-03     62.7074E-03    -103.959E-03     207.287E-03    -103.937E-03     61.5262E-03
            1075     4.05611E-03     117.064E-03    -66.4009E+06    -153.932E+06    -46.8443E+06    -17.3115E+06    -103.481E-03     207.197E-03    -103.716E-03     78.2388E-03    -103.741E-03     206.810E-03    -103.631E-03     76.7442E-03
            1076     4.86908E-03     117.145E-03    -61.6645E+06    -145.754E+06    -37.6662E+06    -19.4183E+06    -103.220E-03     206.614E-03    -103.394E-03     93.7955E-03    -103.593E-03     206.359E-03    -103.281E-03     91.9674E-03
            1077     5.68246E-03     117.237E-03    -57.1751E+06    -138.412E+06    -30.1308E+06    -21.2816E+06    -103.047E-03     206.080E-03    -103.034E-03     109.603E-03    -103.568E-03     205.994E-03    -102.901E-03     107.408E-03
            1078     6.49723E-03     117.344E-03    -52.6927E+06    -130.692E+06    -23.8445E+06    -22.3214E+06    -103.000E-03     205.648E-03    -102.648E-03     125.461E-03    -103.714E-03     205.779E-03    -102.502E-03     122.868E-03
            1079     7.31221E-03     117.464E-03    -48.3951E+06    -121.299E+06    -18.1620E+06    -22.6196E+06    -103.296E-03     205.557E-03    -102.261E-03     141.507E-03    -104.270E-03     205.981E-03    -102.106E-03     138.463E-03
            1080     8.12773E-03     117.599E-03    -44.6257E+06    -112.954E+06    -13.4719E+06    -23.1965E+06    -104.077E-03     205.985E-03    -101.908E-03     157.724E-03    -105.395E-03     206.782E-03    -101.747E-03     154.143E-03
            1081     8.94358E-03     117.746E-03    -41.2037E+06    -101.923E+06    -10.5653E+06    -22.8858E+06    -105.408E-03     207.021E-03    -101.613E-03     173.478E-03    -107.185E-03     208.320E-03    -101.458E-03     169.269E-03
            1082     9.75852E-03     117.910E-03    -38.2618E+06    -88.0080E+06    -6.98426E+06    -22.1790E+06    -107.436E-03     208.863E-03    -101.427E-03     188.585E-03    -109.836E-03     210.834E-03    -101.278E-03     183.611E-03
            1083     10.5726E-03     118.085E-03    -35.4946E+06    -67.3406E+06    -4.52436E+06    -20.2883E+06    -110.238E-03     211.608E-03    -101.369E-03     204.236E-03    -113.516E-03     214.534E-03    -101.243E-03     198.325E-03
            1084     11.3839E-03     118.280E-03    -32.5069E+06    -34.9157E+06     2.13820E+06    -16.3134E+06    -113.893E-03     215.374E-03    -101.481E-03     223.379E-03    -118.503E-03     219.739E-03    -101.373E-03     216.287E-03
            1085     12.1953E-03     118.497E-03    -29.0227E+06     28.3133E+06     12.9982E+06    -9.99190E+06    -118.138E-03     219.882E-03    -101.744E-03     244.321E-03    -124.664E-03     226.368E-03    -101.678E-03     235.863E-03
            1086     12.9996E-03     118.740E-03    -24.6093E+06     107.174E+06     39.9913E+06    -3.08803E+06    -122.219E-03     224.486E-03    -102.267E-03     253.126E-03    -130.618E-03     233.063E-03    -102.186E-03     243.615E-03
            1087     13.8064E-03     118.986E-03    -18.8690E+06     142.721E+06     73.8541E+06    -659.212E+03    -125.377E-03     228.513E-03    -103.136E-03     233.918E-03    -134.222E-03     237.584E-03    -102.946E-03     224.392E-03
            1088     14.5955E-03     119.195E-03    -13.5346E+06     147.197E+06     100.950E+06    -1.02689E+06    -128.670E-03     232.938E-03    -104.269E-03     213.787E-03    -137.692E-03     242.143E-03    -103.958E-03     204.393E-03
            1089     15.3981E-03     119.410E-03    -6.72489E+06     144.123E+06     115.878E+06    -30.6033E+03    -130.763E-03     236.295E-03    -105.533E-03     141.167E-03    -136.660E-03     242.346E-03    -105.153E-03     133.892E-03
            1090     813.064E-06     118.054E-03    -77.1703E+06    -167.682E+06    -76.1639E+06    -4.99577E+06    -101.630E-03     203.066E-03    -101.436E-03     18.0959E-03    -101.673E-03     202.459E-03    -101.462E-03     17.8017E-03
            1091     1.62573E-03     118.075E-03    -74.9912E+06    -163.812E+06    -70.9336E+06    -9.15738E+06    -101.374E-03     202.800E-03    -101.427E-03     33.0840E-03    -101.440E-03     202.224E-03    -101.435E-03     32.5358E-03
            1092     2.43950E-03     118.113E-03    -71.9136E+06    -158.496E+06    -63.4409E+06    -12.7529E+06    -100.984E-03     202.220E-03    -101.235E-03     49.2266E-03    -101.092E-03     201.692E-03    -101.218E-03     48.4189E-03
            1093     3.25352E-03     118.161E-03    -68.1773E+06    -152.831E+06    -54.8244E+06    -16.0798E+06    -100.582E-03     201.539E-03    -100.956E-03     65.4806E-03    -100.748E-03     201.077E-03    -100.910E-03     64.3999E-03
            1094     4.06848E-03     118.227E-03    -63.8287E+06    -146.020E+06    -45.6251E+06    -18.2524E+06    -100.127E-03     200.739E-03    -100.611E-03     81.7733E-03    -100.371E-03     200.368E-03    -100.535E-03     80.4196E-03
            1095     4.88415E-03     118.304E-03    -59.3227E+06    -138.373E+06    -36.5705E+06    -20.1353E+06    -99.7237E-03     199.933E-03    -100.209E-03     98.3317E-03    -100.073E-03     199.685E-03    -100.105E-03     96.6847E-03
            1096     5.70127E-03     118.397E-03    -54.9002E+06    -131.703E+06    -28.6872E+06    -21.8105E+06    -99.4944E-03     199.264E-03    -99.7691E-03     115.132E-03    -99.9812E-03     199.170E-03    -99.6420E-03     113.161E-03
            1097     6.51848E-03     118.502E-03    -50.8589E+06    -125.363E+06    -22.4860E+06    -22.8218E+06    -99.5350E-03     198.849E-03    -99.3139E-03     132.017E-03    -100.204E-03     198.956E-03    -99.1708E-03     129.686E-03
            1098     7.33703E-03     118.623E-03    -47.2202E+06    -117.755E+06    -17.3962E+06    -23.2862E+06    -100.142E-03     199.022E-03    -98.8798E-03     149.253E-03    -101.061E-03     199.404E-03    -98.7276E-03     146.498E-03
            1099     8.15556E-03     118.757E-03    -43.8719E+06    -108.828E+06    -12.2822E+06    -23.1435E+06    -101.476E-03     199.996E-03    -98.5191E-03     166.355E-03    -102.734E-03     200.746E-03    -98.3591E-03     163.092E-03
            1100     8.97339E-03     118.907E-03    -41.3256E+06    -99.7592E+06    -9.00819E+06    -22.8832E+06    -103.634E-03     201.905E-03    -98.2716E-03     183.026E-03    -105.355E-03     203.151E-03    -98.1120E-03     179.127E-03
            1101     9.79058E-03     119.072E-03    -39.1931E+06    -86.2193E+06    -5.63496E+06    -21.9691E+06    -106.688E-03     204.872E-03    -98.1837E-03     198.932E-03    -109.044E-03     206.798E-03    -98.0300E-03     194.247E-03
            1102     10.6051E-03     119.253E-03    -37.3119E+06    -68.0347E+06    -2.29937E+06    -20.1285E+06    -110.764E-03     209.058E-03    -98.2937E-03     215.240E-03    -114.035E-03     211.962E-03    -98.1525E-03     209.542E-03
            1103     11.4182E-03     119.451E-03    -35.0429E+06    -37.8132E+06     4.76789E+06    -17.3390E+06    -115.812E-03     214.444E-03    -98.6321E-03     234.236E-03    -120.460E-03     218.820E-03    -98.5026E-03     227.229E-03
            1104     12.2256E-03     119.675E-03    -31.2139E+06     21.3081E+06     17.8704E+06    -12.2953E+06    -121.793E-03     220.991E-03    -99.1985E-03     254.965E-03    -128.440E-03     227.553E-03    -99.0948E-03     246.368E-03
            1105     13.0323E-03     119.925E-03    -25.6192E+06     100.054E+06     45.7847E+06    -5.84249E+06    -127.546E-03     227.625E-03    -100.079E-03     263.479E-03    -136.197E-03     236.408E-03    -99.9575E-03     253.547E-03
            1106     13.8266E-03     120.178E-03    -19.4357E+06     142.458E+06     74.1750E+06    -1.87739E+06    -131.530E-03     232.834E-03    -101.304E-03     243.381E-03    -140.698E-03     242.225E-03    -101.112E-03     233.277E-03
            1107     14.6268E-03     120.398E-03    -12.4504E+06     147.055E+06     100.555E+06    -920.852E+03    -135.627E-03     238.467E-03    -102.840E-03     221.556E-03    -144.993E-03     248.022E-03    -102.533E-03     211.439E-03
            1108     15.4066E-03     120.613E-03    -6.16282E+06     142.881E+06     115.903E+06    -416.114E+03    -140.801E-03     245.391E-03    -104.590E-03     145.111E-03    -146.914E-03     251.656E-03    -104.209E-03     137.016E-03
            1109     815.992E-06     119.210E-03    -72.9782E+06    -154.105E+06    -72.2138E+06    -5.46653E+06    -97.7262E-03     195.399E-03    -97.6724E-03     18.8090E-03    -97.7727E-03     194.847E-03    -97.7042E-03     18.5424E-03
            1110     1.63211E-03     119.233E-03    -71.3108E+06    -151.580E+06    -67.8999E+06    -9.81980E+06    -97.3986E-03     194.954E-03    -97.5555E-03     34.6762E-03    -97.4661E-03     194.426E-03    -97.5718E-03     34.1858E-03
            1111     2.44880E-03     119.267E-03    -68.6367E+06    -147.451E+06    -61.3052E+06    -13.5262E+06    -96.9735E-03     194.282E-03    -97.3083E-03     51.5091E-03    -97.0765E-03     193.794E-03    -97.3015E-03     50.7905E-03
            1112     3.26649E-03     119.318E-03    -65.4164E+06    -143.194E+06    -53.0503E+06    -16.6233E+06    -96.4113E-03     193.386E-03    -96.9746E-03     68.5571E-03    -96.5660E-03     192.952E-03    -96.9373E-03     67.6064E-03
            1113     4.08471E-03     119.380E-03    -61.8226E+06    -138.143E+06    -44.7691E+06    -19.1043E+06    -95.8149E-03     192.371E-03    -96.5558E-03     85.8299E-03    -96.0401E-03     192.014E-03    -96.4897E-03     84.6404E-03
            1114     4.90458E-03     119.458E-03    -57.9451E+06    -131.205E+06    -36.9083E+06    -20.8119E+06    -95.3660E-03     191.441E-03    -96.0746E-03     103.467E-03    -95.6868E-03     191.195E-03    -95.9849E-03     102.028E-03
            1115     5.72463E-03     119.548E-03    -54.5239E+06    -125.667E+06    -29.2774E+06    -21.7935E+06    -95.1715E-03     190.742E-03    -95.5708E-03     121.250E-03    -95.6201E-03     190.634E-03    -95.4559E-03     119.539E-03
            1116     6.54656E-03     119.653E-03    -51.8016E+06    -119.959E+06    -22.9642E+06    -22.4356E+06    -95.5773E-03     190.658E-03    -95.0808E-03     139.380E-03    -96.2027E-03     190.739E-03    -94.9466E-03     137.345E-03
            1117     7.36806E-03     119.773E-03    -49.5882E+06    -113.350E+06    -17.8813E+06    -22.6945E+06    -96.7804E-03     191.439E-03    -94.6589E-03     157.686E-03    -97.6495E-03     191.780E-03    -94.5121E-03     155.256E-03
            1118     8.18956E-03     119.909E-03    -47.8797E+06    -105.844E+06    -13.5126E+06    -22.4769E+06    -98.9309E-03     193.291E-03    -94.3604E-03     175.947E-03    -100.141E-03     193.994E-03    -94.2050E-03     173.016E-03
            1119     9.01030E-03     120.061E-03    -46.1791E+06    -96.9683E+06    -9.26415E+06    -22.2380E+06    -102.218E-03     196.459E-03    -94.2406E-03     193.597E-03    -103.901E-03     197.660E-03    -94.0793E-03     190.012E-03
            1120     9.82847E-03     120.230E-03    -44.1063E+06    -84.3169E+06    -5.40435E+06    -21.8192E+06    -106.630E-03     200.975E-03    -94.3451E-03     210.176E-03    -108.969E-03     202.873E-03    -94.1859E-03     205.745E-03
            1121     10.6446E-03     120.416E-03    -41.1876E+06    -68.0288E+06    -540.919E+03    -20.5126E+06    -112.174E-03     206.891E-03    -94.7174E-03     226.831E-03    -115.457E-03     209.789E-03    -94.5618E-03     221.291E-03
            1122     11.4549E-03     120.622E-03    -37.4465E+06    -38.3732E+06     7.66767E+06    -18.4777E+06    -119.033E-03     214.414E-03    -95.3808E-03     246.015E-03    -123.767E-03     218.857E-03    -95.2325E-03     238.981E-03
            1123     12.2630E-03     120.853E-03    -33.1244E+06     15.8158E+06     21.7621E+06    -14.5193E+06    -126.823E-03     223.170E-03    -96.3465E-03     266.563E-03    -133.665E-03     229.889E-03    -96.2126E-03     257.669E-03
            1124     13.0615E-03     121.115E-03    -28.4123E+06     93.6390E+06     50.0466E+06    -8.20444E+06    -133.944E-03     231.612E-03    -97.6673E-03     274.397E-03    -142.921E-03     240.677E-03    -97.5117E-03     263.892E-03
            1125     13.8598E-03     121.377E-03    -21.5648E+06     139.661E+06     74.5810E+06    -4.54716E+06    -139.583E-03     238.936E-03    -99.3530E-03     251.797E-03    -149.128E-03     248.687E-03    -99.1513E-03     240.840E-03
            1126     14.6404E-03     121.602E-03    -13.5358E+06     144.027E+06     98.5186E+06    -3.27045E+06    -145.679E-03     247.107E-03    -101.428E-03     227.070E-03    -155.400E-03     257.009E-03    -101.125E-03     215.759E-03
            1127     15.4261E-03     121.836E-03    -6.53672E+06     140.937E+06     115.103E+06    -1.71329E+06    -151.887E-03     255.656E-03    -103.769E-03     150.954E-03    -158.263E-03     262.178E-03    -103.388E-03     141.756E-03
            1128     819.562E-06     120.358E-03    -70.5043E+06    -140.204E+06    -69.9827E+06    -5.72558E+06    -92.7833E-03     185.542E-03    -92.7583E-03     19.8262E-03    -92.8400E-03     185.051E-03    -92.8027E-03     19.5946E-03
            1129     1.64038E-03     120.379E-03    -69.4416E+06    -138.518E+06    -66.4404E+06    -10.1259E+06    -92.4105E-03     185.017E-03    -92.6068E-03     36.3487E-03    -92.4858E-03     184.545E-03    -92.6375E-03     35.9282E-03
            1130     2.46110E-03     120.414E-03    -67.4171E+06    -136.148E+06    -60.9547E+06    -14.1812E+06    -91.9213E-03     184.246E-03    -92.3245E-03     53.9129E-03    -92.0267E-03     183.803E-03    -92.3341E-03     53.2941E-03
            1131     3.28251E-03     120.461E-03    -64.8475E+06    -134.000E+06    -54.0420E+06    -16.8278E+06    -91.1760E-03     183.112E-03    -91.9357E-03     71.8831E-03    -91.3239E-03     182.708E-03    -91.9176E-03     71.0785E-03
            1132     4.10587E-03     120.524E-03    -62.3955E+06    -130.061E+06    -46.8186E+06    -18.9424E+06    -90.5702E-03     182.023E-03    -91.4531E-03     90.2452E-03    -90.7813E-03     181.684E-03    -91.4081E-03     89.2484E-03
            1133     4.92929E-03     120.599E-03    -60.5525E+06    -124.849E+06    -40.0941E+06    -20.1182E+06    -90.1885E-03     181.114E-03    -90.9255E-03     108.888E-03    -90.4888E-03     180.870E-03    -90.8571E-03     107.690E-03
            1134     5.75489E-03     120.689E-03    -59.0306E+06    -120.512E+06    -33.0735E+06    -20.4197E+06    -90.3353E-03     180.742E-03    -90.4064E-03     127.881E-03    -90.7574E-03     180.620E-03    -90.3114E-03     126.456E-03
            1135     6.57995E-03     120.794E-03    -57.6791E+06    -115.178E+06    -26.2439E+06    -20.7326E+06    -91.3756E-03     181.330E-03    -89.9543E-03     147.227E-03    -91.9688E-03     181.383E-03    -89.8349E-03     145.510E-03
            1136     7.40557E-03     120.915E-03    -56.5248E+06    -109.593E+06    -20.4178E+06    -20.6264E+06    -93.4639E-03     183.096E-03    -89.6319E-03     166.629E-03    -94.2970E-03     183.397E-03    -89.4931E-03     164.536E-03
            1137     8.23017E-03     121.053E-03    -55.2716E+06    -101.956E+06    -15.1919E+06    -20.7957E+06    -96.7971E-03     186.294E-03    -89.4967E-03     185.906E-03    -97.9737E-03     186.955E-03    -89.3447E-03     183.299E-03
            1138     9.05253E-03     121.210E-03    -53.2421E+06    -93.0176E+06    -10.1054E+06    -21.7494E+06    -101.488E-03     191.096E-03    -89.6084E-03     204.337E-03    -103.147E-03     192.265E-03    -89.4468E-03     201.030E-03
            1139     9.87236E-03     121.384E-03    -50.1522E+06    -81.3556E+06    -5.38586E+06    -22.4333E+06    -107.483E-03     197.495E-03    -90.0124E-03     221.548E-03    -109.820E-03     199.381E-03    -89.8487E-03     217.312E-03
            1140     10.6866E-03     121.578E-03    -46.0233E+06    -66.5774E+06     82.4343E+03    -22.7429E+06    -114.705E-03     205.451E-03    -90.7460E-03     238.664E-03    -118.032E-03     208.379E-03    -90.5823E-03     233.178E-03
            1141     11.4981E-03     121.792E-03    -40.5701E+06    -38.3752E+06     8.39091E+06    -21.9030E+06    -123.359E-03     215.181E-03    -91.8225E-03     258.401E-03    -128.216E-03     219.736E-03    -91.6660E-03     251.211E-03
            1142     12.2998E-03     122.037E-03    -34.1973E+06     9.87849E+06     23.0193E+06    -17.4826E+06    -132.995E-03     226.256E-03    -93.2612E-03     278.951E-03    -140.093E-03     233.204E-03    -93.1108E-03     269.603E-03
            1143     13.0988E-03     122.307E-03    -26.6810E+06     87.1694E+06     53.2972E+06    -10.2322E+06    -142.089E-03     237.200E-03    -95.1107E-03     285.847E-03    -151.471E-03     246.646E-03    -94.9320E-03     274.502E-03
            1144     13.8835E-03     122.583E-03    -20.0444E+06     138.373E+06     76.9488E+06    -5.93185E+06    -149.851E-03     247.224E-03    -97.3731E-03     262.292E-03    -159.894E-03     257.469E-03    -97.1600E-03     250.133E-03
            1145     14.6654E-03     122.823E-03    -14.3150E+06     142.279E+06     96.9985E+06    -5.37915E+06    -157.756E-03     257.832E-03    -100.076E-03     236.932E-03    -168.044E-03     268.297E-03    -99.7767E-03     224.024E-03
            1146     15.4289E-03     123.063E-03     -6.5281E+06     136.377E+06     112.858E+06    -3.75241E+06    -163.415E-03     266.456E-03    -103.041E-03     159.050E-03    -170.169E-03     273.347E-03    -102.665E-03     148.532E-03
            1147     825.380E-06     121.493E-03    -70.1622E+06    -126.089E+06     -69.695E+06    -5.91450E+06    -86.8388E-03     173.524E-03    -86.6855E-03     20.4870E-03    -86.9136E-03     173.101E-03    -86.7494E-03     20.2932E-03
            1148     1.64988E-03     121.514E-03    -69.5857E+06    -125.577E+06    -67.2361E+06    -9.86656E+06    -86.3325E-03     172.910E-03    -86.5779E-03     37.8787E-03    -86.4220E-03     172.498E-03    -86.6311E-03     37.5353E-03
            1149     2.47580E-03     121.547E-03    -69.2373E+06    -125.235E+06    -63.7153E+06    -13.4560E+06    -85.6418E-03     171.879E-03    -86.2373E-03     56.3728E-03    -85.7579E-03     171.486E-03    -86.2739E-03     55.8771E-03
            1150     3.30321E-03     121.594E-03    -68.6563E+06    -125.496E+06    -59.2516E+06    -16.1000E+06    -85.0198E-03     170.814E-03    -85.7947E-03     75.2451E-03    -85.1731E-03     170.447E-03    -85.8094E-03     74.6019E-03
            1151     4.13067E-03     121.654E-03    -68.0528E+06    -123.145E+06    -53.2410E+06    -17.1944E+06    -84.4879E-03     169.784E-03    -85.2964E-03     94.6683E-03    -84.6981E-03     169.467E-03    -85.2854E-03     93.8872E-03
            1152     4.96036E-03     121.729E-03    -67.7985E+06    -119.850E+06    -45.7845E+06    -17.0992E+06    -84.4590E-03     169.250E-03    -84.7915E-03     114.389E-03    -84.7519E-03     169.007E-03    -84.7483E-03     113.460E-03
            1153     5.78958E-03     121.818E-03    -67.9323E+06    -115.714E+06    -38.2906E+06    -17.0597E+06    -85.3372E-03     169.687E-03    -84.3499E-03     134.586E-03    -85.7477E-03     169.554E-03    -84.2751E-03     133.461E-03
            1154     6.61971E-03     121.924E-03    -67.8139E+06    -111.111E+06    -31.0238E+06    -17.4332E+06    -87.3070E-03     171.351E-03    -84.0441E-03     155.001E-03    -87.8828E-03     171.379E-03    -83.9397E-03     153.604E-03
            1155     7.44853E-03     122.047E-03    -66.6580E+06    -105.388E+06    -23.8777E+06    -18.3493E+06    -90.6319E-03     174.570E-03    -83.9382E-03     175.403E-03    -91.4446E-03     174.840E-03    -83.8081E-03     173.616E-03
            1156     8.27530E-03     122.190E-03    -63.6451E+06    -96.2700E+06    -17.0768E+06    -20.2996E+06    -95.4076E-03     179.494E-03    -84.0867E-03     195.543E-03    -96.5606E-03     180.129E-03    -83.9403E-03     193.205E-03
            1157     9.09944E-03     122.351E-03    -59.1047E+06    -87.8895E+06    -11.1716E+06    -22.5869E+06    -101.642E-03     186.183E-03    -84.5415E-03     214.957E-03    -103.281E-03     187.333E-03    -84.3842E-03     211.860E-03
            1158     9.91848E-03     122.535E-03    -53.7693E+06    -76.9677E+06    -5.62973E+06    -24.4946E+06    -109.257E-03     194.598E-03    -85.3406E-03     232.950E-03    -111.593E-03     196.487E-03    -85.1792E-03     228.833E-03
            1159     10.7339E-03     122.736E-03    -47.4749E+06    -62.6171E+06     805.615E+03    -26.2849E+06    -118.312E-03     204.831E-03    -86.5195E-03     250.792E-03    -121.690E-03     207.819E-03    -86.3559E-03     245.268E-03
            1160     11.5396E-03     122.964E-03    -40.8290E+06    -37.9375E+06     8.80176E+06    -26.1512E+06    -128.718E-03     216.803E-03    -88.0848E-03     271.084E-03    -133.717E-03     221.500E-03    -87.9266E-03     263.633E-03
            1161     12.3423E-03     123.220E-03    -33.3433E+06     3.38452E+06     23.1639E+06    -22.5615E+06    -140.317E-03     230.376E-03    -90.0583E-03     291.805E-03    -147.691E-03     237.580E-03    -89.8990E-03     281.847E-03
            1162     13.1313E-03     123.508E-03    -24.9497E+06     77.6134E+06     52.7012E+06    -14.4689E+06    -151.659E-03     244.149E-03    -92.4897E-03     298.698E-03    -161.499E-03     254.029E-03    -92.3026E-03     286.276E-03
            1163     13.9149E-03     123.799E-03    -17.6312E+06     134.498E+06     76.5446E+06    -7.42777E+06    -160.847E-03     256.217E-03    -95.3695E-03     274.935E-03    -171.476E-03     267.044E-03    -95.1563E-03     261.375E-03
            1164     14.6814E-03     124.054E-03    -11.9058E+06     142.486E+06     96.4782E+06    -4.79409E+06    -169.687E-03     268.386E-03    -98.6988E-03     249.498E-03    -180.640E-03     279.528E-03    -98.4057E-03     234.923E-03
            1165     15.4464E-03     124.314E-03    -6.58884E+06     131.523E+06     110.838E+06    -3.99913E+06    -175.786E-03     278.074E-03    -102.288E-03     168.869E-03    -182.986E-03     285.400E-03    -101.915E-03     156.901E-03
            1166     830.155E-06     122.614E-03    -72.7888E+06    -112.065E+06    -72.5865E+06    -5.61913E+06    -79.6459E-03     159.394E-03    -79.7486E-03     21.2535E-03    -79.7490E-03     159.047E-03    -79.8435E-03     21.1018E-03
            1167     1.66178E-03     122.633E-03    -73.1728E+06    -114.470E+06    -71.9557E+06    -9.09908E+06    -79.0709E-03     158.539E-03    -79.4678E-03     39.3117E-03    -79.1829E-03     158.188E-03    -79.5555E-03     39.0495E-03
            1168     2.49408E-03     122.665E-03    -73.7579E+06    -116.112E+06    -69.7496E+06    -11.2423E+06    -78.4927E-03     157.573E-03    -79.0807E-03     58.5967E-03    -78.6248E-03     157.229E-03    -79.1541E-03     58.2377E-03
            1169     3.32641E-03     122.711E-03    -75.4156E+06    -118.832E+06    -65.8473E+06    -12.4558E+06    -78.0169E-03     156.667E-03    -78.6498E-03     78.4034E-03    -78.1838E-03     156.330E-03    -78.6974E-03     77.9523E-03
            1170     4.16076E-03     122.770E-03    -77.9362E+06    -118.711E+06    -60.7771E+06    -12.3444E+06    -77.9418E-03     156.153E-03    -78.2111E-03     98.7350E-03    -78.1655E-03     155.851E-03    -78.2298E-03     98.1941E-03
            1171     4.99488E-03     122.844E-03    -79.9173E+06    -115.855E+06    -53.6026E+06    -12.0400E+06    -78.6962E-03     156.534E-03    -77.8376E-03     119.560E-03    -79.0005E-03     156.295E-03    -77.8217E-03     118.901E-03
            1172     5.82977E-03     122.935E-03    -80.1161E+06    -111.391E+06    -44.3719E+06    -12.7038E+06    -80.6003E-03     158.210E-03    -77.6096E-03     140.705E-03    -81.0140E-03     158.070E-03    -77.5538E-03     139.861E-03
            1173     6.66312E-03     123.042E-03    -78.2630E+06    -106.000E+06    -35.2713E+06    -14.4882E+06    -83.8476E-03     161.435E-03    -77.5873E-03     162.046E-03    -84.4133E-03     161.447E-03    -77.4965E-03     160.920E-03
            1174     7.49475E-03     123.170E-03    -74.1676E+06    -98.6016E+06    -26.6964E+06    -17.7009E+06    -88.5584E-03     166.382E-03    -77.8231E-03     183.451E-03    -89.3463E-03     166.633E-03    -77.7061E-03     181.905E-03
            1175     8.32368E-03     123.318E-03    -68.5976E+06    -88.8081E+06    -18.8541E+06    -21.7094E+06    -94.7922E-03     173.154E-03    -78.3617E-03     204.667E-03    -95.9139E-03     173.771E-03    -78.2277E-03     202.528E-03
            1176     9.14792E-03     123.489E-03    -62.4789E+06    -81.5862E+06    -12.5642E+06    -25.2490E+06    -102.566E-03     181.811E-03    -79.2457E-03     225.143E-03    -104.178E-03     182.949E-03    -79.0996E-03     222.192E-03
            1177     9.96804E-03     123.680E-03    -55.8806E+06    -70.5968E+06    -6.22850E+06    -28.3706E+06    -111.846E-03     192.355E-03    -80.5093E-03     244.260E-03    -114.184E-03     194.265E-03    -80.3570E-03     240.194E-03
            1178     10.7793E-03     123.896E-03    -49.1934E+06    -57.0995E+06     449.570E+03    -31.2078E+06    -122.583E-03     204.766E-03    -82.1827E-03     263.291E-03    -126.022E-03     207.829E-03    -82.0263E-03     257.671E-03
            1179     11.5864E-03     124.136E-03    -41.9400E+06    -36.8056E+06     8.42804E+06    -32.2204E+06    -134.994E-03     219.273E-03    -84.2797E-03     284.607E-03    -140.154E-03     224.135E-03    -84.1234E-03     276.797E-03
            1180     12.3801E-03     124.409E-03    -34.4214E+06    -2.97773E+06     21.5998E+06    -28.8542E+06    -148.748E-03     235.574E-03    -86.8264E-03     306.318E-03    -156.448E-03     243.085E-03    -86.6642E-03     295.598E-03
            1181     13.1683E-03     124.714E-03    -26.8175E+06     64.6573E+06     47.3125E+06    -20.1284E+06    -161.731E-03     251.579E-03    -89.8482E-03     313.814E-03    -172.101E-03     261.953E-03    -89.6665E-03     300.173E-03
            1182     13.9401E-03     125.025E-03    -19.1488E+06     125.725E+06     71.6166E+06    -11.0203E+06    -172.432E-03     265.779E-03    -93.3470E-03     289.766E-03    -183.759E-03     277.285E-03    -93.1434E-03     274.570E-03
            1183     14.7053E-03     125.299E-03    -11.0688E+06     138.884E+06     93.6503E+06    -6.98638E+06    -182.176E-03     279.493E-03    -97.3168E-03     261.931E-03    -193.801E-03     291.307E-03    -97.0339E-03     245.437E-03
            1184     15.4550E-03     125.572E-03    -2.94495E+06     125.962E+06     110.579E+06    -3.85698E+06    -188.338E-03     289.884E-03    -101.546E-03     176.509E-03    -195.886E-03     297.553E-03    -101.172E-03     163.025E-03
            1185     837.648E-06     123.717E-03    -80.0996E+06    -100.908E+06    -79.9667E+06    -4.13431E+06    -71.5220E-03     143.078E-03    -71.5558E-03     21.9587E-03    -71.6660E-03     142.805E-03    -71.6932E-03     21.8599E-03
            1186     1.67555E-03     123.736E-03    -82.8558E+06    -106.297E+06    -81.2164E+06    -6.14830E+06    -71.0953E-03     142.441E-03    -71.3458E-03     40.4922E-03    -71.2492E-03     142.153E-03    -71.4776E-03     40.3320E-03
            1187     2.51368E-03     123.767E-03    -86.8765E+06    -111.332E+06    -81.5085E+06    -6.39442E+06    -70.6836E-03     141.716E-03    -71.0323E-03     60.4014E-03    -70.8598E-03     141.419E-03    -71.1524E-03     60.1988E-03
            1188     3.35379E-03     123.811E-03    -91.2061E+06    -115.419E+06    -78.2726E+06    -5.66669E+06    -70.6549E-03     141.366E-03    -70.7114E-03     81.0314E-03    -70.8676E-03     141.067E-03    -70.8031E-03     80.7909E-03
            1189     4.19329E-03     123.870E-03    -93.8262E+06    -115.795E+06    -70.7625E+06    -5.66538E+06    -71.5181E-03     141.994E-03    -70.4762E-03     102.186E-03    -71.7809E-03     141.714E-03    -70.5261E-03     101.877E-03
            1190     5.03321E-03     123.945E-03    -93.4424E+06    -111.166E+06    -60.8582E+06    -7.49548E+06    -73.4290E-03     143.827E-03    -70.3979E-03     123.787E-03    -73.7573E-03     143.602E-03    -70.4055E-03     123.350E-03
            1191     5.87161E-03     124.038E-03    -89.7083E+06    -105.528E+06    -49.3672E+06    -10.7548E+06    -76.5830E-03     147.115E-03    -70.5322E-03     145.777E-03    -76.9965E-03     146.977E-03    -70.4960E-03     145.136E-03
            1192     6.70843E-03     124.150E-03    -83.2870E+06    -98.6305E+06    -38.4364E+06    -14.9878E+06    -81.1505E-03     152.067E-03    -70.9165E-03     168.063E-03    -81.6902E-03     152.071E-03    -70.8449E-03     167.118E-03
            1193     7.54240E-03     124.283E-03    -75.7741E+06    -89.7003E+06    -28.5780E+06    -19.8475E+06    -87.1720E-03     158.760E-03    -71.5878E-03     190.587E-03    -87.9155E-03     158.998E-03    -71.4907E-03     189.206E-03
            1194     8.37210E-03     124.440E-03    -68.3371E+06    -80.4179E+06    -19.7081E+06    -24.2047E+06    -94.7987E-03     167.383E-03    -72.5848E-03     213.082E-03    -95.8689E-03     167.984E-03    -72.4677E-03     211.094E-03
            1195     9.19759E-03     124.619E-03    -60.9037E+06    -73.4744E+06    -12.2901E+06    -28.6272E+06    -104.094E-03     178.041E-03    -73.9470E-03     234.895E-03    -105.661E-03     179.168E-03    -73.8136E-03     232.050E-03
            1196     10.0153E-03     124.824E-03    -53.1627E+06    -62.5695E+06    -5.06845E+06    -32.8167E+06    -114.851E-03     190.553E-03    -75.7018E-03     255.486E-03    -117.168E-03     192.476E-03    -75.5593E-03     251.448E-03
            1197     10.8280E-03     125.052E-03    -45.3109E+06    -51.6168E+06     2.13322E+06    -34.9632E+06    -127.344E-03     205.227E-03    -77.8833E-03     276.060E-03    -130.812E-03     208.349E-03    -77.7321E-03     270.339E-03
            1198     11.6284E-03     125.309E-03    -39.5150E+06    -33.9762E+06     9.64003E+06    -35.2299E+06    -141.774E-03     222.289E-03    -80.5151E-03     298.883E-03    -147.074E-03     227.306E-03    -80.3603E-03     290.728E-03
            1199     12.4227E-03     125.602E-03    -34.4116E+06    -7.00158E+06     20.5007E+06    -33.0175E+06    -157.406E-03     241.028E-03    -83.6215E-03     322.004E-03    -165.428E-03     248.850E-03    -83.4590E-03     310.525E-03
            1200     13.2011E-03     125.928E-03    -28.2572E+06     50.4286E+06     40.1643E+06    -25.1621E+06    -172.257E-03     259.469E-03    -87.2125E-03     330.587E-03    -183.197E-03     270.381E-03    -87.0439E-03     315.599E-03
            1201     13.9716E-03     126.261E-03    -20.5006E+06     115.535E+06     66.1189E+06    -15.7059E+06    -184.651E-03     275.982E-03    -91.3312E-03     306.696E-03    -196.771E-03     288.258E-03    -91.1384E-03     289.592E-03
            1202     14.7221E-03     126.556E-03    -13.2195E+06     132.662E+06     91.5961E+06    -10.7411E+06    -195.742E-03     291.710E-03    -95.9686E-03     276.529E-03    -208.217E-03     304.354E-03    -95.6839E-03     257.670E-03
            1203     15.4664E-03     126.848E-03    -7.54370E+06     116.672E+06     107.672E+06    -6.20855E+06    -201.668E-03     302.525E-03    -100.857E-03     186.730E-03    -209.783E-03     310.721E-03    -100.477E-03     171.218E-03
            1204     845.132E-06     124.802E-03    -97.9132E+06     -98.696E+06    -95.0361E+06     2.41626E+06    -62.7480E-03     125.261E-03    -62.5133E-03     22.1905E-03    -62.9611E-03     125.045E-03    -62.7034E-03     22.2051E-03
            1205     1.69014E-03     124.820E-03    -104.916E+06    -103.664E+06    -98.5184E+06     2.52368E+06    -62.6068E-03     125.137E-03    -62.5299E-03     41.2527E-03    -62.8450E-03     124.914E-03    -62.7200E-03     41.2550E-03
            1206     2.53643E-03     124.850E-03    -110.308E+06    -109.840E+06    -98.1374E+06     1.57454E+06    -62.8000E-03     125.235E-03    -62.4348E-03     61.6561E-03    -63.0610E-03     124.993E-03    -62.6063E-03     61.6282E-03
            1207     3.38180E-03     124.894E-03    -111.069E+06    -113.023E+06    -91.8451E+06    -216.739E+03    -63.8095E-03     126.231E-03    -62.4218E-03     82.8027E-03    -64.0878E-03     125.976E-03    -62.5561E-03     82.7224E-03
            1208     4.22757E-03     124.955E-03    -106.932E+06    -111.190E+06    -79.8048E+06    -3.50106E+06    -65.8060E-03     128.385E-03    -62.5789E-03     104.458E-03    -66.1028E-03     128.135E-03    -62.6616E-03     104.283E-03
            1209     5.07140E-03     125.032E-03    -99.4978E+06    -104.709E+06    -65.6649E+06    -7.81121E+06    -68.9537E-03     131.896E-03    -62.9421E-03     126.720E-03    -69.2814E-03     131.687E-03    -62.9743E-03     126.399E-03
            1210     5.91355E-03     125.130E-03    -90.8957E+06    -97.1155E+06    -52.5936E+06    -13.0184E+06    -73.3510E-03     136.890E-03    -63.5393E-03     149.606E-03    -73.7360E-03     136.759E-03    -63.5296E-03     149.070E-03
            1211     6.75284E-03     125.247E-03    -81.9486E+06    -89.3565E+06    -40.8368E+06    -18.7512E+06    -79.0739E-03     143.472E-03    -64.3978E-03     172.937E-03    -79.5660E-03     143.474E-03    -64.3536E-03     172.093E-03
            1212     7.58829E-03     125.389E-03    -72.9487E+06    -79.9594E+06    -29.5006E+06    -24.1513E+06    -86.3074E-03     151.855E-03    -65.5481E-03     196.668E-03    -86.9910E-03     152.082E-03    -65.4739E-03     195.393E-03
            1213     8.41976E-03     125.553E-03    -63.5991E+06    -72.2282E+06    -19.1787E+06    -28.7191E+06    -95.2351E-03     162.262E-03    -67.0266E-03     220.597E-03    -96.2326E-03     162.834E-03    -66.9255E-03     218.711E-03
            1214     9.24429E-03     125.746E-03    -54.4744E+06    -64.4441E+06    -10.0281E+06    -32.6610E+06    -105.824E-03     174.690E-03    -68.8665E-03     243.986E-03    -107.317E-03     175.793E-03    -68.7442E-03     241.233E-03
            1215     10.0633E-03     125.962E-03    -47.0835E+06    -54.3658E+06    -1.91562E+06    -35.9662E+06    -118.089E-03     189.191E-03    -71.1027E-03     266.124E-03    -120.351E-03     191.103E-03    -70.9652E-03     262.135E-03
            1216     10.8717E-03     126.208E-03    -42.4060E+06    -48.0828E+06     3.73797E+06    -37.3336E+06    -132.368E-03     206.145E-03    -73.7778E-03     288.601E-03    -135.839E-03     209.290E-03    -73.6279E-03     282.807E-03
            1217     11.6729E-03     126.484E-03    -38.0498E+06    -30.7061E+06     10.8091E+06    -36.3900E+06    -148.637E-03     225.556E-03    -76.9190E-03     313.057E-03    -154.037E-03     230.687E-03    -76.7653E-03     304.607E-03
            1218     12.4593E-03     126.797E-03    -33.1735E+06    -7.27885E+06     20.9267E+06    -35.5549E+06    -166.112E-03     246.668E-03    -80.5556E-03     337.208E-03    -174.370E-03     254.730E-03    -80.3923E-03     325.019E-03
            1219     13.2378E-03     127.148E-03    -26.2324E+06     36.7670E+06     36.7314E+06    -30.3465E+06    -182.926E-03     267.625E-03    -84.6996E-03     347.159E-03    -194.337E-03     278.978E-03    -84.5313E-03     330.798E-03
            1220     13.9963E-03     127.506E-03    -17.8265E+06     102.326E+06     65.3749E+06    -19.6338E+06    -196.566E-03     285.974E-03    -89.4075E-03     324.469E-03    -209.453E-03     298.982E-03    -89.2031E-03     305.393E-03
            1221     14.7450E-03     127.829E-03    -10.9384E+06     126.883E+06     94.9569E+06    -11.8561E+06    -208.392E-03     303.033E-03    -94.6411E-03     293.810E-03    -221.779E-03     316.567E-03    -94.3344E-03     272.649E-03
            1222     15.4770E-03     128.139E-03    -4.75736E+06     106.072E+06     107.963E+06    -6.11036E+06    -216.059E-03     316.200E-03    -100.141E-03     200.016E-03    -224.752E-03     324.949E-03    -99.7485E-03     182.463E-03
            1223     852.972E-06     125.866E-03    -137.501E+06    -108.423E+06    -135.635E+06      7.0391E+06    -53.7077E-03     107.133E-03    -53.4253E-03     22.4308E-03    -54.0442E-03     106.983E-03    -53.7469E-03     22.5248E-03
            1224     1.70623E-03     125.885E-03    -134.067E+06    -106.069E+06    -126.402E+06     8.13935E+06    -54.3333E-03     107.981E-03    -53.6480E-03     41.3468E-03    -54.6689E-03     107.825E-03    -53.9318E-03     41.4548E-03
            1225     2.55824E-03     125.915E-03    -128.558E+06    -107.105E+06    -114.397E+06     4.49092E+06    -55.7362E-03     109.703E-03    -53.9669E-03     61.8596E-03    -56.0607E-03     109.518E-03    -54.1971E-03     61.9141E-03
            1226     3.41008E-03     125.962E-03    -121.040E+06    -107.408E+06    -100.717E+06    -1.12088E+06    -57.9507E-03     112.406E-03    -54.4557E-03     83.3189E-03    -58.2613E-03     112.195E-03    -54.6280E-03     83.2832E-03
            1227     4.25945E-03     126.025E-03    -111.798E+06    -102.990E+06    -86.4050E+06    -7.63253E+06    -61.0855E-03     116.207E-03    -55.1210E-03     105.416E-03    -61.3905E-03     115.997E-03    -55.2416E-03     105.256E-03
            1228     5.10745E-03     126.108E-03    -100.966E+06    -96.0236E+06    -71.8780E+06    -14.3522E+06    -65.2921E-03     121.277E-03    -55.9852E-03     128.268E-03    -65.6047E-03     121.098E-03    -56.0590E-03     127.946E-03
            1229     5.95242E-03     126.210E-03    -88.7330E+06    -87.4985E+06    -57.0602E+06    -20.3297E+06    -70.6951E-03     127.768E-03    -57.0733E-03     151.886E-03    -71.0416E-03     127.654E-03    -57.1031E-03     151.357E-03
            1230     6.79380E-03     126.336E-03    -76.5213E+06    -79.5197E+06    -42.4912E+06    -25.7170E+06    -77.4719E-03     135.886E-03    -58.4138E-03     176.222E-03    -77.9029E-03     135.886E-03    -58.4000E-03     175.408E-03
            1231     7.63134E-03     126.485E-03    -65.3440E+06    -70.9920E+06    -28.8033E+06    -29.9743E+06    -85.7823E-03     145.817E-03    -60.0344E-03     201.145E-03    -86.3840E-03     146.019E-03    -59.9807E-03     199.933E-03
            1232     8.46249E-03     126.661E-03    -56.6457E+06    -64.6150E+06    -17.6395E+06    -33.1155E+06    -95.8007E-03     157.768E-03    -61.9670E-03     226.582E-03    -96.7068E-03     158.296E-03    -61.8793E-03     224.793E-03
            1233     9.28849E-03     126.865E-03    -50.7821E+06    -55.5972E+06    -8.22501E+06    -36.0307E+06    -107.615E-03     171.864E-03    -64.2493E-03     251.469E-03    -109.025E-03     172.924E-03    -64.1361E-03     248.827E-03
            1234     10.1052E-03     127.099E-03    -46.2007E+06    -48.5084E+06    -586.059E+03    -37.8194E+06    -121.387E-03     188.321E-03    -66.9338E-03     275.288E-03    -123.578E-03     190.182E-03    -66.7994E-03     271.391E-03
            1235     10.9143E-03     127.361E-03    -41.1290E+06    -43.4000E+06     5.93645E+06    -38.8261E+06    -137.363E-03     207.433E-03    -70.0701E-03     299.632E-03    -140.783E-03     210.542E-03    -69.9178E-03     293.831E-03
            1236     11.7100E-03     127.659E-03    -34.3762E+06    -28.3391E+06     13.6282E+06    -39.3940E+06    -155.445E-03     229.130E-03    -73.6859E-03     325.606E-03    -160.817E-03     234.248E-03    -73.5268E-03     316.932E-03
            1237     12.4967E-03     127.996E-03    -26.7075E+06    -7.01009E+06     24.9452E+06    -37.2252E+06    -174.736E-03     252.552E-03    -77.8154E-03     350.945E-03    -183.026E-03     260.659E-03    -77.6418E-03     338.207E-03
            1238     13.2655E-03     128.371E-03    -20.9308E+06     27.6594E+06     37.5394E+06    -31.8132E+06    -192.999E-03     275.450E-03    -82.4509E-03     363.522E-03    -204.695E-03     287.072E-03    -82.2729E-03     346.018E-03
            1239     14.0239E-03     128.762E-03    -15.8688E+06     85.9462E+06     65.2190E+06    -22.3306E+06    -207.374E-03     295.030E-03    -87.6561E-03     342.722E-03    -220.945E-03     308.673E-03    -87.4316E-03     321.759E-03
            1240     14.7626E-03     129.109E-03    -10.5249E+06     116.534E+06     96.8229E+06    -12.6440E+06    -220.180E-03     313.576E-03    -93.3959E-03     310.388E-03    -234.397E-03     327.901E-03    -93.0655E-03     286.954E-03
            1241     15.4918E-03     129.448E-03    -6.61143E+06     94.7352E+06     108.432E+06    -6.52191E+06    -230.036E-03     329.498E-03    -99.4616E-03     214.210E-03    -239.265E-03     338.737E-03    -99.0473E-03     194.699E-03
            1242     860.510E-06     126.912E-03    -185.354E+06    -114.876E+06    -186.443E+06    -764.106E+03    -45.8880E-03     91.2658E-03    -45.3779E-03     21.6164E-03    -46.3789E-03     91.2278E-03    -45.8747E-03     21.6163E-03
            1243     1.71983E-03     126.932E-03    -171.792E+06    -105.743E+06    -171.166E+06    -2.66878E+06    -47.3219E-03     93.2024E-03    -45.8805E-03     40.0939E-03    -47.7789E-03     93.1671E-03    -46.3339E-03     40.0751E-03
            1244     2.57816E-03     126.966E-03    -155.151E+06    -100.096E+06    -149.186E+06    -7.40932E+06    -49.7676E-03     96.3784E-03    -46.6107E-03     60.5618E-03    -50.1800E-03     96.3146E-03    -46.9866E-03     60.4829E-03
            1245     3.43364E-03     127.016E-03    -137.020E+06    -97.9339E+06    -124.509E+06    -13.9718E+06    -53.0443E-03     100.624E-03    -47.5801E-03     82.0575E-03    -53.4063E-03     100.512E-03    -47.8619E-03     81.8841E-03
            1246     4.28774E-03     127.084E-03    -118.843E+06    -92.5329E+06    -102.020E+06    -20.4330E+06    -57.1882E-03     105.920E-03    -48.7319E-03     104.490E-03    -57.5086E-03     105.785E-03    -48.9355E-03     104.204E-03
            1247     5.13818E-03     127.171E-03    -101.968E+06    -84.6955E+06    -81.4894E+06    -26.8959E+06    -62.3183E-03     112.388E-03    -50.0694E-03     127.795E-03    -62.6196E-03     112.262E-03    -50.2062E-03     127.366E-03
            1248     5.98550E-03     127.281E-03    -86.8650E+06    -77.7917E+06    -62.8824E+06    -32.4029E+06    -68.5713E-03     120.182E-03    -51.6105E-03     152.004E-03    -68.8856E-03     120.094E-03    -51.6861E-03     151.392E-03
            1249     6.82904E-03     127.414E-03    -73.9326E+06    -71.1986E+06    -45.9801E+06    -35.7420E+06    -76.1877E-03     129.567E-03    -53.3792E-03     177.148E-03    -76.5702E-03     129.568E-03    -53.3986E-03     176.303E-03
            1250     7.66675E-03     127.574E-03    -64.0477E+06    -65.0899E+06    -31.3011E+06    -37.0952E+06    -85.3805E-03     140.789E-03    -55.4085E-03     203.137E-03    -85.9196E-03     140.962E-03    -55.3778E-03     201.961E-03
            1251     8.49995E-03     127.761E-03    -56.3610E+06    -58.5747E+06    -18.4336E+06    -37.5936E+06    -96.3925E-03     154.131E-03    -57.7387E-03     229.766E-03    -97.2193E-03     154.606E-03    -57.6642E-03     228.077E-03
            1252     9.32455E-03     127.980E-03    -49.2178E+06    -48.5810E+06    -6.34781E+06    -38.5138E+06    -109.419E-03     169.837E-03    -60.4184E-03     256.036E-03    -110.722E-03     170.816E-03    -60.3083E-03     253.537E-03
            1253     10.1420E-03     128.229E-03    -42.0498E+06    -43.5564E+06     3.49759E+06    -39.5854E+06    -124.605E-03     188.114E-03    -63.5090E-03     281.380E-03    -126.650E-03     189.850E-03    -63.3674E-03     277.630E-03
            1254     10.9475E-03     128.513E-03    -35.1163E+06    -37.3163E+06     11.6521E+06    -40.8822E+06    -142.179E-03     209.237E-03    -67.0584E-03     307.273E-03    -145.415E-03     212.189E-03    -66.8951E-03     301.570E-03
            1255     11.7434E-03     128.833E-03    -29.8325E+06    -25.0921E+06     19.2366E+06    -41.8303E+06    -161.795E-03     232.894E-03    -71.0999E-03     334.531E-03    -166.936E-03     237.794E-03    -70.9241E-03     325.855E-03
            1256     12.5231E-03     129.195E-03    -25.9482E+06    -9.25851E+06     28.5973E+06    -40.5140E+06    -182.174E-03     257.818E-03    -75.6432E-03     361.379E-03    -190.213E-03     265.658E-03    -75.4492E-03     348.436E-03
            1257     13.2932E-03     129.600E-03    -21.7292E+06     16.6256E+06     38.1105E+06    -33.8172E+06    -201.228E-03     281.882E-03    -80.6540E-03     377.033E-03    -212.815E-03     293.353E-03    -80.4561E-03     358.911E-03
            1258     14.0439E-03     130.019E-03    -17.1833E+06     70.5762E+06     62.7198E+06    -23.5777E+06    -216.849E-03     303.065E-03    -86.2161E-03     360.083E-03    -230.889E-03     317.127E-03    -85.9799E-03     337.471E-03
            1259     14.7806E-03     130.401E-03    -12.2493E+06     102.072E+06     96.3861E+06    -14.6892E+06    -231.521E-03     323.913E-03    -92.3925E-03     327.719E-03    -246.863E-03     339.311E-03    -92.0408E-03     301.435E-03
            1260     15.4975E-03     130.765E-03    -3.78106E+06     81.8560E+06     114.636E+06    -5.79343E+06    -241.591E-03     340.558E-03    -98.9669E-03     230.159E-03    -251.700E-03     350.625E-03    -98.5069E-03     208.213E-03
            1261     864.877E-06     127.943E-03    -181.432E+06    -103.197E+06    -181.055E+06    -9.83376E+06    -40.9384E-03     81.3529E-03    -40.4146E-03     19.5827E-03    -41.4334E-03     81.3615E-03    -40.9071E-03     19.4623E-03
            1262     1.72906E-03     127.965E-03    -174.205E+06    -94.3067E+06    -172.807E+06    -17.2686E+06    -42.6335E-03     83.6009E-03    -40.9675E-03     36.8077E-03    -43.1161E-03     83.6305E-03    -41.4422E-03     36.5960E-03
            1263     2.59103E-03     128.003E-03    -162.756E+06    -86.7516E+06    -157.667E+06    -24.1514E+06    -45.3755E-03     87.1794E-03    -41.8039E-03     56.3612E-03    -45.8325E-03     87.2070E-03    -42.2304E-03     56.0638E-03
            1264     3.45119E-03     128.058E-03    -148.812E+06    -83.4516E+06    -138.520E+06    -31.7257E+06    -49.1711E-03     92.0971E-03    -42.9260E-03     77.4216E-03    -49.5912E-03     92.0940E-03    -43.2818E-03     77.0218E-03
            1265     4.30736E-03     128.131E-03    -133.693E+06    -78.9698E+06    -120.918E+06    -38.9698E+06    -53.9042E-03     98.1849E-03    -44.2808E-03     99.8593E-03    -54.2863E-03     98.1627E-03    -44.5770E-03     99.3475E-03
            1266     5.16079E-03     128.226E-03    -118.164E+06    -71.7456E+06    -101.759E+06    -44.8949E+06    -59.6838E-03     105.549E-03    -45.8652E-03     123.598E-03    -60.0440E-03     105.530E-03    -46.0986E-03     122.965E-03
            1267     6.00996E-03     128.343E-03    -102.730E+06    -67.9802E+06    -79.3802E+06    -49.4134E+06    -66.7263E-03     114.433E-03    -47.7065E-03     148.366E-03    -67.0882E-03     114.420E-03    -47.8559E-03     147.586E-03
            1268     6.85400E-03     128.486E-03    -87.6571E+06    -66.2740E+06    -57.8699E+06    -50.6331E+06    -75.0708E-03     124.869E-03    -49.7981E-03     174.054E-03    -75.4725E-03     124.893E-03    -49.8642E-03     173.097E-03
            1269     7.69387E-03     128.656E-03    -73.0855E+06    -62.7643E+06    -38.4048E+06    -48.7675E+06    -85.0627E-03     137.214E-03    -52.1516E-03     200.697E-03    -85.5752E-03     137.358E-03    -52.1466E-03     199.487E-03
            1270     8.52552E-03     128.857E-03    -59.9300E+06    -56.7618E+06    -20.3715E+06    -46.0694E+06    -97.0295E-03     151.844E-03    -54.8142E-03     228.051E-03    -97.7708E-03     152.233E-03    -54.7469E-03     226.415E-03
            1271     9.35108E-03     129.089E-03    -50.0514E+06    -45.2789E+06    -3.94765E+06    -43.6370E+06    -111.034E-03     168.868E-03    -57.8337E-03     255.224E-03    -112.192E-03     169.703E-03    -57.7152E-03     252.879E-03
            1272     10.1659E-03     129.357E-03    -43.2693E+06    -37.8772E+06     7.96010E+06    -44.1704E+06    -127.441E-03     188.708E-03    -61.2670E-03     281.820E-03    -129.277E-03     190.238E-03    -61.1095E-03     278.280E-03
            1273     10.9712E-03     129.660E-03    -36.8416E+06    -33.0372E+06     16.1004E+06    -45.9955E+06    -146.363E-03     211.533E-03    -65.1697E-03     308.817E-03    -149.284E-03     214.166E-03    -64.9879E-03     303.364E-03
            1274     11.7619E-03     130.005E-03    -30.0711E+06    -24.3942E+06     25.2622E+06    -44.3304E+06    -166.812E-03     236.383E-03    -69.5703E-03     336.588E-03    -171.466E-03     240.778E-03    -69.3650E-03     328.257E-03
            1275     12.5424E-03     130.393E-03    -25.4747E+06    -10.2456E+06     35.2946E+06    -39.9364E+06    -187.561E-03     261.992E-03    -74.4314E-03     364.066E-03    -194.896E-03     269.107E-03    -74.2031E-03     351.556E-03
            1276     13.3063E-03     130.823E-03    -21.1141E+06     7.30351E+06     42.4977E+06    -35.6397E+06    -206.760E-03     286.458E-03    -79.6973E-03     382.115E-03    -217.534E-03     297.071E-03    -79.4648E-03     364.273E-03
            1277     14.0593E-03     131.277E-03    -14.5580E+06     48.8308E+06     60.6002E+06    -24.8220E+06    -222.774E-03     308.208E-03    -85.4344E-03     372.444E-03    -236.495E-03     321.890E-03    -85.1811E-03     349.354E-03
            1278     14.7896E-03     131.699E-03    -8.70930E+06     89.0749E+06     91.1746E+06    -10.6303E+06    -239.039E-03     330.814E-03    -91.7749E-03     347.579E-03    -255.345E-03     347.159E-03    -91.4355E-03     318.925E-03
            1279     15.5038E-03     132.099E-03    -7.85787E+06     73.9226E+06     116.465E+06    -6.27548E+06    -249.266E-03     347.906E-03    -98.6402E-03     248.937E-03    -260.559E-03     359.109E-03    -98.1536E-03     224.282E-03
            1280     865.961E-06     128.968E-03    -131.741E+06    -80.4652E+06    -128.612E+06    -11.5757E+06    -40.0028E-03     79.6692E-03    -39.6663E-03     16.4728E-03    -40.3588E-03     79.6443E-03    -40.0017E-03     16.3209E-03
            1281     1.73081E-03     128.993E-03    -128.653E+06    -73.3956E+06    -120.503E+06    -20.4734E+06    -41.4908E-03     81.6100E-03    -40.1192E-03     31.2194E-03    -41.8537E-03     81.6047E-03    -40.4288E-03     30.9503E-03
            1282     2.59467E-03     129.033E-03    -125.241E+06    -67.5611E+06    -113.278E+06    -28.8932E+06    -43.9163E-03     84.7663E-03    -40.8500E-03     48.2388E-03    -44.2819E-03     84.7757E-03    -41.1369E-03     47.8576E-03
            1283     3.45594E-03     129.093E-03    -121.389E+06    -63.4494E+06    -106.222E+06    -37.1821E+06    -47.3120E-03     89.1484E-03    -41.8364E-03     67.2416E-03    -47.6766E-03     89.1648E-03    -42.0995E-03     66.7466E-03
            1284     4.31488E-03     129.172E-03    -116.271E+06    -59.6725E+06    -97.8829E+06    -46.4579E+06    -51.8281E-03     94.9110E-03    -43.0829E-03     88.2580E-03    -52.1903E-03     94.9327E-03    -43.3172E-03     87.6275E-03
            1285     5.16979E-03     129.273E-03    -109.032E+06    -55.4598E+06    -87.4623E+06    -54.2924E+06    -57.6332E-03     102.238E-03    -44.6047E-03     111.401E-03    -57.9933E-03     102.268E-03    -44.8035E-03     110.637E-03
            1286     6.02014E-03     129.399E-03    -100.806E+06    -55.3986E+06    -74.5720E+06    -59.2809E+06    -64.8601E-03     111.289E-03    -46.4289E-03     136.151E-03    -65.2275E-03     111.319E-03    -46.5753E-03     135.257E-03
            1287     6.86571E-03     129.551E-03    -92.1603E+06    -59.2872E+06    -62.2508E+06    -61.8738E+06    -73.7162E-03     122.279E-03    -48.5624E-03     162.260E-03    -74.1130E-03     122.320E-03    -48.6541E-03     161.208E-03
            1288     7.70379E-03     129.732E-03    -81.5935E+06    -59.5594E+06    -48.0156E+06    -62.8603E+06    -84.4360E-03     135.469E-03    -51.0334E-03     189.671E-03    -84.9146E-03     135.589E-03    -51.0688E-03     188.383E-03
            1289     8.53655E-03     129.945E-03    -68.2755E+06    -58.7648E+06    -26.8620E+06    -60.5862E+06    -97.2006E-03     151.106E-03    -53.9054E-03     217.585E-03    -97.8473E-03     151.383E-03    -53.8555E-03     215.939E-03
            1290     9.35904E-03     130.194E-03    -54.1289E+06    -49.7062E+06    -4.69409E+06    -53.8439E+06    -112.035E-03     169.214E-03    -57.1787E-03     245.081E-03    -112.996E-03     169.824E-03    -57.0517E-03     242.879E-03
            1291     10.1735E-03     130.478E-03    -42.9048E+06    -34.7649E+06     12.7660E+06    -47.9063E+06    -129.305E-03     190.183E-03    -60.8785E-03     272.280E-03    -130.814E-03     191.385E-03    -60.7021E-03     269.100E-03
            1292     10.9745E-03     130.804E-03    -37.6731E+06    -27.4561E+06     25.1327E+06    -46.7049E+06    -148.863E-03     213.932E-03    -65.0687E-03     299.511E-03    -151.278E-03     216.049E-03    -64.8486E-03     294.646E-03
            1293     11.7645E-03     131.171E-03    -36.3843E+06    -23.0979E+06     33.2816E+06    -47.6940E+06    -169.583E-03     239.323E-03    -69.7397E-03     326.592E-03    -173.450E-03     242.890E-03    -69.4871E-03     319.081E-03
            1294     12.5394E-03     131.583E-03    -30.2352E+06    -16.4098E+06     40.4044E+06    -46.8247E+06    -189.989E-03     264.810E-03    -74.8213E-03     353.117E-03    -196.057E-03     270.604E-03    -74.5516E-03     341.775E-03
            1295     13.3042E-03     132.041E-03    -19.7968E+06    -3.27891E+06     47.7104E+06    -41.0859E+06    -207.890E-03     288.105E-03    -80.2151E-03     373.236E-03    -216.925E-03     296.929E-03    -79.9431E-03     356.997E-03
            1296     14.0530E-03     132.522E-03    -12.3259E+06     19.5372E+06     61.7713E+06    -28.2183E+06    -220.764E-03     306.636E-03    -85.8723E-03     373.916E-03    -232.785E-03     318.515E-03    -85.5739E-03     352.760E-03
            1297     14.7918E-03     132.989E-03    -6.61900E+06     63.5278E+06     86.4299E+06    -9.45388E+06    -237.028E-03     328.905E-03    -91.8771E-03     368.463E-03    -252.928E-03     344.774E-03    -91.5275E-03     340.544E-03
            1298     15.5071E-03     133.437E-03     435.076E+03     73.4856E+06     122.981E+06     2.11990E+06    -251.599E-03     350.124E-03    -98.5249E-03     273.846E-03    -263.491E-03     361.940E-03    -98.0172E-03     248.343E-03
            1299     862.594E-06     129.996E-03    -85.6527E+06    -57.6812E+06    -82.4040E+06    -10.0429E+06    -43.7582E-03     87.2069E-03    -43.4486E-03     12.3155E-03    -43.9861E-03     87.1613E-03    -43.6528E-03     12.1695E-03
            1300     1.72500E-03     130.022E-03    -83.0229E+06    -51.6830E+06    -74.9016E+06    -17.9328E+06    -44.9106E-03     88.7936E-03    -43.8830E-03     23.3177E-03    -45.1470E-03     88.7653E-03    -44.0622E-03     23.0546E-03
            1301     2.58574E-03     130.065E-03    -79.3766E+06    -46.5956E+06    -65.8495E+06    -25.8621E+06    -46.8093E-03     91.3414E-03    -44.5321E-03     36.1807E-03    -47.0516E-03     91.3241E-03    -44.6787E-03     35.7973E-03
            1302     3.44508E-03     130.128E-03    -74.6024E+06    -42.6533E+06    -56.4568E+06    -34.0215E+06    -49.3893E-03     94.7824E-03    -45.3931E-03     50.8085E-03    -49.6331E-03     94.7704E-03    -45.5053E-03     50.2983E-03
            1303     4.30215E-03     130.211E-03    -70.3252E+06    -38.0421E+06    -46.4206E+06    -41.8466E+06    -52.9014E-03     99.3717E-03    -46.4703E-03     67.7513E-03    -53.1542E-03     99.3716E-03    -46.5452E-03     67.1139E-03
            1304     5.15608E-03     130.318E-03    -68.8899E+06    -36.9283E+06    -40.4281E+06    -48.6231E+06    -57.5992E-03     105.379E-03    -47.7803E-03     87.3406E-03    -57.8690E-03     105.389E-03    -47.8290E-03     86.5812E-03
            1305     6.00646E-03     130.450E-03    -69.2111E+06    -39.3576E+06    -38.9524E+06    -53.6049E+06    -63.7389E-03     113.091E-03    -49.3525E-03     109.634E-03    -64.0315E-03     113.110E-03    -49.3898E-03     108.760E-03
            1306     6.85106E-03     130.612E-03    -69.1152E+06    -44.9296E+06    -38.1408E+06    -58.4057E+06    -71.8392E-03     123.090E-03    -51.2507E-03     134.519E-03    -72.1647E-03     123.121E-03    -51.2761E-03     133.495E-03
            1307     7.69051E-03     130.803E-03    -67.6585E+06    -47.3411E+06    -34.3769E+06    -63.6567E+06    -82.2896E-03     135.837E-03    -53.5470E-03     161.809E-03    -82.6816E-03     135.921E-03    -53.5522E-03     160.564E-03
            1308     8.51986E-03     131.030E-03    -64.2679E+06    -54.3377E+06    -26.4967E+06    -66.6806E+06    -95.1526E-03     151.465E-03    -56.3119E-03     190.313E-03    -95.6575E-03     151.628E-03    -56.2724E-03     188.758E-03
            1309     9.34184E-03     131.292E-03    -57.7205E+06    -55.9644E+06    -14.5276E+06    -64.5588E+06    -110.556E-03     170.131E-03    -59.5754E-03     218.631E-03    -111.267E-03     170.485E-03    -59.4832E-03     216.626E-03
            1310     10.1513E-03     131.595E-03    -47.9985E+06    -41.6138E+06     9.11934E+06    -57.8808E+06    -128.440E-03     191.844E-03    -63.4037E-03     246.225E-03    -129.540E-03     192.604E-03    -63.2281E-03     243.485E-03
            1311     10.9504E-03     131.940E-03    -38.6651E+06    -31.0247E+06     33.9815E+06    -47.5601E+06    -148.017E-03     215.807E-03    -67.7899E-03     272.326E-03    -149.752E-03     217.201E-03    -67.5190E-03     268.371E-03
            1312     11.7350E-03     132.329E-03    -31.7617E+06    -15.0918E+06     48.9579E+06    -42.2218E+06    -168.067E-03     240.686E-03    -72.6188E-03     297.592E-03    -170.824E-03     243.141E-03    -72.3060E-03     291.593E-03
            1313     12.5077E-03     132.763E-03    -30.5105E+06    -9.35113E+06     54.2950E+06    -44.9421E+06    -186.888E-03     264.684E-03    -77.7964E-03     322.762E-03    -191.235E-03     268.739E-03    -77.4671E-03     313.634E-03
            1314     13.2674E-03     133.239E-03    -33.2977E+06    -10.0674E+06     57.8542E+06    -48.7154E+06    -200.619E-03     283.742E-03    -83.1233E-03     345.234E-03    -207.148E-03     289.956E-03    -82.7711E-03     332.264E-03
            1315     14.0225E-03     133.747E-03    -28.6403E+06    -9.38056E+06     69.2597E+06    -45.8963E+06    -207.500E-03     295.854E-03    -88.3535E-03     356.024E-03    -216.449E-03     304.475E-03    -87.9521E-03     339.275E-03
            1316     14.7742E-03     134.237E-03    -15.2962E+06     10.2245E+06     73.5749E+06    -25.6799E+06    -220.649E-03     314.091E-03    -93.4414E-03     373.615E-03    -234.110E-03     327.335E-03    -93.0662E-03     350.118E-03
            1317     15.5097E-03     134.767E-03    -6.51435E+06     51.4597E+06     113.600E+06    -1.91050E+06    -238.120E-03     337.245E-03    -99.1243E-03     301.179E-03    -249.749E-03     348.730E-03    -98.6214E-03     277.335E-03
            1318     855.460E-06     131.037E-03    -41.7916E+06    -37.1775E+06    -40.9883E+06    -8.70896E+06    -52.7014E-03     105.385E-03    -52.6833E-03     6.64404E-03    -52.8044E-03     105.314E-03    -52.7737E-03     6.49217E-03
            1319     1.70970E-03     131.064E-03    -40.7305E+06    -32.9324E+06    -35.0924E+06    -15.3782E+06    -53.8272E-03     106.861E-03    -53.0340E-03     12.8460E-03    -53.9426E-03     106.804E-03    -53.1027E-03     12.5732E-03
            1320     2.56315E-03     131.109E-03    -38.0477E+06    -27.5695E+06    -25.0778E+06    -22.1790E+06    -55.2288E-03     108.933E-03    -53.7038E-03     19.9065E-03    -55.3582E-03     108.889E-03    -53.7341E-03     19.5038E-03
            1321     3.41483E-03     131.173E-03    -36.1212E+06    -23.9075E+06    -15.8890E+06    -28.6611E+06    -57.0621E-03     111.609E-03    -54.5466E-03     28.4596E-03    -57.2085E-03     111.575E-03    -54.5390E-03     27.9265E-03
            1322     4.26437E-03     131.259E-03    -36.0275E+06    -21.3471E+06    -10.1799E+06    -33.3100E+06    -59.3892E-03     114.943E-03    -55.5536E-03     38.9635E-03    -59.5589E-03     114.925E-03    -55.5214E-03     38.3199E-03
            1323     5.11192E-03     131.369E-03    -36.9497E+06    -20.2345E+06    -5.82703E+06    -37.0199E+06    -62.3063E-03     119.049E-03    -56.7425E-03     51.7911E-03    -62.5046E-03     119.048E-03    -56.6887E-03     51.0440E-03
            1324     5.95600E-03     131.505E-03    -37.9638E+06    -23.4853E+06    -2.63119E+06    -41.1170E+06    -66.2515E-03     124.397E-03    -58.1455E-03     67.4915E-03    -66.4765E-03     124.399E-03    -58.0696E-03     66.6288E-03
            1325     6.79716E-03     131.671E-03    -38.6826E+06    -27.4163E+06     484.764E+03    -45.7194E+06    -71.7642E-03     131.586E-03    -59.8223E-03     86.5252E-03    -72.0214E-03     131.597E-03    -59.7240E-03     85.5265E-03
            1326     7.63137E-03     131.871E-03    -40.9542E+06    -29.6794E+06     1.63386E+06    -50.3384E+06    -79.4580E-03     141.300E-03    -61.8419E-03     109.089E-03    -79.7680E-03     141.346E-03    -61.7313E-03     107.927E-03
            1327     8.46052E-03     132.108E-03    -45.8294E+06    -37.9214E+06    -2.48533E+06    -54.7793E+06    -89.7807E-03     154.066E-03    -64.2852E-03     134.253E-03    -90.1635E-03     154.152E-03    -64.1762E-03     132.873E-03
            1328     9.27849E-03     132.384E-03    -49.9472E+06    -46.9288E+06    -4.56970E+06    -59.8091E+06    -103.190E-03     170.448E-03    -67.2586E-03     161.212E-03    -103.686E-03     170.611E-03    -67.1410E-03     159.498E-03
            1329     10.0861E-03     132.703E-03    -49.4762E+06    -44.1128E+06     8.40979E+06    -61.4555E+06    -119.665E-03     190.536E-03    -70.8714E-03     188.722E-03    -120.370E-03     190.885E-03    -70.6936E-03     186.513E-03
            1330     10.8787E-03     133.065E-03    -42.0070E+06    -44.7844E+06     26.3017E+06    -55.8397E+06    -137.978E-03     213.074E-03    -75.0965E-03     215.033E-03    -138.990E-03     213.705E-03    -74.8392E-03     212.091E-03
            1331     11.6587E-03     133.473E-03    -31.9812E+06    -24.5079E+06     48.6729E+06    -45.3933E+06    -156.345E-03     236.157E-03    -79.8115E-03     240.347E-03    -157.897E-03     237.371E-03    -79.4862E-03     236.255E-03
            1332     12.4268E-03     133.923E-03    -27.1704E+06    -4.46083E+06     74.3413E+06    -33.6567E+06    -171.977E-03     256.823E-03    -84.8454E-03     265.438E-03    -174.426E-03     258.948E-03    -84.4278E-03     259.577E-03
            1333     13.1871E-03     134.416E-03    -26.1252E+06     10.2638E+06     91.7275E+06    -32.2655E+06    -180.224E-03     270.013E-03    -89.7887E-03     287.517E-03    -183.926E-03     273.396E-03    -89.3071E-03     279.341E-03
            1334     13.9497E-03     134.922E-03    -27.1090E+06     1.63156E+06     89.6787E+06    -41.8686E+06    -180.494E-03     274.714E-03    -94.2194E-03     303.092E-03    -185.690E-03     279.566E-03    -93.7341E-03     292.431E-03
            1335     14.7121E-03     135.443E-03    -32.9580E+06    -32.7452E+06     60.9080E+06    -40.6911E+06    -186.111E-03     284.120E-03    -98.0092E-03     340.489E-03    -194.745E-03     292.360E-03    -97.6094E-03     325.218E-03
            1336     15.4712E-03     136.003E-03    -27.0650E+06     5.73574E+06     78.9700E+06    -23.4532E+06    -191.617E-03     293.219E-03    -101.603E-03     320.741E-03    -200.525E-03     301.855E-03    -101.177E-03     304.064E-03
            1337     842.315E-06     132.102E-03    -5.00914E+06    -19.6790E+06    -2.23462E+06    -6.90560E+06    -68.6836E-03     136.573E-03    -67.8891E-03    -511.297E-06    -68.6927E-03     136.470E-03    -67.8645E-03    -672.984E-06
            1338     1.68420E-03     132.131E-03    -3.90828E+06    -16.3137E+06     1.85841E+06    -12.1006E+06    -69.0177E-03     137.730E-03    -68.7122E-03    -972.062E-06    -69.0334E-03     137.637E-03    -68.6735E-03    -1.26273E-03
            1339     2.52410E-03     132.177E-03    -3.48349E+06    -12.8869E+06     8.65719E+06    -16.5238E+06    -70.1077E-03     139.522E-03    -69.4148E-03    -943.072E-06    -70.1384E-03     139.438E-03    -69.3478E-03    -1.36254E-03
            1340     3.36261E-03     132.242E-03    -3.85816E+06    -10.2321E+06     15.3099E+06    -19.3922E+06    -71.4186E-03     141.767E-03    -70.3486E-03    -12.7635E-06    -71.4689E-03     141.689E-03    -70.2516E-03    -547.336E-06
            1341     4.19889E-03     132.330E-03    -5.02206E+06    -9.25489E+06     20.7811E+06    -21.8060E+06    -72.8117E-03     144.295E-03    -71.4831E-03     1.98822E-03    -72.8834E-03     144.221E-03    -71.3584E-03     1.33657E-03
            1342     5.03217E-03     132.440E-03    -6.08421E+06    -8.59541E+06     26.7275E+06    -23.9535E+06    -74.2652E-03     147.072E-03    -72.8065E-03     5.58148E-03    -74.3616E-03     147.002E-03    -72.6516E-03     4.81237E-03
            1343     5.86312E-03     132.577E-03    -7.77891E+06    -9.85330E+06     32.6267E+06    -26.1785E+06    -75.9574E-03     150.286E-03    -74.3290E-03     11.2632E-03    -76.0828E-03     150.216E-03    -74.1403E-03     10.3711E-03
            1344     6.68931E-03     132.744E-03    -11.6320E+06    -12.6963E+06     35.2933E+06    -28.5278E+06    -78.2449E-03     154.324E-03    -76.0788E-03     19.5379E-03    -78.4087E-03     154.258E-03    -75.8671E-03     18.5143E-03
            1345     7.51282E-03     132.945E-03    -16.7029E+06    -14.5474E+06     35.9592E+06    -30.8516E+06    -81.4198E-03     159.538E-03    -78.1184E-03     30.6246E-03    -81.6326E-03     159.494E-03    -77.8933E-03     29.4621E-03
            1346     8.32848E-03     133.184E-03    -20.5860E+06    -19.3508E+06     36.4951E+06    -33.6931E+06    -85.9388E-03     166.465E-03    -80.5261E-03     44.5424E-03    -86.1981E-03     166.435E-03    -80.2857E-03     43.2178E-03
            1347     9.13848E-03     133.465E-03    -23.0969E+06    -23.9692E+06     37.3509E+06    -38.8668E+06    -92.3792E-03     175.752E-03    -83.3731E-03     61.5344E-03    -92.6912E-03     175.749E-03    -83.1181E-03     59.9885E-03
            1348     9.93798E-03     133.793E-03    -26.0645E+06    -29.8330E+06     37.8413E+06    -43.0655E+06    -100.686E-03     187.390E-03    -86.7036E-03     81.6193E-03    -101.070E-03     187.431E-03    -86.4334E-03     79.8227E-03
            1349     10.7274E-03     134.168E-03    -30.8308E+06     -36.712E+06     39.9442E+06    -46.4923E+06    -110.605E-03     201.113E-03    -90.5077E-03     103.945E-03    -111.107E-03     201.234E-03    -90.2101E-03     101.815E-03
            1350     11.5052E-03     134.587E-03    -32.7600E+06    -36.4126E+06     52.3099E+06    -45.1209E+06    -121.176E-03     215.886E-03    -94.7098E-03     128.099E-03    -121.868E-03     216.167E-03    -94.3480E-03     125.551E-03
            1351     12.2710E-03     135.051E-03    -23.9513E+06    -23.2083E+06     78.9261E+06    -35.5685E+06    -129.011E-03     228.061E-03    -99.0502E-03     153.622E-03    -129.983E-03     228.632E-03    -98.5872E-03     150.581E-03
            1352     13.0348E-03     135.543E-03    -6.99239E+06     6.67063E+06     108.503E+06    -22.3624E+06    -131.196E-03     234.244E-03    -103.048E-03     178.544E-03    -132.571E-03     235.311E-03    -102.505E-03     174.873E-03
            1353     13.7960E-03     136.057E-03    -791.153E+03     27.8316E+06     120.405E+06    -9.95954E+06    -128.084E-03     234.367E-03    -106.283E-03     199.514E-03    -130.059E-03     236.102E-03    -105.720E-03     195.099E-03
            1354     14.5749E-03     136.562E-03    -2.76676E+06     31.7614E+03     105.663E+06    -10.7972E+06    -125.569E-03     234.200E-03    -108.631E-03     238.444E-03    -128.940E-03     237.255E-03    -108.099E-03     232.409E-03
            1355     15.3687E-03     137.143E-03     1.32905E+06    -12.9090E+06     76.6916E+06    -16.6231E+06    -97.1468E-03     206.509E-03    -109.362E-03     251.976E-03    -100.806E-03     209.937E-03    -108.962E-03     245.846E-03
            1356     823.049E-06     133.210E-03     27.5926E+06    -7.00651E+06     29.9862E+06    -3.63574E+06    -91.3602E-03     183.040E-03    -91.6798E-03    -9.77556E-03    -91.2836E-03     182.891E-03    -91.5598E-03    -9.90126E-03
            1357     1.64524E-03     133.239E-03     27.3793E+06    -4.75675E+06      33.607E+06    -6.31304E+06    -91.9716E-03     184.095E-03    -92.1233E-03    -17.9561E-03    -91.9061E-03     183.946E-03    -91.9880E-03    -18.1924E-03
            1358     2.46680E-03     133.286E-03     25.8490E+06    -3.83150E+06     37.4841E+06    -7.88441E+06    -92.6952E-03     185.661E-03    -92.9655E-03    -26.5255E-03    -92.6412E-03     185.509E-03    -92.8100E-03    -26.8623E-03
            1359     3.28517E-03     133.353E-03     24.1441E+06    -3.02237E+06     43.7082E+06    -8.53547E+06    -93.7363E-03     187.882E-03    -94.1454E-03    -35.3840E-03    -93.6969E-03     187.720E-03    -93.9575E-03    -35.8194E-03
            1360     4.10072E-03     133.440E-03     22.7319E+06    -1.61874E+06     52.1350E+06    -9.00913E+06    -94.6089E-03     190.264E-03    -95.6556E-03    -44.2589E-03    -94.5865E-03     190.089E-03    -95.4255E-03    -44.7971E-03
            1361     4.91316E-03     133.551E-03     20.6545E+06    -1.47325E+06     59.5213E+06    -9.23773E+06    -95.2183E-03     192.678E-03    -97.4595E-03    -53.1829E-03    -95.2115E-03     192.482E-03    -97.1897E-03    -53.8286E-03
            1362     5.72085E-03     133.687E-03     18.0315E+06    -1.82600E+06     64.7649E+06    -8.99252E+06    -95.3640E-03     194.922E-03    -99.5577E-03    -61.9903E-03    -95.3717E-03     194.704E-03    -99.2573E-03    -62.7449E-03
            1363     6.52499E-03     133.851E-03     15.7264E+06    -3.20285E+06     68.8307E+06    -9.02989E+06    -94.8307E-03     196.804E-03    -101.973E-03    -70.3176E-03    -94.8469E-03     196.558E-03    -101.647E-03    -71.1898E-03
            1364     7.32114E-03     134.049E-03     14.1290E+06    -5.02658E+06     73.4587E+06    -8.98773E+06    -93.1721E-03     197.888E-03    -104.716E-03    -77.5244E-03    -93.1929E-03     197.610E-03    -104.362E-03    -78.5159E-03
            1365     8.11280E-03     134.283E-03     13.0539E+06    -4.59833E+06     79.1237E+06    -10.4622E+06    -90.2762E-03     198.055E-03    -107.779E-03    -82.2696E-03    -90.3059E-03     197.756E-03    -107.396E-03    -83.3957E-03
            1366     8.89537E-03     134.557E-03     9.97092E+06    -4.95360E+06     83.1842E+06    -12.0235E+06    -86.0342E-03     197.165E-03    -111.130E-03    -82.8731E-03    -86.0834E-03     196.857E-03    -110.722E-03    -84.1227E-03
            1367     9.67041E-03     134.876E-03     5.76862E+06    -8.08669E+06     85.7480E+06    -14.1235E+06    -80.3372E-03     195.031E-03    -114.694E-03    -77.3522E-03    -80.4170E-03     194.723E-03    -114.262E-03    -78.6987E-03
            1368     10.4393E-03     135.239E-03     1.63980E+06    -13.7550E+06     88.9100E+06    -13.7839E+06    -73.9240E-03     192.282E-03    -118.358E-03    -63.9725E-03    -74.0470E-03     191.985E-03    -117.896E-03    -65.3422E-03
            1369     11.2009E-03     135.652E-03     1.45843E+06    -16.8382E+06     94.9644E+06    -17.7036E+06    -67.0100E-03     188.946E-03    -121.936E-03    -41.8948E-03    -67.1830E-03     188.696E-03    -121.439E-03    -43.2909E-03
            1370     11.9631E-03     136.103E-03    -272.529E+03    -23.3763E+06     100.312E+06    -18.7431E+06    -58.6837E-03     183.774E-03    -125.090E-03    -11.6019E-03    -58.9193E-03     183.578E-03    -124.554E-03    -12.9112E-03
            1371     12.7262E-03     136.591E-03    -330.502E+03    -8.79254E+06     110.321E+06    -21.8351E+06    -49.7157E-03     177.177E-03    -127.462E-03     21.9661E-03    -50.0444E-03     177.122E-03    -126.897E-03     20.7576E-03
            1372     13.5100E-03     137.092E-03     1.92713E+06     5.31315E+06     123.594E+06    -6.32746E+06    -42.6747E-03     171.782E-03    -129.107E-03     42.7432E-03    -43.1180E-03     171.855E-03    -128.499E-03     41.7409E-03
            1373     14.2909E-03     137.609E-03     15.6129E+06     21.1108E+06     137.779E+06     1.97296E+06    -26.2812E-03     155.896E-03    -129.615E-03     78.2582E-03    -26.9580E-03     156.331E-03    -128.979E-03     77.0427E-03
            1374     15.0762E-03     138.124E-03     11.4179E+06     9.17616E+06     94.3918E+06    -4.21276E+06     15.0422E-03     112.438E-03    -127.480E-03     96.2739E-03     14.5057E-03     112.797E-03    -127.038E-03     95.4491E-03
            1375     15.3168E-03     68.5561E-03    -5.50150E+06     131.487E+06     99.6185E+06    -840.118E+03    -110.548E-03     220.899E-03    -110.351E-03     117.494E-03    -115.700E-03     226.210E-03    -110.036E-03     112.071E-03
            1376     14.5152E-03     68.3577E-03    -10.1690E+06     132.577E+06     103.466E+06     589.741E+03    -109.490E-03     219.923E-03    -110.432E-03     184.248E-03    -117.640E-03     228.207E-03    -110.093E-03     176.569E-03
            1377     13.7014E-03     68.1578E-03    -17.2421E+06     121.364E+06     96.1957E+06     1.94223E+06    -111.869E-03     222.399E-03    -110.529E-03     196.748E-03    -120.057E-03     230.677E-03    -110.199E-03     187.925E-03
            1378     12.8974E-03     67.9268E-03    -23.7460E+06     111.797E+06     77.3275E+06     1.17643E+06    -114.447E-03     224.963E-03    -110.515E-03     209.126E-03    -122.452E-03     233.056E-03    -110.256E-03     199.519E-03
            1379     12.0899E-03     67.6977E-03    -28.8417E+06     96.4982E+06     45.5080E+06     222.607E+03    -114.415E-03     224.839E-03    -110.424E-03     196.952E-03    -120.869E-03     231.401E-03    -110.295E-03     187.929E-03
            1380     11.2842E-03     67.4936E-03    -33.9660E+06     57.8731E+06     22.8060E+06     103.503E+03    -114.060E-03     224.478E-03    -110.418E-03     176.843E-03    -118.836E-03     229.273E-03    -110.339E-03     168.896E-03
            1381     10.4766E-03     67.3099E-03    -38.1938E+06    -1.18257E+06     12.4491E+06     279.706E+03    -113.926E-03     224.423E-03    -110.496E-03     160.952E-03    -117.468E-03     227.788E-03    -110.377E-03     154.035E-03
            1382     9.67130E-03     67.1395E-03    -41.9243E+06    -54.7517E+06     4.56867E+06     309.237E+03    -113.913E-03     224.486E-03    -110.573E-03     149.430E-03    -116.577E-03     226.793E-03    -110.410E-03     143.430E-03
            1383     8.86452E-03     66.9807E-03    -45.7730E+06    -91.3048E+06     25.2154E+03     242.489E+03    -113.828E-03     224.464E-03    -110.636E-03     139.151E-03    -115.856E-03     226.005E-03    -110.437E-03     133.959E-03
            1384     8.05910E-03     66.8322E-03    -50.1522E+06    -118.935E+06    -5.20202E+06     159.183E+03    -113.616E-03     224.294E-03    -110.678E-03     128.356E-03    -115.146E-03     225.239E-03    -110.459E-03     123.907E-03
            1385     7.25270E-03     66.6965E-03    -55.0575E+06    -142.147E+06    -10.5984E+06     417.032E+03    -113.253E-03     223.963E-03    -110.710E-03     117.014E-03    -114.393E-03     224.433E-03    -110.477E-03     113.246E-03
            1386     6.44687E-03     66.5724E-03    -60.4414E+06    -163.174E+06    -17.4890E+06     453.710E+03    -112.811E-03     223.543E-03    -110.732E-03     105.196E-03    -113.645E-03     223.633E-03    -110.495E-03     102.038E-03
            1387     5.64092E-03     66.4629E-03    -66.2235E+06    -179.286E+06    -27.1132E+06     21.7005E+03    -112.378E-03     223.113E-03    -110.735E-03     93.1406E-03    -112.976E-03     222.918E-03    -110.515E-03     90.5221E-03
            1388     4.83476E-03     66.3655E-03    -71.8822E+06    -194.402E+06    -36.6941E+06     99.2774E+03    -111.996E-03     222.730E-03    -110.734E-03     80.7285E-03    -112.411E-03     222.306E-03    -110.532E-03     78.5982E-03
            1389     4.02929E-03     66.2828E-03    -77.8962E+06    -210.524E+06    -47.4761E+06     421.974E+03    -111.640E-03     222.363E-03    -110.723E-03     68.0351E-03    -111.913E-03     221.749E-03    -110.542E-03     66.3450E-03
            1390     3.22295E-03     66.2141E-03    -83.6040E+06    -220.854E+06    -61.5456E+06     322.359E+03    -111.246E-03     221.933E-03    -110.687E-03     55.0467E-03    -111.412E-03     221.197E-03    -110.554E-03     53.7489E-03
            1391     2.41748E-03     66.1600E-03    -88.5833E+06    -230.096E+06    -74.7210E+06     90.7548E+03    -110.940E-03     221.605E-03    -110.665E-03     41.6326E-03    -111.028E-03     220.778E-03    -110.576E-03     40.6850E-03
            1392     1.61153E-03     66.1210E-03    -93.0121E+06    -237.790E+06    -85.9281E+06     210.555E+03    -110.839E-03     221.469E-03    -110.630E-03     28.1693E-03    -110.874E-03     220.579E-03    -110.580E-03     27.5451E-03
            1393     805.944E-06     66.0972E-03    -95.7254E+06    -242.805E+06    -93.6918E+06     228.136E+03    -110.801E-03     221.242E-03    -110.440E-03     15.4790E-03    -110.804E-03     220.315E-03    -110.418E-03     15.1475E-03
            1394     15.3160E-03     67.3692E-03    -4.89871E+06     131.124E+06     98.5484E+06    -426.160E+03    -108.209E-03     218.744E-03    -110.535E-03     117.502E-03    -113.311E-03     224.008E-03    -110.225E-03     112.107E-03
            1395     14.5047E-03     67.1777E-03    -13.0490E+06     129.762E+06     99.9170E+06         577.688    -112.202E-03     222.804E-03    -110.602E-03     182.952E-03    -120.347E-03     231.073E-03    -110.271E-03     174.955E-03
            1396     13.7038E-03     66.9742E-03    -17.7698E+06     121.158E+06     96.3672E+06      77.595E+03    -113.600E-03     224.183E-03    -110.583E-03     196.091E-03    -121.818E-03     232.488E-03    -110.251E-03     187.073E-03
            1397     12.8963E-03     66.7444E-03    -22.4415E+06     112.605E+06     78.3715E+06     533.833E+03    -114.305E-03     224.822E-03    -110.517E-03     207.947E-03    -122.271E-03     232.881E-03    -110.256E-03     198.360E-03
            1398     12.0906E-03     66.5163E-03    -28.4877E+06     96.4511E+06     45.1758E+06     1.09915E+06    -114.333E-03     224.760E-03    -110.426E-03     197.305E-03    -120.804E-03     231.341E-03    -110.299E-03     188.288E-03
            1399     11.2828E-03     66.3117E-03    -33.3619E+06     58.2937E+06     23.5038E+06     951.837E+03    -114.163E-03     224.587E-03    -110.424E-03     176.833E-03    -118.940E-03     229.385E-03    -110.343E-03     168.882E-03
            1400     10.4780E-03     66.1275E-03    -37.5416E+06    -589.669E+03     13.0303E+06     554.606E+03    -113.960E-03     224.457E-03    -110.496E-03     160.729E-03    -117.499E-03     227.822E-03    -110.376E-03     153.810E-03
            1401     9.67075E-03     65.9583E-03    -41.7387E+06    -54.3214E+06     4.65218E+06     325.209E+03    -113.881E-03     224.451E-03    -110.570E-03     149.414E-03    -116.544E-03     226.759E-03    -110.407E-03     143.415E-03
            1402     8.86521E-03     65.7981E-03    -45.9164E+06    -91.3662E+06    -102.792E+03     327.851E+03    -113.832E-03     224.467E-03    -110.635E-03     139.267E-03    -115.860E-03     226.008E-03    -110.436E-03     134.077E-03
            1403     8.05853E-03     65.6507E-03    -50.4357E+06    -118.996E+06    -5.35777E+06     490.383E+03    -113.636E-03     224.312E-03    -110.676E-03     128.436E-03    -115.168E-03     225.258E-03    -110.457E-03     123.991E-03
            1404     7.25296E-03     65.5138E-03    -55.3428E+06    -142.216E+06    -10.8939E+06     549.629E+03    -113.211E-03     223.920E-03    -110.709E-03     117.009E-03    -114.351E-03     224.390E-03    -110.477E-03     113.248E-03
            1405     6.44673E-03     65.3912E-03    -60.4045E+06    -162.866E+06    -17.3839E+06     518.637E+03    -112.766E-03     223.504E-03    -110.738E-03     105.249E-03    -113.599E-03     223.595E-03    -110.501E-03     102.097E-03
            1406     5.64066E-03     65.2801E-03    -65.8802E+06    -178.498E+06    -26.6879E+06     368.214E+03    -112.396E-03     223.140E-03    -110.744E-03     93.1455E-03    -112.994E-03     222.948E-03    -110.523E-03     90.5323E-03
            1407     4.83513E-03     65.1840E-03    -71.9603E+06    -194.363E+06    -36.9048E+06     326.507E+03    -111.995E-03     222.737E-03    -110.742E-03     80.7591E-03    -112.410E-03     222.314E-03    -110.541E-03     78.6326E-03
            1408     4.02872E-03     65.1005E-03    -77.8478E+06    -210.407E+06    -47.6284E+06     210.959E+03    -111.644E-03     222.376E-03    -110.732E-03     68.0101E-03    -111.916E-03     221.763E-03    -110.553E-03     66.3180E-03
            1409     3.22349E-03     65.0323E-03    -83.5189E+06    -220.473E+06    -61.3148E+06     200.227E+03    -111.287E-03     221.981E-03    -110.694E-03     54.8811E-03    -111.454E-03     221.247E-03    -110.560E-03     53.5797E-03
            1410     2.41726E-03     64.9780E-03    -89.0182E+06    -230.136E+06    -74.9325E+06     331.855E+03    -110.929E-03     221.596E-03    -110.667E-03     41.6714E-03    -111.019E-03     220.770E-03    -110.579E-03     40.7268E-03
            1411     1.61151E-03     64.9393E-03    -92.7837E+06    -237.485E+06    -85.9099E+06     222.407E+03    -110.752E-03     221.418E-03    -110.667E-03     28.4942E-03    -110.786E-03     220.530E-03    -110.617E-03     27.8728E-03
            1412     805.895E-06     64.9144E-03    -94.8171E+06    -242.092E+06    -93.1955E+06    -78.9218E+03    -110.655E-03     221.386E-03    -110.732E-03     15.5201E-03    -110.655E-03     220.462E-03    -110.709E-03     15.1807E-03
            1413     15.3093E-03     66.1905E-03    -5.26749E+06     131.298E+06     98.7667E+06     665.604E+03    -108.618E-03     219.167E-03    -110.549E-03     115.933E-03    -113.681E-03     224.391E-03    -110.238E-03     110.563E-03
            1414     14.5090E-03     65.9891E-03    -11.3962E+06     131.560E+06     101.848E+06     10.6849E+03    -112.280E-03     222.870E-03    -110.590E-03     177.804E-03    -120.293E-03     231.014E-03    -110.255E-03     169.840E-03
            1415     13.7030E-03     65.7905E-03    -18.2448E+06     120.886E+06     95.0700E+06    -1.58930E+06    -113.014E-03     223.569E-03    -110.555E-03     193.008E-03    -121.156E-03     231.800E-03    -110.229E-03     184.031E-03
            1416     12.8977E-03     65.5641E-03    -25.2397E+06     110.093E+06     76.2210E+06    -756.189E+03    -113.920E-03     224.433E-03    -110.513E-03     208.247E-03    -121.914E-03     232.507E-03    -110.255E-03     198.675E-03
            1417     12.0892E-03     65.3345E-03    -30.1307E+06     96.0152E+06     45.4399E+06     740.558E+03    -114.502E-03     224.938E-03    -110.436E-03     197.384E-03    -120.984E-03     231.523E-03    -110.304E-03     188.339E-03
            1418     11.2845E-03     65.1291E-03    -34.2487E+06     58.8011E+06     23.4201E+06     587.396E+03    -114.114E-03     224.541E-03    -110.427E-03     177.002E-03    -118.895E-03     229.341E-03    -110.345E-03     169.054E-03
            1419     10.4767E-03     64.9462E-03    -38.1557E+06    -363.736E+03     12.7974E+06     663.357E+03    -113.934E-03     224.436E-03    -110.502E-03     160.989E-03    -117.477E-03     227.805E-03    -110.382E-03     154.075E-03
            1420     9.67143E-03     64.7757E-03    -42.1547E+06    -53.7449E+06     4.61326E+06     727.764E+03    -113.958E-03     224.534E-03    -110.576E-03     149.669E-03    -116.627E-03     226.850E-03    -110.414E-03     143.669E-03
            1421     8.86449E-03     64.6169E-03    -46.5788E+06    -91.3541E+06    -653.655E+03     535.035E+03    -113.889E-03     224.525E-03    -110.635E-03     139.401E-03    -115.920E-03     226.068E-03    -110.439E-03     134.213E-03
            1422     8.05907E-03     64.4677E-03    -50.8530E+06    -119.277E+06    -5.92187E+06     368.577E+03    -113.593E-03     224.270E-03    -110.677E-03     128.419E-03    -115.122E-03     225.213E-03    -110.460E-03     123.982E-03
            1423     7.25266E-03     64.3326E-03    -55.2425E+06    -141.988E+06    -10.8192E+06     466.710E+03    -113.189E-03     223.904E-03    -110.715E-03     116.976E-03    -114.327E-03     224.374E-03    -110.483E-03     113.215E-03
            1424     6.44670E-03     64.2086E-03    -60.5134E+06    -162.412E+06    -17.2539E+06     563.831E+03    -112.800E-03     223.544E-03    -110.744E-03     105.280E-03    -113.635E-03     223.637E-03    -110.507E-03     102.128E-03
            1425     5.64093E-03     64.0986E-03    -66.1260E+06    -178.217E+06    -26.5702E+06     492.566E+03    -112.387E-03     223.137E-03    -110.750E-03     93.1282E-03    -112.986E-03     222.946E-03    -110.529E-03     90.5185E-03
            1426     4.83453E-03     64.0015E-03    -71.6574E+06    -193.944E+06    -36.7482E+06     422.482E+03    -112.017E-03     222.763E-03    -110.747E-03     80.6997E-03    -112.431E-03     222.341E-03    -110.545E-03     78.5741E-03
            1427     4.02930E-03     63.9188E-03    -77.7423E+06    -210.169E+06    -47.5532E+06     290.140E+03    -111.635E-03     222.372E-03    -110.737E-03     67.9592E-03    -111.907E-03     221.760E-03    -110.557E-03     66.2683E-03
            1428     3.22293E-03     63.8498E-03    -83.8689E+06    -220.379E+06    -61.2856E+06     287.329E+03    -111.229E-03     221.937E-03    -110.709E-03     54.8768E-03    -111.398E-03     221.204E-03    -110.574E-03     53.5758E-03
            1429     2.41746E-03     63.7967E-03    -88.6507E+06    -229.675E+06    -74.7418E+06     111.080E+03    -110.953E-03     221.643E-03    -110.690E-03     41.7464E-03    -111.042E-03     220.819E-03    -110.602E-03     40.7982E-03
            1430     1.61141E-03     63.7568E-03    -92.3862E+06    -237.165E+06    -85.8961E+06    -131.300E+03    -110.757E-03     221.452E-03    -110.696E-03     28.3914E-03    -110.790E-03     220.565E-03    -110.647E-03     27.7645E-03
            1431     805.131E-06     63.7332E-03    -94.8942E+06    -241.941E+06    -93.1512E+06    -162.209E+03    -110.772E-03     221.456E-03    -110.684E-03     15.2233E-03    -110.773E-03     220.532E-03    -110.661E-03     14.8855E-03
            1432     15.3226E-03     65.0130E-03    -5.48266E+06     131.859E+06     99.8123E+06     273.132E+03    -110.903E-03     221.287E-03    -110.384E-03     115.265E-03    -116.015E-03     226.558E-03    -110.068E-03     109.831E-03
            1433     14.5118E-03     64.8038E-03    -10.0642E+06     133.188E+06     103.841E+06    -193.862E+03    -109.724E-03     220.155E-03    -110.431E-03     178.829E-03    -117.752E-03     228.319E-03    -110.090E-03     171.147E-03
            1434     13.7047E-03     64.6133E-03    -17.6349E+06     121.380E+06     95.5413E+06     725.774E+03    -111.176E-03     221.694E-03    -110.518E-03     193.929E-03    -119.280E-03     229.889E-03    -110.191E-03     185.184E-03
            1435     12.8949E-03     64.3802E-03    -25.3719E+06     109.756E+06     75.1611E+06    -253.534E+03    -114.085E-03     224.610E-03    -110.526E-03     209.054E-03    -122.105E-03     232.712E-03    -110.272E-03     199.453E-03
            1436     12.0913E-03     64.1530E-03    -31.0381E+06     94.9866E+06     43.9863E+06    -1.04368E+06    -114.584E-03     225.028E-03    -110.445E-03     197.493E-03    -121.068E-03     231.612E-03    -110.317E-03     188.419E-03
            1437     11.2825E-03     63.9477E-03    -34.8608E+06     57.9462E+06     22.6714E+06     89.2629E+03    -114.072E-03     224.512E-03    -110.440E-03     177.362E-03    -118.857E-03     229.313E-03    -110.360E-03     169.417E-03
            1438     10.4775E-03     63.7636E-03    -38.8927E+06    -590.716E+03     12.2839E+06     598.991E+03    -113.960E-03     224.479E-03    -110.519E-03     160.989E-03    -117.501E-03     227.844E-03    -110.400E-03     154.080E-03
            1439     9.67031E-03     63.5943E-03    -42.8330E+06    -53.4769E+06     4.35598E+06     644.471E+03    -114.072E-03     224.660E-03    -110.588E-03     149.627E-03    -116.746E-03     226.979E-03    -110.427E-03     143.618E-03
            1440     8.86522E-03     63.4340E-03    -46.3980E+06    -90.7791E+06    -407.097E+03     455.606E+03    -113.928E-03     224.570E-03    -110.642E-03     139.346E-03    -115.959E-03     226.115E-03    -110.445E-03     134.156E-03
            1441     8.05856E-03     63.2866E-03    -50.6037E+06    -119.124E+06    -5.85306E+06     177.520E+03    -113.575E-03     224.258E-03    -110.683E-03     128.449E-03    -115.103E-03     225.201E-03    -110.466E-03     124.010E-03
            1442     7.25270E-03     63.1500E-03    -55.4323E+06    -142.289E+06    -11.0548E+06     337.361E+03    -113.237E-03     223.957E-03    -110.720E-03     116.971E-03    -114.376E-03     224.426E-03    -110.488E-03     113.208E-03
            1443     6.44677E-03     63.0270E-03    -60.4941E+06    -162.173E+06    -17.2382E+06     615.801E+03    -112.834E-03     223.577E-03    -110.744E-03     105.178E-03    -113.668E-03     223.672E-03    -110.507E-03     102.024E-03
            1444     5.64056E-03     62.9162E-03    -65.9119E+06    -177.838E+06    -26.5123E+06     511.144E+03    -112.407E-03     223.152E-03    -110.745E-03     93.0732E-03    -113.005E-03     222.962E-03    -110.525E-03     90.4634E-03
            1445     4.83518E-03     62.8197E-03    -71.8954E+06    -193.640E+06    -36.5224E+06     421.517E+03    -111.983E-03     222.727E-03    -110.744E-03     80.6576E-03    -112.399E-03     222.306E-03    -110.542E-03     78.5331E-03
            1446     4.02877E-03     62.7363E-03    -77.9281E+06    -209.956E+06    -47.5554E+06     370.239E+03    -111.534E-03     222.280E-03    -110.746E-03     67.9478E-03    -111.808E-03     221.669E-03    -110.566E-03     66.2572E-03
            1447     3.22328E-03     62.6685E-03    -83.3187E+06    -219.985E+06    -61.2096E+06    -11.9831E+03    -111.227E-03     221.958E-03    -110.731E-03     54.9213E-03    -111.394E-03     221.226E-03    -110.597E-03     53.6169E-03
            1448     2.41699E-03     62.6139E-03    -88.3335E+06    -229.287E+06    -74.3417E+06    -31.2549E+03    -111.088E-03     221.785E-03    -110.696E-03     41.6557E-03    -111.177E-03     220.961E-03    -110.607E-03     40.7047E-03
            1449     1.61155E-03     62.5754E-03    -92.6361E+06    -237.034E+06    -85.8170E+06     85.3497E+03    -110.927E-03     221.542E-03    -110.615E-03     28.1521E-03    -110.962E-03     220.656E-03    -110.566E-03     27.5269E-03
            1450     806.438E-06     62.5503E-03    -95.5842E+06    -242.258E+06    -93.8455E+06     39.1097E+03    -110.742E-03     221.161E-03    -110.419E-03     15.3363E-03    -110.745E-03     220.237E-03    -110.398E-03     15.0052E-03
            1451     15.3188E-03     63.8256E-03    -5.04975E+06     131.776E+06     99.7280E+06    -193.506E+03    -110.144E-03     220.515E-03    -110.370E-03     117.427E-03    -115.296E-03     225.827E-03    -110.056E-03     112.031E-03
            1452     14.5136E-03     63.6318E-03    -11.0824E+06     131.845E+06     102.258E+06     792.054E+03    -109.586E-03     220.043E-03    -110.457E-03     184.249E-03    -117.750E-03     228.340E-03    -110.121E-03     176.550E-03
            1453     13.7011E-03     63.4304E-03    -17.2209E+06     121.483E+06     96.3335E+06     1.21923E+06    -111.896E-03     222.452E-03    -110.556E-03     196.680E-03    -120.078E-03     230.724E-03    -110.225E-03     187.859E-03
            1454     12.8979E-03     63.1989E-03    -22.9299E+06      112.04E+06     77.1639E+06     976.005E+03    -114.193E-03     224.742E-03    -110.548E-03     209.240E-03    -122.191E-03     232.832E-03    -110.292E-03     199.659E-03
            1455     12.0881E-03     62.9708E-03    -29.4622E+06     95.4777E+06     43.9545E+06     38.3049E+03    -114.550E-03     225.012E-03    -110.462E-03     197.414E-03    -121.028E-03     231.596E-03    -110.338E-03     188.359E-03
            1456     11.2841E-03     62.7654E-03    -35.1134E+06     57.0230E+06     21.6271E+06    -23.5655E+03    -114.226E-03     224.678E-03    -110.452E-03     177.037E-03    -119.007E-03     229.475E-03    -110.376E-03     169.077E-03
            1457     10.4763E-03     62.5822E-03    -38.8656E+06    -1.49757E+06     11.7063E+06     280.687E+03    -114.064E-03     224.587E-03    -110.523E-03     160.999E-03    -117.605E-03     227.951E-03    -110.406E-03     154.075E-03
            1458     9.67134E-03     62.4113E-03    -42.1398E+06    -53.2162E+06     4.88796E+06     231.897E+03    -114.100E-03     224.690E-03    -110.590E-03     149.423E-03    -116.771E-03     227.008E-03    -110.427E-03     143.404E-03
            1459     8.86440E-03     62.2526E-03    -46.1592E+06    -90.1496E+06     131.258E+03     246.239E+03    -113.870E-03     224.514E-03    -110.644E-03     139.097E-03    -115.899E-03     226.059E-03    -110.446E-03     133.907E-03
            1460     8.05878E-03     62.1040E-03    -50.6381E+06    -119.050E+06    -5.65620E+06     364.816E+03    -113.605E-03     224.290E-03    -110.684E-03     128.302E-03    -115.134E-03     225.233E-03    -110.466E-03     123.862E-03
            1461     7.25271E-03     61.9683E-03    -55.3571E+06    -142.432E+06    -11.3841E+06     374.974E+03    -113.272E-03     223.986E-03    -110.714E-03     116.886E-03    -114.409E-03     224.454E-03    -110.484E-03     113.124E-03
            1462     6.44672E-03     61.8446E-03    -60.3670E+06    -162.670E+06    -17.5027E+06     120.279E+03    -112.863E-03     223.597E-03    -110.734E-03     105.081E-03    -113.696E-03     223.689E-03    -110.498E-03     101.919E-03
            1463     5.64108E-03     61.7346E-03    -65.7961E+06    -177.281E+06    -26.0090E+06     708.589E+03    -112.363E-03     223.100E-03    -110.737E-03     93.0278E-03    -112.962E-03     222.911E-03    -110.515E-03     90.4215E-03
            1464     4.83468E-03     61.6372E-03    -71.6336E+06    -193.165E+06    -36.3717E+06     643.387E+03    -111.886E-03     222.630E-03    -110.744E-03     80.7060E-03    -112.301E-03     222.210E-03    -110.542E-03     78.5870E-03
            1465     4.02910E-03     61.5552E-03    -77.4766E+06    -209.545E+06    -47.4268E+06    -126.863E+03    -111.547E-03     222.301E-03    -110.754E-03     67.9107E-03    -111.819E-03     221.692E-03    -110.575E-03     66.2133E-03
            1466     3.22270E-03     61.4858E-03    -83.2669E+06    -219.818E+06    -61.0168E+06     98.5606E+03    -111.319E-03     222.046E-03    -110.728E-03     54.8659E-03    -111.486E-03     221.315E-03    -110.593E-03     53.5631E-03
            1467     2.41755E-03     61.4324E-03    -88.5221E+06    -229.365E+06    -74.6286E+06     322.096E+03    -111.132E-03     221.798E-03    -110.667E-03     41.6228E-03    -111.221E-03     220.975E-03    -110.579E-03     40.6772E-03
            1468     1.61182E-03     61.3923E-03    -92.7321E+06    -236.824E+06    -85.9098E+06     189.515E+03    -110.840E-03     221.430E-03    -110.590E-03     28.1979E-03    -110.875E-03     220.544E-03    -110.541E-03     27.5743E-03
            1469     805.543E-06     61.3698E-03    -95.3911E+06    -241.683E+06    -93.5469E+06     205.237E+03    -110.706E-03     221.143E-03    -110.437E-03     15.4374E-03    -110.709E-03     220.222E-03    -110.416E-03     15.1066E-03
            1470     15.3150E-03     62.6477E-03    -4.76987E+06     130.892E+06     98.5108E+06     126.271E+03    -108.305E-03     218.834E-03    -110.528E-03     117.953E-03    -113.408E-03     224.098E-03    -110.219E-03     112.578E-03
            1471     14.5039E-03     62.4472E-03    -11.4907E+06     131.566E+06     101.632E+06     494.770E+03    -111.925E-03     222.529E-03    -110.605E-03     182.224E-03    -120.036E-03     230.773E-03    -110.271E-03     174.288E-03
            1472     13.7046E-03     62.2473E-03    -17.1720E+06     121.751E+06     96.2842E+06     97.6952E+03    -113.014E-03     223.618E-03    -110.604E-03     195.624E-03    -121.218E-03     231.913E-03    -110.274E-03     186.663E-03
            1473     12.8943E-03     62.0185E-03    -23.7408E+06     111.914E+06     77.1348E+06     305.432E+03    -114.315E-03     224.872E-03    -110.558E-03     208.992E-03    -122.319E-03     232.966E-03    -110.300E-03     199.385E-03
            1474     12.0908E-03     61.7874E-03    -28.7068E+06     95.7921E+06     45.1787E+06     1.01035E+06    -114.622E-03     225.089E-03    -110.467E-03     197.127E-03    -121.095E-03     231.669E-03    -110.338E-03     188.074E-03
            1475     11.2824E-03     61.5843E-03    -33.0208E+06     57.3470E+06     22.8936E+06     1.07518E+06    -114.270E-03     224.719E-03    -110.449E-03     176.605E-03    -119.039E-03     229.508E-03    -110.370E-03     168.652E-03
            1476     10.4775E-03     61.3992E-03    -37.3704E+06    -573.078E+03     12.6923E+06     380.950E+03    -114.085E-03     224.599E-03    -110.514E-03     160.863E-03    -117.623E-03     227.966E-03    -110.395E-03     153.934E-03
            1477     9.67058E-03     61.2296E-03    -41.6040E+06    -53.2830E+06     4.93191E+06     212.621E+03    -114.004E-03     224.585E-03    -110.581E-03     149.343E-03    -116.668E-03     226.898E-03    -110.419E-03     143.334E-03
            1478     8.86521E-03     61.0703E-03    -45.7733E+06    -90.4235E+06     326.761E+03     471.915E+03    -113.909E-03     224.547E-03    -110.638E-03     139.057E-03    -115.938E-03     226.091E-03    -110.438E-03     133.864E-03
            1479     8.05878E-03     60.9222E-03    -50.3170E+06    -118.892E+06    -5.31154E+06     661.115E+03    -113.643E-03     224.316E-03    -110.673E-03     128.237E-03    -115.172E-03     225.259E-03    -110.454E-03     123.798E-03
            1480     7.25283E-03     60.7860E-03    -55.3219E+06    -141.988E+06    -11.0317E+06     479.311E+03    -113.248E-03     223.948E-03    -110.700E-03     116.812E-03    -114.385E-03     224.417E-03    -110.469E-03     113.053E-03
            1481     6.44694E-03     60.6627E-03    -60.8221E+06    -162.511E+06    -17.4862E+06     340.745E+03    -112.794E-03     223.518E-03    -110.723E-03     105.092E-03    -113.630E-03     223.611E-03    -110.487E-03     101.936E-03
            1482     5.64081E-03     60.5523E-03    -66.4916E+06    -178.028E+06    -26.8043E+06     360.703E+03    -112.311E-03     223.041E-03    -110.731E-03     93.0108E-03    -112.910E-03     222.851E-03    -110.510E-03     90.4020E-03
            1483     4.83496E-03     60.4561E-03    -71.7890E+06    -192.346E+06    -37.9648E+06     327.353E+03    -111.902E-03     222.635E-03    -110.733E-03     80.6535E-03    -112.317E-03     222.222E-03    -110.539E-03     78.5288E-03
            1484     4.02871E-03     60.3722E-03    -77.7024E+06    -208.848E+06    -48.9732E+06     179.491E+03    -111.628E-03     222.359E-03    -110.731E-03     67.8498E-03    -111.900E-03     221.755E-03    -110.560E-03     66.1569E-03
            1485     3.22353E-03     60.3046E-03    -83.7336E+06    -220.080E+06    -61.4509E+06     311.442E+03    -111.330E-03     222.027E-03    -110.697E-03     54.8576E-03    -111.498E-03     221.295E-03    -110.564E-03     53.5587E-03
            1486     2.41725E-03     60.2493E-03    -88.6242E+06    -229.033E+06    -74.6141E+06     290.242E+03    -110.958E-03     221.618E-03    -110.660E-03     41.6632E-03    -111.048E-03     220.796E-03    -110.572E-03     40.7179E-03
            1487     1.61143E-03     60.2117E-03    -92.4210E+06    -236.395E+06    -85.8763E+06     57.1879E+03    -110.732E-03     221.385E-03    -110.653E-03     28.1846E-03    -110.767E-03     220.502E-03    -110.605E-03     27.5594E-03
            1488     805.817E-06     60.1867E-03    -95.1361E+06    -241.139E+06    -93.0312E+06    -141.258E+03    -110.774E-03     221.358E-03    -110.584E-03     15.3874E-03    -110.778E-03     220.438E-03    -110.562E-03     15.0502E-03
            1489     15.3096E-03     61.4617E-03    -5.16363E+06     131.336E+06     99.1687E+06     446.930E+03    -109.108E-03     219.633E-03    -110.525E-03     115.063E-03    -114.170E-03     224.855E-03    -110.212E-03     109.685E-03
            1490     14.5128E-03     61.2622E-03    -10.9873E+06     132.466E+06     102.422E+06    -366.684E+03    -111.340E-03     221.917E-03    -110.577E-03     177.972E-03    -119.353E-03     230.064E-03    -110.241E-03     170.102E-03
            1491     13.7005E-03     61.0671E-03    -18.0974E+06     121.361E+06     95.5205E+06    -364.343E+03    -112.637E-03     223.220E-03    -110.583E-03     193.754E-03    -120.789E-03     231.461E-03    -110.255E-03     184.829E-03
            1492     12.8978E-03     60.8343E-03    -24.3788E+06     111.592E+06     76.5053E+06    -141.497E+03    -114.339E-03     224.879E-03    -110.540E-03     208.568E-03    -122.348E-03     232.975E-03    -110.284E-03     198.946E-03
            1493     12.0889E-03     60.6074E-03    -30.0856E+06     94.7110E+06     44.7019E+06     215.849E+03    -114.631E-03     225.078E-03    -110.447E-03     197.000E-03    -121.102E-03     231.649E-03    -110.317E-03     187.940E-03
            1494     11.2842E-03     60.4008E-03    -34.2568E+06     57.3856E+06     23.1251E+06     434.263E+03    -114.213E-03     224.644E-03    -110.431E-03     176.680E-03    -118.988E-03     229.434E-03    -110.349E-03     168.723E-03
            1495     10.4771E-03     60.2181E-03    -37.7637E+06     358.796E+03     12.8915E+06     559.542E+03    -113.966E-03     224.464E-03    -110.499E-03     160.832E-03    -117.504E-03     227.832E-03    -110.380E-03     153.917E-03
            1496     9.67127E-03     60.0473E-03    -41.7174E+06    -52.8241E+06     5.01758E+06     484.002E+03    -113.972E-03     224.542E-03    -110.570E-03     149.466E-03    -116.635E-03     226.855E-03    -110.408E-03     143.468E-03
            1497     8.86460E-03     59.8882E-03    -46.0766E+06    -90.9832E+06     97.1399E+03     595.881E+03    -113.953E-03     224.579E-03    -110.626E-03     139.016E-03    -115.982E-03     226.121E-03    -110.427E-03     133.823E-03
            1498     8.05902E-03     59.7400E-03    -50.6503E+06    -118.716E+06    -5.23705E+06     932.109E+03    -113.638E-03     224.297E-03    -110.659E-03     128.143E-03    -115.168E-03     225.241E-03    -110.439E-03     123.708E-03
            1499     7.25304E-03     59.6041E-03    -55.6099E+06    -141.195E+06    -10.7074E+06     743.451E+03    -113.177E-03     223.866E-03    -110.689E-03     116.881E-03    -114.317E-03     224.338E-03    -110.457E-03     113.128E-03
            1500     6.44689E-03     59.4807E-03    -60.9205E+06    -162.206E+06    -17.2758E+06     623.824E+03    -112.731E-03     223.450E-03    -110.718E-03     105.100E-03    -113.567E-03     223.543E-03    -110.481E-03     101.952E-03
            1501     5.64085E-03     59.3707E-03    -66.3794E+06    -177.957E+06    -27.1944E+06     151.967E+03    -112.360E-03     223.083E-03    -110.723E-03     92.9640E-03    -112.959E-03     222.893E-03    -110.504E-03     90.3508E-03
            1502     4.83492E-03     59.2736E-03    -72.1453E+06    -192.413E+06    -38.1682E+06     98.2597E+03    -111.995E-03     222.707E-03    -110.712E-03     80.5603E-03    -112.411E-03     222.295E-03    -110.519E-03     78.4302E-03
            1503     4.02931E-03     59.1910E-03    -77.6778E+06    -208.394E+06    -48.7445E+06     580.913E+03    -111.574E-03     222.278E-03    -110.704E-03     67.9140E-03    -111.846E-03     221.676E-03    -110.533E-03     66.2294E-03
            1504     3.22301E-03     59.1215E-03    -83.3483E+06    -219.963E+06    -61.7130E+06     138.473E+03    -111.243E-03     221.924E-03    -110.681E-03     54.9464E-03    -111.410E-03     221.192E-03    -110.549E-03     53.6450E-03
            1505     2.41752E-03     59.0687E-03    -88.4964E+06    -228.751E+06    -74.4460E+06    -27.6887E+03    -110.913E-03     221.575E-03    -110.662E-03     41.4903E-03    -111.003E-03     220.755E-03    -110.574E-03     40.5408E-03
            1506     1.61137E-03     59.0286E-03    -92.3120E+06    -236.033E+06    -85.4838E+06     126.613E+03    -110.712E-03     221.385E-03    -110.673E-03     28.1859E-03    -110.747E-03     220.502E-03    -110.624E-03     27.5651E-03
            1507     805.699E-06     59.0056E-03    -94.8139E+06    -241.093E+06    -93.2381E+06    -148.660E+03    -110.787E-03     221.416E-03    -110.629E-03     15.3275E-03    -110.789E-03     220.496E-03    -110.608E-03     14.9887E-03
            1508     15.3262E-03     60.2853E-03    -5.54318E+06     131.208E+06     99.3550E+06     114.833E+03    -110.171E-03     220.580E-03    -110.408E-03     116.138E-03    -115.282E-03     225.849E-03    -110.094E-03     110.756E-03
            1509     14.5070E-03     60.0817E-03    -10.5217E+06     132.625E+06     102.887E+06     732.078E+03    -109.839E-03     220.318E-03    -110.479E-03     180.626E-03    -117.906E-03     228.520E-03    -110.141E-03     172.923E-03
            1510     13.7057E-03     59.8841E-03    -17.6038E+06     122.061E+06     95.7379E+06     397.521E+03    -112.101E-03     222.648E-03    -110.546E-03     194.827E-03    -120.266E-03     230.905E-03    -110.219E-03     185.961E-03
            1511     12.8954E-03     59.6542E-03    -24.7523E+06     111.567E+06     76.4295E+06    -18.1737E+03    -114.348E-03     224.871E-03    -110.523E-03     209.118E-03    -122.376E-03     232.985E-03    -110.267E-03     199.493E-03
            1512     12.0911E-03     59.4238E-03    -30.3653E+06     94.5298E+06     44.6916E+06     8.04019E+03    -114.614E-03     225.046E-03    -110.432E-03     197.197E-03    -121.083E-03     231.613E-03    -110.301E-03     188.145E-03
            1513     11.2833E-03     59.2201E-03    -34.6783E+06     57.3753E+06     23.0026E+06    -225.992E+03    -114.153E-03     224.572E-03    -110.419E-03     176.961E-03    -118.933E-03     229.366E-03    -110.336E-03     169.002E-03
            1514     10.4774E-03     59.0353E-03    -38.6282E+06     556.841E+03     12.6456E+06     118.597E+03    -113.981E-03     224.469E-03    -110.487E-03     160.838E-03    -117.522E-03     227.838E-03    -110.369E-03     153.920E-03
            1515     9.67094E-03     58.8659E-03    -42.6601E+06    -53.5007E+06     4.26693E+06     428.339E+03    -114.048E-03     224.601E-03    -110.553E-03     149.432E-03    -116.715E-03     226.914E-03    -110.392E-03     143.428E-03
            1516     8.86538E-03     58.7057E-03    -46.5980E+06    -91.2600E+06    -129.961E+03     628.547E+03    -113.868E-03     224.476E-03    -110.609E-03     138.920E-03    -115.896E-03     226.015E-03    -110.409E-03     133.735E-03
            1517     8.05913E-03     58.5582E-03    -50.7684E+06    -118.277E+06    -5.12502E+06     844.454E+03    -113.530E-03     224.179E-03    -110.649E-03     128.165E-03    -115.060E-03     225.123E-03    -110.429E-03     123.737E-03
            1518     7.25289E-03     58.4221E-03    -55.2394E+06    -140.890E+06    -10.7118E+06     690.557E+03    -113.181E-03     223.863E-03    -110.682E-03     116.892E-03    -114.321E-03     224.338E-03    -110.451E-03     113.135E-03
            1519     6.44689E-03     58.2988E-03    -60.1858E+06    -161.711E+06    -16.9783E+06     548.905E+03    -112.778E-03     223.486E-03    -110.708E-03     104.999E-03    -113.610E-03     223.580E-03    -110.471E-03     101.850E-03
            1520     5.64101E-03     58.1886E-03    -65.7321E+06    -177.371E+06    -26.3138E+06     293.098E+03    -112.408E-03     223.115E-03    -110.707E-03     92.9963E-03    -113.005E-03     222.926E-03    -110.486E-03     90.3848E-03
            1521     4.83517E-03     58.0916E-03    -71.2992E+06    -192.758E+06    -36.3552E+06     92.5677E+03    -111.981E-03     222.678E-03    -110.698E-03     80.5087E-03    -112.395E-03     222.260E-03    -110.496E-03     78.3795E-03
            1522     4.02912E-03     58.0088E-03    -77.3102E+06    -208.668E+06    -46.8087E+06     394.710E+03    -111.544E-03     222.235E-03    -110.691E-03     67.9022E-03    -111.816E-03     221.628E-03    -110.510E-03     66.2156E-03
            1523     3.22332E-03     57.9403E-03    -83.1375E+06    -219.201E+06    -60.9723E+06     383.272E+03    -111.187E-03     221.852E-03    -110.665E-03     54.8221E-03    -111.354E-03     221.122E-03    -110.531E-03     53.5255E-03
            1524     2.41729E-03     57.8856E-03    -88.1603E+06    -228.682E+06    -74.4818E+06    -36.3139E+03    -110.945E-03     221.583E-03    -110.638E-03     41.3821E-03    -111.033E-03     220.762E-03    -110.551E-03     40.4341E-03
            1525     1.61172E-03     57.8482E-03    -92.3165E+06    -236.061E+06    -85.3891E+06    -52.5909E+03    -110.736E-03     221.358E-03    -110.621E-03     28.1754E-03    -110.771E-03     220.475E-03    -110.572E-03     27.5515E-03
            1526     805.553E-06     57.8220E-03    -94.7242E+06    -241.004E+06    -93.1279E+06     183.708E+03    -110.713E-03     221.275E-03    -110.561E-03     15.4733E-03    -110.715E-03     220.355E-03    -110.540E-03     15.1441E-03
            1527     15.3107E-03     59.1023E-03    -5.59359E+06     130.537E+06     98.3443E+06    -228.748E+03    -109.764E-03     220.203E-03    -110.439E-03     117.196E-03    -114.889E-03     225.487E-03    -110.128E-03     111.781E-03
            1528     14.5147E-03     58.9022E-03    -10.9193E+06     132.391E+06     102.364E+06     565.075E+03    -110.844E-03     221.346E-03    -110.503E-03     182.861E-03    -118.983E-03     229.620E-03    -110.167E-03     175.045E-03
            1529     13.7005E-03     58.7037E-03    -16.7752E+06     122.867E+06     96.7103E+06     1.13555E+06    -112.435E-03     222.980E-03    -110.545E-03     196.010E-03    -120.628E-03     231.270E-03    -110.216E-03     187.119E-03
            1530     12.8977E-03     58.4700E-03    -23.4075E+06     112.559E+06     77.3284E+06     949.712E+03    -114.327E-03     224.840E-03    -110.513E-03     208.694E-03    -122.325E-03     232.930E-03    -110.256E-03     199.097E-03
            1531     12.0895E-03     58.2436E-03    -29.3703E+06     95.1298E+06     44.3921E+06    -12.7819E+03    -114.507E-03     224.927E-03    -110.420E-03     197.279E-03    -120.980E-03     231.505E-03    -110.294E-03     188.231E-03
            1532     11.2839E-03     58.0368E-03    -34.0192E+06     57.3410E+06     22.6979E+06     6.07351E+03    -114.233E-03     224.642E-03    -110.409E-03     176.871E-03    -119.008E-03     229.434E-03    -110.329E-03     168.909E-03
            1533     10.4775E-03     57.8543E-03    -38.2705E+06     102.951E+03     12.7608E+06     314.708E+03    -114.088E-03     224.561E-03    -110.472E-03     160.760E-03    -117.628E-03     227.928E-03    -110.353E-03     153.834E-03
            1534     9.67160E-03     57.6831E-03     -42.066E+06    -53.6367E+06     4.60406E+06     465.643E+03    -114.033E-03     224.566E-03    -110.533E-03     149.413E-03    -116.699E-03     226.879E-03    -110.371E-03     143.407E-03
            1535     8.86525E-03     57.5241E-03    -45.8926E+06    -91.3565E+06    -80.7626E+03     583.735E+03    -113.758E-03     224.349E-03    -110.591E-03     138.906E-03    -115.779E-03     225.883E-03    -110.393E-03     133.732E-03
            1536     8.05887E-03     57.3764E-03    -49.9536E+06    -118.278E+06    -4.93327E+06     425.255E+03    -113.510E-03     224.147E-03    -110.637E-03     128.167E-03    -115.035E-03     225.089E-03    -110.418E-03     123.734E-03
            1537     7.25310E-03     57.2398E-03    -54.4024E+06    -140.459E+06    -10.1492E+06     537.981E+03    -113.209E-03     223.878E-03    -110.670E-03     116.727E-03    -114.344E-03     224.352E-03    -110.438E-03     112.969E-03
            1538     6.44715E-03     57.1172E-03    -59.5979E+06    -161.303E+06    -16.6462E+06     645.462E+03    -112.818E-03     223.507E-03    -110.689E-03     104.957E-03    -113.648E-03     223.601E-03    -110.451E-03     101.809E-03
            1539     5.64108E-03     57.0063E-03    -65.3530E+06    -176.904E+06    -25.7097E+06     476.540E+03    -112.373E-03     223.059E-03    -110.686E-03     92.9725E-03    -112.970E-03     222.870E-03    -110.463E-03     90.3660E-03
            1540     4.83520E-03     56.9097E-03    -71.6628E+06    -192.687E+06    -36.3002E+06     361.706E+03    -111.931E-03     222.610E-03    -110.678E-03     80.4562E-03    -112.346E-03     222.191E-03    -110.476E-03     78.3341E-03
            1541     4.02925E-03     56.8272E-03    -77.4587E+06    -208.808E+06    -47.1238E+06     140.608E+03    -111.589E-03     222.254E-03    -110.664E-03     67.8527E-03    -111.862E-03     221.647E-03    -110.485E-03     66.1617E-03
            1542     3.22353E-03     56.7578E-03    -82.9024E+06    -218.543E+06    -60.3190E+06     90.1100E+03    -111.162E-03     221.795E-03    -110.632E-03     54.7366E-03    -111.330E-03     221.067E-03    -110.497E-03     53.4378E-03
            1543     2.41749E-03     56.7050E-03    -88.1633E+06    -228.257E+06    -73.9734E+06     216.641E+03    -110.888E-03     221.497E-03    -110.609E-03     41.5602E-03    -110.977E-03     220.677E-03    -110.520E-03     40.6172E-03
            1544     1.61160E-03     56.6644E-03    -92.0827E+06    -235.965E+06    -85.3527E+06    -16.3699E+03    -110.837E-03     221.390E-03    -110.553E-03     28.1284E-03    -110.871E-03     220.507E-03    -110.504E-03     27.5014E-03
            1545     806.128E-06     56.6426E-03    -95.0362E+06    -241.075E+06    -93.1167E+06     343.287E+03    -110.715E-03     221.052E-03    -110.337E-03     15.3899E-03    -110.718E-03     220.132E-03    -110.315E-03     15.0698E-03
            1546     15.3199E-03     57.9158E-03    -5.25601E+06     130.716E+06     98.2749E+06     58.2794E+03    -109.109E-03     219.609E-03    -110.499E-03     116.046E-03    -114.205E-03     224.865E-03    -110.190E-03     110.652E-03
            1547     14.5045E-03     57.7219E-03    -11.7467E+06     132.091E+06     101.411E+06    -374.707E+03    -111.754E-03     222.302E-03    -110.548E-03     181.165E-03    -119.883E-03     230.565E-03    -110.215E-03     173.220E-03
            1548     13.7059E-03     57.5185E-03    -17.9157E+06     121.950E+06     95.8795E+06    -33.0387E+03    -113.077E-03     223.618E-03    -110.542E-03     195.266E-03    -121.271E-03     231.904E-03    -110.213E-03     186.302E-03
            1549     12.8965E-03     57.2913E-03    -23.1490E+06     112.754E+06     77.8765E+06     420.038E+03    -114.148E-03     224.644E-03    -110.496E-03     208.456E-03    -122.131E-03     232.719E-03    -110.236E-03     198.881E-03
            1550     12.0906E-03     57.0600E-03    -28.3677E+06     96.1188E+06     45.4699E+06     634.211E+03    -114.530E-03     224.937E-03    -110.407E-03     197.341E-03    -121.005E-03     231.520E-03    -110.278E-03     188.291E-03
            1551     11.2839E-03     56.8560E-03    -33.2238E+06     57.2942E+06     22.8079E+06     529.683E+03    -114.256E-03     224.645E-03    -110.389E-03     176.696E-03    -119.024E-03     229.432E-03    -110.310E-03     168.741E-03
            1552     10.4776E-03     56.6714E-03    -37.1589E+06    -507.348E+03     13.0885E+06     499.193E+03    -114.047E-03     224.501E-03    -110.454E-03     160.816E-03    -117.580E-03     227.862E-03    -110.334E-03     153.896E-03
            1553     9.67162E-03     56.5014E-03    -41.0219E+06    -53.1562E+06     5.48574E+06     810.224E+03    -113.938E-03     224.458E-03    -110.520E-03     149.367E-03    -116.599E-03     226.769E-03    -110.356E-03     143.372E-03
            1554     8.86528E-03     56.3425E-03    -45.2800E+06    -90.6989E+06     208.202E+03     581.151E+03    -113.809E-03     224.385E-03    -110.577E-03     138.888E-03    -115.826E-03     225.919E-03    -110.378E-03     133.715E-03
            1555     8.05955E-03     56.1941E-03    -49.7131E+06    -118.527E+06    -4.99443E+06     201.702E+03    -113.577E-03     224.192E-03    -110.615E-03     128.104E-03    -115.100E-03     225.133E-03    -110.396E-03     123.665E-03
            1556     7.25322E-03     56.0584E-03    -54.5073E+06    -140.413E+06    -9.99495E+06     561.518E+03    -113.175E-03     223.819E-03    -110.644E-03     116.678E-03    -114.309E-03     224.290E-03    -110.412E-03     112.928E-03
            1557     6.44712E-03     55.9347E-03    -59.7302E+06    -161.090E+06    -16.6002E+06     622.653E+03    -112.794E-03     223.457E-03    -110.663E-03     104.969E-03    -113.624E-03     223.551E-03    -110.426E-03     101.823E-03
            1558     5.64144E-03     55.8247E-03    -65.3310E+06    -176.680E+06    -25.6753E+06     851.053E+03    -112.321E-03     222.983E-03    -110.662E-03     92.8510E-03    -112.918E-03     222.795E-03    -110.439E-03     90.2511E-03
            1559     4.83516E-03     55.7280E-03    -70.7948E+06    -191.648E+06    -35.4769E+06     631.963E+03    -111.906E-03     222.563E-03    -110.658E-03     80.5244E-03    -112.318E-03     222.147E-03    -110.454E-03     78.4104E-03
            1560     4.02954E-03     55.6448E-03    -76.9538E+06    -208.208E+06    -46.6735E+06    -50.9767E+03    -111.531E-03     222.179E-03    -110.648E-03     67.8742E-03    -111.803E-03     221.574E-03    -110.468E-03     66.1809E-03
            1561     3.22337E-03     55.5767E-03    -83.0652E+06    -218.598E+06    -60.4275E+06     11.2647E+03    -111.145E-03     221.766E-03    -110.621E-03     54.8120E-03    -111.313E-03     221.038E-03    -110.485E-03     53.5126E-03
            1562     2.41756E-03     55.5225E-03    -88.0915E+06    -228.185E+06    -74.1263E+06     128.841E+03    -110.906E-03     221.498E-03    -110.592E-03     41.7331E-03    -110.995E-03     220.680E-03    -110.505E-03     40.7880E-03
            1563     1.61168E-03     55.4836E-03    -92.3045E+06    -235.825E+06    -85.3054E+06     210.056E+03    -110.742E-03     221.301E-03    -110.559E-03     28.3276E-03    -110.778E-03     220.419E-03    -110.510E-03     27.7079E-03
            1564     805.994E-06     55.4590E-03    -94.7938E+06    -240.699E+06    -92.8493E+06     114.250E+03    -110.640E-03     221.116E-03    -110.476E-03     15.4869E-03    -110.643E-03     220.198E-03    -110.454E-03     15.1559E-03
            1565     15.3117E-03     56.7413E-03    -5.26434E+06     130.878E+06     98.5559E+06     566.094E+03    -109.730E-03     220.205E-03    -110.475E-03     116.693E-03    -114.848E-03     225.484E-03    -110.164E-03     111.248E-03
            1566     14.5132E-03     56.5336E-03    -11.5459E+06     132.390E+06     101.603E+06    -73.0030E+03    -111.582E-03     222.090E-03    -110.508E-03     180.036E-03    -119.676E-03     230.318E-03    -110.175E-03     172.114E-03
            1567     13.7021E-03     56.3393E-03    -17.9521E+06     121.925E+06     95.6015E+06    -1.04399E+06    -112.545E-03     223.058E-03    -110.513E-03     193.847E-03    -120.689E-03     231.294E-03    -110.186E-03     184.940E-03
            1568     12.8973E-03     56.1074E-03    -24.1896E+06     111.849E+06     76.9939E+06    -938.255E+03    -114.166E-03     224.644E-03    -110.478E-03     208.721E-03    -122.162E-03     232.728E-03    -110.220E-03     199.120E-03
            1569     12.0906E-03     55.8796E-03    -29.2671E+06     95.4846E+06     45.4475E+06     126.186E+03    -114.639E-03     225.028E-03    -110.388E-03     197.521E-03    -121.118E-03     231.610E-03    -110.257E-03     188.459E-03
            1570     11.2842E-03     55.6731E-03    -33.4274E+06     57.7469E+06     23.1915E+06     782.575E+03    -114.164E-03     224.534E-03    -110.370E-03     176.849E-03    -118.933E-03     229.322E-03    -110.289E-03     168.907E-03
            1571     10.4782E-03     55.4901E-03    -37.8280E+06    -690.279E+03     12.4792E+06     674.439E+03    -113.944E-03     224.382E-03    -110.437E-03     160.889E-03    -117.477E-03     227.741E-03    -110.319E-03     153.982E-03
            1572     9.67146E-03     55.3195E-03    -41.9559E+06    -53.2770E+06     4.99584E+06     519.888E+03    -113.942E-03     224.449E-03    -110.508E-03     149.319E-03    -116.602E-03     226.757E-03    -110.345E-03     143.327E-03
            1573     8.86566E-03     55.1604E-03    -45.9073E+06    -90.0130E+06     230.834E+03     633.098E+03    -113.872E-03     224.433E-03    -110.560E-03     138.959E-03    -115.895E-03     225.973E-03    -110.362E-03     133.781E-03
            1574     8.05931E-03     55.0123E-03    -50.4917E+06    -118.157E+06    -5.46986E+06     333.601E+03    -113.592E-03     224.183E-03    -110.592E-03     128.110E-03    -115.118E-03     225.127E-03    -110.374E-03     123.676E-03
            1575     7.25352E-03     54.8765E-03    -55.1516E+06    -140.957E+06    -10.6389E+06     237.990E+03    -113.188E-03     223.805E-03    -110.617E-03     116.738E-03    -114.323E-03     224.275E-03    -110.386E-03     112.985E-03
            1576     6.44757E-03     54.7530E-03    -60.2297E+06    -161.093E+06    -16.7913E+06     562.420E+03    -112.721E-03     223.359E-03    -110.638E-03     104.986E-03    -113.553E-03     223.454E-03    -110.401E-03     101.842E-03
            1577     5.64124E-03     54.6428E-03    -65.6391E+06    -176.154E+06    -26.0609E+06     766.571E+03    -112.270E-03     222.910E-03    -110.640E-03     92.8913E-03    -112.867E-03     222.725E-03    -110.420E-03     90.2944E-03
            1578     4.83558E-03     54.5462E-03    -71.6156E+06    -190.632E+06    -37.2195E+06     708.355E+03    -111.867E-03     222.501E-03    -110.634E-03     80.6394E-03    -112.283E-03     222.094E-03    -110.440E-03     78.5267E-03
            1579     4.02921E-03     54.4630E-03    -77.7941E+06    -207.318E+06    -48.4850E+06     196.023E+03    -111.442E-03     222.077E-03    -110.634E-03     67.8056E-03    -111.716E-03     221.479E-03    -110.464E-03     66.1182E-03
            1580     3.22345E-03     54.3950E-03    -83.3843E+06    -219.351E+06    -61.4703E+06    -154.731E+03    -111.167E-03     221.785E-03    -110.618E-03     54.8588E-03    -111.334E-03     221.056E-03    -110.486E-03     53.5569E-03
            1581     2.41749E-03     54.3407E-03    -88.2429E+06    -228.172E+06    -74.2361E+06     58.6236E+03    -110.910E-03     221.499E-03    -110.589E-03     41.6415E-03    -110.999E-03     220.681E-03    -110.502E-03     40.6961E-03
            1582     1.61170E-03     54.3017E-03    -92.1810E+06    -235.653E+06    -85.5731E+06     101.332E+03    -110.551E-03     221.166E-03    -110.615E-03     28.3303E-03    -110.585E-03     220.285E-03    -110.567E-03     27.7097E-03
            1583     805.336E-06     54.2777E-03    -94.3550E+06    -240.222E+06    -92.7534E+06    -214.000E+03    -110.487E-03     221.358E-03    -110.871E-03     15.5818E-03    -110.489E-03     220.441E-03    -110.849E-03     15.2428E-03
            1584     15.3206E-03     55.5526E-03    -5.30837E+06     131.120E+06     98.9118E+06     382.466E+03    -110.362E-03     220.787E-03    -110.426E-03     117.283E-03    -115.507E-03     226.092E-03    -110.113E-03     111.803E-03
            1585     14.5091E-03     55.3551E-03    -10.3355E+06     133.606E+06     103.047E+06     18.0437E+03    -111.075E-03     221.532E-03    -110.457E-03     180.275E-03    -119.155E-03     229.750E-03    -110.120E-03     172.427E-03
            1586     13.7055E-03     55.1562E-03    -16.8051E+06     122.846E+06     96.3056E+06    -264.367E+03    -111.998E-03     222.488E-03    -110.490E-03     194.295E-03    -120.133E-03     230.720E-03    -110.162E-03     185.445E-03
            1587     12.8973E-03     54.9276E-03    -24.1834E+06     111.683E+06     76.3012E+06    -464.528E+03    -114.216E-03     224.684E-03    -110.468E-03     209.372E-03    -122.243E-03     232.800E-03    -110.213E-03     199.756E-03
            1588     12.0907E-03     54.6960E-03    -30.5897E+06     94.0374E+06     43.6920E+06    -302.991E+03    -114.664E-03     225.040E-03    -110.376E-03     197.701E-03    -121.152E-03     231.626E-03    -110.250E-03     188.630E-03
            1589     11.2847E-03     54.4925E-03    -35.4033E+06     57.2368E+06     22.1627E+06     305.222E+03    -114.162E-03     224.522E-03    -110.360E-03     177.100E-03    -118.941E-03     229.314E-03    -110.281E-03     169.153E-03
            1590     10.4775E-03     54.3075E-03    -39.0719E+06     321.707E+03     12.1298E+06     514.922E+03    -113.983E-03     224.410E-03    -110.427E-03     160.937E-03    -117.523E-03     227.777E-03    -110.310E-03     154.029E-03
            1591     9.67206E-03     54.1380E-03    -42.7888E+06    -53.6401E+06     4.16675E+06     158.623E+03    -113.968E-03     224.461E-03    -110.493E-03     149.355E-03    -116.630E-03     226.768E-03    -110.332E-03     143.361E-03
            1592     8.86550E-03     53.9784E-03    -46.7364E+06    -90.1633E+06    -234.356E+03     156.174E+03    -113.878E-03     224.423E-03    -110.545E-03     139.052E-03    -115.906E-03     225.965E-03    -110.347E-03     133.866E-03
            1593     8.05982E-03     53.8304E-03    -50.7462E+06    -117.279E+06    -5.33264E+06     382.333E+03    -113.589E-03     224.164E-03    -110.574E-03     128.014E-03    -115.117E-03     225.110E-03    -110.357E-03     123.584E-03
            1594     7.25354E-03     53.6946E-03    -55.5925E+06    -141.356E+06    -11.2447E+06     185.185E+03    -113.168E-03     223.765E-03    -110.597E-03     116.775E-03    -114.305E-03     224.236E-03    -110.368E-03     113.019E-03
            1595     6.44748E-03     53.5711E-03    -60.7192E+06    -161.291E+06    -17.2785E+06     343.039E+03    -112.697E-03     223.316E-03    -110.619E-03     104.970E-03    -113.530E-03     223.411E-03    -110.383E-03     101.826E-03
            1596     5.64155E-03     53.4614E-03    -66.4039E+06    -176.360E+06    -26.2619E+06     737.914E+03    -112.250E-03     222.873E-03    -110.623E-03     92.9004E-03    -112.849E-03     222.687E-03    -110.403E-03     90.3069E-03
            1597     4.83522E-03     53.3640E-03    -72.1622E+06    -189.967E+06    -38.2738E+06     773.671E+03    -111.825E-03     222.438E-03    -110.613E-03     80.4824E-03    -112.243E-03     222.036E-03    -110.424E-03     78.3695E-03
            1598     4.02959E-03     53.2818E-03    -77.5096E+06    -206.372E+06    -49.3128E+06     291.981E+03    -111.436E-03     222.049E-03    -110.613E-03     67.7049E-03    -111.708E-03     221.456E-03    -110.448E-03     66.0216E-03
            1599     3.22334E-03     53.2128E-03    -83.0430E+06    -219.377E+06    -61.6304E+06    -146.364E+03    -111.150E-03     221.750E-03    -110.600E-03     54.8581E-03    -111.315E-03     221.020E-03    -110.470E-03     53.5567E-03
            1600     2.41770E-03     53.1589E-03    -88.3375E+06    -228.347E+06    -74.6709E+06    -176.438E+03    -110.860E-03     221.437E-03    -110.577E-03     41.5115E-03    -110.949E-03     220.619E-03    -110.492E-03     40.5625E-03
            1601     1.61151E-03     53.1203E-03    -92.0934E+06    -235.393E+06    -85.4367E+06    -65.8178E+03    -110.643E-03     221.221E-03    -110.578E-03     28.0938E-03    -110.678E-03     220.341E-03    -110.530E-03     27.4692E-03
            1602     805.698E-06     53.0959E-03    -94.6136E+06    -240.231E+06    -93.0212E+06     235.568E+03    -110.733E-03     221.215E-03    -110.482E-03     15.6922E-03    -110.735E-03     220.299E-03    -110.462E-03     15.3666E-03
            1603     15.3150E-03     54.3740E-03    -5.08297E+06     131.365E+06     99.1661E+06    -172.254E+03    -110.128E-03     220.519E-03    -110.391E-03     117.063E-03    -115.234E-03     225.786E-03    -110.078E-03     111.631E-03
            1604     14.5128E-03     54.1704E-03    -10.1047E+06     133.702E+06     103.231E+06    -215.713E+03    -110.261E-03     220.711E-03    -110.450E-03     180.182E-03    -118.307E-03     228.896E-03    -110.113E-03     172.431E-03
            1605     13.7029E-03     53.9779E-03    -16.8485E+06     122.859E+06     96.3595E+06     499.226E+03    -112.120E-03     222.626E-03    -110.506E-03     195.619E-03    -120.302E-03     230.905E-03    -110.178E-03     186.755E-03
            1606     12.8967E-03     53.7431E-03    -23.9201E+06     111.765E+06     76.0353E+06     764.226E+03    -114.469E-03     224.945E-03    -110.477E-03     209.921E-03    -122.518E-03     233.086E-03    -110.224E-03     200.281E-03
            1607     12.0910E-03     53.5156E-03    -30.0750E+06     94.2385E+06     43.1679E+06     579.046E+03    -114.667E-03     225.044E-03    -110.377E-03     197.555E-03    -121.144E-03     231.624E-03    -110.254E-03     188.499E-03
            1608     11.2837E-03     53.3096E-03    -34.5657E+06     56.9016E+06     22.1343E+06     74.3415E+03    -114.300E-03     224.658E-03    -110.359E-03     177.156E-03    -119.080E-03     229.453E-03    -110.280E-03     169.192E-03
            1609     10.4787E-03     53.1260E-03    -38.2893E+06     499.701E+03     12.6204E+06     202.795E+03    -114.062E-03     224.480E-03    -110.418E-03     160.752E-03    -117.597E-03     227.844E-03    -110.301E-03     153.836E-03
            1610     9.67157E-03     52.9561E-03    -42.1872E+06    -52.7664E+06     4.49555E+06     385.795E+03    -114.001E-03     224.478E-03    -110.477E-03     149.347E-03    -116.663E-03     226.790E-03    -110.317E-03     143.351E-03
            1611     8.86595E-03     52.7963E-03    -46.2022E+06    -89.9496E+06    -109.428E+03     37.0252E+03    -113.860E-03     224.386E-03    -110.526E-03     138.932E-03    -115.883E-03     225.926E-03    -110.330E-03     133.750E-03
            1612     8.05959E-03     52.6486E-03    -50.6872E+06    -117.823E+06    -5.30493E+06     222.585E+03    -113.540E-03     224.099E-03    -110.559E-03     128.021E-03    -115.065E-03     225.041E-03    -110.341E-03     123.592E-03
            1613     7.25375E-03     52.5128E-03    -55.4771E+06    -140.718E+06    -10.7732E+06     444.238E+03    -113.170E-03     223.753E-03    -110.583E-03     116.678E-03    -114.309E-03     224.226E-03    -110.352E-03     112.923E-03
            1614     6.44764E-03     52.3895E-03    -60.8698E+06    -161.259E+06    -17.4314E+06     443.437E+03    -112.722E-03     223.320E-03    -110.598E-03     104.819E-03    -113.555E-03     223.415E-03    -110.363E-03     101.679E-03
            1615     5.64155E-03     52.2794E-03    -66.3277E+06    -176.927E+06    -26.3153E+06     542.348E+03    -112.268E-03     222.864E-03    -110.596E-03     92.7876E-03    -112.866E-03     222.675E-03    -110.375E-03     90.1895E-03
            1616     4.83583E-03     52.1826E-03    -71.5320E+06    -189.342E+06    -37.7979E+06     378.383E+03    -111.802E-03     222.382E-03    -110.581E-03     80.3596E-03    -112.217E-03     221.982E-03    -110.391E-03     78.2443E-03
            1617     4.02937E-03     52.0999E-03    -77.1083E+06    -205.814E+06    -48.8050E+06     276.815E+03    -111.434E-03     222.011E-03    -110.577E-03     67.6489E-03    -111.706E-03     221.419E-03    -110.410E-03     65.9656E-03
            1618     3.22376E-03     52.0312E-03    -82.9528E+06    -218.972E+06    -61.1713E+06     244.848E+03    -111.076E-03     221.641E-03    -110.565E-03     54.7568E-03    -111.242E-03     220.912E-03    -110.433E-03     53.4624E-03
            1619     2.41743E-03     51.9774E-03    -87.9750E+06    -228.192E+06    -74.6720E+06    -70.6948E+03    -110.858E-03     221.396E-03    -110.538E-03     41.4822E-03    -110.946E-03     220.578E-03    -110.453E-03     40.5348E-03
            1620     1.61186E-03     51.9383E-03    -92.1741E+06    -235.409E+06    -85.4395E+06    -76.6035E+03    -110.833E-03     221.287E-03    -110.454E-03     28.0789E-03    -110.868E-03     220.407E-03    -110.406E-03     27.4555E-03
            1621     806.321E-06     51.9140E-03    -95.3118E+06    -240.297E+06    -92.6945E+06     210.075E+03    -110.756E-03     220.809E-03    -110.053E-03     15.6763E-03    -110.762E-03     219.893E-03    -110.030E-03     15.3482E-03
            1622     15.3212E-03     53.1885E-03    -4.82663E+06     131.472E+06     99.1453E+06    -252.873E+03    -109.406E-03     219.815E-03    -110.410E-03     116.669E-03    -114.491E-03     225.062E-03    -110.098E-03     111.306E-03
            1623     14.5093E-03     52.9943E-03    -11.1227E+06     132.814E+06     102.101E+06    -53.5081E+03    -110.338E-03     220.827E-03    -110.488E-03     181.478E-03    -118.428E-03     229.052E-03    -110.154E-03     173.702E-03
            1624     13.7031E-03     52.7936E-03    -17.7571E+06     122.208E+06     95.6332E+06     204.193E+03    -112.754E-03     223.284E-03    -110.530E-03     196.010E-03    -120.968E-03     231.591E-03    -110.203E-03     187.058E-03
            1625     12.8977E-03     52.5618E-03    -23.8386E+06     111.825E+06     76.6863E+06     826.334E+03    -114.583E-03     225.063E-03    -110.481E-03     208.973E-03    -122.592E-03     233.163E-03    -110.225E-03     199.344E-03
            1626     12.0901E-03     52.3336E-03    -28.9628E+06     95.3964E+06     44.4051E+06     827.909E+03    -114.722E-03     225.094E-03    -110.372E-03     197.268E-03    -121.190E-03     231.669E-03    -110.246E-03     188.215E-03
            1627     11.2850E-03     52.1272E-03    -33.3309E+06     57.4040E+06     22.4772E+06     356.185E+03    -114.330E-03     224.674E-03    -110.344E-03     176.809E-03    -119.100E-03     229.465E-03    -110.267E-03     168.849E-03
            1628     10.4776E-03     51.9444E-03    -37.6555E+06     168.858E+03     12.7996E+06     470.503E+03    -114.053E-03     224.456E-03    -110.402E-03     160.606E-03    -117.582E-03     227.814E-03    -110.284E-03     153.696E-03
            1629     9.67243E-03     51.7737E-03    -41.7121E+06    -51.8108E+06     5.10955E+06     511.411E+03    -114.064E-03     224.521E-03    -110.457E-03     149.260E-03    -116.728E-03     226.837E-03    -110.296E-03     143.260E-03
            1630     8.86602E-03     51.6147E-03    -45.9805E+06    -89.9983E+06     30.9268E+03     426.840E+03    -113.806E-03     224.309E-03    -110.503E-03     138.738E-03    -115.825E-03     225.845E-03    -110.305E-03     133.567E-03
            1631     8.05993E-03     51.4669E-03    -50.4661E+06    -118.227E+06    -5.37228E+06     376.483E+03    -113.520E-03     224.056E-03    -110.535E-03     127.945E-03    -115.044E-03     224.996E-03    -110.318E-03     123.518E-03
            1632     7.25379E-03     51.3307E-03    -55.3113E+06    -140.267E+06    -10.3787E+06     523.688E+03    -113.169E-03     223.727E-03    -110.558E-03     116.451E-03    -114.305E-03     224.199E-03    -110.326E-03     112.701E-03
            1633     6.44787E-03     51.2080E-03    -60.5749E+06    -160.709E+06    -16.9100E+06     633.686E+03    -112.722E-03     223.290E-03    -110.569E-03     104.746E-03    -113.554E-03     223.386E-03    -110.332E-03     101.606E-03
            1634     5.64195E-03     51.0975E-03    -66.2408E+06    -176.682E+06    -26.6978E+06     273.033E+03    -112.259E-03     222.818E-03    -110.559E-03     92.7206E-03    -112.857E-03     222.631E-03    -110.340E-03     90.1197E-03
            1635     4.83559E-03     51.0012E-03    -72.0265E+06    -189.016E+06    -38.4079E+06     309.031E+03    -111.806E-03     222.342E-03    -110.537E-03     80.3187E-03    -112.223E-03     221.944E-03    -110.350E-03     78.2047E-03
            1636     4.03001E-03     50.9181E-03    -77.8321E+06    -205.568E+06    -49.6002E+06     262.573E+03    -111.405E-03     221.931E-03    -110.526E-03     67.6457E-03    -111.679E-03     221.343E-03    -110.363E-03     65.9636E-03
            1637     3.22364E-03     50.8499E-03    -83.1207E+06    -218.798E+06    -61.1476E+06     159.898E+03    -111.075E-03     221.583E-03    -110.508E-03     54.6599E-03    -111.241E-03     220.855E-03    -110.376E-03     53.3651E-03
            1638     2.41789E-03     50.7957E-03    -88.0548E+06    -227.752E+06    -74.0505E+06     172.296E+03    -110.830E-03     221.299E-03    -110.469E-03     41.5121E-03    -110.920E-03     220.482E-03    -110.381E-03     40.5710E-03
            1639     1.61195E-03     50.7563E-03    -92.1944E+06    -235.481E+06    -85.5923E+06     93.1572E+03    -110.678E-03     221.079E-03    -110.401E-03     28.2662E-03    -110.713E-03     220.199E-03    -110.354E-03     27.6474E-03
            1640     806.070E-06     50.7327E-03    -94.7496E+06    -240.233E+06    -93.1608E+06    -299.700E+03    -110.503E-03     220.755E-03    -110.253E-03     15.2495E-03    -110.506E-03     219.840E-03    -110.233E-03     14.9076E-03
            1641     15.3133E-03     52.0107E-03    -5.06466E+06     131.310E+06     98.6806E+06    -143.334E+03    -109.024E-03     219.494E-03    -110.470E-03     116.564E-03    -114.122E-03     224.754E-03    -110.160E-03     111.171E-03
            1642     14.5089E-03     51.8108E-03    -11.5972E+06     132.499E+06     101.530E+06     16.3165E+03    -111.528E-03     222.056E-03    -110.528E-03     181.419E-03    -119.643E-03     230.305E-03    -110.195E-03     173.490E-03
            1643     13.7041E-03     51.6103E-03    -18.0600E+06     122.142E+06     95.3649E+06     129.210E+03    -113.190E-03     223.711E-03    -110.522E-03     195.126E-03    -121.388E-03     232.003E-03    -110.196E-03     186.139E-03
            1644     12.8968E-03     51.3809E-03    -24.4318E+06     111.605E+06     76.5443E+06    -114.256E+03    -114.506E-03     224.965E-03    -110.458E-03     208.635E-03    -122.510E-03     233.056E-03    -110.202E-03     199.009E-03
            1645     12.0916E-03     51.1506E-03    -29.5400E+06     95.1983E+06     44.5846E+06     114.664E+03    -114.781E-03     225.130E-03    -110.348E-03     197.258E-03    -121.259E-03     231.711E-03    -110.221E-03     188.185E-03
            1646     11.2844E-03     50.9461E-03    -34.0812E+06     57.5843E+06     22.3279E+06     765.073E+03    -114.248E-03     224.566E-03    -110.317E-03     176.546E-03    -119.011E-03     229.347E-03    -110.240E-03     168.605E-03
            1647     10.4790E-03     50.7622E-03    -38.1094E+06     627.088E+03     12.6813E+06     509.402E+03    -114.041E-03     224.416E-03    -110.375E-03     160.616E-03    -117.572E-03     227.778E-03    -110.258E-03     153.707E-03
            1648     9.67220E-03     50.5918E-03    -41.9746E+06    -51.8534E+06     5.04944E+06     485.419E+03    -114.003E-03     224.433E-03    -110.431E-03     149.079E-03    -116.662E-03     226.745E-03    -110.269E-03     143.087E-03
            1649     8.86627E-03     50.4331E-03    -46.0736E+06    -89.8449E+06     202.643E+03     552.319E+03    -113.857E-03     224.331E-03    -110.474E-03     138.654E-03    -115.877E-03     225.868E-03    -110.276E-03     133.479E-03
            1650     8.06022E-03     50.2849E-03    -50.5654E+06    -117.380E+06    -5.05482E+06     677.904E+03    -113.545E-03     224.044E-03    -110.499E-03     127.793E-03    -115.069E-03     224.986E-03    -110.281E-03     123.370E-03
            1651     7.25425E-03     50.1493E-03    -55.4549E+06    -140.472E+06    -10.9324E+06     501.266E+03    -113.086E-03     223.603E-03    -110.517E-03     116.378E-03    -114.219E-03     224.072E-03    -110.288E-03     112.638E-03
            1652     6.44807E-03     50.0260E-03    -60.4969E+06    -161.083E+06    -17.1061E+06     292.255E+03    -112.677E-03     223.210E-03    -110.533E-03     104.698E-03    -113.508E-03     223.303E-03    -110.297E-03     101.556E-03
            1653     5.64192E-03     49.9161E-03    -65.8191E+06    -175.681E+06    -25.7906E+06      584.98E+03    -112.236E-03     222.761E-03    -110.525E-03     92.6574E-03    -112.833E-03     222.576E-03    -110.304E-03     90.0647E-03
            1654     4.83624E-03     49.8194E-03    -71.6409E+06    -188.844E+06    -37.4404E+06     427.421E+03    -111.783E-03     222.285E-03    -110.502E-03     80.2976E-03    -112.200E-03     221.886E-03    -110.312E-03     78.1866E-03
            1655     4.02977E-03     49.7368E-03    -77.2539E+06    -205.101E+06    -48.3702E+06     312.573E+03    -111.408E-03     221.894E-03    -110.486E-03     67.6706E-03    -111.681E-03     221.305E-03    -110.319E-03     65.9907E-03
            1656     3.22407E-03     49.6682E-03    -83.1281E+06    -218.457E+06    -61.0019E+06     155.852E+03    -111.107E-03     221.554E-03    -110.448E-03     54.6901E-03    -111.274E-03     220.828E-03    -110.316E-03     53.3968E-03
            1657     2.41808E-03     49.6141E-03    -88.4369E+06    -227.829E+06    -74.3330E+06     164.444E+03    -110.733E-03     221.133E-03    -110.401E-03     41.4818E-03    -110.823E-03     220.316E-03    -110.314E-03     40.5436E-03
            1658     1.61185E-03     49.5754E-03    -92.3569E+06    -235.254E+06    -85.5276E+06     181.109E+03    -110.423E-03     220.826E-03    -110.403E-03     28.2893E-03    -110.459E-03     219.947E-03    -110.355E-03     27.6738E-03
            1659     805.771E-06     49.5506E-03    -94.5418E+06    -240.039E+06    -93.1392E+06    -167.269E+03    -110.427E-03     220.885E-03    -110.458E-03     14.9759E-03    -110.429E-03     219.969E-03    -110.438E-03     14.6354E-03
            1660     15.3168E-03     50.8287E-03    -4.74061E+06     131.790E+06     98.9845E+06     86.7865E+03    -109.715E-03     220.193E-03    -110.478E-03     116.213E-03    -114.833E-03     225.475E-03    -110.167E-03     110.741E-03
            1661     14.5105E-03     50.6264E-03    -11.0672E+06     133.153E+06     101.972E+06     352.740E+03    -112.022E-03     222.522E-03    -110.499E-03     180.167E-03    -120.113E-03     230.750E-03    -110.167E-03     172.210E-03
            1662     13.7037E-03     50.4288E-03    -17.7760E+06     122.405E+06     95.6368E+06     127.512E+03    -112.857E-03     223.339E-03    -110.482E-03     193.883E-03    -121.003E-03     231.580E-03    -110.156E-03     184.961E-03
            1663     12.8982E-03     50.1985E-03    -23.8334E+06     112.386E+06     76.7498E+06    -69.8171E+03    -114.454E-03     224.879E-03    -110.424E-03     208.546E-03    -122.452E-03     232.968E-03    -110.169E-03     198.923E-03
            1664     12.0910E-03     49.9687E-03    -29.8874E+06     94.2384E+06     44.1142E+06     43.1261E+03    -114.692E-03     225.008E-03    -110.316E-03     197.001E-03    -121.156E-03     231.573E-03    -110.189E-03     187.942E-03
            1665     11.2855E-03     49.7643E-03    -34.2295E+06     57.3652E+06     22.7348E+06     382.835E+03    -114.194E-03     224.485E-03    -110.291E-03     176.603E-03    -118.960E-03     229.267E-03    -110.210E-03     168.660E-03
            1666     10.4785E-03     49.5800E-03    -37.9793E+06     1.24541E+06     12.8212E+06     626.105E+03    -114.021E-03     224.367E-03    -110.346E-03     160.685E-03    -117.553E-03     227.732E-03    -110.229E-03     153.780E-03
            1667     9.67283E-03     49.4104E-03    -41.8608E+06    -52.0476E+06     5.03096E+06     477.746E+03    -114.003E-03     224.404E-03    -110.401E-03     149.055E-03    -116.660E-03     226.713E-03    -110.239E-03     143.065E-03
            1668     8.86655E-03     49.2509E-03    -45.9527E+06    -89.4633E+06     256.810E+03     647.397E+03    -113.880E-03     224.320E-03    -110.440E-03     138.573E-03    -115.900E-03     225.859E-03    -110.242E-03     133.400E-03
            1669     8.06071E-03     49.1033E-03    -50.4106E+06    -117.278E+06    -4.91891E+06     742.062E+03    -113.503E-03     223.966E-03    -110.462E-03     127.722E-03    -115.023E-03     224.905E-03    -110.244E-03     123.309E-03
            1670     7.25437E-03     48.9678E-03    -55.1308E+06    -139.783E+06    -10.5058E+06     605.056E+03    -113.064E-03     223.545E-03    -110.481E-03     116.426E-03    -114.197E-03     224.016E-03    -110.251E-03     112.689E-03
            1671     6.44833E-03     48.8444E-03    -60.4146E+06    -160.832E+06    -17.5349E+06     339.537E+03    -112.632E-03     223.124E-03    -110.493E-03     104.686E-03    -113.460E-03     223.218E-03    -110.259E-03     101.552E-03
            1672     5.64237E-03     48.7346E-03    -65.9042E+06    -176.213E+06    -26.1987E+06     226.875E+03    -112.193E-03     222.681E-03    -110.488E-03     92.6489E-03    -112.788E-03     222.493E-03    -110.268E-03     90.0545E-03
            1673     4.83594E-03     48.6378E-03    -71.3447E+06    -188.181E+06    -37.0357E+06     443.860E+03    -111.785E-03     222.248E-03    -110.464E-03     80.2323E-03    -112.201E-03     221.851E-03    -110.273E-03     78.1228E-03
            1674     4.03026E-03     48.5555E-03    -77.2822E+06    -204.556E+06    -47.9647E+06     477.367E+03    -111.431E-03     221.868E-03    -110.437E-03     67.5827E-03    -111.705E-03     221.281E-03    -110.268E-03     65.9070E-03
            1675     3.22411E-03     48.4864E-03    -83.0441E+06    -218.088E+06    -60.7128E+06     375.996E+03    -111.015E-03     221.410E-03    -110.394E-03     54.5539E-03    -111.182E-03     220.684E-03    -110.261E-03     53.2668E-03
            1676     2.41809E-03     48.4333E-03    -88.1584E+06    -227.584E+06    -74.3759E+06     235.222E+03    -110.685E-03     221.034E-03    -110.349E-03     41.4262E-03    -110.774E-03     220.218E-03    -110.263E-03     40.4896E-03
            1677     1.61212E-03     48.3938E-03    -92.1861E+06    -234.992E+06    -85.5246E+06     100.273E+03    -110.481E-03     220.795E-03    -110.313E-03     28.0572E-03    -110.517E-03     219.917E-03    -110.267E-03     27.4391E-03
            1678     805.831E-06     48.3701E-03    -94.8050E+06    -239.914E+06    -93.0618E+06    -48.7471E+03    -110.264E-03     220.630E-03    -110.367E-03     15.0510E-03    -110.267E-03     219.716E-03    -110.347E-03     14.7209E-03
            1679     15.3159E-03     49.6462E-03    -5.69387E+06     131.217E+06     98.1265E+06    -29.0777E+03    -110.429E-03     220.842E-03    -110.414E-03     117.308E-03    -115.569E-03     226.144E-03    -110.105E-03     111.794E-03
            1680     14.5110E-03     49.4421E-03    -11.0022E+06     133.342E+06     102.173E+06    -67.7248E+03    -111.323E-03     221.756E-03    -110.433E-03     179.453E-03    -119.380E-03     229.951E-03    -110.099E-03     171.582E-03
            1681     13.7055E-03     49.2488E-03    -16.9652E+06     122.880E+06     95.8594E+06     87.2819E+03    -112.549E-03     222.989E-03    -110.440E-03     194.263E-03    -120.690E-03     231.228E-03    -110.114E-03     185.356E-03
            1682     12.8978E-03     49.0153E-03    -23.5659E+06     112.602E+06     76.9280E+06     192.681E+03    -114.439E-03     224.831E-03    -110.392E-03     208.731E-03    -122.447E-03     232.932E-03    -110.137E-03     199.110E-03
            1683     12.0925E-03     48.7880E-03    -28.8949E+06     94.3201E+06     44.8997E+06     302.329E+03    -114.556E-03     224.846E-03    -110.290E-03     197.054E-03    -121.012E-03     231.404E-03    -110.161E-03     188.019E-03
            1684     11.2850E-03     48.5819E-03    -33.5154E+06     57.0181E+06     23.0553E+06     480.021E+03    -114.201E-03     224.468E-03    -110.267E-03     176.831E-03    -118.967E-03     229.251E-03    -110.186E-03     168.889E-03
            1685     10.4794E-03     48.3988E-03    -37.7832E+06     1.96437E+06     13.3052E+06     739.332E+03    -114.043E-03     224.364E-03    -110.320E-03     160.613E-03    -117.573E-03     227.727E-03    -110.202E-03     153.714E-03
            1686     9.67275E-03     48.2281E-03    -41.9585E+06    -52.0469E+06     4.78404E+06     721.139E+03    -114.028E-03     224.396E-03    -110.368E-03     149.064E-03    -116.683E-03     226.704E-03    -110.208E-03     143.079E-03
            1687     8.86711E-03     48.0693E-03    -46.0721E+06    -89.7399E+06     1.58994E+03     627.198E+03    -113.792E-03     224.201E-03    -110.408E-03     138.564E-03    -115.808E-03     225.734E-03    -110.212E-03     133.404E-03
            1688     8.06057E-03     47.9217E-03    -50.2831E+06    -117.283E+06    -4.98724E+06     563.266E+03    -113.476E-03     223.910E-03    -110.434E-03     127.764E-03    -114.995E-03     224.849E-03    -110.216E-03     123.352E-03
            1689     7.25477E-03     47.7860E-03    -54.8538E+06    -139.118E+06    -9.85682E+06     651.861E+03    -113.106E-03     223.557E-03    -110.451E-03     116.385E-03    -114.239E-03     224.030E-03    -110.219E-03     112.649E-03
            1690     6.44858E-03     47.6632E-03    -60.1132E+06    -159.529E+06    -16.6350E+06     824.086E+03    -112.657E-03     223.112E-03    -110.454E-03     104.585E-03    -113.485E-03     223.208E-03    -110.219E-03     101.462E-03
            1691     5.64230E-03     47.5529E-03    -65.9898E+06    -176.399E+06    -26.8097E+06     327.953E+03    -112.196E-03     222.632E-03    -110.436E-03     92.4341E-03    -112.789E-03     222.442E-03    -110.218E-03     89.8432E-03
            1692     4.83658E-03     47.4566E-03    -71.7913E+06     -188.46E+06    -38.0498E+06     239.850E+03    -111.790E-03     222.190E-03    -110.400E-03     80.0638E-03    -112.206E-03     221.792E-03    -110.213E-03     77.9546E-03
            1693     4.03035E-03     47.3736E-03    -77.1908E+06    -204.170E+06    -48.2941E+06     461.290E+03    -111.346E-03     221.716E-03    -110.370E-03     67.3909E-03    -111.619E-03     221.131E-03    -110.204E-03     65.7178E-03
            1694     3.22447E-03     47.3056E-03    -82.8436E+06    -217.729E+06    -60.4792E+06     391.626E+03    -110.923E-03     221.258E-03    -110.335E-03     54.4366E-03    -111.090E-03     220.533E-03    -110.202E-03     53.1522E-03
            1695     2.41814E-03     47.2519E-03    -87.9925E+06    -227.106E+06    -73.9485E+06     341.390E+03    -110.704E-03     220.982E-03    -110.279E-03     41.3333E-03    -110.793E-03     220.167E-03    -110.191E-03     40.3986E-03
            1696     1.61224E-03     47.2125E-03    -91.9543E+06    -234.617E+06    -85.2670E+06     165.894E+03    -110.449E-03     220.657E-03    -110.208E-03     27.9880E-03    -110.484E-03     219.780E-03    -110.161E-03     27.3727E-03
            1697     806.662E-06     47.1890E-03    -94.8685E+06    -239.895E+06    -93.3744E+06     129.470E+03    -110.197E-03     220.382E-03    -110.185E-03     15.3585E-03    -110.200E-03     219.468E-03    -110.167E-03     15.0319E-03
            1698     15.3197E-03     48.4585E-03    -4.93729E+06     131.835E+06     98.8245E+06    -14.8038E+03    -110.370E-03     220.733E-03    -110.363E-03     116.868E-03    -115.441E-03     225.968E-03    -110.053E-03     111.423E-03
            1699     14.5128E-03     48.2657E-03    -10.5516E+06     133.469E+06     102.256E+06    -141.918E+03    -110.664E-03     221.065E-03    -110.401E-03     180.357E-03    -118.703E-03     229.244E-03    -110.068E-03     172.549E-03
            1700     13.7036E-03     48.0637E-03    -17.2662E+06     122.724E+06     95.7015E+06     15.7527E+03    -112.595E-03     223.024E-03    -110.429E-03     195.383E-03    -120.781E-03     231.307E-03    -110.104E-03     186.459E-03
            1701     12.8993E-03     47.8350E-03    -23.7020E+06     112.147E+06     76.2489E+06     10.2740E+03    -114.381E-03     224.763E-03    -110.381E-03     208.838E-03    -122.391E-03     232.865E-03    -110.128E-03     199.220E-03
            1702     12.0913E-03     47.6054E-03    -29.6746E+06     94.1308E+06     43.8789E+06     228.009E+03    -114.655E-03     224.934E-03    -110.278E-03     197.600E-03    -121.130E-03     231.510E-03    -110.153E-03     188.548E-03
            1703     11.2860E-03     47.4007E-03    -34.2717E+06     57.0940E+06     22.3755E+06     576.202E+03    -114.346E-03     224.595E-03    -110.249E-03     176.942E-03    -119.115E-03     229.380E-03    -110.170E-03     168.995E-03
            1704     10.4791E-03     47.2165E-03    -38.0763E+06     1.14736E+06     12.7952E+06     613.839E+03    -114.129E-03     224.424E-03    -110.295E-03     160.724E-03    -117.659E-03     227.786E-03    -110.177E-03     153.817E-03
            1705     9.67363E-03     47.0466E-03    -41.8338E+06    -51.0050E+06     5.45608E+06     884.525E+03    -113.992E-03     224.334E-03    -110.342E-03     148.969E-03    -116.645E-03     226.641E-03    -110.180E-03     142.996E-03
            1706     8.86684E-03     46.8877E-03    -45.9357E+06    -89.0157E+06     284.639E+03     752.496E+03    -113.770E-03     224.150E-03    -110.380E-03     138.434E-03    -115.781E-03     225.681E-03    -110.183E-03     133.283E-03
            1707     8.06112E-03     46.7400E-03    -50.3060E+06    -117.012E+06    -5.01085E+06     450.705E+03    -113.529E-03     223.928E-03    -110.399E-03     127.561E-03    -115.047E-03     224.867E-03    -110.182E-03     123.145E-03
            1708     7.25477E-03     46.6045E-03    -55.1215E+06    -139.186E+06    -10.2353E+06     491.220E+03    -113.156E-03     223.560E-03    -110.403E-03     116.060E-03    -114.286E-03     224.029E-03    -110.173E-03     112.326E-03
            1709     6.44887E-03     46.4815E-03    -60.2461E+06    -159.620E+06    -16.3567E+06     680.353E+03    -112.703E-03     223.099E-03    -110.396E-03     104.245E-03    -113.531E-03     223.193E-03    -110.159E-03     101.118E-03
            1710     5.64312E-03     46.3716E-03    -65.7291E+06    -175.205E+06    -25.7800E+06     863.385E+03    -112.207E-03     222.570E-03    -110.363E-03     92.1691E-03    -112.800E-03     222.383E-03    -110.143E-03     89.5898E-03
            1711     4.83673E-03     46.2752E-03    -71.3525E+06    -188.258E+06    -38.1141E+06     415.036E+03    -111.677E-03     221.995E-03    -110.318E-03     79.9439E-03    -112.090E-03     221.597E-03    -110.132E-03     77.8421E-03
            1712     4.03090E-03     46.1924E-03    -77.2084E+06    -204.290E+06    -48.5899E+06     209.379E+03    -111.216E-03     221.511E-03    -110.296E-03     67.2562E-03    -111.488E-03     220.925E-03    -110.131E-03     65.5850E-03
            1713     3.22433E-03     46.1249E-03    -82.6589E+06    -217.340E+06    -60.3045E+06     351.602E+03    -110.921E-03     221.178E-03    -110.258E-03     54.3757E-03    -111.087E-03     220.454E-03    -110.124E-03     53.0920E-03
            1714     2.41868E-03     46.0701E-03    -87.8762E+06    -226.755E+06    -73.7404E+06     318.329E+03    -110.599E-03     220.794E-03    -110.195E-03     41.2555E-03    -110.688E-03     219.981E-03    -110.108E-03     40.3226E-03
            1715     1.61247E-03     46.0323E-03    -92.2118E+06    -234.366E+06    -84.9715E+06     263.692E+03    -110.299E-03     220.451E-03    -110.151E-03     27.9132E-03    -110.336E-03     219.575E-03    -110.103E-03     27.3009E-03
            1716     805.398E-06     46.0078E-03    -94.5092E+06    -239.125E+06    -92.4781E+06     236.988E+03    -110.274E-03     220.311E-03    -110.037E-03     15.1530E-03    -110.277E-03     219.400E-03    -110.016E-03     14.8238E-03
            1717     15.3185E-03     47.2823E-03    -5.10970E+06     131.632E+06     98.5474E+06    -83.8953E+03    -109.896E-03     220.272E-03    -110.376E-03     116.396E-03    -114.964E-03     225.503E-03    -110.066E-03     110.990E-03
            1718     14.5092E-03     47.0816E-03     -11.126E+06     133.209E+06     101.773E+06     159.196E+03    -111.024E-03     221.446E-03    -110.422E-03     181.766E-03    -119.115E-03     229.676E-03    -110.090E-03     173.910E-03
            1719     13.7062E-03     46.8827E-03    -17.4892E+06     123.021E+06     95.6108E+06    -230.318E+03    -112.730E-03     223.170E-03    -110.440E-03     195.295E-03    -120.916E-03     231.454E-03    -110.115E-03     186.363E-03
            1720     12.8972E-03     46.6530E-03    -24.0055E+06     111.866E+06     76.1486E+06     212.152E+03    -114.353E-03     224.744E-03    -110.391E-03     208.872E-03    -122.343E-03     232.826E-03    -110.138E-03     199.274E-03
            1721     12.0923E-03     46.4234E-03    -29.6203E+06     94.1219E+06     43.8808E+06     571.058E+03    -114.906E-03     225.187E-03    -110.282E-03     197.625E-03    -121.384E-03     231.768E-03    -110.156E-03     188.551E-03
            1722     11.2853E-03     46.2186E-03    -34.1102E+06     57.0866E+06     21.8892E+06     606.257E+03    -114.529E-03     224.763E-03    -110.234E-03     176.791E-03    -119.291E-03     229.544E-03    -110.158E-03     168.833E-03
            1723     10.4799E-03     46.0345E-03    -38.0364E+06     800.738E+03     12.4321E+06     509.589E+03    -114.206E-03     224.476E-03    -110.270E-03     160.529E-03    -117.731E-03     227.832E-03    -110.153E-03     153.619E-03
            1724     9.67317E-03     45.8648E-03    -41.8350E+06    -50.8256E+06     5.71553E+06     643.084E+03    -114.026E-03     224.336E-03    -110.311E-03     148.644E-03    -116.673E-03     226.638E-03    -110.148E-03     142.672E-03
            1725     8.86768E-03     45.7061E-03    -45.8264E+06    -87.8765E+06     699.302E+03     771.095E+03    -113.886E-03     224.222E-03    -110.336E-03     138.218E-03    -115.897E-03     225.757E-03    -110.139E-03     133.063E-03
            1726     8.06129E-03     45.5584E-03    -50.2486E+06    -116.647E+06    -5.22031E+06     548.563E+03    -113.626E-03     223.962E-03    -110.337E-03     127.213E-03    -115.140E-03     224.899E-03    -110.121E-03     122.802E-03
            1727     7.25567E-03     45.4229E-03    -55.0254E+06    -139.390E+06    -10.4484E+06     493.892E+03    -113.189E-03     223.514E-03    -110.325E-03     115.709E-03    -114.315E-03     223.980E-03    -110.096E-03     111.977E-03
            1728     6.44962E-03     45.3000E-03    -60.2580E+06    -159.581E+06    -16.5907E+06     594.494E+03    -112.665E-03     222.971E-03    -110.306E-03     103.946E-03    -113.490E-03     223.064E-03    -110.070E-03     100.823E-03
            1729     5.64329E-03     45.1903E-03    -65.7031E+06    -174.840E+06    -25.6077E+06     649.572E+03    -112.121E-03     222.391E-03    -110.269E-03     91.9737E-03    -112.713E-03     222.203E-03    -110.049E-03     89.3990E-03
            1730     4.83753E-03     45.0940E-03    -71.3941E+06    -187.407E+06    -37.7787E+06     693.778E+03    -111.567E-03     221.790E-03    -110.223E-03     79.6379E-03    -111.980E-03     221.393E-03    -110.037E-03     77.5457E-03
            1731     4.03074E-03     45.0119E-03    -76.9485E+06    -203.862E+06    -48.9270E+06     388.863E+03    -111.153E-03     221.347E-03    -110.194E-03     67.0746E-03    -111.423E-03     220.761E-03    -110.031E-03     65.4099E-03
            1732     3.22518E-03     44.9430E-03    -82.7194E+06    -217.364E+06    -60.5268E+06     183.033E+03    -110.823E-03     220.974E-03    -110.151E-03     54.1829E-03    -110.988E-03     220.250E-03    -110.019E-03     52.9002E-03
            1733     2.41857E-03     44.8901E-03    -87.8981E+06    -226.463E+06    -73.6938E+06     311.686E+03    -110.435E-03     220.533E-03    -110.098E-03     40.9758E-03    -110.525E-03     219.720E-03    -110.010E-03     40.0455E-03
            1734     1.61216E-03     44.8509E-03    -91.5515E+06    -233.806E+06    -84.9026E+06     116.097E+03    -110.230E-03     220.286E-03    -110.056E-03     27.8122E-03    -110.265E-03     219.412E-03    -110.009E-03     27.1978E-03
            1735     807.180E-06     44.8273E-03    -94.1212E+06    -238.598E+06    -92.2264E+06    -135.983E+03    -110.045E-03     220.111E-03    -110.067E-03     15.2138E-03    -110.047E-03     219.201E-03    -110.046E-03     14.8813E-03
            1736     15.3157E-03     46.1005E-03    -5.39810E+06     131.876E+06     98.3647E+06    -226.293E+03    -109.965E-03     220.404E-03    -110.440E-03     117.046E-03    -115.098E-03     225.702E-03    -110.131E-03     111.554E-03
            1737     14.5126E-03     45.8987E-03    -11.1039E+06     133.835E+06     102.180E+06    -132.930E+03    -111.845E-03     222.310E-03    -110.465E-03     181.413E-03    -119.951E-03     230.555E-03    -110.132E-03     173.480E-03
            1738     13.7032E-03     45.7009E-03    -17.4532E+06     123.202E+06     95.7602E+06     14.8113E+03    -112.724E-03     223.184E-03    -110.461E-03     195.202E-03    -120.891E-03     231.449E-03    -110.135E-03     186.283E-03
            1739     12.8990E-03     45.4711E-03    -23.9109E+06     111.205E+06     75.7954E+06     185.573E+03    -114.733E-03     225.133E-03    -110.400E-03     209.064E-03    -122.741E-03     233.231E-03    -110.148E-03     199.415E-03
            1740     12.0913E-03     45.2412E-03    -29.3141E+06     93.6361E+06     43.6136E+06     714.974E+03    -115.095E-03     225.367E-03    -110.272E-03     197.276E-03    -121.560E-03     231.934E-03    -110.147E-03     188.192E-03
            1741     11.2863E-03     45.0362E-03    -33.9133E+06     57.9242E+06     22.3856E+06     889.756E+03    -114.639E-03     224.852E-03    -110.213E-03     176.577E-03    -119.398E-03     229.632E-03    -110.136E-03     168.614E-03
            1742     10.4797E-03     44.8526E-03    -38.1381E+06     1.83445E+06     12.6380E+06     615.168E+03    -114.306E-03     224.541E-03    -110.235E-03     160.037E-03    -117.825E-03     227.895E-03    -110.119E-03     153.131E-03
            1743     9.67432E-03     44.6831E-03    -42.0276E+06    -51.3656E+06     4.89221E+06     408.122E+03    -114.179E-03     224.437E-03    -110.258E-03     148.349E-03    -116.823E-03     226.735E-03    -110.098E-03     142.367E-03
            1744     8.86779E-03     44.5243E-03    -45.9180E+06    -87.9111E+06     514.191E+03     531.856E+03    -114.052E-03     224.316E-03    -110.263E-03     137.773E-03    -116.061E-03     225.848E-03    -110.067E-03     132.610E-03
            1745     8.06239E-03     44.3766E-03    -50.3393E+06    -115.853E+06    -5.01961E+06     750.885E+03    -113.641E-03     223.887E-03    -110.245E-03     126.764E-03    -115.151E-03     224.821E-03    -110.029E-03     122.363E-03
            1746     7.25616E-03     44.2415E-03    -55.1763E+06    -139.494E+06    -10.8609E+06     527.364E+03    -113.139E-03     223.360E-03    -110.221E-03     115.403E-03    -114.262E-03     223.824E-03    -109.993E-03     111.676E-03
            1747     6.45016E-03     44.1187E-03    -60.1097E+06    -159.457E+06    -16.5500E+06     464.159E+03    -112.594E-03     222.790E-03    -110.196E-03     103.621E-03    -113.414E-03     222.879E-03    -109.960E-03     100.507E-03
            1748     5.64428E-03     44.0095E-03    -65.6353E+06    -174.784E+06    -25.6145E+06     619.104E+03    -112.029E-03     222.183E-03    -110.153E-03     91.6242E-03    -112.619E-03     221.993E-03    -109.933E-03     89.0548E-03
            1749     4.83762E-03     43.9131E-03    -71.3476E+06    -186.957E+06    -37.5492E+06     519.033E+03    -111.547E-03     221.641E-03    -110.094E-03     79.2572E-03    -111.959E-03     221.245E-03    -109.907E-03     77.1674E-03
            1750     4.03204E-03     43.8312E-03    -77.0327E+06    -203.238E+06    -48.5062E+06     542.519E+03    -111.076E-03     221.122E-03    -110.046E-03     66.7446E-03    -111.346E-03     220.538E-03    -109.882E-03     65.0856E-03
            1751     3.22510E-03     43.7624E-03    -82.5699E+06    -217.032E+06    -60.6705E+06     480.881E+03    -110.609E-03     220.608E-03    -109.999E-03     53.8690E-03    -110.773E-03     219.884E-03    -109.868E-03     52.5970E-03
            1752     2.41917E-03     43.7096E-03    -87.3538E+06    -226.055E+06    -73.8149E+06     79.5160E+03    -110.308E-03     220.256E-03    -109.948E-03     40.7538E-03    -110.394E-03     219.444E-03    -109.862E-03     39.8235E-03
            1753     1.61304E-03     43.6704E-03    -91.3039E+06    -233.412E+06    -84.9464E+06    -76.9830E+03    -110.005E-03     219.931E-03    -109.927E-03     27.7263E-03    -110.038E-03     219.059E-03    -109.881E-03     27.1114E-03
            1754     805.360E-06     43.6470E-03    -94.0705E+06    -238.362E+06    -92.4082E+06     26.7678E+03    -109.986E-03     219.903E-03    -109.917E-03     15.2139E-03    -109.989E-03     218.994E-03    -109.897E-03     14.8867E-03
            1755     15.3153E-03     44.9129E-03    -4.92095E+06     132.393E+06     98.7749E+06    -37.0215E+03    -109.799E-03     220.251E-03    -110.452E-03     117.022E-03    -114.924E-03     225.542E-03    -110.143E-03     111.544E-03
            1756     14.5090E-03     44.7158E-03    -11.4133E+06     133.418E+06     101.498E+06    -276.026E+03    -111.546E-03     222.026E-03    -110.480E-03     179.565E-03    -119.613E-03     230.231E-03    -110.149E-03     171.662E-03
            1757     13.7050E-03     44.5202E-03    -18.0079E+06     122.787E+06     95.1849E+06    -331.805E+03    -113.035E-03     223.506E-03    -110.471E-03     194.920E-03    -121.195E-03     231.762E-03    -110.147E-03     185.956E-03
            1758     12.8969E-03     44.2866E-03    -24.2131E+06     110.873E+06     75.7587E+06     218.063E+03    -115.016E-03     225.409E-03    -110.393E-03     208.631E-03    -123.014E-03     233.495E-03    -110.140E-03     198.954E-03
            1759     12.0930E-03     44.0600E-03    -30.0911E+06     93.1296E+06     44.0541E+06     564.483E+03    -115.316E-03     225.563E-03    -110.247E-03     196.788E-03    -121.775E-03     232.118E-03    -110.118E-03     187.686E-03
            1760     11.2858E-03     43.8534E-03    -34.3483E+06     59.0891E+06     23.2672E+06     566.153E+03    -114.718E-03     224.890E-03    -110.172E-03     176.021E-03    -119.476E-03     229.669E-03    -110.091E-03     168.052E-03
            1761     10.4808E-03     43.6706E-03    -37.9129E+06     1.97586E+06     12.4724E+06     628.082E+03    -114.391E-03     224.566E-03    -110.175E-03     159.453E-03    -117.898E-03     227.910E-03    -110.061E-03     152.548E-03
            1762     9.67424E-03     43.5014E-03    -41.8292E+06    -51.3607E+06     4.79000E+06     421.134E+03    -114.393E-03     224.570E-03    -110.177E-03     147.874E-03    -117.034E-03     226.867E-03    -110.018E-03     141.879E-03
            1763     8.86940E-03     43.3420E-03    -45.8833E+06    -88.0829E+06     388.724E+03     665.217E+03    -114.080E-03     224.242E-03    -110.162E-03     137.273E-03    -116.080E-03     225.766E-03    -109.966E-03     132.120E-03
            1764     8.06308E-03     43.1957E-03    -50.1984E+06    -115.776E+06    -4.76424E+06     805.677E+03    -113.624E-03     223.756E-03    -110.132E-03     126.434E-03    -115.130E-03     224.687E-03    -109.915E-03     122.039E-03
            1765     7.25725E-03     43.0598E-03    -54.8129E+06    -138.130E+06    -10.3363E+06     637.545E+03    -113.104E-03     223.199E-03    -110.095E-03     114.960E-03    -114.223E-03     223.663E-03    -109.867E-03     111.246E-03
            1766     6.45118E-03     42.9381E-03    -60.1781E+06    -159.741E+06    -16.9978E+06     270.061E+03    -112.529E-03     222.583E-03    -110.055E-03     103.134E-03    -113.344E-03     222.668E-03    -109.821E-03     100.026E-03
            1767     5.64474E-03     42.8282E-03    -65.6247E+06    -174.775E+06    -25.5249E+06     430.721E+03    -111.982E-03     221.980E-03    -109.998E-03     91.1703E-03    -112.569E-03     221.788E-03    -109.777E-03     88.6034E-03
            1768     4.83901E-03     42.7329E-03    -71.2435E+06    -186.584E+06    -37.4296E+06     621.075E+03    -111.464E-03     221.385E-03    -109.920E-03     78.9265E-03    -111.874E-03     220.988E-03    -109.734E-03     76.8443E-03
            1769     4.03221E-03     42.6500E-03    -76.9456E+06    -202.889E+06    -48.4985E+06     468.463E+03    -110.954E-03     220.809E-03    -109.855E-03     66.3574E-03    -111.223E-03     220.225E-03    -109.692E-03     64.7043E-03
            1770     3.22638E-03     42.5831E-03    -82.2820E+06    -216.395E+06    -60.3441E+06     257.042E+03    -110.418E-03     220.216E-03    -109.798E-03     53.5546E-03    -110.581E-03     219.493E-03    -109.667E-03     52.2854E-03
            1771     2.41937E-03     42.5286E-03    -87.3138E+06    -225.639E+06    -73.5947E+06     145.013E+03    -110.070E-03     219.821E-03    -109.750E-03     40.6558E-03    -110.157E-03     219.010E-03    -109.665E-03     39.7315E-03
            1772     1.61275E-03     42.4912E-03    -91.4920E+06    -233.135E+06    -84.6632E+06     161.994E+03    -109.917E-03     219.617E-03    -109.700E-03     27.3471E-03    -109.952E-03     218.745E-03    -109.652E-03     26.7379E-03
            1773     807.057E-06     42.4666E-03    -94.3739E+06    -237.982E+06    -92.2744E+06     403.254E+03    -109.841E-03     219.368E-03    -109.526E-03     15.1575E-03    -109.846E-03     218.460E-03    -109.506E-03     14.8404E-03
            1774     15.3189E-03     43.7322E-03    -4.56696E+06     132.595E+06     98.9486E+06     275.951E+03    -109.618E-03     220.026E-03    -110.407E-03     117.049E-03    -114.698E-03     225.273E-03    -110.098E-03     111.640E-03
            1775     14.5113E-03     43.5353E-03    -11.4405E+06     133.122E+06     101.108E+06    -133.248E+03    -110.894E-03     221.351E-03    -110.457E-03     179.837E-03    -118.935E-03     229.530E-03    -110.128E-03     171.976E-03
            1776     13.7035E-03     43.3351E-03    -18.0647E+06     122.757E+06     94.6749E+06     85.9313E+03    -113.441E-03     223.894E-03    -110.453E-03     194.658E-03    -121.605E-03     232.155E-03    -110.131E-03     185.642E-03
            1777     12.8998E-03     43.1066E-03    -24.8158E+06     110.448E+06     75.6960E+06    -192.841E+03    -115.268E-03     225.622E-03    -110.353E-03     207.983E-03    -123.254E-03     233.691E-03    -110.099E-03     198.285E-03
            1778     12.0918E-03     42.8754E-03    -29.4308E+06     92.9668E+06     44.5569E+06    -73.5452E+03    -115.439E-03     225.628E-03    -110.189E-03     196.079E-03    -121.883E-03     232.168E-03    -110.058E-03     186.964E-03
            1779     11.2882E-03     42.6721E-03    -33.5720E+06     58.5665E+06     23.6043E+06     644.308E+03    -114.827E-03     224.922E-03    -110.095E-03     175.170E-03    -119.564E-03     229.680E-03    -110.013E-03     167.205E-03
            1780     10.4808E-03     42.4887E-03    -37.9859E+06     3.02893E+06     12.7456E+06     802.805E+03    -114.507E-03     224.586E-03    -110.078E-03     158.959E-03    -118.008E-03     227.926E-03    -109.964E-03     152.055E-03
            1781     9.67649E-03     42.3186E-03    -42.0578E+06    -51.1989E+06     4.51939E+06     494.154E+03    -114.363E-03     224.427E-03    -110.064E-03     147.287E-03    -116.993E-03     226.713E-03    -109.906E-03     141.308E-03
            1782     8.86977E-03     42.1613E-03    -46.1417E+06    -88.4121E+06     170.116E+03      593.29E+03    -114.035E-03     224.076E-03    -110.040E-03     136.843E-03    -116.030E-03     225.592E-03    -109.844E-03     131.699E-03
            1783     8.06423E-03     42.0136E-03    -50.1850E+06    -115.484E+06    -4.91502E+06     438.024E+03    -113.634E-03     223.629E-03    -109.995E-03     125.981E-03    -115.135E-03     224.556E-03    -109.780E-03     121.587E-03
            1784     7.25831E-03     41.8793E-03    -54.6477E+06    -137.618E+06    -9.72460E+06     576.675E+03    -113.080E-03     223.024E-03    -109.944E-03     114.489E-03    -114.194E-03     223.483E-03    -109.714E-03     110.785E-03
            1785     6.45218E-03     41.7569E-03    -59.7773E+06    -158.619E+06    -16.5851E+06     627.836E+03    -112.518E-03     222.399E-03    -109.881E-03     102.745E-03    -113.330E-03     222.485E-03    -109.648E-03     99.6478E-03
            1786     5.64632E-03     41.6482E-03    -65.6433E+06    -174.947E+06    -25.9597E+06     340.789E+03    -111.931E-03     221.731E-03    -109.800E-03     90.7038E-03    -112.515E-03     221.536E-03    -109.581E-03     88.1434E-03
            1787     4.83955E-03     41.5521E-03    -71.0887E+06    -186.488E+06    -37.5408E+06     548.016E+03    -111.294E-03     221.000E-03    -109.706E-03     78.4909E-03    -111.700E-03     220.600E-03    -109.520E-03     76.4189E-03
            1788     4.03362E-03     41.4707E-03    -76.5521E+06    -202.269E+06    -48.4302E+06     438.159E+03    -110.745E-03     220.378E-03    -109.632E-03     66.0113E-03    -111.012E-03     219.795E-03    -109.470E-03     64.3656E-03
            1789     3.22663E-03     41.4025E-03    -82.4735E+06    -215.951E+06    -60.3693E+06     213.947E+03    -110.292E-03     219.850E-03    -109.558E-03     53.2213E-03    -110.456E-03     219.129E-03    -109.427E-03     51.9562E-03
            1790     2.42027E-03     41.3503E-03    -87.5908E+06    -225.463E+06    -73.5213E+06     212.547E+03    -109.859E-03     219.344E-03    -109.485E-03     40.3523E-03    -109.947E-03     218.534E-03    -109.398E-03     39.4348E-03
            1791     1.61365E-03     41.3102E-03    -91.6755E+06    -232.889E+06    -84.6651E+06     339.550E+03    -109.612E-03     219.044E-03    -109.432E-03     27.4388E-03    -109.648E-03     218.173E-03    -109.385E-03     26.8385E-03
            1792     806.855E-06     41.2881E-03    -94.6358E+06    -237.482E+06    -92.5102E+06     295.384E+03    -109.580E-03     218.850E-03    -109.269E-03     15.2407E-03    -109.587E-03     217.946E-03    -109.250E-03     14.9220E-03
            1793     15.3175E-03     42.5541E-03    -4.68102E+06     132.605E+06     98.9968E+06     438.894E+03    -110.085E-03     220.500E-03    -110.415E-03     117.793E-03    -115.181E-03     225.763E-03    -110.105E-03     112.329E-03
            1794     14.5097E-03     42.3521E-03    -10.4794E+06     134.214E+06     102.224E+06     1.09278E+06    -111.915E-03     222.349E-03    -110.434E-03     181.310E-03    -119.981E-03     230.558E-03    -110.102E-03     173.360E-03
            1795     13.7056E-03     42.1530E-03    -17.2311E+06     123.478E+06     95.5144E+06     664.333E+03    -113.682E-03     224.074E-03    -110.392E-03     193.530E-03    -121.815E-03     232.307E-03    -110.068E-03     184.515E-03
            1796     12.8983E-03     41.9221E-03    -23.7963E+06     111.273E+06     75.6764E+06    -106.060E+03    -115.328E-03     225.597E-03    -110.269E-03     207.007E-03    -123.278E-03     233.637E-03    -110.017E-03     197.312E-03
            1797     12.0955E-03     41.6941E-03    -30.0107E+06     92.3916E+06     42.5606E+06    -268.159E+03    -115.436E-03     225.522E-03    -110.087E-03     195.533E-03    -121.863E-03     232.048E-03    -109.964E-03     186.422E-03
            1798     11.2874E-03     41.4894E-03    -34.6996E+06     57.0647E+06     21.7499E+06     320.366E+03    -114.918E-03     224.901E-03    -109.983E-03     174.735E-03    -119.644E-03     229.644E-03    -109.907E-03     166.768E-03
            1799     10.4838E-03     41.3064E-03    -38.1392E+06     4.06060E+06     13.3659E+06     576.079E+03    -114.538E-03     224.497E-03    -109.958E-03     158.562E-03    -118.035E-03     227.833E-03    -109.842E-03     151.662E-03
            1800     9.67654E-03     41.1376E-03    -41.7779E+06    -50.4008E+06     4.84738E+06     627.150E+03    -114.294E-03     224.225E-03    -109.931E-03     146.937E-03    -116.913E-03     226.504E-03    -109.774E-03     140.979E-03
            1801     8.87161E-03     40.9792E-03    -45.6266E+06    -88.4168E+06     292.223E+03     181.204E+03    -114.097E-03     223.990E-03    -109.893E-03     136.320E-03    -116.082E-03     225.498E-03    -109.697E-03     131.175E-03
            1802     8.06562E-03     40.8329E-03    -49.9323E+06    -114.582E+06    -4.46859E+06     359.125E+03    -113.617E-03     223.445E-03    -109.828E-03     125.312E-03    -115.111E-03     224.368E-03    -109.612E-03     120.930E-03
            1803     7.25956E-03     40.6982E-03    -54.8564E+06    -138.164E+06    -10.2277E+06     534.738E+03    -113.031E-03     222.785E-03    -109.755E-03     113.853E-03    -114.138E-03     223.237E-03    -109.526E-03     110.160E-03
            1804     6.45357E-03     40.5766E-03    -60.1249E+06    -158.793E+06    -16.8514E+06     575.870E+03    -112.430E-03     222.104E-03    -109.674E-03     102.178E-03    -113.239E-03     222.185E-03    -109.441E-03     99.0907E-03
            1805     5.64723E-03     40.4675E-03    -65.3979E+06    -174.168E+06    -26.0163E+06     535.233E+03    -111.783E-03     221.357E-03    -109.575E-03     90.3012E-03    -112.362E-03     221.162E-03    -109.357E-03     87.7565E-03
            1806     4.84131E-03     40.3729E-03    -71.2564E+06    -186.402E+06    -37.5999E+06     533.408E+03    -111.149E-03     220.615E-03    -109.466E-03     78.1362E-03    -111.554E-03     220.214E-03    -109.281E-03     76.0732E-03
            1807     4.03416E-03     40.2907E-03    -77.2157E+06    -201.709E+06    -49.0825E+06     562.625E+03    -110.542E-03     219.916E-03    -109.374E-03     65.6223E-03    -110.810E-03     219.336E-03    -109.215E-03     63.9879E-03
            1808     3.22782E-03     40.2240E-03    -82.6579E+06    -215.245E+06    -60.8467E+06     359.533E+03    -110.084E-03     219.368E-03    -109.284E-03     52.9557E-03    -110.247E-03     218.650E-03    -109.156E-03     51.7009E-03
            1809     2.42108E-03     40.1701E-03    -87.8702E+06    -225.383E+06    -73.8326E+06     287.461E+03    -109.638E-03     218.829E-03    -109.190E-03     40.1107E-03    -109.726E-03     218.019E-03    -109.105E-03     39.2000E-03
            1810     1.61381E-03     40.1332E-03    -92.0692E+06    -232.646E+06    -85.1272E+06     340.728E+03    -109.183E-03     218.346E-03    -109.163E-03     27.3820E-03    -109.220E-03     217.478E-03    -109.118E-03     26.7874E-03
            1811     806.398E-06     40.1075E-03    -94.3662E+06    -236.782E+06    -92.8144E+06     398.242E+03    -109.180E-03     218.395E-03    -109.215E-03     15.1670E-03    -109.186E-03     217.495E-03    -109.199E-03     14.8517E-03
            1812     15.3148E-03     41.3707E-03    -5.59896E+06     131.926E+06     97.8772E+06    -52.7689E+03    -110.940E-03     221.348E-03    -110.408E-03     116.446E-03    -116.063E-03     226.635E-03    -110.102E-03     110.884E-03
            1813     14.5126E-03     41.1671E-03    -10.6655E+06     134.427E+06     102.305E+06     332.042E+03    -112.921E-03     223.292E-03    -110.371E-03     179.660E-03    -120.981E-03     231.495E-03    -110.039E-03     171.622E-03
            1814     13.7067E-03     40.9709E-03    -16.3949E+06     124.418E+06     96.4674E+06     679.720E+03    -113.707E-03     223.998E-03    -110.291E-03     192.588E-03    -121.785E-03     232.180E-03    -109.966E-03     183.601E-03
            1815     12.9027E-03     40.7398E-03    -23.1279E+06     112.015E+06     76.1382E+06     1.03571E+06    -115.134E-03     225.299E-03    -110.165E-03     207.145E-03    -123.063E-03     233.324E-03    -109.914E-03     197.500E-03
            1816     12.0941E-03     40.5118E-03    -29.3598E+06     93.1612E+06     43.4696E+06     931.928E+03    -115.510E-03     225.493E-03    -109.983E-03     195.307E-03    -121.921E-03     232.004E-03    -109.859E-03     186.220E-03
            1817     11.2911E-03     40.3069E-03    -33.8706E+06     57.8358E+06     22.2779E+06     93.5022E+03    -114.953E-03     224.819E-03    -109.866E-03     174.578E-03    -119.666E-03     229.553E-03    -109.789E-03     166.618E-03
            1818     10.4834E-03     40.1249E-03    -37.7284E+06     2.62972E+06     12.8787E+06     126.117E+03    -114.587E-03     224.413E-03    -109.826E-03     158.157E-03    -118.067E-03     227.731E-03    -109.711E-03     151.261E-03
            1819     9.67911E-03     39.9558E-03    -41.4799E+06    -49.6639E+06     5.51777E+06     589.167E+03    -114.449E-03     224.229E-03    -109.780E-03     146.389E-03    -117.061E-03     226.501E-03    -109.620E-03     140.430E-03
            1820     8.87275E-03     39.7981E-03    -45.7942E+06    -87.5239E+06     80.8502E+03     230.876E+03    -114.119E-03     223.831E-03    -109.712E-03     135.768E-03    -116.096E-03     225.335E-03    -109.518E-03     130.637E-03
            1821     8.06723E-03     39.6517E-03    -50.3111E+06    -115.201E+06    -4.99459E+06     329.869E+03    -113.633E-03     223.257E-03    -109.625E-03     124.651E-03    -115.118E-03     224.169E-03    -109.409E-03     120.282E-03
            1822     7.26138E-03     39.5180E-03    -55.0772E+06    -137.858E+06    -10.5160E+06     644.348E+03    -112.988E-03     222.514E-03    -109.526E-03     113.231E-03    -114.090E-03     222.961E-03    -109.299E-03     109.551E-03
            1823     6.45524E-03     39.3961E-03    -60.3769E+06    -158.621E+06    -17.1753E+06     498.319E+03    -112.229E-03     221.656E-03    -109.427E-03     101.529E-03    -113.032E-03     221.732E-03    -109.196E-03     98.4605E-03
            1824     5.64885E-03     39.2885E-03    -66.0153E+06    -173.915E+06    -26.0688E+06     501.713E+03    -111.520E-03     220.844E-03    -109.324E-03     89.7830E-03    -112.097E-03     220.645E-03    -109.106E-03     87.2551E-03
            1825     4.84188E-03     39.1927E-03    -71.6058E+06    -186.359E+06    -37.4760E+06     773.997E+03    -110.940E-03     220.149E-03    -109.209E-03     77.7056E-03    -111.344E-03     219.746E-03    -109.023E-03     75.6571E-03
            1826     4.03585E-03     39.1126E-03    -77.1642E+06    -200.860E+06    -49.1911E+06     682.652E+03    -110.371E-03     219.468E-03    -109.097E-03     65.2740E-03    -110.637E-03     218.889E-03    -108.940E-03     63.6526E-03
            1827     3.22861E-03     39.0445E-03    -82.8615E+06    -214.706E+06    -61.3603E+06     357.725E+03    -109.756E-03     218.754E-03    -108.998E-03     52.7396E-03    -109.919E-03     218.039E-03    -108.874E-03     51.4935E-03
            1828     2.42145E-03     38.9928E-03    -88.0099E+06    -224.928E+06    -73.7741E+06     513.346E+03    -109.346E-03     218.261E-03    -108.915E-03     39.9331E-03    -109.435E-03     217.453E-03    -108.830E-03     39.0327E-03
            1829     1.61464E-03     38.9540E-03    -92.1003E+06    -231.895E+06    -85.2151E+06     455.160E+03    -109.149E-03     217.956E-03    -108.807E-03     27.1213E-03    -109.187E-03     217.091E-03    -108.764E-03     26.5310E-03
            1830     807.660E-06     38.9311E-03    -94.5577E+06    -236.384E+06    -92.8839E+06     528.450E+03    -108.722E-03     217.517E-03    -108.795E-03     14.8604E-03    -108.729E-03     216.619E-03    -108.780E-03     14.5544E-03
            1831     15.3204E-03     40.1873E-03    -5.44766E+06     132.214E+06     97.9978E+06    -85.6008E+03    -112.039E-03     222.369E-03    -110.330E-03     116.182E-03    -117.159E-03     227.655E-03    -110.023E-03     110.556E-03
            1832     14.5131E-03     39.9831E-03    -10.7821E+06     134.034E+06     101.806E+06    -633.615E+03    -112.292E-03     222.565E-03    -110.272E-03     179.246E-03    -120.324E-03     230.738E-03    -109.942E-03     171.264E-03
            1833     13.7088E-03     39.7881E-03    -17.4815E+06     123.033E+06     95.1753E+06     58.6892E+03    -113.409E-03     223.624E-03    -110.216E-03     193.610E-03    -121.501E-03     231.815E-03    -109.893E-03     184.640E-03
            1834     12.9006E-03     39.5582E-03    -23.4555E+06     111.920E+06     76.7281E+06     1.16144E+06    -115.611E-03     225.701E-03    -110.090E-03     207.784E-03    -123.573E-03     233.754E-03    -109.835E-03     198.088E-03
            1835     12.0981E-03     39.3283E-03    -28.2791E+06      94.316E+06     45.2313E+06     1.03603E+06    -115.683E-03     225.568E-03    -109.885E-03     195.042E-03    -122.072E-03     232.061E-03    -109.755E-03     185.960E-03
            1836     11.2901E-03     39.1258E-03    -32.9292E+06     58.9643E+06     23.2278E+06     634.628E+03    -115.079E-03     224.823E-03    -109.745E-03     174.226E-03    -119.778E-03     229.548E-03    -109.666E-03     166.276E-03
            1837     10.4864E-03     38.9422E-03    -37.4775E+06     3.00516E+06     12.6354E+06     698.143E+03    -114.801E-03     224.478E-03    -109.676E-03     157.604E-03    -118.267E-03     227.785E-03    -109.563E-03     150.719E-03
            1838     9.68000E-03     38.7746E-03    -41.8193E+06    -49.9052E+06     4.81130E+06     412.683E+03    -114.597E-03     224.196E-03    -109.599E-03     145.780E-03    -117.199E-03     226.459E-03    -109.442E-03     139.823E-03
            1839     8.87500E-03     38.6167E-03    -45.8322E+06    -86.5902E+06     241.611E+03     768.557E+03    -114.163E-03     223.667E-03    -109.504E-03     135.041E-03    -116.131E-03     225.164E-03    -109.311E-03     129.930E-03
            1840     8.06907E-03     38.4712E-03    -50.4945E+06    -116.066E+06    -5.83983E+06     564.214E+03    -113.562E-03     222.953E-03    -109.391E-03     124.025E-03    -115.035E-03     223.851E-03    -109.178E-03     119.678E-03
            1841     7.26323E-03     38.3374E-03    -55.2200E+06    -137.791E+06    -10.6341E+06     452.162E+03    -112.856E-03     222.132E-03    -109.276E-03     112.662E-03    -113.952E-03     222.573E-03    -109.049E-03     108.996E-03
            1842     6.45693E-03     38.2171E-03    -60.2009E+06    -157.202E+06    -16.4429E+06     772.517E+03    -112.101E-03     221.261E-03    -109.161E-03     101.013E-03    -112.900E-03     221.336E-03    -108.928E-03     97.9663E-03
            1843     5.65036E-03     38.1089E-03    -66.0480E+06    -174.123E+06    -26.0262E+06     593.867E+03    -111.369E-03     220.403E-03    -109.034E-03     89.1474E-03    -111.942E-03     220.199E-03    -108.816E-03     86.6357E-03
            1844     4.84390E-03     38.0147E-03    -71.6881E+06    -186.349E+06    -37.6294E+06     524.343E+03    -110.601E-03     219.508E-03    -108.907E-03     77.0590E-03    -111.000E-03     219.100E-03    -108.721E-03     75.0269E-03
            1845     4.03638E-03     37.9332E-03    -77.0417E+06    -200.435E+06    -48.8140E+06     635.125E+03    -109.997E-03     218.800E-03    -108.803E-03     64.8408E-03    -110.261E-03     218.220E-03    -108.644E-03     63.2312E-03
            1846     3.22972E-03     37.8676E-03    -82.5632E+06    -214.037E+06    -60.9047E+06     646.017E+03    -109.501E-03     218.204E-03    -108.703E-03     52.2717E-03    -109.663E-03     217.490E-03    -108.578E-03     51.0386E-03
            1847     2.42227E-03     37.8146E-03    -87.5339E+06    -224.532E+06    -73.5787E+06     384.390E+03    -109.104E-03     217.702E-03    -108.598E-03     39.6759E-03    -109.190E-03     216.894E-03    -108.514E-03     38.7801E-03
            1848     1.61486E-03     37.7768E-03    -91.5295E+06    -230.977E+06    -84.5492E+06     358.475E+03    -108.882E-03     217.340E-03    -108.458E-03     26.9633E-03    -108.918E-03     216.477E-03    -108.413E-03     26.3777E-03
            1849     807.779E-06     37.7530E-03    -94.3886E+06    -235.599E+06    -92.2434E+06     174.899E+03    -108.597E-03     216.773E-03    -108.176E-03     14.6230E-03    -108.605E-03     215.878E-03    -108.158E-03     14.3119E-03
            1850     15.3184E-03     38.9994E-03    -4.67021E+06     132.774E+06     98.6327E+06    -43.9042E+03    -111.770E-03     222.060E-03    -110.290E-03     116.395E-03    -116.843E-03     227.302E-03    -109.983E-03     110.817E-03
            1851     14.5160E-03     38.8031E-03    -11.1139E+06     133.317E+06     100.940E+06     104.944E+03    -112.011E-03     222.258E-03    -110.247E-03     180.750E-03    -120.057E-03     230.446E-03    -109.920E-03     172.776E-03
            1852     13.7061E-03     38.6065E-03    -18.1913E+06     122.278E+06     94.4294E+06     121.713E+03    -114.157E-03     224.339E-03    -110.181E-03     194.351E-03    -122.283E-03     232.560E-03    -109.860E-03     185.288E-03
            1853     12.9044E-03     38.3723E-03    -24.4189E+06     111.730E+06     76.3527E+06    -283.895E+03    -116.005E-03     226.023E-03    -110.018E-03     206.805E-03    -123.931E-03     234.038E-03    -109.763E-03     197.069E-03
            1854     12.0968E-03     38.1481E-03    -29.5689E+06     93.8012E+06     44.1142E+06     45.5947E+03    -116.026E-03     225.803E-03    -109.777E-03     194.662E-03    -122.415E-03     232.291E-03    -109.649E-03     185.542E-03
            1855     11.2936E-03     37.9419E-03    -33.8125E+06     59.0661E+06     22.6506E+06     1.03277E+06    -115.460E-03     225.060E-03    -109.600E-03     173.434E-03    -120.147E-03     229.771E-03    -109.523E-03     165.474E-03
            1856     10.4871E-03     37.7615E-03    -37.8565E+06     4.14715E+06     12.5431E+06     1.07336E+06    -114.919E-03     224.416E-03    -109.497E-03     156.849E-03    -118.370E-03     227.711E-03    -109.386E-03     149.979E-03
            1857     9.68251E-03     37.5923E-03    -41.8390E+06    -49.5058E+06     4.41267E+06     654.304E+03    -114.641E-03     224.034E-03    -109.393E-03     145.078E-03    -117.230E-03     226.286E-03    -109.238E-03     139.139E-03
            1858     8.87690E-03     37.4361E-03    -45.9530E+06    -87.0265E+06     178.558E+03     879.736E+03    -114.152E-03     223.429E-03    -109.277E-03     134.376E-03    -116.107E-03     224.912E-03    -109.083E-03     129.286E-03
            1859     8.07123E-03     37.2909E-03    -50.1932E+06    -114.704E+06    -5.20584E+06     952.951E+03    -113.488E-03     222.630E-03    -109.142E-03     123.464E-03    -114.954E-03     223.526E-03    -108.929E-03     119.140E-03
            1860     7.26502E-03     37.1578E-03    -55.0926E+06    -137.267E+06    -10.6748E+06     559.607E+03    -112.726E-03     221.731E-03    -109.004E-03     111.881E-03    -113.811E-03     222.164E-03    -108.779E-03     108.242E-03
            1861     6.45871E-03     37.0379E-03    -60.2867E+06    -157.993E+06    -16.7586E+06     372.219E+03    -112.004E-03     220.869E-03    -108.865E-03     100.287E-03    -112.795E-03     220.934E-03    -108.632E-03     97.2492E-03
            1862     5.65239E-03     36.9303E-03    -65.4437E+06    -173.216E+06    -25.3087E+06     623.334E+03    -111.206E-03     219.917E-03    -108.711E-03     88.4297E-03    -111.772E-03     219.710E-03    -108.492E-03     85.9355E-03
            1863     4.84533E-03     36.8368E-03    -71.3148E+06    -185.887E+06    -37.2603E+06     512.435E+03    -110.352E-03     218.911E-03    -108.559E-03     76.4213E-03    -110.746E-03     218.500E-03    -108.372E-03     74.4049E-03
            1864     4.03830E-03     36.7564E-03    -77.2441E+06    -200.551E+06    -49.1242E+06     514.859E+03    -109.626E-03     218.067E-03    -108.442E-03     64.1750E-03    -109.887E-03     217.485E-03    -108.285E-03     62.5801E-03
            1865     3.23044E-03     36.6896E-03    -82.4756E+06    -213.623E+06    -60.8115E+06     576.200E+03    -109.168E-03     217.504E-03    -108.335E-03     51.6821E-03    -109.327E-03     216.788E-03    -108.210E-03     50.4615E-03
            1866     2.42338E-03     36.6381E-03    -87.5883E+06    -223.937E+06    -73.6256E+06     369.399E+03    -108.811E-03     217.016E-03    -108.205E-03     39.2361E-03    -108.897E-03     216.210E-03    -108.121E-03     38.3472E-03
            1867     1.61579E-03     36.5997E-03    -91.6511E+06    -230.607E+06    -84.9683E+06     219.886E+03    -108.301E-03     216.400E-03    -108.099E-03     26.5244E-03    -108.338E-03     215.539E-03    -108.056E-03     25.9425E-03
            1868     807.675E-06     36.5772E-03    -93.7243E+06    -234.661E+06     -92.069E+06    -47.1494E+03    -108.053E-03     216.165E-03    -108.112E-03     14.4132E-03    -108.059E-03     215.273E-03    -108.096E-03     14.0976E-03
            1869     15.3210E-03     37.8180E-03    -5.17395E+06     132.273E+06     97.9361E+06     99.0647E+03    -111.346E-03     221.672E-03    -110.326E-03     115.892E-03    -116.382E-03     226.876E-03    -110.021E-03     110.326E-03
            1870     14.5094E-03     37.6213E-03    -11.2306E+06     133.612E+06     101.189E+06     928.518E+03    -113.394E-03     223.655E-03    -110.261E-03     180.394E-03    -121.411E-03     231.813E-03    -109.933E-03     172.293E-03
            1871     13.7108E-03     37.4178E-03    -17.1181E+06     123.659E+06     95.4312E+06     268.684E+03    -115.001E-03     225.128E-03    -110.127E-03     193.052E-03    -123.097E-03     233.326E-03    -109.805E-03     183.911E-03
            1872     12.9032E-03     37.1937E-03    -23.7985E+06     111.423E+06     75.3998E+06    -262.993E+03    -116.246E-03     226.161E-03    -109.915E-03     205.983E-03    -124.140E-03     234.147E-03    -109.665E-03     196.236E-03
            1873     12.0999E-03     36.9617E-03    -29.9239E+06     92.7869E+06     42.8783E+06     100.323E+03    -116.447E-03     226.087E-03    -109.640E-03     193.771E-03    -122.818E-03     232.557E-03    -109.517E-03     184.619E-03
            1874     11.2944E-03     36.7612E-03    -34.4529E+06     58.8669E+06     22.2654E+06     763.758E+03    -115.628E-03     225.060E-03    -109.431E-03     172.484E-03    -120.292E-03     229.745E-03    -109.355E-03     164.529E-03
            1875     10.4901E-03     36.5787E-03    -38.1022E+06     5.02273E+06     12.6901E+06     886.266E+03    -115.068E-03     224.368E-03    -109.300E-03     156.383E-03    -118.508E-03     227.654E-03    -109.188E-03     149.519E-03
            1876     9.68457E-03     36.4115E-03    -41.8738E+06    -49.2808E+06     4.38580E+06     886.197E+03    -114.637E-03     223.807E-03    -109.170E-03     144.330E-03    -117.208E-03     226.041E-03    -109.016E-03     138.419E-03
            1877     8.87889E-03     36.2555E-03    -45.8779E+06    -87.3959E+06    -41.4381E+03     738.810E+03    -114.120E-03     223.151E-03    -109.031E-03     133.654E-03    -116.060E-03     224.618E-03    -108.838E-03     128.583E-03
            1878     8.07325E-03     36.1106E-03    -50.1626E+06    -113.422E+06    -4.63008E+06     918.904E+03    -113.479E-03     222.348E-03    -108.869E-03     122.464E-03    -114.935E-03     223.237E-03    -108.655E-03     118.160E-03
            1879     7.26736E-03     35.9789E-03    -54.7955E+06    -136.380E+06    -10.3325E+06     646.437E+03    -112.670E-03     221.367E-03    -108.698E-03     110.980E-03    -113.744E-03     221.793E-03    -108.472E-03     107.363E-03
            1880     6.46108E-03     35.8589E-03    -59.9448E+06    -158.169E+06    -16.9358E+06     239.232E+03    -111.815E-03     220.343E-03    -108.528E-03     99.4485E-03    -112.596E-03     220.400E-03    -108.297E-03     96.4312E-03
            1881     5.65423E-03     35.7526E-03    -65.6598E+06    -173.175E+06    -25.5015E+06     451.815E+03    -110.949E-03     219.303E-03    -108.353E-03     87.6186E-03    -111.510E-03     219.090E-03    -108.135E-03     85.1428E-03
            1882     4.84722E-03     35.6594E-03    -71.2751E+06    -185.456E+06    -37.1264E+06     647.044E+03    -110.176E-03     218.347E-03    -108.171E-03     75.6109E-03    -110.567E-03     217.934E-03    -107.985E-03     73.6102E-03
            1883     4.03990E-03     35.5795E-03    -77.0644E+06    -200.097E+06    -49.1817E+06     646.668E+03    -109.411E-03     217.419E-03    -108.008E-03     63.4626E-03    -109.668E-03     216.835E-03    -107.852E-03     61.8851E-03
            1884     3.23242E-03     35.5140E-03    -82.9425E+06    -213.310E+06    -61.2712E+06     618.053E+03    -108.758E-03     216.626E-03    -107.868E-03     51.1909E-03    -108.917E-03     215.911E-03    -107.745E-03     49.9861E-03
            1885     2.42427E-03     35.4612E-03    -87.8771E+06    -223.270E+06    -73.9397E+06     555.788E+03    -108.268E-03     216.007E-03    -107.739E-03     38.6825E-03    -108.355E-03     215.204E-03    -107.657E-03     37.8089E-03
            1886     1.61641E-03     35.4249E-03    -91.7762E+06    -230.308E+06    -85.3555E+06     93.0333E+03    -107.821E-03     215.470E-03    -107.650E-03     26.0334E-03    -107.857E-03     214.611E-03    -107.610E-03     25.4539E-03
            1887     807.994E-06     35.4016E-03    -94.2312E+06    -234.430E+06    -92.7923E+06     102.225E+03    -107.539E-03     215.278E-03    -107.738E-03     14.3889E-03    -107.547E-03     214.388E-03    -107.726E-03     14.0808E-03
            1888     15.3136E-03     36.6364E-03    -5.54191E+06     132.228E+06     97.6866E+06      169.02E+03    -112.588E-03     222.918E-03    -110.329E-03     114.902E-03    -117.645E-03     228.141E-03    -110.025E-03     109.185E-03
            1889     14.5177E-03     36.4311E-03    -10.6302E+06     134.393E+06     101.958E+06    -5.10468E+03    -114.424E-03     224.619E-03    -110.195E-03     178.001E-03    -122.396E-03     232.735E-03    -109.865E-03     169.798E-03
            1890     13.7088E-03     36.2384E-03    -16.5811E+06     123.912E+06     95.6566E+06     24.0988E+03    -114.841E-03     224.864E-03    -110.022E-03     191.389E-03    -122.862E-03     232.988E-03    -109.700E-03     182.288E-03
            1891     12.9063E-03     36.0063E-03    -23.2942E+06     111.258E+06     75.5975E+06     722.138E+03    -116.663E-03     226.454E-03    -109.790E-03     205.511E-03    -124.539E-03     234.423E-03    -109.540E-03     195.733E-03
            1892     12.1017E-03     35.7808E-03    -29.3842E+06     92.8762E+06     42.9882E+06     1.16419E+06    -116.628E-03     226.112E-03    -109.484E-03     192.898E-03    -122.962E-03     232.547E-03    -109.361E-03     183.766E-03
            1893     11.2969E-03     35.5779E-03    -34.3125E+06     59.2140E+06     22.0287E+06     703.857E+03    -115.674E-03     224.925E-03    -109.251E-03     172.020E-03    -120.316E-03     229.591E-03    -109.177E-03     164.084E-03
            1894     10.4917E-03     35.3971E-03    -38.3797E+06     5.24825E+06     12.7815E+06     602.521E+03    -115.221E-03     224.319E-03    -109.098E-03     155.758E-03    -118.646E-03     227.589E-03    -108.986E-03     148.902E-03
            1895     9.68672E-03     35.2305E-03    -42.0949E+06    -48.9252E+06     4.43411E+06     693.221E+03    -114.807E-03     223.739E-03    -108.933E-03     143.504E-03    -117.362E-03     225.958E-03    -108.778E-03     137.604E-03
            1896     8.88160E-03     35.0751E-03    -45.9708E+06    -86.9639E+06    -180.246E+03     568.948E+03    -114.246E-03     222.998E-03    -108.752E-03     132.646E-03    -116.173E-03     224.454E-03    -108.560E-03     127.587E-03
            1897     8.07592E-03     34.9311E-03    -50.0449E+06    -113.387E+06    -4.81803E+06     562.866E+03    -113.423E-03     221.976E-03    -108.552E-03     121.339E-03    -114.862E-03     222.848E-03    -108.340E-03     117.057E-03
            1898     7.26983E-03     34.8000E-03    -54.5901E+06    -135.994E+06    -10.0728E+06     604.709E+03    -112.539E-03     220.890E-03    -108.351E-03     109.996E-03    -113.602E-03     221.306E-03    -108.125E-03     106.401E-03
            1899     6.46339E-03     34.6810E-03    -60.0539E+06    -157.287E+06    -16.6600E+06     705.178E+03    -111.637E-03     219.787E-03    -108.151E-03     98.4085E-03    -112.411E-03     219.838E-03    -107.919E-03     95.4217E-03
            1900     5.65651E-03     34.5756E-03    -65.8105E+06    -173.287E+06    -26.1630E+06     451.106E+03    -110.740E-03     218.679E-03    -107.938E-03     86.5889E-03    -111.294E-03     218.459E-03    -107.723E-03     84.1340E-03
            1901     4.84945E-03     34.4824E-03    -71.4898E+06    -185.578E+06    -37.4430E+06     452.930E+03    -109.884E-03     217.608E-03    -107.724E-03     74.6644E-03    -110.270E-03     217.190E-03    -107.539E-03     72.6815E-03
            1902     4.04185E-03     34.4043E-03    -76.9768E+06    -199.531E+06    -48.5367E+06     893.724E+03    -109.111E-03     216.638E-03    -107.527E-03     62.6700E-03    -109.366E-03     216.052E-03    -107.369E-03     61.1106E-03
            1903     3.23396E-03     34.3379E-03    -82.5751E+06    -212.478E+06    -61.1518E+06     829.143E+03    -108.380E-03     215.721E-03    -107.341E-03     50.6025E-03    -108.537E-03     215.008E-03    -107.219E-03     49.4145E-03
            1904     2.42590E-03     34.2877E-03    -87.6833E+06    -222.764E+06    -73.9387E+06     463.046E+03    -107.693E-03     214.889E-03    -107.196E-03     38.1103E-03    -107.778E-03     214.086E-03    -107.115E-03     37.2494E-03
            1905     1.61704E-03     34.2495E-03    -91.5424E+06    -229.744E+06    -84.7446E+06     345.054E+03    -107.325E-03     214.421E-03    -107.096E-03     25.6241E-03    -107.361E-03     213.563E-03    -107.054E-03     25.0569E-03
            1906     808.929E-06     34.2283E-03    -94.5659E+06    -233.887E+06    -92.4827E+06     240.055E+03    -107.327E-03     214.131E-03    -106.804E-03     14.2585E-03    -107.337E-03     213.244E-03    -106.790E-03     13.9550E-03
            1907     15.3230E-03     35.4448E-03    -4.94198E+06     132.784E+06     98.3248E+06    -249.635E+03    -113.568E-03     223.826E-03    -110.257E-03     115.130E-03    -118.635E-03     229.061E-03    -109.951E-03     109.339E-03
            1908     14.5142E-03     35.2485E-03    -10.4649E+06     134.103E+06     101.491E+06    -598.880E+03    -114.074E-03     224.168E-03    -110.095E-03     177.216E-03    -122.022E-03     232.261E-03    -109.767E-03     169.024E-03
            1909     13.7134E-03     35.0537E-03    -17.4849E+06     122.982E+06     94.6771E+06     387.674E+03    -115.253E-03     225.166E-03    -109.913E-03     191.773E-03    -123.260E-03     233.273E-03    -109.593E-03     182.638E-03
            1910     12.9075E-03     34.8234E-03    -24.0046E+06     110.841E+06     75.7370E+06     1.13339E+06    -116.831E-03     226.496E-03    -109.664E-03     205.462E-03    -124.679E-03     234.432E-03    -109.411E-03     195.703E-03
            1911     12.1032E-03     34.5966E-03    -29.4017E+06     93.0443E+06     43.6847E+06     1.33573E+06    -116.750E-03     226.091E-03    -109.341E-03     192.621E-03    -123.055E-03     232.495E-03    -109.215E-03     183.514E-03
            1912     11.2988E-03     34.3963E-03    -33.5739E+06     60.0958E+06     22.8891E+06     1.14421E+06    -116.131E-03     225.205E-03    -109.074E-03     171.401E-03    -120.757E-03     229.858E-03    -108.998E-03     163.452E-03
            1913     10.4941E-03     34.2150E-03    -37.7468E+06     5.70044E+06     13.2105E+06     861.687E+03    -115.470E-03     224.344E-03    -108.874E-03     154.614E-03    -118.867E-03     227.589E-03    -108.761E-03     147.772E-03
            1914     9.68933E-03     34.0495E-03    -41.9951E+06    -47.9610E+06     4.77389E+06     760.579E+03    -115.031E-03     223.695E-03    -108.663E-03     142.308E-03    -117.569E-03     225.899E-03    -108.509E-03     136.418E-03
            1915     8.88425E-03     33.8945E-03    -46.1819E+06    -86.2447E+06    -468.093E+03     394.335E+03    -114.329E-03     222.763E-03    -108.434E-03     131.351E-03    -116.239E-03     224.204E-03    -108.244E-03     126.310E-03
            1916     8.07878E-03     33.7522E-03    -50.4901E+06    -113.603E+06    -5.31476E+06     202.567E+03    -113.372E-03     221.566E-03    -108.194E-03     120.180E-03    -114.797E-03     222.425E-03    -107.983E-03     115.918E-03
            1917     7.27270E-03     33.6215E-03    -55.2218E+06    -136.040E+06    -10.5566E+06     637.064E+03    -112.443E-03     220.397E-03    -107.953E-03     108.753E-03    -113.496E-03     220.801E-03    -107.729E-03     105.184E-03
            1918     6.46615E-03     33.5040E-03    -60.2017E+06    -156.989E+06    -16.9294E+06     612.274E+03    -111.480E-03     219.190E-03    -107.710E-03     97.0754E-03    -112.244E-03     219.233E-03    -107.480E-03     94.1113E-03
            1919     5.65946E-03     33.3986E-03    -65.5503E+06    -172.500E+06    -25.3705E+06     576.337E+03    -110.467E-03     217.928E-03    -107.461E-03     85.4096E-03    -111.012E-03     217.702E-03    -107.243E-03     82.9814E-03
            1920     4.85181E-03     33.3076E-03    -71.3175E+06    -185.379E+06    -36.9680E+06     537.158E+03    -109.517E-03     216.729E-03    -107.212E-03     73.6311E-03    -109.897E-03     216.304E-03    -107.024E-03     71.6717E-03
            1921     4.04407E-03     33.2285E-03    -77.1217E+06    -199.730E+06    -48.5499E+06     682.354E+03    -108.680E-03     215.662E-03    -106.982E-03     61.7411E-03    -108.931E-03     215.071E-03    -106.824E-03     60.1982E-03
            1922     3.23587E-03     33.1649E-03    -82.5416E+06    -211.516E+06    -60.9589E+06     922.972E+03    -107.883E-03     214.651E-03    -106.768E-03     49.7227E-03    -108.038E-03     213.939E-03    -106.647E-03     48.5509E-03
            1923     2.42714E-03     33.1130E-03    -87.5820E+06    -221.980E+06    -74.0958E+06     545.957E+03    -107.211E-03     213.796E-03    -106.585E-03     37.5252E-03    -107.295E-03     212.996E-03    -106.507E-03     36.6751E-03
            1924     1.61849E-03     33.0780E-03    -91.7542E+06    -229.409E+06    -84.9307E+06     385.833E+03    -106.800E-03     213.225E-03    -106.426E-03     25.3633E-03    -106.837E-03     212.369E-03    -106.385E-03     24.8073E-03
            1925     808.970E-06     33.0534E-03    -94.3306E+06    -232.893E+06    -92.2494E+06     168.182E+03    -106.561E-03     212.712E-03    -106.152E-03     13.6967E-03    -106.572E-03     211.830E-03    -106.138E-03     13.3969E-03
            1926     15.3186E-03     34.2593E-03    -4.70771E+06     132.649E+06     98.0239E+06    -517.061E+03    -113.294E-03     223.500E-03    -110.206E-03     115.393E-03    -118.286E-03     228.662E-03    -109.902E-03     109.638E-03
            1927     14.5183E-03     34.0650E-03    -11.3784E+06     132.922E+06     100.220E+06     223.976E+03    -114.036E-03     224.089E-03    -110.054E-03     178.098E-03    -121.936E-03     232.130E-03    -109.729E-03     169.917E-03
            1928     13.7114E-03     33.8671E-03    -18.1558E+06     122.527E+06     93.8915E+06     909.114E+03    -115.990E-03     225.845E-03    -109.856E-03     192.605E-03    -124.024E-03     233.978E-03    -109.537E-03     183.390E-03
            1929     12.9096E-03     33.6404E-03    -24.3854E+06     110.541E+06     75.4523E+06     703.760E+03    -117.441E-03     227.004E-03    -109.563E-03     204.837E-03    -125.275E-03     234.925E-03    -109.311E-03     195.024E-03
            1930     12.1046E-03     33.4137E-03    -29.3984E+06     93.2051E+06     44.1859E+06     666.288E+03    -117.286E-03     226.480E-03    -109.194E-03     191.924E-03    -123.568E-03     232.860E-03    -109.066E-03     182.781E-03
            1931     11.3008E-03     33.2122E-03    -33.6861E+06     60.1827E+06     23.0902E+06     1.04301E+06    -116.646E-03     225.518E-03    -108.872E-03     170.015E-03    -121.242E-03     230.141E-03    -108.795E-03     162.049E-03
            1932     10.4971E-03     33.0339E-03    -37.7443E+06     6.51537E+06     13.2566E+06     1.24271E+06    -115.925E-03     224.533E-03    -108.608E-03     153.127E-03    -119.301E-03     227.760E-03    -108.497E-03     146.280E-03
            1933     9.69242E-03     32.8680E-03    -41.6652E+06    -47.0329E+06     4.97375E+06     963.520E+03    -115.151E-03     223.494E-03    -108.343E-03     140.878E-03    -117.663E-03     225.677E-03    -108.190E-03     135.014E-03
            1934     8.88759E-03     32.7149E-03    -45.7527E+06    -85.2130E+06    -124.047E+03     625.335E+03    -114.316E-03     222.387E-03    -108.072E-03     129.793E-03    -116.202E-03     223.810E-03    -107.883E-03     124.786E-03
            1935     8.08193E-03     32.5733E-03    -50.3837E+06    -113.491E+06    -5.58192E+06     444.570E+03    -113.407E-03     221.191E-03    -107.784E-03     118.626E-03    -114.814E-03     222.032E-03    -107.574E-03     114.390E-03
            1936     7.27599E-03     32.4440E-03    -55.0367E+06    -136.067E+06    -10.6767E+06     388.369E+03    -112.374E-03     219.864E-03    -107.490E-03     107.228E-03    -113.412E-03     220.254E-03    -107.266E-03     103.680E-03
            1937     6.46973E-03     32.3270E-03    -60.1156E+06    -156.520E+06    -16.9919E+06     540.587E+03    -111.223E-03     218.422E-03    -107.199E-03     95.6287E-03    -111.975E-03     218.454E-03    -106.970E-03     92.6943E-03
            1938     5.66223E-03     32.2237E-03    -65.7520E+06    -172.465E+06    -25.7011E+06     515.697E+03    -110.108E-03     217.020E-03    -106.912E-03     84.1158E-03    -110.645E-03     216.786E-03    -106.695E-03     81.7150E-03
            1939     4.85486E-03     32.1323E-03    -71.5297E+06    -185.064E+06    -36.9787E+06     664.985E+03    -109.101E-03     215.728E-03    -106.628E-03     72.4761E-03    -109.475E-03     215.299E-03    -106.440E-03     70.5432E-03
            1940     4.04655E-03     32.0558E-03    -77.2096E+06    -199.548E+06    -48.7670E+06     757.094E+03    -108.168E-03     214.534E-03    -106.365E-03     60.7168E-03    -108.415E-03     213.939E-03    -106.208E-03     59.1965E-03
            1941     3.23794E-03     31.9910E-03    -82.8142E+06    -211.089E+06    -61.2249E+06     725.675E+03    -107.292E-03     213.419E-03    -106.127E-03     48.7623E-03    -107.446E-03     212.708E-03    -106.007E-03     47.6047E-03
            1942     2.42886E-03     31.9424E-03    -87.7339E+06    -221.016E+06    -74.0011E+06     778.366E+03    -106.593E-03     212.519E-03    -105.926E-03     36.9137E-03    -106.677E-03     211.722E-03    -105.848E-03     36.0804E-03
            1943     1.61936E-03     31.9047E-03    -91.6726E+06    -228.693E+06    -85.2296E+06     376.382E+03    -106.075E-03     211.848E-03    -105.773E-03     25.1647E-03    -106.111E-03     210.995E-03    -105.735E-03     24.6171E-03
            1944     810.420E-06     31.8843E-03    -94.4203E+06    -232.236E+06    -92.9450E+06     147.066E+03    -105.695E-03     211.445E-03    -105.749E-03     13.6850E-03    -105.706E-03     210.566E-03    -105.740E-03     13.3925E-03
            1945     15.3222E-03     33.0742E-03    -4.80642E+06     132.364E+06     97.4411E+06     209.399E+03    -113.173E-03     223.409E-03    -110.236E-03     115.884E-03    -118.161E-03     228.567E-03    -109.934E-03     110.112E-03
            1946     14.5144E-03     32.8796E-03    -12.0428E+06     132.310E+06     99.5051E+06     746.251E+03    -115.279E-03     225.338E-03    -110.058E-03     178.710E-03    -123.194E-03     233.391E-03    -109.735E-03     170.396E-03
            1947     13.7137E-03     32.6814E-03    -17.8550E+06     122.737E+06     94.1738E+06     433.000E+03    -116.878E-03     226.676E-03    -109.798E-03     190.871E-03    -124.860E-03     234.757E-03    -109.479E-03     181.573E-03
            1948     12.9093E-03     32.4546E-03    -23.7587E+06     110.964E+06     75.5534E+06     337.806E+03    -118.193E-03     227.632E-03    -109.439E-03     202.769E-03    -125.954E-03     235.484E-03    -109.187E-03     192.894E-03
            1949     12.1077E-03     32.2299E-03    -29.5649E+06     93.1527E+06     43.6782E+06     614.912E+03    -118.099E-03     227.096E-03    -108.997E-03     190.194E-03    -124.346E-03     233.442E-03    -108.870E-03     180.993E-03
            1950     11.3038E-03     32.0294E-03    -34.2997E+06     60.0531E+06     22.2443E+06     1.00537E+06    -117.036E-03     225.643E-03    -108.607E-03     168.331E-03    -121.590E-03     230.224E-03    -108.533E-03     160.371E-03
            1951     10.5001E-03     31.8509E-03    -38.2383E+06     6.96304E+06     12.7952E+06     870.633E+03    -116.143E-03     224.434E-03    -108.291E-03     151.259E-03    -119.486E-03     227.628E-03    -108.181E-03     144.425E-03
            1952     9.69624E-03     31.6879E-03    -41.9084E+06    -46.1535E+06     5.01058E+06     869.907E+03    -115.307E-03     223.281E-03    -107.975E-03     139.179E-03    -117.794E-03     225.441E-03    -107.822E-03     133.337E-03
            1953     8.89102E-03     31.5352E-03    -45.8390E+06    -84.7377E+06    -263.008E+03     806.330E+03    -114.397E-03     222.045E-03    -107.648E-03     128.090E-03    -116.260E-03     223.446E-03    -107.460E-03     123.114E-03
            1954     8.08594E-03     31.3951E-03    -50.0197E+06    -112.962E+06    -5.58898E+06     511.181E+03    -113.392E-03     220.695E-03    -107.304E-03     116.884E-03    -114.778E-03     221.519E-03    -107.095E-03     112.677E-03
            1955     7.28013E-03     31.2667E-03    -54.9362E+06    -135.847E+06    -10.6488E+06     473.026E+03    -112.161E-03     219.121E-03    -106.960E-03     105.548E-03    -113.183E-03     219.496E-03    -106.736E-03     102.034E-03
            1956     6.47310E-03     31.1517E-03    -60.3393E+06    -155.951E+06    -16.8271E+06     730.026E+03    -110.905E-03     217.531E-03    -106.626E-03     94.1050E-03    -111.646E-03     217.553E-03    -106.396E-03     91.2071E-03
            1957     5.66616E-03     31.0489E-03    -66.0481E+06    -172.169E+06    -26.5719E+06     659.490E+03    -109.712E-03     216.004E-03    -106.292E-03     82.6821E-03    -110.240E-03     215.763E-03    -106.080E-03     80.3143E-03
            1958     4.85778E-03     30.9596E-03    -71.7850E+06    -185.245E+06    -37.7624E+06     685.000E+03    -108.587E-03     214.561E-03    -105.974E-03     71.2614E-03    -108.954E-03     214.125E-03    -105.790E-03     69.3583E-03
            1959     4.04941E-03     30.8828E-03    -77.3806E+06    -199.060E+06    -48.7304E+06     830.422E+03    -107.541E-03     213.232E-03    -105.690E-03     59.6007E-03    -107.785E-03     212.635E-03    -105.533E-03     58.1059E-03
            1960     3.24019E-03     30.8207E-03    -82.7275E+06    -210.671E+06    -61.4065E+06     705.904E+03    -106.599E-03     212.039E-03    -105.440E-03     47.9643E-03    -106.750E-03     211.326E-03    -105.322E-03     46.8268E-03
            1961     2.43058E-03     30.7709E-03    -87.7359E+06    -220.376E+06    -74.2712E+06     571.215E+03    -105.867E-03     211.109E-03    -105.242E-03     36.3900E-03    -105.951E-03     210.314E-03    -105.166E-03     35.5689E-03
            1962     1.62058E-03     30.7361E-03    -91.7973E+06    -227.580E+06    -84.9000E+06     595.603E+03    -105.284E-03     210.416E-03    -105.132E-03     24.6400E-03    -105.323E-03     209.567E-03    -105.093E-03     24.1051E-03
            1963     809.206E-06     30.7135E-03    -94.4039E+06    -231.417E+06    -92.4413E+06     384.931E+03    -105.245E-03     210.226E-03    -104.981E-03     13.4101E-03    -105.258E-03     209.351E-03    -104.971E-03     13.1263E-03
            1964     15.3157E-03     31.8919E-03    -5.28968E+06     132.047E+06     97.0592E+06     771.252E+03    -114.268E-03     224.525E-03    -110.257E-03     115.323E-03    -119.269E-03     229.694E-03    -109.955E-03     109.440E-03
            1965     14.5172E-03     31.6877E-03    -10.7953E+06     133.423E+06     100.716E+06     542.071E+03    -116.655E-03     226.664E-03    -110.009E-03     176.524E-03    -124.511E-03     234.663E-03    -109.683E-03     168.066E-03
            1966     13.7150E-03     31.4967E-03    -17.2809E+06     123.064E+06     94.6925E+06     34.0577E+03    -117.672E-03     227.342E-03    -109.671E-03     188.360E-03    -125.556E-03     235.328E-03    -109.350E-03     178.993E-03
            1967     12.9134E-03     31.2687E-03    -24.1599E+06     110.647E+06     74.9937E+06     631.328E+03    -118.893E-03     228.137E-03    -109.244E-03     201.204E-03    -126.596E-03     235.930E-03    -108.995E-03     191.294E-03
            1968     12.1100E-03     31.0452E-03    -30.1559E+06     92.8336E+06     42.8842E+06     1.16523E+06    -118.686E-03     227.422E-03    -108.736E-03     188.135E-03    -124.874E-03     233.708E-03    -108.612E-03     178.925E-03
            1969     11.3079E-03     30.8458E-03    -34.6709E+06     60.9372E+06     21.8688E+06     769.503E+03    -117.387E-03     225.670E-03    -108.283E-03     166.428E-03    -121.899E-03     230.212E-03    -108.212E-03     158.473E-03
            1970     10.5043E-03     30.6696E-03    -38.2192E+06     7.45603E+06     12.5051E+06     426.472E+03    -116.235E-03     224.150E-03    -107.915E-03     149.420E-03    -119.538E-03     227.307E-03    -107.808E-03     142.613E-03
            1971     9.69984E-03     30.5068E-03    -42.0583E+06    -45.8017E+06     4.89158E+06     703.240E+03    -115.444E-03     222.993E-03    -107.549E-03     137.196E-03    -117.901E-03     225.124E-03    -107.397E-03     131.378E-03
            1972     8.89583E-03     30.3565E-03    -46.0469E+06    -84.0724E+06    -373.661E+03     690.556E+03    -114.458E-03     221.621E-03    -107.163E-03     126.287E-03    -116.299E-03     223.001E-03    -106.976E-03     121.337E-03
            1973     8.09035E-03     30.2172E-03    -50.4363E+06    -112.727E+06    -5.88988E+06     534.477E+03    -113.234E-03     219.998E-03    -106.764E-03     115.177E-03    -114.601E-03     220.803E-03    -106.557E-03     111.009E-03
            1974     7.28415E-03     30.0909E-03    -55.1723E+06    -135.440E+06    -10.9835E+06     689.506E+03    -111.901E-03     218.273E-03    -106.372E-03     103.803E-03    -112.905E-03     218.632E-03    -106.151E-03     100.333E-03
            1975     6.47759E-03     29.9770E-03    -60.3055E+06    -155.782E+06    -16.9356E+06     765.361E+03    -110.547E-03     216.541E-03    -105.994E-03     92.5146E-03    -111.274E-03     216.550E-03    -105.765E-03     89.6529E-03
            1976     5.66959E-03     29.8758E-03    -65.9192E+06    -171.422E+06    -25.7738E+06     949.406E+03    -109.251E-03     214.873E-03    -105.622E-03     81.2141E-03    -109.769E-03     214.624E-03    -105.407E-03     78.8860E-03
            1977     4.86158E-03     29.7877E-03    -71.8286E+06    -184.991E+06    -37.8399E+06     836.527E+03    -107.976E-03     213.244E-03    -105.268E-03     69.9414E-03    -108.335E-03     212.802E-03    -105.085E-03     68.0726E-03
            1978     4.05225E-03     29.7122E-03    -77.5131E+06    -199.008E+06    -49.3493E+06     496.763E+03    -106.810E-03     211.779E-03    -104.968E-03     58.5153E-03    -107.048E-03     211.178E-03    -104.814E-03     57.0441E-03
            1979     3.24249E-03     29.6511E-03    -82.9570E+06    -210.111E+06    -61.4913E+06     663.976E+03    -105.884E-03     210.598E-03    -104.714E-03     47.0212E-03    -106.033E-03     209.885E-03    -104.596E-03     45.9041E-03
            1980     2.43213E-03     29.6022E-03    -87.8348E+06    -219.632E+06    -74.5565E+06     704.793E+03    -105.156E-03     209.657E-03    -104.501E-03     35.5256E-03    -105.239E-03     208.865E-03    -104.428E-03     34.7212E-03
            1981     1.62152E-03     29.5678E-03    -91.5229E+06    -226.740E+06    -84.9723E+06     371.010E+03    -104.734E-03     209.049E-03    -104.316E-03     23.9571E-03    -104.771E-03     208.203E-03    -104.279E-03     23.4292E-03
            1982     811.840E-06     29.5456E-03    -94.1287E+06    -230.586E+06    -91.8660E+06     99.1436E+03    -104.492E-03     208.458E-03    -103.966E-03     12.9948E-03    -104.505E-03     207.585E-03    -103.955E-03     12.7125E-03
            1983     15.3222E-03     30.6985E-03    -5.22592E+06     132.266E+06     97.4397E+06     730.624E+03    -116.041E-03     226.226E-03    -110.185E-03     114.645E-03    -121.022E-03     231.376E-03    -109.882E-03     108.622E-03
            1984     14.5194E-03     30.5029E-03    -10.6343E+06     133.905E+06     101.123E+06     240.557E+03    -117.151E-03     227.015E-03    -109.864E-03     174.565E-03    -124.928E-03     234.937E-03    -109.537E-03     166.049E-03
            1985     13.7172E-03     30.3075E-03    -17.7855E+06     122.672E+06     94.2071E+06     654.953E+03    -118.083E-03     227.565E-03    -109.482E-03     186.851E-03    -125.887E-03     235.468E-03    -109.163E-03     177.472E-03
            1986     12.9155E-03     30.0835E-03    -24.7208E+06     110.129E+06     74.9210E+06     884.176E+03    -119.624E-03     228.627E-03    -109.003E-03     199.655E-03    -127.285E-03     236.374E-03    -108.752E-03     189.694E-03
            1987     12.1146E-03     29.8595E-03    -29.8075E+06     93.3763E+06     43.4447E+06     920.626E+03    -119.104E-03     227.535E-03    -108.432E-03     186.392E-03    -125.235E-03     233.767E-03    -108.306E-03     177.179E-03
            1988     11.3117E-03     29.6630E-03    -33.7734E+06     61.5309E+06     22.2884E+06     701.552E+03    -117.653E-03     225.574E-03    -107.921E-03     164.515E-03    -122.115E-03     230.070E-03    -107.850E-03     156.577E-03
            1989     10.5085E-03     29.4876E-03    -38.1536E+06     8.00958E+06     12.2664E+06     788.238E+03    -116.488E-03     223.982E-03    -107.494E-03     147.657E-03    -119.757E-03     227.108E-03    -107.389E-03     140.876E-03
            1990     9.70519E-03     29.3269E-03    -42.3658E+06    -45.4449E+06     4.42291E+06     584.829E+03    -115.510E-03     222.579E-03    -107.069E-03     135.448E-03    -117.936E-03     224.681E-03    -106.920E-03     129.665E-03
            1991     8.90017E-03     29.1776E-03    -46.3877E+06    -83.4485E+06    -425.480E+03     505.579E+03    -114.389E-03     221.021E-03    -106.632E-03     124.490E-03    -116.206E-03     222.378E-03    -106.446E-03     119.579E-03
            1992     8.09507E-03     29.0405E-03    -50.6437E+06    -112.114E+06    -6.15787E+06     635.261E+03    -113.055E-03     219.235E-03    -106.180E-03     113.316E-03    -114.400E-03     220.021E-03    -105.975E-03     109.193E-03
            1993     7.28900E-03     28.9157E-03    -55.3086E+06    -135.593E+06    -11.5345E+06     667.793E+03    -111.609E-03     217.347E-03    -105.738E-03     102.018E-03    -112.593E-03     217.687E-03    -105.519E-03     98.5917E-03
            1994     6.48172E-03     28.8035E-03    -60.4650E+06    -155.854E+06    -17.3694E+06     746.248E+03    -110.132E-03     215.447E-03    -105.315E-03     90.8024E-03    -110.844E-03     215.442E-03    -105.089E-03     87.9809E-03
            1995     5.67403E-03     28.7042E-03    -65.9418E+06    -171.294E+06    -25.7059E+06     888.053E+03    -108.696E-03     213.604E-03    -104.908E-03     79.7500E-03    -109.204E-03     213.345E-03    -104.693E-03     77.4584E-03
            1996     4.86499E-03     28.6170E-03    -71.4757E+06    -183.971E+06    -37.1910E+06     891.442E+03    -107.328E-03     211.855E-03    -104.527E-03     68.4752E-03    -107.680E-03     211.408E-03    -104.343E-03     66.6402E-03
            1997     4.05531E-03     28.5441E-03    -77.4592E+06    -198.434E+06    -49.4722E+06     740.538E+03    -106.124E-03     210.324E-03    -104.200E-03     57.3074E-03    -106.357E-03     209.721E-03    -104.047E-03     55.8676E-03
            1998     3.24507E-03     28.4823E-03    -83.0748E+06    -209.900E+06    -62.0019E+06     566.871E+03    -105.190E-03     209.106E-03    -103.916E-03     45.9490E-03    -105.336E-03     208.392E-03    -103.801E-03     44.8516E-03
            1999     2.43446E-03     28.4361E-03    -87.5876E+06    -218.623E+06    -74.2236E+06     484.296E+03    -104.464E-03     208.126E-03    -103.663E-03     34.7233E-03    -104.545E-03     207.336E-03    -103.590E-03     33.9327E-03
            2000     1.62336E-03     28.4002E-03    -91.4487E+06    -225.959E+06    -85.0459E+06     307.227E+03    -103.924E-03     207.351E-03    -103.428E-03     23.5861E-03    -103.961E-03     206.508E-03    -103.393E-03     23.0692E-03
            2001     811.431E-06     28.3803E-03    -94.0688E+06    -230.454E+06    -92.5872E+06    -138.734E+03    -103.648E-03     206.639E-03    -102.991E-03     12.4971E-03    -103.660E-03     205.767E-03    -102.983E-03     12.2175E-03
            2002     15.3212E-03     29.5107E-03    -5.50584E+06     132.002E+06     97.3343E+06     713.000E+03    -117.382E-03     227.453E-03    -110.071E-03     113.804E-03    -122.314E-03     232.553E-03    -109.768E-03     107.702E-03
            2003     14.5216E-03     29.3126E-03    -11.2338E+06     133.307E+06     100.260E+06     646.714E+03    -117.641E-03     227.332E-03    -109.691E-03     173.807E-03    -125.371E-03     235.205E-03    -109.367E-03     165.234E-03
            2004     13.7210E-03     29.1223E-03    -17.0310E+06     122.126E+06     94.0937E+06     1.15702E+06    -118.893E-03     228.152E-03    -109.259E-03     185.696E-03    -126.627E-03     235.987E-03    -108.941E-03     176.272E-03
            2005     12.9198E-03     28.8953E-03    -22.9730E+06     110.574E+06     76.0756E+06     1.27908E+06    -120.064E-03     228.792E-03    -108.727E-03     198.109E-03    -127.630E-03     236.448E-03    -108.474E-03     188.154E-03
            2006     12.1182E-03     28.6752E-03    -28.7053E+06     94.1524E+06     44.5241E+06     881.543E+03    -119.424E-03     227.529E-03    -108.105E-03     184.632E-03    -125.491E-03     233.699E-03    -107.977E-03     175.432E-03
            2007     11.3162E-03     28.4794E-03    -33.8124E+06     62.0086E+06     22.1964E+06     1.24011E+06    -118.019E-03     225.553E-03    -107.534E-03     162.821E-03    -122.435E-03     230.005E-03    -107.464E-03     154.909E-03
            2008     10.5136E-03     28.3062E-03    -37.9529E+06     8.82328E+06     12.1981E+06     1.10324E+06    -116.738E-03     223.782E-03    -107.044E-03     145.736E-03    -119.964E-03     226.869E-03    -106.941E-03     138.991E-03
            2009     9.70951E-03     28.1472E-03    -41.6609E+06    -44.9414E+06     4.47585E+06     707.686E+03    -115.573E-03     222.133E-03    -106.560E-03     133.664E-03    -117.964E-03     224.204E-03    -106.412E-03     127.919E-03
            2010     8.90559E-03     27.9997E-03    -45.7851E+06    -83.0828E+06    -422.533E+03     804.232E+03    -114.296E-03     220.364E-03    -106.068E-03     122.591E-03    -116.080E-03     221.693E-03    -105.884E-03     117.730E-03
            2011     8.10012E-03     27.8645E-03    -50.4129E+06    -111.749E+06    -6.08499E+06     856.197E+03    -112.825E-03     218.392E-03    -105.567E-03     111.466E-03    -114.145E-03     219.155E-03    -105.363E-03     107.393E-03
            2012     7.29374E-03     27.7416E-03     -55.218E+06    -135.044E+06    -11.5848E+06     850.715E+03    -111.265E-03     216.343E-03    -105.078E-03     100.296E-03    -112.232E-03     216.668E-03    -104.861E-03     96.9161E-03
            2013     6.48660E-03     27.6315E-03    -60.2987E+06    -155.944E+06    -17.7485E+06     654.960E+03    -109.692E-03     214.304E-03    -104.611E-03     89.1465E-03    -110.388E-03     214.283E-03    -104.387E-03     86.3681E-03
            2014     5.67804E-03     27.5337E-03    -65.5991E+06    -171.193E+06    -26.1522E+06     709.520E+03    -108.121E-03     212.287E-03    -104.166E-03     78.1687E-03    -108.617E-03     212.018E-03    -103.953E-03     75.9104E-03
            2015     4.86881E-03     27.4487E-03    -71.3999E+06    -183.566E+06    -37.2137E+06     955.200E+03    -106.710E-03     210.463E-03    -103.753E-03     67.0573E-03    -107.054E-03     210.010E-03    -103.570E-03     65.2565E-03
            2016     4.05883E-03     27.3764E-03    -77.1516E+06    -197.661E+06    -49.0102E+06     1.07157E+06    -105.500E-03     208.888E-03    -103.388E-03     56.0299E-03    -105.728E-03     208.282E-03    -103.234E-03     54.6208E-03
            2017     3.24787E-03     27.3170E-03    -82.5908E+06    -209.067E+06    -61.8780E+06     680.105E+03    -104.427E-03     207.492E-03    -103.065E-03     45.0020E-03    -104.568E-03     206.777E-03    -102.951E-03     43.9291E-03
            2018     2.43640E-03     27.2700E-03    -87.5871E+06    -218.174E+06    -74.3285E+06     402.684E+03    -103.621E-03     206.413E-03    -102.791E-03     34.0809E-03    -103.701E-03     205.623E-03    -102.720E-03     33.3051E-03
            2019     1.62463E-03     27.2367E-03    -91.5414E+06    -225.136E+06    -84.8721E+06     461.387E+03    -102.940E-03     205.524E-03    -102.583E-03     23.0611E-03    -102.979E-03     204.684E-03    -102.548E-03     22.5577E-03
            2020     812.543E-06     27.2158E-03    -94.0164E+06    -229.834E+06    -92.4173E+06     37.8398E+03    -102.536E-03     205.012E-03    -102.476E-03     12.2436E-03    -102.548E-03     204.143E-03    -102.469E-03     11.9718E-03
            2021     15.3259E-03     28.3220E-03    -4.12056E+06     131.904E+06     97.2590E+06     399.214E+03    -118.660E-03     228.666E-03    -110.006E-03     113.201E-03    -123.551E-03     233.729E-03    -109.705E-03     106.979E-03
            2022     14.5238E-03     28.1237E-03    -9.73817E+06     133.240E+06     100.455E+06     1.07262E+06    -119.106E-03     228.657E-03    -109.551E-03     173.740E-03    -126.764E-03     236.463E-03    -109.228E-03     165.041E-03
            2023     13.7237E-03     27.9329E-03    -16.0680E+06     121.973E+06     94.4678E+06     1.51845E+06    -119.871E-03     228.916E-03    -109.044E-03     184.976E-03    -127.543E-03     236.689E-03    -108.726E-03     175.483E-03
            2024     12.9236E-03     27.7092E-03    -22.6384E+06     111.248E+06     76.2001E+06     1.52809E+06    -120.711E-03     229.156E-03    -108.445E-03     197.044E-03    -128.214E-03     236.753E-03    -108.193E-03     187.078E-03
            2025     12.1223E-03     27.4900E-03    -28.7321E+06     94.3252E+06     44.6845E+06     1.75511E+06    -119.873E-03     227.637E-03    -107.764E-03     182.867E-03    -125.867E-03     233.734E-03    -107.636E-03     173.699E-03
            2026     11.3208E-03     27.2957E-03    -33.4437E+06     63.4284E+06     22.9234E+06     1.71205E+06    -118.374E-03     225.507E-03    -107.132E-03     160.937E-03    -122.739E-03     229.911E-03    -107.061E-03     153.055E-03
            2027     10.5182E-03     27.1249E-03    -37.3619E+06     9.91620E+06     12.2283E+06     972.862E+03    -116.930E-03     223.507E-03    -106.577E-03     143.719E-03    -120.109E-03     226.554E-03    -106.476E-03     137.008E-03
            2028     9.71530E-03     26.9679E-03    -41.1224E+06    -44.6463E+06     4.37208E+06     865.880E+03    -115.626E-03     221.662E-03    -106.035E-03     131.797E-03    -117.982E-03     223.700E-03    -105.889E-03     126.093E-03
            2029     8.91052E-03     26.8224E-03    -45.1971E+06    -82.9433E+06    -359.555E+03     1.37637E+06    -114.156E-03     219.648E-03    -105.491E-03     120.735E-03    -115.910E-03     220.948E-03    -105.307E-03     115.929E-03
            2030     8.10519E-03     26.6896E-03    -49.6517E+06    -111.334E+06    -5.88152E+06     1.40097E+06    -112.547E-03     217.491E-03    -104.944E-03     109.663E-03    -113.840E-03     218.230E-03    -104.740E-03     105.647E-03
            2031     7.29871E-03     26.5686E-03    -54.3111E+06    -134.286E+06    -11.1914E+06     1.00966E+06    -110.889E-03     215.302E-03    -104.413E-03     98.5346E-03    -111.834E-03     215.611E-03    -104.196E-03     95.2034E-03
            2032     6.49096E-03     26.4607E-03    -59.5884E+06    -155.389E+06    -17.4703E+06     1.05145E+06    -109.236E-03     213.141E-03    -103.905E-03     87.4755E-03    -109.915E-03     213.108E-03    -103.681E-03     84.7441E-03
            2033     5.68253E-03     26.3648E-03    -65.5799E+06    -170.970E+06    -26.8245E+06     822.825E+03    -107.605E-03     211.021E-03    -103.416E-03     76.5265E-03    -108.089E-03     210.743E-03    -103.207E-03     74.3055E-03
            2034     4.87269E-03     26.2818E-03    -71.1150E+06    -183.487E+06    -37.7243E+06     959.246E+03    -106.086E-03     209.051E-03    -102.965E-03     65.7244E-03    -106.420E-03     208.591E-03    -102.785E-03     63.9556E-03
            2035     4.06201E-03     26.2105E-03    -76.5664E+06    -196.937E+06    -48.6493E+06     1.10459E+06    -104.816E-03     207.384E-03    -102.569E-03     54.9271E-03    -105.037E-03     206.776E-03    -102.415E-03     53.5458E-03
            2036     3.25083E-03     26.1529E-03    -82.3017E+06    -208.051E+06    -61.3889E+06     1.03999E+06    -103.693E-03     205.905E-03    -102.212E-03     44.0357E-03    -103.832E-03     205.191E-03    -102.098E-03     42.9884E-03
            2037     2.43867E-03     26.1069E-03    -87.5587E+06    -217.619E+06    -74.3389E+06     892.202E+03    -102.694E-03     204.622E-03    -101.928E-03     33.2800E-03    -102.773E-03     203.833E-03    -101.857E-03     32.5280E-03
            2038     1.62600E-03     26.0743E-03    -91.4405E+06    -224.461E+06    -84.9695E+06     460.241E+03    -101.936E-03     203.710E-03    -101.774E-03     22.5134E-03    -101.974E-03     202.873E-03    -101.741E-03     22.0199E-03
            2039     812.882E-06     26.0542E-03    -93.6059E+06    -228.830E+06    -92.1184E+06     284.621E+03    -101.503E-03     203.491E-03    -101.989E-03     12.4728E-03    -101.514E-03     202.626E-03    -101.982E-03     12.2133E-03
            2040     15.3205E-03     27.1270E-03    -5.03197E+06     130.965E+06     96.2286E+06     81.5704E+03    -119.795E-03     229.774E-03    -109.979E-03     112.315E-03    -124.648E-03     234.795E-03    -109.681E-03     105.958E-03
            2041     14.5256E-03     26.9319E-03    -11.2772E+06     132.463E+06     99.5726E+06     585.026E+03    -120.661E-03     230.107E-03    -109.446E-03     172.207E-03    -128.249E-03     237.837E-03    -109.124E-03     163.343E-03
            2042     13.7265E-03     26.7445E-03    -17.6631E+06     122.126E+06     93.9643E+06     879.173E+03    -120.922E-03     229.775E-03    -108.853E-03     183.593E-03    -128.529E-03     237.480E-03    -108.535E-03     174.013E-03
            2043     12.9266E-03     26.5205E-03    -23.8333E+06     111.125E+06     75.9586E+06     1.31310E+06    -121.593E-03     229.769E-03    -108.176E-03     195.271E-03    -129.038E-03     237.304E-03    -107.923E-03     185.252E-03
            2044     12.1269E-03     26.3050E-03    -29.0192E+06     94.2626E+06     44.8643E+06     1.78563E+06    -120.546E-03     227.962E-03    -107.417E-03     180.848E-03    -126.477E-03     233.995E-03    -107.287E-03     171.672E-03
            2045     11.3255E-03     26.1120E-03    -33.1921E+06     64.3083E+06     23.0852E+06     1.55044E+06    -118.603E-03     225.319E-03    -106.716E-03     158.866E-03    -122.907E-03     229.666E-03    -106.646E-03     151.021E-03
            2046     10.5236E-03     25.9439E-03    -37.1914E+06     11.5111E+06     12.3556E+06     1.37044E+06    -116.986E-03     223.094E-03    -106.108E-03     141.870E-03    -120.124E-03     226.105E-03    -106.009E-03     135.209E-03
            2047     9.71986E-03     25.7888E-03    -41.6026E+06    -44.3757E+06     3.66112E+06     1.31121E+06    -115.629E-03     221.143E-03    -105.514E-03     129.972E-03    -117.953E-03     223.151E-03    -105.371E-03     124.318E-03
            2048     8.91588E-03     25.6462E-03    -45.7069E+06    -83.2090E+06    -1.07960E+06     1.37814E+06    -114.022E-03     218.943E-03    -104.921E-03     118.892E-03    -115.748E-03     220.215E-03    -104.739E-03     114.132E-03
            2049     8.11024E-03     25.5152E-03    -49.7306E+06    -110.165E+06    -6.08392E+06     1.41642E+06    -112.289E-03     216.616E-03    -104.327E-03     107.789E-03    -113.561E-03     217.338E-03    -104.125E-03     103.821E-03
            2050     7.30348E-03     25.3970E-03    -54.4845E+06    -134.155E+06    -11.6012E+06     1.23459E+06    -110.501E-03     214.255E-03    -103.753E-03     96.7160E-03    -111.427E-03     214.545E-03    -103.538E-03     93.4352E-03
            2051     6.49572E-03     25.2908E-03    -59.7925E+06    -154.952E+06    -17.5905E+06     1.49901E+06    -108.756E-03     211.965E-03    -103.209E-03     85.7529E-03    -109.423E-03     211.920E-03    -102.985E-03     83.0681E-03
            2052     5.68651E-03     25.1974E-03    -65.3993E+06    -169.746E+06    -26.9467E+06     1.37495E+06    -107.073E-03     209.753E-03    -102.680E-03     74.9234E-03    -107.546E-03     209.469E-03    -102.474E-03     72.7490E-03
            2053     4.87656E-03     25.1161E-03    -71.2939E+06    -183.185E+06    -38.4070E+06     1.01312E+06    -105.477E-03     207.670E-03    -102.193E-03     64.3112E-03    -105.805E-03     207.205E-03    -102.016E-03     62.5745E-03
            2054     4.06535E-03     25.0472E-03    -77.0278E+06    -196.659E+06    -49.4377E+06     1.20917E+06    -104.057E-03     205.829E-03    -101.772E-03     53.7924E-03    -104.275E-03     205.219E-03    -101.622E-03     52.4405E-03
            2055     3.25331E-03     24.9898E-03    -82.3425E+06    -207.458E+06    -61.4043E+06     1.18770E+06    -102.889E-03     204.298E-03    -101.409E-03     43.1629E-03    -103.026E-03     203.584E-03    -101.296E-03     42.1392E-03
            2056     2.44081E-03     24.9464E-03    -87.1846E+06    -216.562E+06    -73.9638E+06     969.258E+03    -101.887E-03     203.008E-03    -101.121E-03     32.6683E-03    -101.965E-03     202.222E-03    -101.051E-03     31.9327E-03
            2057     1.62727E-03     24.9137E-03    -90.9458E+06    -223.362E+06    -84.5813E+06     590.284E+03    -101.099E-03     202.073E-03    -100.974E-03     21.9971E-03    -101.136E-03     201.239E-03    -100.941E-03     21.5164E-03
            2058     813.233E-06     24.8950E-03    -93.5573E+06    -228.076E+06    -91.9321E+06     850.715E+03    -101.102E-03     201.906E-03    -100.803E-03     12.7962E-03    -101.115E-03     201.043E-03    -100.796E-03     12.5531E-03
            2059     15.3266E-03     25.9323E-03    -5.79206E+06     130.338E+06     96.1725E+06     659.210E+03    -121.089E-03     231.007E-03    -109.918E-03     110.106E-03    -125.850E-03     235.932E-03    -109.618E-03     103.688E-03
            2060     14.5264E-03     25.7397E-03    -11.1514E+06     132.163E+06     99.4878E+06     443.443E+03    -121.402E-03     230.718E-03    -109.316E-03     169.434E-03    -128.877E-03     238.334E-03    -108.994E-03     160.493E-03
            2061     13.7289E-03     25.5526E-03    -17.2783E+06     121.828E+06     93.6751E+06     306.389E+03    -121.965E-03     230.616E-03    -108.652E-03     181.107E-03    -129.472E-03     238.223E-03    -108.335E-03     171.450E-03
            2062     12.9307E-03     25.3333E-03    -23.1488E+06     110.236E+06     76.2060E+06     1.07339E+06    -122.381E-03     230.280E-03    -107.899E-03     193.060E-03    -129.714E-03     237.702E-03    -107.644E-03     183.023E-03
            2063     12.1308E-03     25.1173E-03    -28.5135E+06     94.1576E+06     45.3607E+06     1.61261E+06    -120.996E-03     228.067E-03    -107.071E-03     178.597E-03    -126.848E-03     234.020E-03    -106.939E-03     169.434E-03
            2064     11.3307E-03     24.9298E-03    -33.3204E+06     64.9378E+06     22.7271E+06     1.88268E+06    -118.807E-03     225.115E-03    -106.308E-03     156.761E-03    -123.052E-03     229.407E-03    -106.240E-03     148.960E-03
            2065     10.5278E-03     24.7625E-03    -37.7782E+06     12.2971E+06     11.7452E+06     2.07341E+06    -117.031E-03     222.680E-03    -105.649E-03     140.093E-03    -120.128E-03     225.653E-03    -105.554E-03     133.490E-03
            2066     9.72519E-03     24.6107E-03    -41.8765E+06    -43.4466E+06     3.47160E+06     1.84409E+06    -115.535E-03     220.547E-03    -105.012E-03     127.908E-03    -117.824E-03     222.524E-03    -104.871E-03     122.312E-03
            2067     8.92052E-03     24.4700E-03    -46.0589E+06    -82.3999E+06    -1.72703E+06     1.36887E+06    -113.862E-03     218.235E-03    -104.373E-03     117.053E-03    -115.562E-03     219.484E-03    -104.196E-03     112.342E-03
            2068     8.11511E-03     24.3422E-03    -50.4271E+06    -109.924E+06    -6.69979E+06     1.23595E+06    -112.050E-03     215.786E-03    -103.736E-03     105.968E-03    -113.303E-03     216.489E-03    -103.537E-03     102.044E-03
            2069     7.30824E-03     24.2261E-03    -55.0951E+06    -133.429E+06    -12.0542E+06     1.59924E+06    -110.162E-03     213.282E-03    -103.120E-03     94.9464E-03    -111.073E-03     213.559E-03    -102.907E-03     91.7149E-03
            2070     6.49994E-03     24.1227E-03    -60.1483E+06    -154.768E+06    -18.4771E+06     1.41637E+06    -108.279E-03     210.815E-03    -102.536E-03     84.0334E-03    -108.930E-03     210.757E-03    -102.317E-03     81.3921E-03
            2071     5.69072E-03     24.0311E-03    -65.3286E+06    -169.136E+06    -26.8650E+06     1.59643E+06    -106.480E-03     208.464E-03    -101.984E-03     73.3868E-03    -106.942E-03     208.172E-03    -101.778E-03     71.2558E-03
            2072     4.88001E-03     23.9523E-03    -70.9103E+06    -182.423E+06    -38.1849E+06     1.70932E+06    -104.904E-03     206.373E-03    -101.469E-03     62.9723E-03    -105.223E-03     205.903E-03    -101.293E-03     61.2763E-03
            2073     4.06853E-03     23.8847E-03    -76.7034E+06    -196.128E+06    -49.6320E+06     1.32992E+06    -103.339E-03     204.363E-03    -101.024E-03     52.4978E-03    -103.550E-03     203.750E-03    -100.877E-03     51.1737E-03
            2074     3.25576E-03     23.8299E-03    -82.1020E+06    -206.759E+06    -61.5151E+06     1.13132E+06    -102.016E-03     202.686E-03    -100.670E-03     42.3110E-03    -102.149E-03     201.972E-03    -100.559E-03     41.3111E-03
            2075     2.44220E-03     23.7863E-03    -86.7752E+06    -215.419E+06    -73.7657E+06     898.613E+03    -101.200E-03     201.588E-03    -100.388E-03     31.8661E-03    -101.275E-03     200.805E-03    -100.319E-03     31.1440E-03
            2076     1.62856E-03     23.7561E-03    -90.6985E+06    -222.425E+06    -84.3844E+06     736.360E+03    -100.658E-03     200.787E-03    -100.129E-03     21.4655E-03    -100.694E-03     199.956E-03    -100.096E-03     20.9958E-03
            2077     814.733E-06     23.7357E-03    -93.6367E+06    -227.258E+06    -91.5789E+06     1.04763E+06    -100.361E-03     200.009E-03    -99.6481E-03     12.4990E-03    -100.376E-03     199.151E-03    -99.6407E-03     12.2647E-03
            2078     15.3249E-03     24.7383E-03    -3.84623E+06     130.367E+06     96.6334E+06     296.759E+03    -122.778E-03     232.625E-03    -109.847E-03     109.094E-03    -127.482E-03     237.498E-03    -109.547E-03     102.532E-03
            2079     14.5299E-03     24.5460E-03    -8.74828E+06     132.079E+06     100.197E+06     806.885E+03    -122.605E-03     231.766E-03    -109.161E-03     167.826E-03    -129.957E-03     239.266E-03    -108.839E-03     158.804E-03
            2080     13.7323E-03     24.3611E-03    -15.6605E+06     121.597E+06     94.0289E+06     1.56809E+06    -122.640E-03     231.069E-03    -108.429E-03     178.881E-03    -130.018E-03     238.551E-03    -108.112E-03     169.224E-03
            2081     12.9341E-03     24.1438E-03    -23.1205E+06     110.172E+06     75.9355E+06     1.50781E+06    -122.852E-03     230.470E-03    -107.618E-03     190.906E-03    -130.083E-03     237.790E-03    -107.365E-03     180.890E-03
            2082     12.1354E-03     23.9313E-03    -29.3287E+06     93.3771E+06     44.3706E+06     1.70812E+06    -121.216E-03     227.955E-03    -106.739E-03     176.497E-03    -126.980E-03     233.818E-03    -106.610E-03     167.386E-03
            2083     11.3342E-03     23.7463E-03    -34.1426E+06     64.9673E+06     22.0718E+06     2.41061E+06    -119.050E-03     224.977E-03    -105.927E-03     154.597E-03    -123.240E-03     229.213E-03    -105.862E-03     146.838E-03
            2084     10.5331E-03     23.5821E-03    -38.2185E+06     13.6634E+06     11.4152E+06     2.46190E+06    -117.115E-03     222.332E-03    -105.216E-03     138.075E-03    -120.172E-03     225.268E-03    -105.124E-03     131.520E-03
            2085     9.72948E-03     23.4327E-03    -42.0358E+06    -42.1948E+06     3.19834E+06     1.93693E+06    -115.390E-03     219.927E-03    -104.537E-03     126.062E-03    -117.644E-03     221.873E-03    -104.399E-03     120.523E-03
            2086     8.92529E-03     23.2951E-03    -45.9818E+06    -80.9818E+06    -1.67017E+06     1.67448E+06    -113.669E-03     217.532E-03    -103.863E-03     115.149E-03    -115.342E-03     218.759E-03    -103.687E-03     110.492E-03
            2087     8.11945E-03     23.1693E-03    -50.4510E+06    -109.886E+06    -7.37655E+06     1.47080E+06    -111.800E-03     214.986E-03    -103.186E-03     104.049E-03    -113.027E-03     215.665E-03    -102.990E-03     100.176E-03
            2088     7.31243E-03     23.0565E-03    -55.0251E+06    -133.419E+06    -12.4854E+06     1.56343E+06    -109.841E-03     212.373E-03    -102.532E-03     93.0563E-03    -110.731E-03     212.631E-03    -102.321E-03     89.8684E-03
            2089     6.50423E-03     22.9551E-03    -59.9647E+06    -153.743E+06    -18.6557E+06     1.65099E+06    -107.811E-03     209.726E-03    -101.915E-03     82.2284E-03    -108.447E-03     209.657E-03    -101.698E-03     79.6354E-03
            2090     5.69418E-03     22.8669E-03    -65.5082E+06    -169.187E+06    -27.5308E+06     1.59836E+06    -105.932E-03     207.269E-03    -101.337E-03     71.8193E-03    -106.382E-03     206.966E-03    -101.135E-03     69.7274E-03
            2091     4.88327E-03     22.7892E-03    -70.9057E+06    -181.949E+06    -38.3942E+06     1.83252E+06    -104.238E-03     205.048E-03    -100.810E-03     61.6008E-03    -104.549E-03     204.573E-03    -100.636E-03     59.9398E-03
            2092     4.07125E-03     22.7244E-03    -76.2867E+06    -194.993E+06    -49.5678E+06     1.63998E+06    -102.735E-03     203.088E-03    -100.353E-03     51.2330E-03    -102.940E-03     202.474E-03    -100.207E-03     49.9385E-03
            2093     3.25798E-03     22.6713E-03    -81.8453E+06    -205.731E+06    -61.7232E+06     1.44446E+06    -101.465E-03     201.431E-03    -99.9660E-03     41.2216E-03    -101.595E-03     200.719E-03    -99.8577E-03     40.2459E-03
            2094     2.44414E-03     22.6284E-03    -86.8194E+06    -214.740E+06    -74.0952E+06     1.19168E+06    -100.542E-03     200.188E-03    -99.6459E-03     30.9940E-03    -100.616E-03     199.406E-03    -99.5791E-03     30.2939E-03
            2095     1.62991E-03     22.5987E-03    -90.8765E+06    -221.444E+06    -84.4547E+06     939.962E+03    -99.9966E-03     199.334E-03    -99.3371E-03     20.9938E-03    -100.034E-03     198.507E-03    -99.3065E-03     20.5383E-03
            2096     815.429E-06     22.5795E-03    -93.2623E+06    -225.906E+06    -91.6262E+06     526.049E+03    -99.3199E-03     198.354E-03    -99.0342E-03     11.6937E-03    -99.3342E-03     197.501E-03    -99.0295E-03     11.4532E-03
            2097     15.3265E-03     23.5379E-03    -4.71064E+06     130.258E+06     95.9687E+06    -358.639E+03    -124.126E-03     233.924E-03    -109.798E-03     107.116E-03    -128.745E-03     238.710E-03    -109.500E-03     100.439E-03
            2098     14.5317E-03     23.3511E-03    -11.3001E+06     130.800E+06     98.6356E+06     693.435E+03    -123.828E-03     232.862E-03    -109.034E-03     165.779E-03    -131.066E-03     240.239E-03    -108.714E-03     156.656E-03
            2099     13.7352E-03     23.1695E-03    -17.6313E+06     121.021E+06     93.3960E+06     1.71019E+06    -123.453E-03     231.688E-03    -108.235E-03     177.714E-03    -130.747E-03     239.078E-03    -107.918E-03     168.026E-03
            2100     12.9378E-03     22.9535E-03    -23.6313E+06     110.552E+06     76.0178E+06     2.16742E+06    -123.249E-03     230.619E-03    -107.370E-03     188.900E-03    -130.391E-03     237.849E-03    -107.116E-03     178.908E-03
            2101     12.1384E-03     22.7458E-03    -29.5402E+06     93.0956E+06     43.9434E+06     2.43101E+06    -121.481E-03     227.923E-03    -106.441E-03     174.320E-03    -127.163E-03     233.703E-03    -106.314E-03     165.259E-03
            2102     11.3389E-03     22.5619E-03    -34.2223E+06     65.1571E+06     21.5644E+06     2.60220E+06    -119.212E-03     224.795E-03    -105.583E-03     152.574E-03    -123.340E-03     228.971E-03    -105.520E-03     144.864E-03
            2103     10.5368E-03     22.4023E-03    -38.1188E+06     15.1559E+06     11.4455E+06     2.37917E+06    -117.134E-03     221.965E-03    -104.831E-03     136.068E-03    -120.146E-03     224.863E-03    -104.741E-03     129.559E-03
            2104     9.73385E-03     22.2552E-03    -41.8867E+06    -40.9658E+06     2.83711E+06     2.02760E+06    -115.376E-03     219.486E-03    -104.110E-03     124.313E-03    -117.597E-03     221.404E-03    -103.976E-03     118.821E-03
            2105     8.92936E-03     22.1204E-03    -45.8289E+06    -80.8505E+06    -2.15074E+06     1.85069E+06    -113.565E-03     216.960E-03    -103.395E-03     113.129E-03    -115.205E-03     218.156E-03    -103.222E-03     108.522E-03
            2106     8.12360E-03     21.9978E-03    -49.9538E+06    -108.750E+06    -7.29716E+06     1.89996E+06    -111.556E-03     214.236E-03    -102.680E-03     102.004E-03    -112.756E-03     214.894E-03    -102.486E-03     98.1850E-03
            2107     7.31653E-03     21.8871E-03    -54.6941E+06      -133.1E+06    -12.8778E+06     1.70529E+06    -109.442E-03     211.438E-03    -101.995E-03     90.9930E-03    -110.309E-03     211.675E-03    -101.788E-03     87.8571E-03
            2108     6.50760E-03     21.7895E-03    -59.9093E+06    -153.421E+06    -18.8122E+06     2.02504E+06    -107.401E-03     208.755E-03    -101.353E-03     80.3465E-03    -108.021E-03     208.672E-03    -101.138E-03     77.8011E-03
            2109     5.69774E-03     21.7029E-03    -65.5025E+06    -168.609E+06    -28.4505E+06     2.20348E+06    -105.467E-03     206.211E-03    -100.744E-03     70.0208E-03    -105.904E-03     205.900E-03    -100.547E-03     67.9745E-03
            2110     4.88627E-03     21.6284E-03    -71.2953E+06    -181.795E+06    -39.7376E+06     1.84034E+06    -103.620E-03     203.820E-03    -100.200E-03     59.8794E-03    -103.922E-03     203.339E-03    -100.032E-03     58.2539E-03
            2111     4.07327E-03     21.5651E-03    -76.7766E+06    -194.057E+06    -50.2668E+06     1.73240E+06    -102.215E-03     201.943E-03    -99.7276E-03     49.8707E-03    -102.417E-03     201.329E-03    -99.5862E-03     48.6046E-03
            2112     3.26037E-03     21.5132E-03    -81.9310E+06    -204.708E+06    -62.0466E+06     1.76892E+06    -101.083E-03     200.371E-03    -99.2879E-03     39.8962E-03    -101.210E-03     199.660E-03    -99.1825E-03     38.9424E-03
            2113     2.44609E-03     21.4730E-03    -86.7529E+06    -213.595E+06    -74.1155E+06     1.66809E+06    -99.9050E-03     198.815E-03    -98.9096E-03     30.1118E-03    -99.9780E-03     198.036E-03    -98.8447E-03     29.4356E-03
            2114     1.63101E-03     21.4427E-03    -90.5853E+06    -220.092E+06    -84.5442E+06     1.17849E+06    -99.0239E-03     197.676E-03    -98.6521E-03     20.4193E-03    -99.0606E-03     196.855E-03    -98.6243E-03     19.9794E-03
            2115     815.497E-06     21.4258E-03    -92.6157E+06    -224.105E+06    -91.1921E+06     230.367E+03    -98.5810E-03     197.126E-03    -98.5446E-03     10.9371E-03    -98.5950E-03     196.280E-03    -98.5413E-03     10.6917E-03
            2116     15.3277E-03     22.3393E-03    -6.02418E+06     128.961E+06     94.9725E+06     424.693E+03    -125.234E-03     235.006E-03    -109.772E-03     106.012E-03    -129.761E-03     239.694E-03    -109.475E-03     99.2895E-03
            2117     14.5322E-03     22.1548E-03    -11.9054E+06     130.306E+06     98.0994E+06     1.16574E+06    -124.748E-03     233.698E-03    -108.950E-03     163.742E-03    -131.855E-03     240.941E-03    -108.631E-03     154.556E-03
            2118     13.7370E-03     21.9753E-03    -17.8029E+06     120.670E+06     92.8753E+06     772.721E+03    -124.241E-03     232.331E-03    -108.090E-03     175.415E-03    -131.417E-03     239.603E-03    -107.775E-03     165.683E-03
            2119     12.9400E-03     21.7639E-03    -23.6815E+06     108.995E+06     75.4709E+06     1.71802E+06    -123.748E-03     230.920E-03    -107.171E-03     186.878E-03    -130.778E-03     238.033E-03    -106.918E-03     176.902E-03
            2120     12.1423E-03     21.5585E-03    -28.7296E+06     93.2461E+06     45.3808E+06     3.06080E+06    -121.835E-03     228.035E-03    -106.200E-03     172.231E-03    -127.438E-03     233.736E-03    -106.067E-03     163.204E-03
            2121     11.3416E-03     21.3789E-03    -33.3338E+06     66.1858E+06     22.0319E+06     3.07539E+06    -119.277E-03     224.572E-03    -105.295E-03     150.480E-03    -123.337E-03     228.685E-03    -105.232E-03     142.830E-03
            2122     10.5403E-03     21.2218E-03    -37.4408E+06     16.0740E+06     11.0922E+06     2.49636E+06    -117.239E-03     221.741E-03    -104.502E-03     134.064E-03    -120.202E-03     224.596E-03    -104.416E-03     127.600E-03
            2123     9.73734E-03     21.0781E-03    -41.3802E+06    -39.8058E+06     2.80653E+06     2.37499E+06    -115.531E-03     219.266E-03    -103.735E-03     122.187E-03    -117.713E-03     221.152E-03    -103.604E-03     116.734E-03
            2124     8.93310E-03     20.9461E-03    -45.4377E+06    -80.3659E+06    -2.76290E+06     2.24398E+06    -113.511E-03     216.481E-03    -102.970E-03     110.853E-03    -115.114E-03     217.646E-03    -102.802E-03     106.298E-03
            2125     8.12746E-03     20.8266E-03    -49.9367E+06    -108.221E+06    -7.69105E+06     2.25439E+06    -111.337E-03     213.555E-03    -102.219E-03     99.7371E-03    -112.508E-03     214.187E-03    -102.028E-03     95.9732E-03
            2126     7.31984E-03     20.7194E-03    -54.8115E+06    -132.108E+06    -13.3441E+06     2.34355E+06    -109.145E-03     210.645E-03    -101.499E-03     88.6081E-03    -109.989E-03     210.863E-03    -101.295E-03     85.5305E-03
            2127     6.51107E-03     20.6242E-03    -60.0645E+06    -153.788E+06    -19.9092E+06     2.40974E+06    -107.050E-03     207.874E-03    -100.823E-03     78.0299E-03    -107.649E-03     207.771E-03    -100.613E-03     75.5346E-03
            2128     5.70068E-03     20.5404E-03    -65.4070E+06    -168.001E+06    -28.9810E+06     2.66521E+06    -105.099E-03     205.279E-03    -100.180E-03     67.7279E-03    -105.522E-03     204.957E-03    -99.9863E-03     65.7271E-03
            2129     4.88889E-03     20.4687E-03    -70.8532E+06    -180.395E+06    -39.8561E+06     2.56996E+06    -103.307E-03     202.893E-03    -99.5860E-03     57.5546E-03    -103.597E-03     202.407E-03    -99.4209E-03     55.9729E-03
            2130     4.07638E-03     20.4070E-03    -76.5521E+06    -193.131E+06    -50.8674E+06     2.08711E+06    -101.697E-03     200.759E-03    -99.0623E-03     47.8869E-03    -101.890E-03     200.142E-03    -98.9256E-03     46.6563E-03
            2131     3.26212E-03     20.3568E-03    -81.8962E+06    -203.973E+06    -62.5655E+06     1.91754E+06    -100.347E-03     198.955E-03    -98.6073E-03     38.2767E-03    -100.469E-03     198.243E-03    -98.5057E-03     37.3515E-03
            2132     2.44782E-03     20.3178E-03    -86.3430E+06    -212.134E+06    -74.0774E+06     1.68654E+06    -99.2696E-03     197.492E-03    -98.2220E-03     28.9511E-03    -99.3403E-03     196.718E-03    -98.1596E-03     28.2895E-03
            2133     1.63217E-03     20.2903E-03    -89.6600E+06    -218.187E+06    -83.6909E+06     1.29115E+06    -98.3799E-03     196.315E-03    -97.9350E-03     19.4746E-03    -98.4148E-03     195.500E-03    -97.9071E-03     19.0475E-03
            2134     815.928E-06     20.2719E-03    -92.1363E+06    -222.576E+06    -90.6301E+06     469.418E+03    -97.9205E-03     195.644E-03    -97.7239E-03     10.2834E-03    -97.9344E-03     194.804E-03    -97.7207E-03     10.0505E-03
            2135     15.3258E-03     21.1387E-03    -4.81351E+06     128.765E+06     95.0401E+06     747.163E+03    -126.359E-03     236.146E-03    -109.787E-03     104.754E-03    -130.807E-03     240.759E-03    -109.492E-03     97.9351E-03
            2136     14.5338E-03     20.9560E-03    -10.2403E+06     130.269E+06     98.2282E+06     730.718E+03    -125.873E-03     234.773E-03    -108.900E-03     161.011E-03    -132.825E-03     241.866E-03    -108.582E-03     151.746E-03
            2137     13.7388E-03     20.7819E-03    -16.2781E+06     120.516E+06     92.9730E+06     1.54274E+06    -124.723E-03     232.708E-03    -107.985E-03     172.829E-03    -131.750E-03     239.835E-03    -107.671E-03     163.127E-03
            2138     12.9421E-03     20.5730E-03    -23.1960E+06     107.966E+06     75.1507E+06     1.81986E+06    -124.153E-03     231.179E-03    -107.026E-03     184.804E-03    -131.069E-03     238.178E-03    -106.773E-03     174.857E-03
            2139     12.1438E-03     20.3708E-03    -28.8334E+06     91.5404E+06     44.9999E+06     2.57166E+06    -122.176E-03     228.190E-03    -106.014E-03     169.864E-03    -127.687E-03     233.793E-03    -105.880E-03     160.863E-03
            2140     11.3447E-03     20.1957E-03    -33.1387E+06     67.5221E+06     22.1145E+06     3.48343E+06    -119.606E-03     224.665E-03    -105.059E-03     147.925E-03    -123.599E-03     228.716E-03    -104.998E-03     140.309E-03
            2141     10.5430E-03     20.0413E-03    -37.3166E+06     17.6212E+06     10.2984E+06     3.14051E+06    -117.545E-03     221.753E-03    -104.208E-03     131.630E-03    -120.452E-03     224.561E-03    -104.128E-03     125.207E-03
            2142     9.74062E-03     19.9006E-03    -41.5273E+06    -39.2191E+06     1.96254E+06     2.80729E+06    -115.732E-03     219.119E-03    -103.387E-03     119.410E-03    -117.865E-03     220.960E-03    -103.260E-03     114.002E-03
            2143     8.93667E-03     19.7722E-03    -45.7474E+06    -79.3662E+06    -3.49737E+06     2.85925E+06    -113.540E-03     216.107E-03    -102.567E-03     107.804E-03    -115.100E-03     217.234E-03    -102.403E-03     103.308E-03
            2144     8.13059E-03     19.6562E-03    -50.1252E+06    -107.596E+06    -8.80583E+06     2.76342E+06    -111.247E-03     213.010E-03    -101.763E-03     96.6317E-03    -112.379E-03     213.607E-03    -101.578E-03     92.9331E-03
            2145     7.32352E-03     19.5517E-03    -54.6913E+06    -132.070E+06    -14.1618E+06     2.86824E+06    -109.070E-03     210.059E-03    -100.990E-03     85.3875E-03    -109.879E-03     210.247E-03    -100.790E-03     82.3687E-03
            2146     6.51451E-03     19.4602E-03    -59.7675E+06    -153.471E+06    -20.5089E+06     3.11442E+06    -106.917E-03     207.164E-03    -100.247E-03     74.6178E-03    -107.487E-03     207.037E-03    -100.041E-03     72.1797E-03
            2147     5.70393E-03     19.3788E-03    -65.3179E+06    -167.147E+06    -29.3122E+06     3.08740E+06    -104.824E-03     204.359E-03    -99.5350E-03     64.2819E-03    -105.225E-03     204.020E-03    -99.3445E-03     62.3354E-03
            2148     4.89252E-03     19.3094E-03    -70.8304E+06    -179.145E+06    -39.9697E+06     3.00555E+06    -102.940E-03     201.811E-03    -98.8709E-03     54.5061E-03    -103.216E-03     201.315E-03    -98.7083E-03     52.9730E-03
            2149     4.07927E-03     19.2505E-03    -76.1661E+06    -191.649E+06    -51.0903E+06     2.82339E+06    -101.143E-03     199.423E-03    -98.2803E-03     45.1578E-03    -101.325E-03     198.803E-03    -98.1475E-03     43.9755E-03
            2150     3.26506E-03     19.2024E-03    -81.3805E+06    -202.762E+06    -62.9284E+06     2.31697E+06    -99.5382E-03     197.328E-03    -97.7894E-03     35.9099E-03    -99.6514E-03     196.615E-03    -97.6921E-03     35.0245E-03
            2151     2.44897E-03     19.1648E-03    -85.7911E+06    -210.604E+06    -74.0625E+06     1.67155E+06    -98.4715E-03     195.860E-03    -97.3882E-03     26.8883E-03    -98.5375E-03     195.088E-03    -97.3288E-03     26.2522E-03
            2152     1.63356E-03     19.1375E-03    -89.2733E+06    -216.613E+06    -83.2425E+06     1.08360E+06    -97.7055E-03     194.737E-03    -97.0310E-03     17.9763E-03    -97.7394E-03     193.926E-03    -97.0037E-03     17.5629E-03
            2153     817.415E-06     19.1218E-03    -91.5251E+06    -220.653E+06    -89.8418E+06     476.241E+03    -97.0297E-03     193.709E-03    -96.6796E-03     9.55299E-03    -97.0439E-03     192.876E-03    -96.6761E-03     9.33006E-03
            2154     15.3263E-03     19.9336E-03    -3.99290E+06     129.161E+06     95.3432E+06     810.328E+03    -127.156E-03     236.959E-03    -109.802E-03     102.478E-03    -131.486E-03     241.457E-03    -109.507E-03     95.6430E-03
            2155     14.5338E-03     19.7573E-03    -10.7026E+06     129.842E+06     97.3320E+06     1.08577E+06    -126.214E-03     235.090E-03    -108.876E-03     157.994E-03    -133.003E-03     242.020E-03    -108.562E-03     148.747E-03
            2156     13.7392E-03     19.5870E-03    -17.3702E+06     119.541E+06     92.1408E+06     1.40888E+06    -125.349E-03     233.276E-03    -107.927E-03     170.363E-03    -132.248E-03     240.270E-03    -107.614E-03     160.659E-03
            2157     12.9432E-03     19.3814E-03    -22.9896E+06     107.816E+06     75.5366E+06     2.13522E+06    -124.631E-03     231.555E-03    -106.925E-03     182.083E-03    -131.416E-03     238.423E-03    -106.670E-03     172.163E-03
            2158     12.1459E-03     19.1833E-03    -28.8578E+06     89.8572E+06     43.9464E+06     3.07972E+06    -122.637E-03     228.496E-03    -105.859E-03     166.877E-03    -128.033E-03     233.981E-03    -105.728E-03     157.909E-03
            2159     11.3464E-03     19.0110E-03    -34.0067E+06     67.9191E+06     20.6561E+06     3.74834E+06    -120.216E-03     225.053E-03    -104.838E-03     144.544E-03    -124.121E-03     229.019E-03    -104.784E-03     136.948E-03
            2160     10.5463E-03     18.8611E-03    -38.1938E+06     19.6370E+06     9.27881E+06     3.69619E+06    -118.116E-03     222.027E-03    -103.911E-03     128.352E-03    -120.956E-03     224.775E-03    -103.838E-03     121.963E-03
            2161     9.74395E-03     18.7228E-03    -42.1016E+06    -38.3752E+06     759.411E+03     3.28885E+06    -116.115E-03     219.126E-03    -103.011E-03     115.548E-03    -118.181E-03     220.904E-03    -102.890E-03     110.196E-03
            2162     8.94019E-03     18.5988E-03    -45.9402E+06    -78.8084E+06    -4.47628E+06     3.14630E+06    -113.927E-03     216.032E-03    -102.105E-03     103.413E-03    -115.423E-03     217.099E-03    -101.947E-03     98.9780E-03
            2163     8.13505E-03     18.4858E-03    -49.9264E+06    -106.638E+06    -9.52916E+06     3.20958E+06    -111.641E-03     212.835E-03    -101.194E-03     91.6176E-03    -112.716E-03     213.382E-03    -101.015E-03     87.9837E-03
            2164     7.32760E-03     18.3851E-03    -54.4280E+06    -132.210E+06    -14.8509E+06     3.37234E+06    -109.196E-03     209.503E-03    -100.307E-03     79.9159E-03    -109.951E-03     209.639E-03    -100.111E-03     76.9761E-03
            2165     6.51912E-03     18.2960E-03    -59.4910E+06    -152.890E+06    -20.7467E+06     3.84953E+06    -106.815E-03     206.268E-03    -99.4534E-03     69.1880E-03    -107.343E-03     206.103E-03    -99.2492E-03     66.8328E-03
            2166     5.70921E-03     18.2185E-03    -64.8549E+06    -165.810E+06    -29.7000E+06     3.91178E+06    -104.504E-03     203.134E-03    -98.6301E-03     59.2045E-03    -104.872E-03     202.769E-03    -98.4441E-03     57.3413E-03
            2167     4.89658E-03     18.1519E-03    -70.3025E+06    -178.253E+06    -40.3127E+06     3.44096E+06    -102.329E-03     200.200E-03    -97.8704E-03     49.7623E-03    -102.579E-03     199.684E-03    -97.7115E-03     48.3033E-03
            2168     4.08331E-03     18.0952E-03    -75.6126E+06    -190.194E+06    -50.9764E+06     3.28346E+06    -100.395E-03     197.589E-03    -97.1937E-03     40.6978E-03    -100.560E-03     196.958E-03    -97.0631E-03     39.5818E-03
            2169     3.26821E-03     18.0502E-03    -80.5007E+06    -200.678E+06    -62.4456E+06     2.79994E+06    -98.7755E-03     195.372E-03    -96.5962E-03     32.2018E-03    -98.8774E-03     194.656E-03    -96.5007E-03     31.3696E-03
            2170     2.45291E-03     18.0134E-03    -85.1618E+06    -208.567E+06    -73.9091E+06     2.02248E+06    -97.3283E-03     193.428E-03    -96.0999E-03     23.8840E-03    -97.3878E-03     192.659E-03    -96.0435E-03     23.2933E-03
            2171     1.63539E-03     17.9884E-03    -88.7951E+06    -215.008E+06    -83.4883E+06     1.24611E+06    -96.2584E-03     192.005E-03    -95.7467E-03     15.9714E-03    -96.2889E-03     191.199E-03    -95.7237E-03     15.5874E-03
            2172     817.697E-06     17.9722E-03    -90.6647E+06    -218.712E+06    -89.4859E+06     371.846E+03    -95.7490E-03     191.214E-03    -95.4646E-03     8.33961E-03    -95.7615E-03     190.388E-03    -95.4634E-03     8.12740E-03
            2173     15.3272E-03     18.7318E-03    -4.91745E+06     127.900E+06     94.3172E+06     1.06460E+06    -127.983E-03     237.815E-03    -109.831E-03     100.671E-03    -132.186E-03     242.181E-03    -109.538E-03     93.8506E-03
            2174     14.5331E-03     18.5586E-03    -10.7269E+06     130.157E+06     97.5216E+06     1.76334E+06    -126.623E-03     235.497E-03    -108.873E-03     154.968E-03    -133.228E-03     242.243E-03    -108.559E-03     145.759E-03
            2175     13.7397E-03     18.3895E-03    -17.0380E+06     119.743E+06     92.1752E+06     1.42294E+06    -125.809E-03     233.698E-03    -107.889E-03     166.899E-03    -132.545E-03     240.532E-03    -107.577E-03     157.203E-03
            2176     12.9445E-03     18.1903E-03    -23.9300E+06     106.190E+06     74.5466E+06     2.14032E+06    -125.485E-03     232.317E-03    -106.832E-03     178.936E-03    -132.127E-03     239.034E-03    -106.578E-03     168.993E-03
            2177     12.1472E-03     17.9938E-03    -29.6960E+06     88.5954E+06     43.5757E+06     3.72674E+06    -123.619E-03     229.305E-03    -105.687E-03     162.687E-03    -128.870E-03     234.639E-03    -105.554E-03     153.720E-03
            2178     11.3496E-03     17.8266E-03    -34.2862E+06     68.3052E+06     20.0455E+06     4.24955E+06    -121.103E-03     225.667E-03    -104.565E-03     139.902E-03    -124.877E-03     229.504E-03    -104.514E-03     132.340E-03
            2179     10.5493E-03     17.6793E-03    -38.2742E+06     21.3980E+06     8.67579E+06     3.93084E+06    -119.187E-03     222.707E-03    -103.519E-03     123.139E-03    -121.921E-03     225.356E-03    -103.452E-03     116.775E-03
            2180     9.74853E-03     17.5452E-03    -41.6830E+06    -37.1333E+06     340.895E+03     3.55275E+06    -117.124E-03     219.601E-03    -102.477E-03     109.104E-03    -119.081E-03     221.278E-03    -102.361E-03     103.806E-03
            2181     8.94562E-03     17.4251E-03    -45.4376E+06    -78.1106E+06    -5.10544E+06     3.44179E+06    -114.979E-03     216.378E-03    -101.399E-03     96.3377E-03    -116.376E-03     217.351E-03    -101.246E-03     91.9726E-03
            2182     8.14142E-03     17.3148E-03    -49.6617E+06    -106.313E+06    -10.1477E+06     3.67626E+06    -112.522E-03     212.811E-03    -100.289E-03     83.3888E-03    -113.504E-03     213.269E-03    -100.113E-03     79.8472E-03
            2183     7.33582E-03     17.2196E-03    -54.2638E+06    -131.788E+06    -15.3771E+06     4.24756E+06    -109.510E-03     208.708E-03    -99.1981E-03     71.4172E-03    -110.186E-03     208.768E-03    -99.0052E-03     68.6004E-03
            2184     6.52717E-03     17.1333E-03    -59.2908E+06    -152.144E+06    -21.3051E+06     4.48851E+06    -106.534E-03     204.700E-03    -98.1656E-03     60.9206E-03    -106.999E-03     204.476E-03    -97.9656E-03     58.6982E-03
            2185     5.71612E-03     17.0604E-03    -64.3123E+06    -164.409E+06    -29.7677E+06      4.3441E+06    -103.856E-03     201.044E-03    -97.1880E-03     51.3520E-03    -104.175E-03     200.637E-03    -97.0052E-03     49.6125E-03
            2186     4.90457E-03     16.9956E-03    -69.4318E+06    -176.786E+06    -39.9804E+06     4.09163E+06    -101.386E-03     197.672E-03    -96.2858E-03     42.5938E-03    -101.600E-03     197.127E-03    -96.1287E-03     41.2498E-03
            2187     4.08995E-03     16.9440E-03    -74.7011E+06    -188.636E+06    -50.5196E+06     3.80890E+06    -99.2039E-03     194.677E-03    -95.4728E-03     34.5237E-03    -99.3432E-03     194.028E-03    -95.3435E-03     33.5046E-03
            2188     3.27454E-03     16.8989E-03    -79.9028E+06    -198.413E+06    -61.9795E+06     3.39380E+06    -97.2740E-03     192.027E-03    -94.7529E-03     27.0329E-03    -97.3623E-03     191.307E-03    -94.6593E-03     26.2820E-03
            2189     2.45699E-03     16.8669E-03    -84.4690E+06    -206.213E+06    -73.6943E+06     2.68166E+06    -95.5427E-03     189.710E-03    -94.1671E-03     20.0279E-03    -95.5944E-03     188.943E-03    -94.1141E-03     19.5008E-03
            2190     1.63874E-03     16.8419E-03    -88.0314E+06    -212.719E+06    -83.1173E+06     1.78878E+06    -94.2716E-03     188.053E-03    -93.7810E-03     13.3916E-03    -94.2987E-03     187.253E-03    -93.7605E-03     13.0528E-03
            2191     819.441E-06     16.8280E-03    -90.2933E+06    -216.659E+06    -89.1452E+06     831.835E+03    -93.6179E-03     187.273E-03    -93.6556E-03     7.01532E-03    -93.6309E-03     186.455E-03    -93.6562E-03     6.83236E-03
            2192     15.3238E-03     17.5281E-03    -5.08324E+06     127.024E+06     93.8248E+06     999.014E+03    -129.268E-03     239.172E-03    -109.904E-03     98.0360E-03    -133.366E-03     243.432E-03    -109.612E-03     91.1477E-03
            2193     14.5344E-03     17.3564E-03    -10.1320E+06     129.769E+06     97.5473E+06     1.36736E+06    -127.627E-03     236.510E-03    -108.884E-03     151.659E-03    -134.053E-03     243.078E-03    -108.569E-03     142.385E-03
            2194     13.7404E-03     17.1953E-03    -16.4492E+06     119.320E+06     92.1364E+06     2.64959E+06    -126.786E-03     234.620E-03    -107.835E-03     163.688E-03    -133.338E-03     241.271E-03    -107.523E-03     153.961E-03
            2195     12.9448E-03     16.9953E-03    -23.5309E+06     105.519E+06     74.4612E+06     3.51443E+06    -126.974E-03     233.660E-03    -106.687E-03     174.632E-03    -133.419E-03     240.181E-03    -106.433E-03     164.634E-03
            2196     12.1512E-03     16.8034E-03    -29.5294E+06     87.6915E+06     44.1579E+06     3.76438E+06    -125.299E-03     230.710E-03    -105.411E-03     156.717E-03    -130.347E-03     235.837E-03    -105.275E-03     147.716E-03
            2197     11.3533E-03     16.6419E-03    -33.4634E+06     68.9640E+06     20.7096E+06     4.13190E+06    -123.215E-03     227.321E-03    -104.106E-03     133.026E-03    -126.811E-03     230.983E-03    -104.054E-03     125.432E-03
            2198     10.5561E-03     16.4951E-03    -36.8557E+06     22.8846E+06     9.04345E+06     4.30509E+06    -121.182E-03     224.014E-03    -102.833E-03     114.072E-03    -123.735E-03     226.492E-03    -102.767E-03     107.736E-03
            2199     9.75661E-03     16.3682E-03    -40.8328E+06    -35.5324E+06     482.715E+03     4.10085E+06    -119.055E-03     220.584E-03    -101.530E-03     98.8587E-03    -120.845E-03     222.103E-03    -101.417E-03     93.6370E-03
            2200     8.95603E-03     16.2491E-03    -44.8184E+06    -77.0651E+06    -5.35681E+06     4.01961E+06    -116.582E-03     216.742E-03    -100.160E-03     85.0544E-03    -117.828E-03     217.571E-03    -100.010E-03     80.8085E-03
            2201     8.15377E-03     16.1457E-03    -48.8665E+06    -106.194E+06    -10.6064E+06     4.40870E+06    -113.183E-03     211.948E-03    -98.7647E-03     71.5663E-03    -114.031E-03     212.276E-03    -98.5929E-03     68.1976E-03
            2202     7.34815E-03     16.0535E-03    -53.2027E+06    -131.329E+06    -15.6047E+06     5.11206E+06    -109.577E-03     206.993E-03    -97.4158E-03     60.2256E-03    -110.149E-03     206.956E-03    -97.2263E-03     57.5880E-03
            2203     6.54028E-03     15.9746E-03    -57.9680E+06    -150.692E+06    -20.8849E+06     5.31201E+06    -106.074E-03     202.214E-03    -96.1401E-03     50.4729E-03    -106.460E-03     201.920E-03    -95.9420E-03     48.4235E-03
            2204     5.73002E-03     15.9035E-03    -63.3500E+06    -162.622E+06    -29.9421E+06     4.90462E+06    -102.686E-03     197.630E-03    -94.9436E-03     41.7774E-03    -102.948E-03     197.177E-03    -94.7656E-03     40.1979E-03
            2205     4.91581E-03     15.8453E-03    -68.7361E+06    -175.379E+06    -40.1692E+06     4.78474E+06    -99.7119E-03     193.577E-03    -93.8653E-03     34.1495E-03    -99.8862E-03     193.001E-03    -93.7122E-03     32.9483E-03
            2206     4.10078E-03     15.7943E-03    -73.9042E+06    -186.742E+06    -50.3567E+06     4.73952E+06    -97.1054E-03     190.017E-03    -92.9118E-03     27.4827E-03    -97.2193E-03     189.351E-03    -92.7856E-03     26.5886E-03
            2207     3.28318E-03     15.7552E-03    -79.0544E+06    -196.201E+06    -62.0317E+06     4.19423E+06    -94.7704E-03     186.869E-03    -92.0985E-03     21.3181E-03    -94.8426E-03     186.143E-03    -92.0095E-03     20.6688E-03
            2208     2.46388E-03     15.7236E-03    -83.5104E+06    -203.456E+06    -72.9678E+06     3.43820E+06    -92.9642E-03     184.417E-03    -91.4530E-03     15.7047E-03    -93.0082E-03     183.653E-03    -91.4017E-03     15.2537E-03
            2209     1.64336E-03     15.7019E-03    -87.1677E+06    -209.666E+06    -81.9993E+06     2.43474E+06    -91.6808E-03     182.656E-03    -90.9757E-03     10.4673E-03    -91.7060E-03     181.865E-03    -90.9553E-03     10.1807E-03
            2210     821.818E-06     15.6880E-03    -89.9337E+06    -214.028E+06    -88.4795E+06     1.39849E+06    -90.9634E-03     181.529E-03    -90.5653E-03     5.47181E-03    -90.9783E-03     180.720E-03    -90.5669E-03     5.32546E-03
            2211     15.3245E-03     16.3193E-03    -4.45250E+06     126.471E+06     93.5734E+06     632.691E+03    -130.207E-03     240.185E-03    -109.978E-03     94.6028E-03    -134.140E-03     244.280E-03    -109.687E-03     87.6874E-03
            2212     14.5327E-03     16.1560E-03    -9.76325E+06     127.996E+06     96.3936E+06     2.02932E+06    -129.000E-03     237.889E-03    -108.889E-03     147.584E-03    -135.189E-03     244.218E-03    -108.578E-03     138.227E-03
            2213     13.7404E-03     15.9968E-03    -16.4599E+06     117.687E+06     91.2189E+06     3.48373E+06    -129.440E-03     237.155E-03    -107.715E-03     159.703E-03    -135.788E-03     243.598E-03    -107.406E-03     149.773E-03
            2214     12.9502E-03     15.7986E-03    -22.3591E+06     105.618E+06     75.8912E+06     4.08852E+06    -129.699E-03     236.082E-03    -106.382E-03     167.673E-03    -135.870E-03     242.328E-03    -106.124E-03     157.535E-03
            2215     12.1549E-03     15.6135E-03    -27.4494E+06     88.2651E+06     46.6096E+06     4.25175E+06    -128.375E-03     233.242E-03    -104.867E-03     147.991E-03    -133.146E-03     238.094E-03    -104.722E-03     138.891E-03
            2216     11.3631E-03     15.4504E-03    -32.1735E+06     69.4518E+06     21.5389E+06     4.33025E+06    -126.680E-03     229.924E-03    -103.244E-03     122.146E-03    -130.021E-03     233.335E-03    -103.190E-03     114.483E-03
            2217     10.5685E-03     15.3131E-03    -36.2240E+06     24.1775E+06     9.04006E+06     4.77006E+06    -124.320E-03     225.922E-03    -101.602E-03     101.467E-03    -126.630E-03     228.164E-03    -101.540E-03     95.1717E-03
            2218     9.77215E-03     15.1871E-03    -39.9056E+06    -33.3156E+06     651.170E+03     4.95750E+06    -121.647E-03     221.555E-03    -99.9082E-03     85.5084E-03    -123.229E-03     222.876E-03    -99.7988E-03     80.4031E-03
            2219     8.97464E-03     15.0750E-03    -43.7744E+06    -75.8753E+06    -5.46782E+06     4.98441E+06    -117.858E-03     216.021E-03    -98.1635E-03     70.9054E-03    -118.920E-03     216.676E-03    -98.0173E-03     66.8589E-03
            2220     8.17276E-03     14.9771E-03    -47.9456E+06    -105.671E+06    -10.7878E+06     5.28772E+06    -113.367E-03     209.811E-03    -96.4441E-03     58.0855E-03    -114.073E-03     210.004E-03    -96.2753E-03     54.9436E-03
            2221     7.36769E-03     14.8922E-03    -52.3559E+06    -130.402E+06     -15.925E+06     5.65127E+06    -109.047E-03     203.851E-03    -94.8044E-03     47.4876E-03    -109.512E-03     203.715E-03    -94.6190E-03     45.0651E-03
            2222     6.55932E-03     14.8170E-03    -56.9317E+06    -149.192E+06    -20.8709E+06     5.89869E+06    -104.791E-03     198.059E-03    -93.2689E-03     38.8689E-03    -105.100E-03     197.698E-03    -93.0743E-03     37.0183E-03
            2223     5.74712E-03     14.7538E-03    -61.8812E+06    -160.859E+06    -29.9522E+06      6.1098E+06    -100.794E-03     192.639E-03    -91.8455E-03     31.7304E-03    -101.001E-03     192.142E-03    -91.6723E-03     30.3347E-03
            2224     4.93294E-03     14.6985E-03    -67.3486E+06    -173.634E+06    -40.3371E+06     6.08114E+06    -97.1778E-03     187.762E-03    -90.5840E-03     25.5799E-03    -97.3137E-03     187.159E-03    -90.4363E-03     24.5402E-03
            2225     4.11485E-03     14.6534E-03    -72.9564E+06    -184.701E+06    -50.5815E+06     5.83042E+06    -93.9955E-03     183.506E-03    -89.5101E-03     20.2507E-03    -94.0855E-03     182.827E-03    -89.3894E-03     19.4914E-03
            2226     3.29449E-03     14.6165E-03    -78.0156E+06    -193.501E+06    -61.7159E+06     5.18187E+06    -91.4892E-03     180.110E-03    -88.6205E-03     15.5396E-03    -91.5474E-03     179.382E-03    -88.5354E-03     14.9971E-03
            2227     2.47267E-03     14.5885E-03    -82.4570E+06    -200.219E+06    -71.9507E+06     4.18321E+06    -89.5841E-03     177.490E-03    -87.9058E-03     11.3316E-03    -89.6221E-03     176.732E-03    -87.8557E-03     10.9583E-03
            2228     1.64917E-03     14.5683E-03    -85.9038E+06    -205.981E+06    -80.6120E+06     3.16587E+06    -88.1810E-03     175.538E-03    -87.3566E-03     7.49299E-03    -88.2042E-03     174.757E-03    -87.3365E-03     7.26166E-03
            2229     825.155E-06     14.5558E-03    -88.7102E+06    -210.405E+06    -87.0649E+06     1.85515E+06    -87.3405E-03     174.211E-03    -86.8702E-03     4.10458E-03    -87.3560E-03     173.416E-03    -86.8718E-03     3.98691E-03
            2230     15.3223E-03     15.1112E-03    -4.72248E+06     124.477E+06     91.9145E+06     590.952E+03    -131.833E-03     241.856E-03    -110.023E-03     91.1943E-03    -135.589E-03     245.770E-03    -109.737E-03     84.1884E-03
            2231     14.5330E-03     14.9546E-03    -10.4224E+06     125.804E+06     94.6381E+06     2.52169E+06    -132.232E-03     241.029E-03    -108.797E-03     142.702E-03    -138.173E-03     247.106E-03    -108.491E-03     133.081E-03
            2232     13.7451E-03     14.7915E-03    -15.8662E+06     117.343E+06     91.3290E+06     3.11427E+06    -133.308E-03     240.709E-03    -107.401E-03     152.423E-03    -139.373E-03     246.869E-03    -107.091E-03     142.191E-03
            2233     12.9553E-03     14.6015E-03    -21.3394E+06     105.305E+06     77.1060E+06     3.59217E+06    -134.029E-03     239.798E-03    -105.770E-03     158.415E-03    -139.866E-03     245.710E-03    -105.506E-03     148.001E-03
            2234     12.1691E-03     14.4166E-03    -26.4943E+06     88.4833E+06     48.5629E+06     4.42483E+06    -133.452E-03     237.319E-03    -103.867E-03     137.170E-03    -137.911E-03     241.858E-03    -103.714E-03     127.827E-03
            2235     11.3792E-03     14.2593E-03    -30.7576E+06     69.7781E+06     22.7463E+06     5.07325E+06    -131.071E-03     232.859E-03    -101.788E-03     108.340E-03    -134.090E-03     235.952E-03    -101.731E-03     100.637E-03
            2236     10.5885E-03     14.1261E-03    -34.5266E+06     25.7666E+06     9.36033E+06     5.57885E+06    -127.906E-03     227.579E-03    -99.6733E-03     86.8479E-03    -129.945E-03     229.562E-03    -99.6138E-03     80.6279E-03
            2237     9.79671E-03     14.0061E-03    -38.5072E+06    -31.0718E+06     664.797E+03     6.05139E+06    -123.814E-03     221.342E-03    -97.5285E-03     70.6098E-03    -125.177E-03     222.458E-03    -97.4243E-03     65.6832E-03
            2238     8.99952E-03     13.9026E-03    -42.6261E+06    -74.0438E+06    -5.60379E+06     6.34012E+06    -118.528E-03     213.919E-03    -95.3909E-03     56.1059E-03    -119.418E-03     214.412E-03    -95.2498E-03     52.3057E-03
            2239     8.19847E-03     13.8124E-03    -46.9061E+06    -104.341E+06    -10.9639E+06     6.47731E+06    -113.099E-03     206.427E-03    -93.3280E-03     44.1669E-03    -113.676E-03     206.500E-03    -93.1635E-03     41.2698E-03
            2240     7.39352E-03     13.7339E-03    -51.2971E+06    -128.747E+06    -16.4926E+06     6.54235E+06    -107.731E-03     199.116E-03    -91.3848E-03     34.6782E-03    -108.103E-03     198.897E-03    -91.2062E-03     32.4911E-03
            2241     6.58375E-03     13.6674E-03    -56.0089E+06    -147.927E+06    -21.6260E+06     6.65934E+06    -102.595E-03     192.198E-03    -89.6030E-03     27.3691E-03    -102.836E-03     191.778E-03    -89.4154E-03     25.7312E-03
            2242     5.77036E-03     13.6090E-03    -61.0638E+06    -159.848E+06    -30.2837E+06     7.20903E+06    -97.9053E-03     185.894E-03    -87.9883E-03     21.7697E-03    -98.0660E-03     185.358E-03    -87.8194E-03     20.5625E-03
            2243     4.95255E-03     13.5605E-03    -66.3687E+06    -171.534E+06    -40.4820E+06     7.53688E+06    -93.7714E-03     180.351E-03    -86.5794E-03     17.2635E-03    -93.8773E-03     179.729E-03    -86.4368E-03     16.3869E-03
            2244     4.13199E-03     13.5200E-03    -71.5801E+06    -181.746E+06    -50.1952E+06     7.12909E+06    -90.2820E-03     175.676E-03    -85.3938E-03     13.4331E-03    -90.3527E-03     174.992E-03    -85.2775E-03     12.8042E-03
            2245     3.30891E-03     13.4869E-03    -76.4341E+06    -189.962E+06    -60.7329E+06     6.23516E+06    -87.4986E-03     171.920E-03    -84.4217E-03     10.2173E-03    -87.5456E-03     171.196E-03    -84.3391E-03     9.77512E-03
            2246     2.48338E-03     13.4618E-03    -80.7630E+06    -196.470E+06    -70.7631E+06     4.96661E+06    -85.4037E-03     169.060E-03    -83.6561E-03     7.39547E-03    -85.4351E-03     168.311E-03    -83.6079E-03     7.09568E-03
            2247     1.65674E-03     13.4436E-03    -84.3176E+06    -202.017E+06    -79.2733E+06     3.65613E+06    -83.8844E-03     166.980E-03    -83.0952E-03     4.92389E-03    -83.9052E-03     166.212E-03    -83.0764E-03     4.74004E-03
            2248     828.418E-06     13.4331E-03    -86.2265E+06    -205.356E+06    -84.9881E+06     2.06735E+06    -82.8829E-03     165.696E-03    -82.8134E-03     2.51280E-03    -82.8956E-03     164.919E-03    -82.8156E-03     2.41787E-03
            2249     15.3220E-03     13.9049E-03    -5.11613E+06     122.628E+06     90.5981E+06     721.541E+03    -136.013E-03     246.008E-03    -109.995E-03     86.8827E-03    -139.659E-03     249.809E-03    -109.713E-03     79.5799E-03
            2250     14.5371E-03     13.7419E-03    -10.0569E+06     124.860E+06     94.2845E+06     1.99612E+06    -137.104E-03     245.620E-03    -108.516E-03     137.508E-03    -142.852E-03     251.503E-03    -108.211E-03     127.407E-03
            2251     13.7533E-03     13.5868E-03    -15.0406E+06     117.304E+06     91.7753E+06     2.43827E+06    -138.490E-03     245.287E-03    -106.797E-03     144.546E-03    -144.264E-03     251.158E-03    -106.486E-03     133.877E-03
            2252     12.9699E-03     13.3980E-03    -20.8429E+06     104.700E+06     77.7616E+06     3.30344E+06    -140.500E-03     245.244E-03    -104.744E-03     149.397E-03    -146.014E-03     250.831E-03    -104.477E-03     138.514E-03
            2253     12.1860E-03     13.2139E-03    -26.2900E+06     87.9942E+06     49.7295E+06     4.10913E+06    -139.741E-03     242.060E-03    -102.319E-03     123.941E-03    -143.842E-03     246.237E-03    -102.159E-03     114.316E-03
            2254     11.4039E-03     13.0649E-03    -30.2019E+06     69.6293E+06     22.9663E+06     4.95894E+06    -135.787E-03     235.478E-03    -99.6907E-03     93.4971E-03    -138.484E-03     238.250E-03    -99.6331E-03     85.7680E-03
            2255     10.6179E-03     12.9373E-03    -33.9055E+06     27.0928E+06     8.48485E+06     6.54553E+06    -130.925E-03     227.995E-03    -97.0701E-03     72.1914E-03    -132.717E-03     229.741E-03    -97.0178E-03     66.1013E-03
            2256     9.82645E-03     12.8272E-03    -37.7487E+06    -28.4301E+06     21.1722E+03     7.39603E+06    -125.126E-03     219.616E-03    -94.4900E-03     55.6599E-03    -126.293E-03     220.550E-03    -94.3939E-03     50.9645E-03
            2257     9.03111E-03     12.7328E-03    -41.4731E+06    -71.8783E+06    -6.22304E+06     7.44662E+06    -118.683E-03     210.657E-03    -91.9742E-03     41.9042E-03    -119.425E-03     211.017E-03    -91.8409E-03     38.3493E-03
            2258     8.23064E-03     12.6516E-03    -45.3753E+06    -102.506E+06    -11.3161E+06     7.71721E+06    -112.037E-03     201.623E-03    -89.5858E-03     31.2388E-03    -112.506E-03     201.601E-03    -89.4280E-03     28.5903E-03
            2259     7.42381E-03     12.5832E-03    -49.6964E+06    -126.692E+06    -16.5878E+06     7.89969E+06    -105.646E-03     193.023E-03    -87.3776E-03     23.2853E-03    -105.942E-03     192.742E-03    -87.2048E-03     21.3301E-03
            2260     6.61252E-03     12.5236E-03    -54.5120E+06    -146.452E+06    -21.6505E+06     8.15144E+06    -99.7574E-03     185.141E-03    -85.3834E-03     17.3986E-03    -99.9465E-03     184.679E-03    -85.2002E-03     15.9633E-03
            2261     5.79602E-03     12.4741E-03    -59.9169E+06    -158.738E+06    -30.2548E+06     8.54003E+06    -94.4019E-03     178.006E-03    -83.6037E-03     13.1939E-03    -94.5274E-03     177.442E-03    -83.4379E-03     12.1571E-03
            2262     4.97555E-03     12.4311E-03    -65.0195E+06    -169.048E+06    -39.7744E+06     8.71262E+06    -89.7892E-03     171.864E-03    -82.0746E-03     9.95978E-03    -89.8730E-03     171.231E-03    -81.9340E-03     9.22199E-03
            2263     4.15163E-03     12.3959E-03    -69.8572E+06    -178.258E+06    -49.3072E+06     8.21989E+06    -85.9903E-03     166.793E-03    -80.8023E-03     7.64442E-03    -86.0467E-03     166.110E-03    -80.6891E-03     7.12623E-03
            2264     3.32442E-03     12.3675E-03    -74.4404E+06    -186.039E+06    -59.4967E+06     7.22465E+06    -82.9870E-03     162.763E-03    -79.7756E-03     5.94181E-03    -83.0248E-03     162.047E-03    -79.6954E-03     5.58535E-03
            2265     2.49533E-03     12.3451E-03    -78.2837E+06    -192.053E+06    -69.0540E+06     5.86535E+06    -80.7275E-03     159.718E-03    -78.9906E-03     4.31473E-03    -80.7520E-03     158.981E-03    -78.9439E-03     4.07928E-03
            2266     1.66412E-03     12.3297E-03    -81.3887E+06    -196.967E+06    -77.0138E+06     4.12122E+06    -79.1863E-03     157.627E-03    -78.4406E-03     2.79390E-03    -79.2016E-03     156.876E-03    -78.4221E-03     2.64924E-03
            2267     832.438E-06     12.3198E-03    -83.4405E+06    -200.012E+06    -82.4442E+06     2.37396E+06    -78.3656E-03     156.408E-03    -78.0419E-03     1.36881E-03    -78.3754E-03     155.649E-03    -78.0432E-03     1.29763E-03
            2268     15.3248E-03     12.6907E-03    -5.54918E+06     122.123E+06     90.1535E+06     389.367E+03    -141.994E-03     251.863E-03    -109.868E-03     84.4903E-03    -145.576E-03     255.597E-03    -109.586E-03     76.7011E-03
            2269     14.5446E-03     12.5248E-03    -9.06977E+06     124.517E+06     94.6599E+06     1.03569E+06    -143.219E-03     251.269E-03    -108.049E-03     132.528E-03    -148.785E-03     256.970E-03    -107.744E-03     121.802E-03
            2270     13.7643E-03     12.3769E-03    -14.5594E+06     115.974E+06     91.3489E+06     2.18339E+06    -146.019E-03     251.913E-03    -105.894E-03     137.970E-03    -151.545E-03     257.535E-03    -105.584E-03     126.612E-03
            2271     12.9872E-03     12.1839E-03    -20.3162E+06     104.361E+06     78.3624E+06     3.02559E+06    -148.840E-03     252.119E-03    -103.280E-03     139.320E-03    -154.036E-03     257.389E-03    -103.010E-03     127.820E-03
            2272     12.2147E-03     12.0076E-03    -25.1853E+06     87.7165E+06     50.8876E+06     3.66003E+06    -145.785E-03     246.041E-03    -100.256E-03     109.886E-03    -149.513E-03     249.846E-03    -100.092E-03     100.065E-03
            2273     11.4346E-03     11.8670E-03    -29.5394E+06     68.3153E+06     22.4471E+06     5.33144E+06    -139.868E-03     236.954E-03    -97.0859E-03     79.7296E-03    -142.284E-03     239.446E-03    -97.0299E-03     72.0325E-03
            2274     10.6507E-03     11.7492E-03    -33.4169E+06     27.8374E+06     7.27913E+06     7.47408E+06    -133.120E-03     227.116E-03    -93.9958E-03     58.3106E-03    -134.697E-03     228.655E-03    -93.9513E-03     52.3951E-03
            2275     9.86208E-03     11.6508E-03    -36.8846E+06    -25.3139E+06    -1.05366E+06     8.42896E+06    -125.575E-03     216.603E-03    -91.0285E-03     42.5856E-03    -126.584E-03     217.397E-03    -90.9436E-03     38.1287E-03
            2276     9.06671E-03     11.5665E-03    -40.6913E+06    -69.6819E+06    -7.33164E+06     8.68001E+06    -117.829E-03     206.035E-03    -88.2056E-03     30.4024E-03    -118.463E-03     206.301E-03    -88.0822E-03     27.0927E-03
            2277     8.26426E-03     11.4981E-03    -44.8647E+06    -100.329E+06    -11.7946E+06     8.99190E+06    -110.180E-03     195.754E-03    -85.5737E-03     21.2049E-03    -110.579E-03     195.673E-03    -85.4222E-03     18.7825E-03
            2278     7.45647E-03     11.4383E-03    -49.2651E+06    -124.626E+06    -16.7417E+06     9.21486E+06    -102.990E-03     186.161E-03    -83.1710E-03     14.9049E-03    -103.243E-03     185.846E-03    -83.0026E-03     13.1431E-03
            2279     6.64234E-03     11.3896E-03    -54.1137E+06    -144.804E+06    -21.5948E+06     9.57977E+06    -96.5007E-03     177.525E-03    -81.0241E-03     10.3759E-03    -96.6622E-03     177.043E-03    -80.8436E-03     9.10452E-03
            2280     5.82320E-03     11.3470E-03    -58.9018E+06    -156.867E+06    -29.5613E+06     9.83961E+06    -90.7467E-03     169.868E-03    -79.1209E-03     7.38334E-03    -90.8534E-03     169.294E-03    -78.9559E-03     6.47915E-03
            2281     4.99963E-03     11.3119E-03    -63.5804E+06    -166.320E+06    -38.4991E+06     9.64642E+06    -85.7113E-03     163.207E-03    -77.4957E-03     5.39538E-03    -85.7833E-03     162.574E-03    -77.3549E-03     4.76083E-03
            2282     4.17139E-03     11.2824E-03    -68.0969E+06    -174.506E+06    -47.7632E+06     9.01178E+06    -81.6053E-03     157.765E-03    -76.1593E-03     4.12572E-03    -81.6545E-03     157.090E-03    -76.0463E-03     3.68797E-03
            2283     3.34074E-03     11.2580E-03    -72.3145E+06    -181.704E+06    -57.8148E+06     7.87417E+06    -78.4387E-03     153.531E-03    -75.0926E-03     3.12882E-03    -78.4712E-03     152.828E-03    -75.0133E-03     2.83274E-03
            2284     2.50727E-03     11.2395E-03    -75.9016E+06    -187.081E+06    -66.7464E+06     6.37428E+06    -76.0867E-03     150.370E-03    -74.2838E-03     2.28163E-03    -76.1080E-03     149.650E-03    -74.2362E-03     2.08959E-03
            2285     1.67266E-03     11.2257E-03    -78.5417E+06    -191.385E+06    -74.2011E+06     4.55360E+06    -74.4785E-03     148.201E-03    -73.7223E-03     1.44996E-03    -74.4909E-03     147.468E-03    -73.7019E-03     1.33458E-03
            2286     836.544E-06     11.2177E-03    -80.3510E+06    -194.306E+06    -79.0562E+06     2.61062E+06    -73.5072E-03     146.971E-03    -73.4635E-03     1.08162E-03    -73.5146E-03     146.231E-03    -73.4605E-03     1.02553E-03
            2287     15.3258E-03     11.4582E-03    -4.42176E+06     122.195E+06     90.4995E+06     261.529E+03    -148.429E-03     258.058E-03    -109.630E-03     81.1013E-03    -151.891E-03     261.676E-03    -109.348E-03     72.7917E-03
            2288     14.5532E-03     11.3077E-03    -9.19567E+06     122.941E+06     93.3274E+06     7.54919E+03    -151.377E-03     258.765E-03    -107.388E-03     126.869E-03    -156.751E-03     264.273E-03    -107.087E-03     115.287E-03
            2289     13.7801E-03     11.1533E-03    -14.6691E+06     113.822E+06     90.3504E+06     1.20406E+06    -155.785E-03     260.456E-03    -104.670E-03     131.445E-03    -161.092E-03     265.853E-03    -104.362E-03     119.187E-03
            2290     13.0152E-03     10.9618E-03    -19.7964E+06     103.997E+06     78.4624E+06     2.36491E+06    -156.391E-03     257.827E-03    -101.436E-03     127.999E-03    -161.264E-03     262.774E-03    -101.166E-03     116.004E-03
            2291     12.2428E-03     10.7978E-03    -24.9946E+06     86.8885E+06     50.3425E+06     3.48899E+06    -150.673E-03     248.533E-03    -97.8601E-03     97.3281E-03    -154.089E-03     252.026E-03    -97.6981E-03     87.4206E-03
            2292     11.4684E-03     10.6667E-03    -29.3613E+06     65.5280E+06     21.3739E+06     5.88256E+06    -142.743E-03     236.978E-03    -94.2345E-03     67.5830E-03    -144.924E-03     239.229E-03    -94.1800E-03     59.9971E-03
            2293     10.6875E-03     10.5630E-03    -33.3337E+06     28.0833E+06     5.97807E+06     8.91181E+06    -133.856E-03     224.638E-03    -90.7811E-03     47.2932E-03    -135.268E-03     226.017E-03    -90.7436E-03     41.6089E-03
            2294     9.89788E-03     10.4773E-03    -37.9679E+06    -22.1285E+06    -2.90208E+06     10.1872E+06    -124.791E-03     212.340E-03    -87.5497E-03     33.6905E-03    -125.705E-03     213.052E-03    -87.4770E-03     29.4867E-03
            2295     9.10083E-03     10.4074E-03    -42.2958E+06    -66.5735E+06    -8.74093E+06     10.0472E+06    -115.922E-03     200.472E-03    -84.5497E-03     23.1679E-03    -116.502E-03     200.693E-03    -84.4355E-03     20.0908E-03
            2296     8.29750E-03     10.3494E-03    -46.0160E+06    -98.0967E+06    -12.4314E+06     9.97605E+06    -107.505E-03     189.308E-03    -81.8036E-03     15.7799E-03    -107.875E-03     189.205E-03    -81.6568E-03     13.5469E-03
            2297     7.48649E-03     10.3029E-03    -50.1452E+06    -122.755E+06    -17.0775E+06     10.2071E+06    -99.8845E-03     179.210E-03    -79.3258E-03     11.3257E-03    -100.125E-03     178.888E-03    -79.1605E-03     9.71161E-03
            2298     6.66963E-03     10.2625E-03    -54.3236E+06    -142.678E+06    -21.3418E+06     10.3290E+06    -93.1497E-03     170.276E-03    -77.1266E-03     8.25863E-03    -93.3077E-03     169.797E-03    -76.9477E-03     7.09863E-03
            2299     5.84759E-03     10.2298E-03    -58.5707E+06    -154.643E+06    -28.6412E+06     10.1830E+06    -87.1870E-03     162.374E-03    -75.1871E-03     6.20585E-03    -87.2935E-03     161.807E-03    -75.0211E-03     5.38054E-03
            2300     5.02011E-03     10.2017E-03    -62.8203E+06    -163.322E+06    -36.9680E+06     9.87044E+06    -82.1277E-03     155.653E-03    -73.5253E-03     4.98247E-03    -82.2019E-03     155.031E-03    -73.3823E-03     4.40314E-03
            2301     4.18962E-03     10.1784E-03    -66.7625E+06    -170.793E+06    -45.3015E+06     9.12115E+06    -77.9642E-03     150.104E-03    -72.1400E-03     4.02811E-03    -78.0159E-03     149.444E-03    -72.0221E-03     3.62809E-03
            2302     3.35508E-03     10.1588E-03    -70.3724E+06    -176.978E+06    -54.6488E+06     7.87233E+06    -74.5829E-03     145.608E-03    -71.0250E-03     3.26122E-03    -74.6173E-03     144.922E-03    -70.9396E-03     2.99129E-03
            2303     2.51856E-03     10.1435E-03    -73.4768E+06    -181.943E+06    -63.3965E+06     6.06748E+06    -72.0720E-03     142.259E-03    -70.1868E-03     2.59111E-03    -72.0937E-03     141.557E-03    -70.1334E-03     2.41258E-03
            2304     1.67977E-03     10.1322E-03    -75.6622E+06    -185.776E+06    -70.4277E+06     4.05255E+06    -70.3829E-03     140.000E-03    -69.6175E-03     1.83175E-03    -70.3946E-03     139.287E-03    -69.5906E-03     1.72131E-03
            2305     840.020E-06     10.1258E-03    -76.7491E+06    -188.641E+06    -75.2730E+06     2.16664E+06    -69.5205E-03     138.764E-03    -69.2434E-03     1.09798E-03    -69.5233E-03     138.042E-03    -69.2349E-03     1.04035E-03
            2306     15.3353E-03     10.2313E-03    -3.92059E+06     121.729E+06      90.538E+06     459.969E+03    -156.955E-03     266.244E-03    -109.289E-03     81.0726E-03    -160.348E-03     269.792E-03    -109.007E-03     71.9683E-03
            2307     14.5636E-03     10.0744E-03    -9.57313E+06     122.480E+06     92.7129E+06     34.6350E+03    -161.949E-03     268.460E-03    -106.511E-03     121.940E-03    -167.169E-03     273.812E-03    -106.211E-03     109.295E-03
            2308     13.8045E-03     9.91713E-03    -15.5053E+06     112.617E+06     89.2470E+06     74.9686E+03    -164.405E-03     267.596E-03    -103.191E-03     125.427E-03    -169.529E-03     272.807E-03    -102.885E-03     112.421E-03
            2309     13.0403E-03     9.73690E-03    -21.2381E+06     101.986E+06      76.911E+06     1.24973E+06    -162.172E-03     261.596E-03    -99.4236E-03     118.585E-03    -166.758E-03     266.249E-03    -99.1562E-03     106.315E-03
            2310     12.2760E-03     9.58306E-03    -26.8587E+06     84.3908E+06     48.2886E+06     3.96185E+06    -153.801E-03     249.222E-03    -95.4217E-03     86.7188E-03    -156.956E-03     252.447E-03    -95.2637E-03     76.8801E-03
            2311     11.5024E-03     9.46771E-03    -32.8941E+06     61.2331E+06     16.6845E+06     7.87859E+06    -143.169E-03     234.667E-03    -91.4980E-03     58.9796E-03    -145.180E-03     236.734E-03    -91.4557E-03     51.6704E-03
            2312     10.7192E-03     9.37988E-03    -38.7105E+06     28.2207E+06     1.42747E+06     10.9842E+06    -132.534E-03     220.420E-03    -87.8855E-03     41.3866E-03    -133.862E-03     221.710E-03    -87.8631E-03     36.0156E-03
            2313     9.92856E-03     9.30941E-03    -42.7444E+06    -17.8796E+06    -4.77497E+06     11.1622E+06    -122.384E-03     206.985E-03    -84.6005E-03     30.2893E-03    -123.273E-03     207.675E-03    -84.5365E-03     26.3490E-03
            2314     9.13015E-03     9.25308E-03    -45.4160E+06    -62.8775E+06    -9.54732E+06     10.1075E+06    -112.737E-03     194.357E-03    -81.6197E-03     22.3134E-03    -113.316E-03     194.582E-03    -81.5104E-03     19.4408E-03
            2315     8.32252E-03     9.20965E-03    -48.2238E+06    -96.4768E+06    -12.5487E+06     9.77264E+06    -104.077E-03     183.025E-03    -78.9483E-03     17.3449E-03    -104.461E-03     182.933E-03    -78.8012E-03     15.2538E-03
            2316     7.50875E-03     9.17327E-03    -51.2172E+06    -120.829E+06    -15.9428E+06     10.1171E+06    -96.5824E-03     173.146E-03    -76.5634E-03     14.3215E-03    -96.8413E-03     172.841E-03    -76.3937E-03     12.8003E-03
            2317     6.68905E-03     9.14389E-03    -54.7768E+06    -140.285E+06    -19.7879E+06     10.0229E+06    -89.9539E-03     164.411E-03    -74.4570E-03     12.1907E-03    -90.1300E-03     163.953E-03    -74.2731E-03     11.0883E-03
            2318     5.86355E-03     9.11924E-03    -58.4728E+06    -152.225E+06    -26.1130E+06     9.50061E+06    -84.2940E-03     156.898E-03    -72.6038E-03     10.6122E-03    -84.4171E-03     156.349E-03    -72.4289E-03     9.81273E-03
            2319     5.03445E-03     9.09898E-03    -61.9145E+06    -160.133E+06    -33.3845E+06     8.92366E+06    -79.5291E-03     150.527E-03    -70.9975E-03     9.52547E-03    -79.6166E-03     149.923E-03    -70.8425E-03     8.95243E-03
            2320     4.20081E-03     9.08099E-03    -65.3366E+06    -167.149E+06    -41.2738E+06     7.88881E+06    -75.4976E-03     145.134E-03    -69.6366E-03     8.39952E-03    -75.5592E-03     144.490E-03    -69.5059E-03     7.99324E-03
            2321     3.36469E-03     9.06733E-03    -68.3972E+06    -172.340E+06    -49.6452E+06     6.39906E+06    -72.2121E-03     140.733E-03    -68.5214E-03     7.18537E-03    -72.2543E-03     140.065E-03    -68.4205E-03     6.90151E-03
            2322     2.52537E-03     9.05491E-03    -70.7461E+06    -177.061E+06    -58.1422E+06     4.34002E+06    -69.6613E-03     137.321E-03    -67.6597E-03     5.66214E-03    -69.6859E-03     136.634E-03    -67.5911E-03     5.46452E-03
            2323     1.68456E-03     9.04711E-03    -72.3651E+06    -181.451E+06    -66.1955E+06     2.37251E+06    -67.9527E-03     134.990E-03    -67.0378E-03     3.96502E-03    -67.9608E-03     134.289E-03    -67.0007E-03     3.83429E-03
            2324     842.742E-06     9.04029E-03    -73.8301E+06    -184.581E+06    -71.3780E+06     1.01765E+06    -67.1420E-03     133.537E-03    -66.3955E-03     2.29788E-03    -67.1417E-03     132.827E-03    -66.3777E-03     2.22632E-03
            2325     15.3322E-03     8.97772E-03    -4.29135E+06     121.688E+06     90.5485E+06     507.261E+03    -166.910E-03     275.741E-03    -108.832E-03     80.0365E-03    -170.248E-03     279.234E-03    -108.549E-03     70.1059E-03
            2326     14.5849E-03     8.82807E-03    -10.0228E+06     121.963E+06     92.2845E+06    -88.0590E+03    -170.694E-03     276.224E-03    -105.530E-03     119.305E-03    -175.816E-03     281.477E-03    -105.231E-03     105.796E-03
            2327     13.8237E-03     8.67906E-03    -15.7747E+06     112.242E+06     88.5047E+06     649.839E+03    -171.093E-03     272.819E-03    -101.726E-03     122.785E-03    -176.081E-03     277.896E-03    -101.424E-03     109.298E-03
            2328     13.0681E-03     8.50232E-03    -22.7410E+06     98.9356E+06     74.4856E+06     2.23427E+06    -165.673E-03     263.248E-03    -97.5749E-03     111.938E-03    -170.004E-03     267.638E-03    -97.3130E-03     99.6942E-03
            2329     12.3032E-03     8.36983E-03    -30.5424E+06     78.6903E+06     45.1339E+06     6.52219E+06    -153.911E-03     247.267E-03    -93.3562E-03     80.2751E-03    -156.858E-03     250.260E-03    -93.2004E-03     70.8031E-03
            2330     11.5276E-03     8.27192E-03    -37.5436E+06     57.3016E+06     15.1996E+06     11.4000E+06    -140.693E-03     230.095E-03    -89.4018E-03     55.4927E-03    -142.585E-03     232.018E-03    -89.3544E-03     48.6762E-03
            2331     10.7432E-03     8.20196E-03    -42.2294E+06     31.0553E+06     2.08814E+06     12.3631E+06    -128.639E-03     214.537E-03    -85.8980E-03     41.9065E-03    -129.937E-03     215.792E-03    -85.8714E-03     36.9451E-03
            2332     9.94874E-03     8.14691E-03    -45.2824E+06    -12.7118E+06    -2.98364E+06     10.3042E+06    -117.809E-03     200.636E-03    -82.8268E-03     34.0172E-03    -118.710E-03     201.342E-03    -82.7576E-03     30.3677E-03
            2333     9.14454E-03     8.10686E-03    -47.7702E+06    -60.0693E+06    -7.60764E+06     8.73328E+06    -108.183E-03     188.311E-03    -80.1281E-03     29.1075E-03    -108.797E-03     188.567E-03    -80.0097E-03     26.4236E-03
            2334     8.33406E-03     8.07494E-03    -50.3716E+06    -94.9461E+06    -9.96153E+06     8.27984E+06    -100.225E-03     177.978E-03    -77.7539E-03     26.1866E-03    -100.652E-03     177.921E-03    -77.5930E-03     24.1941E-03
            2335     7.51705E-03     8.05005E-03    -53.0018E+06    -119.560E+06    -12.3810E+06     8.37137E+06    -93.3166E-03     168.971E-03    -75.6544E-03     24.1063E-03    -93.6186E-03     168.698E-03    -75.4661E-03     22.6295E-03
            2336     6.69429E-03     8.02988E-03    -55.6798E+06    -138.030E+06    -16.3689E+06     8.17312E+06    -87.3855E-03     161.195E-03    -73.8091E-03     22.5292E-03    -87.5985E-03     160.768E-03    -73.6100E-03     21.4344E-03
            2337     5.86749E-03     8.01351E-03    -58.6035E+06    -149.610E+06    -21.5116E+06     7.29957E+06    -82.4629E-03     154.655E-03    -72.1923E-03     21.0494E-03    -82.6166E-03     154.133E-03    -71.9979E-03     20.2323E-03
            2338     5.03625E-03     7.99929E-03    -61.4631E+06    -157.130E+06    -27.4601E+06     6.21974E+06    -78.3021E-03     149.087E-03    -70.7844E-03     19.3611E-03    -78.4146E-03     148.503E-03    -70.6048E-03     18.7543E-03
            2339     4.20219E-03     7.98817E-03    -63.9520E+06    -163.477E+06    -35.2344E+06     4.66321E+06    -74.8142E-03     144.387E-03    -69.5730E-03     17.2668E-03    -74.8927E-03     143.761E-03    -69.4194E-03     16.8158E-03
            2340     3.36491E-03     7.97763E-03     -66.076E+06    -168.494E+06    -43.6067E+06     2.72296E+06    -71.9706E-03     140.526E-03    -68.5558E-03     14.6744E-03    -72.0216E-03     139.871E-03    -68.4337E-03     14.3387E-03
            2341     2.52610E-03     7.97053E-03    -68.2089E+06    -173.796E+06    -52.7110E+06     1.18528E+06    -69.7385E-03     137.464E-03    -67.7258E-03     11.6680E-03    -69.7663E-03     136.786E-03    -67.6384E-03     11.4273E-03
            2342     1.68518E-03     7.96350E-03    -70.4133E+06    -179.297E+06    -62.2774E+06     240.510E+03    -68.0780E-03     135.153E-03    -67.0746E-03     8.22453E-03    -68.0868E-03     134.455E-03    -67.0239E-03     8.06613E-03
            2343     842.961E-06     7.96048E-03    -71.8754E+06    -183.406E+06    -69.6572E+06    -366.570E+03    -66.8570E-03     133.552E-03    -66.6945E-03     4.61479E-03    -66.8519E-03     132.842E-03    -66.6727E-03     4.52538E-03
            2344     15.3570E-03     7.72361E-03    -4.21754E+06     121.676E+06     90.0510E+06     738.008E+03    -175.454E-03     283.915E-03    -108.460E-03     87.8681E-03    -178.887E-03     287.503E-03    -108.181E-03     77.1666E-03
            2345     14.5902E-03     7.57860E-03    -9.55837E+06     120.776E+06     91.1792E+06     1.02726E+06    -177.760E-03     282.508E-03    -104.747E-03     121.790E-03    -182.847E-03     287.726E-03    -104.453E-03     107.724E-03
            2346     13.8431E-03     7.42391E-03    -16.5004E+06     110.102E+06     86.1886E+06     2.78283E+06    -175.070E-03     275.684E-03    -100.614E-03     122.190E-03    -179.918E-03     280.619E-03    -100.319E-03     108.639E-03
            2347     13.0863E-03     7.27369E-03    -25.2696E+06     94.5661E+06     71.3032E+06     6.55553E+06    -165.444E-03     261.757E-03    -96.3124E-03     108.970E-03    -169.526E-03     265.884E-03    -96.0564E-03     97.2502E-03
            2348     12.3194E-03     7.15470E-03    -33.6551E+06     73.8117E+06     46.3012E+06     10.3712E+06    -149.955E-03     242.152E-03    -92.1974E-03     78.0824E-03    -152.682E-03     244.894E-03    -92.0241E-03     69.4142E-03
            2349     11.5419E-03     7.08461E-03    -38.9540E+06     55.9394E+06     22.3093E+06     12.3145E+06    -134.636E-03     223.191E-03    -88.5550E-03     59.0136E-03    -136.446E-03     225.001E-03    -88.4681E-03     52.8826E-03
            2350     10.7496E-03     7.02952E-03    -42.2396E+06     35.1404E+06     10.0062E+06     11.8897E+06    -121.919E-03     207.399E-03    -85.4792E-03     50.8164E-03    -123.224E-03     208.653E-03    -85.4189E-03     46.3491E-03
            2351     9.94914E-03     6.99306E-03    -45.5287E+06    -7.54979E+06     4.28975E+06     9.40374E+06    -111.396E-03     194.313E-03    -82.9168E-03     45.7717E-03    -112.334E-03     195.053E-03    -82.8184E-03     42.4617E-03
            2352     9.14085E-03     6.96575E-03    -48.9632E+06    -57.7105E+06     -944.34E+03     6.94259E+06    -102.945E-03     183.695E-03    -80.7506E-03     43.4759E-03    -103.613E-03     183.990E-03    -80.6006E-03     40.9800E-03
            2353     8.32582E-03     6.94480E-03    -51.6973E+06    -93.5863E+06    -3.25050E+06     5.57043E+06    -96.1542E-03     175.045E-03    -78.8913E-03     41.9623E-03    -96.6393E-03     175.026E-03    -78.6969E-03     40.0561E-03
            2354     7.50581E-03     6.92963E-03    -53.9595E+06    -118.944E+06    -4.92382E+06     4.84710E+06    -90.5705E-03     167.850E-03    -77.2797E-03     40.2561E-03    -90.9230E-03     167.605E-03    -77.0537E-03     38.7979E-03
            2355     6.68156E-03     6.91750E-03    -56.0292E+06    -136.079E+06    -8.85261E+06     4.15903E+06    -85.9806E-03     161.848E-03    -75.8676E-03     38.5328E-03    -86.2375E-03     161.449E-03    -75.6333E-03     37.4128E-03
            2356     5.85340E-03     6.90742E-03    -57.9310E+06    -147.103E+06    -14.0163E+06     2.83368E+06    -82.2338E-03     156.864E-03    -74.6302E-03     36.0693E-03    -82.4200E-03     156.363E-03    -74.4030E-03     35.2035E-03
            2357     5.02271E-03     6.89934E-03    -59.7735E+06    -154.573E+06    -19.7753E+06     1.11307E+06    -79.1050E-03     152.656E-03    -73.5505E-03     32.8509E-03    -79.2390E-03     152.085E-03    -73.3385E-03     32.1779E-03
            2358     4.18939E-03     6.89194E-03    -61.6745E+06    -160.657E+06    -28.6328E+06    -687.235E+03    -76.5134E-03     149.119E-03    -72.6051E-03     29.0395E-03    -76.6041E-03     148.502E-03    -72.4259E-03     28.5171E-03
            2359     3.35439E-03     6.88649E-03    -63.7493E+06    -166.715E+06    -38.4587E+06    -2.12721E+06    -74.3776E-03     146.176E-03    -71.7984E-03     24.4507E-03    -74.4332E-03     145.523E-03    -71.6565E-03     24.0514E-03
            2360     2.51714E-03     6.88108E-03    -66.2891E+06    -173.525E+06    -49.5109E+06    -2.50313E+06    -72.6422E-03     143.775E-03    -71.1323E-03     19.2949E-03    -72.6693E-03     143.092E-03    -71.0321E-03     19.0064E-03
            2361     1.67906E-03     6.87797E-03    -69.0183E+06    -180.032E+06    -60.0641E+06    -1.98268E+06    -71.3054E-03     141.936E-03    -70.6310E-03     13.6080E-03    -71.3115E-03     141.230E-03    -70.5702E-03     13.4222E-03
            2362     839.887E-06     6.87515E-03    -71.2253E+06    -185.120E+06    -68.5225E+06    -952.737E+03    -70.4209E-03     140.800E-03    -70.3794E-03     7.42802E-03    -70.4132E-03     140.078E-03    -70.3503E-03     7.33228E-03
            2363     15.3339E-03     6.45254E-03    -5.83998E+06     121.086E+06      87.436E+06     1.75356E+06    -181.220E-03     289.643E-03    -108.423E-03     92.6763E-03    -184.656E-03     293.236E-03    -108.153E-03     81.6849E-03
            2364     14.6047E-03     6.30920E-03    -11.9889E+06     118.380E+06     87.3410E+06     2.12256E+06    -180.879E-03     285.376E-03    -104.496E-03     127.430E-03    -185.981E-03     290.603E-03    -104.214E-03     113.295E-03
            2365     13.8494E-03     6.18001E-03    -19.7706E+06     104.281E+06     80.8806E+06     6.10528E+06    -175.586E-03     275.869E-03    -100.283E-03     127.446E-03    -180.306E-03     280.658E-03    -100.001E-03     114.335E-03
            2366     13.0908E-03     6.03491E-03    -27.1694E+06     90.0018E+06     70.2809E+06     10.3143E+06    -160.416E-03     256.563E-03    -96.1475E-03     108.086E-03    -164.112E-03     260.288E-03    -95.8872E-03     97.5498E-03
            2367     12.3206E-03     5.95543E-03    -32.9001E+06     73.1819E+06     53.0727E+06     11.7008E+06    -140.495E-03     233.029E-03    -92.5343E-03     82.7895E-03    -142.980E-03     235.511E-03    -92.3273E-03     75.3575E-03
            2368     11.5299E-03     5.90124E-03    -37.7954E+06     56.2305E+06     32.4578E+06     11.6181E+06    -124.886E-03     214.483E-03    -89.5967E-03     71.7772E-03    -126.635E-03     216.209E-03    -89.4611E-03     66.4940E-03
            2369     10.7331E-03     5.86807E-03    -42.0505E+06     38.5525E+06     21.4943E+06     10.6127E+06    -113.175E-03     200.458E-03    -87.2827E-03     67.7587E-03    -114.488E-03     201.701E-03    -87.1701E-03     63.8645E-03
            2370     9.92512E-03     5.84380E-03    -45.6556E+06    -3.25818E+06     16.4668E+06     7.49673E+06    -104.437E-03     189.918E-03    -85.4807E-03     65.6332E-03    -105.417E-03     190.679E-03    -85.3275E-03     62.6833E-03
            2371     9.11172E-03     5.82832E-03    -48.3746E+06    -54.9039E+06     11.1508E+06     4.01326E+06    -98.0779E-03     182.107E-03    -84.0295E-03     64.3049E-03    -98.7887E-03     182.421E-03    -83.8240E-03     62.0131E-03
            2372     8.29341E-03     5.81617E-03    -50.5725E+06    -92.4072E+06     8.61826E+06     1.30802E+06    -93.1561E-03     175.986E-03    -82.8303E-03     62.5228E-03    -93.6774E-03     175.976E-03    -82.5798E-03     60.7115E-03
            2373     7.47155E-03     5.80764E-03    -52.4661E+06    -118.115E+06     6.80926E+06    -722.420E+03    -89.5435E-03     171.358E-03    -81.8141E-03     59.6755E-03    -89.9267E-03     171.115E-03    -81.5327E-03     58.2317E-03
            2374     6.64705E-03     5.80137E-03    -53.8472E+06    -134.579E+06     2.30268E+06    -2.60629E+06    -86.7504E-03     167.665E-03    -80.9141E-03     56.0912E-03    -87.0295E-03     167.267E-03    -80.6294E-03     54.9315E-03
            2375     5.82075E-03     5.79575E-03    -54.7996E+06    -145.520E+06    -4.34366E+06    -4.34163E+06    -84.4134E-03     164.528E-03    -80.1150E-03     51.6766E-03    -84.6112E-03     164.025E-03    -79.8462E-03     50.7442E-03
            2376     4.99255E-03     5.79149E-03    -55.9074E+06    -153.313E+06    -13.5776E+06    -5.86969E+06    -82.5602E-03     161.963E-03    -79.4029E-03     46.3446E-03    -82.6930E-03     161.389E-03    -79.1674E-03     45.5963E-03
            2377     4.16278E-03     5.78784E-03    -57.5900E+06    -160.664E+06    -25.4368E+06     -6.6632E+06    -80.9836E-03     159.755E-03    -78.7715E-03     40.1952E-03    -81.0638E-03     159.130E-03    -78.5822E-03     39.6021E-03
            2378     3.33166E-03     5.78435E-03    -60.3354E+06    -168.390E+06    -37.3678E+06    -6.14019E+06    -79.6565E-03     157.896E-03    -78.2396E-03     33.3756E-03    -79.6978E-03     157.229E-03    -78.0948E-03     32.9281E-03
            2379     2.49996E-03     5.78225E-03    -63.9970E+06    -176.433E+06    -49.4867E+06    -4.91052E+06    -78.6151E-03     156.424E-03    -77.8093E-03     25.8800E-03    -78.6292E-03     155.723E-03    -77.7081E-03     25.5618E-03
            2380     1.66680E-03     5.77989E-03    -67.3387E+06    -183.797E+06    -60.6221E+06    -3.26408E+06    -77.8265E-03     155.320E-03    -77.4935E-03     17.7443E-03    -77.8201E-03     154.592E-03    -77.4325E-03     17.5414E-03
            2381     833.204E-06     5.77913E-03    -69.7758E+06    -188.618E+06    -67.9169E+06    -1.50701E+06    -77.4379E-03     154.689E-03    -77.2516E-03     9.77694E-03    -77.4202E-03     153.946E-03    -77.2165E-03     9.67434E-03
            2382     15.3594E-03     5.17753E-03    -6.81476E+06     119.958E+06     83.4629E+06      4.3281E+06    -182.506E-03     291.687E-03    -109.181E-03     114.424E-03    -186.231E-03     295.571E-03    -108.927E-03     103.385E-03
            2383     14.5860E-03     5.05812E-03    -12.3468E+06     115.479E+06     83.2576E+06     6.85748E+06    -182.482E-03     287.745E-03    -105.263E-03     144.539E-03    -187.645E-03     293.030E-03    -104.996E-03     130.776E-03
            2384     13.8374E-03     4.90994E-03    -19.0464E+06     99.1071E+06     78.5684E+06     8.94623E+06    -170.938E-03     272.169E-03    -101.231E-03     131.370E-03    -175.247E-03     276.545E-03    -100.954E-03     119.559E-03
            2385     13.0785E-03     4.81990E-03    -23.9529E+06     87.8120E+06     73.5453E+06     10.6423E+06    -147.523E-03     245.229E-03    -97.7062E-03     112.284E-03    -150.686E-03     248.418E-03    -97.4311E-03     103.684E-03
            2386     12.2886E-03     4.76152E-03    -29.3533E+06     72.9616E+06     60.2382E+06     11.3456E+06    -126.920E-03     221.958E-03    -95.0386E-03     97.9508E-03    -129.138E-03     224.165E-03    -94.8006E-03     91.9766E-03
            2387     11.4937E-03     4.73199E-03    -34.3377E+06     58.1355E+06     43.6592E+06     10.7153E+06    -113.670E-03     206.782E-03    -93.1125E-03     92.5844E-03    -115.293E-03     208.369E-03    -92.9287E-03     88.2590E-03
            2388     10.6840E-03     4.71045E-03    -38.0556E+06     42.4544E+06     37.1544E+06     8.01471E+06    -105.028E-03     196.780E-03    -91.7517E-03     90.5943E-03    -106.274E-03     197.937E-03    -91.5724E-03     87.3270E-03
            2389     9.87192E-03     4.69852E-03    -41.0746E+06    -227.843E+03     33.0343E+06     3.59201E+06    -99.5065E-03     190.293E-03    -90.7864E-03     88.1595E-03    -100.444E-03     190.989E-03    -90.5613E-03     85.5928E-03
            2390     9.05515E-03     4.68856E-03    -43.8982E+06    -52.8422E+06     26.9591E+06    -867.184E+03    -95.8940E-03     185.948E-03    -90.0536E-03     84.9009E-03    -96.5747E-03     186.206E-03    -89.7785E-03     82.8366E-03
            2391     8.23666E-03     4.68315E-03    -46.3144E+06    -90.4965E+06     23.9035E+06    -4.81943E+06    -93.4533E-03     182.921E-03    -89.4673E-03     80.5767E-03    -93.9519E-03     182.862E-03    -89.1494E-03     78.8825E-03
            2392     7.41608E-03     4.67790E-03    -47.8727E+06    -116.238E+06     19.5381E+06    -8.76983E+06    -91.7472E-03     180.709E-03    -88.9615E-03     75.2360E-03    -92.1104E-03     180.430E-03    -88.6259E-03     73.8175E-03
            2393     6.59507E-03     4.67453E-03    -48.4097E+06    -134.140E+06     11.0149E+06    -11.6354E+06    -90.5538E-03     179.047E-03    -88.4936E-03     69.0613E-03    -90.8054E-03     178.615E-03    -88.1739E-03     67.8728E-03
            2394     5.77254E-03     4.67219E-03    -48.9613E+06    -146.522E+06    -310.107E+03    -12.8184E+06    -89.5941E-03     177.651E-03    -88.0566E-03     62.3205E-03    -89.7584E-03     177.117E-03    -87.7747E-03     61.3330E-03
            2395     4.94919E-03     4.66964E-03    -50.3171E+06    -155.684E+06    -14.1771E+06    -12.2748E+06    -88.7778E-03     176.431E-03    -87.6527E-03     54.8132E-03    -88.8733E-03     175.830E-03    -87.4249E-03     54.0145E-03
            2396     4.12573E-03     4.66787E-03    -53.2497E+06    -165.226E+06    -28.3577E+06    -10.3209E+06    -88.1101E-03     175.407E-03    -87.2967E-03     46.7403E-03    -88.1549E-03     174.752E-03    -87.1217E-03     46.1179E-03
            2397     3.30129E-03     4.66671E-03    -57.1308E+06    -173.697E+06    -40.5569E+06    -7.50642E+06    -87.5336E-03     174.530E-03    -86.9968E-03     38.1721E-03    -87.5459E-03     173.834E-03    -86.8649E-03     37.7121E-03
            2398     2.47610E-03     4.66488E-03    -61.2893E+06    -181.689E+06    -51.9293E+06    -4.67509E+06    -87.0718E-03     173.821E-03    -86.7497E-03     29.1005E-03    -87.0613E-03     173.091E-03    -86.6570E-03     28.7847E-03
            2399     1.65133E-03     4.66447E-03    -65.0750E+06    -188.068E+06    -60.7850E+06    -2.47725E+06    -86.7400E-03     173.295E-03    -86.5547E-03     19.8745E-03    -86.7166E-03     172.541E-03    -86.4916E-03     19.6782E-03
            2400     826.157E-06     4.66332E-03    -67.5483E+06    -192.262E+06    -66.6163E+06    -1.32337E+06    -86.4096E-03     172.888E-03    -86.4781E-03     10.9343E-03    -86.3785E-03     172.120E-03    -86.4344E-03     10.8315E-03
            2401     15.2847E-03     3.91298E-03    -7.82859E+06     116.670E+06     79.1318E+06     7.08503E+06    -183.217E-03     294.284E-03    -111.067E-03     133.642E-03    -186.982E-03     298.203E-03    -110.830E-03     123.016E-03
            2402     14.5626E-03     3.76094E-03    -11.5412E+06     112.166E+06     81.5363E+06     8.22097E+06    -177.958E-03     285.349E-03    -107.391E-03     152.241E-03    -182.728E-03     290.249E-03    -107.130E-03     139.885E-03
            2403     13.8118E-03     3.67372E-03    -14.0202E+06     97.5738E+06     81.4122E+06     8.69455E+06    -154.261E-03     258.337E-03    -104.076E-03     137.552E-03    -157.825E-03     261.978E-03    -103.790E-03     128.274E-03
            2404     13.0215E-03     3.61230E-03    -19.4363E+06     86.0460E+06     77.5032E+06     9.91822E+06    -130.010E-03     231.710E-03    -101.699E-03     128.050E-03    -132.556E-03     234.278E-03    -101.408E-03     121.692E-03
            2405     12.2288E-03     3.58447E-03    -24.5814E+06     72.8569E+06     66.7080E+06     10.4567E+06    -115.139E-03     215.316E-03    -100.176E-03     119.213E-03    -116.953E-03     217.113E-03    -99.9126E-03     114.706E-03
            2406     11.4173E-03     3.56566E-03    -28.6546E+06     63.0407E+06     53.4224E+06     7.84596E+06    -106.835E-03     206.029E-03    -99.1945E-03     113.400E-03    -108.184E-03     207.346E-03    -98.9772E-03     110.036E-03
            2407     10.6082E-03     3.55493E-03    -31.5225E+06     46.0244E+06     47.4607E+06     3.69871E+06    -102.386E-03     200.975E-03    -98.5887E-03     107.493E-03    -103.417E-03     201.919E-03    -98.3725E-03     104.858E-03
            2408     9.79382E-03     3.54586E-03    -34.7780E+06     1.61812E+06     41.7471E+06    -795.771E+03    -99.9724E-03     198.187E-03    -98.2146E-03     100.973E-03    -100.738E-03     198.711E-03    -97.9578E-03     98.8473E-03
            2409     8.97978E-03     3.54136E-03    -38.0605E+06    -49.9801E+06     33.0934E+06    -6.72794E+06    -98.7748E-03     196.717E-03    -97.9424E-03     93.9801E-03    -99.3248E-03     196.855E-03    -97.6493E-03     92.1928E-03
            2410     8.16436E-03     3.53637E-03    -39.4540E+06    -87.0037E+06     27.1756E+06    -13.2363E+06    -98.0480E-03     195.768E-03    -97.7204E-03     86.5773E-03    -98.4369E-03     195.625E-03    -97.4012E-03     85.0335E-03
            2411     7.34954E-03     3.53409E-03    -39.4992E+06    -115.012E+06     18.4456E+06    -18.2184E+06    -97.5875E-03     195.098E-03    -97.5105E-03     78.9920E-03    -97.8471E-03     194.750E-03    -97.1943E-03     77.6428E-03
            2412     6.53302E-03     3.53164E-03    -39.9344E+06    -136.705E+06     6.73758E+06    -19.9691E+06    -97.3478E-03     194.651E-03    -97.3033E-03     70.9717E-03    -97.5045E-03     194.155E-03    -97.0135E-03     69.8097E-03
            2413     5.71742E-03     3.53012E-03    -41.9226E+06    -152.722E+06    -7.76979E+06    -18.3036E+06    -97.1967E-03     194.286E-03    -97.0894E-03     62.7737E-03    -97.2764E-03     193.691E-03    -96.8460E-03     61.8088E-03
            2414     4.90156E-03     3.52898E-03    -45.6314E+06    -163.719E+06    -22.5543E+06    -14.1414E+06    -96.9875E-03     193.870E-03    -96.8829E-03     54.3762E-03    -97.0170E-03     193.215E-03    -96.6921E-03     53.6124E-03
            2415     4.08456E-03     3.52821E-03    -50.2627E+06    -173.042E+06    -34.9752E+06    -9.60736E+06    -96.8136E-03     193.518E-03    -96.7043E-03     45.7063E-03    -96.8110E-03     192.817E-03    -96.5554E-03     45.1290E-03
            2416     3.26820E-03     3.52707E-03    -55.1922E+06    -180.968E+06    -45.5505E+06    -5.80194E+06    -96.6722E-03     193.218E-03    -96.5463E-03     36.9506E-03    -96.6504E-03     192.483E-03    -96.4316E-03     36.5314E-03
            2417     2.45174E-03     3.52700E-03    -59.1073E+06    -186.877E+06    -53.4556E+06    -2.75810E+06    -96.4883E-03     192.904E-03    -96.4154E-03     28.0224E-03    -96.4539E-03     192.144E-03    -96.3260E-03     27.7389E-03
            2418     1.63419E-03     3.52605E-03    -61.8746E+06    -191.313E+06    -59.4378E+06    -1.03415E+06    -96.3305E-03     192.654E-03    -96.3238E-03     19.0456E-03    -96.2868E-03     191.877E-03    -96.2538E-03     18.8707E-03
            2419     816.820E-06     3.52622E-03    -63.8356E+06    -194.013E+06    -63.1424E+06    -112.129E+03    -96.2519E-03     192.538E-03    -96.2865E-03     10.3989E-03    -96.2041E-03     191.751E-03    -96.2283E-03     10.3116E-03
            2420     15.2883E-03     2.61473E-03    -7.76541E+06     116.255E+06     83.1406E+06     6.71030E+06    -182.369E-03     297.013E-03    -114.645E-03     170.848E-03    -186.431E-03     301.229E-03    -114.386E-03     160.511E-03
            2421     14.5148E-03     2.50234E-03    -5.04126E+06     110.230E+06      87.709E+06     5.96229E+06    -160.842E-03     272.425E-03    -111.582E-03     168.999E-03    -164.878E-03     276.590E-03    -111.296E-03     159.232E-03
            2422     13.7257E-03     2.45306E-03    -9.44913E+06     94.0721E+06     84.2916E+06     8.14336E+06    -136.191E-03     245.585E-03    -109.394E-03     150.717E-03    -138.725E-03     248.183E-03    -109.095E-03     144.393E-03
            2423     12.9365E-03     2.42268E-03    -14.1666E+06     84.9259E+06     81.3956E+06     9.41258E+06    -121.621E-03     229.682E-03    -108.061E-03     137.791E-03    -123.347E-03     231.424E-03    -107.756E-03     133.474E-03
            2424     12.1271E-03     2.40499E-03    -18.1665E+06     75.8688E+06     70.5146E+06     7.37431E+06    -113.742E-03     220.954E-03    -107.212E-03     122.762E-03    -114.958E-03     222.167E-03    -106.943E-03     119.622E-03
            2425     11.3264E-03     2.39453E-03    -21.3406E+06     67.9738E+06     50.5101E+06     4.26626E+06    -109.816E-03     216.428E-03    -106.612E-03     111.171E-03    -110.716E-03     217.343E-03    -106.427E-03     108.747E-03
            2426     10.5176E-03     2.38582E-03    -25.5460E+06     48.3214E+06     30.2105E+06     1.41087E+06    -107.665E-03     213.865E-03    -106.200E-03     100.552E-03    -108.338E-03     214.527E-03    -106.082E-03     98.6309E-03
            2427     9.71083E-03     2.38115E-03    -28.6904E+06     5.57768E+06     17.1470E+06    -4.28902E+06    -106.532E-03     212.491E-03    -105.960E-03     90.9727E-03    -107.013E-03     212.836E-03    -105.841E-03     89.3711E-03
            2428     8.90221E-03     2.37552E-03    -29.7564E+06    -44.4677E+06     5.85812E+06    -12.8026E+06    -105.985E-03     211.783E-03    -105.798E-03     82.0869E-03    -106.298E-03     211.811E-03    -105.661E-03     80.6666E-03
            2429     8.09436E-03     2.37359E-03    -30.1141E+06    -83.7934E+06    -2.64055E+06    -19.6190E+06    -105.660E-03     211.332E-03    -105.672E-03     73.7935E-03    -105.845E-03     211.115E-03    -105.520E-03     72.5133E-03
            2430     7.28460E-03     2.37073E-03    -31.7679E+06    -117.297E+06    -10.6132E+06    -22.7077E+06    -105.478E-03     211.046E-03    -105.568E-03     65.9493E-03    -105.567E-03     210.632E-03    -105.405E-03     64.8106E-03
            2431     6.47661E-03     2.36939E-03    -35.4838E+06    -144.457E+06    -19.1982E+06    -21.4355E+06    -105.369E-03     210.843E-03    -105.473E-03     58.3537E-03    -105.394E-03     210.279E-03    -105.308E-03     57.3801E-03
            2432     5.66699E-03     2.36822E-03    -40.2821E+06    -163.622E+06    -26.8894E+06    -16.7973E+06    -105.289E-03     210.676E-03    -105.387E-03     50.9496E-03    -105.275E-03     210.011E-03    -105.225E-03     50.1610E-03
            2433     4.85741E-03     2.36757E-03    -45.4293E+06    -174.853E+06    -35.3197E+06    -11.1474E+06    -105.263E-03     210.555E-03    -105.292E-03     43.6742E-03    -105.228E-03     209.836E-03    -105.149E-03     43.0661E-03
            2434     4.04873E-03     2.36699E-03    -50.0193E+06    -181.592E+06    -42.5159E+06    -6.01053E+06    -105.195E-03     210.398E-03    -105.202E-03     36.4976E-03    -105.150E-03     209.648E-03    -105.079E-03     36.0507E-03
            2435     3.23886E-03     2.36679E-03    -53.6949E+06    -186.799E+06    -48.9037E+06    -2.64841E+06    -105.095E-03     210.221E-03    -105.126E-03     29.3253E-03    -105.041E-03     209.450E-03    -105.022E-03     29.0073E-03
            2436     2.42891E-03     2.36628E-03    -56.3942E+06    -190.262E+06    -53.6125E+06    -917.168E+03    -105.056E-03     210.124E-03    -105.068E-03     22.1844E-03    -104.996E-03     209.339E-03    -104.979E-03     21.9646E-03
            2437     1.61976E-03     2.36646E-03    -58.0846E+06    -192.843E+06    -56.7861E+06     96.8540E+03    -105.029E-03     210.051E-03    -105.022E-03     14.9861E-03    -104.964E-03     209.255E-03    -104.942E-03     14.8506E-03
            2438     810.015E-06     2.36607E-03    -58.7703E+06    -194.013E+06    -58.6375E+06     236.380E+03    -105.027E-03     209.976E-03    -104.950E-03     8.14576E-03    -104.958E-03     209.175E-03    -104.876E-03     8.07588E-03
            2439     15.1513E-03     1.30707E-03     1.51558E+06     117.609E+06     95.1505E+06     3.46915E+06    -189.960E-03     310.633E-03    -120.673E-03     188.376E-03    -193.264E-03     314.082E-03    -120.370E-03     179.688E-03
            2440     14.4033E-03     1.26685E-03    -1.90835E+06     105.295E+06     91.7467E+06     7.40440E+06    -159.703E-03     277.390E-03    -117.687E-03     150.697E-03    -161.991E-03     279.778E-03    -117.378E-03     144.875E-03
            2441     13.6245E-03     1.23972E-03    -7.04577E+06     92.7935E+06     88.1361E+06     7.39498E+06    -139.526E-03     255.275E-03    -115.750E-03     119.240E-03    -140.748E-03     256.543E-03    -115.433E-03     115.823E-03
            2442     12.8290E-03     1.21960E-03    -9.45515E+06     86.7090E+06     83.8989E+06     5.71719E+06    -128.817E-03     243.303E-03    -114.487E-03     96.6699E-03    -129.645E-03     244.158E-03    -114.179E-03     94.3481E-03
            2443     12.0442E-03     1.21159E-03    -12.1406E+06     79.9978E+06     65.3690E+06     3.52590E+06    -122.605E-03     236.151E-03    -113.546E-03     80.9230E-03    -123.205E-03     236.798E-03    -113.318E-03     79.2100E-03
            2444     11.2441E-03     1.20407E-03    -14.5971E+06     69.2921E+06     33.4668E+06     2.34206E+06    -118.890E-03     231.676E-03    -112.786E-03     70.1616E-03    -119.330E-03     232.211E-03    -112.698E-03     68.8429E-03
            2445     10.4478E-03     1.20051E-03    -16.5133E+06     50.3271E+06    -214.609E+03     906.037E+03    -116.441E-03     228.628E-03    -112.187E-03     61.3237E-03    -116.744E-03     229.049E-03    -112.237E-03     60.2838E-03
            2446     9.64684E-03     1.19599E-03    -17.7799E+06     13.3747E+06    -26.4247E+06    -4.48287E+06    -114.760E-03     226.525E-03    -111.765E-03     54.1760E-03    -114.934E-03     226.758E-03    -111.891E-03     53.2760E-03
            2447     8.84576E-03     1.19426E-03    -19.5982E+06    -38.0545E+06    -41.8112E+06    -11.9034E+06    -113.544E-03     225.052E-03    -111.508E-03     47.8779E-03    -113.601E-03     225.023E-03    -111.633E-03     47.0415E-03
            2448     8.04232E-03     1.19161E-03    -23.8356E+06    -84.3975E+06    -47.9671E+06    -15.7904E+06    -112.744E-03     224.102E-03    -111.358E-03     42.3910E-03    -112.725E-03     223.837E-03    -111.441E-03     41.6212E-03
            2449     7.24037E-03     1.19078E-03    -29.9993E+06    -122.716E+06    -49.5493E+06    -15.5057E+06    -112.172E-03     223.443E-03    -111.271E-03     37.4604E-03    -112.112E-03     222.983E-03    -111.298E-03     36.7918E-03
            2450     6.43547E-03     1.18965E-03    -37.0175E+06    -153.595E+06    -49.1252E+06    -13.2162E+06    -111.740E-03     222.963E-03    -111.223E-03     32.8990E-03    -111.661E-03     222.348E-03    -111.192E-03     32.3394E-03
            2451     5.63192E-03     1.18913E-03    -43.2052E+06    -174.034E+06    -47.4331E+06    -9.73613E+06    -111.481E-03     222.674E-03    -111.193E-03     28.5173E-03    -111.397E-03     221.954E-03    -111.115E-03     28.0688E-03
            2452     4.82792E-03     1.18869E-03    -47.7427E+06    -184.032E+06    -47.2598E+06    -5.75822E+06    -111.298E-03     222.455E-03    -111.157E-03     24.3699E-03    -111.216E-03     221.685E-03    -111.057E-03     24.0319E-03
            2453     4.02281E-03     1.18845E-03    -51.0565E+06    -187.989E+06    -48.8254E+06    -2.64395E+06    -111.184E-03     222.300E-03    -111.116E-03     20.2727E-03    -111.106E-03     221.514E-03    -111.014E-03     20.0265E-03
            2454     3.21865E-03     1.18842E-03    -52.7936E+06    -189.999E+06    -50.4060E+06    -634.232E+03    -111.106E-03     222.187E-03    -111.081E-03     16.2566E-03    -111.028E-03     221.392E-03    -110.981E-03     16.0843E-03
            2455     2.41425E-03     1.18832E-03    -53.8259E+06    -191.627E+06    -52.6236E+06     291.134E+03    -111.059E-03     222.110E-03    -111.051E-03     12.2484E-03    -110.978E-03     221.308E-03    -110.958E-03     12.1321E-03
            2456     1.60909E-03     1.18807E-03    -54.5245E+06    -192.832E+06    -53.6163E+06     288.499E+03    -111.055E-03     222.081E-03    -111.026E-03     8.28025E-03    -110.972E-03     221.274E-03    -110.935E-03     8.20307E-03
            2457     804.649E-06     1.18818E-03    -54.7266E+06    -193.429E+06     -54.444E+06     317.226E+03    -111.058E-03     222.009E-03    -110.951E-03     4.51998E-03    -110.974E-03     221.200E-03    -110.863E-03     4.48100E-03


