********************************************************************************
Field Output Report, written Mon Aug 12 21:03:40 2024

Source 1
---------

   ODB: G:/Abaqus_calc_2019/1740/Vel_40/odb/zeides_2a_24_red_1500_cal_0_vel_40_fric_050.odb
   Step: Step-1
   Frame: Increment   2734159: Step Time =   0.3056

Loc 1 : Nodal values from source 1

Output sorted by column "Nodal Label".

Field Output reported at nodes for region: DIE_2A_24_D0_36-1.Region_1
   Computation algorithm: EXTRAPOLATE_COMPUTE_AVERAGE
   Averaged at nodes
   Averaging regions: ODB_REGIONS

      Node Label     COORD.COOR1     COORD.COOR2
                          @Loc 1          @Loc 1
-------------------------------------------------
               1     18.4810E-03     157.614E-03


Field Output reported at nodes for region: DIE_2A_24_D0_36-1.Region_2
   Computation algorithm: EXTRAPOLATE_COMPUTE_AVERAGE
   Averaged at nodes
   Averaging regions: ODB_REGIONS

      Node Label     COORD.COOR1     COORD.COOR2
                          @Loc 1          @Loc 1
-------------------------------------------------
               1     18.4810E-03     157.614E-03


Field Output reported at nodes for part: WIRE-1
   Computation algorithm: EXTRAPOLATE_COMPUTE_AVERAGE
   Averaged at nodes
   Averaging regions: ODB_REGIONS

      Node Label     COORD.COOR1     COORD.COOR2           S.S11           S.S22           S.S33           S.S12         PE.PE11         PE.PE22         PE.PE33         PE.PE12         LE.LE11         LE.LE22         LE.LE33         LE.LE12
                          @Loc 1          @Loc 1          @Loc 1          @Loc 1          @Loc 1          @Loc 1          @Loc 1          @Loc 1          @Loc 1          @Loc 1          @Loc 1          @Loc 1          @Loc 1          @Loc 1
-------------------------------------------------------------------------------------------------------------------------------------------------------------------------------------------------------------------------------------------------
               1    -49.3371E-09     74.8718E-03    -137.986E+06    -320.694E+06    -138.274E+06    -240.350E+03    -164.876E-03     329.395E-03    -164.519E-03     11.8106E-03    -164.911E-03     328.203E-03    -164.545E-03     11.1687E-03
               2     15.2747E-03     77.3278E-03     -2.5751E+06     86.6066E+06     94.0351E+06     611.213E+03    -163.159E-03     327.602E-03    -164.443E-03     36.2988E-03    -164.193E-03     328.662E-03    -164.095E-03     29.3079E-03
               3     15.3083E-03     154.433E-03    -98.2344E+06     15.1167E+06     17.1738E+06     18.1102E+06    -79.1509E-03     242.469E-03    -163.318E-03    -18.5662E-03    -79.6530E-03     242.696E-03    -163.112E-03    -18.5726E-03
               4    -12.7704E-06     149.918E-03     41.4091E+06    -8.54664E+06     34.3548E+06    -3.62616E+06    -159.128E-03     326.274E-03    -167.146E-03    -23.8497E-03    -159.058E-03     326.013E-03    -167.022E-03    -24.0851E-03
               5     307.301E-09     194.289E-18    -86.3127E+06    -261.925E+06    -85.6938E+06     1.77398E+06    -162.132E-03     324.185E-03    -162.053E-03     871.481E-06    -162.059E-03     323.125E-03    -161.976E-03     856.615E-06
               6     15.0418E-03     194.289E-18     5.25722E+06     91.3416E+06     104.661E+06     8.04396E+06    -291.185E-03     463.450E-03    -172.265E-03     156.789E-03    -293.214E-03     465.468E-03    -171.881E-03     145.581E-03
               7     763.284E-06     74.8873E-03    -137.014E+06    -318.519E+06    -134.512E+06    -92.5609E+03    -164.800E-03     329.394E-03    -164.595E-03     19.0641E-03    -164.862E-03     328.230E-03    -164.607E-03     18.0144E-03
               8     1.52685E-03     74.9196E-03    -133.277E+06    -309.356E+06    -122.829E+06     187.360E+03    -164.851E-03     329.532E-03    -164.681E-03     34.7264E-03    -164.999E-03     328.465E-03    -164.653E-03     32.7777E-03
               9     2.29004E-03     74.9728E-03    -127.035E+06    -292.931E+06    -105.386E+06     202.493E+03    -165.095E-03     329.801E-03    -164.706E-03     51.0958E-03    -165.388E-03     328.909E-03    -164.624E-03     48.1563E-03
              10     3.05352E-03     75.0450E-03    -119.351E+06    -271.219E+06    -86.3261E+06     39.2661E+03    -165.392E-03     330.119E-03    -164.728E-03     66.7691E-03    -165.887E-03     329.478E-03    -164.593E-03     62.7933E-03
              11     3.81752E-03     75.1362E-03    -110.840E+06    -250.507E+06    -67.8385E+06     211.104E+03    -165.848E-03     330.599E-03    -164.751E-03     81.9846E-03    -166.601E-03     330.266E-03    -164.566E-03     76.9067E-03
              12     4.58035E-03     75.2462E-03    -102.221E+06    -226.745E+06    -49.5008E+06     281.970E+03    -166.231E-03     331.003E-03    -164.773E-03     96.4147E-03    -167.307E-03     331.055E-03    -164.543E-03     90.1914E-03
              13     5.34425E-03     75.3718E-03    -93.5686E+06    -196.784E+06    -32.4453E+06     309.148E+03    -166.477E-03     331.241E-03    -164.765E-03     109.920E-03    -167.949E-03     331.777E-03    -164.506E-03     102.514E-03
              14     6.10827E-03     75.5133E-03    -84.8379E+06    -168.701E+06    -17.2782E+06     521.424E+03    -166.776E-03     331.515E-03    -164.738E-03     122.318E-03    -168.700E-03     332.589E-03    -164.457E-03     113.709E-03
              15     6.87207E-03     75.6681E-03    -76.3849E+06    -136.998E+06    -2.31184E+06     412.218E+03    -167.095E-03     331.805E-03    -164.710E-03     133.221E-03    -169.524E-03     333.483E-03    -164.412E-03     123.422E-03
              16     7.63586E-03     75.8357E-03    -68.1517E+06    -101.181E+06     12.4690E+06     384.465E+03    -167.310E-03     331.994E-03    -164.684E-03     142.660E-03    -170.278E-03     334.324E-03    -164.376E-03     131.742E-03
              17     8.39943E-03     76.0129E-03    -60.2139E+06    -64.6097E+06     26.8904E+06     665.565E+03    -167.286E-03     331.942E-03    -164.656E-03     150.054E-03    -170.779E-03     334.914E-03    -164.341E-03     138.167E-03
              18     9.16368E-03     76.1965E-03    -52.3791E+06    -22.7980E+06     41.6876E+06     738.159E+03    -167.030E-03     331.646E-03    -164.616E-03     154.519E-03    -170.977E-03     335.206E-03    -164.299E-03     141.886E-03
              19     9.92791E-03     76.3830E-03    -44.3645E+06     21.1136E+06     54.9547E+06     669.386E+03    -166.636E-03     331.198E-03    -164.562E-03     154.966E-03    -170.890E-03     335.210E-03    -164.253E-03     141.868E-03
              20     10.6919E-03     76.5664E-03    -37.0105E+06     53.7146E+06     64.5556E+06     1.00076E+06    -166.152E-03     330.662E-03    -164.510E-03     151.133E-03    -170.502E-03     334.884E-03    -164.212E-03     137.866E-03
              21     11.4563E-03     76.7437E-03    -30.3131E+06     68.6465E+06     72.2275E+06     1.02950E+06    -165.491E-03     329.972E-03    -164.481E-03     142.706E-03    -169.699E-03     334.107E-03    -164.176E-03     129.567E-03
              22     12.2201E-03     76.9040E-03    -23.8911E+06     73.3484E+06     82.4512E+06     434.299E+03    -164.936E-03     329.426E-03    -164.489E-03     131.085E-03    -168.847E-03     333.273E-03    -164.149E-03     118.227E-03
              23     12.9838E-03     77.0525E-03    -17.1524E+06     78.8686E+06     93.2449E+06    -128.262E+03    -164.304E-03     328.813E-03    -164.509E-03     114.684E-03    -167.696E-03     332.154E-03    -164.132E-03     102.491E-03
              24     13.7481E-03     77.1732E-03    -10.3406E+06     87.4450E+06     99.0009E+06    -570.220E+03    -163.555E-03     328.055E-03    -164.500E-03     99.1370E-03    -166.550E-03     331.036E-03    -164.117E-03     87.3484E-03
              25     14.5126E-03     77.2807E-03    -4.85396E+06     89.1837E+06     97.2876E+06    -75.6767E+03    -163.218E-03     327.684E-03    -164.466E-03     65.1213E-03    -165.211E-03     329.694E-03    -164.102E-03     55.6744E-03
              26     15.2776E-03     78.6347E-03    -2.14486E+06     87.3082E+06     94.2296E+06    -96.2161E+03    -162.085E-03     326.536E-03    -164.451E-03     36.6587E-03    -163.138E-03     327.619E-03    -164.103E-03     29.5984E-03
              27     15.2751E-03     79.9527E-03    -3.33743E+06     88.5511E+06     94.4758E+06    -359.634E+03    -163.861E-03     328.263E-03    -164.403E-03     35.2328E-03    -164.907E-03     329.339E-03    -164.054E-03     28.1357E-03
              28     15.2774E-03     81.2750E-03    -1.45856E+06     90.3119E+06     96.1530E+06     184.950E+03    -163.358E-03     327.784E-03    -164.425E-03     36.2263E-03    -164.398E-03     328.860E-03    -164.073E-03     29.2040E-03
              29     15.2750E-03     82.5890E-03    -2.15878E+06     89.6911E+06     95.3069E+06     564.275E+03    -162.292E-03     326.742E-03    -164.450E-03     37.6461E-03    -163.347E-03     327.831E-03    -164.100E-03     30.6465E-03
              30     15.2775E-03     83.9044E-03    -2.51831E+06     89.6796E+06     94.9866E+06    -105.369E+03    -163.284E-03     327.706E-03    -164.421E-03     36.8779E-03    -164.338E-03     328.794E-03    -164.073E-03     29.8106E-03
              31     15.2750E-03     85.2217E-03    -2.18235E+06     90.1824E+06     95.0946E+06     85.3907E+03    -163.637E-03     328.057E-03    -164.419E-03     35.3627E-03    -164.672E-03     329.128E-03    -164.071E-03     28.3323E-03
              32     15.2771E-03     86.5408E-03    -2.05553E+06     90.4674E+06     95.4036E+06     352.724E+03    -162.797E-03     327.241E-03    -164.444E-03     36.2033E-03    -163.837E-03     328.318E-03    -164.095E-03     29.2143E-03
              33     15.2753E-03     87.8537E-03    -2.79255E+06     90.0330E+06     94.9416E+06     188.901E+03    -162.810E-03     327.246E-03    -164.436E-03     36.4815E-03    -163.855E-03     328.326E-03    -164.088E-03     29.4802E-03
              34     15.2772E-03     89.1739E-03    -2.55937E+06     90.4263E+06     95.2308E+06    -241.746E+03    -163.028E-03     327.451E-03    -164.423E-03     36.3102E-03    -164.078E-03     328.538E-03    -164.075E-03     29.2595E-03
              35     15.2757E-03     90.4868E-03    -2.12820E+06     90.8395E+06     95.7273E+06    -71.5086E+03    -163.192E-03     327.608E-03    -164.416E-03     36.1551E-03    -164.240E-03     328.694E-03    -164.066E-03     29.1033E-03
              36     15.2770E-03     91.8074E-03    -2.31209E+06     90.9092E+06     95.5530E+06     518.080E+03    -163.319E-03     327.734E-03    -164.415E-03     36.3874E-03    -164.364E-03     328.817E-03    -164.066E-03     29.3695E-03
              37     15.2756E-03     93.1228E-03    -2.22008E+06     91.0584E+06     95.6334E+06      50.771E+03    -163.171E-03     327.608E-03    -164.437E-03     36.1952E-03    -164.214E-03     328.689E-03    -164.087E-03     29.1823E-03
              38     15.2760E-03     94.4398E-03    -2.73733E+06     90.7494E+06     95.0020E+06     513.862E+03    -162.489E-03     326.938E-03    -164.448E-03     35.7607E-03    -163.536E-03     328.022E-03    -164.101E-03     28.7434E-03
              39     15.2769E-03     95.7533E-03    -3.04416E+06     91.1880E+06     95.3947E+06    -1.03820E+06    -163.187E-03     327.607E-03    -164.420E-03     36.1439E-03    -164.244E-03     328.700E-03    -164.071E-03     29.0578E-03
              40     15.2756E-03     97.0740E-03    -2.85945E+06     91.2803E+06     95.6760E+06     122.872E+03    -163.665E-03     328.082E-03    -164.417E-03     35.7671E-03    -164.707E-03     329.161E-03    -164.067E-03     28.7506E-03
              41     15.2768E-03     98.3919E-03    -1.65336E+06     92.5353E+06     96.6354E+06     638.465E+03    -162.723E-03     327.167E-03    -164.444E-03     36.9293E-03    -163.771E-03     328.258E-03    -164.093E-03     29.9409E-03
              42     15.2755E-03     99.7038E-03    -2.31586E+06      92.175E+06     96.0618E+06     159.542E+03    -162.622E-03     327.063E-03    -164.441E-03     35.9119E-03    -163.668E-03     328.149E-03    -164.091E-03     28.9109E-03
              43     15.2771E-03     101.024E-03    -2.49260E+06     92.2180E+06     96.1845E+06    -346.851E+03    -162.614E-03     327.043E-03    -164.428E-03     36.2164E-03    -163.672E-03     328.140E-03    -164.078E-03     29.1618E-03
              44     15.2760E-03     102.337E-03    -2.23018E+06     92.9006E+06     96.8672E+06    -329.932E+03    -162.991E-03     327.408E-03    -164.416E-03     36.2059E-03    -164.047E-03     328.504E-03    -164.064E-03     29.1525E-03
              45     15.2769E-03     103.657E-03    -2.43519E+06     94.0993E+06     97.2972E+06     574.740E+03    -162.982E-03     327.407E-03    -164.425E-03     36.3381E-03    -164.033E-03     328.501E-03    -164.072E-03     29.3442E-03
              46     15.2758E-03     104.972E-03    -2.89911E+06     93.7181E+06     96.5258E+06     238.944E+03    -162.814E-03     327.255E-03    -164.441E-03     36.2654E-03    -163.866E-03     328.350E-03    -164.090E-03     29.2625E-03
              47     15.2762E-03     106.287E-03    -3.09378E+06     93.6084E+06     96.0211E+06     335.770E+03    -162.554E-03     326.997E-03    -164.443E-03     35.3261E-03    -163.603E-03     328.089E-03    -164.094E-03     28.3187E-03
              48     15.2766E-03     107.604E-03    -2.89018E+06     95.9777E+06     97.2625E+06    -400.724E+03    -162.796E-03     327.221E-03    -164.425E-03     35.3654E-03    -163.855E-03     328.329E-03    -164.074E-03     28.3102E-03
              49     15.2762E-03     108.920E-03    -1.49545E+06     99.1918E+06     99.5786E+06     515.869E+03    -162.954E-03     327.380E-03    -164.426E-03     35.4216E-03    -164.003E-03     328.487E-03    -164.070E-03     28.4348E-03
              50     15.2767E-03     110.241E-03    -2.44604E+06     98.8203E+06     99.1817E+06     326.806E+03    -162.498E-03     326.948E-03    -164.450E-03     36.8648E-03    -163.559E-03     328.063E-03    -164.094E-03     29.9067E-03
              51     15.2754E-03     111.552E-03    -2.79333E+06     96.3217E+06     97.4028E+06    -307.797E+03    -162.260E-03     326.720E-03    -164.460E-03     35.7532E-03    -163.315E-03     327.825E-03    -164.109E-03     28.7595E-03
              52     15.2769E-03     112.869E-03    -2.34764E+06     97.6468E+06     98.3117E+06     125.157E+03    -162.047E-03     326.505E-03    -164.457E-03     35.3101E-03    -163.107E-03     327.618E-03    -164.104E-03     28.2994E-03
              53     15.2758E-03     114.184E-03    -2.84733E+06     99.9055E+06     99.3636E+06     22.8388E+03    -162.541E-03     326.990E-03    -164.449E-03     36.2292E-03    -163.615E-03     328.120E-03    -164.093E-03     29.1992E-03
              54     15.2764E-03     115.503E-03    -2.17078E+06     100.633E+06     99.4744E+06     185.494E+03    -161.738E-03     326.215E-03    -164.476E-03     35.7338E-03    -162.800E-03     327.338E-03    -164.122E-03     28.7646E-03
              55     15.2758E-03     116.814E-03    -2.03531E+06     101.457E+06     99.9430E+06    -230.859E+03    -160.930E-03     325.426E-03    -164.496E-03     35.7690E-03    -162.001E-03     326.561E-03    -164.141E-03     28.7829E-03
              56     15.2765E-03     118.127E-03    -3.22169E+06     103.347E+06     100.514E+06     297.999E+03    -161.289E-03     325.782E-03    -164.493E-03     34.8815E-03    -162.355E-03     326.911E-03    -164.135E-03     27.9450E-03
              57     15.2755E-03     119.447E-03    -2.93759E+06     104.100E+06     100.294E+06     318.190E+03    -160.512E-03     325.021E-03    -164.509E-03     35.5251E-03    -161.583E-03     326.161E-03    -164.154E-03     28.6042E-03
              58     15.2769E-03     120.752E-03    -3.63025E+06     104.677E+06     100.401E+06    -489.899E+03    -160.582E-03     325.079E-03    -164.497E-03     36.0559E-03    -161.665E-03     326.229E-03    -164.141E-03     29.1024E-03
              59     15.2758E-03     122.074E-03    -1.21145E+06     106.850E+06     102.574E+06     577.103E+03    -159.564E-03     324.055E-03    -164.491E-03     35.6195E-03    -160.623E-03     325.192E-03    -164.131E-03     28.7955E-03
              60     15.2788E-03     123.380E-03    -2.64587E+06     104.760E+06     100.404E+06     32.7837E+03    -158.205E-03     322.669E-03    -164.465E-03     37.7194E-03    -159.283E-03     323.819E-03    -164.111E-03     30.9112E-03
              61     15.2772E-03     124.692E-03    -2.23889E+06     103.513E+06     100.303E+06     470.894E+03    -157.738E-03     322.123E-03    -164.385E-03     36.0996E-03    -158.799E-03     323.253E-03    -164.030E-03     29.3221E-03
              62     15.2829E-03     125.998E-03    -2.65015E+06     103.659E+06     100.971E+06    -776.417E+03    -156.227E-03     320.487E-03    -164.259E-03     35.8070E-03    -157.293E-03     321.618E-03    -163.901E-03     29.0396E-03
              63     15.2831E-03     127.306E-03    -4.47428E+06     100.401E+06     99.3584E+06     -876.66E+03    -156.233E-03     320.280E-03    -164.047E-03     37.8454E-03    -157.314E-03     321.413E-03    -163.689E-03     31.0612E-03
              64     15.2896E-03     128.616E-03    -3.27111E+06     100.137E+06     99.7086E+06     144.019E+03    -156.683E-03     320.448E-03    -163.764E-03     38.4899E-03    -157.766E-03     321.585E-03    -163.406E-03     31.6595E-03
              65     15.2926E-03     129.917E-03    -1.77209E+06     98.9142E+06     96.7632E+06    -903.885E+03    -157.913E-03     321.300E-03    -163.388E-03     38.6215E-03    -158.993E-03     322.445E-03    -163.045E-03     31.6614E-03
              66     15.2998E-03     131.234E-03    -605.570E+03     98.1886E+06     94.1558E+06    -403.588E+03    -160.342E-03     323.283E-03    -162.941E-03     42.0637E-03    -161.440E-03     324.454E-03    -162.611E-03     34.9732E-03
              67     15.3046E-03     132.546E-03    -2.00104E+06     93.1763E+06     88.5613E+06    -1.39947E+06    -164.862E-03     327.299E-03    -162.437E-03     45.8232E-03    -165.988E-03     328.493E-03    -162.127E-03     38.4591E-03
              68     15.3099E-03     133.867E-03    -3.17021E+06     82.8424E+06     81.4000E+06    -3.25534E+06    -171.041E-03     332.978E-03    -161.937E-03     46.4762E-03    -172.165E-03     334.149E-03    -161.645E-03     38.7792E-03
              69     15.3139E-03     135.199E-03    -240.964E+03     71.5809E+06     78.1432E+06    -3.80149E+06    -178.925E-03     340.407E-03    -161.482E-03     51.1279E-03    -180.063E-03     341.572E-03    -161.195E-03     43.0298E-03
              70     15.3157E-03     136.543E-03    -2.54891E+06     60.0781E+06     74.4710E+06    -2.31565E+06    -187.544E-03     348.654E-03    -161.110E-03     54.2974E-03    -188.687E-03     349.786E-03    -160.821E-03     45.8965E-03
              71     15.3177E-03     137.896E-03    -861.335E+03     49.7317E+06     72.2261E+06    -2.44469E+06    -194.824E-03     355.642E-03    -160.818E-03     57.0589E-03    -195.977E-03     356.759E-03    -160.527E-03     48.2686E-03
              72     15.3188E-03     139.251E-03    -3.48296E+06     35.1305E+06     67.1672E+06    -5.05263E+06    -204.098E-03     364.616E-03    -160.517E-03     59.6217E-03    -205.279E-03     365.716E-03    -160.228E-03     50.2553E-03
              73     15.3189E-03     140.634E-03     213.402E+03     19.7442E+06     65.8276E+06    -4.03274E+06    -212.918E-03     373.189E-03    -160.271E-03     63.4936E-03    -214.093E-03     374.246E-03    -159.971E-03     53.6716E-03
              74     15.3203E-03     142.016E-03    -3.59606E+06      96.914E+03     61.9359E+06    -5.90086E+06    -220.383E-03     380.453E-03    -160.070E-03     68.2254E-03    -221.586E-03     381.465E-03    -159.756E-03     58.0134E-03
              75     15.3198E-03     143.411E-03     1.39498E+06    -20.9220E+06     62.9564E+06    -4.41141E+06    -227.190E-03     387.090E-03    -159.900E-03     68.7657E-03    -228.355E-03     388.004E-03    -159.557E-03     58.1900E-03
              76     15.3216E-03     144.811E-03    -5.70799E+06    -48.5382E+06     61.3345E+06    -9.56015E+06    -233.376E-03     393.128E-03    -159.752E-03     71.1128E-03    -234.562E-03     393.944E-03    -159.366E-03     60.1135E-03
              77     15.3212E-03     146.222E-03     4.86038E+06    -75.3074E+06     67.7568E+06    -4.05810E+06    -238.422E-03     398.049E-03    -159.627E-03     71.0254E-03    -239.516E-03     398.697E-03    -159.186E-03     59.9078E-03
              78     15.3240E-03     147.635E-03    -9.59119E+06    -97.0294E+06     71.8093E+06    -6.75335E+06    -240.043E-03     399.646E-03    -159.603E-03     69.2379E-03    -241.152E-03     400.168E-03    -159.090E-03     58.1213E-03
              79     15.3221E-03     149.046E-03     11.1905E+06    -102.949E+06     84.5692E+06     2.25944E+06    -237.769E-03     397.402E-03    -159.633E-03     68.1362E-03    -238.680E-03     397.742E-03    -159.077E-03     57.9513E-03
              80     15.3273E-03     150.457E-03    -11.3323E+06    -95.7871E+06     89.6093E+06     649.783E+03    -229.930E-03     389.738E-03    -159.809E-03     64.7727E-03    -230.811E-03     389.979E-03    -159.205E-03     55.9073E-03
              81     15.3222E-03     151.844E-03     15.4395E+06    -93.4898E+06     57.5332E+06    -2.46879E+06    -211.258E-03     371.182E-03    -159.924E-03     55.9230E-03    -211.731E-03     371.209E-03    -159.523E-03     49.2184E-03
              82     15.3354E-03     153.188E-03     23.0048E+06    -37.2530E+06     32.0986E+06     21.5006E+06    -138.630E-03     300.228E-03    -161.598E-03     14.9440E-03    -138.708E-03     300.196E-03    -161.417E-03     12.5468E-03
              83     14.4146E-03     154.290E-03    -82.5835E+06     4.76087E+06     7.18966E+06    -1.86421E+06    -66.7441E-03     232.140E-03    -165.396E-03    -21.0400E-03    -67.1231E-03     232.377E-03    -165.247E-03    -21.7460E-03
              84     13.5198E-03     154.016E-03    -37.6401E+06    -498.788E+03     23.9667E+06    -31.1720E+06    -46.8905E-03     216.562E-03    -169.672E-03    -48.1952E-03    -47.0431E-03     216.670E-03    -169.497E-03    -49.7120E-03
              85     12.6931E-03     153.691E-03    -15.9380E+06    -22.2123E+06     62.2290E+06    -23.2678E+06    -33.7785E-03     207.879E-03    -174.101E-03    -77.7640E-03    -33.8316E-03     207.706E-03    -173.734E-03    -79.0912E-03
              86     11.8647E-03     153.355E-03    -21.6788E+06    -17.3092E+06     77.6453E+06    -9.52511E+06    -29.8506E-03     208.202E-03    -178.351E-03    -94.6139E-03    -29.9267E-03     208.004E-03    -177.907E-03    -95.7379E-03
              87     11.0552E-03     153.008E-03    -17.5426E+06    -2.21348E+06     79.1094E+06    -6.10123E+06    -36.1097E-03     218.097E-03    -181.987E-03    -121.139E-03    -36.1323E-03     217.876E-03    -181.563E-03    -122.384E-03
              88     10.2693E-03     152.659E-03    -14.3480E+06    -388.798E+03     86.2015E+06    -9.19276E+06    -46.8494E-03     231.485E-03    -184.636E-03    -150.638E-03    -46.7827E-03     231.154E-03    -184.183E-03    -152.145E-03
              89     9.49876E-03     152.312E-03    -12.8517E+06    -1.90548E+06     91.4226E+06    -15.9394E+06    -59.7590E-03     245.777E-03    -186.018E-03    -179.799E-03    -59.6072E-03     245.304E-03    -185.539E-03    -181.615E-03
              90     8.75262E-03     151.975E-03    -10.9955E+06    -11.4913E+06     90.5485E+06    -13.7045E+06    -73.2396E-03     259.397E-03    -186.157E-03    -202.664E-03    -73.0094E-03     258.750E-03    -185.672E-03    -204.667E-03
              91     8.01818E-03     151.657E-03    -9.08256E+06    -5.91289E+06     92.1383E+06    -13.9226E+06    -87.4407E-03     272.755E-03    -185.314E-03    -217.156E-03    -87.1758E-03     272.051E-03    -184.832E-03    -219.333E-03
              92     7.29165E-03     151.362E-03     -6.2157E+06    -7.31671E+06     91.3483E+06    -14.4755E+06    -101.864E-03     285.556E-03    -183.693E-03    -224.785E-03    -101.579E-03     284.799E-03    -183.216E-03    -227.070E-03
              93     6.57099E-03     151.091E-03    -2.16039E+06    -7.08812E+06     90.8698E+06    -15.0338E+06    -115.279E-03     296.748E-03    -181.470E-03    -223.694E-03    -115.009E-03     295.983E-03    -181.002E-03    -226.008E-03
              94     5.85194E-03     150.847E-03     2.50623E+06    -7.88137E+06     87.8740E+06    -14.5934E+06    -127.296E-03     306.162E-03    -178.866E-03    -214.375E-03    -127.067E-03     305.423E-03    -178.419E-03    -216.617E-03
              95     5.13306E-03     150.633E-03     7.56617E+06    -7.70758E+06     82.1589E+06    -13.6124E+06    -137.623E-03     313.728E-03    -176.105E-03    -197.839E-03    -137.447E-03     313.054E-03    -175.694E-03    -199.917E-03
              96     4.41059E-03     150.446E-03     12.7672E+06    -7.49079E+06     75.1207E+06    -12.3718E+06    -145.942E-03     319.319E-03    -173.377E-03    -175.877E-03    -145.818E-03     318.729E-03    -173.009E-03    -177.731E-03
              97     3.68430E-03     150.289E-03     18.1273E+06    -5.85371E+06     69.0721E+06    -11.5973E+06    -152.295E-03     323.121E-03    -170.825E-03    -150.578E-03    -152.222E-03     322.615E-03    -170.498E-03    -152.183E-03
              98     2.95382E-03     150.160E-03     23.2507E+06    -4.93439E+06     62.6378E+06    -10.7018E+06    -157.011E-03     325.550E-03    -168.539E-03    -122.673E-03    -156.978E-03     325.119E-03    -168.253E-03    -124.005E-03
              99     2.21979E-03     150.060E-03     28.6251E+06    -5.50219E+06     54.6157E+06    -9.86419E+06    -160.207E-03     326.809E-03    -166.602E-03    -93.0034E-03    -160.197E-03     326.434E-03    -166.362E-03    -94.0464E-03
             100     1.48268E-03     149.988E-03     33.6860E+06    -6.54672E+06     46.6189E+06    -7.65959E+06    -162.282E-03     327.350E-03    -165.068E-03    -62.2525E-03    -162.275E-03     327.018E-03    -164.874E-03    -62.9991E-03
             101     742.976E-06     149.945E-03     38.7597E+06    -6.93815E+06     38.9206E+06    -4.95141E+06    -161.128E-03     326.903E-03    -165.774E-03    -35.2694E-03    -161.090E-03     326.619E-03    -165.626E-03    -35.6881E-03
             102     7.24774E-06     148.609E-03     2.73990E+06    -22.0897E+06     5.67417E+06    -5.76482E+06    -139.854E-03     280.416E-03    -140.562E-03    -13.1237E-03    -139.891E-03     280.215E-03    -140.505E-03    -13.3922E-03
             103    -1.70625E-06     147.411E-03    -63.1201E+06    -55.5937E+06    -60.9636E+06    -8.84084E+06    -105.245E-03     207.756E-03    -102.511E-03     1.22738E-03    -105.423E-03     207.628E-03    -102.644E-03     959.685E-06
             104     790.771E-09     146.276E-03    -125.941E+06    -94.7656E+06    -127.850E+06    -9.52924E+06    -84.8034E-03     169.397E-03    -84.5935E-03     8.35709E-03    -85.1183E-03     169.286E-03    -84.9127E-03     8.15360E-03
             105     501.557E-09     145.167E-03    -194.352E+06    -134.373E+06    -193.536E+06    -9.95526E+06    -78.9935E-03     156.665E-03    -77.6710E-03     14.7093E-03    -79.4920E-03     156.556E-03    -78.1620E-03     14.5377E-03
             106     318.533E-09     144.059E-03    -253.392E+06    -172.938E+06    -250.709E+06    -8.77639E+06    -81.3960E-03     161.995E-03    -80.5990E-03     18.2846E-03    -82.0516E-03     161.860E-03    -81.2343E-03     18.1486E-03
             107     74.4479E-09     142.940E-03    -249.186E+06    -201.756E+06    -249.989E+06    -5.17113E+06    -90.5746E-03     180.655E-03    -90.0807E-03     19.3164E-03    -91.1724E-03     180.365E-03    -90.6768E-03     19.2246E-03
             108     213.298E-09     141.790E-03    -195.449E+06    -211.895E+06    -196.518E+06    -296.501E+03    -104.720E-03     208.760E-03    -104.040E-03     19.1535E-03    -105.116E-03     208.260E-03    -104.432E-03     19.1082E-03
             109     500.546E-09     140.607E-03    -148.488E+06    -211.205E+06    -147.558E+06     513.326E+03    -120.852E-03     240.797E-03    -119.945E-03     18.0967E-03    -121.087E-03     240.162E-03    -120.162E-03     18.0164E-03
             110     177.153E-09     139.378E-03    -123.068E+06    -210.605E+06    -124.479E+06     33.7171E+03    -134.936E-03     269.778E-03    -134.843E-03     17.2993E-03    -135.076E-03     269.081E-03    -134.981E-03     17.1290E-03
             111    -794.369E-09     138.122E-03    -117.627E+06    -212.201E+06    -117.248E+06    -611.028E+03    -146.334E-03     292.780E-03    -146.446E-03     15.8156E-03    -146.455E-03     292.062E-03    -146.554E-03     15.5271E-03
             112     1.15451E-06     136.838E-03    -112.980E+06    -218.231E+06    -114.777E+06    -498.003E+03    -155.926E-03     310.953E-03    -155.027E-03     14.2966E-03    -156.019E-03     310.197E-03    -155.120E-03     13.8884E-03
             113    -217.842E-09     135.536E-03    -111.678E+06    -223.866E+06    -112.856E+06    -1.78061E+06    -162.266E-03     323.731E-03    -161.464E-03     12.5272E-03    -162.346E-03     322.945E-03    -161.542E-03     12.0124E-03
             114     443.755E-09     134.218E-03    -116.950E+06    -235.350E+06    -118.086E+06    -3.79264E+06    -166.068E-03     331.523E-03    -165.455E-03     11.6945E-03    -166.150E-03     330.696E-03    -165.535E-03     11.0871E-03
             115     202.888E-09     132.895E-03    -123.654E+06    -248.042E+06    -123.505E+06    -1.08493E+06    -168.835E-03     336.782E-03    -167.947E-03     12.1518E-03    -168.925E-03     335.910E-03    -168.025E-03     11.5408E-03
             116     447.533E-09     131.562E-03    -128.024E+06    -258.821E+06    -128.188E+06    -2.32263E+06    -169.581E-03     339.123E-03    -169.542E-03     12.0818E-03    -169.671E-03     338.211E-03    -169.622E-03     11.4296E-03
             117    -1.09536E-06     130.235E-03    -134.986E+06    -271.285E+06    -134.983E+06    -2.16346E+06    -169.527E-03     339.245E-03    -169.718E-03     11.1392E-03    -169.622E-03     338.290E-03    -169.804E-03     10.5104E-03
             118     1.40619E-06     128.903E-03    -140.668E+06    -281.021E+06    -140.765E+06    -1.30225E+06    -169.885E-03     339.067E-03    -169.181E-03     11.6133E-03    -169.987E-03     338.081E-03    -169.274E-03     10.9419E-03
             119    -699.428E-09     127.573E-03    -145.193E+06    -289.430E+06    -145.427E+06    -1.84744E+06    -169.261E-03     337.867E-03    -168.606E-03     11.9445E-03    -169.368E-03     336.853E-03    -168.702E-03     11.2429E-03
             120     934.782E-09     126.248E-03    -148.649E+06    -296.685E+06    -148.789E+06    -1.34261E+06    -168.061E-03     335.799E-03    -167.738E-03     11.5731E-03    -168.169E-03     334.758E-03    -167.837E-03     10.9016E-03
             121    -729.386E-09     124.923E-03    -148.957E+06    -303.381E+06    -148.887E+06    -818.304E+03    -167.226E-03     334.424E-03    -167.197E-03     11.4501E-03    -167.326E-03     333.350E-03    -167.286E-03     10.7925E-03
             122     521.302E-09     123.603E-03    -150.833E+06    -311.550E+06    -150.251E+06    -1.93451E+06    -166.824E-03     333.909E-03    -167.086E-03     11.0803E-03    -166.919E-03     332.799E-03    -167.166E-03     10.4000E-03
             123    -749.047E-09     122.278E-03    -151.737E+06    -318.426E+06    -152.648E+06    -683.095E+03    -166.654E-03     333.021E-03    -166.366E-03     10.5579E-03    -166.741E-03     331.881E-03    -166.448E-03     9.87321E-03
             124     1.37063E-06     120.960E-03    -149.565E+06    -322.229E+06    -148.975E+06    -691.050E+03    -166.468E-03     332.013E-03    -165.545E-03     10.7759E-03    -166.542E-03     330.846E-03    -165.606E-03     10.1369E-03
             125    -620.266E-09     119.638E-03    -146.054E+06    -327.014E+06    -146.477E+06    -1.15139E+06    -165.798E-03     331.383E-03    -165.585E-03     11.8333E-03    -165.853E-03     330.183E-03    -165.631E-03     11.1745E-03
             126     140.831E-09     118.318E-03    -148.358E+06    -332.221E+06    -147.890E+06     107.809E+03    -165.221E-03     330.607E-03    -165.386E-03     11.9814E-03    -165.277E-03     329.387E-03    -165.429E-03     11.3693E-03
             127     38.3255E-09     117.004E-03    -146.009E+06    -331.314E+06    -146.253E+06     402.940E+03    -165.403E-03     330.234E-03    -164.831E-03     11.2019E-03    -165.450E-03     329.011E-03    -164.870E-03     10.6001E-03
             128     606.234E-09     115.684E-03    -142.607E+06    -328.925E+06    -142.450E+06    -393.920E+03    -165.235E-03     330.430E-03    -165.194E-03     11.4571E-03    -165.276E-03     329.210E-03    -165.223E-03     10.8010E-03
             129    -1.23336E-06     114.366E-03    -143.487E+06    -329.852E+06    -143.572E+06    -289.666E+03    -165.337E-03     330.660E-03    -165.322E-03     11.6463E-03    -165.379E-03     329.438E-03    -165.354E-03     11.0087E-03
             130     1.83315E-06     113.047E-03    -142.419E+06    -329.336E+06    -142.890E+06     855.921E+03    -165.650E-03     330.180E-03    -164.530E-03     12.2048E-03    -165.688E-03     328.959E-03    -164.560E-03     11.5836E-03
             131    -784.708E-09     111.730E-03    -140.595E+06    -327.178E+06    -140.591E+06    -66.4332E+03    -165.002E-03     329.425E-03    -164.423E-03     12.7933E-03    -165.038E-03     328.209E-03    -164.448E-03     12.1504E-03
             132     556.542E-09     110.415E-03    -140.818E+06    -327.382E+06    -140.843E+06    -307.325E+03    -164.797E-03     329.232E-03    -164.435E-03     11.3306E-03    -164.833E-03     328.015E-03    -164.461E-03     10.6712E-03
             133     178.635E-09     109.100E-03    -139.808E+06    -326.634E+06    -140.322E+06     517.168E+03    -165.130E-03     329.199E-03    -164.070E-03     10.6962E-03    -165.163E-03     327.984E-03    -164.095E-03     10.0211E-03
             134     662.088E-09     107.782E-03    -138.364E+06    -324.870E+06    -138.316E+06     346.887E+03    -164.830E-03     329.098E-03    -164.269E-03     10.6616E-03    -164.860E-03     327.885E-03    -164.288E-03     10.0425E-03
             135    -685.168E-09     106.468E-03    -138.719E+06    -325.084E+06    -138.575E+06     223.807E+03    -164.581E-03     329.538E-03    -164.957E-03     11.2816E-03    -164.612E-03     328.325E-03    -164.977E-03     10.6830E-03
             136     89.0728E-09     105.147E-03    -138.399E+06    -324.551E+06    -137.979E+06     553.963E+03    -165.010E-03     329.727E-03    -164.716E-03     11.1105E-03    -165.042E-03     328.516E-03    -164.735E-03     10.4925E-03
             137     916.273E-09     103.833E-03    -138.732E+06    -324.885E+06    -138.892E+06    -568.304E+03    -165.075E-03     329.379E-03    -164.304E-03     11.8270E-03    -165.106E-03     328.168E-03    -164.326E-03     11.2031E-03
             138    -798.354E-09     102.514E-03    -137.960E+06    -323.387E+06    -138.674E+06     514.001E+03    -164.657E-03     329.213E-03    -164.556E-03     11.5739E-03    -164.687E-03     328.008E-03    -164.580E-03     10.9814E-03
             139     778.579E-09     101.200E-03    -139.098E+06    -323.609E+06    -138.520E+06    -407.439E+03    -164.465E-03     329.131E-03    -164.666E-03     11.5439E-03    -164.501E-03     327.927E-03    -164.688E-03     10.9033E-03
             140    -1.10772E-06     99.8831E-03    -139.034E+06    -324.085E+06    -139.405E+06     112.563E+03    -164.738E-03     329.582E-03    -164.844E-03     11.7016E-03    -164.772E-03     328.377E-03    -164.869E-03     11.0391E-03
             141     1.22320E-06     98.5650E-03    -138.830E+06    -322.855E+06    -138.407E+06     322.611E+03    -165.320E-03     329.579E-03    -164.260E-03     11.2211E-03    -165.355E-03     328.378E-03    -164.282E-03     10.6021E-03
             142     238.698E-09     97.2499E-03    -138.231E+06    -322.324E+06    -139.398E+06     227.495E+03    -164.986E-03     328.761E-03    -163.774E-03     11.1561E-03    -165.018E-03     327.562E-03    -163.803E-03     10.5685E-03
             143     92.5443E-09     95.9349E-03    -139.154E+06    -322.176E+06    -138.944E+06     1.03049E+06    -164.301E-03     328.664E-03    -164.363E-03     11.3014E-03    -164.339E-03     327.467E-03    -164.389E-03     10.7087E-03
             144    -562.120E-09     94.6180E-03    -138.363E+06    -321.081E+06    -137.935E+06    -437.585E+03    -164.439E-03     329.238E-03    -164.799E-03     11.9921E-03    -164.476E-03     328.045E-03    -164.823E-03     11.3564E-03
             145     433.376E-09     93.2996E-03    -138.410E+06    -321.697E+06    -139.016E+06    -399.573E+03    -164.737E-03     329.257E-03    -164.520E-03     11.8482E-03    -164.771E-03     328.062E-03    -164.548E-03     11.2363E-03
             146    -33.0499E-09     91.9869E-03    -139.271E+06    -322.095E+06    -139.268E+06     160.277E+03    -164.820E-03     329.116E-03    -164.296E-03     11.1447E-03    -164.858E-03     327.920E-03    -164.324E-03     10.5310E-03
             147     387.454E-09     90.6690E-03    -138.932E+06    -321.121E+06    -139.097E+06    -498.417E+03    -164.712E-03     329.050E-03    -164.338E-03     11.2149E-03    -164.750E-03     327.858E-03    -164.366E-03     10.5767E-03
             148    -216.933E-09     89.3521E-03    -139.609E+06    -321.918E+06    -139.785E+06      17.424E+03    -164.642E-03     328.949E-03    -164.307E-03     11.8862E-03    -164.682E-03     327.756E-03    -164.337E-03     11.2546E-03
             149     503.934E-09     88.0375E-03    -139.392E+06    -321.517E+06    -139.149E+06     703.309E+03    -164.937E-03     329.389E-03    -164.453E-03     11.3796E-03    -164.976E-03     328.197E-03    -164.480E-03     10.7501E-03
             150    -96.1246E-09     86.7208E-03    -138.987E+06    -321.191E+06    -139.163E+06    -35.1720E+03    -165.045E-03     329.558E-03    -164.513E-03     11.1850E-03    -165.083E-03     328.366E-03    -164.542E-03     10.5508E-03
             151     453.344E-09     85.4015E-03    -138.131E+06    -320.381E+06    -138.489E+06     31.1196E+03    -164.913E-03     328.952E-03    -164.039E-03     11.7234E-03    -164.948E-03     327.762E-03    -164.066E-03     11.1152E-03
             152     469.050E-09     84.0883E-03    -138.444E+06    -320.792E+06    -138.620E+06    -502.082E+03    -164.826E-03     328.878E-03    -164.052E-03     12.0917E-03    -164.863E-03     327.687E-03    -164.079E-03     11.4573E-03
             153    -266.054E-09     82.7714E-03    -139.540E+06    -322.125E+06    -139.717E+06     75.2709E+03    -164.748E-03     329.349E-03    -164.601E-03     11.6665E-03    -164.787E-03     328.155E-03    -164.631E-03     11.0214E-03
             154     236.494E-09     81.4543E-03    -139.307E+06    -321.603E+06    -139.013E+06     108.471E+03    -164.526E-03     329.177E-03    -164.651E-03     11.4647E-03    -164.565E-03     327.984E-03    -164.678E-03     10.8472E-03
             155    -443.840E-09     80.1395E-03    -139.470E+06    -321.871E+06    -139.222E+06    -162.794E+03    -164.411E-03     329.043E-03    -164.632E-03     11.4081E-03    -164.450E-03     327.848E-03    -164.659E-03     10.7976E-03
             156     268.006E-09     78.8224E-03    -138.064E+06    -320.649E+06    -138.570E+06     978.449E+03    -164.735E-03     329.255E-03    -164.520E-03     11.1783E-03    -164.770E-03     328.064E-03    -164.548E-03     10.5507E-03
             157     186.686E-09     77.5063E-03    -140.162E+06    -321.190E+06    -138.543E+06     28.7444E+03    -164.961E-03     329.282E-03    -164.321E-03     11.3240E-03    -165.005E-03     328.090E-03    -164.345E-03     10.7028E-03
             158     304.528E-09     76.1897E-03    -139.000E+06    -321.400E+06    -140.548E+06    -606.734E+03    -164.981E-03     329.430E-03    -164.449E-03     11.7688E-03    -165.017E-03     328.239E-03    -164.484E-03     11.1307E-03
             159     285.000E-09     73.5567E-03    -138.963E+06    -321.258E+06    -139.140E+06     139.975E+03    -164.732E-03     329.113E-03    -164.380E-03     11.4029E-03    -164.770E-03     327.920E-03    -164.409E-03     10.7867E-03
             160    -32.6298E-09     72.2408E-03    -140.359E+06    -320.979E+06    -139.206E+06     619.631E+03    -164.744E-03     329.233E-03    -164.489E-03     11.4744E-03    -164.789E-03     328.044E-03    -164.516E-03     10.8566E-03
             161     131.858E-09     70.9230E-03    -138.263E+06    -320.142E+06    -139.296E+06    -73.8596E+03    -164.963E-03     329.225E-03    -164.261E-03     11.4523E-03    -164.999E-03     328.038E-03    -164.293E-03     10.8136E-03
             162     783.435E-09     69.6075E-03    -137.788E+06    -319.740E+06    -138.616E+06    -427.885E+03    -164.995E-03     328.959E-03    -163.964E-03     11.4568E-03    -165.030E-03     327.772E-03    -163.994E-03     10.8238E-03
             163    -179.749E-09     68.2926E-03    -138.742E+06    -320.326E+06    -138.697E+06    -25.9970E+03    -164.837E-03     329.225E-03    -164.387E-03     11.4941E-03    -164.876E-03     328.036E-03    -164.415E-03     10.8663E-03
             164     215.183E-09     66.9739E-03    -139.553E+06    -321.199E+06    -139.333E+06     32.5435E+03    -164.747E-03     329.569E-03    -164.822E-03     11.6489E-03    -164.788E-03     328.379E-03    -164.851E-03     11.0065E-03
             165    -413.376E-09     65.6584E-03    -138.784E+06    -320.421E+06    -138.613E+06     182.167E+03    -164.835E-03     329.498E-03    -164.663E-03     11.2252E-03    -164.874E-03     328.309E-03    -164.690E-03     10.5980E-03
             166     830.022E-09     64.3414E-03    -139.260E+06    -320.910E+06    -139.920E+06     38.6911E+03    -164.915E-03     329.324E-03    -164.409E-03     11.4501E-03    -164.953E-03     328.135E-03    -164.442E-03     10.8317E-03
             167    -529.596E-09     63.0242E-03    -139.676E+06    -320.203E+06    -139.099E+06     402.869E+03    -164.637E-03     328.958E-03    -164.321E-03     11.7366E-03    -164.680E-03     327.772E-03    -164.350E-03     11.1343E-03
             168     665.774E-09     61.7092E-03    -139.080E+06    -320.112E+06    -139.309E+06    -310.363E+03    -164.670E-03     328.867E-03    -164.197E-03     11.2673E-03    -164.710E-03     327.681E-03    -164.227E-03     10.6375E-03
             169    -125.971E-09     60.3950E-03    -139.251E+06    -320.419E+06    -139.391E+06     420.365E+03    -164.748E-03     329.133E-03    -164.385E-03     10.9401E-03    -164.788E-03     327.946E-03    -164.416E-03     10.3182E-03
             170     96.7782E-09     59.0754E-03    -139.666E+06    -320.661E+06    -139.578E+06     29.5339E+03    -164.452E-03     329.043E-03    -164.591E-03     11.5419E-03    -164.493E-03     327.855E-03    -164.622E-03     10.9269E-03
             171    -329.397E-09     57.7611E-03    -139.408E+06    -320.529E+06    -139.724E+06     217.575E+03    -164.726E-03     329.077E-03    -164.351E-03     12.0807E-03    -164.767E-03     327.890E-03    -164.383E-03     11.4671E-03
             172     1.07659E-06     56.4427E-03    -138.740E+06    -319.673E+06    -139.309E+06    -66.1488E+03    -164.827E-03     328.997E-03    -164.170E-03     11.8356E-03    -164.866E-03     327.813E-03    -164.202E-03     11.2122E-03
             173    -878.998E-09     55.1303E-03    -140.338E+06    -321.006E+06    -139.735E+06     115.663E+03    -164.321E-03     328.791E-03    -164.470E-03     11.2915E-03    -164.365E-03     327.603E-03    -164.500E-03     10.6750E-03
             174     413.787E-09     53.8123E-03    -139.694E+06    -320.309E+06    -139.250E+06     46.1516E+03    -164.574E-03     328.537E-03    -163.963E-03     10.7820E-03    -164.616E-03     327.351E-03    -163.992E-03     10.1600E-03
             175     949.136E-09     52.4974E-03    -138.694E+06    -320.173E+06    -139.969E+06    -857.189E+03    -164.808E-03     328.321E-03    -163.513E-03     11.8124E-03    -164.845E-03     327.136E-03    -163.547E-03     11.1663E-03
             176    -396.285E-09     51.1831E-03    -139.713E+06    -320.221E+06    -139.230E+06     229.904E+03    -164.205E-03     328.509E-03    -164.304E-03     11.9839E-03    -164.248E-03     327.324E-03    -164.333E-03     11.3583E-03
             177    -355.943E-09     49.8650E-03    -139.563E+06    -319.698E+06    -139.066E+06    -199.669E+03    -164.049E-03     328.201E-03    -164.153E-03     11.1220E-03    -164.091E-03     327.018E-03    -164.182E-03     10.5027E-03
             178     909.136E-09     48.5546E-03    -139.197E+06    -319.634E+06    -140.174E+06     105.622E+03    -164.308E-03     328.069E-03    -163.761E-03     11.0148E-03    -164.348E-03     326.887E-03    -163.796E-03     10.3876E-03
             179    -678.177E-09     47.2366E-03    -139.530E+06    -319.306E+06    -138.742E+06     213.789E+03    -164.171E-03     328.375E-03    -164.204E-03     11.6242E-03    -164.215E-03     327.194E-03    -164.233E-03     10.9943E-03
             180     355.688E-09     45.9203E-03    -139.104E+06    -319.448E+06    -138.836E+06    -261.387E+03    -163.863E-03     327.802E-03    -163.938E-03     11.7707E-03    -163.904E-03     326.618E-03    -163.968E-03     11.1900E-03
             181    -198.275E-09     44.6087E-03    -138.787E+06    -319.564E+06    -139.373E+06     374.209E+03    -163.542E-03     326.999E-03    -163.458E-03     11.3701E-03    -163.580E-03     325.815E-03    -163.490E-03     10.7992E-03
             182     114.809E-09     43.2950E-03    -139.193E+06    -319.173E+06    -139.050E+06     1.22999E+06    -163.705E-03     326.977E-03    -163.271E-03     10.9772E-03    -163.747E-03     325.795E-03    -163.302E-03     10.3704E-03
             183     590.006E-09     41.9818E-03    -139.627E+06    -318.506E+06    -138.660E+06    -592.863E+03    -163.933E-03     326.897E-03    -162.963E-03     11.0866E-03    -163.980E-03     325.719E-03    -162.992E-03     10.4370E-03
             184     155.135E-09     40.6678E-03    -137.464E+06    -317.646E+06    -138.688E+06        -782.125    -163.609E-03     326.535E-03    -162.926E-03     11.0503E-03    -163.645E-03     325.357E-03    -162.960E-03     10.4307E-03
             185     87.7721E-09     39.3573E-03    -138.786E+06    -317.530E+06    -138.289E+06    -162.054E+03    -163.133E-03     326.249E-03    -163.116E-03     11.2639E-03    -163.176E-03     325.074E-03    -163.146E-03     10.6343E-03
             186    -345.678E-09     38.0408E-03    -139.390E+06    -318.286E+06    -139.527E+06     166.977E+03    -162.773E-03     325.106E-03    -162.333E-03     11.3399E-03    -162.816E-03     323.930E-03    -162.367E-03     10.7415E-03
             187     1.22909E-06     36.7343E-03    -136.943E+06    -316.213E+06    -137.183E+06     726.207E+03    -162.650E-03     324.000E-03    -161.350E-03     11.1728E-03    -162.687E-03     322.827E-03    -161.379E-03     10.5943E-03
             188    -169.237E-09     35.4257E-03    -136.303E+06    -314.928E+06    -136.266E+06    -1.17502E+06    -162.168E-03     324.022E-03    -161.854E-03     10.7923E-03    -162.205E-03     322.853E-03    -161.881E-03     10.1781E-03
             189    -450.136E-09     34.1144E-03    -138.444E+06    -316.982E+06    -138.771E+06     298.961E+03    -161.364E-03     323.663E-03    -162.299E-03     11.0342E-03    -161.405E-03     322.490E-03    -162.333E-03     10.4704E-03
             190    -410.879E-09     32.8048E-03    -137.462E+06    -315.767E+06    -137.245E+06     479.789E+03    -160.905E-03     322.648E-03    -161.742E-03     11.4132E-03    -160.945E-03     321.477E-03    -161.771E-03     10.8462E-03
             191    -57.2894E-09     31.5000E-03    -137.618E+06    -315.243E+06    -137.274E+06    -308.442E+03    -160.682E-03     321.644E-03    -160.962E-03     10.1466E-03    -160.723E-03     320.476E-03    -160.991E-03     9.56190E-03
             192     64.9322E-09     30.1951E-03    -137.782E+06    -315.253E+06    -137.811E+06     883.068E+03    -161.078E-03     321.175E-03    -160.096E-03     9.66450E-03    -161.119E-03     320.007E-03    -160.128E-03     9.10650E-03
             193     1.40115E-06     28.8870E-03    -137.150E+06    -314.231E+06    -137.235E+06    -284.594E+03    -160.764E-03     320.229E-03    -159.465E-03     10.4939E-03    -160.804E-03     319.065E-03    -159.497E-03     9.91475E-03
             194    -916.161E-09     27.5840E-03    -136.417E+06    -313.066E+06    -136.774E+06    -278.138E+03    -159.800E-03     319.058E-03    -159.258E-03     10.9705E-03    -159.839E-03     317.899E-03    -159.291E-03     10.3992E-03
             195     1.21380E-06     26.2822E-03    -137.332E+06    -313.062E+06    -137.721E+06     711.575E+03    -159.884E-03     318.825E-03    -158.941E-03     10.5722E-03    -159.926E-03     317.668E-03    -158.976E-03     10.0247E-03
             196    -107.830E-09     24.9780E-03    -137.492E+06    -311.861E+06    -137.329E+06    -108.093E+03    -158.857E-03     317.895E-03    -159.037E-03     10.7669E-03    -158.903E-03     316.744E-03    -159.072E-03     10.1845E-03
             197    -1.31470E-06     23.6793E-03    -137.394E+06    -310.705E+06    -136.662E+06    -286.399E+03    -157.834E-03     316.095E-03    -158.260E-03     9.07386E-03    -157.880E-03     314.947E-03    -158.294E-03     8.53937E-03
             198     2.06273E-06     22.3816E-03    -136.632E+06    -309.996E+06    -137.654E+06     1.26179E+06    -157.204E-03     313.797E-03    -156.593E-03     8.79864E-03    -157.245E-03     312.654E-03    -156.634E-03     8.28506E-03
             199    -1.90669E-06     21.0863E-03    -135.489E+06    -306.887E+06    -134.546E+06     1.03263E+06    -155.120E-03     310.405E-03    -155.285E-03     8.57001E-03    -155.164E-03     309.271E-03    -155.316E-03     8.07891E-03
             200     1.48291E-06     19.7978E-03    -133.371E+06    -304.169E+06    -134.128E+06    -179.214E+03    -153.429E-03     306.074E-03    -152.645E-03     6.99118E-03    -153.466E-03     304.948E-03    -152.681E-03     6.52716E-03
             201     137.077E-09     18.5165E-03    -133.610E+06    -302.570E+06    -133.629E+06     6.59440E+03    -150.681E-03     300.843E-03    -150.162E-03     6.70054E-03    -150.722E-03     299.723E-03    -150.197E-03     6.25239E-03
             202    -966.916E-09     17.2385E-03    -131.722E+06    -299.329E+06    -131.892E+06     610.741E+03    -146.145E-03     292.991E-03    -146.846E-03     5.17366E-03    -146.183E-03     291.880E-03    -146.881E-03     4.80631E-03
             203     709.295E-09     15.9760E-03    -130.977E+06    -296.343E+06    -130.963E+06     960.773E+03    -141.282E-03     282.549E-03    -141.267E-03     4.25289E-03    -141.321E-03     281.449E-03    -141.303E-03     3.95363E-03
             204    -419.390E-09     14.7286E-03    -129.561E+06    -292.063E+06    -129.415E+06     901.641E+03    -135.634E-03     271.056E-03    -135.422E-03     3.07665E-03    -135.674E-03     269.972E-03    -135.457E-03     2.81085E-03
             205     475.970E-09     13.4921E-03    -127.279E+06    -286.183E+06    -127.267E+06     1.04945E+06    -129.158E-03     258.269E-03    -129.112E-03     1.99889E-03    -129.198E-03     257.208E-03    -129.148E-03     1.76810E-03
             206    -440.949E-09     12.2773E-03    -126.352E+06    -281.548E+06    -126.167E+06     962.727E+03    -122.228E-03     244.604E-03    -122.376E-03     1.40303E-03    -122.272E-03     243.562E-03    -122.415E-03     1.20493E-03
             207     190.207E-09     11.0729E-03    -123.925E+06    -276.226E+06    -124.790E+06     1.43810E+06    -115.607E-03     231.265E-03    -115.658E-03     886.166E-06    -115.648E-03     230.244E-03    -115.702E-03     709.438E-06
             208    -10.2330E-09     9.89136E-03    -121.322E+06    -269.971E+06    -120.839E+06     1.55069E+06    -110.452E-03     220.810E-03    -110.359E-03     1.47179E-03    -110.494E-03     219.813E-03    -110.395E-03     1.29746E-03
             209    -6.46116E-09     8.71183E-03    -117.391E+06    -265.397E+06    -117.270E+06     587.720E+03    -108.981E-03     217.339E-03    -108.359E-03     2.79101E-03    -109.015E-03     216.355E-03    -108.390E-03     2.60111E-03
             210     1.02904E-06     7.53891E-03    -115.374E+06    -265.668E+06    -114.438E+06    -534.279E+03    -112.631E-03     224.389E-03    -111.759E-03     5.14917E-03    -112.661E-03     223.395E-03    -111.778E-03     4.94051E-03
             211    -623.499E-09     6.34350E-03    -111.190E+06    -266.785E+06    -111.286E+06    -302.342E+03    -120.145E-03     240.609E-03    -120.463E-03     6.75744E-03    -120.159E-03     239.596E-03    -120.472E-03     6.55431E-03
             212    -263.670E-09     5.12706E-03    -106.201E+06    -267.489E+06    -106.641E+06     101.246E+03    -130.565E-03     261.763E-03    -131.197E-03     7.54505E-03    -130.562E-03     260.731E-03    -131.189E-03     7.35026E-03
             213     168.890E-09     3.88313E-03    -100.291E+06    -267.316E+06    -100.311E+06     55.8386E+03    -142.561E-03     285.053E-03    -142.492E-03     6.97119E-03    -142.537E-03     284.003E-03    -142.460E-03     6.76950E-03
             214     62.2726E-09     2.60885E-03    -94.9105E+06    -266.400E+06    -94.7515E+06     157.001E+03    -152.967E-03     305.918E-03    -152.950E-03     5.26777E-03    -152.923E-03     304.859E-03    -152.900E-03     5.09924E-03
             215    -244.394E-09     1.30931E-03    -89.5851E+06    -264.277E+06    -89.5436E+06     924.089E+03    -159.744E-03     319.569E-03    -159.825E-03     2.94618E-03    -159.680E-03     318.506E-03    -159.760E-03     2.87090E-03
             216     764.954E-06     194.289E-18    -86.5300E+06    -261.551E+06    -85.1501E+06     1.15280E+06    -162.147E-03     324.236E-03    -162.089E-03     2.18440E-03    -162.077E-03     323.177E-03    -162.010E-03     2.11400E-03
             217     1.52840E-03     194.289E-18    -86.3199E+06    -260.346E+06    -83.3526E+06     812.331E+03    -162.020E-03     324.134E-03    -162.113E-03     4.64249E-03    -161.955E-03     323.078E-03    -162.027E-03     4.49644E-03
             218     2.29370E-03     194.289E-18    -85.6309E+06    -258.351E+06    -80.5808E+06     934.362E+03    -161.660E-03     323.709E-03    -162.049E-03     7.12965E-03    -161.599E-03     322.660E-03    -161.953E-03     6.91491E-03
             219     3.05754E-03     194.289E-18    -84.5650E+06    -255.208E+06    -76.3613E+06     506.306E+03    -161.116E-03     323.032E-03    -161.916E-03     9.53557E-03    -161.062E-03     321.993E-03    -161.806E-03     9.22957E-03
             220     3.82401E-03     194.289E-18    -82.1958E+06    -249.512E+06    -69.6852E+06    -296.270E+03    -160.490E-03     322.225E-03    -161.735E-03     11.2711E-03    -160.444E-03     321.203E-03    -161.602E-03     10.8805E-03
             221     4.58974E-03     194.289E-18    -78.8053E+06    -235.249E+06    -62.2187E+06    -893.173E+03    -159.847E-03     321.354E-03    -161.507E-03     13.3626E-03    -159.819E-03     320.391E-03    -161.363E-03     12.8815E-03
             222     5.35566E-03     194.289E-18    -74.6005E+06    -211.256E+06    -55.9076E+06    -1.88145E+06    -159.108E-03     320.341E-03    -161.233E-03     15.5125E-03    -159.105E-03     319.485E-03    -161.098E-03     14.9446E-03
             223     6.12370E-03     194.289E-18    -67.9582E+06    -178.492E+06    -50.3290E+06    -5.13510E+06    -158.512E-03     319.438E-03    -160.926E-03     17.2956E-03    -158.535E-03     318.732E-03    -160.820E-03     16.6017E-03
             224     6.89043E-03     194.289E-18    -58.6713E+06    -137.054E+06    -43.5925E+06    -7.07534E+06    -158.133E-03     318.751E-03    -160.618E-03     19.3296E-03    -158.184E-03     318.233E-03    -160.553E-03     18.5269E-03
             225     7.65835E-03     194.289E-18    -49.0967E+06    -89.7036E+06    -36.2730E+06    -6.53947E+06    -158.046E-03     318.385E-03    -160.339E-03     21.6236E-03    -158.134E-03     318.085E-03    -160.319E-03     20.7308E-03
             226     8.42573E-03     194.289E-18    -39.5507E+06    -33.1310E+06    -27.5691E+06    -7.91487E+06    -158.509E-03     318.625E-03    -160.117E-03     23.4753E-03    -158.649E-03     318.587E-03    -160.149E-03     22.4651E-03
             227     9.19315E-03     194.289E-18    -29.4131E+06     16.0178E+06    -12.6021E+06    -7.05858E+06    -159.782E-03     319.822E-03    -160.040E-03     26.5432E-03    -159.974E-03     320.002E-03    -160.084E-03     25.4126E-03
             228     9.95659E-03     194.289E-18    -21.6349E+06     41.5998E+06     12.2662E+06    -2.38747E+06    -162.037E-03     322.238E-03    -160.200E-03     29.5732E-03    -162.274E-03     322.509E-03    -160.168E-03     28.3439E-03
             229     10.7223E-03     194.289E-18    -18.6528E+06     51.4155E+06     40.4623E+06     1.95508E+06    -165.750E-03     326.360E-03    -160.610E-03     33.4969E-03    -166.046E-03     326.654E-03    -160.455E-03     32.0731E-03
             230     11.4780E-03     194.289E-18    -17.2220E+06     58.0917E+06     64.3712E+06     3.34484E+06    -171.117E-03     332.388E-03    -161.272E-03     38.9821E-03    -171.479E-03     332.708E-03    -161.009E-03     37.2193E-03
             231     12.2345E-03     194.289E-18    -13.4669E+06     64.5027E+06     84.3778E+06     2.14607E+06    -179.060E-03     341.316E-03    -162.256E-03     48.4647E-03    -179.497E-03     341.688E-03    -161.908E-03     46.1815E-03
             232     12.9750E-03     194.289E-18    -10.8771E+06     69.3764E+06     94.3626E+06     680.305E+03    -193.368E-03     357.097E-03    -163.729E-03     66.7146E-03    -193.954E-03     357.616E-03    -163.342E-03     63.3124E-03
             233     13.7048E-03     194.289E-18    -7.98176E+06     74.7282E+06     95.9308E+06    -959.756E+03    -219.644E-03     385.722E-03    -166.078E-03     77.4572E-03    -220.437E-03     386.487E-03    -165.695E-03     71.9780E-03
             234     14.4311E-03     194.289E-18     125.739E+03     84.1620E+06     100.603E+06     3.18576E+06    -263.868E-03     433.770E-03    -169.902E-03     117.079E-03    -265.330E-03     435.228E-03    -169.522E-03     108.082E-03
             235     15.1879E-03     1.57177E-03    -3.25680E+06     89.1581E+06     94.6652E+06     2.48516E+06    -265.149E-03     434.831E-03    -169.682E-03     162.062E-03    -267.789E-03     437.487E-03    -169.334E-03     149.435E-03
             236     15.2302E-03     2.98723E-03    -6.42911E+06     87.5422E+06     87.2078E+06     1.48063E+06    -235.722E-03     401.670E-03    -165.948E-03     120.293E-03    -238.084E-03     404.076E-03    -165.629E-03     107.899E-03
             237     15.2600E-03     4.39674E-03    -2.56907E+06     89.6738E+06     90.8801E+06     2.17403E+06    -223.756E-03     388.204E-03    -164.448E-03     81.1841E-03    -225.527E-03     390.020E-03    -164.120E-03     69.7959E-03
             238     15.2635E-03     5.77517E-03    -907.477E+03     91.7254E+06     94.4534E+06     -85.733E+03    -216.743E-03     380.625E-03    -163.883E-03     70.6579E-03    -218.462E-03     382.395E-03    -163.542E-03     59.2248E-03
             239     15.2707E-03     7.16735E-03    -1.52995E+06     89.5620E+06     94.5144E+06    -805.958E+03    -215.363E-03     378.988E-03    -163.625E-03     58.3815E-03    -216.839E-03     380.502E-03    -163.280E-03     47.3935E-03
             240     15.2701E-03     8.54071E-03    -4.51415E+06     86.9960E+06     93.3978E+06    -1.88289E+06    -212.319E-03     375.899E-03    -163.580E-03     54.6441E-03    -213.727E-03     377.330E-03    -163.232E-03     44.0305E-03
             241     15.2712E-03     9.93119E-03    -973.174E+03     86.9386E+06     95.1643E+06     111.754E+03    -204.655E-03     368.364E-03    -163.709E-03     48.9064E-03    -205.918E-03     369.656E-03    -163.358E-03     39.1138E-03
             242     15.2733E-03     11.2831E-03    -677.924E+03     86.2565E+06     94.1188E+06    -564.538E+03    -196.454E-03     360.307E-03    -163.853E-03     49.9103E-03    -197.716E-03     361.600E-03    -163.507E-03     40.5112E-03
             243     15.2713E-03     12.6429E-03    -2.99703E+06     85.0604E+06     92.0739E+06    -1.10850E+06    -192.320E-03     356.293E-03    -163.973E-03     42.5070E-03    -193.476E-03     357.473E-03    -163.632E-03     33.6456E-03
             244     15.2718E-03     13.9928E-03    -2.40618E+06     85.1641E+06     91.7494E+06     301.420E+03    -183.148E-03     347.376E-03    -164.227E-03     40.5513E-03    -184.233E-03     348.489E-03    -163.889E-03     32.4441E-03
             245     15.2712E-03     15.3277E-03    -2.38468E+06     84.1851E+06     90.4493E+06     315.863E+03    -175.843E-03     340.275E-03    -164.432E-03     40.2290E-03    -176.909E-03     341.368E-03    -164.098E-03     32.5427E-03
             246     15.2704E-03     16.6523E-03    -1.74509E+06     84.9876E+06     90.5251E+06     241.789E+03    -171.354E-03     335.888E-03    -164.534E-03     35.6601E-03    -172.371E-03     336.939E-03    -164.202E-03     28.2611E-03
             247     15.2731E-03     17.9768E-03    -2.12758E+06     86.4574E+06     91.3981E+06    -95.8035E+03    -168.840E-03     333.414E-03    -164.574E-03     35.4962E-03    -169.848E-03     334.456E-03    -164.239E-03     28.2983E-03
             248     15.2702E-03     19.3035E-03    -4.09771E+06     85.1901E+06     90.3966E+06     384.681E+03    -168.960E-03     333.532E-03    -164.572E-03     35.5214E-03    -169.963E-03     334.561E-03    -164.238E-03     28.3973E-03
             249     15.2732E-03     20.6249E-03    -1.18219E+06     86.2313E+06     92.4203E+06     87.9439E+03    -166.977E-03     331.544E-03    -164.567E-03     34.5364E-03    -167.966E-03     332.567E-03    -164.228E-03     27.4539E-03
             250     15.2736E-03     21.9448E-03    -1.18282E+06     85.8547E+06     92.6840E+06    -616.187E+03    -167.263E-03     331.763E-03    -164.500E-03     35.1387E-03    -168.269E-03     332.801E-03    -164.159E-03     27.9664E-03
             251     15.2735E-03     23.2699E-03    -2.23965E+06     86.6797E+06     92.4543E+06     776.429E+03    -168.401E-03     332.835E-03    -164.434E-03     34.1522E-03    -169.398E-03     333.864E-03    -164.094E-03     26.9965E-03
             252     15.2755E-03     24.5942E-03    -2.48469E+06     87.2044E+06     92.2557E+06     -80.042E+03    -167.934E-03     332.346E-03    -164.411E-03     35.3558E-03    -168.946E-03     333.390E-03    -164.073E-03     28.1782E-03
             253     15.2736E-03     25.9169E-03    -3.33136E+06     85.0714E+06     91.0515E+06    -769.883E+03    -168.471E-03     332.864E-03    -164.393E-03     34.9627E-03    -169.479E-03     333.899E-03    -164.056E-03     27.7578E-03
             254     15.2755E-03     27.2411E-03    -1.62903E+06     84.2208E+06     91.8740E+06     36.6360E+03    -167.554E-03     331.949E-03    -164.395E-03     34.4395E-03    -168.549E-03     332.971E-03    -164.055E-03     27.2899E-03
             255     15.2750E-03     28.5621E-03    -1.92687E+06     84.1668E+06     92.2279E+06     17.2332E+03    -167.213E-03     331.593E-03    -164.380E-03     35.2045E-03    -168.225E-03     332.629E-03    -164.038E-03     28.0219E-03
             256     15.2756E-03     29.8853E-03    -2.68493E+06     84.2098E+06     92.0815E+06     203.095E+03    -167.243E-03     331.615E-03    -164.372E-03     35.2016E-03    -168.254E-03     332.649E-03    -164.030E-03     28.0472E-03
             257     15.2753E-03     31.2093E-03    -2.33142E+06     83.7284E+06     91.9878E+06     142.476E+03    -166.241E-03     330.630E-03    -164.388E-03     36.1173E-03    -167.263E-03     331.674E-03    -164.046E-03     28.9664E-03
             258     15.2759E-03     32.5257E-03    -2.01809E+06     84.1133E+06     92.4774E+06     53.7321E+03    -166.204E-03     330.585E-03    -164.381E-03     35.4986E-03    -167.222E-03     331.627E-03    -164.038E-03     28.3470E-03
             259     15.2756E-03     33.8489E-03    -2.67485E+06     84.0566E+06     92.1725E+06    -98.2661E+03    -166.247E-03     330.625E-03    -164.378E-03     34.5026E-03    -167.259E-03     331.658E-03    -164.035E-03     27.3658E-03
             260     15.2757E-03     35.1690E-03    -1.95118E+06     84.3393E+06     92.6503E+06     20.8837E+03    -165.034E-03     329.434E-03    -164.401E-03     35.0505E-03    -166.052E-03     330.477E-03    -164.057E-03     27.9369E-03
             261     15.2764E-03     36.4873E-03    -2.40359E+06     84.2677E+06     92.8522E+06    -304.212E+03    -164.898E-03     329.294E-03    -164.396E-03     35.9678E-03    -165.929E-03     330.346E-03    -164.051E-03     28.8415E-03
             262     15.2755E-03     37.8070E-03    -2.61676E+06     83.6414E+06     92.5663E+06    -256.187E+03    -165.312E-03     329.702E-03    -164.390E-03     35.2603E-03    -166.334E-03     330.743E-03    -164.045E-03     28.1404E-03
             263     15.2763E-03     39.1277E-03    -2.43662E+06     83.9232E+06     92.8069E+06     324.360E+03    -164.533E-03     328.939E-03    -164.407E-03     36.0137E-03    -165.562E-03     329.989E-03    -164.061E-03     28.9211E-03
             264     15.2758E-03     40.4443E-03    -2.52928E+06     84.9465E+06     93.2468E+06     335.794E+03    -164.340E-03     328.748E-03    -164.408E-03     35.8617E-03    -165.369E-03     329.799E-03    -164.061E-03     28.7927E-03
             265     15.2762E-03     41.7631E-03    -1.98182E+06     85.2019E+06     93.2884E+06     112.901E+03    -164.080E-03     328.491E-03    -164.411E-03     35.3170E-03    -165.104E-03     329.540E-03    -164.065E-03     28.2496E-03
             266     15.2760E-03     43.0815E-03    -2.07481E+06     84.9274E+06     93.3514E+06    -24.2091E+03    -164.126E-03     328.532E-03    -164.406E-03     36.8036E-03    -165.167E-03     329.597E-03    -164.059E-03     29.6972E-03
             267     15.2763E-03     44.3998E-03    -2.50497E+06     84.7221E+06     93.4951E+06     39.2856E+03    -164.615E-03     329.014E-03    -164.400E-03     36.2042E-03    -165.649E-03     330.070E-03    -164.051E-03     29.1114E-03
             268     15.2756E-03     45.7189E-03    -2.39575E+06     85.0371E+06     93.6405E+06     215.739E+03    -163.690E-03     328.117E-03    -164.427E-03     36.0146E-03    -164.723E-03     329.171E-03    -164.078E-03     28.9672E-03
             269     15.2765E-03     47.0355E-03    -2.14365E+06     85.3123E+06     93.7081E+06     308.834E+03    -163.042E-03     327.484E-03    -164.442E-03     36.6907E-03    -164.082E-03     328.548E-03    -164.094E-03     29.6525E-03
             270     15.2755E-03     48.3512E-03    -2.09317E+06     84.8626E+06     93.3912E+06    -159.003E+03    -163.516E-03     327.945E-03    -164.429E-03     35.6730E-03    -164.548E-03     329.000E-03    -164.082E-03     28.5972E-03
             271     15.2767E-03     49.6682E-03    -2.78180E+06     84.5949E+06     93.0188E+06    -309.402E+03    -163.461E-03     327.879E-03    -164.418E-03     35.4302E-03    -164.490E-03     328.929E-03    -164.071E-03     28.3814E-03
             272     15.2760E-03     50.9874E-03    -2.91321E+06     85.0542E+06     93.3013E+06    -328.685E+03    -163.398E-03     327.824E-03    -164.427E-03     35.7255E-03    -164.434E-03     328.882E-03    -164.079E-03     28.6670E-03
             273     15.2757E-03     52.3027E-03    -1.82855E+06     85.7754E+06     93.9620E+06     263.103E+03    -163.184E-03     327.621E-03    -164.437E-03     35.8086E-03    -164.215E-03     328.678E-03    -164.089E-03     28.7729E-03
             274     15.2768E-03     53.6202E-03    -2.16639E+06     85.5891E+06     93.6824E+06     284.815E+03    -163.250E-03     327.675E-03    -164.425E-03     36.7995E-03    -164.287E-03     328.736E-03    -164.077E-03     29.7733E-03
             275     15.2756E-03     54.9394E-03    -2.52470E+06     85.5856E+06     93.5070E+06     100.281E+03    -163.358E-03     327.790E-03    -164.432E-03     36.1094E-03    -164.392E-03     328.848E-03    -164.085E-03     29.0784E-03
             276     15.2763E-03     56.2524E-03    -2.39969E+06     85.6630E+06     93.4926E+06    -85.1958E+03    -162.770E-03     327.214E-03    -164.444E-03     35.4111E-03    -163.801E-03     328.270E-03    -164.097E-03     28.3900E-03
             277     15.2763E-03     57.5700E-03    -1.97761E+06     85.9509E+06     93.9562E+06     182.924E+03    -163.108E-03     327.532E-03    -164.423E-03     36.1493E-03    -164.142E-03     328.591E-03    -164.075E-03     29.1245E-03
             278     15.2764E-03     58.8891E-03    -2.11235E+06     86.8911E+06     94.3727E+06     476.924E+03    -163.255E-03     327.679E-03    -164.424E-03     36.4645E-03    -164.291E-03     328.742E-03    -164.075E-03     29.4533E-03
             279     15.2759E-03     60.2045E-03    -2.95116E+06     86.5656E+06     93.6721E+06    -306.396E+03    -163.237E-03     327.673E-03    -164.436E-03     35.9281E-03    -164.279E-03     328.741E-03    -164.089E-03     28.8648E-03
             280     15.2759E-03     61.5194E-03    -2.25389E+06     86.9209E+06     94.0172E+06    -133.055E+03    -163.043E-03     327.477E-03    -164.434E-03     34.7320E-03    -164.071E-03     328.533E-03    -164.087E-03     27.7026E-03
             281     15.2769E-03     62.8386E-03    -1.85654E+06     87.2149E+06     94.3878E+06    -27.9428E+03    -162.514E-03     326.945E-03    -164.431E-03     35.8757E-03    -163.550E-03     328.010E-03    -164.082E-03     28.8657E-03
             282     15.2760E-03     64.1536E-03    -2.99699E+06     86.6501E+06     93.7098E+06    -296.748E+03    -163.451E-03     327.867E-03    -164.416E-03     36.8329E-03    -164.505E-03     328.945E-03    -164.068E-03     29.7437E-03
             283     15.2762E-03     65.4724E-03    -1.95299E+06     87.4807E+06     94.4999E+06     272.542E+03    -163.614E-03     328.034E-03    -164.420E-03     36.4701E-03    -164.656E-03     329.105E-03    -164.071E-03     29.4166E-03
             284     15.2763E-03     66.7906E-03    -2.26274E+06     87.1597E+06     94.1560E+06    -56.0423E+03    -162.683E-03     327.131E-03    -164.448E-03     36.7934E-03    -163.730E-03     328.206E-03    -164.100E-03     29.7618E-03
             285     15.2756E-03     68.1036E-03    -2.47104E+06     86.7345E+06     93.6979E+06     217.241E+03    -162.608E-03     327.061E-03    -164.452E-03     36.5282E-03    -163.651E-03     328.131E-03    -164.106E-03     29.5093E-03
             286     15.2766E-03     69.4214E-03    -2.76145E+06     86.5465E+06     93.3538E+06     427.216E+03    -163.252E-03     327.683E-03    -164.431E-03     36.2782E-03    -164.289E-03     328.746E-03    -164.086E-03     29.2648E-03
             287     15.2755E-03     70.7382E-03    -3.38233E+06     87.3826E+06     93.5704E+06    -80.3192E+03    -163.236E-03     327.674E-03    -164.437E-03     35.3463E-03    -164.276E-03     328.740E-03    -164.091E-03     28.3039E-03
             288     15.2764E-03     72.0547E-03    -1.83844E+06     88.9965E+06     95.1759E+06    -46.6450E+03    -162.790E-03     327.239E-03    -164.449E-03     36.5615E-03    -163.835E-03     328.318E-03    -164.100E-03     29.5341E-03
             289     15.2759E-03     73.3725E-03    -2.30299E+06     88.2065E+06     94.5104E+06     107.414E+03    -162.813E-03     327.253E-03    -164.440E-03     36.4905E-03    -163.854E-03     328.325E-03    -164.092E-03     29.4826E-03
             290     15.2764E-03     74.6868E-03    -1.86948E+06     88.5935E+06     94.8709E+06    -298.177E+03    -162.577E-03     327.005E-03    -164.428E-03     35.5094E-03    -163.620E-03     328.081E-03    -164.079E-03     28.4496E-03
             291     15.2769E-03     76.0016E-03    -3.00551E+06     88.1421E+06     94.7277E+06    -716.025E+03    -163.866E-03     328.275E-03    -164.409E-03     36.1934E-03    -164.913E-03     329.350E-03    -164.059E-03     29.1177E-03
             292     763.227E-06     76.2037E-03    -137.822E+06    -318.611E+06    -135.353E+06    -244.038E+03    -164.875E-03     329.451E-03    -164.577E-03     19.1203E-03    -164.940E-03     328.289E-03    -164.592E-03     18.0652E-03
             293     1.52657E-03     76.2361E-03    -133.910E+06    -309.422E+06    -122.793E+06    -14.0784E+03    -164.838E-03     329.542E-03    -164.705E-03     34.8001E-03    -164.989E-03     328.476E-03    -164.676E-03     32.8450E-03
             294     2.29027E-03     76.2893E-03    -127.570E+06    -293.216E+06    -105.649E+06     183.400E+03    -165.060E-03     329.773E-03    -164.713E-03     51.0707E-03    -165.354E-03     328.880E-03    -164.631E-03     48.1346E-03
             295     3.05383E-03     76.3614E-03    -119.849E+06    -270.986E+06    -86.4215E+06     248.801E+03    -165.482E-03     330.220E-03    -164.738E-03     66.8940E-03    -165.981E-03     329.582E-03    -164.604E-03     62.9155E-03
             296     3.81661E-03     76.4532E-03    -111.380E+06    -250.746E+06    -68.3267E+06     85.3433E+03    -165.847E-03     330.615E-03    -164.767E-03     82.1821E-03    -166.603E-03     330.283E-03    -164.584E-03     77.1014E-03
             297     4.58083E-03     76.5623E-03    -102.606E+06    -226.695E+06    -49.8287E+06     361.080E+03    -166.070E-03     330.842E-03    -164.772E-03     96.5818E-03    -167.149E-03     330.897E-03    -164.544E-03     90.3642E-03
             298     5.34456E-03     76.6883E-03    -93.8248E+06    -196.489E+06    -32.4110E+06     219.959E+03    -166.445E-03     331.195E-03    -164.750E-03     109.974E-03    -167.919E-03     331.732E-03    -164.491E-03     102.569E-03
             299     6.10819E-03     76.8294E-03    -85.0942E+06    -169.110E+06    -17.7243E+06     110.912E+03    -166.883E-03     331.611E-03    -164.729E-03     122.194E-03    -168.805E-03     332.683E-03    -164.449E-03     113.575E-03
             300     6.87189E-03     76.9849E-03    -76.6520E+06    -136.987E+06    -2.72602E+06     394.746E+03    -167.121E-03     331.831E-03    -164.709E-03     133.245E-03    -169.551E-03     333.510E-03    -164.413E-03     123.444E-03
             301     7.63559E-03     77.1521E-03    -68.8615E+06    -101.085E+06     12.3072E+06     507.414E+03    -167.173E-03     331.852E-03    -164.679E-03     142.843E-03    -170.145E-03     334.185E-03    -164.371E-03     131.935E-03
             302     8.40006E-03     77.3291E-03    -60.8729E+06    -64.8167E+06     26.6615E+06     428.096E+03    -167.156E-03     331.794E-03    -164.639E-03     150.096E-03    -170.651E-03     334.766E-03    -164.323E-03     138.216E-03
             303     9.16399E-03     77.5130E-03     -52.686E+06    -22.8389E+06     41.4394E+06     260.724E+03    -167.041E-03     331.636E-03    -164.595E-03     154.239E-03    -170.986E-03     335.193E-03    -164.279E-03     141.599E-03
             304     9.92799E-03     77.6991E-03    -45.0599E+06     20.5247E+06     54.4698E+06     508.074E+03    -166.760E-03     331.310E-03    -164.550E-03     154.723E-03    -171.016E-03     335.321E-03    -164.242E-03     141.604E-03
             305     10.6918E-03     77.8838E-03    -37.4840E+06     53.1054E+06     64.0161E+06     919.831E+03    -166.150E-03     330.655E-03    -164.505E-03     150.862E-03    -170.499E-03     334.873E-03    -164.208E-03     137.592E-03
             306     11.4560E-03     78.0587E-03    -29.9567E+06     68.9790E+06     72.1241E+06     889.132E+03    -165.508E-03     329.986E-03    -164.478E-03     142.604E-03    -169.713E-03     334.120E-03    -164.174E-03     129.462E-03
             307     12.2202E-03     78.2225E-03    -22.6492E+06     74.6646E+06     83.4086E+06     410.764E+03    -165.053E-03     329.545E-03    -164.492E-03     131.525E-03    -168.965E-03     333.400E-03    -164.150E-03     118.665E-03
             308     12.9836E-03     78.3689E-03    -15.7693E+06     79.8311E+06     94.3562E+06    -92.6590E+03    -164.338E-03     328.852E-03    -164.514E-03     115.183E-03    -167.736E-03     332.204E-03    -164.135E-03     102.986E-03
             309     13.7478E-03     78.4898E-03    -10.3541E+06     87.0549E+06     98.8193E+06     288.486E+03    -163.978E-03     328.489E-03    -164.511E-03     101.370E-03    -167.002E-03     331.499E-03    -164.129E-03     89.5635E-03
             310     14.5085E-03     78.6020E-03    -5.15965E+06     89.1731E+06     96.9175E+06     370.406E+03    -163.091E-03     327.569E-03    -164.479E-03     67.3236E-03    -165.117E-03     329.613E-03    -164.116E-03     57.8358E-03
             311     763.508E-06     77.5201E-03    -138.258E+06    -318.506E+06    -134.654E+06    -80.5010E+03    -164.881E-03     329.372E-03    -164.491E-03     19.0021E-03    -164.951E-03     328.211E-03    -164.502E-03     17.9463E-03
             312     1.52677E-03     77.5530E-03    -133.751E+06    -309.317E+06    -122.931E+06     3.77442E+03    -164.865E-03     329.543E-03    -164.677E-03     34.7992E-03    -165.016E-03     328.477E-03    -164.649E-03     32.8454E-03
             313     2.29005E-03     77.6052E-03    -127.327E+06    -293.439E+06    -105.784E+06     115.732E+03    -165.096E-03     329.802E-03    -164.706E-03     51.1552E-03    -165.389E-03     328.909E-03    -164.625E-03     48.2193E-03
             314     3.05342E-03     77.6784E-03    -119.570E+06    -271.034E+06    -87.0854E+06     281.324E+03    -165.419E-03     330.145E-03    -164.726E-03     67.1461E-03    -165.917E-03     329.508E-03    -164.595E-03     63.1666E-03
             315     3.81749E-03     77.7697E-03    -111.380E+06    -250.318E+06    -68.4909E+06     242.493E+03    -165.737E-03     330.478E-03    -164.741E-03     82.2093E-03    -166.493E-03     330.148E-03    -164.558E-03     77.1366E-03
             316     4.58073E-03     77.8785E-03    -102.626E+06    -227.032E+06    -49.9448E+06     130.490E+03    -166.135E-03     330.881E-03    -164.746E-03     96.5340E-03    -167.214E-03     330.935E-03    -164.518E-03     90.3094E-03
             317     5.34450E-03     78.0046E-03    -93.8014E+06    -196.246E+06    -32.4632E+06     353.495E+03    -166.564E-03     331.305E-03    -164.741E-03     109.910E-03    -168.038E-03     331.843E-03    -164.482E-03     102.500E-03
             318     6.10818E-03     78.1461E-03    -85.4531E+06    -169.091E+06    -17.6742E+06     152.410E+03    -166.855E-03     331.584E-03    -164.729E-03     122.218E-03    -168.780E-03     332.656E-03    -164.448E-03     113.600E-03
             319     6.87192E-03     78.3013E-03    -77.1958E+06    -137.501E+06    -3.16115E+06     294.164E+03    -167.018E-03     331.718E-03    -164.701E-03     133.340E-03    -169.451E-03     333.399E-03    -164.405E-03     123.539E-03
             320     7.63624E-03     78.4682E-03    -68.6107E+06    -100.749E+06     12.4435E+06     415.125E+03    -167.151E-03     331.816E-03    -164.665E-03     142.780E-03    -170.124E-03     334.151E-03    -164.357E-03     131.869E-03
             321     8.39978E-03     78.6456E-03    -60.5116E+06    -64.5625E+06     26.8782E+06     211.084E+03    -167.220E-03     331.849E-03    -164.629E-03     149.972E-03    -170.713E-03     334.820E-03    -164.313E-03     138.083E-03
             322     9.16384E-03     78.8291E-03    -53.0199E+06    -23.0852E+06     41.1466E+06     503.265E+03    -167.139E-03     331.732E-03    -164.593E-03     154.251E-03    -171.088E-03     335.291E-03    -164.277E-03     141.602E-03
             323     9.92767E-03     79.0162E-03    -45.2853E+06     20.2308E+06     54.2381E+06     612.107E+03    -166.740E-03     331.291E-03    -164.551E-03     154.752E-03    -170.996E-03     335.301E-03    -164.243E-03     141.641E-03
             324     10.6920E-03     79.1997E-03    -37.5022E+06     53.2232E+06     63.9085E+06     214.015E+03    -166.182E-03     330.688E-03    -164.506E-03     150.875E-03    -170.532E-03     334.908E-03    -164.209E-03     137.592E-03
             325     11.4560E-03     79.3758E-03    -30.0901E+06     69.0005E+06     72.0015E+06     11.3190E+03    -165.556E-03     330.037E-03    -164.481E-03     142.742E-03    -169.767E-03     334.177E-03    -164.178E-03     129.576E-03
             326     12.2200E-03     79.5387E-03    -23.2746E+06     75.0919E+06     83.2320E+06     93.7030E+03    -164.835E-03     329.324E-03    -164.489E-03     131.606E-03    -168.747E-03     333.179E-03    -164.148E-03     118.770E-03
             327     12.9847E-03     79.6859E-03    -17.2661E+06     79.2620E+06     93.3736E+06     291.508E+03    -164.110E-03     328.607E-03    -164.498E-03     115.051E-03    -167.506E-03     331.953E-03    -164.121E-03     102.884E-03
             328     13.7483E-03     79.8070E-03    -10.7767E+06     86.5056E+06     98.6902E+06     912.339E+03    -163.204E-03     327.675E-03    -164.471E-03     101.297E-03    -166.221E-03     330.674E-03    -164.087E-03     89.5674E-03
             329     14.5164E-03     79.9181E-03    -5.21986E+06     90.2720E+06     97.8138E+06     489.601E+03    -163.274E-03     327.700E-03    -164.426E-03     66.6519E-03    -165.289E-03     329.733E-03    -164.060E-03     57.2154E-03
             330     763.228E-06     78.8367E-03    -137.170E+06    -318.510E+06    -134.683E+06     639.135E+03    -164.700E-03     329.262E-03    -164.563E-03     18.9226E-03    -164.763E-03     328.099E-03    -164.575E-03     17.8758E-03
             331     1.52678E-03     78.8692E-03    -133.251E+06    -309.375E+06    -122.779E+06     198.521E+03    -164.822E-03     329.444E-03    -164.622E-03     34.8819E-03    -164.970E-03     328.377E-03    -164.594E-03     32.9343E-03
             332     2.29032E-03     78.9220E-03    -126.947E+06    -293.348E+06    -105.741E+06     112.147E+03    -165.142E-03     329.807E-03    -164.665E-03     51.3112E-03    -165.434E-03     328.914E-03    -164.585E-03     48.3721E-03
             333     3.05388E-03     78.9946E-03    -119.505E+06    -271.149E+06    -87.2836E+06     152.210E+03    -165.385E-03     330.083E-03    -164.698E-03     67.0560E-03    -165.881E-03     329.445E-03    -164.568E-03     63.0785E-03
             334     3.81716E-03     79.0859E-03    -111.127E+06    -250.133E+06    -68.5027E+06     305.247E+03    -165.731E-03     330.445E-03    -164.715E-03     82.0226E-03    -166.484E-03     330.115E-03    -164.533E-03     76.9521E-03
             335     4.58108E-03     79.1951E-03    -102.631E+06    -226.973E+06    -49.8239E+06     213.964E+03    -166.221E-03     330.953E-03    -164.733E-03     96.4940E-03    -167.300E-03     331.007E-03    -164.504E-03     90.2669E-03
             336     5.34442E-03     79.3213E-03    -93.8576E+06    -196.704E+06    -32.6481E+06     193.749E+03    -166.536E-03     331.270E-03    -164.733E-03     109.978E-03    -168.011E-03     331.807E-03    -164.475E-03     102.565E-03
             337     6.10815E-03     79.4624E-03    -85.1336E+06    -168.476E+06    -17.3173E+06     457.170E+03    -166.754E-03     331.468E-03    -164.714E-03     122.291E-03    -168.680E-03     332.544E-03    -164.433E-03     113.680E-03
             338     6.87231E-03     79.6173E-03    -76.7713E+06    -137.298E+06    -2.75952E+06     232.284E+03    -167.047E-03     331.731E-03    -164.684E-03     133.374E-03    -169.481E-03     333.412E-03    -164.387E-03     123.566E-03
             339     7.63573E-03     79.7848E-03    -68.7539E+06    -101.459E+06     11.8761E+06     247.917E+03    -167.247E-03     331.900E-03    -164.653E-03     142.757E-03    -170.219E-03     334.233E-03    -164.347E-03     131.836E-03
             340     8.40006E-03     79.9616E-03    -60.9835E+06    -64.6360E+06     26.5045E+06     542.519E+03    -167.291E-03     331.918E-03    -164.626E-03     150.054E-03    -170.789E-03     334.892E-03    -164.312E-03     138.164E-03
             341     9.16389E-03     80.1461E-03    -52.8904E+06    -23.0536E+06     41.3897E+06     513.536E+03    -167.115E-03     331.709E-03    -164.594E-03     154.375E-03    -171.065E-03     335.269E-03    -164.277E-03     141.730E-03
             342     9.92797E-03     80.3324E-03    -44.7733E+06     20.8889E+06     54.5906E+06     215.060E+03    -166.739E-03     331.289E-03    -164.549E-03     154.795E-03    -170.996E-03     335.302E-03    -164.242E-03     141.677E-03
             343     10.6920E-03     80.5162E-03    -37.2977E+06     53.8072E+06     64.2561E+06    -39.1226E+03    -166.293E-03     330.801E-03    -164.509E-03     150.943E-03    -170.647E-03     335.028E-03    -164.211E-03     137.641E-03
             344     11.4558E-03     80.6927E-03    -30.6260E+06     68.6940E+06     71.7471E+06     216.513E+03    -165.547E-03     330.035E-03    -164.487E-03     142.473E-03    -169.758E-03     334.172E-03    -164.184E-03     129.308E-03
             345     12.2202E-03     80.8546E-03    -24.5605E+06     74.9735E+06     82.4316E+06     541.511E+03    -164.692E-03     329.182E-03    -164.490E-03     131.527E-03    -168.610E-03     333.040E-03    -164.151E-03     118.698E-03
             346     12.9837E-03     81.0030E-03    -18.0782E+06     79.4644E+06     93.1687E+06     436.662E+03    -164.046E-03     328.540E-03    -164.494E-03     114.925E-03    -167.441E-03     331.883E-03    -164.117E-03     102.773E-03
             347     13.7489E-03     81.1222E-03    -11.5064E+06     85.8422E+06     98.1153E+06     84.4213E+03    -163.493E-03     327.969E-03    -164.476E-03     99.5031E-03    -166.492E-03     330.947E-03    -164.093E-03     87.7345E-03
             348     14.5103E-03     81.2328E-03    -4.95727E+06     90.5486E+06     97.9809E+06     58.5112E+03    -163.290E-03     327.734E-03    -164.444E-03     65.6736E-03    -165.292E-03     329.756E-03    -164.078E-03     56.2246E-03
             349     763.554E-06     80.1527E-03    -137.554E+06    -318.785E+06    -134.747E+06    -37.3383E+03    -164.574E-03     329.170E-03    -164.596E-03     18.9982E-03    -164.639E-03     328.005E-03    -164.608E-03     17.9584E-03
             350     1.52703E-03     80.1854E-03    -133.377E+06    -309.571E+06    -122.897E+06     119.029E+03    -164.860E-03     329.453E-03    -164.593E-03     34.8043E-03    -165.009E-03     328.386E-03    -164.566E-03     32.8521E-03
             351     2.29035E-03     80.2384E-03    -127.434E+06    -293.482E+06    -105.812E+06     221.885E+03    -165.108E-03     329.761E-03    -164.653E-03     51.1123E-03    -165.402E-03     328.867E-03    -164.571E-03     48.1756E-03
             352     3.05361E-03     80.3112E-03    -119.646E+06    -270.867E+06    -87.0642E+06     152.823E+03    -165.378E-03     330.063E-03    -164.685E-03     66.8582E-03    -165.874E-03     329.425E-03    -164.554E-03     62.8850E-03
             353     3.81748E-03     80.4021E-03    -111.288E+06    -250.494E+06    -68.8549E+06     166.838E+03    -165.761E-03     330.467E-03    -164.705E-03     82.1304E-03    -166.516E-03     330.137E-03    -164.525E-03     77.0530E-03
             354     4.58071E-03     80.5118E-03    -102.594E+06    -226.901E+06    -49.9290E+06     307.432E+03    -166.124E-03     330.844E-03    -164.719E-03     96.6252E-03    -167.204E-03     330.898E-03    -164.491E-03     90.4022E-03
             355     5.34463E-03     80.6376E-03    -93.8650E+06    -196.414E+06    -32.4949E+06     219.627E+03    -166.412E-03     331.118E-03    -164.706E-03     110.022E-03    -167.887E-03     331.657E-03    -164.448E-03     102.620E-03
             356     6.10864E-03     80.7786E-03    -85.3117E+06    -168.804E+06    -17.6876E+06     341.050E+03    -166.815E-03     331.499E-03    -164.684E-03     122.378E-03    -168.742E-03     332.575E-03    -164.404E-03     113.761E-03
             357     6.87213E-03     80.9338E-03    -77.0291E+06    -137.271E+06    -2.88896E+06     476.889E+03    -167.160E-03     331.826E-03    -164.667E-03     133.393E-03    -169.595E-03     333.509E-03    -164.370E-03     123.584E-03
             358     7.63636E-03     81.1012E-03    -69.1021E+06    -101.181E+06     12.0220E+06     514.002E+03    -167.346E-03     331.996E-03    -164.650E-03     142.715E-03    -170.321E-03     334.331E-03    -164.343E-03     131.789E-03
             359     8.39982E-03     81.2782E-03    -60.8881E+06    -64.7710E+06     26.5804E+06     448.470E+03    -167.341E-03     331.972E-03    -164.631E-03     149.916E-03    -170.839E-03     334.947E-03    -164.316E-03     138.014E-03
             360     9.16380E-03     81.4625E-03    -52.7375E+06    -22.7207E+06     41.4827E+06     169.836E+03    -167.063E-03     331.662E-03    -164.599E-03     154.156E-03    -171.010E-03     335.221E-03    -164.282E-03     141.508E-03
             361     9.92795E-03     81.6486E-03    -45.2457E+06     21.5263E+06     54.6259E+06     15.3049E+03    -166.765E-03     331.319E-03    -164.554E-03     154.790E-03    -171.025E-03     335.337E-03    -164.247E-03     141.664E-03
             362     10.6917E-03     81.8336E-03    -38.1080E+06     53.6255E+06     63.9185E+06     189.930E+03    -166.261E-03     330.774E-03    -164.513E-03     150.960E-03    -170.618E-03     335.001E-03    -164.216E-03     137.666E-03
             363     11.4558E-03     82.0088E-03    -31.1458E+06     68.3008E+06     71.1665E+06     421.043E+03    -165.553E-03     330.042E-03    -164.489E-03     142.571E-03    -169.769E-03     334.183E-03    -164.187E-03     129.401E-03
             364     12.2197E-03     82.1713E-03    -23.8612E+06     74.9811E+06     82.5063E+06     526.010E+03    -164.811E-03     329.307E-03    -164.496E-03     131.284E-03    -168.727E-03     333.166E-03    -164.158E-03     118.434E-03
             365     12.9850E-03     82.3185E-03    -16.9237E+06     80.0409E+06     93.6887E+06     481.298E+03    -164.218E-03     328.728E-03    -164.510E-03     114.920E-03    -167.610E-03     332.073E-03    -164.133E-03     102.757E-03
             366     13.7473E-03     82.4409E-03    -10.9409E+06     86.7448E+06     98.5897E+06    -237.297E+03    -163.934E-03     328.441E-03    -164.507E-03     100.218E-03    -166.950E-03     331.441E-03    -164.124E-03     88.3896E-03
             367     14.5126E-03     82.5500E-03    -5.11843E+06     90.5656E+06     97.7196E+06    -130.462E+03    -163.051E-03     327.528E-03    -164.477E-03     66.6721E-03    -165.073E-03     329.570E-03    -164.113E-03     57.1824E-03
             368     763.505E-06     81.4692E-03    -137.949E+06    -319.021E+06    -134.795E+06     177.096E+03    -164.663E-03     329.303E-03    -164.640E-03     18.9296E-03    -164.729E-03     328.138E-03    -164.651E-03     17.8857E-03
             369     1.52663E-03     81.5019E-03    -133.858E+06    -309.736E+06    -122.825E+06     214.431E+03    -164.875E-03     329.528E-03    -164.653E-03     34.7149E-03    -165.026E-03     328.460E-03    -164.624E-03     32.7645E-03
             370     2.29009E-03     81.5549E-03    -127.425E+06    -293.203E+06    -105.817E+06     25.2345E+03    -165.003E-03     329.682E-03    -164.679E-03     51.0610E-03    -165.297E-03     328.789E-03    -164.598E-03     48.1258E-03
             371     3.05395E-03     81.6273E-03    -119.655E+06    -270.824E+06    -87.0503E+06     94.3762E+03    -165.268E-03     329.945E-03    -164.677E-03     66.9478E-03    -165.765E-03     329.308E-03    -164.546E-03     62.9750E-03
             372     3.81724E-03     81.7186E-03    -111.312E+06    -250.550E+06    -68.6560E+06     137.966E+03    -165.710E-03     330.392E-03    -164.682E-03     82.3090E-03    -166.466E-03     330.062E-03    -164.500E-03     77.2327E-03
             373     4.58119E-03     81.8280E-03    -102.529E+06    -227.083E+06    -50.0913E+06     171.110E+03    -166.060E-03     330.748E-03    -164.688E-03     96.5963E-03    -167.138E-03     330.801E-03    -164.460E-03     90.3771E-03
             374     5.34498E-03     81.9535E-03    -93.8209E+06    -196.199E+06    -32.5361E+06     537.425E+03    -166.441E-03     331.117E-03    -164.677E-03     109.927E-03    -167.915E-03     331.656E-03    -164.419E-03     102.529E-03
             375     6.10857E-03     82.0951E-03    -85.4145E+06    -168.915E+06    -17.5609E+06     375.059E+03    -166.929E-03     331.598E-03    -164.669E-03     122.279E-03    -168.856E-03     332.673E-03    -164.388E-03     113.657E-03
             376     6.87247E-03     82.2503E-03    -76.9814E+06    -137.566E+06    -2.92208E+06     382.923E+03    -167.248E-03     331.914E-03    -164.665E-03     133.183E-03    -169.681E-03     333.593E-03    -164.369E-03     123.366E-03
             377     7.63581E-03     82.4176E-03    -68.5610E+06    -100.898E+06     12.2881E+06     501.718E+03    -167.372E-03     332.028E-03    -164.656E-03     142.656E-03    -170.347E-03     334.365E-03    -164.349E-03     131.723E-03
             378     8.39974E-03     82.5951E-03    -60.5287E+06    -64.4308E+06     26.8791E+06     316.394E+03    -167.321E-03     331.958E-03    -164.637E-03     149.951E-03    -170.819E-03     334.935E-03    -164.322E-03     138.045E-03
             379     9.16373E-03     82.7784E-03    -52.8556E+06    -22.4985E+06     41.3711E+06     359.858E+03    -167.144E-03     331.750E-03    -164.606E-03     154.290E-03    -171.097E-03     335.315E-03    -164.290E-03     141.633E-03
             380     9.92761E-03     82.9656E-03    -45.2384E+06     21.3852E+06     54.5288E+06     631.446E+03    -166.716E-03     331.277E-03    -164.561E-03     154.977E-03    -170.978E-03     335.296E-03    -164.254E-03     141.863E-03
             381     10.6918E-03     83.1499E-03    -37.9791E+06     53.6304E+06     63.8583E+06     615.102E+03    -166.119E-03     330.630E-03    -164.511E-03     151.123E-03    -170.477E-03     334.858E-03    -164.215E-03     137.848E-03
             382     11.4561E-03     83.3254E-03    -30.8502E+06     68.7261E+06     71.4751E+06     129.328E+03    -165.599E-03     330.083E-03    -164.484E-03     142.765E-03    -169.817E-03     334.228E-03    -164.181E-03     129.589E-03
             383     12.2201E-03     83.4886E-03    -23.9954E+06     74.9837E+06     82.5471E+06    -150.356E+03    -165.021E-03     329.519E-03    -164.498E-03     131.453E-03    -168.941E-03     333.381E-03    -164.160E-03     118.580E-03
             384     12.9826E-03     83.6345E-03    -17.3275E+06     79.7637E+06     93.2537E+06     82.1693E+03    -164.116E-03     328.629E-03    -164.513E-03     115.640E-03    -167.522E-03     331.986E-03    -164.137E-03     103.466E-03
             385     13.7484E-03     83.7584E-03    -10.5415E+06     87.2966E+06     98.7773E+06     321.808E+03    -163.349E-03     327.838E-03    -164.488E-03     101.595E-03    -166.375E-03     330.849E-03    -164.106E-03     89.8367E-03
             386     14.5109E-03     83.8664E-03    -4.86817E+06     91.0897E+06     97.8903E+06     84.6759E+03    -163.226E-03     327.671E-03    -164.445E-03     67.0839E-03    -165.249E-03     329.716E-03    -164.081E-03     57.6210E-03
             387     763.073E-06     82.7856E-03    -137.855E+06    -319.180E+06    -135.245E+06     45.7127E+03    -164.718E-03     329.340E-03    -164.622E-03     19.2604E-03    -164.784E-03     328.176E-03    -164.636E-03     18.1982E-03
             388     1.52677E-03     82.8184E-03    -133.379E+06    -309.418E+06    -122.851E+06     24.0428E+03    -164.767E-03     329.409E-03    -164.642E-03     35.0697E-03    -164.917E-03     328.343E-03    -164.614E-03     33.1140E-03
             389     2.29026E-03     82.8712E-03    -127.062E+06    -293.117E+06    -105.549E+06     192.019E+03    -164.963E-03     329.605E-03    -164.642E-03     51.2266E-03    -165.256E-03     328.712E-03    -164.560E-03     48.2949E-03
             390     3.05375E-03     82.9431E-03    -119.569E+06    -270.859E+06    -86.8616E+06     181.407E+03    -165.314E-03     329.961E-03    -164.647E-03     67.0876E-03    -165.812E-03     329.325E-03    -164.516E-03     63.1121E-03
             391     3.81777E-03     83.0351E-03    -111.361E+06    -250.407E+06    -68.5333E+06     168.731E+03    -165.694E-03     330.356E-03    -164.662E-03     82.1087E-03    -166.449E-03     330.026E-03    -164.480E-03     77.0371E-03
             392     4.58117E-03     83.1440E-03    -102.970E+06    -227.136E+06    -50.0820E+06     344.491E+03    -166.089E-03     330.764E-03    -164.675E-03     96.3002E-03    -167.167E-03     330.816E-03    -164.447E-03     90.0849E-03
             393     5.34483E-03     83.2699E-03    -94.1485E+06    -196.607E+06    -32.7209E+06     246.942E+03    -166.603E-03     331.284E-03    -164.680E-03     109.792E-03    -168.079E-03     331.822E-03    -164.423E-03     102.376E-03
             394     6.10858E-03     83.4115E-03    -85.1532E+06    -168.608E+06    -17.3502E+06     307.775E+03    -166.946E-03     331.632E-03    -164.686E-03     122.051E-03    -168.871E-03     332.706E-03    -164.405E-03     113.427E-03
             395     6.87199E-03     83.5669E-03    -76.7617E+06    -137.377E+06    -2.72576E+06     274.503E+03    -167.141E-03     331.818E-03    -164.677E-03     133.270E-03    -169.575E-03     333.499E-03    -164.380E-03     123.456E-03
             396     7.63600E-03     83.7342E-03    -68.6506E+06    -101.292E+06     11.9772E+06     309.636E+03    -167.269E-03     331.922E-03    -164.653E-03     142.900E-03    -170.244E-03     334.259E-03    -164.347E-03     131.974E-03
             397     8.39997E-03     83.9113E-03    -60.6896E+06    -64.3304E+06     26.6659E+06      489.53E+03    -167.319E-03     331.946E-03    -164.627E-03     150.197E-03    -170.820E-03     334.926E-03    -164.313E-03     138.296E-03
             398     9.16381E-03     84.0953E-03    -52.8089E+06    -22.5682E+06     41.4868E+06     502.667E+03    -167.173E-03     331.770E-03    -164.597E-03     154.533E-03    -171.129E-03     335.339E-03    -164.281E-03     141.874E-03
             399     9.92769E-03     84.2821E-03    -44.8955E+06     21.0076E+06     54.6684E+06     664.799E+03    -166.696E-03     331.249E-03    -164.553E-03     155.084E-03    -170.960E-03     335.270E-03    -164.245E-03     141.969E-03
             400     10.6921E-03     84.4656E-03    -37.0839E+06     54.0891E+06     64.5096E+06     684.954E+03    -166.149E-03     330.653E-03    -164.504E-03     151.275E-03    -170.508E-03     334.885E-03    -164.206E-03     137.996E-03
             401     11.4559E-03     84.6430E-03    -30.0536E+06     69.6255E+06     72.2632E+06     423.581E+03    -165.559E-03     330.035E-03    -164.476E-03     142.949E-03    -169.776E-03     334.183E-03    -164.172E-03     129.786E-03
             402     12.2199E-03     84.8043E-03    -23.5860E+06     75.5010E+06     82.9275E+06     72.3216E+03    -164.904E-03     329.388E-03    -164.484E-03     131.779E-03    -168.828E-03     333.256E-03    -164.145E-03     118.917E-03
             403     12.9852E-03     84.9530E-03    -17.2933E+06     79.9388E+06     93.2239E+06    -101.699E+03    -164.061E-03     328.554E-03    -164.493E-03     115.295E-03    -167.467E-03     331.912E-03    -164.118E-03     103.111E-03
             404     13.7487E-03     85.0717E-03    -10.9744E+06     87.0160E+06     98.3284E+06     65.9733E+03    -163.384E-03     327.854E-03    -164.470E-03     100.578E-03    -166.397E-03     330.851E-03    -164.089E-03     88.8151E-03
             405     14.5153E-03     85.1855E-03    -4.91527E+06     91.2009E+06     97.7255E+06     169.481E+03    -163.432E-03     327.868E-03    -164.436E-03     65.9066E-03    -165.436E-03     329.895E-03    -164.073E-03     56.4673E-03
             406     763.722E-06     84.1017E-03    -137.274E+06    -318.427E+06    -134.941E+06    -508.315E+03    -164.770E-03     329.041E-03    -164.271E-03     19.4650E-03    -164.834E-03     327.879E-03    -164.285E-03     18.4064E-03
             407     1.52700E-03     84.1347E-03    -133.470E+06    -309.511E+06    -123.153E+06    -224.808E+03    -164.787E-03     329.311E-03    -164.524E-03     34.9614E-03    -164.936E-03     328.244E-03    -164.497E-03     33.0085E-03
             408     2.29063E-03     84.1871E-03    -127.151E+06    -293.381E+06    -105.725E+06     43.4896E+03    -165.085E-03     329.675E-03    -164.589E-03     51.0334E-03    -165.377E-03     328.780E-03    -164.508E-03     48.0978E-03
             409     3.05419E-03     84.2597E-03    -119.510E+06    -271.176E+06    -87.0929E+06     326.610E+03    -165.419E-03     330.059E-03    -164.640E-03     66.8401E-03    -165.915E-03     329.420E-03    -164.509E-03     62.8641E-03
             410     3.81715E-03     84.3514E-03    -111.299E+06    -250.382E+06    -68.2889E+06     534.189E+03    -165.701E-03     330.373E-03    -164.672E-03     81.9318E-03    -166.455E-03     330.041E-03    -164.489E-03     76.8652E-03
             411     4.58116E-03     84.4599E-03    -102.461E+06    -226.852E+06    -49.5415E+06     248.677E+03    -166.164E-03     330.854E-03    -164.691E-03     96.4138E-03    -167.242E-03     330.907E-03    -164.461E-03     90.1894E-03
             412     5.34471E-03     84.5868E-03    -93.5206E+06    -196.492E+06    -32.4377E+06     202.473E+03    -166.592E-03     331.288E-03    -164.696E-03     110.037E-03    -168.067E-03     331.827E-03    -164.438E-03     102.622E-03
             413     6.10798E-03     84.7280E-03    -85.0057E+06    -168.857E+06    -17.5175E+06     287.952E+03    -166.881E-03     331.573E-03    -164.692E-03     122.379E-03    -168.808E-03     332.649E-03    -164.411E-03     113.756E-03
             414     6.87232E-03     84.8829E-03    -76.6923E+06    -137.203E+06    -2.70429E+06     383.244E+03    -167.080E-03     331.752E-03    -164.673E-03     133.457E-03    -169.514E-03     333.435E-03    -164.376E-03     123.652E-03
             415     7.63622E-03     85.0508E-03    -68.5604E+06    -101.092E+06     12.2334E+06     360.188E+03    -167.224E-03     331.869E-03    -164.645E-03     142.803E-03    -170.198E-03     334.205E-03    -164.337E-03     131.884E-03
             416     8.40008E-03     85.2275E-03    -60.5046E+06    -64.7011E+06     26.7095E+06     359.365E+03    -167.279E-03     331.894E-03    -164.616E-03     150.152E-03    -170.777E-03     334.871E-03    -164.301E-03     138.254E-03
             417     9.16392E-03     85.4124E-03    -52.5071E+06    -22.7209E+06     41.6152E+06     539.875E+03    -167.085E-03     331.667E-03    -164.582E-03     154.469E-03    -171.037E-03     335.231E-03    -164.265E-03     141.822E-03
             418     9.92830E-03     85.5978E-03    -44.7351E+06     21.1587E+06     54.8358E+06     375.588E+03    -166.761E-03     331.298E-03    -164.538E-03     155.010E-03    -171.024E-03     335.319E-03    -164.229E-03     141.884E-03
             419     10.6918E-03     85.7833E-03    -37.2184E+06     54.2231E+06     64.4866E+06     297.263E+03    -166.234E-03     330.729E-03    -164.495E-03     151.241E-03    -170.594E-03     334.962E-03    -164.197E-03     137.945E-03
             420     11.4564E-03     85.9581E-03    -29.9312E+06     69.8683E+06     72.3314E+06     476.642E+03    -165.529E-03     329.999E-03    -164.470E-03     142.830E-03    -169.747E-03     334.149E-03    -164.166E-03     129.662E-03
             421     12.2206E-03     86.1224E-03    -23.1795E+06     76.0451E+06     83.3000E+06     436.786E+03    -164.867E-03     329.345E-03    -164.479E-03     131.323E-03    -168.788E-03     333.212E-03    -164.139E-03     118.460E-03
             422     12.9836E-03     86.2676E-03    -16.6323E+06     80.7338E+06     93.8804E+06     263.909E+03    -164.316E-03     328.813E-03    -164.497E-03     114.572E-03    -167.713E-03     332.165E-03    -164.121E-03     102.374E-03
             423     13.7479E-03     86.3907E-03    -10.8775E+06     87.1935E+06     98.3897E+06     102.557E+03    -163.845E-03     328.340E-03    -164.495E-03     100.411E-03    -166.866E-03     331.347E-03    -164.113E-03     88.5831E-03
             424     14.5089E-03     86.4999E-03    -5.29944E+06     90.9154E+06     97.4514E+06     169.835E+03    -163.205E-03     327.672E-03    -164.466E-03     66.4989E-03    -165.226E-03     329.714E-03    -164.103E-03     57.0316E-03
             425     763.588E-06     85.4184E-03    -137.049E+06    -317.771E+06    -134.070E+06     71.9315E+03    -164.795E-03     329.071E-03    -164.276E-03     19.0580E-03    -164.860E-03     327.910E-03    -164.287E-03     18.0180E-03
             426     1.52705E-03     85.4504E-03    -133.427E+06    -309.521E+06    -122.449E+06      20.471E+03    -164.842E-03     329.395E-03    -164.553E-03     34.6020E-03    -164.991E-03     328.326E-03    -164.523E-03     32.6518E-03
             427     2.29032E-03     85.5037E-03    -127.488E+06    -293.829E+06    -105.884E+06     173.212E+03    -165.119E-03     329.744E-03    -164.625E-03     50.9368E-03    -165.412E-03     328.848E-03    -164.543E-03     48.0015E-03
             428     3.05337E-03     85.5763E-03    -119.872E+06    -271.306E+06    -87.0982E+06     185.031E+03    -165.310E-03     329.970E-03    -164.660E-03     66.8009E-03    -165.807E-03     329.331E-03    -164.528E-03     62.8292E-03
             429     3.81775E-03     85.6672E-03    -111.033E+06    -250.531E+06    -68.4782E+06     132.739E+03    -165.688E-03     330.360E-03    -164.672E-03     82.1504E-03    -166.441E-03     330.029E-03    -164.490E-03     77.0762E-03
             430     4.58099E-03     85.7769E-03    -102.201E+06    -226.601E+06    -49.5752E+06     323.886E+03    -166.173E-03     330.861E-03    -164.688E-03     96.7332E-03    -167.253E-03     330.917E-03    -164.459E-03     90.5086E-03
             431     5.34460E-03     85.9029E-03    -93.6786E+06    -196.449E+06    -32.4118E+06     262.855E+03    -166.508E-03     331.196E-03    -164.688E-03     110.128E-03    -167.983E-03     331.735E-03    -164.429E-03     102.722E-03
             432     6.10913E-03     86.0442E-03    -85.1004E+06    -168.837E+06    -17.5409E+06     301.303E+03    -166.852E-03     331.529E-03    -164.677E-03     122.329E-03    -168.779E-03     332.605E-03    -164.396E-03     113.710E-03
             433     6.87217E-03     86.1999E-03    -76.7831E+06    -137.245E+06    -2.73006E+06     357.813E+03    -167.126E-03     331.787E-03    -164.661E-03     133.301E-03    -169.560E-03     333.469E-03    -164.364E-03     123.490E-03
             434     7.63602E-03     86.3664E-03    -68.5966E+06    -101.148E+06     12.2589E+06     307.938E+03    -167.260E-03     331.899E-03    -164.639E-03     142.930E-03    -170.237E-03     334.238E-03    -164.331E-03     132.002E-03
             435     8.39989E-03     86.5447E-03    -60.5483E+06    -64.5866E+06     26.8432E+06     305.378E+03    -167.247E-03     331.858E-03    -164.611E-03     150.151E-03    -170.746E-03     334.835E-03    -164.295E-03     138.254E-03
             436     9.16428E-03     86.7275E-03    -52.6114E+06    -22.6841E+06     41.6324E+06     309.324E+03    -167.101E-03     331.677E-03    -164.576E-03     154.373E-03    -171.052E-03     335.241E-03    -164.259E-03     141.721E-03
             437     9.92779E-03     86.9157E-03    -44.7463E+06     21.4504E+06     54.8469E+06     334.329E+03    -166.793E-03     331.327E-03    -164.535E-03     154.890E-03    -171.056E-03     335.349E-03    -164.227E-03     141.759E-03
             438     10.6924E-03     87.0985E-03    -37.2490E+06     54.4296E+06     64.4894E+06     247.833E+03    -166.275E-03     330.771E-03    -164.496E-03     151.019E-03    -170.635E-03     335.005E-03    -164.199E-03     137.714E-03
             439     11.4558E-03     87.2762E-03    -30.5263E+06     69.4129E+06     71.9256E+06     341.987E+03    -165.603E-03     330.079E-03    -164.476E-03     142.646E-03    -169.823E-03     334.228E-03    -164.173E-03     129.465E-03
             440     12.2197E-03     87.4372E-03    -24.0562E+06     76.0879E+06     83.0065E+06      686.04E+03    -164.913E-03     329.402E-03    -164.489E-03     131.441E-03    -168.839E-03     333.272E-03    -164.149E-03     118.580E-03
             441     12.9845E-03     87.5866E-03    -17.6798E+06     81.2584E+06     93.9276E+06     504.816E+03    -164.359E-03     328.868E-03    -164.509E-03     115.319E-03    -167.769E-03     332.231E-03    -164.132E-03     103.127E-03
             442     13.7477E-03     87.7062E-03    -11.1066E+06     87.8369E+06     98.9365E+06     77.5050E+03    -163.714E-03     328.217E-03    -164.503E-03     101.119E-03    -166.744E-03     331.232E-03    -164.119E-03     89.3095E-03
             443     14.5145E-03     87.8191E-03    -5.15127E+06     91.3750E+06     97.9176E+06     84.2807E+03    -163.065E-03     327.530E-03    -164.465E-03     66.8690E-03    -165.090E-03     329.577E-03    -164.101E-03     57.4101E-03
             444     763.092E-06     86.7335E-03    -137.568E+06    -318.654E+06    -134.932E+06     215.704E+03    -164.826E-03     329.427E-03    -164.601E-03     18.9246E-03    -164.891E-03     328.263E-03    -164.614E-03     17.8793E-03
             445     1.52668E-03     86.7674E-03    -133.637E+06    -309.819E+06    -122.738E+06     530.744E+03    -164.726E-03     329.397E-03    -164.671E-03     34.8542E-03    -164.876E-03     328.329E-03    -164.642E-03     32.9111E-03
             446     2.29007E-03     86.8199E-03    -127.410E+06    -293.420E+06    -105.469E+06     252.851E+03    -164.923E-03     329.571E-03    -164.648E-03     51.1763E-03    -165.217E-03     328.677E-03    -164.565E-03     48.2408E-03
             447     3.05431E-03     86.8924E-03    -119.332E+06    -270.840E+06    -86.8063E+06     6.93033E+03    -165.263E-03     329.903E-03    -164.640E-03     66.9852E-03    -165.758E-03     329.265E-03    -164.508E-03     63.0128E-03
             448     3.81732E-03     86.9833E-03    -111.170E+06     -250.79E+06    -68.7445E+06     49.5727E+03    -165.776E-03     330.432E-03    -164.657E-03     82.2247E-03    -166.529E-03     330.101E-03    -164.476E-03     77.1486E-03
             449     4.58124E-03     87.0934E-03    -102.752E+06    -227.023E+06    -50.1334E+06     305.720E+03    -166.192E-03     330.876E-03    -164.684E-03     96.5229E-03    -167.271E-03     330.930E-03    -164.457E-03     90.2989E-03
             450     5.34514E-03     87.2189E-03    -93.8261E+06    -196.274E+06    -32.3917E+06     332.302E+03    -166.519E-03     331.210E-03    -164.691E-03     109.768E-03    -167.993E-03     331.748E-03    -164.432E-03     102.360E-03
             451     6.10789E-03     87.3610E-03    -85.2624E+06    -168.759E+06    -17.4245E+06     185.048E+03    -166.760E-03     331.438E-03    -164.678E-03     122.186E-03    -168.686E-03     332.512E-03    -164.397E-03     113.571E-03
             452     6.87249E-03     87.5155E-03    -76.9392E+06    -137.201E+06    -2.73941E+06     322.339E+03    -167.046E-03     331.698E-03    -164.652E-03     133.458E-03    -169.482E-03     333.382E-03    -164.355E-03     123.650E-03
             453     7.63629E-03     87.6837E-03    -68.8349E+06    -100.935E+06     12.2582E+06     315.058E+03    -167.299E-03     331.926E-03    -164.627E-03     142.978E-03    -170.277E-03     334.266E-03    -164.320E-03     132.049E-03
             454     8.40034E-03     87.8602E-03    -60.7288E+06    -64.3641E+06     26.8448E+06     221.033E+03    -167.346E-03     331.952E-03    -164.607E-03     150.123E-03    -170.849E-03     334.933E-03    -164.291E-03     138.212E-03
             455     9.16372E-03     88.0451E-03    -52.8176E+06    -22.6509E+06     41.4480E+06     189.915E+03    -167.189E-03     331.770E-03    -164.580E-03     154.385E-03    -171.146E-03     335.338E-03    -164.264E-03     141.716E-03
             456     9.92824E-03     88.2311E-03    -45.1263E+06     21.5485E+06     54.6920E+06     217.133E+03    -166.810E-03     331.353E-03    -164.543E-03     154.911E-03    -171.075E-03     335.376E-03    -164.236E-03     141.778E-03
             457     10.6915E-03     88.4164E-03    -37.8501E+06     54.2080E+06     64.1200E+06     460.605E+03    -166.228E-03     330.730E-03    -164.502E-03     151.096E-03    -170.591E-03     334.966E-03    -164.206E-03     137.799E-03
             458     11.4561E-03     88.5916E-03    -30.9637E+06     69.0850E+06     71.6491E+06     747.713E+03    -165.535E-03     330.012E-03    -164.478E-03     142.956E-03    -169.758E-03     334.163E-03    -164.175E-03     129.792E-03
             459     12.2202E-03     88.7553E-03    -24.0777E+06     76.1881E+06     83.0122E+06     647.071E+03    -164.955E-03     329.443E-03    -164.488E-03     131.874E-03    -168.885E-03     333.317E-03    -164.148E-03     119.013E-03
             460     12.9838E-03     88.9015E-03    -17.1190E+06     81.9901E+06     94.2399E+06     501.236E+03    -164.215E-03     328.718E-03    -164.504E-03     115.430E-03    -167.625E-03     332.085E-03    -164.127E-03     103.245E-03
             461     13.7483E-03     89.0251E-03    -10.7785E+06     88.3983E+06     99.3182E+06     268.466E+03    -163.505E-03     327.994E-03    -164.489E-03     100.859E-03    -166.526E-03     331.002E-03    -164.104E-03     89.0839E-03
             462     14.5100E-03     89.1324E-03    -5.26468E+06     91.4648E+06     97.9401E+06    -88.7865E+03    -163.160E-03     327.608E-03    -164.448E-03     66.5174E-03    -165.179E-03     329.649E-03    -164.084E-03     57.0534E-03
             463     763.279E-06     88.0508E-03    -138.067E+06    -319.264E+06    -135.011E+06     515.119E+03    -164.840E-03     329.405E-03    -164.565E-03     19.0583E-03    -164.907E-03     328.240E-03    -164.577E-03     18.0053E-03
             464     1.52667E-03     88.0831E-03    -133.759E+06    -309.871E+06    -122.907E+06      98.786E+03    -164.717E-03     329.377E-03    -164.660E-03     34.9199E-03    -164.867E-03     328.309E-03    -164.631E-03     32.9638E-03
             465     2.29067E-03     88.1361E-03    -127.048E+06    -293.020E+06    -105.655E+06     2.88716E+03    -164.904E-03     329.539E-03    -164.635E-03     50.9803E-03    -165.196E-03     328.646E-03    -164.554E-03     48.0451E-03
             466     3.05379E-03     88.2082E-03    -119.565E+06    -271.031E+06    -87.0267E+06     153.735E+03    -165.359E-03     330.000E-03    -164.641E-03     66.7535E-03    -165.854E-03     329.361E-03    -164.510E-03     62.7794E-03
             467     3.81773E-03     88.3004E-03    -111.353E+06    -250.564E+06    -68.3850E+06     246.325E+03    -165.816E-03     330.492E-03    -164.677E-03     82.0295E-03    -166.570E-03     330.161E-03    -164.494E-03     76.9541E-03
             468     4.58092E-03     88.4092E-03    -102.609E+06    -227.107E+06    -49.8774E+06     151.259E+03    -166.158E-03     330.861E-03    -164.703E-03     96.4786E-03    -167.237E-03     330.914E-03    -164.474E-03     90.2518E-03
             469     5.34410E-03     88.5360E-03    -93.8170E+06    -196.395E+06    -32.5048E+06     352.240E+03    -166.374E-03     331.067E-03    -164.692E-03     110.029E-03    -167.850E-03     331.606E-03    -164.434E-03     102.626E-03
             470     6.10902E-03     88.6764E-03    -85.2072E+06    -168.508E+06    -17.2461E+06     452.054E+03    -166.738E-03     331.405E-03    -164.666E-03     122.511E-03    -168.668E-03     332.484E-03    -164.384E-03     113.898E-03
             471     6.87244E-03     88.8322E-03    -76.9426E+06    -137.256E+06    -2.72991E+06     283.922E+03    -167.151E-03     331.795E-03    -164.644E-03     133.508E-03    -169.588E-03     333.480E-03    -164.347E-03     123.692E-03
             472     7.63631E-03     88.9996E-03    -68.7552E+06    -100.847E+06     12.2306E+06     402.843E+03    -167.325E-03     331.953E-03    -164.627E-03     142.742E-03    -170.301E-03     334.291E-03    -164.320E-03     131.815E-03
             473     8.39985E-03     89.1772E-03    -61.0132E+06    -64.1398E+06     26.7326E+06     423.769E+03    -167.366E-03     331.976E-03    -164.610E-03     150.103E-03    -170.870E-03     334.958E-03    -164.295E-03     138.196E-03
             474     9.16420E-03     89.3612E-03    -53.3564E+06    -22.4201E+06     41.3114E+06     283.348E+03    -167.219E-03     331.805E-03    -164.585E-03     154.429E-03    -171.178E-03     335.375E-03    -164.269E-03     141.762E-03
             475     9.92749E-03     89.5482E-03    -45.6984E+06     21.2715E+06     54.3901E+06     403.114E+03    -166.739E-03     331.284E-03    -164.546E-03     155.033E-03    -171.007E-03     335.309E-03    -164.239E-03     141.908E-03
             476     10.6923E-03     89.7324E-03    -38.3133E+06     53.8642E+06     63.6751E+06     571.506E+03    -166.113E-03     330.610E-03    -164.496E-03     151.321E-03    -170.477E-03     334.844E-03    -164.201E-03     138.041E-03
             477     11.4560E-03     89.9084E-03    -30.9492E+06     69.2087E+06     71.3719E+06     426.492E+03    -165.534E-03     330.001E-03    -164.466E-03     143.023E-03    -169.758E-03     334.153E-03    -164.165E-03     129.854E-03
             478     12.2203E-03     90.0713E-03    -23.9767E+06     76.4587E+06     82.9340E+06     360.199E+03    -164.942E-03     329.419E-03    -164.477E-03     131.975E-03    -168.875E-03     333.298E-03    -164.138E-03     119.108E-03
             479     12.9842E-03     90.2199E-03    -17.2631E+06     82.2658E+06     94.1675E+06     186.516E+03    -164.171E-03     328.663E-03    -164.492E-03     115.388E-03    -167.581E-03     332.031E-03    -164.116E-03     103.203E-03
             480     13.7484E-03     90.3392E-03    -10.7296E+06     88.7538E+06     99.2235E+06     163.710E+03    -163.488E-03     327.964E-03    -164.476E-03     100.935E-03    -166.510E-03     330.975E-03    -164.093E-03     89.1594E-03
             481     14.5146E-03     90.4527E-03    -4.87939E+06     91.8461E+06     98.2305E+06     112.956E+03    -163.230E-03     327.668E-03    -164.438E-03     66.6802E-03    -165.249E-03     329.712E-03    -164.073E-03     57.2204E-03
             482     763.660E-06     89.3677E-03    -137.544E+06    -319.109E+06    -134.834E+06    -93.8830E+03    -164.706E-03     329.130E-03    -164.425E-03     19.1423E-03    -164.770E-03     327.965E-03    -164.437E-03     18.0850E-03
             483     1.52691E-03     89.3994E-03    -133.140E+06    -309.559E+06    -122.624E+06     75.3998E+03    -164.865E-03     329.444E-03    -164.580E-03     34.7106E-03    -165.012E-03     328.376E-03    -164.551E-03     32.7565E-03
             484     2.29004E-03     89.4521E-03    -127.289E+06    -293.202E+06    -105.619E+06     301.919E+03    -165.095E-03     329.738E-03    -164.643E-03     51.0566E-03    -165.389E-03     328.845E-03    -164.561E-03     48.1212E-03
             485     3.05382E-03     89.5250E-03    -119.620E+06    -270.991E+06    -86.7805E+06     197.346E+03    -165.401E-03     330.081E-03    -164.680E-03     66.9528E-03    -165.899E-03     329.443E-03    -164.547E-03     62.9725E-03
             486     3.81701E-03     89.6162E-03    -111.244E+06    -250.518E+06    -68.5604E+06     146.163E+03    -165.715E-03     330.414E-03    -164.699E-03     82.2257E-03    -166.470E-03     330.084E-03    -164.517E-03     77.1483E-03
             487     4.58091E-03     89.7262E-03    -102.539E+06    -226.909E+06    -49.8244E+06     214.495E+03    -165.959E-03     330.655E-03    -164.696E-03     96.6154E-03    -167.038E-03     330.709E-03    -164.468E-03     90.3992E-03
             488     5.34551E-03     89.8513E-03    -93.7664E+06    -196.510E+06    -32.4060E+06     318.035E+03    -166.364E-03     331.035E-03    -164.671E-03     109.998E-03    -167.839E-03     331.573E-03    -164.412E-03     102.596E-03
             489     6.10859E-03     89.9930E-03    -85.1829E+06    -168.653E+06    -17.3264E+06     471.425E+03    -166.917E-03     331.575E-03    -164.657E-03     122.300E-03    -168.845E-03     332.651E-03    -164.376E-03     113.678E-03
             490     6.87237E-03     90.1488E-03    -76.8567E+06    -137.017E+06    -2.62571E+06     473.895E+03    -167.211E-03     331.862E-03    -164.652E-03     133.348E-03    -169.646E-03     333.546E-03    -164.355E-03     123.534E-03
             491     7.63597E-03     90.3161E-03    -68.8518E+06    -101.111E+06     12.1401E+06     496.531E+03    -167.313E-03     331.950E-03    -164.637E-03     142.846E-03    -170.290E-03     334.288E-03    -164.330E-03     131.919E-03
             492     8.40026E-03     90.4936E-03    -60.8316E+06    -64.1039E+06     26.7969E+06     706.904E+03    -167.333E-03     331.948E-03    -164.615E-03     150.220E-03    -170.836E-03     334.930E-03    -164.300E-03     138.321E-03
             493     9.16363E-03     90.6780E-03    -53.0699E+06    -22.0611E+06     41.6329E+06     807.953E+03    -167.093E-03     331.677E-03    -164.584E-03     154.558E-03    -171.051E-03     335.247E-03    -164.267E-03     141.913E-03
             494     9.92824E-03     90.8646E-03    -45.4154E+06     21.2680E+06     54.5369E+06     625.157E+03    -166.677E-03     331.213E-03    -164.536E-03     155.130E-03    -170.945E-03     335.237E-03    -164.228E-03     142.015E-03
             495     10.6920E-03     91.0484E-03    -37.6858E+06     54.1564E+06     64.0696E+06     486.244E+03    -166.173E-03     330.660E-03    -164.487E-03     151.267E-03    -170.534E-03     334.893E-03    -164.190E-03     137.981E-03
             496     11.4564E-03     91.2254E-03    -30.7683E+06     69.5138E+06     71.7017E+06     232.104E+03    -165.579E-03     330.040E-03    -164.461E-03     143.067E-03    -169.804E-03     334.195E-03    -164.159E-03     129.888E-03
             497     12.2200E-03     91.3880E-03    -24.0407E+06     76.5321E+06     82.9471E+06     172.409E+03    -164.891E-03     329.362E-03    -164.471E-03     131.929E-03    -168.824E-03     333.241E-03    -164.133E-03     119.061E-03
             498     12.9847E-03     91.5357E-03    -16.9649E+06     82.7078E+06     94.2989E+06     88.9864E+03    -164.131E-03     328.615E-03    -164.484E-03     115.171E-03    -167.538E-03     331.983E-03    -164.108E-03     102.986E-03
             499     13.7482E-03     91.6572E-03    -10.7831E+06     89.0841E+06     99.2002E+06    -165.820E+03    -163.526E-03     327.994E-03    -164.469E-03     100.717E-03    -166.551E-03     331.010E-03    -164.086E-03     88.9161E-03
             500     14.5108E-03     91.7665E-03    -5.19265E+06     91.9540E+06     98.0292E+06     224.454E+03    -163.307E-03     327.742E-03    -164.435E-03     66.6749E-03    -165.329E-03     329.788E-03    -164.071E-03     57.2138E-03
             501     763.386E-06     90.6831E-03    -137.736E+06    -319.157E+06    -134.921E+06    -133.219E+03    -164.648E-03     329.073E-03    -164.425E-03     18.9514E-03    -164.713E-03     327.908E-03    -164.437E-03     17.8966E-03
             502     1.52703E-03     90.7161E-03    -133.648E+06    -309.807E+06    -122.759E+06     191.380E+03    -164.820E-03     329.369E-03    -164.548E-03     34.8590E-03    -164.970E-03     328.300E-03    -164.519E-03     32.9107E-03
             503     2.29046E-03     90.7687E-03    -127.106E+06    -293.041E+06    -105.568E+06     163.855E+03    -165.164E-03     329.787E-03    -164.622E-03     51.1879E-03    -165.458E-03     328.894E-03    -164.541E-03     48.2496E-03
             504     3.05372E-03     90.8412E-03    -119.595E+06    -270.976E+06    -87.1164E+06     267.735E+03    -165.374E-03     330.042E-03    -164.668E-03     67.1177E-03    -165.872E-03     329.406E-03    -164.538E-03     63.1379E-03
             505     3.81758E-03     90.9330E-03    -111.359E+06    -250.435E+06    -68.5940E+06     318.849E+03    -165.600E-03     330.277E-03    -164.677E-03     82.2659E-03    -166.357E-03     329.948E-03    -164.495E-03     77.1954E-03
             506     4.58136E-03     91.0415E-03    -102.604E+06    -226.829E+06    -49.8523E+06     223.925E+03    -166.020E-03     330.692E-03    -164.672E-03     96.5067E-03    -167.099E-03     330.746E-03    -164.444E-03     90.2888E-03
             507     5.34454E-03     91.1677E-03    -93.8028E+06    -196.619E+06    -32.4960E+06     187.632E+03    -166.600E-03     331.271E-03    -164.671E-03     109.923E-03    -168.075E-03     331.809E-03    -164.413E-03     102.506E-03
             508     6.10849E-03     91.3098E-03    -85.1408E+06    -169.029E+06    -17.4312E+06     368.776E+03    -166.957E-03     331.633E-03    -164.677E-03     122.298E-03    -168.884E-03     332.708E-03    -164.395E-03     113.673E-03
             509     6.87219E-03     91.4648E-03    -76.8340E+06    -137.025E+06    -2.62747E+06     677.404E+03    -167.108E-03     331.773E-03    -164.666E-03     133.370E-03    -169.543E-03     333.457E-03    -164.369E-03     123.567E-03
             510     7.63637E-03     91.6327E-03    -68.6932E+06    -100.937E+06     12.4202E+06     625.650E+03    -167.277E-03     331.920E-03    -164.643E-03     142.917E-03    -170.254E-03     334.258E-03    -164.335E-03     131.994E-03
             511     8.39969E-03     91.8100E-03    -60.5837E+06    -64.5502E+06     26.8217E+06     662.996E+03    -167.242E-03     331.856E-03    -164.614E-03     150.253E-03    -170.742E-03     334.834E-03    -164.298E-03     138.363E-03
             512     9.16430E-03     91.9943E-03    -52.3857E+06    -22.2666E+06     41.7701E+06     952.912E+03    -167.000E-03     331.573E-03    -164.574E-03     154.583E-03    -170.952E-03     335.140E-03    -164.257E-03     141.951E-03
             513     9.92812E-03     92.1806E-03    -44.5847E+06     21.9452E+06     55.0815E+06     916.848E+03    -166.733E-03     331.258E-03    -164.525E-03     155.110E-03    -170.998E-03     335.282E-03    -164.217E-03     141.994E-03
             514     10.6923E-03     92.3658E-03    -37.5207E+06     54.5995E+06     64.4573E+06     636.567E+03    -166.245E-03     330.727E-03    -164.482E-03     151.240E-03    -170.609E-03     334.964E-03    -164.184E-03     137.944E-03
             515     11.4560E-03     92.5410E-03    -30.5281E+06     69.8819E+06     72.0384E+06     585.978E+03    -165.559E-03     330.018E-03    -164.459E-03     143.110E-03    -169.785E-03     334.175E-03    -164.155E-03     129.937E-03
             516     12.2207E-03     92.7052E-03    -23.5954E+06     77.1057E+06     83.2825E+06     242.405E+03    -164.917E-03     329.386E-03    -164.468E-03     131.936E-03    -168.849E-03     333.266E-03    -164.129E-03     119.068E-03
             517     12.9839E-03     92.8521E-03    -17.0616E+06     82.7330E+06     94.2245E+06     -55.545E+03    -164.245E-03     328.730E-03    -164.485E-03     115.141E-03    -167.653E-03     332.098E-03    -164.109E-03     102.949E-03
             518     13.7488E-03     92.9734E-03    -10.7071E+06     89.2878E+06     99.1856E+06     230.172E+03    -163.746E-03     328.225E-03    -164.479E-03     100.470E-03    -166.770E-03     331.240E-03    -164.097E-03     88.6590E-03
             519     14.5140E-03     93.0849E-03    -4.86979E+06     92.3835E+06     98.2644E+06     190.900E+03    -163.398E-03     327.853E-03    -164.454E-03     66.3206E-03    -165.417E-03     329.897E-03    -164.090E-03     56.8477E-03
             520     763.397E-06     91.9987E-03    -137.829E+06    -319.458E+06    -134.795E+06     226.182E+03    -164.799E-03     329.247E-03    -164.448E-03     18.9151E-03    -164.864E-03     328.080E-03    -164.459E-03     17.8687E-03
             521     1.52696E-03     92.0323E-03    -133.514E+06    -309.500E+06    -122.436E+06     145.647E+03    -164.811E-03     329.428E-03    -164.618E-03     34.6795E-03    -164.961E-03     328.361E-03    -164.588E-03     32.7233E-03
             522     2.29037E-03     92.0851E-03    -127.301E+06    -293.207E+06    -105.612E+06     76.1616E+03    -164.973E-03     329.612E-03    -164.639E-03     50.8803E-03    -165.266E-03     328.719E-03    -164.558E-03     47.9440E-03
             523     3.05391E-03     92.1577E-03    -119.604E+06    -271.108E+06    -87.0182E+06     188.311E+03    -165.229E-03     329.868E-03    -164.639E-03     66.9485E-03    -165.725E-03     329.230E-03    -164.508E-03     62.9756E-03
             524     3.81749E-03     92.2485E-03    -110.981E+06    -250.263E+06    -68.2286E+06     173.247E+03    -165.654E-03     330.297E-03    -164.644E-03     82.1504E-03    -166.407E-03     329.967E-03    -164.461E-03     77.0801E-03
             525     4.58120E-03     92.3580E-03    -102.354E+06    -226.984E+06    -49.8045E+06     319.934E+03    -166.240E-03     330.905E-03    -164.665E-03     96.5906E-03    -167.318E-03     330.959E-03    -164.437E-03     90.3661E-03
             526     5.34498E-03     92.4845E-03    -93.7748E+06    -196.509E+06    -32.4492E+06     488.811E+03    -166.645E-03     331.329E-03    -164.684E-03     110.111E-03    -168.122E-03     331.870E-03    -164.426E-03     102.696E-03
             527     6.10838E-03     92.6259E-03    -85.3950E+06    -169.114E+06    -17.4617E+06     419.450E+03    -166.881E-03     331.567E-03    -164.686E-03     122.380E-03    -168.810E-03     332.643E-03    -164.404E-03     113.757E-03
             528     6.87229E-03     92.7813E-03    -76.9146E+06    -137.540E+06    -2.85503E+06     518.692E+03    -167.119E-03     331.787E-03    -164.668E-03     133.473E-03    -169.554E-03     333.470E-03    -164.372E-03     123.663E-03
             529     7.63582E-03     92.9488E-03    -68.5902E+06    -100.985E+06     12.3350E+06     663.311E+03    -167.204E-03     331.845E-03    -164.641E-03     143.006E-03    -170.180E-03     334.184E-03    -164.334E-03     132.091E-03
             530     8.40035E-03     93.1266E-03    -60.5833E+06    -64.4949E+06     26.9485E+06     620.995E+03    -167.188E-03     331.796E-03    -164.608E-03     150.247E-03    -170.688E-03     334.773E-03    -164.291E-03     138.360E-03
             531     9.16404E-03     93.3100E-03    -52.7508E+06    -22.5150E+06     41.6297E+06     628.272E+03    -167.100E-03     331.670E-03    -164.570E-03     154.494E-03    -171.055E-03     335.236E-03    -164.252E-03     141.844E-03
             532     9.92816E-03     93.4979E-03    -45.0138E+06     21.8432E+06     54.9914E+06     851.537E+03    -166.719E-03     331.244E-03    -164.526E-03     155.057E-03    -170.985E-03     335.269E-03    -164.217E-03     141.941E-03
             533     10.6922E-03     93.6815E-03    -37.4156E+06     54.9461E+06     64.5220E+06     908.941E+03    -166.200E-03     330.680E-03    -164.480E-03     151.236E-03    -170.564E-03     334.919E-03    -164.183E-03     137.947E-03
             534     11.4565E-03     93.8586E-03    -29.9555E+06     70.5846E+06     72.2409E+06     549.990E+03    -165.674E-03     330.133E-03    -164.459E-03     143.026E-03    -169.900E-03     334.293E-03    -164.156E-03     129.839E-03
             535     12.2200E-03     94.0209E-03    -23.2680E+06     77.5192E+06     83.7335E+06     447.385E+03    -164.988E-03     329.465E-03    -164.477E-03     131.651E-03    -168.917E-03     333.344E-03    -164.137E-03     118.778E-03
             536     12.9850E-03     94.1696E-03    -17.5394E+06     83.2640E+06     94.6978E+06     407.347E+03    -164.361E-03     328.862E-03    -164.501E-03     115.002E-03    -167.774E-03     332.234E-03    -164.123E-03     102.797E-03
             537     13.7474E-03     94.2903E-03    -11.5238E+06     89.9917E+06     99.4818E+06    -142.862E+03    -163.960E-03     328.463E-03    -164.503E-03     100.602E-03    -166.996E-03     331.489E-03    -164.119E-03     88.7593E-03
             538     14.5098E-03     94.4016E-03    -5.52798E+06     92.3575E+06     97.9097E+06     2.49504E+03    -163.136E-03     327.611E-03    -164.475E-03     66.1788E-03    -165.162E-03     329.661E-03    -164.111E-03     56.6903E-03
             539     763.549E-06     93.3164E-03    -137.007E+06    -319.330E+06    -134.815E+06    -281.366E+03    -164.781E-03     329.370E-03    -164.589E-03     19.1800E-03    -164.842E-03     328.202E-03    -164.601E-03     18.1341E-03
             540     1.52629E-03     93.3484E-03    -133.286E+06    -309.793E+06    -122.884E+06     162.188E+03    -164.759E-03     329.411E-03    -164.652E-03     34.8504E-03    -164.908E-03     328.343E-03    -164.624E-03     32.8937E-03
             541     2.29006E-03     93.4013E-03    -127.263E+06    -293.002E+06    -105.361E+06     314.507E+03    -164.833E-03     329.462E-03    -164.629E-03     51.2673E-03    -165.128E-03     328.571E-03    -164.547E-03     48.3297E-03
             542     3.05404E-03     93.4733E-03    -119.329E+06    -270.937E+06    -86.4928E+06     73.1605E+03    -165.264E-03     329.878E-03    -164.615E-03     67.0213E-03    -165.760E-03     329.240E-03    -164.481E-03     63.0483E-03
             543     3.81787E-03     93.5650E-03    -110.998E+06    -250.525E+06    -68.2947E+06     204.212E+03    -165.843E-03     330.487E-03    -164.644E-03     82.0793E-03    -166.596E-03     330.154E-03    -164.461E-03     77.0066E-03
             544     4.58115E-03     93.6745E-03    -102.641E+06    -227.191E+06    -49.8501E+06     378.209E+03    -166.252E-03     330.937E-03    -164.685E-03     96.4760E-03    -167.331E-03     330.990E-03    -164.456E-03     90.2518E-03
             545     5.34455E-03     93.8009E-03    -93.8395E+06    -196.665E+06    -32.5459E+06     548.453E+03    -166.498E-03     331.191E-03    -164.693E-03     109.966E-03    -167.973E-03     331.729E-03    -164.434E-03     102.560E-03
             546     6.10857E-03     93.9423E-03    -85.0180E+06    -168.741E+06    -17.1554E+06     621.675E+03    -166.824E-03     331.505E-03    -164.681E-03     122.411E-03    -168.752E-03     332.582E-03    -164.399E-03     113.795E-03
             547     6.87223E-03     94.0976E-03    -76.7620E+06    -137.670E+06    -2.68894E+06     431.267E+03    -167.114E-03     331.774E-03    -164.660E-03     133.592E-03    -169.551E-03     333.458E-03    -164.363E-03     123.780E-03
             548     7.63636E-03     94.2654E-03    -68.5807E+06    -101.296E+06     12.1702E+06     544.817E+03    -167.227E-03     331.860E-03    -164.634E-03     142.934E-03    -170.202E-03     334.197E-03    -164.326E-03     132.013E-03
             549     8.40007E-03     94.4421E-03    -60.6798E+06    -64.2628E+06     26.9852E+06     746.723E+03    -167.276E-03     331.882E-03    -164.606E-03     150.211E-03    -170.778E-03     334.863E-03    -164.290E-03     138.314E-03
             550     9.16406E-03     94.6276E-03    -52.9804E+06    -22.5450E+06     41.5399E+06     753.808E+03    -167.140E-03     331.714E-03    -164.574E-03     154.520E-03    -171.097E-03     335.282E-03    -164.257E-03     141.867E-03
             551     9.92798E-03     94.8132E-03    -45.1507E+06     21.2870E+06     54.6383E+06     855.913E+03    -166.750E-03     331.282E-03    -164.532E-03     155.004E-03    -171.015E-03     335.304E-03    -164.224E-03     141.884E-03
             552     10.6923E-03     94.9988E-03    -37.5928E+06     55.8090E+06     64.6305E+06     597.177E+03    -166.309E-03     330.800E-03    -164.492E-03     151.151E-03    -170.675E-03     335.044E-03    -164.195E-03     137.846E-03
             553     11.4559E-03     95.1744E-03    -30.6698E+06     71.2827E+06     72.3097E+06     213.255E+03    -165.735E-03     330.212E-03    -164.477E-03     142.744E-03    -169.963E-03     334.375E-03    -164.175E-03     129.544E-03
             554     12.2202E-03     95.3389E-03    -24.0943E+06     76.7917E+06     83.2868E+06     526.166E+03    -164.959E-03     329.455E-03    -164.496E-03     131.510E-03    -168.887E-03     333.329E-03    -164.156E-03     118.643E-03
             555     12.9831E-03     95.4850E-03    -17.4033E+06     83.4873E+06     94.8243E+06     981.121E+03    -164.116E-03     328.627E-03    -164.511E-03     115.613E-03    -167.532E-03     332.003E-03    -164.133E-03     103.444E-03
             556     13.7483E-03     95.6089E-03    -10.9789E+06     90.7011E+06     100.108E+06     958.173E+03    -163.442E-03     327.931E-03    -164.489E-03     102.014E-03    -166.481E-03     330.962E-03    -164.104E-03     90.2636E-03
             557     14.5131E-03     95.7186E-03    -5.45477E+06     92.9422E+06     98.4910E+06    -117.600E+03    -163.192E-03     327.638E-03    -164.445E-03     67.2265E-03    -165.222E-03     329.692E-03    -164.080E-03     57.7700E-03
             558     763.031E-06     94.6324E-03    -137.449E+06    -319.386E+06    -134.283E+06    -24.9743E+03    -164.421E-03     329.076E-03    -164.656E-03     19.3582E-03    -164.485E-03     327.909E-03    -164.665E-03     18.3057E-03
             559     1.52735E-03     94.6649E-03    -133.543E+06    -310.069E+06    -123.063E+06     100.898E+03    -164.616E-03     329.120E-03    -164.504E-03     34.9964E-03    -164.765E-03     328.051E-03    -164.476E-03     33.0443E-03
             560     2.29092E-03     94.7169E-03    -126.880E+06    -293.079E+06    -105.760E+06     94.5170E+03    -165.092E-03     329.629E-03    -164.538E-03     51.2573E-03    -165.383E-03     328.737E-03    -164.458E-03     48.3198E-03
             561     3.05416E-03     94.7899E-03    -119.453E+06    -271.117E+06    -86.7466E+06     405.029E+03    -165.536E-03     330.153E-03    -164.616E-03     66.8898E-03    -166.032E-03     329.514E-03    -164.484E-03     62.9159E-03
             562     3.81716E-03     94.8814E-03    -111.349E+06    -250.583E+06    -68.2798E+06     450.338E+03    -165.848E-03     330.527E-03    -164.679E-03     82.0375E-03    -166.603E-03     330.195E-03    -164.495E-03     76.9635E-03
             563     4.58082E-03     94.9911E-03    -102.570E+06    -226.917E+06    -49.6029E+06     458.978E+03    -166.095E-03     330.798E-03    -164.703E-03     96.5839E-03    -167.175E-03     330.852E-03    -164.473E-03     90.3652E-03
             564     5.34481E-03     95.1169E-03    -93.7825E+06    -196.761E+06    -32.4815E+06     334.260E+03    -166.433E-03     331.123E-03    -164.690E-03     110.162E-03    -167.909E-03     331.662E-03    -164.431E-03     102.756E-03
             565     6.10855E-03     95.2585E-03    -85.1433E+06    -169.030E+06    -17.4472E+06     486.059E+03    -166.836E-03     331.508E-03    -164.672E-03     122.495E-03    -168.765E-03     332.585E-03    -164.391E-03     113.874E-03
             566     6.87246E-03     95.4142E-03    -76.8422E+06    -137.333E+06    -2.55871E+06     643.957E+03    -167.112E-03     331.766E-03    -164.655E-03     133.418E-03    -169.547E-03     333.449E-03    -164.357E-03     123.611E-03
             567     7.63616E-03     95.5814E-03    -68.9822E+06    -101.349E+06     12.1703E+06     710.447E+03    -167.312E-03     331.946E-03    -164.634E-03     142.829E-03    -170.289E-03     334.283E-03    -164.326E-03     131.903E-03
             568     8.40000E-03     95.7593E-03    -60.8899E+06    -64.6318E+06     26.6756E+06     823.872E+03    -167.358E-03     331.972E-03    -164.614E-03     150.166E-03    -170.860E-03     334.951E-03    -164.298E-03     138.263E-03
             569     9.16404E-03     95.9430E-03    -52.8396E+06    -22.6096E+06     41.5280E+06     895.757E+03    -167.157E-03     331.744E-03    -164.586E-03     154.399E-03    -171.112E-03     335.310E-03    -164.269E-03     141.746E-03
             570     9.92808E-03     96.1307E-03    -45.2767E+06     21.2514E+06     54.6259E+06     1.01880E+06    -166.892E-03     331.443E-03    -164.550E-03     154.859E-03    -171.160E-03     335.466E-03    -164.242E-03     141.723E-03
             571     10.6917E-03     96.3145E-03    -38.0644E+06     56.8465E+06     65.0183E+06     834.843E+03    -166.364E-03     330.882E-03    -164.518E-03     151.135E-03    -170.737E-03     335.133E-03    -164.220E-03     137.823E-03
             572     11.4556E-03     96.4926E-03    -31.5206E+06     71.9569E+06     72.3463E+06     489.042E+03    -165.559E-03     330.056E-03    -164.497E-03     143.017E-03    -169.794E-03     334.225E-03    -164.194E-03     129.836E-03
             573     12.2194E-03     96.6539E-03    -24.8860E+06     76.0957E+06     82.5080E+06     340.046E+03    -164.744E-03     329.244E-03    -164.499E-03     131.901E-03    -168.680E-03     333.122E-03    -164.161E-03     119.043E-03
             574     12.9849E-03     96.8031E-03    -17.7772E+06     83.2759E+06     94.3842E+06     358.769E+03    -163.983E-03     328.486E-03    -164.503E-03     115.635E-03    -167.401E-03     331.862E-03    -164.126E-03     103.464E-03
             575     13.7487E-03     96.9230E-03    -10.6358E+06     91.4074E+06     100.525E+06     221.500E+03    -163.294E-03     327.772E-03    -164.477E-03     100.471E-03    -166.315E-03     330.787E-03    -164.092E-03     88.7125E-03
             576     14.5136E-03     97.0353E-03    -4.96138E+06     93.6469E+06     99.0909E+06     107.616E+03    -163.311E-03     327.749E-03    -164.438E-03     65.6679E-03    -165.319E-03     329.784E-03    -164.071E-03     56.2387E-03
             577     763.947E-06     95.9480E-03    -137.638E+06    -319.961E+06    -134.610E+06     546.771E+03    -164.439E-03     328.811E-03    -164.373E-03     18.9148E-03    -164.502E-03     327.641E-03    -164.382E-03     17.8812E-03
             578     1.52722E-03     95.9801E-03    -133.355E+06    -309.720E+06    -122.572E+06     149.443E+03    -164.865E-03     329.317E-03    -164.452E-03     34.6469E-03    -165.013E-03     328.247E-03    -164.423E-03     32.6986E-03
             579     2.29043E-03     96.0338E-03    -127.216E+06    -293.233E+06    -105.733E+06     114.482E+03    -165.255E-03     329.839E-03    -164.584E-03     50.7970E-03    -165.546E-03     328.945E-03    -164.503E-03     47.8630E-03
             580     3.05355E-03     96.1065E-03    -119.606E+06    -271.597E+06    -87.0739E+06     254.626E+03    -165.417E-03     330.080E-03    -164.663E-03     66.8544E-03    -165.913E-03     329.439E-03    -164.531E-03     62.8769E-03
             581     3.81743E-03     96.1980E-03    -111.029E+06    -250.393E+06    -68.1740E+06     455.332E+03    -165.653E-03     330.336E-03    -164.683E-03     82.3174E-03    -166.408E-03     330.006E-03    -164.500E-03     77.2482E-03
             582     4.58123E-03     96.3070E-03    -102.334E+06    -227.066E+06    -49.4372E+06     530.108E+03    -166.056E-03     330.741E-03    -164.684E-03     96.7205E-03    -167.135E-03     330.794E-03    -164.454E-03     90.5049E-03
             583     5.34495E-03     96.4332E-03    -93.7155E+06    -196.646E+06    -32.3032E+06     659.852E+03    -166.524E-03     331.201E-03    -164.677E-03     110.143E-03    -168.001E-03     331.740E-03    -164.417E-03     102.736E-03
             584     6.10857E-03     96.5751E-03    -85.2838E+06    -169.285E+06    -17.4840E+06     548.992E+03    -166.916E-03     331.588E-03    -164.672E-03     122.397E-03    -168.845E-03     332.663E-03    -164.390E-03     113.773E-03
             585     6.87224E-03     96.7302E-03    -76.9352E+06    -137.573E+06    -2.68586E+06     786.708E+03    -167.165E-03     331.827E-03    -164.662E-03     133.348E-03    -169.600E-03     333.508E-03    -164.365E-03     123.539E-03
             586     7.63613E-03     96.8981E-03    -68.6978E+06    -101.184E+06     12.4082E+06     911.968E+03    -167.386E-03     332.034E-03    -164.648E-03     142.868E-03    -170.363E-03     334.372E-03    -164.340E-03     131.938E-03
             587     8.40001E-03     97.0754E-03    -60.7288E+06    -64.8028E+06     26.7851E+06     870.199E+03    -167.449E-03     332.084E-03    -164.635E-03     149.955E-03    -170.950E-03     335.061E-03    -164.319E-03     138.042E-03
             588     9.16363E-03     97.2600E-03    -52.9829E+06    -22.7113E+06     41.4315E+06     1.03763E+06    -167.255E-03     331.869E-03    -164.614E-03     154.205E-03    -171.210E-03     335.436E-03    -164.297E-03     141.539E-03
             589     9.92748E-03     97.4467E-03    -45.3354E+06     21.0055E+06     54.5502E+06     1.21728E+06    -166.846E-03     331.425E-03    -164.579E-03     154.994E-03    -171.114E-03     335.449E-03    -164.271E-03     141.863E-03
             590     10.6914E-03     97.6325E-03    -37.9736E+06     57.1101E+06     64.9890E+06     1.41760E+06    -166.147E-03     330.681E-03    -164.534E-03     151.314E-03    -170.521E-03     334.934E-03    -164.236E-03     138.028E-03
             591     11.4559E-03     97.8073E-03    -30.8717E+06     72.8638E+06     72.9257E+06     1.11866E+06    -165.363E-03     329.861E-03    -164.498E-03     143.168E-03    -169.599E-03     334.035E-03    -164.194E-03     130.009E-03
             592     12.2205E-03     97.9721E-03    -24.0058E+06     77.1560E+06     83.5320E+06     323.521E+03    -164.862E-03     329.361E-03    -164.499E-03     131.776E-03    -168.799E-03     333.245E-03    -164.159E-03     118.901E-03
             593     12.9836E-03     98.1174E-03    -17.2505E+06     84.0409E+06     94.9584E+06    -226.257E+03    -164.283E-03     328.798E-03    -164.515E-03     115.007E-03    -167.700E-03     332.177E-03    -164.137E-03     102.791E-03
             594     13.7477E-03     98.2423E-03    -11.2993E+06      90.858E+06     99.7270E+06    -250.954E+03    -163.649E-03     328.154E-03    -164.506E-03     100.511E-03    -166.683E-03     331.182E-03    -164.123E-03     88.6856E-03
             595     14.5103E-03     98.3499E-03    -5.22128E+06     93.4408E+06     98.6533E+06     214.378E+03    -163.088E-03     327.557E-03    -164.469E-03     66.7627E-03    -165.116E-03     329.613E-03    -164.104E-03     57.2977E-03
             596     763.498E-06     97.2633E-03    -136.976E+06    -319.989E+06    -134.584E+06     183.479E+03    -164.985E-03     329.147E-03    -164.162E-03     18.9453E-03    -165.045E-03     327.975E-03    -164.172E-03     17.9186E-03
             597     1.52676E-03     97.2972E-03    -133.119E+06    -309.933E+06    -122.568E+06     152.913E+03    -164.991E-03     329.600E-03    -164.609E-03     34.8843E-03    -165.138E-03     328.529E-03    -164.579E-03     32.9344E-03
             598     2.28986E-03     97.3504E-03    -127.051E+06    -293.141E+06    -105.632E+06     304.440E+03    -164.999E-03     329.671E-03    -164.673E-03     51.1497E-03    -165.291E-03     328.779E-03    -164.592E-03     48.2134E-03
             599     3.05390E-03     97.4224E-03    -119.464E+06    -271.470E+06    -86.8775E+06     254.084E+03    -165.202E-03     329.866E-03    -164.664E-03     67.1204E-03    -165.698E-03     329.226E-03    -164.532E-03     63.1470E-03
             600     3.81763E-03     97.5140E-03    -111.144E+06    -250.974E+06    -68.5993E+06     381.892E+03    -165.678E-03     330.338E-03    -164.660E-03     82.1935E-03    -166.431E-03     330.004E-03    -164.478E-03     77.1255E-03
             601     4.58126E-03     97.6233E-03    -102.567E+06    -227.271E+06    -49.6027E+06     631.861E+03    -166.186E-03     330.865E-03    -164.680E-03     96.4431E-03    -167.264E-03     330.917E-03    -164.449E-03     90.2240E-03
             602     5.34474E-03     97.7497E-03    -93.7211E+06    -196.918E+06    -32.2382E+06     621.727E+03    -166.586E-03     331.276E-03    -164.690E-03     109.947E-03    -168.061E-03     331.813E-03    -164.430E-03     102.536E-03
             603     6.10851E-03     97.8913E-03    -85.0785E+06    -169.111E+06    -17.1860E+06     855.563E+03    -166.907E-03     331.595E-03    -164.689E-03     122.283E-03    -168.833E-03     332.669E-03    -164.406E-03     113.665E-03
             604     6.87224E-03     98.0470E-03    -76.7717E+06    -137.812E+06    -2.59014E+06     835.381E+03    -167.266E-03     331.948E-03    -164.682E-03     133.324E-03    -169.701E-03     333.629E-03    -164.384E-03     123.505E-03
             605     7.63599E-03     98.2142E-03    -68.6354E+06    -101.584E+06     12.2119E+06     882.042E+03    -167.472E-03     332.147E-03    -164.675E-03     142.742E-03    -170.448E-03     334.483E-03    -164.367E-03     131.803E-03
             606     8.39942E-03     98.3928E-03    -60.7630E+06    -64.7212E+06     26.7734E+06     1.10895E+06    -167.441E-03     332.104E-03    -164.663E-03     149.993E-03    -170.942E-03     335.083E-03    -164.348E-03     138.082E-03
             607     9.16339E-03     98.5759E-03    -52.9536E+06    -22.9169E+06     41.5092E+06     1.27851E+06    -167.239E-03     331.878E-03    -164.639E-03     154.483E-03    -171.198E-03     335.448E-03    -164.322E-03     141.818E-03
             608     9.92722E-03     98.7643E-03    -45.2574E+06     20.7260E+06     54.5330E+06     1.42430E+06    -166.668E-03     331.261E-03    -164.593E-03     155.180E-03    -170.937E-03     335.284E-03    -164.285E-03     142.067E-03
             609     10.6918E-03     98.9474E-03    -37.5727E+06     57.2140E+06     65.2592E+06     1.27812E+06    -166.059E-03     330.596E-03    -164.536E-03     151.404E-03    -170.432E-03     334.849E-03    -164.238E-03     138.125E-03
             610     11.4558E-03     99.1253E-03    -30.1281E+06     73.9304E+06     73.5226E+06     921.844E+03    -165.612E-03     330.118E-03    -164.506E-03     142.795E-03    -169.846E-03     334.294E-03    -164.202E-03     129.607E-03
             611     12.2197E-03     99.2865E-03    -23.1785E+06     78.1788E+06     84.1265E+06     596.214E+03    -164.986E-03     329.506E-03    -164.520E-03     131.508E-03    -168.918E-03     333.389E-03    -164.179E-03     118.628E-03
             612     12.9836E-03     99.4379E-03    -16.9858E+06     84.3816E+06     95.2157E+06     359.869E+03    -164.194E-03     328.730E-03    -164.536E-03     115.297E-03    -167.609E-03     332.108E-03    -164.158E-03     103.109E-03
             613     13.7478E-03     99.5551E-03    -10.8976E+06     91.3672E+06     100.134E+06     293.729E+03    -163.522E-03     328.041E-03    -164.518E-03     101.079E-03    -166.557E-03     331.071E-03    -164.134E-03     89.2871E-03
             614     14.5135E-03     99.6707E-03    -4.94297E+06     93.9168E+06     98.9371E+06     274.675E+03    -162.941E-03     327.413E-03    -164.472E-03     66.6564E-03    -164.967E-03     329.468E-03    -164.106E-03     57.2080E-03
             615     763.335E-06     98.5802E-03    -137.223E+06    -320.287E+06    -134.063E+06     325.893E+03    -165.018E-03     329.513E-03    -164.495E-03     19.1708E-03    -165.080E-03     328.340E-03    -164.502E-03     18.1249E-03
             616     1.52644E-03     98.6140E-03    -133.151E+06    -310.084E+06    -122.563E+06     328.482E+03    -164.669E-03     329.358E-03    -164.689E-03     35.0915E-03    -164.817E-03     328.287E-03    -164.659E-03     33.1398E-03
             617     2.29062E-03     98.6659E-03    -126.874E+06    -293.271E+06    -105.771E+06     266.537E+03    -164.871E-03     329.505E-03    -164.635E-03     51.2348E-03    -165.163E-03     328.613E-03    -164.554E-03     48.2974E-03
             618     3.05407E-03     98.7388E-03    -119.316E+06    -271.503E+06    -86.8184E+06     439.908E+03    -165.363E-03     329.999E-03    -164.636E-03     67.0076E-03    -165.858E-03     329.358E-03    -164.503E-03     63.0359E-03
             619     3.81745E-03     98.8302E-03    -111.270E+06    -251.181E+06    -68.4806E+06     501.341E+03    -165.840E-03     330.512E-03    -164.672E-03     82.0953E-03    -166.594E-03     330.178E-03    -164.489E-03     77.0217E-03
             620     4.58086E-03     98.9399E-03    -102.391E+06    -227.618E+06    -49.7598E+06     537.341E+03    -166.241E-03     330.949E-03    -164.708E-03     96.4903E-03    -167.319E-03     331.000E-03    -164.478E-03     90.2630E-03
             621     5.34462E-03     99.0660E-03    -93.6949E+06    -197.005E+06    -32.2683E+06     791.882E+03    -166.584E-03     331.303E-03    -164.718E-03     109.960E-03    -168.059E-03     331.839E-03    -164.458E-03     102.551E-03
             622     6.10823E-03     99.2078E-03    -85.2713E+06    -169.502E+06    -17.4172E+06     869.994E+03    -166.995E-03     331.713E-03    -164.718E-03     122.260E-03    -168.922E-03     332.786E-03    -164.436E-03     113.635E-03
             623     6.87208E-03     99.3631E-03    -76.9423E+06    -137.986E+06    -2.73209E+06     948.823E+03    -167.316E-03     332.033E-03    -164.717E-03     133.288E-03    -169.751E-03     333.713E-03    -164.419E-03     123.467E-03
             624     7.63528E-03     99.5320E-03    -68.9268E+06    -101.612E+06     12.1824E+06     1.16358E+06    -167.380E-03     332.084E-03    -164.705E-03     142.818E-03    -170.357E-03     334.420E-03    -164.396E-03     131.890E-03
             625     8.39962E-03     99.7080E-03    -61.0302E+06    -64.9833E+06     26.7109E+06     1.29379E+06    -167.331E-03     332.011E-03    -164.680E-03     150.276E-03    -170.836E-03     334.991E-03    -164.364E-03     138.377E-03
             626     9.16335E-03     99.8941E-03    -53.1693E+06    -23.2617E+06     41.4486E+06     1.26591E+06    -167.101E-03     331.744E-03    -164.643E-03     154.650E-03    -171.061E-03     335.312E-03    -164.324E-03     141.999E-03
             627     9.92762E-03     100.079E-03    -45.2053E+06     20.8895E+06     54.7571E+06     1.18310E+06    -166.757E-03     331.350E-03    -164.594E-03     155.076E-03    -171.026E-03     335.374E-03    -164.285E-03     141.950E-03
             628     10.6915E-03     100.265E-03    -37.7149E+06     57.5821E+06     65.3724E+06     1.09895E+06    -166.282E-03     330.830E-03    -164.549E-03     151.164E-03    -170.653E-03     335.083E-03    -164.251E-03     137.865E-03
             629     11.4556E-03     100.441E-03    -30.7893E+06     74.7055E+06     73.5516E+06     806.340E+03    -165.630E-03     330.156E-03    -164.526E-03     143.044E-03    -169.869E-03     334.337E-03    -164.222E-03     129.860E-03
             630     12.2188E-03     100.606E-03    -24.1198E+06     78.6350E+06     83.9044E+06     534.948E+03    -164.818E-03     329.350E-03    -164.532E-03     131.986E-03    -168.760E-03     333.242E-03    -164.192E-03     119.120E-03
             631     12.9839E-03     100.751E-03    -17.3133E+06     84.1486E+06     95.1258E+06     873.882E+03    -163.979E-03     328.515E-03    -164.535E-03     115.678E-03    -167.401E-03     331.897E-03    -164.157E-03     103.510E-03
             632     13.7478E-03     100.876E-03    -11.0543E+06     92.3087E+06     100.784E+06     810.029E+03    -163.425E-03     327.935E-03    -164.510E-03     101.222E-03    -166.462E-03     330.968E-03    -164.124E-03     89.4579E-03
             633     14.5104E-03     100.983E-03    -5.43437E+06     94.5955E+06     99.1934E+06     45.4351E+03    -162.917E-03     327.376E-03    -164.460E-03     66.5865E-03    -164.945E-03     329.434E-03    -164.093E-03     57.1290E-03
             634     762.863E-06     99.8972E-03    -137.518E+06    -320.918E+06    -134.797E+06     114.327E+03    -164.639E-03     329.398E-03    -164.759E-03     19.2737E-03    -164.702E-03     328.224E-03    -164.768E-03     18.2085E-03
             635     1.52713E-03     99.9294E-03    -133.378E+06    -310.384E+06    -122.370E+06     325.363E+03    -164.673E-03     329.321E-03    -164.648E-03     34.7726E-03    -164.820E-03     328.248E-03    -164.616E-03     32.8279E-03
             636     2.29041E-03     99.9822E-03    -127.205E+06    -293.623E+06    -105.397E+06     497.025E+03    -165.045E-03     329.684E-03    -164.639E-03     50.9415E-03    -165.337E-03     328.788E-03    -164.556E-03     48.0085E-03
             637     3.05377E-03     100.055E-03    -119.448E+06    -271.597E+06    -86.8218E+06     483.343E+03    -165.449E-03     330.123E-03    -164.675E-03     66.8174E-03    -165.944E-03     329.482E-03    -164.542E-03     62.8426E-03
             638     3.81733E-03     100.147E-03    -111.019E+06    -251.113E+06    -68.3972E+06     550.171E+03    -165.809E-03     330.520E-03    -164.711E-03     82.0578E-03    -166.561E-03     330.185E-03    -164.528E-03     76.9853E-03
             639     4.58101E-03     100.256E-03    -102.633E+06    -228.035E+06    -49.8574E+06      684.13E+03    -166.221E-03     330.957E-03    -164.736E-03     96.5545E-03    -167.300E-03     331.006E-03    -164.506E-03     90.3301E-03
             640     5.34446E-03     100.382E-03    -93.9417E+06    -197.452E+06    -32.4733E+06     983.794E+03    -166.676E-03     331.422E-03    -164.746E-03     109.953E-03    -168.151E-03     331.957E-03    -164.486E-03     102.541E-03
             641     6.10824E-03     100.524E-03    -85.3602E+06    -169.614E+06    -17.3902E+06     1.05998E+06    -167.047E-03     331.798E-03    -164.752E-03     122.381E-03    -168.975E-03     332.872E-03    -164.469E-03     113.756E-03
             642     6.87124E-03     100.680E-03    -77.0776E+06    -138.210E+06    -2.74120E+06     1.12045E+06    -167.187E-03     331.928E-03    -164.741E-03     133.531E-03    -169.624E-03     333.609E-03    -164.443E-03     123.721E-03
             643     7.63592E-03     100.847E-03    -69.0179E+06    -101.910E+06     12.1990E+06     1.35978E+06    -167.277E-03     331.990E-03    -164.713E-03     143.070E-03    -170.257E-03     334.328E-03    -164.404E-03     132.150E-03
             644     8.39925E-03     101.026E-03    -61.1504E+06    -65.0817E+06     26.8703E+06     1.50892E+06    -167.307E-03     331.988E-03    -164.681E-03     150.335E-03    -170.812E-03     334.967E-03    -164.364E-03     138.443E-03
             645     9.16358E-03     101.209E-03    -53.3179E+06    -22.9615E+06     41.5899E+06     1.38193E+06    -167.170E-03     331.815E-03    -164.645E-03     154.477E-03    -171.128E-03     335.382E-03    -164.326E-03     141.825E-03
             646     9.92747E-03     101.397E-03    -45.8486E+06     21.1334E+06     54.5726E+06     1.14108E+06    -166.898E-03     331.502E-03    -164.604E-03     154.973E-03    -171.169E-03     335.527E-03    -164.295E-03     141.837E-03
             647     10.6911E-03     101.581E-03    -38.4682E+06     57.4685E+06     64.8424E+06     1.17530E+06    -166.247E-03     330.808E-03    -164.561E-03     151.326E-03    -170.623E-03     335.064E-03    -164.265E-03     138.028E-03
             648     11.4550E-03     101.758E-03    -31.5382E+06     75.4844E+06     73.3688E+06     1.09961E+06    -165.333E-03     329.859E-03    -164.526E-03     143.401E-03    -169.578E-03     334.048E-03    -164.223E-03     130.247E-03
             649     12.2206E-03     101.921E-03    -24.8668E+06     79.4727E+06     84.0075E+06     636.166E+03    -164.716E-03     329.236E-03    -164.520E-03     132.131E-03    -168.663E-03     333.133E-03    -164.179E-03     119.279E-03
             650     12.9835E-03     102.069E-03    -17.9196E+06     83.7661E+06     94.9256E+06     352.675E+03    -164.099E-03     328.624E-03    -164.524E-03     115.613E-03    -167.525E-03     332.008E-03    -164.145E-03     103.421E-03
             651     13.7484E-03     102.190E-03    -10.9635E+06     92.5743E+06     101.008E+06     575.469E+03    -163.260E-03     327.758E-03    -164.499E-03     101.019E-03    -166.291E-03     330.786E-03    -164.112E-03     89.2694E-03
             652     14.5141E-03     102.303E-03    -4.86787E+06     95.4373E+06     100.007E+06     204.733E+03    -162.929E-03     327.376E-03    -164.447E-03     66.4235E-03    -164.950E-03     329.429E-03    -164.078E-03     56.9917E-03
             653     763.967E-06     101.213E-03    -137.653E+06    -321.081E+06    -134.680E+06    -131.113E+03    -164.631E-03     329.268E-03    -164.638E-03     18.9090E-03    -164.692E-03     328.092E-03    -164.646E-03     17.8595E-03
             654     1.52658E-03     101.246E-03    -133.511E+06    -311.008E+06    -122.812E+06     241.405E+03    -164.940E-03     329.590E-03    -164.650E-03     34.6548E-03    -165.087E-03     328.515E-03    -164.619E-03     32.7053E-03
             655     2.29000E-03     101.299E-03    -127.217E+06    -293.929E+06    -105.465E+06     492.990E+03    -165.166E-03     329.881E-03    -164.715E-03     51.0510E-03    -165.458E-03     328.984E-03    -164.632E-03     48.1138E-03
             656     3.05359E-03     101.372E-03    -119.502E+06    -271.719E+06    -86.8794E+06     651.369E+03    -165.391E-03     330.133E-03    -164.742E-03     66.8876E-03    -165.887E-03     329.492E-03    -164.609E-03     62.9159E-03
             657     3.81711E-03     101.463E-03    -111.278E+06    -251.485E+06    -68.6167E+06     755.262E+03    -165.787E-03     330.542E-03    -164.755E-03     82.0826E-03    -166.540E-03     330.206E-03    -164.572E-03     77.0125E-03
             658     4.58069E-03     101.573E-03    -102.690E+06    -228.263E+06    -49.7595E+06     919.504E+03    -166.252E-03     331.026E-03    -164.774E-03     96.4625E-03    -167.329E-03     331.073E-03    -164.543E-03     90.2423E-03
             659     5.34440E-03     101.699E-03    -93.8227E+06    -198.045E+06    -32.3138E+06     852.828E+03    -166.639E-03     331.419E-03    -164.780E-03     110.019E-03    -168.113E-03     331.951E-03    -164.518E-03     102.606E-03
             660     6.10751E-03     101.841E-03    -85.1890E+06    -169.934E+06    -17.2974E+06     1.27381E+06    -166.879E-03     331.646E-03    -164.767E-03     122.511E-03    -168.806E-03     332.717E-03    -164.483E-03     113.899E-03
             661     6.87233E-03     101.996E-03    -77.1591E+06    -138.205E+06    -2.55320E+06     1.57692E+06    -167.110E-03     331.850E-03    -164.740E-03     133.623E-03    -169.548E-03     333.530E-03    -164.440E-03     123.826E-03
             662     7.63527E-03     102.165E-03    -69.1495E+06    -102.241E+06     12.3115E+06     1.49389E+06    -167.327E-03     332.038E-03    -164.710E-03     143.056E-03    -170.306E-03     334.372E-03    -164.400E-03     132.136E-03
             663     8.39979E-03     102.342E-03    -60.9749E+06    -65.1715E+06     26.9490E+06     1.55134E+06    -167.414E-03     332.099E-03    -164.685E-03     150.239E-03    -170.917E-03     335.076E-03    -164.367E-03     138.339E-03
             664     9.16325E-03     102.527E-03    -53.1314E+06    -23.0300E+06     41.7071E+06     1.73937E+06    -167.297E-03     331.956E-03    -164.659E-03     154.462E-03    -171.255E-03     335.523E-03    -164.340E-03     141.804E-03
             665     9.92687E-03     102.713E-03    -45.6353E+06     21.5349E+06     54.7972E+06     1.93746E+06    -166.738E-03     331.353E-03    -164.615E-03     155.138E-03    -171.009E-03     335.380E-03    -164.306E-03     142.027E-03
             666     10.6914E-03     102.898E-03    -38.4906E+06     57.8042E+06     65.0721E+06     1.57184E+06    -166.027E-03     330.584E-03    -164.558E-03     151.447E-03    -170.405E-03     334.842E-03    -164.260E-03     138.173E-03
             667     11.4562E-03     103.074E-03    -31.2306E+06     76.1393E+06     73.7086E+06     1.29192E+06    -165.445E-03     329.964E-03    -164.519E-03     143.137E-03    -169.688E-03     334.152E-03    -164.215E-03     129.974E-03
             668     12.2190E-03     103.238E-03    -24.4004E+06     80.3381E+06     84.2651E+06     904.945E+03    -164.793E-03     329.313E-03    -164.519E-03     131.799E-03    -168.737E-03     333.211E-03    -164.179E-03     118.940E-03
             669     12.9845E-03     103.385E-03    -17.6219E+06     84.3133E+06     95.1927E+06     78.2796E+03    -164.045E-03     328.572E-03    -164.527E-03     115.171E-03    -167.464E-03     331.952E-03    -164.148E-03     102.982E-03
             670     13.7476E-03     103.507E-03    -11.2489E+06     92.5360E+06     100.903E+06    -334.097E+03    -163.297E-03     327.800E-03    -164.503E-03     100.380E-03    -166.332E-03     330.831E-03    -164.116E-03     88.5845E-03
             671     14.5112E-03     103.616E-03    -5.48638E+06     95.6572E+06     99.8806E+06     139.818E+03    -162.953E-03     327.407E-03    -164.454E-03     66.2301E-03    -164.981E-03     329.466E-03    -164.085E-03     56.7859E-03
             672     762.921E-06     102.530E-03    -136.868E+06    -321.083E+06    -134.331E+06     280.874E+03    -164.755E-03     329.361E-03    -164.606E-03     19.0243E-03    -164.813E-03     328.184E-03    -164.614E-03     17.9886E-03
             673     1.52687E-03     102.562E-03    -132.884E+06    -311.624E+06    -122.799E+06     209.575E+03    -164.969E-03     329.658E-03    -164.689E-03     34.8770E-03    -165.113E-03     328.580E-03    -164.658E-03     32.9207E-03
             674     2.29008E-03     102.616E-03    -126.903E+06    -294.375E+06    -105.986E+06     656.081E+03    -165.182E-03     329.926E-03    -164.743E-03     51.1819E-03    -165.472E-03     329.027E-03    -164.663E-03     48.2467E-03
             675     3.05343E-03     102.688E-03    -119.770E+06    -271.973E+06    -87.1453E+06     822.712E+03    -165.458E-03     330.231E-03    -164.772E-03     66.9748E-03    -165.955E-03     329.589E-03    -164.640E-03     63.0018E-03
             676     3.81711E-03     102.780E-03    -111.343E+06    -251.728E+06    -68.5285E+06     805.823E+03    -165.856E-03     330.650E-03    -164.794E-03     82.1776E-03    -166.609E-03     330.313E-03    -164.610E-03     77.1047E-03
             677     4.58047E-03     102.889E-03    -102.585E+06    -228.557E+06    -49.6932E+06     854.353E+03    -166.217E-03     331.026E-03    -164.809E-03     96.6369E-03    -167.295E-03     331.073E-03    -164.577E-03     90.4138E-03
             678     5.34390E-03     103.016E-03    -93.8188E+06    -198.267E+06    -32.2183E+06     1.14383E+06    -166.483E-03     331.278E-03    -164.795E-03     110.208E-03    -167.958E-03     331.809E-03    -164.532E-03     102.806E-03
             679     6.10852E-03     103.157E-03    -85.4065E+06    -170.646E+06    -17.3549E+06     1.40628E+06    -166.851E-03     331.619E-03    -164.768E-03     122.477E-03    -168.777E-03     332.686E-03    -164.483E-03     113.870E-03
             680     6.87131E-03     103.313E-03    -77.0586E+06    -138.648E+06    -2.50604E+06     1.66156E+06    -167.197E-03     331.941E-03    -164.744E-03     133.471E-03    -169.632E-03     333.617E-03    -164.444E-03     123.671E-03
             681     7.63601E-03     103.481E-03    -68.7426E+06    -102.122E+06     12.6927E+06     1.65957E+06    -167.392E-03     332.115E-03    -164.723E-03     142.857E-03    -170.367E-03     334.447E-03    -164.412E-03     131.937E-03
             682     8.39909E-03     103.659E-03    -60.8255E+06    -65.6462E+06     26.9032E+06     1.67166E+06    -167.436E-03     332.137E-03    -164.701E-03     150.226E-03    -170.937E-03     335.111E-03    -164.383E-03     138.327E-03
             683     9.16305E-03     103.843E-03    -53.0917E+06    -23.6639E+06     41.5145E+06     2.05234E+06    -167.135E-03     331.802E-03    -164.667E-03     154.617E-03    -171.092E-03     335.366E-03    -164.348E-03     141.978E-03
             684     9.92745E-03     104.030E-03    -45.1911E+06     21.3754E+06     55.0058E+06     2.15647E+06    -166.667E-03     331.280E-03    -164.614E-03     155.088E-03    -170.936E-03     335.305E-03    -164.304E-03     141.984E-03
             685     10.6916E-03     104.214E-03    -37.5073E+06     58.6607E+06     65.9482E+06     2.18576E+06    -166.184E-03     330.745E-03    -164.561E-03     151.135E-03    -170.558E-03     335.003E-03    -164.262E-03     137.852E-03
             686     11.4550E-03     104.391E-03    -30.7798E+06     76.7309E+06     74.3513E+06     1.87830E+06    -165.511E-03     330.042E-03    -164.531E-03     142.818E-03    -169.752E-03     334.230E-03    -164.226E-03     129.652E-03
             687     12.2201E-03     104.554E-03    -24.1087E+06     82.1087E+06     85.4603E+06     1.03666E+06    -164.755E-03     329.289E-03    -164.534E-03     131.891E-03    -168.704E-03     333.197E-03    -164.191E-03     119.030E-03
             688     12.9829E-03     104.702E-03    -17.6435E+06     85.7369E+06     96.0026E+06     178.012E+03    -163.951E-03     328.487E-03    -164.536E-03     115.412E-03    -167.375E-03     331.874E-03    -164.154E-03     103.240E-03
             689     13.7484E-03     104.823E-03    -11.2225E+06     92.6742E+06     100.872E+06    -139.513E+03    -163.464E-03     327.973E-03    -164.509E-03     100.722E-03    -166.502E-03     331.008E-03    -164.123E-03     88.9239E-03
             690     14.5128E-03     104.934E-03    -5.31630E+06     95.9265E+06     99.7287E+06     31.5933E+03    -163.123E-03     327.591E-03    -164.468E-03     66.5014E-03    -165.157E-03     329.657E-03    -164.101E-03     57.0300E-03
             691     763.792E-06     103.846E-03    -137.006E+06    -321.749E+06    -134.188E+06    -88.4227E+03    -164.962E-03     329.468E-03    -164.507E-03     19.2233E-03    -165.020E-03     328.288E-03    -164.513E-03     18.1746E-03
             692     1.52656E-03     103.880E-03    -133.111E+06    -312.089E+06    -122.396E+06     526.473E+03    -164.925E-03     329.650E-03    -164.725E-03     34.8345E-03    -165.069E-03     328.568E-03    -164.691E-03     32.8861E-03
             693     2.29008E-03     103.932E-03    -126.963E+06    -295.226E+06    -105.835E+06     783.719E+03    -165.167E-03     329.923E-03    -164.756E-03     51.0819E-03    -165.456E-03     329.020E-03    -164.673E-03     48.1488E-03
             694     3.05360E-03     104.005E-03    -119.160E+06    -272.040E+06    -86.9760E+06     864.747E+03    -165.503E-03     330.286E-03    -164.783E-03     66.9959E-03    -165.996E-03     329.642E-03    -164.650E-03     63.0227E-03
             695     3.81671E-03     104.096E-03    -111.109E+06    -251.895E+06    -68.6305E+06     850.352E+03    -165.814E-03     330.615E-03    -164.801E-03     82.3561E-03    -166.567E-03     330.279E-03    -164.618E-03     77.2851E-03
             696     4.58049E-03     104.206E-03    -102.664E+06    -228.912E+06    -49.8965E+06     1.16199E+06    -166.158E-03     330.962E-03    -164.805E-03     96.8213E-03    -167.236E-03     331.009E-03    -164.574E-03     90.6043E-03
             697     5.34461E-03     104.332E-03    -94.2276E+06    -198.573E+06    -32.2888E+06     1.44662E+06    -166.580E-03     331.374E-03    -164.794E-03     110.106E-03    -168.056E-03     331.903E-03    -164.531E-03     102.706E-03
             698     6.10753E-03     104.474E-03    -85.4519E+06    -170.991E+06    -17.1866E+06     1.40883E+06    -166.946E-03     331.727E-03    -164.781E-03     122.351E-03    -168.872E-03     332.792E-03    -164.495E-03     113.737E-03
             699     6.87207E-03     104.630E-03    -76.8804E+06    -139.214E+06    -2.49169E+06     1.53325E+06    -167.243E-03     332.007E-03    -164.763E-03     133.490E-03    -169.677E-03     333.681E-03    -164.463E-03     123.683E-03
             700     7.63488E-03     104.797E-03    -68.8418E+06    -102.622E+06     12.4020E+06     1.80693E+06    -167.423E-03     332.166E-03    -164.743E-03     142.990E-03    -170.399E-03     334.497E-03    -164.432E-03     132.068E-03
             701     8.39928E-03     104.975E-03    -61.0340E+06    -66.0331E+06     26.8362E+06     2.01268E+06    -167.333E-03     332.049E-03    -164.716E-03     150.259E-03    -170.835E-03     335.022E-03    -164.398E-03     138.370E-03
             702     9.16336E-03     105.159E-03    -53.1979E+06    -23.9489E+06     41.5242E+06     2.11036E+06    -167.073E-03     331.748E-03    -164.675E-03     154.352E-03    -171.026E-03     335.307E-03    -164.355E-03     141.718E-03
             703     9.92730E-03     105.346E-03    -45.4479E+06     21.3226E+06     55.1443E+06     2.01120E+06    -166.777E-03     331.402E-03    -164.625E-03     154.807E-03    -171.044E-03     335.424E-03    -164.314E-03     141.692E-03
             704     10.6909E-03     105.531E-03    -37.8490E+06     58.5059E+06     65.9688E+06     1.96564E+06    -166.235E-03     330.813E-03    -164.578E-03     151.125E-03    -170.611E-03     335.072E-03    -164.279E-03     137.832E-03
             705     11.4554E-03     105.707E-03    -30.1542E+06     77.5975E+06     74.8885E+06     1.80681E+06    -165.484E-03     330.032E-03    -164.548E-03     142.924E-03    -169.727E-03     334.227E-03    -164.242E-03     129.753E-03
             706     12.2190E-03     105.870E-03    -22.9005E+06     83.6507E+06     86.3880E+06     1.33948E+06    -164.652E-03     329.198E-03    -164.546E-03     131.633E-03    -168.596E-03     333.107E-03    -164.202E-03     118.783E-03
             707     12.9846E-03     106.019E-03    -16.2265E+06     87.2254E+06     97.1069E+06     940.350E+03    -163.913E-03     328.457E-03    -164.544E-03     115.142E-03    -167.328E-03     331.843E-03    -164.162E-03     102.988E-03
             708     13.7476E-03     106.139E-03    -10.4579E+06     93.4827E+06     101.513E+06     516.864E+03    -163.546E-03     328.065E-03    -164.519E-03     100.751E-03    -166.578E-03     331.097E-03    -164.131E-03     88.9762E-03
             709     14.5111E-03     106.252E-03    -5.49739E+06     95.9429E+06     99.3637E+06     288.488E+03    -163.002E-03     327.475E-03    -164.473E-03     66.0414E-03    -165.029E-03     329.535E-03    -164.107E-03     56.5887E-03
             710     762.847E-06     105.164E-03    -137.312E+06    -322.318E+06    -134.384E+06     485.115E+03    -164.886E-03     329.642E-03    -164.756E-03     18.7387E-03    -164.945E-03     328.459E-03    -164.761E-03     17.6967E-03
             711     1.52667E-03     105.195E-03    -133.125E+06    -312.619E+06    -122.293E+06     466.422E+03    -164.852E-03     329.636E-03    -164.783E-03     34.7581E-03    -164.996E-03     328.552E-03    -164.748E-03     32.8096E-03
             712     2.29002E-03     105.249E-03    -126.574E+06    -295.606E+06    -105.128E+06     494.441E+03    -165.105E-03     329.875E-03    -164.771E-03     51.2314E-03    -165.392E-03     328.969E-03    -164.684E-03     48.2942E-03
             713     3.05327E-03     105.321E-03    -118.992E+06    -272.902E+06    -87.1058E+06     918.586E+03    -165.414E-03     330.184E-03    -164.770E-03     67.1460E-03    -165.906E-03     329.538E-03    -164.638E-03     63.1751E-03
             714     3.81727E-03     105.413E-03    -110.955E+06    -252.037E+06     -68.567E+06     1.35256E+06    -165.797E-03     330.576E-03    -164.779E-03     82.3317E-03    -166.549E-03     330.238E-03    -164.596E-03     77.2696E-03
             715     4.58085E-03     105.522E-03    -102.597E+06    -229.545E+06    -49.6756E+06     1.38215E+06    -166.244E-03     331.038E-03    -164.793E-03     96.6980E-03    -167.321E-03     331.079E-03    -164.560E-03     90.4847E-03
             716     5.34388E-03     105.649E-03    -93.6502E+06    -198.994E+06    -32.0231E+06     1.57582E+06    -166.652E-03     331.447E-03    -164.795E-03     110.206E-03    -168.126E-03     331.974E-03    -164.530E-03     102.803E-03
             717     6.10804E-03     105.790E-03    -85.1166E+06    -171.111E+06    -16.9997E+06     1.66796E+06    -167.057E-03     331.847E-03    -164.791E-03     122.569E-03    -168.984E-03     332.915E-03    -164.504E-03     113.948E-03
             718     6.87112E-03     105.946E-03    -76.9158E+06    -139.903E+06    -2.61245E+06     1.79771E+06    -167.320E-03     332.101E-03    -164.782E-03     133.556E-03    -169.755E-03     333.774E-03    -164.480E-03     123.742E-03
             719     7.63567E-03     106.114E-03    -68.8892E+06    -103.192E+06     12.3096E+06     2.16201E+06    -167.391E-03     332.153E-03    -164.762E-03     142.896E-03    -170.366E-03     334.481E-03    -164.451E-03     131.979E-03
             720     8.39904E-03     106.292E-03    -61.0541E+06    -66.2611E+06     27.0391E+06     2.37117E+06    -167.372E-03     332.108E-03    -164.736E-03     149.998E-03    -170.872E-03     335.078E-03    -164.416E-03     138.107E-03
             721     9.16286E-03     106.476E-03    -53.3344E+06    -23.8230E+06     41.7784E+06     2.26500E+06    -167.206E-03     331.908E-03    -164.702E-03     154.152E-03    -171.160E-03     335.467E-03    -164.381E-03     141.503E-03
             722     9.92669E-03     106.663E-03    -45.6196E+06     21.7417E+06     55.4143E+06     2.00764E+06    -166.745E-03     331.400E-03    -164.655E-03     154.767E-03    -171.013E-03     335.423E-03    -164.343E-03     141.653E-03
             723     10.6912E-03     106.848E-03    -37.8289E+06     58.9573E+06     66.1230E+06     1.44180E+06    -166.105E-03     330.705E-03    -164.600E-03     151.004E-03    -170.477E-03     334.960E-03    -164.300E-03     137.720E-03
             724     11.4551E-03     107.024E-03    -30.1474E+06     77.7200E+06     74.8369E+06     1.01159E+06    -165.437E-03     330.000E-03    -164.562E-03     142.785E-03    -169.675E-03     334.189E-03    -164.257E-03     129.616E-03
             725     12.2194E-03     107.188E-03    -23.0373E+06     83.7141E+06     86.1301E+06     1.30867E+06    -164.707E-03     329.267E-03    -164.560E-03     131.484E-03    -168.646E-03     333.172E-03    -164.217E-03     118.637E-03
             726     12.9827E-03     107.333E-03    -16.6376E+06     87.2077E+06     96.4857E+06     1.64242E+06    -163.854E-03     328.410E-03    -164.556E-03     115.224E-03    -167.274E-03     331.800E-03    -164.176E-03     103.072E-03
             727     13.7478E-03     107.458E-03    -10.3278E+06     93.7830E+06     101.596E+06     1.81620E+06    -163.161E-03     327.679E-03    -164.518E-03     101.501E-03    -166.196E-03     330.716E-03    -164.131E-03     89.7864E-03
             728     14.5124E-03     107.567E-03    -5.02748E+06     97.4260E+06     100.442E+06     766.953E+03    -162.871E-03     327.330E-03    -164.459E-03     66.6083E-03    -164.900E-03     329.396E-03    -164.091E-03     57.1915E-03
             729     763.332E-06     106.479E-03    -137.003E+06    -322.285E+06    -134.464E+06      71.295E+03    -164.670E-03     329.513E-03    -164.843E-03     19.0819E-03    -164.728E-03     328.330E-03    -164.849E-03     18.0397E-03
             730     1.52648E-03     106.512E-03    -132.688E+06    -313.260E+06    -122.517E+06     213.395E+03    -164.844E-03     329.569E-03    -164.725E-03     35.0826E-03    -164.985E-03     328.482E-03    -164.691E-03     33.1269E-03
             731     2.29005E-03     106.565E-03    -126.659E+06    -296.441E+06    -105.287E+06     800.171E+03    -165.061E-03     329.784E-03    -164.723E-03     51.4277E-03    -165.348E-03     328.875E-03    -164.636E-03     48.4983E-03
             732     3.05388E-03     106.638E-03    -119.510E+06    -273.697E+06    -87.2450E+06     1.14894E+06    -165.438E-03     330.169E-03    -164.731E-03     67.2095E-03    -165.931E-03     329.519E-03    -164.597E-03     63.2439E-03
             733     3.81704E-03     106.729E-03    -111.274E+06    -253.032E+06    -69.0072E+06     1.54226E+06    -165.920E-03     330.680E-03    -164.760E-03     82.2859E-03    -166.671E-03     330.338E-03    -164.577E-03     77.2240E-03
             734     4.58035E-03     106.839E-03    -102.503E+06    -229.402E+06    -49.4247E+06     1.58642E+06    -166.307E-03     331.102E-03    -164.795E-03     96.6665E-03    -167.383E-03     331.143E-03    -164.561E-03     90.4539E-03
             735     5.34457E-03     106.965E-03    -93.8874E+06    -199.714E+06    -32.0970E+06     1.47419E+06    -166.703E-03     331.508E-03    -164.805E-03     110.110E-03    -168.176E-03     332.032E-03    -164.540E-03     102.703E-03
             736     6.10788E-03     107.107E-03    -85.2156E+06    -171.710E+06    -17.1640E+06     1.90501E+06    -167.130E-03     331.939E-03    -164.809E-03     122.334E-03    -169.055E-03     333.002E-03    -164.522E-03     113.712E-03
             737     6.87162E-03     107.263E-03    -77.0287E+06    -140.289E+06    -2.47824E+06     2.06996E+06    -167.379E-03     332.187E-03    -164.808E-03     133.295E-03    -169.813E-03     333.857E-03    -164.506E-03     123.480E-03
             738     7.63465E-03     107.430E-03    -68.9622E+06    -103.974E+06     12.3012E+06     2.26518E+06    -167.448E-03     332.242E-03    -164.794E-03     142.679E-03    -170.422E-03     334.566E-03    -164.482E-03     131.753E-03
             739     8.39884E-03     107.609E-03    -60.7450E+06    -66.4955E+06     27.1980E+06     2.51415E+06    -167.414E-03     332.184E-03    -164.770E-03     149.885E-03    -170.910E-03     335.150E-03    -164.450E-03     137.993E-03
             740     9.16259E-03     107.793E-03    -52.6381E+06    -23.7386E+06     42.2509E+06     2.60731E+06    -167.198E-03     331.933E-03    -164.735E-03     154.242E-03    -171.151E-03     335.492E-03    -164.413E-03     141.596E-03
             741     9.92663E-03     107.980E-03    -44.9383E+06     22.4518E+06     55.8911E+06     2.40513E+06    -166.738E-03     331.422E-03    -164.684E-03     154.710E-03    -171.004E-03     335.446E-03    -164.372E-03     141.599E-03
             742     10.6905E-03     108.164E-03    -37.8595E+06     60.4910E+06     66.6197E+06     1.68354E+06    -166.103E-03     330.730E-03    -164.627E-03     150.954E-03    -170.476E-03     334.991E-03    -164.327E-03     137.674E-03
             743     11.4547E-03     108.341E-03    -31.3994E+06     77.7934E+06     74.3937E+06     1.18776E+06    -165.319E-03     329.903E-03    -164.584E-03     142.657E-03    -169.559E-03     334.092E-03    -164.279E-03     129.502E-03
             744     12.2191E-03     108.503E-03    -25.1650E+06     82.8513E+06     85.0542E+06     1.35940E+06    -164.582E-03     329.154E-03    -164.572E-03     131.507E-03    -168.528E-03     333.058E-03    -164.230E-03     118.674E-03
             745     12.9838E-03     108.652E-03    -18.6884E+06     87.7479E+06     96.0798E+06     1.38776E+06    -163.882E-03     328.448E-03    -164.566E-03     115.128E-03    -167.313E-03     331.846E-03    -164.186E-03     102.963E-03
             746     13.7480E-03     108.770E-03    -12.0166E+06     93.5878E+06     100.954E+06     1.13074E+06    -162.956E-03     327.481E-03    -164.525E-03     100.379E-03    -165.990E-03     330.512E-03    -164.138E-03     88.6428E-03
             747     14.5131E-03     108.885E-03    -5.04158E+06     98.4661E+06     101.101E+06     817.098E+03    -162.687E-03     327.148E-03    -164.461E-03     65.8234E-03    -164.708E-03     329.207E-03    -164.091E-03     56.4343E-03
             748     763.595E-06     107.796E-03    -137.275E+06    -322.306E+06    -134.079E+06     270.145E+03    -164.768E-03     329.188E-03    -164.420E-03     18.7125E-03    -164.827E-03     328.005E-03    -164.424E-03     17.6650E-03
             749     1.52708E-03     107.829E-03    -133.480E+06    -313.899E+06    -122.455E+06     315.536E+03    -164.864E-03     329.468E-03    -164.604E-03     34.9609E-03    -165.008E-03     328.379E-03    -164.567E-03     33.0098E-03
             750     2.29043E-03     107.881E-03    -127.233E+06    -297.829E+06    -106.041E+06     795.459E+03    -165.199E-03     329.868E-03    -164.669E-03     51.2297E-03    -165.485E-03     328.953E-03    -164.583E-03     48.3008E-03
             751     3.05363E-03     107.954E-03    -119.536E+06    -274.615E+06    -87.0890E+06     1.43929E+06    -165.559E-03     330.288E-03    -164.729E-03     67.0063E-03    -166.050E-03     329.632E-03    -164.593E-03     63.0453E-03
             752     3.81719E-03     108.046E-03    -111.317E+06    -253.759E+06    -68.8080E+06     1.52782E+06    -165.966E-03     330.745E-03    -164.779E-03     82.1306E-03    -166.716E-03     330.398E-03    -164.593E-03     77.0680E-03
             753     4.58088E-03     108.155E-03    -102.759E+06    -229.904E+06    -50.1274E+06     1.75767E+06    -166.430E-03     331.252E-03    -164.822E-03     96.4005E-03    -167.505E-03     331.291E-03    -164.590E-03     90.1832E-03
             754     5.34378E-03     108.282E-03    -94.0717E+06    -199.861E+06    -32.0359E+06     1.76127E+06    -166.834E-03     331.686E-03    -164.852E-03     109.836E-03    -168.307E-03     332.209E-03    -164.586E-03     102.421E-03
             755     6.10724E-03     108.424E-03    -85.6597E+06    -172.704E+06    -17.3423E+06     1.79055E+06    -167.095E-03     331.954E-03    -164.859E-03     122.215E-03    -169.020E-03     333.012E-03    -164.571E-03     113.589E-03
             756     6.87088E-03     108.580E-03    -77.1937E+06    -140.667E+06    -2.50720E+06     2.18785E+06    -167.334E-03     332.182E-03    -164.848E-03     133.271E-03    -169.766E-03     333.849E-03    -164.545E-03     123.460E-03
             757     7.63495E-03     108.748E-03    -68.9654E+06    -104.204E+06     12.5385E+06     2.27844E+06    -167.516E-03     332.348E-03    -164.832E-03     142.707E-03    -170.491E-03     334.671E-03    -164.518E-03     131.775E-03
             758     8.39831E-03     108.925E-03    -61.0367E+06    -66.9929E+06     26.9138E+06     2.49791E+06    -167.426E-03     332.233E-03    -164.807E-03     149.847E-03    -170.924E-03     335.198E-03    -164.487E-03     137.949E-03
             759     9.16238E-03     109.110E-03    -53.3589E+06    -24.2516E+06     41.7457E+06     2.61101E+06    -167.128E-03     331.895E-03    -164.767E-03     154.129E-03    -171.080E-03     335.450E-03    -164.445E-03     141.490E-03
             760     9.92631E-03     109.296E-03    -45.8799E+06     22.5065E+06     55.6758E+06     2.93342E+06    -166.727E-03     331.438E-03    -164.712E-03     154.676E-03    -170.996E-03     335.463E-03    -164.399E-03     141.573E-03
             761     10.6904E-03     109.481E-03    -38.9446E+06     62.0449E+06     66.8083E+06     2.83027E+06    -166.075E-03     330.727E-03    -164.652E-03     150.895E-03    -170.457E-03     334.997E-03    -164.351E-03     137.628E-03
             762     11.4548E-03     109.656E-03    -32.2797E+06     78.6126E+06     74.4087E+06     2.09121E+06    -165.289E-03     329.895E-03    -164.605E-03     142.587E-03    -169.535E-03     334.089E-03    -164.301E-03     129.443E-03
             763     12.2187E-03     109.820E-03    -25.5090E+06     82.6777E+06     84.9588E+06     1.84458E+06    -164.596E-03     329.189E-03    -164.593E-03     131.292E-03    -168.543E-03     333.093E-03    -164.251E-03     118.457E-03
             764     12.9831E-03     109.966E-03    -18.8312E+06     88.8732E+06     96.4981E+06     1.47223E+06    -163.835E-03     328.422E-03    -164.587E-03     114.757E-03    -167.261E-03     331.817E-03    -164.206E-03     102.606E-03
             765     13.7466E-03     110.090E-03    -12.6038E+06     95.4120E+06     101.533E+06     271.176E+03    -163.107E-03     327.656E-03    -164.549E-03     100.335E-03    -166.156E-03     330.704E-03    -164.161E-03     88.5542E-03
             766     14.5108E-03     110.196E-03    -6.10353E+06     98.9545E+06     100.979E+06    -61.9503E+03    -162.657E-03     327.143E-03    -164.486E-03     66.6569E-03    -164.701E-03     329.224E-03    -164.116E-03     57.2187E-03
             767     763.251E-06     109.112E-03    -138.213E+06    -323.369E+06    -135.424E+06     688.543E+03    -164.948E-03     329.296E-03    -164.349E-03     18.5203E-03    -165.008E-03     328.111E-03    -164.357E-03     17.4554E-03
             768     1.52688E-03     109.145E-03    -134.150E+06    -314.532E+06    -122.648E+06     805.963E+03    -164.942E-03     329.610E-03    -164.669E-03     34.6023E-03    -165.086E-03     328.518E-03    -164.631E-03     32.6643E-03
             769     2.29014E-03     109.198E-03    -128.046E+06    -298.557E+06    -105.904E+06     763.524E+03    -165.293E-03     330.040E-03    -164.747E-03     50.8933E-03    -165.581E-03     329.121E-03    -164.658E-03     47.9655E-03
             770     3.05346E-03     109.271E-03    -120.138E+06    -276.332E+06    -87.6385E+06     1.08050E+06    -165.610E-03     330.418E-03    -164.808E-03     66.7302E-03    -166.100E-03     329.755E-03    -164.671E-03     62.7606E-03
             771     3.81686E-03     109.363E-03    -111.698E+06    -254.238E+06    -68.8130E+06     1.69306E+06    -165.993E-03     330.846E-03    -164.853E-03     81.8994E-03    -166.743E-03     330.496E-03    -164.666E-03     76.8358E-03
             772     4.57992E-03     109.473E-03    -103.119E+06    -230.187E+06    -50.0076E+06     1.57995E+06    -166.450E-03     331.340E-03    -164.890E-03     96.4079E-03    -167.527E-03     331.378E-03    -164.656E-03     90.1840E-03
             773     5.34355E-03     109.599E-03    -94.0926E+06    -200.535E+06    -32.2221E+06     1.89748E+06    -166.779E-03     331.685E-03    -164.906E-03     109.992E-03    -168.252E-03     332.205E-03    -164.640E-03     102.580E-03
             774     6.10736E-03     109.741E-03    -85.4759E+06    -172.864E+06    -17.0498E+06     2.20219E+06    -167.096E-03     331.998E-03    -164.902E-03     122.409E-03    -169.022E-03     333.056E-03    -164.612E-03     113.787E-03
             775     6.87090E-03     109.897E-03    -77.2828E+06    -141.471E+06    -2.74343E+06     2.23600E+06    -167.392E-03     332.279E-03    -164.887E-03     133.369E-03    -169.825E-03     333.943E-03    -164.584E-03     123.552E-03
             776     7.63431E-03     110.064E-03    -69.2596E+06    -104.655E+06     12.2029E+06     2.66049E+06    -167.486E-03     332.354E-03    -164.867E-03     142.623E-03    -170.459E-03     334.674E-03    -164.554E-03     131.700E-03
             777     8.39821E-03     110.243E-03    -61.6801E+06    -67.4192E+06     26.5888E+06     2.87260E+06    -167.447E-03     332.287E-03    -164.840E-03     149.784E-03    -170.946E-03     335.251E-03    -164.520E-03     137.887E-03
             778     9.16191E-03     110.425E-03    -54.2952E+06    -24.9384E+06     41.0883E+06     3.34047E+06    -167.209E-03     332.010E-03    -164.801E-03     154.037E-03    -171.164E-03     335.565E-03    -164.481E-03     141.395E-03
             779     9.92601E-03     110.614E-03    -47.0311E+06     22.0372E+06     55.0820E+06     3.43548E+06    -166.700E-03     331.447E-03    -164.747E-03     154.465E-03    -170.971E-03     335.469E-03    -164.435E-03     141.366E-03
             780     10.6902E-03     110.797E-03    -39.2614E+06     62.9314E+06     66.8201E+06     3.14301E+06    -166.010E-03     330.693E-03    -164.684E-03     150.476E-03    -170.388E-03     334.962E-03    -164.384E-03     137.217E-03
             781     11.4541E-03     110.974E-03    -31.7283E+06     79.6783E+06     74.7251E+06     2.73754E+06    -165.259E-03     329.893E-03    -164.634E-03     142.245E-03    -169.499E-03     334.086E-03    -164.330E-03     129.112E-03
             782     12.2188E-03     111.135E-03    -24.8788E+06     83.3494E+06     85.3563E+06     2.13325E+06    -164.531E-03     329.149E-03    -164.618E-03     131.395E-03    -168.475E-03     333.053E-03    -164.276E-03     118.574E-03
             783     12.9822E-03     111.285E-03    -17.8300E+06     89.9896E+06     97.4288E+06     1.48073E+06    -163.659E-03     328.262E-03    -164.603E-03     115.057E-03    -167.085E-03     331.662E-03    -164.221E-03     102.927E-03
             784     13.7484E-03     111.403E-03    -10.7381E+06     98.3990E+06     103.377E+06     432.417E+03    -163.184E-03     327.745E-03    -164.561E-03     100.590E-03    -166.227E-03     330.800E-03    -164.171E-03     88.8303E-03
             785     14.5125E-03     111.517E-03    -5.01571E+06     99.8995E+06     101.323E+06    -322.040E+03    -162.743E-03     327.241E-03    -164.498E-03     66.2703E-03    -164.780E-03     329.321E-03    -164.129E-03     56.8211E-03
             786     763.509E-06     110.429E-03    -139.157E+06    -324.520E+06    -136.675E+06     76.3825E+03    -164.952E-03     329.541E-03    -164.590E-03     18.9583E-03    -165.014E-03     328.354E-03    -164.601E-03     17.8878E-03
             787     1.52631E-03     110.462E-03    -134.957E+06    -315.643E+06    -123.958E+06     774.461E+03    -165.158E-03     329.963E-03    -164.805E-03     34.8732E-03    -165.304E-03     328.869E-03    -164.772E-03     32.9220E-03
             788     2.28965E-03     110.515E-03    -128.507E+06    -299.271E+06    -106.311E+06     1.06517E+06    -165.318E-03     330.203E-03    -164.885E-03     51.0610E-03    -165.607E-03     329.282E-03    -164.796E-03     48.1334E-03
             789     3.05303E-03     110.588E-03    -120.895E+06    -277.362E+06    -88.1308E+06     1.29988E+06    -165.610E-03     330.524E-03    -164.914E-03     66.8085E-03    -166.102E-03     329.858E-03    -164.777E-03     62.8399E-03
             790     3.81630E-03     110.680E-03    -112.730E+06    -254.820E+06    -69.5914E+06     1.41058E+06    -165.994E-03     330.928E-03    -164.934E-03     82.1646E-03    -166.749E-03     330.580E-03    -164.749E-03     77.0915E-03
             791     4.58005E-03     110.790E-03    -103.767E+06    -229.988E+06    -50.1674E+06     1.45251E+06    -166.346E-03     331.295E-03    -164.949E-03     96.5891E-03    -167.427E-03     331.337E-03    -164.716E-03     90.3649E-03
             792     5.34360E-03     110.916E-03    -94.9308E+06    -201.694E+06    -32.7465E+06     1.63133E+06    -166.756E-03     331.704E-03    -164.947E-03     109.945E-03    -168.231E-03     332.220E-03    -164.681E-03     102.530E-03
             793     6.10689E-03     111.058E-03    -86.0468E+06    -174.020E+06    -17.8016E+06     2.08205E+06    -167.185E-03     332.126E-03    -164.941E-03     122.220E-03    -169.109E-03     333.179E-03    -164.653E-03     113.593E-03
             794     6.87049E-03     111.214E-03    -77.7020E+06    -142.091E+06    -3.14906E+06     2.59792E+06    -167.422E-03     332.354E-03    -164.931E-03     133.200E-03    -169.855E-03     334.015E-03    -164.628E-03     123.385E-03
             795     7.63412E-03     111.382E-03    -69.7192E+06    -105.517E+06     11.6548E+06     2.85472E+06    -167.498E-03     332.409E-03    -164.910E-03     142.472E-03    -170.470E-03     334.724E-03    -164.598E-03     131.547E-03
             796     8.39799E-03     111.558E-03    -61.6213E+06    -68.1612E+06     26.2446E+06     3.31003E+06    -167.475E-03     332.357E-03    -164.882E-03     149.567E-03    -170.969E-03     335.314E-03    -164.562E-03     137.674E-03
             797     9.16172E-03     111.744E-03    -53.5373E+06    -25.8198E+06     41.1224E+06     3.75420E+06    -167.274E-03     332.120E-03    -164.846E-03     153.736E-03    -171.220E-03     335.665E-03    -164.525E-03     141.094E-03
             798     9.92541E-03     111.929E-03    -45.2621E+06     22.0247E+06     55.5859E+06     3.98556E+06    -166.741E-03     331.534E-03    -164.794E-03     154.225E-03    -171.002E-03     335.552E-03    -164.482E-03     141.127E-03
             799     10.6893E-03     112.115E-03    -37.8003E+06     63.5659E+06     67.4227E+06     3.71013E+06    -165.964E-03     330.692E-03    -164.727E-03     150.328E-03    -170.334E-03     334.957E-03    -164.428E-03     137.082E-03
             800     11.4540E-03     112.289E-03    -30.7859E+06     80.8895E+06     75.2746E+06     2.94571E+06    -165.228E-03     329.900E-03    -164.672E-03     142.171E-03    -169.464E-03     334.095E-03    -164.368E-03     129.042E-03
             801     12.2178E-03     112.453E-03    -23.5273E+06     84.8630E+06     85.9455E+06     1.88591E+06    -164.319E-03     328.965E-03    -164.646E-03     130.889E-03    -168.253E-03     332.868E-03    -164.306E-03     118.078E-03
             802     12.9838E-03     112.599E-03    -16.5204E+06     91.1482E+06     98.1307E+06     1.16333E+06    -163.552E-03     328.175E-03    -164.624E-03     114.498E-03    -166.967E-03     331.571E-03    -164.241E-03     102.367E-03
             803     13.7462E-03     112.722E-03    -10.4151E+06     99.0715E+06     103.709E+06     977.439E+03    -163.093E-03     327.669E-03    -164.576E-03     100.568E-03    -166.132E-03     330.722E-03    -164.186E-03     88.8311E-03
             804     14.5101E-03     112.831E-03    -5.03064E+06     100.778E+06     101.768E+06     514.194E+03    -162.432E-03     326.934E-03    -164.503E-03     66.0144E-03    -164.465E-03     329.012E-03    -164.133E-03     56.5980E-03
             805     763.289E-06     111.746E-03    -139.625E+06    -324.980E+06    -136.864E+06     180.797E+03    -165.088E-03     329.713E-03    -164.625E-03     19.7388E-03    -165.152E-03     328.525E-03    -164.636E-03     18.6781E-03
             806     1.52657E-03     111.779E-03    -135.600E+06    -316.777E+06    -125.090E+06     561.660E+03    -165.252E-03     330.139E-03    -164.887E-03     34.9238E-03    -165.398E-03     329.042E-03    -164.857E-03     32.9695E-03
             807     2.28958E-03     111.832E-03    -129.168E+06    -300.408E+06    -107.705E+06     1.06691E+06    -165.387E-03     330.352E-03    -164.965E-03     51.1110E-03    -165.677E-03     329.429E-03    -164.880E-03     48.1765E-03
             808     3.05285E-03     111.905E-03    -121.549E+06    -277.958E+06    -88.7903E+06     1.34820E+06    -165.622E-03     330.608E-03    -164.986E-03     66.9387E-03    -166.117E-03     329.942E-03    -164.850E-03     62.9627E-03
             809     3.81642E-03     111.997E-03    -112.915E+06    -254.802E+06    -69.5469E+06     1.19039E+06    -165.994E-03     330.989E-03    -164.994E-03     82.1588E-03    -166.750E-03     330.641E-03    -164.809E-03     77.0810E-03
             810     4.57960E-03     112.106E-03    -104.055E+06    -230.779E+06    -50.7294E+06     1.30223E+06    -166.430E-03     331.434E-03    -165.005E-03     96.4134E-03    -167.510E-03     331.473E-03    -164.773E-03     90.1828E-03
             811     5.34308E-03     112.233E-03    -95.0570E+06    -202.525E+06    -33.3937E+06     1.58606E+06    -166.873E-03     331.883E-03    -165.010E-03     109.788E-03    -168.346E-03     332.396E-03    -164.745E-03     102.362E-03
             812     6.10666E-03     112.375E-03    -86.5236E+06    -175.075E+06    -18.5228E+06     1.92627E+06    -167.215E-03     332.222E-03    -165.007E-03     122.061E-03    -169.138E-03     333.270E-03    -164.720E-03     113.427E-03
             813     6.87001E-03     112.531E-03    -78.0369E+06    -143.312E+06    -3.90268E+06     2.41607E+06    -167.424E-03     332.417E-03    -164.993E-03     133.003E-03    -169.853E-03     334.072E-03    -164.691E-03     123.185E-03
             814     7.63384E-03     112.698E-03    -69.6080E+06    -106.268E+06     11.2760E+06     2.88925E+06    -167.557E-03     332.528E-03    -164.970E-03     142.229E-03    -170.525E-03     334.838E-03    -164.659E-03     131.297E-03
             815     8.39709E-03     112.876E-03    -61.5510E+06    -69.2868E+06     25.7396E+06     3.18637E+06    -167.528E-03     332.471E-03    -164.943E-03     149.341E-03    -171.017E-03     335.421E-03    -164.625E-03     137.440E-03
             816     9.16099E-03     113.060E-03    -53.4970E+06    -26.5484E+06     40.7258E+06     3.37261E+06    -167.236E-03     332.140E-03    -164.904E-03     153.594E-03    -171.178E-03     335.680E-03    -164.584E-03     140.949E-03
             817     9.92495E-03     113.247E-03    -45.7205E+06     21.4230E+06     55.0992E+06     3.50728E+06    -166.699E-03     331.545E-03    -164.845E-03     153.974E-03    -170.956E-03     335.556E-03    -164.535E-03     140.874E-03
             818     10.6893E-03     113.430E-03    -37.7327E+06     63.6003E+06     67.3261E+06     3.78852E+06    -165.984E-03     330.761E-03    -164.777E-03     150.048E-03    -170.351E-03     335.024E-03    -164.477E-03     136.795E-03
             819     11.4531E-03     113.607E-03    -30.3985E+06     82.6367E+06     76.1779E+06     3.50655E+06    -165.155E-03     329.874E-03    -164.720E-03     141.828E-03    -169.388E-03     334.072E-03    -164.415E-03     128.711E-03
             820     12.2180E-03     113.768E-03    -24.2910E+06     87.0034E+06     86.8922E+06     2.23777E+06    -164.348E-03     329.041E-03    -164.693E-03     130.466E-03    -168.287E-03     332.952E-03    -164.350E-03     117.648E-03
             821     12.9809E-03     113.915E-03    -18.2366E+06     92.3003E+06     97.7056E+06     1.34919E+06    -163.461E-03     328.126E-03    -164.664E-03     114.440E-03    -166.887E-03     331.531E-03    -164.283E-03     102.308E-03
             822     13.7475E-03     114.038E-03    -11.7699E+06     99.0909E+06     102.983E+06     1.25451E+06    -162.412E-03     327.006E-03    -164.593E-03     100.384E-03    -165.448E-03     330.052E-03    -164.205E-03     88.7103E-03
             823     14.5132E-03     114.147E-03    -5.63865E+06     101.607E+06     102.147E+06     669.627E+03    -162.218E-03     326.717E-03    -164.499E-03     66.1862E-03    -164.253E-03     328.796E-03    -164.127E-03     56.8009E-03
             824     763.197E-06     113.063E-03    -140.830E+06    -326.018E+06    -137.924E+06     761.433E+03    -165.354E-03     330.143E-03    -164.789E-03     19.4011E-03    -165.421E-03     328.953E-03    -164.801E-03     18.3545E-03
             825     1.52613E-03     113.096E-03    -136.687E+06    -317.192E+06    -125.316E+06     612.501E+03    -165.122E-03     330.161E-03    -165.039E-03     34.7040E-03    -165.273E-03     329.064E-03    -165.008E-03     32.7490E-03
             826     2.28937E-03     113.149E-03    -130.279E+06    -301.105E+06    -108.562E+06     652.500E+03    -165.343E-03     330.372E-03    -165.029E-03     51.0058E-03    -165.636E-03     329.449E-03    -164.947E-03     48.0609E-03
             827     3.05274E-03     113.222E-03    -122.247E+06    -278.239E+06     -89.955E+06     603.949E+03    -165.726E-03     330.762E-03    -165.036E-03     66.9704E-03    -166.222E-03     330.098E-03    -164.905E-03     62.9798E-03
             828     3.81585E-03     113.314E-03    -113.581E+06    -255.309E+06    -70.6446E+06     757.154E+03    -166.136E-03     331.196E-03    -165.060E-03     82.0234E-03    -166.893E-03     330.848E-03    -164.878E-03     76.9347E-03
             829     4.57946E-03     113.423E-03    -104.609E+06    -231.375E+06    -51.5303E+06     1.03528E+06    -166.561E-03     331.645E-03    -165.084E-03     96.3668E-03    -167.642E-03     331.683E-03    -164.855E-03     90.1236E-03
             830     5.34261E-03     113.550E-03    -95.7281E+06    -203.282E+06    -34.5158E+06     1.28442E+06    -166.961E-03     332.053E-03    -165.093E-03     109.753E-03    -168.434E-03     332.565E-03    -164.832E-03     102.317E-03
             831     6.10590E-03     113.692E-03    -86.7740E+06    -175.786E+06    -19.3917E+06     1.67422E+06    -167.254E-03     332.343E-03    -165.089E-03     121.904E-03    -169.176E-03     333.389E-03    -164.805E-03     113.260E-03
             832     6.86966E-03     113.848E-03    -78.2725E+06    -144.045E+06    -4.59114E+06     1.99975E+06    -167.482E-03     332.555E-03    -165.073E-03     132.814E-03    -169.909E-03     334.206E-03    -164.774E-03     122.981E-03
             833     7.63281E-03     114.016E-03    -70.0901E+06    -107.590E+06     10.2309E+06     2.45752E+06    -167.597E-03     332.645E-03    -165.048E-03     142.127E-03    -170.562E-03     334.949E-03    -164.739E-03     131.184E-03
             834     8.39690E-03     114.193E-03    -61.8526E+06    -70.3613E+06     24.8843E+06     2.92722E+06    -167.573E-03     332.591E-03    -165.018E-03     149.159E-03    -171.059E-03     335.536E-03    -164.702E-03     137.245E-03
             835     9.16042E-03     114.377E-03    -54.2304E+06    -27.6542E+06     39.6368E+06     3.52173E+06    -167.249E-03     332.226E-03    -164.977E-03     153.135E-03    -171.186E-03     335.757E-03    -164.660E-03     140.487E-03
             836     9.92444E-03     114.563E-03    -47.0778E+06     21.1721E+06     54.1227E+06     3.85292E+06    -166.657E-03     331.572E-03    -164.915E-03     153.451E-03    -170.910E-03     335.577E-03    -164.607E-03     140.358E-03
             837     10.6881E-03     114.747E-03    -40.2239E+06     63.7533E+06     66.1235E+06     3.35762E+06    -165.933E-03     330.774E-03    -164.841E-03     149.599E-03    -170.303E-03     335.036E-03    -164.545E-03     136.343E-03
             838     11.4527E-03     114.923E-03    -33.0365E+06     82.9403E+06     74.6779E+06     3.03819E+06    -165.025E-03     329.801E-03    -164.776E-03     141.385E-03    -169.263E-03     333.999E-03    -164.475E-03     128.268E-03
             839     12.2167E-03     115.085E-03    -25.5266E+06     88.5944E+06     86.6729E+06     2.98750E+06    -164.196E-03     328.937E-03    -164.741E-03     130.467E-03    -168.141E-03     332.855E-03    -164.399E-03     117.672E-03
             840     12.9824E-03     115.232E-03    -18.3822E+06     94.1991E+06     98.9269E+06     1.99608E+06    -163.374E-03     328.082E-03    -164.708E-03     114.204E-03    -166.802E-03     331.492E-03    -164.323E-03     102.090E-03
             841     13.7457E-03     115.351E-03    -11.5453E+06     100.419E+06     103.860E+06     605.263E+03    -162.507E-03     327.142E-03    -164.635E-03     99.1023E-03    -165.534E-03     330.184E-03    -164.245E-03     87.3974E-03
             842     14.5109E-03     115.462E-03    -5.18723E+06     102.387E+06     102.249E+06     106.619E+03    -161.933E-03     326.466E-03    -164.533E-03     65.1488E-03    -163.957E-03     328.539E-03    -164.163E-03     55.7616E-03
             843     762.429E-06     114.380E-03    -141.835E+06    -326.790E+06    -139.072E+06    -118.892E+03    -165.183E-03     330.442E-03    -165.259E-03     19.2649E-03    -165.252E-03     329.251E-03    -165.274E-03     18.2001E-03
             844     1.52591E-03     114.414E-03    -137.354E+06    -317.582E+06    -126.167E+06     299.065E+03    -165.119E-03     330.277E-03    -165.158E-03     34.8402E-03    -165.272E-03     329.181E-03    -165.129E-03     32.8765E-03
             845     2.28942E-03     114.466E-03    -130.784E+06    -301.020E+06    -109.113E+06     323.702E+03    -165.416E-03     330.531E-03    -165.116E-03     50.9326E-03    -165.710E-03     329.610E-03    -165.035E-03     47.9821E-03
             846     3.05255E-03     114.539E-03    -122.909E+06    -277.940E+06    -91.2321E+06     200.987E+03    -165.814E-03     330.932E-03    -165.118E-03     66.8161E-03    -166.311E-03     330.271E-03    -164.993E-03     62.8205E-03
             847     3.81579E-03     114.631E-03    -114.509E+06    -255.647E+06    -72.0379E+06     219.790E+03    -166.259E-03     331.406E-03    -165.147E-03     81.9618E-03    -167.018E-03     331.060E-03    -164.970E-03     76.8602E-03
             848     4.57867E-03     114.741E-03    -105.651E+06    -232.218E+06    -52.8685E+06     510.241E+03    -166.685E-03     331.864E-03    -165.179E-03     96.3097E-03    -167.769E-03     331.901E-03    -164.953E-03     90.0493E-03
             849     5.34217E-03     114.868E-03    -96.6419E+06    -203.553E+06    -35.8163E+06     732.746E+03    -167.016E-03     332.204E-03    -165.187E-03     109.603E-03    -168.492E-03     332.717E-03    -164.931E-03     102.152E-03
             850     6.10557E-03     115.010E-03    -87.8447E+06    -176.601E+06    -20.9082E+06     775.222E+03    -167.353E-03     332.535E-03    -165.182E-03     121.793E-03    -169.277E-03     333.581E-03    -164.903E-03     113.124E-03
             851     6.86863E-03     115.165E-03    -79.0529E+06    -145.227E+06    -6.08224E+06     1.28535E+06    -167.583E-03     332.751E-03    -165.168E-03     132.648E-03    -170.010E-03     334.399E-03    -164.873E-03     122.792E-03
             852     7.63262E-03     115.333E-03    -70.5506E+06    -108.646E+06     9.11264E+06     1.84920E+06    -167.697E-03     332.843E-03    -165.146E-03     141.808E-03    -170.659E-03     335.143E-03    -164.841E-03     130.844E-03
             853     8.39567E-03     115.510E-03    -62.4902E+06    -71.8785E+06     23.5128E+06     2.54316E+06    -167.640E-03     332.758E-03    -165.118E-03     148.710E-03    -171.121E-03     335.694E-03    -164.806E-03     136.781E-03
             854     9.15939E-03     115.694E-03    -54.5369E+06    -29.7032E+06     38.2765E+06     3.65695E+06    -167.281E-03     332.357E-03    -165.076E-03     152.602E-03    -171.208E-03     335.875E-03    -164.763E-03     139.948E-03
             855     9.92309E-03     115.880E-03    -46.6689E+06     20.7076E+06     53.5786E+06     4.52744E+06    -166.648E-03     331.659E-03    -165.011E-03     153.024E-03    -170.891E-03     335.655E-03    -164.706E-03     139.936E-03
             856     10.6876E-03     116.064E-03    -39.0116E+06     64.8904E+06     66.3856E+06     4.43335E+06    -165.759E-03     330.685E-03    -164.926E-03     149.148E-03    -170.115E-03     334.941E-03    -164.632E-03     135.924E-03
             857     11.4517E-03     116.239E-03    -31.9901E+06     83.7129E+06     74.7724E+06     3.35996E+06    -164.904E-03     329.751E-03    -164.847E-03     140.972E-03    -169.129E-03     333.942E-03    -164.548E-03     127.873E-03
             858     12.2166E-03     116.401E-03    -24.8767E+06     89.7670E+06     86.6755E+06     2.26852E+06    -164.107E-03     328.910E-03    -164.802E-03     129.886E-03    -168.042E-03     332.824E-03    -164.463E-03     117.088E-03
             859     12.9805E-03     116.547E-03    -17.2566E+06     95.4954E+06     99.4885E+06     1.62042E+06    -163.124E-03     327.883E-03    -164.760E-03     113.424E-03    -166.536E-03     331.285E-03    -164.376E-03     101.326E-03
             860     13.7460E-03     116.669E-03    -10.7324E+06     101.805E+06     105.003E+06     1.24540E+06    -162.462E-03     327.141E-03    -164.680E-03     99.7663E-03    -165.495E-03     330.194E-03    -164.287E-03     88.0788E-03
             861     14.5094E-03     116.777E-03    -5.00019E+06     103.774E+06     103.232E+06     485.004E+03    -161.638E-03     326.203E-03    -164.565E-03     66.1367E-03    -163.680E-03     328.296E-03    -164.192E-03     56.7470E-03
             862     763.309E-06     115.699E-03    -141.979E+06    -326.616E+06    -139.135E+06    -160.564E+03    -165.202E-03     330.380E-03    -165.178E-03     19.0282E-03    -165.271E-03     329.189E-03    -165.194E-03     17.9647E-03
             863     1.52614E-03     115.731E-03    -138.257E+06    -317.931E+06    -127.512E+06     100.509E+03    -165.351E-03     330.526E-03    -165.176E-03     34.8140E-03    -165.505E-03     329.431E-03    -165.152E-03     32.8540E-03
             864     2.28880E-03     115.784E-03    -131.600E+06    -300.382E+06    -110.470E+06    -28.8856E+03    -165.681E-03     330.893E-03    -165.212E-03     50.9863E-03    -165.979E-03     329.978E-03    -165.138E-03     48.0252E-03
             865     3.05193E-03     115.857E-03    -123.970E+06    -277.455E+06    -92.6958E+06    -397.157E+03    -165.964E-03     331.209E-03    -165.245E-03     66.6623E-03    -166.465E-03     330.554E-03    -165.127E-03     62.6487E-03
             866     3.81516E-03     115.949E-03    -115.428E+06    -255.844E+06    -72.8607E+06    -300.705E+03    -166.308E-03     331.583E-03    -165.275E-03     81.7887E-03    -167.069E-03     331.237E-03    -165.101E-03     76.6727E-03
             867     4.57848E-03     116.059E-03    -106.486E+06    -232.518E+06    -53.7960E+06    -213.716E+03    -166.748E-03     332.043E-03    -165.295E-03     96.1685E-03    -167.833E-03     332.081E-03    -165.073E-03     89.8931E-03
             868     5.34140E-03     116.185E-03    -97.2285E+06    -203.629E+06    -37.3252E+06    -214.867E+03    -167.152E-03     332.451E-03    -165.298E-03     109.453E-03    -168.628E-03     332.966E-03    -165.049E-03     101.975E-03
             869     6.10467E-03     116.327E-03    -88.2372E+06    -176.758E+06    -22.0801E+06     39.0141E+03    -167.498E-03     332.798E-03    -165.300E-03     121.525E-03    -169.420E-03     333.844E-03    -165.026E-03     112.832E-03
             870     6.86824E-03     116.483E-03    -79.7739E+06    -146.465E+06    -7.69355E+06     254.650E+03    -167.783E-03     333.078E-03    -165.294E-03     132.216E-03    -170.207E-03     334.721E-03    -165.005E-03     122.325E-03
             871     7.63098E-03     116.650E-03    -71.3237E+06    -110.243E+06     7.18554E+06     852.840E+03    -167.833E-03     333.113E-03    -165.279E-03     141.324E-03    -170.792E-03     335.406E-03    -164.980E-03     130.325E-03
             872     8.39474E-03     116.828E-03    -62.9990E+06    -73.6365E+06     21.8568E+06     1.75294E+06    -167.610E-03     332.858E-03    -165.248E-03     148.294E-03    -171.083E-03     335.783E-03    -164.941E-03     136.351E-03
             873     9.15833E-03     117.011E-03    -54.6002E+06    -32.2565E+06     36.7048E+06     2.75693E+06    -167.245E-03     332.440E-03    -165.196E-03     152.310E-03    -171.162E-03     335.943E-03    -164.886E-03     139.643E-03
             874     9.92225E-03     117.198E-03    -46.1424E+06     18.7504E+06     52.5676E+06     3.93822E+06    -166.617E-03     331.739E-03    -165.121E-03     152.615E-03    -170.849E-03     335.721E-03    -164.819E-03     139.515E-03
             875     10.6860E-03     117.380E-03    -38.0033E+06     65.4732E+06     66.2113E+06     4.23796E+06    -165.727E-03     330.756E-03    -165.029E-03     148.528E-03    -170.072E-03     335.006E-03    -164.738E-03     135.295E-03
             876     11.4510E-03     117.555E-03    -30.4354E+06     85.4632E+06     75.4316E+06     3.73611E+06    -164.813E-03     329.757E-03    -164.943E-03     140.291E-03    -169.026E-03     333.946E-03    -164.646E-03     127.197E-03
             877     12.2149E-03     117.717E-03    -23.8935E+06     91.4778E+06     87.7432E+06     2.93006E+06    -163.870E-03     328.758E-03    -164.888E-03     129.477E-03    -167.797E-03     332.670E-03    -164.547E-03     116.707E-03
             878     12.9800E-03     117.863E-03    -18.0893E+06     96.7123E+06     99.3885E+06     1.80088E+06    -162.897E-03     327.723E-03    -164.826E-03     113.173E-03    -166.313E-03     331.129E-03    -164.443E-03     101.088E-03
             879     13.7452E-03     117.982E-03    -11.5131E+06     102.443E+06     104.585E+06     1.35094E+06    -161.719E-03     326.435E-03    -164.716E-03     98.7217E-03    -164.742E-03     329.478E-03    -164.325E-03     87.0843E-03
             880     14.5123E-03     118.094E-03    -5.52441E+06     105.089E+06     103.618E+06     831.638E+03    -161.152E-03     325.724E-03    -164.572E-03     64.8556E-03    -163.178E-03     327.803E-03    -164.198E-03     55.5397E-03
             881     762.672E-06     117.016E-03    -144.184E+06    -327.780E+06    -141.009E+06     557.062E+03    -165.472E-03     330.504E-03    -165.032E-03     18.7700E-03    -165.548E-03     329.313E-03    -165.052E-03     17.7266E-03
             882     1.52582E-03     117.049E-03    -139.971E+06    -316.806E+06    -128.858E+06     128.263E+03    -165.578E-03     330.852E-03    -165.274E-03     34.5722E-03    -165.741E-03     329.767E-03    -165.256E-03     32.6002E-03
             883     2.28893E-03     117.102E-03    -133.606E+06    -298.706E+06    -112.904E+06    -991.396E+03    -165.801E-03     331.138E-03    -165.337E-03     50.9163E-03    -166.108E-03     330.238E-03    -165.275E-03     47.9363E-03
             884     3.05163E-03     117.175E-03    -125.449E+06    -276.708E+06    -94.1069E+06    -1.46689E+06    -166.154E-03     331.536E-03    -165.382E-03     66.6782E-03    -166.662E-03     330.889E-03    -165.269E-03     62.6398E-03
             885     3.81443E-03     117.267E-03    -116.691E+06    -256.002E+06    -74.1138E+06    -1.33812E+06    -166.485E-03     331.908E-03    -165.423E-03     81.7574E-03    -167.252E-03     331.567E-03    -165.254E-03     76.6145E-03
             886     4.57755E-03     117.377E-03    -107.353E+06    -231.977E+06    -55.1613E+06    -1.19381E+06    -166.865E-03     332.309E-03    -165.443E-03     95.9882E-03    -167.953E-03     332.352E-03    -165.227E-03     89.6892E-03
             887     5.34088E-03     117.504E-03    -98.3389E+06    -203.204E+06    -38.8991E+06    -1.26104E+06    -167.335E-03     332.783E-03    -165.448E-03     109.144E-03    -168.813E-03     333.303E-03    -165.205E-03     101.639E-03
             888     6.10380E-03     117.645E-03    -89.5596E+06    -177.340E+06    -24.1891E+06    -1.18840E+06    -167.760E-03     333.220E-03    -165.460E-03     121.135E-03    -169.683E-03     334.266E-03    -165.194E-03     112.402E-03
             889     6.86653E-03     117.801E-03    -80.8010E+06    -146.860E+06    -9.49508E+06    -921.445E+03    -167.942E-03     333.406E-03    -165.464E-03     131.814E-03    -170.366E-03     335.050E-03    -165.182E-03     121.887E-03
             890     7.63000E-03     117.969E-03    -72.2409E+06    -111.255E+06     5.29979E+06    -624.222E+03    -167.877E-03     333.323E-03    -165.446E-03     140.877E-03    -170.832E-03     335.612E-03    -165.154E-03     129.844E-03
             891     8.39322E-03     118.145E-03    -63.4822E+06    -75.8103E+06     19.7541E+06     62.3633E+03    -167.617E-03     333.023E-03    -165.406E-03     147.704E-03    -171.081E-03     335.935E-03    -165.105E-03     135.727E-03
             892     9.15701E-03     118.329E-03    -54.9303E+06    -34.8686E+06     34.6417E+06     1.18879E+06    -167.195E-03     332.538E-03    -165.343E-03     151.666E-03    -171.098E-03     336.022E-03    -165.039E-03     138.975E-03
             893     9.92076E-03     118.514E-03    -46.8359E+06     15.5839E+06     50.4669E+06     2.71783E+06    -166.561E-03     331.820E-03    -165.259E-03     151.811E-03    -170.777E-03     335.778E-03    -164.961E-03     138.694E-03
             894     10.6852E-03     118.697E-03    -39.4248E+06     64.9171E+06     64.6764E+06     3.98277E+06    -165.669E-03     330.826E-03    -165.157E-03     147.816E-03    -170.008E-03     335.068E-03    -164.870E-03     134.576E-03
             895     11.4487E-03     118.871E-03    -32.6824E+06     87.3596E+06     73.8809E+06     3.48850E+06    -164.602E-03     329.657E-03    -165.055E-03     139.834E-03    -168.819E-03     333.854E-03    -164.765E-03     126.745E-03
             896     12.2142E-03     119.033E-03    -25.3129E+06     91.8621E+06     86.3548E+06     2.64593E+06    -163.479E-03     328.457E-03    -164.978E-03     128.890E-03    -167.402E-03     332.366E-03    -164.643E-03     116.142E-03
             897     12.9795E-03     119.178E-03    -17.9324E+06     98.0565E+06     100.319E+06     2.89689E+06    -162.378E-03     327.271E-03    -164.893E-03     112.880E-03    -165.787E-03     330.673E-03    -164.507E-03     100.861E-03
             898     13.7436E-03     119.299E-03    -11.8768E+06     104.731E+06     105.847E+06     1.72021E+06    -161.517E-03     326.278E-03    -164.761E-03     98.6207E-03    -164.548E-03     329.332E-03    -164.367E-03     87.0012E-03
             899     14.5090E-03     119.403E-03    -6.03935E+06     106.312E+06     103.525E+06     342.556E+03    -160.857E-03     325.455E-03    -164.598E-03     64.9753E-03    -162.893E-03     327.547E-03    -164.226E-03     55.6409E-03
             900     763.336E-06     118.335E-03    -145.867E+06    -328.046E+06    -142.832E+06    -119.969E+03    -165.449E-03     330.840E-03    -165.391E-03     19.2159E-03    -165.531E-03     329.654E-03    -165.418E-03     18.1577E-03
             901     1.52533E-03     118.367E-03    -140.753E+06    -314.953E+06    -130.941E+06    -766.573E+03    -165.760E-03     331.196E-03    -165.436E-03     34.6252E-03    -165.926E-03     330.124E-03    -165.430E-03     32.6363E-03
             902     2.28809E-03     118.420E-03    -134.682E+06    -295.750E+06    -114.723E+06    -1.75566E+06    -165.966E-03     331.468E-03    -165.502E-03     50.8778E-03    -166.280E-03     330.587E-03    -165.452E-03     47.8808E-03
             903     3.05114E-03     118.494E-03    -127.041E+06    -275.320E+06    -95.2758E+06    -2.43502E+06    -166.284E-03     331.833E-03    -165.550E-03     66.4502E-03    -166.799E-03     331.197E-03    -165.443E-03     62.3924E-03
             904     3.81410E-03     118.585E-03    -118.358E+06    -255.429E+06    -75.5299E+06    -2.58845E+06    -166.732E-03     332.329E-03    -165.597E-03     81.4764E-03    -167.505E-03     331.994E-03    -165.433E-03     76.3033E-03
             905     4.57677E-03     118.695E-03    -109.255E+06    -231.567E+06    -57.5000E+06    -2.49507E+06    -167.187E-03     332.822E-03    -165.634E-03     95.7106E-03    -168.282E-03     332.873E-03    -165.428E-03     89.3704E-03
             906     5.33946E-03     118.822E-03    -100.009E+06    -202.367E+06    -41.0419E+06    -2.53301E+06    -167.593E-03     333.249E-03    -165.656E-03     108.793E-03    -169.077E-03     333.779E-03    -165.423E-03     101.247E-03
             907     6.10233E-03     118.964E-03    -90.9279E+06    -176.869E+06    -26.2339E+06    -2.91049E+06    -167.927E-03     333.601E-03    -165.673E-03     120.747E-03    -169.855E-03     334.653E-03    -165.416E-03     111.969E-03
             908     6.86531E-03     119.120E-03    -81.8216E+06    -147.287E+06    -11.7451E+06    -2.92709E+06    -168.026E-03     333.697E-03    -165.671E-03     131.326E-03    -170.448E-03     335.340E-03    -165.398E-03     121.355E-03
             909     7.62831E-03     119.287E-03    -72.7382E+06    -111.861E+06     3.30903E+06    -2.56892E+06    -167.938E-03     333.582E-03    -165.644E-03     140.306E-03    -170.887E-03     335.866E-03    -165.360E-03     129.232E-03
             910     8.39165E-03     119.464E-03    -64.1407E+06    -77.3847E+06     17.5385E+06    -2.00849E+06    -167.755E-03     333.355E-03    -165.600E-03     147.031E-03    -171.211E-03     336.258E-03    -165.307E-03     135.001E-03
             911     9.15507E-03     119.646E-03    -55.9190E+06    -38.0735E+06     31.8689E+06    -540.811E+03    -167.277E-03     332.812E-03    -165.535E-03     150.813E-03    -171.168E-03     336.276E-03    -165.239E-03     138.079E-03
             912     9.91901E-03     119.832E-03    -47.9912E+06     11.3893E+06     47.5152E+06     1.77581E+06    -166.418E-03     331.857E-03    -165.439E-03     150.920E-03    -170.614E-03     335.786E-03    -165.149E-03     137.799E-03
             913     10.6827E-03     120.014E-03    -40.1373E+06     62.7056E+06     62.5266E+06     3.72333E+06    -165.347E-03     330.660E-03    -165.313E-03     147.052E-03    -169.669E-03     334.880E-03    -165.033E-03     133.835E-03
             914     11.4483E-03     120.188E-03    -32.5293E+06     89.1606E+06     73.4245E+06     4.10109E+06    -164.231E-03     329.413E-03    -165.182E-03     139.005E-03    -168.433E-03     333.603E-03    -164.897E-03     125.958E-03
             915     12.2125E-03     120.348E-03    -26.3612E+06     93.3454E+06     85.2893E+06     3.13262E+06    -163.120E-03     328.196E-03    -165.076E-03     128.281E-03    -167.037E-03     332.104E-03    -164.747E-03     115.569E-03
             916     12.9775E-03     120.493E-03    -19.8397E+06     97.8472E+06     98.4628E+06     2.00952E+06    -161.752E-03     326.711E-03    -164.959E-03     111.979E-03    -165.155E-03     330.105E-03    -164.580E-03     99.9849E-03
             917     13.7460E-03     120.611E-03    -11.9250E+06     106.938E+06     106.779E+06     1.35961E+06    -160.694E-03     325.487E-03    -164.793E-03     98.2778E-03    -163.712E-03     328.533E-03    -164.397E-03     86.7416E-03
             918     14.5104E-03     120.723E-03    -5.81425E+06     108.439E+06     105.010E+06     353.884E+03    -160.515E-03     325.114E-03    -164.598E-03     65.6570E-03    -162.552E-03     327.210E-03    -164.222E-03     56.3748E-03
             919     762.066E-06     119.653E-03    -145.187E+06    -325.423E+06    -142.967E+06    -1.19645E+06    -165.720E-03     331.330E-03    -165.610E-03     19.2435E-03    -165.801E-03     330.156E-03    -165.643E-03     18.1646E-03
             920     1.52563E-03     119.686E-03    -141.272E+06    -313.004E+06    -131.992E+06    -1.61244E+06    -165.899E-03     331.555E-03    -165.656E-03     34.6234E-03    -166.069E-03     330.494E-03    -165.657E-03     32.6261E-03
             921     2.28794E-03     119.739E-03    -135.188E+06    -292.643E+06    -115.698E+06    -2.24684E+06    -166.236E-03     331.947E-03    -165.711E-03     50.6402E-03    -166.556E-03     331.083E-03    -165.669E-03     47.6294E-03
             922     3.05036E-03     119.812E-03    -128.067E+06    -272.870E+06    -95.9575E+06    -2.99276E+06    -166.561E-03     332.340E-03    -165.779E-03     66.3254E-03    -167.085E-03     331.719E-03    -165.678E-03     62.2446E-03
             923     3.81287E-03     119.904E-03    -119.354E+06    -254.211E+06    -75.9826E+06    -3.52507E+06    -167.071E-03     332.918E-03    -165.848E-03     81.1616E-03    -167.850E-03     332.591E-03    -165.686E-03     75.9539E-03
             924     4.57556E-03     120.014E-03    -110.115E+06    -230.355E+06    -59.0166E+06    -3.85338E+06    -167.511E-03     333.409E-03    -165.898E-03     95.2100E-03    -168.608E-03     333.468E-03    -165.699E-03     88.8294E-03
             925     5.33807E-03     120.141E-03    -100.766E+06    -200.657E+06    -43.3098E+06    -4.52903E+06    -167.851E-03     333.774E-03    -165.923E-03     108.435E-03    -169.338E-03     334.316E-03    -165.703E-03     100.835E-03
             926     6.10066E-03     120.283E-03    -91.2562E+06    -175.573E+06    -28.2510E+06    -5.08576E+06    -168.057E-03     333.992E-03    -165.935E-03     120.264E-03    -169.983E-03     335.053E-03    -165.690E-03     111.434E-03
             927     6.86347E-03     120.439E-03    -82.1226E+06    -146.637E+06    -13.6718E+06    -5.29881E+06    -168.120E-03     334.042E-03    -165.922E-03     130.683E-03    -170.537E-03     335.687E-03    -165.659E-03     120.660E-03
             928     7.62642E-03     120.606E-03    -73.2585E+06    -112.791E+06     893.500E+03    -4.99675E+06    -168.099E-03     333.987E-03    -165.888E-03     139.605E-03    -171.040E-03     336.264E-03    -165.613E-03     128.476E-03
             929     8.38965E-03     120.782E-03    -64.6967E+06    -79.2475E+06     15.0221E+06    -3.79699E+06    -167.893E-03     333.733E-03    -165.840E-03     146.239E-03    -171.337E-03     336.622E-03    -165.556E-03     134.164E-03
             930     9.15281E-03     120.965E-03    -56.6251E+06    -41.3377E+06     29.2479E+06    -2.12052E+06    -167.260E-03     333.027E-03    -165.767E-03     149.908E-03    -171.133E-03     336.468E-03    -165.479E-03     137.146E-03
             931     9.91637E-03     121.148E-03    -48.5402E+06     6.05493E+06     44.4081E+06     343.404E+03    -166.255E-03     331.907E-03    -165.652E-03     150.159E-03    -170.430E-03     335.803E-03    -165.369E-03     137.025E-03
             932     10.6815E-03     121.331E-03    -40.5660E+06     59.6440E+06     60.3319E+06     2.63930E+06    -165.096E-03     330.597E-03    -165.501E-03     146.128E-03    -169.396E-03     334.790E-03    -165.227E-03     132.914E-03
             933     11.4454E-03     121.503E-03    -33.0259E+06     88.6613E+06     71.4650E+06     3.73547E+06    -163.802E-03     329.139E-03    -165.337E-03     137.846E-03    -167.983E-03     333.310E-03    -165.060E-03     124.827E-03
             934     12.2115E-03     121.663E-03    -25.4378E+06     94.9601E+06     84.5523E+06     3.93600E+06    -162.523E-03     327.717E-03    -165.195E-03     127.139E-03    -166.412E-03     331.608E-03    -164.873E-03     114.499E-03
             935     12.9779E-03     121.807E-03    -18.6038E+06     101.059E+06     98.9760E+06     2.08324E+06    -161.331E-03     326.378E-03    -165.047E-03     110.922E-03    -164.716E-03     329.769E-03    -164.671E-03     98.9605E-03
             936     13.7411E-03     121.925E-03    -12.2177E+06     107.510E+06     105.671E+06      29.748E+03    -160.055E-03     324.903E-03    -164.848E-03     96.7674E-03    -163.061E-03     327.940E-03    -164.458E-03     85.2234E-03
             937     14.5117E-03     122.031E-03    -4.96336E+06     109.145E+06     105.287E+06     87.3708E+03    -159.463E-03     324.077E-03    -164.614E-03     64.3667E-03    -161.476E-03     326.155E-03    -164.239E-03     55.1583E-03
             938     762.753E-06     120.972E-03    -148.065E+06    -321.506E+06    -144.719E+06    -1.45564E+06    -166.273E-03     332.048E-03    -165.775E-03     18.7174E-03    -166.372E-03     330.900E-03    -165.818E-03     17.6327E-03
             939     1.52445E-03     121.006E-03    -143.619E+06    -309.906E+06    -133.551E+06    -2.35987E+06    -166.170E-03     332.174E-03    -166.004E-03     34.5350E-03    -166.354E-03     331.136E-03    -166.015E-03     32.5129E-03
             940     2.28701E-03     121.059E-03    -137.160E+06    -289.994E+06    -116.666E+06    -2.81861E+06    -166.486E-03     332.522E-03    -166.036E-03     50.2422E-03    -166.817E-03     331.675E-03    -166.000E-03     47.2121E-03
             941     3.04960E-03     121.132E-03    -129.290E+06    -269.504E+06    -96.2750E+06    -3.77206E+06    -166.958E-03     333.066E-03    -166.108E-03     65.9250E-03    -167.492E-03     332.463E-03    -166.011E-03     61.8161E-03
             942     3.81182E-03     121.225E-03    -120.066E+06    -251.461E+06    -77.1576E+06    -4.93416E+06    -167.416E-03     333.602E-03    -166.186E-03     80.8041E-03    -168.200E-03     333.291E-03    -166.033E-03     75.5538E-03
             943     4.57374E-03     121.334E-03    -110.423E+06    -227.835E+06    -60.7069E+06     -5.9173E+06    -167.788E-03     334.021E-03    -166.232E-03     94.8313E-03    -168.888E-03     334.095E-03    -166.045E-03     88.3959E-03
             944     5.33624E-03     121.461E-03    -100.840E+06    -197.861E+06    -45.3288E+06    -6.92588E+06    -168.059E-03     334.304E-03    -166.245E-03     107.983E-03    -169.545E-03     334.862E-03    -166.039E-03     100.326E-03
             945     6.09868E-03     121.603E-03    -91.5764E+06    -173.841E+06    -30.5707E+06    -7.57829E+06    -168.233E-03     334.478E-03    -166.245E-03     119.686E-03    -170.156E-03     335.548E-03    -166.013E-03     110.801E-03
             946     6.86129E-03     121.758E-03    -82.5109E+06    -145.453E+06    -15.8398E+06    -7.85279E+06    -168.351E-03     334.576E-03    -166.225E-03     130.079E-03    -170.765E-03     336.227E-03    -165.974E-03     119.993E-03
             947     7.62419E-03     121.925E-03    -73.7015E+06    -113.473E+06    -1.36813E+06    -7.55434E+06    -168.313E-03     334.503E-03    -166.190E-03     138.770E-03    -171.244E-03     336.774E-03    -165.926E-03     127.577E-03
             948     8.38680E-03     122.101E-03    -65.0403E+06    -81.8577E+06     12.3982E+06    -6.21167E+06    -167.849E-03     333.979E-03    -166.130E-03     145.345E-03    -171.275E-03     336.847E-03    -165.855E-03     133.233E-03
             949     9.15032E-03     122.283E-03    -56.4154E+06    -44.8449E+06     26.7932E+06    -4.05679E+06    -167.126E-03     333.157E-03    -166.032E-03     149.020E-03    -170.974E-03     336.569E-03    -165.751E-03     136.238E-03
             950     9.91463E-03     122.466E-03    -47.9484E+06     1.29457E+06     42.0792E+06    -1.80548E+06    -166.206E-03     332.102E-03    -165.896E-03     149.006E-03    -170.350E-03     335.959E-03    -165.618E-03     135.842E-03
             951     10.6781E-03     122.647E-03    -39.7261E+06     54.1062E+06     58.0954E+06     1.47013E+06    -164.779E-03     330.500E-03    -165.721E-03     144.954E-03    -169.040E-03     334.644E-03    -165.451E-03     131.759E-03
             952     11.4440E-03     122.819E-03    -32.6107E+06     87.3390E+06     69.6572E+06     4.05767E+06    -163.300E-03     328.815E-03    -165.516E-03     136.995E-03    -167.452E-03     332.960E-03    -165.247E-03     124.038E-03
             953     12.2091E-03     122.977E-03    -26.1186E+06     97.1510E+06     82.9013E+06     3.04257E+06    -161.807E-03     327.131E-03    -165.324E-03     126.358E-03    -165.680E-03     331.015E-03    -165.012E-03     113.775E-03
             954     12.9746E-03     123.121E-03    -18.6184E+06     104.153E+06     99.3732E+06     1.70922E+06    -160.347E-03     325.473E-03    -165.127E-03     111.018E-03    -163.719E-03     328.861E-03    -164.754E-03     99.1631E-03
             955     13.7445E-03     123.237E-03    -11.4115E+06     110.840E+06     107.724E+06     695.393E+03    -159.556E-03     324.442E-03    -164.886E-03     97.8968E-03    -162.573E-03     327.500E-03    -164.492E-03     86.4096E-03
             956     14.5067E-03     123.344E-03    -5.52566E+06     109.306E+06     104.959E+06    -122.372E+03    -158.781E-03     323.393E-03    -164.612E-03     66.0342E-03    -160.820E-03     325.495E-03    -164.238E-03     56.8149E-03
             957     761.624E-06     122.293E-03    -150.113E+06    -316.077E+06    -147.303E+06    -1.64389E+06    -166.578E-03     333.005E-03    -166.427E-03     18.3397E-03    -166.691E-03     331.890E-03    -166.487E-03     17.2287E-03
             958     1.52411E-03     122.326E-03    -145.789E+06    -305.165E+06    -134.870E+06    -3.36961E+06    -166.557E-03     333.030E-03    -166.474E-03     34.2438E-03    -166.756E-03     332.020E-03    -166.494E-03     32.2017E-03
             959     2.28624E-03     122.380E-03    -138.980E+06    -286.965E+06    -117.623E+06    -4.32326E+06    -166.895E-03     333.380E-03    -166.486E-03     50.2023E-03    -167.238E-03     332.553E-03    -166.456E-03     47.1344E-03
             960     3.04781E-03     122.453E-03    -130.109E+06    -265.654E+06    -97.9785E+06    -5.26147E+06    -167.333E-03     333.873E-03    -166.540E-03     65.7092E-03    -167.874E-03     333.293E-03    -166.456E-03     61.5623E-03
             961     3.80978E-03     122.545E-03    -120.867E+06    -246.745E+06    -79.7381E+06    -6.74130E+06    -167.670E-03     334.260E-03    -166.591E-03     80.5400E-03    -168.461E-03     333.978E-03    -166.456E-03     75.2454E-03
             962     4.57223E-03     122.655E-03    -111.484E+06    -223.345E+06    -62.8136E+06    -8.61194E+06    -168.071E-03     334.689E-03    -166.618E-03     94.5550E-03    -169.179E-03     334.791E-03    -166.447E-03     88.0551E-03
             963     5.33406E-03     122.782E-03    -101.867E+06    -194.844E+06    -47.3289E+06    -9.87009E+06    -168.340E-03     334.962E-03    -166.622E-03     107.439E-03    -169.831E-03     335.536E-03    -166.428E-03     99.7181E-03
             964     6.09647E-03     122.923E-03    -92.5275E+06    -171.222E+06    -32.7604E+06    -10.4761E+06    -168.514E-03     335.128E-03    -166.614E-03     119.015E-03    -170.438E-03     336.211E-03    -166.395E-03     110.061E-03
             965     6.85890E-03     123.079E-03    -83.5576E+06    -144.127E+06    -18.3409E+06    -10.9629E+06    -168.632E-03     335.222E-03    -166.590E-03     129.314E-03    -171.043E-03     336.878E-03    -166.352E-03     119.155E-03
             966     7.62096E-03     123.245E-03    -74.5545E+06    -113.873E+06    -3.80749E+06    -10.6181E+06    -168.396E-03     334.941E-03    -166.545E-03     137.957E-03    -171.318E-03     337.205E-03    -166.291E-03     126.707E-03
             967     8.38417E-03     123.420E-03    -65.5043E+06    -83.5023E+06     10.1377E+06    -9.58658E+06    -167.836E-03     334.300E-03    -166.465E-03     144.216E-03    -171.241E-03     337.148E-03    -166.198E-03     132.055E-03
             968     9.14782E-03     123.601E-03    -56.2769E+06    -48.9527E+06     24.1704E+06    -7.72900E+06    -167.025E-03     333.367E-03    -166.342E-03     147.751E-03    -170.840E-03     336.739E-03    -166.068E-03     134.931E-03
             969     9.91084E-03     123.784E-03    -47.2472E+06    -4.06999E+06     39.5894E+06    -4.52962E+06    -165.775E-03     331.944E-03    -166.169E-03     147.979E-03    -169.876E-03     335.748E-03    -165.897E-03     134.835E-03
             970     10.6762E-03     123.963E-03    -39.2808E+06     45.3159E+06     55.0450E+06     145.698E+03    -164.219E-03     330.163E-03    -165.944E-03     144.247E-03    -168.434E-03     334.240E-03    -165.677E-03     131.110E-03
             971     11.4413E-03     124.134E-03    -32.0223E+06     84.2870E+06     67.1488E+06     4.03999E+06    -162.503E-03     328.176E-03    -165.673E-03     136.660E-03    -166.619E-03     332.283E-03    -165.413E-03     123.806E-03
             972     12.2077E-03     124.292E-03    -25.2707E+06     102.257E+06     82.0761E+06     3.74822E+06    -160.929E-03     326.342E-03    -165.413E-03     126.279E-03    -164.782E-03     330.231E-03    -165.115E-03     113.818E-03
             973     12.9764E-03     124.431E-03    -18.8831E+06     106.015E+06     98.2633E+06     1.14970E+06    -159.548E-03     324.713E-03    -165.165E-03     110.661E-03    -162.911E-03     328.100E-03    -164.800E-03     98.8705E-03
             974     13.7416E-03     124.550E-03    -11.7179E+06     112.389E+06     108.334E+06     15.9843E+03    -158.452E-03     323.331E-03    -164.879E-03     97.2263E-03    -161.453E-03     326.375E-03    -164.483E-03     85.8343E-03
             975     14.5145E-03     124.654E-03    -4.95671E+06     110.321E+06     106.418E+06     205.541E+03    -157.916E-03     322.474E-03    -164.557E-03     64.9597E-03    -159.934E-03     324.557E-03    -164.178E-03     55.8296E-03
             976     761.606E-06     123.614E-03    -149.022E+06    -308.949E+06    -146.050E+06    -2.68980E+06    -166.940E-03     333.963E-03    -167.023E-03     18.6046E-03    -167.061E-03     332.882E-03    -167.089E-03     17.4751E-03
             977     1.52301E-03     123.648E-03    -144.792E+06    -299.224E+06    -134.697E+06    -3.98430E+06    -167.139E-03     334.109E-03    -166.970E-03     34.1478E-03    -167.343E-03     333.128E-03    -167.000E-03     32.0781E-03
             978     2.28463E-03     123.701E-03    -138.498E+06    -281.837E+06    -118.572E+06    -5.62820E+06    -167.377E-03     334.370E-03    -166.993E-03     50.2158E-03    -167.725E-03     333.570E-03    -166.977E-03     47.1121E-03
             979     3.04662E-03     123.775E-03    -130.489E+06    -260.521E+06    -100.481E+06    -7.22019E+06    -167.685E-03     334.703E-03    -167.019E-03     65.5605E-03    -168.231E-03     334.153E-03    -166.954E-03     61.3670E-03
             980     3.80844E-03     123.867E-03    -121.439E+06    -240.704E+06    -82.1102E+06    -9.12667E+06    -168.061E-03     335.108E-03    -167.047E-03     80.2228E-03    -168.860E-03     334.860E-03    -166.932E-03     74.8718E-03
             981     4.56985E-03     123.977E-03    -111.919E+06    -217.454E+06    -64.4482E+06    -11.1873E+06    -168.411E-03     335.476E-03    -167.065E-03     94.0868E-03    -169.525E-03     335.608E-03    -166.910E-03     87.5278E-03
             982     5.33187E-03     124.104E-03    -103.011E+06    -191.097E+06    -48.7467E+06    -12.3537E+06    -168.691E-03     335.755E-03    -167.064E-03     106.718E-03    -170.187E-03     336.348E-03    -166.881E-03     98.9352E-03
             983     6.09365E-03     124.245E-03    -94.3324E+06    -167.379E+06    -34.4442E+06    -13.4962E+06    -168.898E-03     335.950E-03    -167.052E-03     118.316E-03    -170.829E-03     337.052E-03    -166.845E-03     109.289E-03
             984     6.85542E-03     124.400E-03    -85.2095E+06    -141.221E+06    -20.3028E+06    -14.6254E+06    -168.787E-03     335.804E-03    -167.017E-03     128.507E-03    -171.198E-03     337.470E-03    -166.790E-03     118.281E-03
             985     7.61830E-03     124.566E-03    -75.8577E+06    -113.669E+06    -6.17468E+06    -14.6590E+06    -168.398E-03     335.343E-03    -166.945E-03     136.946E-03    -171.306E-03     337.596E-03    -166.701E-03     125.645E-03
             986     8.38090E-03     124.740E-03    -66.5005E+06    -84.4474E+06     7.69180E+06    -13.7507E+06    -167.759E-03     334.591E-03    -166.832E-03     143.299E-03    -171.145E-03     337.418E-03    -166.574E-03     131.099E-03
             987     9.14348E-03     124.920E-03    -57.6734E+06    -52.3474E+06     21.2106E+06    -12.1167E+06    -166.581E-03     333.243E-03    -166.662E-03     147.146E-03    -170.371E-03     336.581E-03    -166.397E-03     134.326E-03
             988     9.90882E-03     125.101E-03    -49.1294E+06    -11.8009E+06     35.2492E+06    -8.46970E+06    -165.026E-03     331.446E-03    -166.420E-03     147.557E-03    -169.088E-03     335.189E-03    -166.156E-03     134.469E-03
             989     10.6739E-03     125.279E-03    -40.5499E+06     34.0966E+06     50.4588E+06    -2.30560E+06    -163.382E-03     329.503E-03    -166.121E-03     143.954E-03    -167.545E-03     333.497E-03    -165.860E-03     130.917E-03
             990     11.4400E-03     125.448E-03    -32.6565E+06     79.4993E+06     62.9966E+06     2.59894E+06    -161.600E-03     327.371E-03    -165.770E-03     136.240E-03    -165.672E-03     331.426E-03    -165.523E-03     123.501E-03
             991     12.2082E-03     125.602E-03    -25.2064E+06     105.691E+06     79.4975E+06     3.28197E+06    -159.998E-03     325.438E-03    -165.440E-03     126.056E-03    -163.819E-03     329.315E-03    -165.159E-03     113.727E-03
             992     12.9736E-03     125.746E-03    -18.3696E+06     109.453E+06     97.9123E+06     2.06111E+06    -158.743E-03     323.889E-03    -165.146E-03     111.093E-03    -162.089E-03     327.275E-03    -164.789E-03     99.4342E-03
             993     13.7442E-03     125.857E-03    -12.8597E+06     113.897E+06     108.267E+06     688.646E+03    -157.778E-03     322.601E-03    -164.823E-03     98.4890E-03    -160.786E-03     325.654E-03    -164.428E-03     87.1925E-03
             994     14.5079E-03     125.966E-03    -6.58556E+06     110.249E+06     106.480E+06    -370.076E+03    -156.809E-03     321.267E-03    -164.458E-03     65.6894E-03    -158.837E-03     323.354E-03    -164.076E-03     56.6091E-03
             995     761.410E-06     124.939E-03    -147.948E+06    -300.444E+06    -145.096E+06    -2.25825E+06    -167.474E-03     334.746E-03    -167.273E-03     18.8745E-03    -167.603E-03     333.704E-03    -167.348E-03     17.7560E-03
             996     1.52248E-03     124.971E-03    -143.628E+06    -291.934E+06    -133.708E+06    -4.95761E+06    -167.874E-03     335.304E-03    -167.430E-03     34.2646E-03    -168.085E-03     334.356E-03    -167.467E-03     32.1663E-03
             997     2.28366E-03     125.025E-03    -136.769E+06    -275.303E+06    -118.281E+06    -6.94411E+06    -168.004E-03     335.537E-03    -167.533E-03     49.9420E-03    -168.353E-03     334.766E-03    -167.527E-03     46.8000E-03
             998     3.04476E-03     125.098E-03    -129.222E+06    -253.593E+06    -100.973E+06    -8.68300E+06    -168.168E-03     335.730E-03    -167.562E-03     65.1480E-03    -168.717E-03     335.213E-03    -167.512E-03     60.9103E-03
             999     3.80598E-03     125.190E-03    -121.269E+06    -232.777E+06    -82.6511E+06    -11.1229E+06    -168.542E-03     336.123E-03    -167.581E-03     79.7528E-03    -169.349E-03     335.913E-03    -167.481E-03     74.3486E-03
            1000     4.56755E-03     125.300E-03    -112.862E+06    -211.183E+06    -65.6142E+06    -13.3811E+06    -168.845E-03     336.437E-03    -167.592E-03     93.4268E-03    -169.968E-03     336.599E-03    -167.450E-03     86.8166E-03
            1001     5.32893E-03     125.426E-03    -103.819E+06    -186.715E+06    -49.7116E+06    -14.6647E+06    -169.067E-03     336.649E-03    -167.583E-03     106.066E-03    -170.565E-03     337.260E-03    -167.410E-03     98.2288E-03
            1002     6.09043E-03     125.568E-03    -94.4293E+06    -161.259E+06    -34.6132E+06    -16.2291E+06    -169.056E-03     336.602E-03    -167.546E-03     117.617E-03    -170.985E-03     337.724E-03    -167.348E-03     108.548E-03
            1003     6.85253E-03     125.722E-03    -85.4583E+06    -136.973E+06    -20.9911E+06    -17.6629E+06    -168.789E-03     336.259E-03    -167.469E-03     127.931E-03    -171.192E-03     337.933E-03    -167.252E-03     117.681E-03
            1004     7.61439E-03     125.887E-03    -77.1524E+06    -111.972E+06    -8.00274E+06    -18.1144E+06    -168.228E-03     335.574E-03    -167.346E-03     136.590E-03    -171.125E-03     337.823E-03    -167.112E-03     125.278E-03
            1005     8.37731E-03     126.060E-03    -68.9355E+06    -84.2489E+06     4.89671E+06    -17.8692E+06    -167.159E-03     334.319E-03    -167.160E-03     143.235E-03    -170.529E-03     337.130E-03    -166.913E-03     131.069E-03
            1006     9.14223E-03     126.238E-03    -60.3475E+06    -55.1014E+06     17.8438E+06    -16.3004E+06    -165.867E-03     332.774E-03    -166.907E-03     147.093E-03    -169.627E-03     336.073E-03    -166.651E-03     134.341E-03
            1007     9.90640E-03     126.417E-03    -51.5862E+06    -19.1363E+06     30.7259E+06    -12.9150E+06    -164.293E-03     330.880E-03    -166.588E-03     147.425E-03    -168.311E-03     334.558E-03    -166.331E-03     134.417E-03
            1008     10.6725E-03     126.594E-03    -42.6313E+06     21.2870E+06     44.8504E+06    -6.99289E+06    -162.402E-03     328.615E-03    -166.213E-03     143.953E-03    -166.504E-03     332.511E-03    -165.958E-03     131.035E-03
            1009     11.4403E-03     126.760E-03    -33.8332E+06     71.8303E+06     57.7896E+06    -382.195E+03    -160.655E-03     326.434E-03    -165.779E-03     136.601E-03    -164.672E-03     330.419E-03    -165.545E-03     124.008E-03
            1010     12.2064E-03     126.916E-03    -26.6372E+06     106.485E+06     75.6280E+06     2.48783E+06    -158.900E-03     324.273E-03    -165.373E-03     126.754E-03    -162.695E-03     328.132E-03    -165.110E-03     114.594E-03
            1011     12.9783E-03     127.052E-03    -19.9346E+06     111.665E+06     95.9495E+06     2.06465E+06    -157.718E-03     322.739E-03    -165.020E-03     112.496E-03    -161.051E-03     326.118E-03    -164.674E-03     101.019E-03
            1012     13.7449E-03     127.170E-03    -11.8219E+06     117.491E+06     109.664E+06     529.213E+03    -156.862E-03     321.517E-03    -164.655E-03     99.4085E-03    -159.861E-03     324.573E-03    -164.260E-03     88.2354E-03
            1013     14.5187E-03     127.272E-03    -5.89367E+06     110.832E+06     107.680E+06    -734.357E+03    -156.231E-03     320.492E-03    -164.261E-03     66.5778E-03    -158.262E-03     322.584E-03    -163.875E-03     57.5249E-03
            1014     761.023E-06     126.262E-03    -146.960E+06    -292.661E+06    -144.253E+06    -2.22799E+06    -168.163E-03     336.027E-03    -167.864E-03     18.7620E-03    -168.299E-03     335.021E-03    -167.948E-03     17.6424E-03
            1015     1.52179E-03     126.296E-03    -142.900E+06    -282.145E+06    -132.165E+06    -5.02310E+06    -168.378E-03     336.425E-03    -168.047E-03     33.8756E-03    -168.600E-03     335.521E-03    -168.091E-03     31.7739E-03
            1016     2.28191E-03     126.350E-03    -136.834E+06    -266.370E+06    -116.658E+06    -8.55955E+06    -168.571E-03     336.699E-03    -168.127E-03     49.5328E-03    -168.935E-03     335.969E-03    -168.126E-03     46.3559E-03
            1017     3.04292E-03     126.422E-03    -128.957E+06    -247.384E+06    -100.139E+06    -10.5924E+06    -168.789E-03     336.949E-03    -168.160E-03     65.0071E-03    -169.347E-03     336.461E-03    -168.115E-03     60.7237E-03
            1018     3.80387E-03     126.515E-03    -120.687E+06    -224.715E+06    -81.8480E+06    -11.6247E+06    -169.053E-03     337.225E-03    -168.172E-03     79.5307E-03    -169.867E-03     337.050E-03    -168.080E-03     74.1060E-03
            1019     4.56463E-03     126.624E-03    -112.664E+06    -202.273E+06    -64.3967E+06    -14.1651E+06    -169.268E-03     337.435E-03    -168.167E-03     93.0830E-03    -170.399E-03     337.635E-03    -168.032E-03     86.4513E-03
            1020     5.32568E-03     126.751E-03    -103.753E+06    -179.567E+06    -49.2851E+06    -17.6178E+06    -169.220E-03     337.338E-03    -168.118E-03     105.881E-03    -170.721E-03     337.977E-03    -167.954E-03     98.0092E-03
            1021     6.08720E-03     126.891E-03    -94.4187E+06    -156.089E+06    -35.3063E+06    -19.1438E+06    -168.950E-03     336.965E-03    -168.015E-03     117.567E-03    -170.873E-03     338.101E-03    -167.828E-03     108.497E-03
            1022     6.84917E-03     127.044E-03    -86.2028E+06    -132.502E+06    -21.8632E+06    -19.4318E+06    -168.485E-03     336.347E-03    -167.862E-03     128.073E-03    -170.879E-03     338.028E-03    -167.654E-03     117.867E-03
            1023     7.61213E-03     127.209E-03    -78.4643E+06    -107.609E+06    -8.71023E+06    -20.2202E+06    -167.562E-03     335.211E-03    -167.648E-03     136.807E-03    -170.443E-03     337.456E-03    -167.422E-03     125.586E-03
            1024     8.37605E-03     127.380E-03    -70.3626E+06    -81.9007E+06     3.65301E+06    -20.8714E+06    -166.433E-03     333.799E-03    -167.366E-03     143.454E-03    -169.774E-03     336.589E-03    -167.127E-03     131.395E-03
            1025     9.14005E-03     127.556E-03    -61.7983E+06    -56.3379E+06     15.5302E+06    -20.4346E+06    -165.025E-03     332.050E-03    -167.025E-03     147.265E-03    -168.740E-03     335.301E-03    -166.776E-03     134.640E-03
            1026     9.90609E-03     127.734E-03    -53.0946E+06    -25.2934E+06     27.1412E+06    -17.5592E+06    -163.204E-03     329.820E-03    -166.615E-03     147.839E-03    -167.160E-03     333.418E-03    -166.366E-03     135.000E-03
            1027     10.6732E-03     127.906E-03    -44.3157E+06     10.1858E+06     40.2983E+06    -12.3433E+06    -161.358E-03     327.513E-03    -166.155E-03     144.985E-03    -165.396E-03     331.313E-03    -165.904E-03     132.233E-03
            1028     11.4403E-03     128.073E-03    -35.1669E+06     60.1797E+06     52.5405E+06    -5.77606E+06    -159.403E-03     325.035E-03    -165.632E-03     138.132E-03    -163.355E-03     328.924E-03    -165.405E-03     125.735E-03
            1029     12.2116E-03     128.224E-03    -25.7659E+06     102.177E+06     71.0543E+06     83.8088E+03    -158.009E-03     323.153E-03    -165.144E-03     128.380E-03    -161.751E-03     326.960E-03    -164.899E-03     116.412E-03
            1030     12.9782E-03     128.363E-03    -17.6359E+06     114.439E+06     93.9991E+06     1.78919E+06    -156.913E-03     321.658E-03    -164.744E-03     114.223E-03    -160.212E-03     325.027E-03    -164.415E-03     102.929E-03
            1031     13.7500E-03     128.478E-03    -11.3076E+06     119.791E+06     109.475E+06     126.365E+03    -156.182E-03     320.538E-03    -164.356E-03     101.275E-03    -159.173E-03     323.597E-03    -163.966E-03     90.2326E-03
            1032     14.5164E-03     128.578E-03    -5.85464E+06     110.432E+06     107.674E+06    -432.310E+03    -156.449E-03     320.415E-03    -163.966E-03     67.8496E-03    -158.489E-03     322.514E-03    -163.579E-03     58.7907E-03
            1033     759.873E-06     127.589E-03    -143.766E+06    -284.701E+06    -141.318E+06    -2.92236E+06    -169.032E-03     337.762E-03    -168.729E-03     18.8976E-03    -169.168E-03     336.786E-03    -168.815E-03     17.7586E-03
            1034     1.51988E-03     127.623E-03    -139.488E+06    -271.902E+06    -129.715E+06    -5.32342E+06    -168.781E-03     337.596E-03    -168.814E-03     33.7447E-03    -169.004E-03     336.734E-03    -168.866E-03     31.6490E-03
            1035     2.28107E-03     127.676E-03    -133.305E+06    -255.106E+06    -112.129E+06    -8.35658E+06    -168.986E-03     337.759E-03    -168.774E-03     49.4185E-03    -169.353E-03     337.073E-03    -168.771E-03     46.2437E-03
            1036     3.04102E-03     127.749E-03    -126.134E+06    -239.806E+06    -94.0598E+06    -11.1788E+06    -169.305E-03     338.079E-03    -168.774E-03     64.7891E-03    -169.865E-03     337.612E-03    -168.714E-03     60.4962E-03
            1037     3.80137E-03     127.841E-03    -117.520E+06    -218.123E+06    -78.4992E+06    -12.9599E+06    -169.403E-03     338.145E-03    -168.742E-03     79.5387E-03    -170.212E-03     337.989E-03    -168.647E-03     74.1051E-03
            1038     4.56210E-03     127.951E-03    -107.814E+06    -192.066E+06    -62.0228E+06    -15.2386E+06    -169.317E-03     337.976E-03    -168.660E-03     93.4439E-03    -170.435E-03     338.210E-03    -168.535E-03     86.8299E-03
            1039     5.32320E-03     128.076E-03    -99.5123E+06    -170.151E+06    -46.1589E+06    -17.7339E+06    -169.044E-03     337.573E-03    -168.529E-03     106.405E-03    -170.531E-03     338.237E-03    -168.369E-03     98.5961E-03
            1040     6.08518E-03     128.215E-03    -92.9970E+06    -151.078E+06    -33.7069E+06    -19.1508E+06    -168.636E-03     336.974E-03    -168.337E-03     118.337E-03    -170.546E-03     338.115E-03    -168.152E-03     109.356E-03
            1041     6.84754E-03     128.367E-03    -85.7414E+06    -126.836E+06    -21.3212E+06    -20.5028E+06    -167.823E-03     335.902E-03    -168.080E-03     128.769E-03    -170.195E-03     337.582E-03    -167.878E-03     118.690E-03
            1042     7.61089E-03     128.529E-03    -77.3157E+06    -101.404E+06    -7.82163E+06    -22.2500E+06    -166.736E-03     334.496E-03    -167.759E-03     137.504E-03    -169.582E-03     336.730E-03    -167.539E-03     126.439E-03
            1043     8.37525E-03     128.699E-03    -68.9799E+06    -78.4726E+06     4.37771E+06    -23.1339E+06    -165.452E-03     332.827E-03    -167.375E-03     144.455E-03    -168.743E-03     335.582E-03    -167.139E-03     132.594E-03
            1044     9.14077E-03     128.874E-03    -61.4566E+06    -55.1420E+06     15.4402E+06    -22.7112E+06    -163.728E-03     330.651E-03    -166.923E-03     148.695E-03    -167.385E-03     333.850E-03    -166.677E-03     136.328E-03
            1045     9.90779E-03     129.047E-03    -53.9093E+06    -28.4018E+06     25.7714E+06    -21.3683E+06    -161.929E-03     328.334E-03    -166.406E-03     149.753E-03    -165.823E-03     331.862E-03    -166.158E-03     137.169E-03
            1046     10.6756E-03     129.220E-03    -45.0819E+06     2.20736E+06     37.8675E+06    -18.0127E+06    -160.057E-03     325.908E-03    -165.851E-03     147.081E-03    -164.022E-03     329.610E-03    -165.599E-03     134.580E-03
            1047     11.4461E-03     129.381E-03    -36.1963E+06     47.0635E+06     49.4834E+06    -11.6308E+06    -158.354E-03     323.610E-03    -165.256E-03     140.385E-03    -162.232E-03     327.383E-03    -165.024E-03     128.217E-03
            1048     12.2143E-03     129.533E-03    -27.9790E+06      93.272E+06     66.3008E+06    -4.60504E+06    -157.223E-03     321.926E-03    -164.704E-03     131.529E-03    -160.920E-03     325.663E-03    -164.467E-03     119.767E-03
            1049     12.9864E-03     129.671E-03    -19.3432E+06     113.898E+06     88.6447E+06    -557.014E+03    -156.480E-03     320.742E-03    -164.262E-03     116.908E-03    -159.755E-03     324.096E-03    -163.956E-03     105.787E-03
            1050     13.7563E-03     129.781E-03    -11.8522E+06     121.250E+06     108.043E+06     808.247E+03    -156.555E-03     320.457E-03    -163.902E-03     104.277E-03    -159.547E-03     323.524E-03    -163.520E-03     93.3365E-03
            1051     14.5278E-03     129.892E-03    -5.32746E+06     110.904E+06     107.142E+06     127.563E+03    -157.424E-03     320.991E-03    -163.567E-03     70.1542E-03    -159.475E-03     323.106E-03    -163.185E-03     61.0722E-03
            1052     759.425E-06     128.918E-03    -139.508E+06    -274.858E+06    -137.186E+06    -3.03573E+06    -169.578E-03     338.869E-03    -169.291E-03     18.9269E-03    -169.712E-03     337.930E-03    -169.376E-03     17.7975E-03
            1053     1.51961E-03     128.951E-03    -135.595E+06    -261.350E+06    -125.956E+06    -6.39854E+06    -169.369E-03     338.738E-03    -169.369E-03     34.1176E-03    -169.592E-03     337.917E-03    -169.423E-03     32.0075E-03
            1054     2.27890E-03     129.004E-03    -129.220E+06    -245.552E+06    -109.087E+06    -8.69834E+06    -169.467E-03     338.784E-03    -169.317E-03     49.7741E-03    -169.831E-03     338.134E-03    -169.319E-03     46.6064E-03
            1055     3.03932E-03     129.077E-03    -121.328E+06    -230.249E+06    -90.0714E+06    -10.5369E+06    -169.432E-03     338.691E-03    -169.259E-03     65.1451E-03    -169.983E-03     338.255E-03    -169.199E-03     60.8945E-03
            1056     3.79966E-03     129.168E-03    -113.118E+06    -208.778E+06    -73.6700E+06    -13.8890E+06    -169.247E-03     338.372E-03    -169.125E-03     80.2322E-03    -170.048E-03     338.243E-03    -169.026E-03     74.8481E-03
            1057     4.56067E-03     129.277E-03    -105.603E+06    -184.118E+06    -59.8481E+06    -16.2177E+06    -168.928E-03     337.843E-03    -168.916E-03     94.3797E-03    -170.038E-03     338.098E-03    -168.795E-03     87.8502E-03
            1058     5.32254E-03     129.401E-03    -98.3121E+06    -163.782E+06    -44.8274E+06    -16.7152E+06    -168.567E-03     337.240E-03    -168.673E-03     107.442E-03    -170.040E-03     337.912E-03    -168.517E-03     99.7764E-03
            1059     6.08448E-03     129.539E-03    -90.5889E+06    -143.112E+06    -30.2761E+06    -18.2393E+06    -167.853E-03     336.229E-03    -168.376E-03     119.535E-03    -169.739E-03     337.373E-03    -168.189E-03     110.744E-03
            1060     6.84772E-03     129.689E-03    -82.5392E+06    -117.856E+06    -17.4133E+06    -21.1475E+06    -166.796E-03     334.792E-03    -167.996E-03     130.305E-03    -169.132E-03     336.467E-03    -167.793E-03     120.448E-03
            1061     7.61224E-03     129.849E-03    -74.8023E+06    -94.9430E+06    -5.43415E+06    -23.5468E+06    -165.567E-03     333.116E-03    -167.550E-03     139.715E-03    -168.366E-03     335.329E-03    -167.331E-03     128.912E-03
            1062     8.37736E-03     130.017E-03    -67.7575E+06    -74.5149E+06     6.08859E+06    -24.1101E+06    -163.896E-03     330.934E-03    -167.038E-03     146.965E-03    -167.130E-03     333.644E-03    -166.801E-03     135.441E-03
            1063     9.14507E-03     130.187E-03    -60.4044E+06    -52.2513E+06     17.5149E+06    -24.2734E+06    -162.143E-03     328.603E-03    -166.459E-03     151.576E-03    -165.732E-03     331.741E-03    -166.209E-03     139.575E-03
            1064     9.91314E-03     130.361E-03    -52.7770E+06    -28.3364E+06     27.6848E+06    -23.7412E+06    -160.487E-03     326.323E-03    -165.836E-03     153.027E-03    -164.308E-03     329.776E-03    -165.580E-03     140.808E-03
            1065     10.6830E-03     130.528E-03    -45.4405E+06    -864.836E+03     38.7126E+06    -22.0292E+06    -158.868E-03     324.070E-03    -165.202E-03     150.538E-03    -162.762E-03     327.688E-03    -164.941E-03     138.369E-03
            1066     11.4526E-03     130.691E-03    -37.3945E+06     33.7892E+06     48.5625E+06    -16.2940E+06    -157.629E-03     322.197E-03    -164.568E-03     144.441E-03    -161.440E-03     325.855E-03    -164.320E-03     132.547E-03
            1067     12.2247E-03     130.840E-03    -29.5311E+06     82.1361E+06     63.7155E+06    -8.01323E+06    -156.848E-03     320.837E-03    -163.990E-03     135.474E-03    -160.490E-03     324.482E-03    -163.748E-03     123.962E-03
            1068     12.9948E-03     130.977E-03    -22.2325E+06     111.576E+06     83.3065E+06    -3.71688E+06    -157.153E-03     320.709E-03    -163.556E-03     120.755E-03    -160.415E-03     324.047E-03    -163.269E-03     109.750E-03
            1069     13.7634E-03     131.092E-03    -13.7776E+06     118.691E+06     102.811E+06    -2.13701E+06    -157.963E-03     321.241E-03    -163.278E-03     107.466E-03    -160.970E-03     324.322E-03    -162.916E-03     96.4679E-03
            1070     14.5307E-03     131.195E-03    -4.84886E+06     110.836E+06     104.405E+06    -897.012E+03    -159.263E-03     322.323E-03    -163.060E-03     72.9164E-03    -161.331E-03     324.464E-03    -162.692E-03     63.7167E-03
            1071     759.659E-06     130.247E-03    -133.629E+06    -264.218E+06    -131.192E+06    -3.23113E+06    -169.634E-03     339.302E-03    -169.668E-03     18.6706E-03    -169.763E-03     338.399E-03    -169.747E-03     17.5680E-03
            1072     1.51885E-03     130.281E-03    -130.634E+06    -250.638E+06    -120.769E+06    -5.60483E+06    -169.633E-03     339.226E-03    -169.592E-03     34.3738E-03    -169.854E-03     338.443E-03    -169.643E-03     32.2942E-03
            1073     2.27874E-03     130.334E-03    -125.790E+06    -236.005E+06    -106.462E+06    -8.59118E+06    -169.405E-03     338.898E-03    -169.493E-03     50.6976E-03    -169.766E-03     338.283E-03    -169.501E-03     47.5845E-03
            1074     3.03859E-03     130.405E-03    -118.500E+06    -221.348E+06    -89.6738E+06    -11.3662E+06    -169.145E-03     338.468E-03    -169.323E-03     66.5381E-03    -169.691E-03     338.068E-03    -169.279E-03     62.3589E-03
            1075     3.79964E-03     130.496E-03    -110.623E+06    -198.761E+06    -70.4896E+06    -13.1250E+06    -168.754E-03     337.846E-03    -169.093E-03     81.5198E-03    -169.549E-03     337.747E-03    -168.997E-03     76.2665E-03
            1076     4.56130E-03     130.603E-03    -102.926E+06    -176.552E+06    -53.8149E+06    -14.9326E+06    -168.218E-03     337.008E-03    -168.790E-03     95.7833E-03    -169.314E-03     337.269E-03    -168.654E-03     89.4342E-03
            1077     5.32322E-03     130.725E-03    -94.5861E+06    -157.430E+06    -40.6979E+06    -17.0580E+06    -167.459E-03     335.868E-03    -168.409E-03     109.429E-03    -168.901E-03     336.533E-03    -168.247E-03     101.983E-03
            1078     6.08665E-03     130.862E-03    -85.5286E+06    -133.935E+06    -26.7436E+06    -19.4609E+06    -166.436E-03     334.389E-03    -167.953E-03     122.022E-03    -168.274E-03     335.525E-03    -167.768E-03     113.509E-03
            1079     6.85144E-03     131.009E-03    -77.0655E+06    -109.806E+06    -12.1156E+06    -21.1636E+06    -165.187E-03     332.616E-03    -167.430E-03     133.443E-03    -167.464E-03     334.265E-03    -167.219E-03     123.939E-03
            1080     7.61687E-03     131.168E-03    -70.5316E+06    -88.4164E+06     168.229E+03    -21.6763E+06    -163.596E-03     330.427E-03    -166.831E-03     143.352E-03    -166.327E-03     332.592E-03    -166.599E-03     133.004E-03
            1081     8.38508E-03     131.331E-03    -64.5932E+06    -68.6577E+06     10.9905E+06    -23.0141E+06    -162.019E-03     328.189E-03    -166.170E-03     151.207E-03    -165.178E-03     330.843E-03    -165.922E-03     140.163E-03
            1082     9.15317E-03     131.501E-03    -58.3450E+06    -46.7356E+06     21.8923E+06    -24.7293E+06    -160.525E-03     326.003E-03    -165.478E-03     156.297E-03    -164.041E-03     329.083E-03    -165.216E-03     144.761E-03
            1083     9.92368E-03     131.669E-03    -51.7328E+06    -26.5872E+06     31.4782E+06    -25.0858E+06    -159.046E-03     323.824E-03    -164.778E-03     157.892E-03    -162.788E-03     327.196E-03    -164.507E-03     146.134E-03
            1084     10.6944E-03     131.838E-03    -44.9922E+06    -2.03048E+06     41.7556E+06    -22.9963E+06    -157.953E-03     322.053E-03    -164.100E-03     155.753E-03    -161.774E-03     325.586E-03    -163.823E-03     144.010E-03
            1085     11.4663E-03     131.996E-03    -38.4858E+06     24.9330E+06     50.0631E+06    -19.1571E+06    -157.376E-03     320.848E-03    -163.472E-03     149.789E-03    -161.123E-03     324.402E-03    -163.202E-03     138.230E-03
            1086     12.2368E-03     132.146E-03    -30.1385E+06     69.6526E+06     62.1851E+06    -12.6499E+06    -157.651E-03     320.591E-03    -162.940E-03     141.010E-03    -161.244E-03     324.144E-03    -162.686E-03     129.686E-03
            1087     13.0069E-03     132.284E-03    -21.1562E+06     107.482E+06     79.2449E+06    -6.45796E+06    -158.640E-03     321.221E-03    -162.582E-03     126.825E-03    -161.877E-03     324.536E-03    -162.311E-03     115.950E-03
            1088     13.7759E-03     132.401E-03    -13.5243E+06     117.753E+06     99.1799E+06    -4.96005E+06    -160.597E-03     323.045E-03    -162.448E-03     113.536E-03    -163.627E-03     326.157E-03    -162.103E-03     102.482E-03
            1089     14.5430E-03     132.508E-03    -5.95068E+06     107.746E+06     100.149E+06    -3.27397E+06    -163.429E-03     325.868E-03    -162.439E-03     77.6729E-03    -165.542E-03     328.052E-03    -162.086E-03     68.2075E-03
            1090     759.383E-06     131.579E-03    -127.018E+06    -254.199E+06    -124.752E+06    -3.07866E+06    -169.407E-03     338.880E-03    -169.473E-03     19.3325E-03    -169.526E-03     338.007E-03    -169.544E-03     18.2482E-03
            1091     1.51896E-03     131.610E-03    -122.949E+06    -241.916E+06    -113.825E+06    -4.78619E+06    -169.029E-03     338.325E-03    -169.296E-03     35.1415E-03    -169.231E-03     337.562E-03    -169.336E-03     33.1409E-03
            1092     2.27943E-03     131.662E-03    -116.700E+06    -225.110E+06    -97.4907E+06    -7.48671E+06    -168.698E-03     337.761E-03    -169.064E-03     51.8636E-03    -169.036E-03     337.169E-03    -169.055E-03     48.8714E-03
            1093     3.04069E-03     131.733E-03    -110.343E+06    -211.901E+06    -80.3248E+06    -10.7519E+06    -168.328E-03     337.128E-03    -168.800E-03     67.9074E-03    -168.848E-03     336.737E-03    -168.734E-03     63.8865E-03
            1094     3.80178E-03     131.822E-03    -102.687E+06    -191.624E+06    -64.1337E+06    -12.5892E+06    -167.675E-03     336.130E-03    -168.455E-03     83.5113E-03    -168.431E-03     336.028E-03    -168.349E-03     78.4649E-03
            1095     4.56390E-03     131.927E-03    -94.0262E+06    -168.485E+06    -48.0961E+06    -13.9484E+06    -166.712E-03     334.721E-03    -168.010E-03     98.6591E-03    -167.758E-03     334.975E-03    -167.870E-03     92.5925E-03
            1096     5.32790E-03     132.048E-03    -86.3941E+06    -148.243E+06    -33.1852E+06    -16.0269E+06    -165.553E-03     333.021E-03    -167.468E-03     113.055E-03    -166.940E-03     333.671E-03    -167.293E-03     105.972E-03
            1097     6.09328E-03     132.181E-03    -80.0154E+06    -124.534E+06    -20.5124E+06    -18.7106E+06    -164.256E-03     331.086E-03    -166.830E-03     126.355E-03    -166.038E-03     332.201E-03    -166.636E-03     118.282E-03
            1098     6.85933E-03     132.327E-03    -74.0853E+06    -104.545E+06    -7.73006E+06    -20.1115E+06    -162.728E-03     328.856E-03    -166.128E-03     138.486E-03    -164.938E-03     330.454E-03    -165.908E-03     129.504E-03
            1099     7.62834E-03     132.480E-03    -67.0085E+06    -82.9080E+06     5.79794E+06    -20.2449E+06    -161.210E-03     326.581E-03    -165.372E-03     149.031E-03    -163.860E-03     328.683E-03    -165.126E-03     139.255E-03
            1100     8.39749E-03     132.643E-03    -59.2942E+06    -60.8994E+06     18.2391E+06    -21.6405E+06    -159.912E-03     324.501E-03    -164.589E-03     157.487E-03    -162.979E-03     327.088E-03    -164.323E-03     147.038E-03
            1101     9.16903E-03     132.809E-03    -52.3385E+06    -40.6846E+06     28.8429E+06    -22.7112E+06    -158.831E-03     322.647E-03    -163.817E-03     162.971E-03    -162.244E-03     325.646E-03    -163.537E-03     152.038E-03
            1102     9.94017E-03     132.978E-03    -46.6541E+06    -21.8796E+06     38.1445E+06    -23.1715E+06    -158.051E-03     321.142E-03    -163.091E-03     164.847E-03    -161.699E-03     324.436E-03    -162.801E-03     153.636E-03
            1103     10.7126E-03     133.142E-03    -40.9182E+06    -3.86239E+06     46.1668E+06    -22.1823E+06    -157.708E-03     320.149E-03    -162.441E-03     162.755E-03    -161.437E-03     323.585E-03    -162.145E-03     151.481E-03
            1104     11.4840E-03     133.302E-03    -34.5219E+06     22.0711E+06     54.7625E+06    -19.4746E+06    -158.257E-03     320.162E-03    -161.905E-03     156.726E-03    -161.931E-03     323.633E-03    -161.613E-03     145.512E-03
            1105     12.2551E-03     133.452E-03    -27.9621E+06     62.0659E+06     65.1766E+06    -15.7970E+06    -159.528E-03     321.049E-03    -161.521E-03     147.868E-03    -163.079E-03     324.532E-03    -161.244E-03     136.715E-03
            1106     13.0241E-03     133.594E-03    -19.8548E+06     99.3140E+06     78.6403E+06    -10.5858E+06    -161.770E-03     323.118E-03    -161.348E-03     132.874E-03    -164.993E-03     326.395E-03    -161.070E-03     121.983E-03
            1107     13.7904E-03     133.711E-03    -11.9913E+06     117.793E+06     98.5227E+06    -7.02188E+06    -165.498E-03     326.968E-03    -161.470E-03     118.231E-03    -168.545E-03     330.106E-03    -161.131E-03     106.965E-03
            1108     14.5513E-03     133.829E-03    -5.93967E+06     102.695E+06     95.8598E+06    -4.77784E+06    -169.360E-03     331.135E-03    -161.775E-03     80.0153E-03    -171.485E-03     333.326E-03    -161.436E-03     70.2297E-03
            1109     759.913E-06     132.907E-03    -121.654E+06    -243.973E+06    -119.073E+06    -3.38704E+06    -168.332E-03     336.384E-03    -168.052E-03     19.8968E-03    -168.446E-03     335.545E-03    -168.117E-03     18.8517E-03
            1110     1.52132E-03     132.938E-03    -116.873E+06    -233.226E+06    -108.242E+06    -6.32308E+06    -167.759E-03     335.793E-03    -168.034E-03     36.4554E-03    -167.948E-03     335.053E-03    -168.068E-03     34.5317E-03
            1111     2.28234E-03     132.989E-03    -111.166E+06    -217.795E+06    -92.8202E+06    -7.14752E+06    -167.349E-03     335.117E-03    -167.768E-03     53.5930E-03    -167.668E-03     334.537E-03    -167.755E-03     50.7701E-03
            1112     3.04373E-03     133.058E-03    -104.899E+06    -201.991E+06    -74.7508E+06    -8.51780E+06    -166.447E-03     333.857E-03    -167.410E-03     70.2700E-03    -166.945E-03     333.482E-03    -167.338E-03     66.5188E-03
            1113     3.80716E-03     133.145E-03    -98.2878E+06    -182.225E+06    -59.4568E+06    -12.2006E+06    -165.260E-03     332.143E-03    -166.883E-03     86.9721E-03    -165.989E-03     332.048E-03    -166.774E-03     82.2571E-03
            1114     4.57204E-03     133.248E-03    -90.9440E+06    -161.836E+06    -45.5068E+06    -14.6591E+06    -164.040E-03     330.271E-03    -166.231E-03     103.149E-03    -165.046E-03     330.511E-03    -166.092E-03     97.4862E-03
            1115     5.33807E-03     133.365E-03    -82.6029E+06    -140.135E+06    -28.5104E+06    -15.4786E+06    -162.696E-03     328.202E-03    -165.506E-03     118.469E-03    -164.031E-03     328.828E-03    -165.326E-03     111.887E-03
            1116     6.10531E-03     133.497E-03    -74.2902E+06    -116.579E+06    -12.5394E+06    -16.4989E+06    -161.132E-03     325.830E-03    -164.698E-03     132.754E-03    -162.842E-03     326.898E-03    -164.484E-03     125.284E-03
            1117     6.87566E-03     133.637E-03    -66.8532E+06    -99.3643E+06    -216.542E+03    -17.1327E+06    -159.708E-03     323.539E-03    -163.831E-03     145.633E-03    -161.818E-03     325.059E-03    -163.591E-03     137.329E-03
            1118     7.64610E-03     133.790E-03    -60.3686E+06    -76.2449E+06     12.2273E+06    -18.5462E+06    -158.592E-03     321.542E-03    -162.950E-03     156.949E-03    -161.134E-03     323.563E-03    -162.691E-03     147.865E-03
            1119     8.41875E-03     133.949E-03    -54.5322E+06    -54.0508E+06       24.43E+06    -19.5755E+06    -157.791E-03     319.896E-03    -162.105E-03     165.951E-03    -160.753E-03     322.401E-03    -161.826E-03     156.199E-03
            1120     9.19130E-03     134.114E-03    -49.2333E+06    -35.7399E+06     34.6582E+06    -20.0529E+06    -157.415E-03     318.745E-03    -161.330E-03     171.698E-03    -160.729E-03     321.656E-03    -161.033E-03     161.431E-03
            1121     9.96501E-03     134.281E-03    -43.7369E+06    -17.0659E+06     43.8892E+06    -20.2028E+06    -157.671E-03     318.334E-03    -160.664E-03     173.627E-03    -161.229E-03     321.549E-03    -160.356E-03     163.007E-03
            1122     10.7373E-03     134.447E-03    -38.3859E+06    -1.57870E+06     51.2802E+06    -20.8579E+06    -158.813E-03     318.970E-03    -160.157E-03     171.393E-03    -162.476E-03     322.342E-03    -159.842E-03     160.536E-03
            1123     11.5089E-03     134.607E-03    -31.6222E+06     21.4279E+06     60.1360E+06    -20.1945E+06    -160.693E-03     320.539E-03    -159.846E-03     164.923E-03    -164.321E-03     323.957E-03    -159.530E-03     153.951E-03
            1124     12.2773E-03     134.761E-03    -24.8092E+06     57.6723E+06     70.7762E+06    -16.7027E+06    -163.450E-03     323.203E-03    -159.753E-03     154.821E-03    -166.971E-03     326.636E-03    -159.447E-03     143.736E-03
            1125     13.0437E-03     134.903E-03    -18.6315E+06     93.1486E+06     82.4739E+06    -12.6726E+06    -167.518E-03     327.450E-03    -159.932E-03     139.387E-03    -170.765E-03     330.723E-03    -159.627E-03     128.290E-03
            1126     13.8036E-03     135.034E-03    -11.4435E+06     114.013E+06     98.1735E+06    -9.35660E+06    -172.115E-03     332.541E-03    -160.426E-03     124.748E-03    -175.222E-03     335.728E-03    -160.084E-03     113.098E-03
            1127     14.5605E-03     135.152E-03    -4.10785E+06     96.2923E+06     92.5441E+06    -5.96655E+06    -176.625E-03     337.741E-03    -161.116E-03     85.4237E-03    -178.787E-03     339.962E-03    -160.787E-03     75.2298E-03
            1128     762.691E-06     134.231E-03    -115.503E+06    -232.564E+06    -113.714E+06    -4.07407E+06    -165.893E-03     331.468E-03    -165.575E-03     20.2642E-03    -165.998E-03     330.667E-03    -165.639E-03     19.2959E-03
            1129     1.52441E-03     134.261E-03    -113.319E+06    -224.018E+06    -104.641E+06    -5.84768E+06    -165.343E-03     330.913E-03    -165.570E-03     38.0618E-03    -165.527E-03     330.202E-03    -165.604E-03     36.3116E-03
            1130     2.28739E-03     134.311E-03    -109.402E+06    -212.118E+06    -92.4809E+06    -7.40034E+06    -164.362E-03     329.572E-03    -165.210E-03     56.3972E-03    -164.669E-03     329.005E-03    -165.207E-03     53.8189E-03
            1131     3.05213E-03     134.377E-03    -101.845E+06    -193.699E+06    -74.9977E+06    -8.91444E+06    -163.067E-03     327.721E-03    -164.654E-03     74.3935E-03    -163.540E-03     327.361E-03    -164.600E-03     70.9811E-03
            1132     3.81800E-03     134.461E-03    -93.0961E+06    -170.822E+06    -54.1762E+06    -11.5951E+06    -161.653E-03     325.607E-03    -163.954E-03     92.0533E-03    -162.345E-03     325.517E-03    -163.842E-03     87.7921E-03
            1133     4.58567E-03     134.561E-03    -84.9229E+06    -155.141E+06    -36.7289E+06    -13.8846E+06    -160.207E-03     323.350E-03    -163.142E-03     109.269E-03    -161.154E-03     323.549E-03    -162.978E-03     104.159E-03
            1134     5.35489E-03     134.676E-03    -77.4412E+06    -133.613E+06    -22.8991E+06    -15.1115E+06    -158.641E-03     320.866E-03    -162.225E-03     125.606E-03    -159.896E-03     321.437E-03    -162.034E-03     119.674E-03
            1135     6.12699E-03     134.802E-03    -70.4228E+06    -111.568E+06    -8.90521E+06    -15.2907E+06    -157.202E-03     318.459E-03    -161.257E-03     140.917E-03    -158.815E-03     319.450E-03    -161.037E-03     134.184E-03
            1136     6.89918E-03     134.943E-03    -63.7100E+06    -94.7681E+06     4.32813E+06    -15.1883E+06    -156.247E-03     316.540E-03    -160.293E-03     154.952E-03    -158.253E-03     317.969E-03    -160.042E-03     147.430E-03
            1137     7.67379E-03     135.091E-03    -57.4241E+06    -69.1531E+06     17.3585E+06    -15.4105E+06    -155.827E-03     315.203E-03    -159.376E-03     167.145E-03    -158.263E-03     317.138E-03    -159.106E-03     158.863E-03
            1138     8.44837E-03     135.250E-03    -52.0440E+06    -49.6582E+06     28.6915E+06    -15.7236E+06    -156.058E-03     314.630E-03    -158.572E-03     176.549E-03    -158.914E-03     317.040E-03    -158.281E-03     167.556E-03
            1139     9.22344E-03     135.414E-03    -46.6034E+06    -29.2258E+06     39.8379E+06    -16.3641E+06    -156.973E-03     314.896E-03    -157.923E-03     182.235E-03    -160.195E-03     317.733E-03    -157.614E-03     172.626E-03
            1140     9.99715E-03     135.582E-03    -41.0188E+06    -13.1873E+06     48.5886E+06    -17.4844E+06    -158.816E-03     316.291E-03    -157.475E-03     183.683E-03    -162.296E-03     319.438E-03    -157.153E-03     173.563E-03
            1141     10.7697E-03     135.749E-03    -35.4354E+06     5.54216E+06     57.4321E+06    -18.7083E+06    -161.649E-03     318.923E-03    -157.274E-03     180.672E-03    -165.263E-03     322.265E-03    -156.944E-03     170.137E-03
            1142     11.5379E-03     135.915E-03    -30.4652E+06     23.5408E+06     65.5583E+06    -20.2732E+06    -165.276E-03     322.629E-03    -157.353E-03     173.041E-03    -168.885E-03     326.024E-03    -157.015E-03     162.162E-03
            1143     12.3042E-03     136.071E-03    -25.0180E+06     52.1608E+06     74.1671E+06    -17.6178E+06    -169.912E-03     327.628E-03    -157.716E-03     162.406E-03    -173.448E-03     331.046E-03    -157.385E-03     151.168E-03
            1144     13.0635E-03     136.225E-03    -17.2004E+06     91.9927E+06     86.8339E+06    -14.4993E+06    -175.187E-03     333.571E-03    -158.384E-03     146.438E-03    -178.480E-03     336.879E-03    -158.058E-03     134.994E-03
            1145     13.8203E-03     136.358E-03    -8.97320E+06     108.277E+06     98.5964E+06    -12.0170E+06    -180.268E-03     339.625E-03    -159.357E-03     129.546E-03    -183.415E-03     342.840E-03    -159.008E-03     117.365E-03
            1146     14.5723E-03     136.489E-03    -3.83266E+06     86.7355E+06     89.5808E+06    -5.75937E+06    -185.121E-03     345.632E-03    -160.511E-03     88.6568E-03    -187.303E-03     347.850E-03    -160.183E-03     78.0026E-03
            1147     764.620E-06     135.546E-03    -111.341E+06    -222.672E+06    -109.310E+06    -2.73688E+06    -161.825E-03     323.377E-03    -161.552E-03     21.8889E-03    -161.929E-03     322.610E-03    -161.615E-03     21.0589E-03
            1148     1.53041E-03     135.577E-03    -108.213E+06    -214.969E+06    -98.9469E+06    -4.78695E+06    -160.841E-03     322.264E-03    -161.422E-03     40.8504E-03    -161.014E-03     321.573E-03    -161.449E-03     39.3382E-03
            1149     2.29735E-03     135.623E-03    -102.672E+06    -204.332E+06    -84.6251E+06    -7.41540E+06    -159.542E-03     320.419E-03    -160.877E-03     60.1985E-03    -159.821E-03     319.852E-03    -160.855E-03     57.9516E-03
            1150     3.06561E-03     135.688E-03    -96.6299E+06    -185.001E+06    -69.4004E+06    -9.96742E+06    -158.107E-03     318.244E-03    -160.137E-03     79.5203E-03    -158.544E-03     317.880E-03    -160.076E-03     76.5458E-03
            1151     3.83560E-03     135.767E-03    -89.9843E+06    -163.328E+06    -52.3089E+06    -11.2738E+06    -156.682E-03     315.970E-03    -159.288E-03     98.5101E-03    -157.323E-03     315.860E-03    -159.182E-03     94.8152E-03
            1152     4.60720E-03     135.865E-03    -83.3925E+06    -148.493E+06    -34.6650E+06    -11.9352E+06    -155.009E-03     313.365E-03    -158.356E-03     117.008E-03    -155.892E-03     313.523E-03    -158.193E-03     112.597E-03
            1153     5.38144E-03     135.975E-03    -77.2647E+06    -127.309E+06    -20.3961E+06    -12.7174E+06    -153.516E-03     310.842E-03    -157.325E-03     134.779E-03    -154.694E-03     311.349E-03    -157.130E-03     129.643E-03
            1154     6.15631E-03     136.100E-03    -71.4930E+06    -108.044E+06    -7.97025E+06    -12.6874E+06    -152.725E-03     309.016E-03    -156.291E-03     151.430E-03    -154.244E-03     309.918E-03    -156.070E-03     145.548E-03
            1155     6.93400E-03     136.236E-03    -65.5903E+06    -88.6772E+06     5.72645E+06    -13.3505E+06    -152.707E-03     308.056E-03    -155.349E-03     166.390E-03    -154.617E-03     309.400E-03    -155.097E-03     159.714E-03
            1156     7.71117E-03     136.386E-03    -58.9755E+06    -65.2136E+06     19.4902E+06    -13.7157E+06    -153.561E-03     308.115E-03    -154.554E-03     178.906E-03    -155.896E-03     309.951E-03    -154.276E-03     171.418E-03
            1157     8.48832E-03     136.544E-03    -51.9493E+06    -46.2098E+06     31.4874E+06     -13.118E+06    -155.337E-03     309.301E-03    -153.964E-03     188.221E-03    -158.091E-03     311.615E-03    -153.664E-03     179.937E-03
            1158     9.26383E-03     136.710E-03    -45.6711E+06    -22.5623E+06     43.3884E+06    -13.7609E+06    -158.196E-03     311.827E-03    -153.631E-03     193.519E-03    -161.338E-03     314.602E-03    -153.315E-03     184.460E-03
            1159     10.0371E-03     136.881E-03    -40.1843E+06    -8.40827E+06     51.7917E+06    -14.8052E+06    -162.141E-03     315.746E-03    -153.605E-03     194.199E-03    -165.570E-03     318.854E-03    -153.276E-03     184.426E-03
            1160     10.8059E-03     137.054E-03    -35.1203E+06     13.7274E+06     60.8404E+06    -16.3152E+06    -166.725E-03     320.628E-03    -153.903E-03     190.021E-03    -170.322E-03     323.975E-03    -153.568E-03     179.640E-03
            1161     11.5722E-03     137.225E-03    -29.8511E+06     27.6810E+06     67.2928E+06    -17.9437E+06    -172.162E-03     326.697E-03    -154.535E-03     181.424E-03    -175.773E-03     330.108E-03    -154.196E-03     170.491E-03
            1162     12.3306E-03     137.391E-03    -23.1644E+06     50.7113E+06     75.1631E+06    -18.4134E+06    -178.374E-03     333.869E-03    -155.495E-03     170.322E-03    -181.938E-03     337.315E-03    -155.159E-03     158.767E-03
            1163     13.0863E-03     137.552E-03    -16.2978E+06     92.5584E+06     88.6326E+06    -17.0561E+06    -184.399E-03     341.162E-03    -156.763E-03     153.205E-03    -187.754E-03     344.532E-03    -156.430E-03     141.253E-03
            1164     13.8332E-03     137.697E-03    -11.1904E+06     100.291E+06     95.0573E+06    -13.2443E+06    -190.271E-03     348.577E-03    -158.305E-03     135.854E-03    -193.506E-03     351.855E-03    -157.959E-03     122.993E-03
            1165     14.5746E-03     137.834E-03    -4.98473E+06     74.0763E+06     84.3512E+06    -6.52206E+06    -194.045E-03     354.021E-03    -159.976E-03     93.4088E-03    -196.284E-03     356.263E-03    -159.655E-03     82.1577E-03
            1166     769.907E-06     136.850E-03    -112.582E+06    -214.534E+06    -110.538E+06    -1.97342E+06    -155.376E-03     310.481E-03    -155.106E-03     23.9803E-03    -155.494E-03     309.754E-03    -155.184E-03     23.3091E-03
            1167     1.54059E-03     136.877E-03    -110.006E+06    -206.473E+06    -99.6315E+06    -4.53335E+06    -154.203E-03     309.129E-03    -154.926E-03     43.9727E-03    -154.386E-03     308.472E-03    -154.965E-03     42.7402E-03
            1168     2.31218E-03     136.922E-03    -105.003E+06    -196.070E+06    -84.8130E+06    -6.50087E+06    -152.902E-03     307.217E-03    -154.315E-03     64.6983E-03    -153.181E-03     306.668E-03    -154.303E-03     62.8733E-03
            1169     3.08573E-03     136.982E-03    -99.8526E+06    -176.949E+06    -69.4734E+06    -7.95835E+06    -151.412E-03     304.934E-03    -153.522E-03     85.7623E-03    -151.836E-03     304.572E-03    -153.468E-03     83.3491E-03
            1170     3.86093E-03     137.061E-03    -94.8687E+06    -157.885E+06    -54.8070E+06    -8.92814E+06    -149.804E-03     302.397E-03    -152.592E-03     106.465E-03    -150.412E-03     302.261E-03    -152.500E-03     103.463E-03
            1171     4.63827E-03     137.153E-03    -88.6518E+06    -142.358E+06    -38.4767E+06    -10.0763E+06    -148.492E-03     300.088E-03    -151.596E-03     126.543E-03    -149.319E-03     300.201E-03    -151.453E-03     122.920E-03
            1172     5.41727E-03     137.261E-03    -81.3530E+06    -122.990E+06    -21.2375E+06    -10.2335E+06    -147.885E-03     298.491E-03    -150.606E-03     145.788E-03    -148.984E-03     298.922E-03    -150.416E-03     141.502E-03
            1173     6.19858E-03     137.383E-03    -73.9362E+06    -103.982E+06    -6.19721E+06    -10.0908E+06    -148.334E-03     298.046E-03    -149.712E-03     163.298E-03    -149.756E-03     298.851E-03    -149.485E-03     158.278E-03
            1174     6.97847E-03     137.521E-03    -67.1186E+06    -81.9307E+06     7.21496E+06    -10.8391E+06    -149.890E-03     298.893E-03    -149.003E-03     178.657E-03    -151.694E-03     300.144E-03    -148.750E-03     172.811E-03
            1175     7.75832E-03     137.671E-03    -61.2283E+06    -61.3792E+06     19.7540E+06    -11.5445E+06    -152.535E-03     301.085E-03    -148.550E-03     191.320E-03    -154.768E-03     302.825E-03    -148.273E-03     184.567E-03
            1176     8.53629E-03     137.832E-03    -55.6205E+06    -42.6590E+06     31.1090E+06    -11.6508E+06    -156.433E-03     304.840E-03    -148.407E-03     200.321E-03    -159.110E-03     307.078E-03    -148.109E-03     192.616E-03
            1177     9.31135E-03     138.003E-03    -50.1084E+06    -17.4338E+06     42.3724E+06    -11.6187E+06    -161.475E-03     310.088E-03    -148.613E-03     205.086E-03    -164.574E-03     312.826E-03    -148.303E-03     196.429E-03
            1178     10.0816E-03     138.181E-03    -44.3853E+06    -2.51411E+06     50.5722E+06    -13.2657E+06    -167.480E-03     316.683E-03    -149.203E-03     205.133E-03    -170.901E-03     319.794E-03    -148.882E-03     195.543E-03
            1179     10.8475E-03     138.362E-03    -38.1220E+06     20.7883E+06     59.1889E+06    -15.2293E+06    -174.124E-03     324.295E-03    -150.171E-03     200.023E-03    -177.744E-03     327.685E-03    -149.850E-03     189.591E-03
            1180     11.6061E-03     138.541E-03    -31.2449E+06     34.6053E+06     65.8847E+06    -17.7205E+06    -181.211E-03     332.723E-03    -151.512E-03     190.570E-03    -184.872E-03     336.208E-03    -151.187E-03     179.357E-03
            1181     12.3609E-03     138.719E-03    -24.1270E+06     54.1204E+06     73.5595E+06    -20.1683E+06    -188.307E-03     341.485E-03    -153.179E-03     178.519E-03    -191.933E-03     345.009E-03    -152.854E-03     166.502E-03
            1182     13.1060E-03     138.891E-03    -17.9334E+06     89.9676E+06     85.8018E+06    -18.6098E+06    -194.758E-03     349.874E-03    -155.116E-03     160.585E-03    -198.197E-03     353.322E-03    -154.791E-03     148.011E-03
            1183     13.8491E-03     139.045E-03    -10.9398E+06     92.3930E+06     90.8287E+06    -14.2673E+06    -199.988E-03     357.238E-03    -157.251E-03     142.774E-03    -203.291E-03     360.570E-03    -156.915E-03     129.284E-03
            1184     14.5865E-03     139.197E-03    -5.09474E+06     61.1880E+06     78.9326E+06    -8.54049E+06    -203.142E-03     362.575E-03    -159.432E-03     98.0577E-03    -205.413E-03     364.817E-03    -159.119E-03     86.2457E-03
            1185     777.016E-06     138.133E-03    -117.167E+06    -208.945E+06    -114.584E+06    -1.03501E+06    -146.139E-03     292.439E-03    -146.300E-03     25.8371E-03    -146.278E-03     291.744E-03    -146.400E-03     25.3555E-03
            1186     1.55401E-03     138.159E-03    -115.346E+06    -200.055E+06    -105.714E+06    -2.22136E+06    -145.299E-03     291.211E-03    -145.912E-03     47.2043E-03    -145.495E-03     290.585E-03    -145.983E-03     46.3128E-03
            1187     2.33317E-03     138.200E-03    -111.438E+06    -188.329E+06    -91.4648E+06    -4.58772E+06    -144.036E-03     289.359E-03    -145.323E-03     70.1356E-03    -144.319E-03     288.835E-03    -145.346E-03     68.7874E-03
            1188     3.11314E-03     138.259E-03    -105.283E+06    -172.523E+06    -73.7981E+06    -5.60223E+06    -142.691E-03     287.254E-03    -144.563E-03     93.0936E-03    -143.093E-03     286.875E-03    -144.529E-03     91.2912E-03
            1189     3.89556E-03     138.332E-03    -98.3164E+06    -152.849E+06    -54.9394E+06    -5.47298E+06    -141.593E-03     285.296E-03    -143.703E-03     115.487E-03    -142.152E-03     285.115E-03    -143.614E-03     113.218E-03
            1190     4.67989E-03     138.424E-03    -92.4598E+06    -136.245E+06    -38.5205E+06    -6.27017E+06    -141.488E-03     284.346E-03    -142.858E-03     136.884E-03    -142.247E-03     284.399E-03    -142.719E-03     134.066E-03
            1191     5.46476E-03     138.530E-03    -87.4166E+06    -119.293E+06    -23.9205E+06    -7.09377E+06    -142.532E-03     284.683E-03    -142.151E-03     156.884E-03    -143.546E-03     285.029E-03    -141.971E-03     153.425E-03
            1192     6.24849E-03     138.653E-03    -82.0476E+06    -98.5546E+06    -9.83051E+06    -8.19877E+06    -144.703E-03     286.363E-03    -141.660E-03     175.220E-03    -146.040E-03     287.084E-03    -141.447E-03     171.004E-03
            1193     7.03234E-03     138.793E-03    -75.7366E+06    -76.2486E+06     3.63620E+06     -9.2211E+06    -148.220E-03     289.667E-03    -141.447E-03     191.117E-03    -149.942E-03     290.838E-03    -141.209E-03     186.012E-03
            1194     7.81355E-03     138.947E-03    -68.8029E+06    -57.2026E+06     15.8097E+06    -9.88867E+06    -153.233E-03     294.818E-03    -141.585E-03     203.934E-03    -155.391E-03     296.484E-03    -141.323E-03     197.807E-03
            1195     8.59097E-03     139.116E-03    -61.3706E+06    -38.3174E+06     27.0416E+06    -10.7756E+06    -159.551E-03     301.671E-03    -142.120E-03     212.838E-03    -162.174E-03     303.864E-03    -141.840E-03     205.574E-03
            1196     9.36323E-03     139.295E-03    -52.9232E+06    -12.8468E+06     39.0106E+06    -11.6576E+06    -166.832E-03     309.906E-03    -143.074E-03     217.195E-03    -169.904E-03     312.635E-03    -142.784E-03     208.754E-03
            1197     10.1305E-03     139.483E-03    -44.2871E+06     4.31657E+06     48.7522E+06    -13.4891E+06    -174.890E-03     319.345E-03    -144.455E-03     216.460E-03    -178.315E-03     322.491E-03    -144.153E-03     206.854E-03
            1198     10.8902E-03     139.675E-03    -36.2688E+06     27.6241E+06     58.1873E+06    -16.0134E+06    -183.468E-03     329.708E-03    -146.240E-03     210.386E-03    -187.118E-03     333.164E-03    -145.937E-03     199.704E-03
            1199     11.6439E-03     139.868E-03    -28.9176E+06     43.6485E+06     66.4691E+06    -18.7705E+06    -191.914E-03     340.319E-03    -148.405E-03     199.781E-03    -195.639E-03     343.908E-03    -148.094E-03     188.096E-03
            1200     12.3877E-03     140.057E-03    -22.6220E+06     58.8459E+06     74.2331E+06    -20.3437E+06    -199.542E-03     350.406E-03    -150.865E-03     186.347E-03    -203.245E-03     354.028E-03    -150.546E-03     173.721E-03
            1201     13.1295E-03     140.241E-03    -15.9178E+06     88.4203E+06     85.4944E+06    -20.1072E+06    -205.719E-03     359.235E-03    -153.517E-03     167.001E-03    -209.225E-03     362.755E-03    -153.194E-03     153.722E-03
            1202     13.8607E-03     140.408E-03    -8.91865E+06     84.1309E+06     87.0483E+06    -17.5802E+06    -209.720E-03     365.971E-03    -156.251E-03     146.513E-03    -213.060E-03     369.327E-03    -155.925E-03     132.286E-03
            1203     14.5919E-03     140.560E-03    -2.80986E+06     44.5422E+06     74.2306E+06    -9.54507E+06    -212.010E-03     370.953E-03    -158.943E-03     100.891E-03    -214.276E-03     373.155E-03    -158.633E-03     88.4996E-03
            1204     785.598E-06     139.391E-03    -122.509E+06    -207.526E+06    -120.927E+06     336.521E+03    -134.531E-03     269.226E-03    -134.694E-03     28.2361E-03    -134.688E-03     268.548E-03    -134.820E-03     27.9430E-03
            1205     1.57258E-03     139.414E-03    -120.707E+06    -197.228E+06    -111.768E+06     386.917E+03    -133.818E-03     268.136E-03    -134.319E-03     51.4630E-03    -134.023E-03     267.523E-03    -134.416E-03     50.9084E-03
            1206     2.35970E-03     139.454E-03    -118.115E+06    -182.855E+06    -97.4650E+06    -256.561E+03    -133.102E-03     266.931E-03    -133.829E-03     76.3510E-03    -133.386E-03     266.417E-03    -133.880E-03     75.4981E-03
            1207     3.14922E-03     139.509E-03    -115.090E+06    -168.629E+06    -80.4156E+06    -1.61481E+06    -132.702E-03     265.997E-03    -133.295E-03     100.782E-03    -133.094E-03     265.605E-03    -133.285E-03     99.5816E-03
            1208     3.93945E-03     139.582E-03    -110.576E+06    -149.946E+06    -62.8403E+06    -2.09870E+06    -133.225E-03     266.027E-03    -132.802E-03     124.229E-03    -133.760E-03     265.811E-03    -132.738E-03     122.628E-03
            1209     4.72944E-03     139.673E-03    -104.559E+06    -131.347E+06    -45.8013E+06    -2.29619E+06    -134.873E-03     267.332E-03    -132.459E-03     146.652E-03    -135.588E-03     267.337E-03    -132.346E-03     144.562E-03
            1210     5.51882E-03     139.782E-03    -97.5710E+06    -113.457E+06    -30.2710E+06    -4.13871E+06    -137.836E-03     270.179E-03    -132.344E-03     167.657E-03    -138.783E-03     270.462E-03    -132.189E-03     164.934E-03
            1211     6.30745E-03     139.909E-03    -89.3958E+06    -92.0175E+06    -15.2276E+06    -6.49082E+06    -142.209E-03     274.729E-03    -132.520E-03     186.751E-03    -143.459E-03     275.377E-03    -132.333E-03     183.235E-03
            1212     7.09270E-03     140.054E-03    -80.4832E+06    -70.4981E+06    -780.192E+03    -8.67170E+06    -148.194E-03     281.250E-03    -133.056E-03     203.148E-03    -149.822E-03     282.345E-03    -132.841E-03     198.657E-03
            1213     7.87376E-03     140.217E-03    -71.0809E+06    -52.8476E+06     11.5521E+06    -10.4182E+06    -155.705E-03     289.713E-03    -134.007E-03     216.134E-03    -157.772E-03     291.309E-03    -133.770E-03     210.485E-03
            1214     8.64952E-03     140.395E-03    -61.4899E+06    -31.6833E+06     23.5267E+06    -12.5068E+06    -164.404E-03     299.809E-03    -135.405E-03     225.110E-03    -166.962E-03     301.972E-03    -135.152E-03     218.134E-03
            1215     9.41910E-03     140.587E-03    -51.9172E+06    -7.08309E+06     36.3510E+06    -14.8716E+06    -174.058E-03     311.322E-03    -137.263E-03     229.158E-03    -177.108E-03     314.062E-03    -136.996E-03     220.749E-03
            1216     10.1803E-03     140.788E-03    -42.8987E+06     9.47555E+06     46.8707E+06    -16.3224E+06    -184.228E-03     323.802E-03    -139.574E-03     227.664E-03    -187.676E-03     327.002E-03    -139.291E-03     217.839E-03
            1217     10.9343E-03     140.996E-03    -34.8901E+06     35.8063E+06     58.2131E+06    -17.8562E+06    -194.265E-03     336.549E-03    -142.283E-03     220.787E-03    -197.983E-03     340.108E-03    -141.994E-03     209.670E-03
            1218     11.6783E-03     141.203E-03     -28.005E+06     49.9090E+06     65.6297E+06    -20.2202E+06    -203.672E-03     349.002E-03    -145.330E-03     208.799E-03    -207.478E-03     352.702E-03    -145.034E-03     196.512E-03
            1219     12.4178E-03     141.407E-03    -20.9220E+06     64.8566E+06     73.5440E+06    -22.3277E+06    -211.646E-03     360.261E-03    -148.615E-03     193.748E-03    -215.434E-03     363.997E-03    -148.311E-03     180.374E-03
            1220     13.1458E-03     141.605E-03    -13.2764E+06     88.3777E+06     84.3682E+06    -22.4809E+06    -216.696E-03     368.692E-03    -151.996E-03     172.663E-03    -220.258E-03     372.280E-03    -151.683E-03     158.657E-03
            1221     13.8751E-03     141.779E-03    -7.66854E+06     73.7295E+06     82.7280E+06    -17.7081E+06    -219.497E-03     374.824E-03    -155.328E-03     151.286E-03    -222.874E-03     378.199E-03    -155.010E-03     136.383E-03
            1222     14.5972E-03     141.942E-03    -4.63800E+06     28.1877E+06     69.7926E+06    -9.77084E+06    -220.544E-03     379.060E-03    -158.516E-03     105.668E-03    -222.852E-03     381.251E-03    -158.201E-03     92.7164E-03
            1223     797.236E-06     140.614E-03    -147.358E+06    -208.763E+06    -144.240E+06     895.710E+03    -120.586E-03     240.700E-03    -120.115E-03     30.5010E-03    -120.828E-03     240.078E-03    -120.320E-03     30.3586E-03
            1224     1.59493E-03     140.638E-03    -144.582E+06    -198.876E+06    -133.824E+06     2.45629E+06    -120.505E-03     240.750E-03    -120.245E-03     55.9677E-03    -120.781E-03     240.177E-03    -120.416E-03     55.6967E-03
            1225     2.39356E-03     140.676E-03    -140.441E+06    -181.846E+06    -116.722E+06     3.81557E+06    -121.215E-03     241.433E-03    -120.217E-03     81.9575E-03    -121.552E-03     240.950E-03    -120.334E-03     81.5204E-03
            1226     3.19149E-03     140.733E-03    -134.142E+06    -163.576E+06    -95.8881E+06     2.33547E+06    -122.733E-03     243.046E-03    -120.313E-03     107.463E-03    -123.153E-03     242.676E-03    -120.361E-03     106.759E-03
            1227     3.98852E-03     140.807E-03    -125.459E+06    -146.267E+06    -75.5330E+06    -443.742E+03    -125.264E-03     245.831E-03    -120.567E-03     132.087E-03    -125.787E-03     245.600E-03    -120.551E-03     131.016E-03
            1228     4.78482E-03     140.901E-03    -114.631E+06    -126.984E+06    -55.7711E+06    -2.62267E+06    -129.035E-03     250.065E-03    -121.030E-03     155.689E-03    -129.701E-03     250.030E-03    -120.958E-03     154.145E-03
            1229     5.57917E-03     141.015E-03    -102.772E+06    -106.355E+06    -36.6263E+06    -5.26367E+06    -134.310E-03     256.079E-03    -121.769E-03     177.463E-03    -135.179E-03     256.309E-03    -121.649E-03     175.291E-03
            1230     6.36962E-03     141.149E-03    -91.1136E+06    -84.7156E+06    -19.6135E+06    -8.57180E+06    -141.284E-03     264.137E-03    -122.852E-03     196.925E-03    -142.434E-03     264.720E-03    -122.696E-03     193.926E-03
            1231     7.15576E-03     141.305E-03    -79.7158E+06    -64.0857E+06    -4.73336E+06    -11.4163E+06    -149.815E-03     274.155E-03    -124.340E-03     213.750E-03    -151.333E-03     275.178E-03    -124.155E-03     209.707E-03
            1232     7.93613E-03     141.480E-03    -68.5997E+06    -46.5647E+06     8.12910E+06    -14.1409E+06    -159.681E-03     285.946E-03    -126.265E-03     226.986E-03    -161.645E-03     287.483E-03    -126.057E-03     221.667E-03
            1233     8.70935E-03     141.672E-03    -57.9252E+06    -23.3789E+06     21.6086E+06    -16.8894E+06    -170.722E-03     299.370E-03    -128.648E-03     236.077E-03    -173.207E-03     301.510E-03    -128.422E-03     229.255E-03
            1234     9.47395E-03     141.880E-03    -48.0064E+06    -2.15499E+06     34.8989E+06    -18.4701E+06    -182.545E-03     314.045E-03    -131.499E-03     240.083E-03    -185.558E-03     316.786E-03    -131.252E-03     231.617E-03
            1235     10.2301E-03     142.099E-03    -39.2422E+06     12.8758E+06     45.8108E+06    -18.6431E+06    -194.522E-03     329.313E-03    -134.791E-03     238.455E-03    -197.987E-03     332.559E-03    -134.523E-03     228.328E-03
            1236     10.9757E-03     142.325E-03    -31.8415E+06     43.0886E+06     58.7687E+06    -18.7325E+06    -205.823E-03     344.272E-03    -138.449E-03     231.024E-03    -209.614E-03     347.941E-03    -138.172E-03     219.381E-03
            1237     11.7145E-03     142.550E-03    -24.6303E+06     57.1569E+06     67.2874E+06    -21.2831E+06    -215.889E-03     358.281E-03    -142.392E-03     218.120E-03    -219.779E-03     362.098E-03    -142.102E-03     205.180E-03
            1238     12.4411E-03     142.770E-03    -18.5633E+06     70.3024E+06     73.4777E+06    -22.9638E+06    -223.247E-03     369.716E-03    -146.469E-03     201.469E-03    -227.096E-03     373.541E-03    -146.177E-03     187.452E-03
            1239     13.1674E-03     142.979E-03    -14.8031E+06     89.7311E+06     83.2354E+06    -22.4661E+06    -227.362E-03     377.899E-03    -150.538E-03     178.762E-03    -230.984E-03     381.550E-03    -150.230E-03     164.138E-03
            1240     13.8849E-03     143.162E-03    -9.34709E+06     63.2662E+06     80.1087E+06    -20.0929E+06    -229.401E-03     383.861E-03    -154.459E-03     155.283E-03    -232.792E-03     387.213E-03    -154.137E-03     139.773E-03
            1241     14.6047E-03     143.332E-03    -2.02682E+06     8.65402E+06     67.8977E+06    -11.0577E+06    -228.591E-03     386.721E-03    -158.129E-03     107.148E-03    -230.860E-03     388.817E-03    -157.800E-03     93.7267E-03
            1242     811.037E-06     141.802E-03    -192.394E+06    -207.628E+06    -189.421E+06    -1.36100E+06    -105.263E-03     209.666E-03    -104.403E-03     31.9794E-03    -105.663E-03     209.176E-03    -104.770E-03     31.8965E-03
            1243     1.62091E-03     141.825E-03    -182.528E+06    -199.912E+06    -170.352E+06    -2.20362E+06    -106.835E-03     211.934E-03    -105.099E-03     58.4708E-03    -107.232E-03     211.451E-03    -105.396E-03     58.3111E-03
            1244     2.42919E-03     141.868E-03    -167.569E+06    -181.363E+06    -145.057E+06    -2.43905E+06    -109.463E-03     215.309E-03    -105.846E-03     85.7600E-03    -109.870E-03     214.884E-03    -106.065E-03     85.4811E-03
            1245     3.23573E-03     141.928E-03    -150.750E+06    -158.134E+06    -117.184E+06    -4.10348E+06    -113.162E-03     219.963E-03    -106.801E-03     112.524E-03    -113.600E-03     219.634E-03    -106.939E-03     112.039E-03
            1246     4.04066E-03     142.008E-03    -133.850E+06    -140.436E+06    -89.4767E+06    -6.88931E+06    -118.057E-03     226.056E-03    -107.999E-03     138.176E-03    -118.552E-03     225.831E-03    -108.049E-03     137.377E-03
            1247     4.84212E-03     142.108E-03    -117.892E+06    -121.456E+06    -65.3106E+06    -9.69425E+06    -124.389E-03     233.847E-03    -109.458E-03     162.356E-03    -124.992E-03     233.786E-03    -109.438E-03     161.115E-03
            1248     5.63942E-03     142.232E-03    -102.747E+06    -99.3816E+06    -44.1280E+06    -12.2648E+06    -132.277E-03     243.506E-03    -111.229E-03     184.663E-03    -133.057E-03     243.696E-03    -111.157E-03     182.815E-03
            1249     6.43184E-03     142.377E-03    -88.3403E+06    -76.4590E+06    -25.3147E+06    -15.3157E+06    -141.768E-03     255.134E-03    -113.367E-03     204.796E-03    -142.812E-03     255.670E-03    -113.255E-03     202.118E-03
            1250     7.21761E-03     142.547E-03    -74.7737E+06    -58.0241E+06    -8.76292E+06    -17.9984E+06    -152.669E-03     268.583E-03    -115.914E-03     221.920E-03    -154.065E-03     269.538E-03    -115.765E-03     218.167E-03
            1251     7.99591E-03     142.737E-03    -62.4861E+06    -39.8083E+06     6.61258E+06    -19.5721E+06    -164.805E-03     283.694E-03    -118.889E-03     235.481E-03    -166.651E-03     285.165E-03    -118.707E-03     230.391E-03
            1252     8.76559E-03     142.948E-03    -52.6085E+06    -16.5001E+06     21.7815E+06    -20.5204E+06    -177.887E-03     300.187E-03    -122.300E-03     244.873E-03    -180.276E-03     302.275E-03    -122.091E-03     238.181E-03
            1253     9.52607E-03     143.176E-03    -44.6227E+06     1.95996E+06     35.1379E+06    -21.0605E+06    -191.360E-03     317.502E-03    -126.142E-03     249.157E-03    -194.311E-03     320.209E-03    -125.904E-03     240.666E-03
            1254     10.2757E-03     143.416E-03    -36.7443E+06     15.1634E+06     45.8863E+06    -21.0515E+06    -204.747E-03     335.121E-03    -130.374E-03     247.713E-03    -208.193E-03     338.367E-03    -130.113E-03     237.348E-03
            1255     11.0163E-03     143.662E-03    -28.3235E+06     47.3786E+06     60.2450E+06    -20.8024E+06    -217.094E-03     352.020E-03    -134.926E-03     239.870E-03    -220.904E-03     355.732E-03    -134.653E-03     227.777E-03
            1256     11.7445E-03     143.908E-03    -21.7248E+06     64.3088E+06     70.6623E+06    -20.8247E+06    -227.034E-03     366.725E-03    -139.691E-03     226.253E-03    -230.973E-03     370.618E-03    -139.399E-03     212.781E-03
            1257     12.4691E-03     144.145E-03    -16.7593E+06     75.9399E+06     77.7961E+06    -22.2644E+06    -234.040E-03     378.538E-03    -144.497E-03     207.494E-03    -237.899E-03     382.388E-03    -144.194E-03     193.019E-03
            1258     13.1839E-03     144.364E-03    -10.0614E+06     88.3174E+06     87.3587E+06    -21.2063E+06    -237.973E-03     387.190E-03    -149.217E-03     182.137E-03    -241.562E-03     390.809E-03    -148.894E-03     167.012E-03
            1259     13.8982E-03     144.561E-03    -7.01276E+06     56.8944E+06     82.3228E+06    -16.9259E+06    -238.373E-03     392.064E-03    -153.691E-03     156.946E-03    -241.739E-03     395.370E-03    -153.352E-03     140.951E-03
            1260     14.6060E-03     144.732E-03    -6.82045E+06    -8.26860E+06     67.5189E+06    -12.3152E+06    -235.504E-03     393.297E-03    -157.793E-03     108.753E-03    -237.769E-03     395.313E-03    -157.434E-03     94.9383E-03
            1261     822.796E-06     142.951E-03    -243.924E+06    -194.846E+06    -240.235E+06    -8.65484E+06    -91.4933E-03     181.992E-03    -90.4989E-03     31.6855E-03    -92.0900E-03     181.716E-03    -91.0639E-03     31.5432E-03
            1262     1.64389E-03     142.981E-03    -230.283E+06    -187.315E+06    -217.221E+06    -16.5049E+06    -94.2000E-03     185.679E-03    -91.4788E-03     58.0116E-03    -94.7782E-03     185.393E-03    -91.9594E-03     57.7333E-03
            1263     2.46263E-03     143.028E-03    -209.953E+06    -171.583E+06    -187.615E+06    -23.0677E+06    -98.4567E-03     191.228E-03    -92.7718E-03     86.0038E-03    -99.0134E-03     190.965E-03    -93.1566E-03     85.5622E-03
            1264     3.27839E-03     143.096E-03    -184.799E+06    -149.199E+06    -153.172E+06    -27.2518E+06    -104.281E-03     198.723E-03    -94.4417E-03     113.443E-03    -104.827E-03     198.521E-03    -94.7233E-03     112.809E-03
            1265     4.08909E-03     143.184E-03    -157.489E+06    -133.210E+06    -117.978E+06    -30.0427E+06    -111.755E-03     208.262E-03    -96.5074E-03     139.824E-03    -112.301E-03     208.116E-03    -96.6758E-03     138.921E-03
            1266     4.89497E-03     143.297E-03    -130.042E+06    -116.054E+06    -86.6360E+06    -31.0646E+06    -120.753E-03     219.696E-03    -98.9427E-03     164.813E-03    -121.344E-03     219.664E-03    -99.0191E-03     163.532E-03
            1267     5.69489E-03     143.432E-03    -104.634E+06    -94.9033E+06    -58.5223E+06    -30.8894E+06    -131.249E-03     232.999E-03    -101.750E-03     187.822E-03    -131.960E-03     233.175E-03    -101.754E-03     185.999E-03
            1268     6.48767E-03     143.594E-03    -83.3628E+06    -73.1875E+06    -33.2232E+06    -28.8625E+06    -143.065E-03     248.009E-03    -104.944E-03     208.244E-03    -143.995E-03     248.485E-03    -104.883E-03     205.684E-03
            1269     7.27271E-03     143.780E-03    -68.2380E+06    -54.7516E+06    -11.5888E+06    -26.1978E+06    -156.128E-03     264.662E-03    -108.533E-03     225.661E-03    -157.392E-03     265.529E-03    -108.413E-03     222.102E-03
            1270     8.04875E-03     143.990E-03    -58.2865E+06    -36.3390E+06     6.71586E+06    -24.1967E+06    -170.259E-03     282.781E-03    -112.522E-03     239.539E-03    -171.972E-03     284.148E-03    -112.351E-03     234.670E-03
            1271     8.81498E-03     144.222E-03    -49.5635E+06    -11.5170E+06     24.2738E+06    -23.5763E+06    -184.864E-03     301.763E-03    -116.898E-03     249.124E-03    -187.116E-03     303.737E-03    -116.688E-03     242.634E-03
            1272     9.57034E-03     144.473E-03    -39.7616E+06     5.56575E+06     38.7541E+06    -24.0300E+06    -199.639E-03     321.281E-03    -121.642E-03     253.681E-03    -202.438E-03     323.856E-03    -121.398E-03     245.314E-03
            1273     10.3157E-03     144.736E-03    -30.3083E+06     15.7862E+06     49.7497E+06    -23.1299E+06    -213.878E-03     340.587E-03    -126.708E-03     252.460E-03    -217.165E-03     343.688E-03    -126.439E-03     242.125E-03
            1274     11.0484E-03     145.008E-03    -23.1674E+06     50.3916E+06     64.8378E+06    -20.9689E+06    -226.357E-03     358.367E-03    -132.011E-03     245.066E-03    -230.051E-03     361.980E-03    -131.726E-03     232.888E-03
            1275     11.7741E-03     145.273E-03    -16.9670E+06     66.8680E+06     75.9837E+06    -19.5743E+06    -236.603E-03     374.059E-03    -137.455E-03     230.542E-03    -240.473E-03     377.894E-03    -137.148E-03     216.779E-03
            1276     12.4886E-03     145.527E-03    -12.5866E+06     80.3783E+06     85.0314E+06    -17.5087E+06    -243.776E-03     386.675E-03    -142.899E-03     209.813E-03    -247.591E-03     390.492E-03    -142.572E-03     194.948E-03
            1277     13.1991E-03     145.765E-03    -12.0748E+06     90.2205E+06     93.0734E+06    -17.8519E+06    -246.543E-03     394.720E-03    -148.177E-03     183.289E-03    -250.082E-03     398.271E-03    -147.825E-03     167.914E-03
            1278     13.9033E-03     145.964E-03    -6.16180E+06     51.8436E+06     86.4649E+06    -18.4055E+06    -245.021E-03     398.101E-03    -153.080E-03     156.512E-03    -248.295E-03     401.288E-03    -152.714E-03     140.294E-03
            1279     14.6160E-03     146.139E-03     2.53775E+06    -24.5097E+06     73.2950E+06    -10.4232E+06    -240.880E-03     398.394E-03    -157.514E-03     107.883E-03    -243.043E-03     400.267E-03    -157.115E-03     93.8583E-03
            1280     830.677E-06     144.075E-03    -248.878E+06    -166.403E+06    -243.891E+06    -14.5466E+06    -82.2063E-03     163.279E-03    -81.0732E-03     29.4987E-03    -82.8606E-03     163.163E-03    -81.6905E-03     29.2718E-03
            1281     1.66034E-03     144.107E-03    -238.743E+06    -157.640E+06    -225.352E+06    -27.0918E+06    -85.0545E-03     167.201E-03    -82.1462E-03     53.8296E-03    -85.7050E-03     167.094E-03    -82.6982E-03     53.3948E-03
            1282     2.48703E-03     144.163E-03    -225.056E+06    -145.028E+06    -199.735E+06    -40.2969E+06    -90.1356E-03     173.751E-03    -83.6149E-03     80.1455E-03    -90.7887E-03     173.666E-03    -84.0769E-03     79.4655E-03
            1283     3.30905E-03     144.239E-03    -206.461E+06    -128.436E+06    -171.261E+06    -51.2094E+06    -97.2283E-03     182.855E-03    -85.6262E-03     106.775E-03    -97.8852E-03     182.818E-03    -85.9969E-03     105.830E-03
            1284     4.12599E-03     144.341E-03    -184.358E+06    -117.810E+06    -143.315E+06    -58.9629E+06    -106.344E-03     194.511E-03    -88.1666E-03     133.169E-03    -107.005E-03     194.514E-03    -88.4450E-03     131.920E-03
            1285     4.93580E-03     144.467E-03    -160.171E+06    -106.738E+06    -116.687E+06    -63.6236E+06    -117.365E-03     208.579E-03    -91.2141E-03     158.537E-03    -118.057E-03     208.664E-03    -91.4105E-03     156.907E-03
            1286     5.73759E-03     144.621E-03    -135.117E+06    -91.6174E+06    -87.1080E+06    -64.3279E+06    -129.980E-03     224.742E-03    -94.7616E-03     182.185E-03    -130.766E-03     224.980E-03    -94.8684E-03     180.056E-03
            1287     6.53059E-03     144.800E-03    -109.511E+06    -79.5836E+06    -55.0252E+06    -59.6271E+06    -143.961E-03     242.748E-03    -98.7871E-03     203.097E-03    -144.910E-03     243.192E-03    -98.7881E-03     200.321E-03
            1288     7.31424E-03     145.006E-03    -84.0362E+06    -64.6173E+06    -24.4558E+06    -49.4261E+06    -159.032E-03     262.270E-03    -103.237E-03     220.636E-03    -160.231E-03     263.020E-03    -103.144E-03     217.019E-03
            1289     8.08758E-03     145.238E-03    -60.3023E+06    -42.6894E+06     3.64362E+06    -39.6304E+06    -174.636E-03     282.706E-03    -108.070E-03     234.331E-03    -176.179E-03     283.882E-03    -107.902E-03     229.579E-03
            1290     8.84986E-03     145.494E-03    -40.0743E+06    -14.8203E+06     28.3553E+06    -32.1459E+06    -190.413E-03     303.653E-03    -113.240E-03     243.848E-03    -192.389E-03     305.363E-03    -113.019E-03     237.644E-03
            1291     9.60191E-03     145.769E-03    -27.1967E+06     3.14252E+06     45.3530E+06    -25.1152E+06    -205.905E-03     324.615E-03    -118.709E-03     248.591E-03    -208.357E-03     326.860E-03    -118.448E-03     240.684E-03
            1292     10.3410E-03     146.060E-03    -21.9543E+06     16.5583E+06     58.4187E+06    -20.3631E+06    -220.023E-03     344.442E-03    -124.418E-03     247.731E-03    -222.950E-03     347.189E-03    -124.118E-03     237.963E-03
            1293     11.0722E-03     146.352E-03    -18.4785E+06     53.2301E+06     74.9688E+06    -18.4280E+06    -232.374E-03     362.639E-03    -130.265E-03     240.685E-03    -235.724E-03     365.905E-03    -129.940E-03     229.043E-03
            1294     11.7912E-03     146.645E-03    -14.2586E+06     65.4553E+06     84.9336E+06    -16.6547E+06    -242.547E-03     378.722E-03    -136.174E-03     226.843E-03    -246.119E-03     382.237E-03    -135.824E-03     213.480E-03
            1295     12.5021E-03     146.920E-03    -8.44532E+06     78.6941E+06     94.6366E+06    -13.9575E+06    -249.330E-03     391.344E-03    -142.014E-03     207.618E-03    -252.948E-03     394.944E-03    -141.643E-03     192.872E-03
            1296     13.2069E-03     147.168E-03    -698.684E+03     93.8797E+06     108.612E+06    -10.5719E+06    -251.384E-03     399.014E-03    -147.630E-03     179.903E-03    -254.732E-03     402.382E-03    -147.222E-03     164.690E-03
            1297     13.9139E-03     147.378E-03    -1.92373E+06     53.6234E+06     98.9406E+06    -8.83768E+06    -248.838E-03     401.628E-03    -152.790E-03     150.853E-03    -251.878E-03     404.566E-03    -152.370E-03     135.131E-03
            1298     14.6125E-03     147.552E-03    -8.29167E+06    -36.9777E+06     77.9529E+06    -7.98958E+06    -243.344E-03     400.751E-03    -157.407E-03     104.119E-03    -245.404E-03     402.425E-03    -156.952E-03     90.3884E-03
            1299     833.777E-06     145.182E-03    -192.308E+06    -129.494E+06    -188.569E+06    -15.9711E+06    -79.6275E-03     157.909E-03    -78.2815E-03     24.1162E-03    -80.1334E-03     157.818E-03    -78.7578E-03     23.8331E-03
            1300     1.66585E-03     145.220E-03    -185.611E+06    -120.440E+06    -172.909E+06    -29.1374E+06    -82.2779E-03     161.783E-03    -79.5054E-03     44.4244E-03    -82.7974E-03     161.717E-03    -79.9262E-03     43.8911E-03
            1301     2.49517E-03     145.281E-03    -175.891E+06    -107.866E+06    -151.708E+06    -43.0491E+06    -87.2666E-03     168.281E-03    -81.0142E-03     66.3941E-03    -87.8088E-03     168.255E-03    -81.3613E-03     65.5694E-03
            1302     3.32050E-03     145.368E-03    -165.653E+06    -95.5543E+06    -132.139E+06    -55.9113E+06    -94.2404E-03     177.325E-03    -83.0847E-03     88.9801E-03    -94.8152E-03     177.356E-03    -83.3666E-03     87.8338E-03
            1303     4.13975E-03     145.482E-03    -155.106E+06    -89.2491E+06    -115.114E+06    -67.1175E+06    -103.370E-03     189.089E-03    -85.7193E-03     112.160E-03    -103.985E-03     189.172E-03    -85.9406E-03     110.648E-03
            1304     4.95166E-03     145.625E-03    -144.199E+06    -84.2688E+06    -99.6964E+06    -76.0064E+06    -114.632E-03     203.557E-03    -88.9244E-03     135.253E-03    -115.313E-03     203.719E-03    -89.0916E-03     133.311E-03
            1305     5.75483E-03     145.795E-03    -132.064E+06    -78.4142E+06    -82.4607E+06    -81.0482E+06    -127.724E-03     220.421E-03    -92.6970E-03     157.433E-03    -128.506E-03     220.699E-03    -92.8041E-03     154.990E-03
            1306     6.54834E-03     145.996E-03    -118.181E+06    -77.5738E+06    -63.1980E+06    -82.2944E+06    -142.543E-03     239.562E-03    -97.0186E-03     177.953E-03    -143.465E-03     239.978E-03    -97.0507E-03     174.881E-03
            1307     7.33020E-03     146.225E-03    -100.490E+06    -75.9586E+06    -43.2888E+06    -79.3302E+06    -158.495E-03     260.326E-03    -101.832E-03     195.771E-03    -159.595E-03     260.933E-03    -101.792E-03     191.923E-03
            1308     8.10062E-03     146.481E-03    -79.1207E+06    -57.2891E+06    -16.8068E+06    -72.4338E+06    -174.870E-03     281.944E-03    -107.074E-03     210.139E-03    -176.216E-03     282.864E-03    -106.960E-03     205.348E-03
            1309     8.86042E-03     146.760E-03    -58.3891E+06    -37.3769E+06     13.0746E+06    -60.8228E+06    -191.324E-03     304.014E-03    -112.689E-03     220.455E-03    -192.978E-03     305.300E-03    -112.485E-03     214.524E-03
            1310     9.60709E-03     147.063E-03    -39.7375E+06    -21.1178E+06     38.8712E+06    -43.7279E+06    -206.732E-03     325.295E-03    -118.564E-03     225.779E-03    -208.722E-03     326.967E-03    -118.281E-03     218.557E-03
            1311     10.3455E-03     147.376E-03    -21.3259E+06     4.14947E+06     64.3163E+06    -29.1019E+06    -220.555E-03     345.146E-03    -124.591E-03     225.661E-03    -222.886E-03     347.240E-03    -124.244E-03     216.967E-03
            1312     11.0712E-03     147.697E-03    -5.86599E+06     42.2234E+06     88.1714E+06    -16.9853E+06    -231.963E-03     362.611E-03    -130.648E-03     220.443E-03    -234.600E-03     365.131E-03    -130.260E-03     210.271E-03
            1313     11.7891E-03     148.012E-03     1.38153E+06     57.7470E+06     98.7622E+06    -4.16573E+06    -240.522E-03     377.125E-03    -136.603E-03     210.656E-03    -243.366E-03     379.901E-03    -136.195E-03     199.137E-03
            1314     12.5014E-03     148.307E-03     361.675E+03     87.8301E+06     110.852E+06    -1.46386E+06    -246.349E-03     388.714E-03    -142.366E-03     195.909E-03    -249.371E-03     391.736E-03    -141.939E-03     183.022E-03
            1315     13.2072E-03     148.577E-03    -2.93016E+06     92.2713E+06     119.321E+06    -4.70381E+06    -249.155E-03     397.030E-03    -147.875E-03     172.926E-03    -252.155E-03     400.006E-03    -147.408E-03     158.892E-03
            1316     13.9058E-03     148.789E-03     1.15564E+06     47.8951E+06     110.376E+06     500.079E+03    -247.562E-03     400.519E-03    -152.958E-03     144.809E-03    -250.287E-03     403.100E-03    -152.477E-03     130.210E-03
            1317     14.6177E-03     148.967E-03     8.69056E+06    -32.7654E+06     94.7058E+06     4.00221E+06    -241.511E-03     399.003E-03    -157.492E-03     99.5399E-03    -243.259E-03     400.391E-03    -156.984E-03     87.0873E-03
            1318     828.990E-06     146.293E-03    -124.435E+06    -90.8725E+06    -121.890E+06    -15.9233E+06    -85.6751E-03     170.663E-03    -84.9877E-03     14.7371E-03    -86.0014E-03     170.565E-03    -85.2850E-03     14.3873E-03
            1319     1.65685E-03     146.334E-03    -118.803E+06    -82.4626E+06    -106.737E+06    -28.7479E+06    -88.2707E-03     174.293E-03    -86.0227E-03     27.8441E-03    -88.6165E-03     174.220E-03    -86.2646E-03     27.1856E-03
            1320     2.48156E-03     146.401E-03    -109.436E+06    -72.0254E+06    -87.4250E+06    -40.5308E+06    -92.4458E-03     180.014E-03    -87.5681E-03     41.5279E-03    -92.8122E-03     179.976E-03    -87.7421E-03     40.5368E-03
            1321     3.30189E-03     146.496E-03    -99.2167E+06    -61.9846E+06    -68.4742E+06    -50.3156E+06    -98.2249E-03     187.864E-03    -89.6396E-03     55.9584E-03    -98.6218E-03     187.875E-03    -89.7482E-03     54.6092E-03
            1322     4.11697E-03     146.621E-03    -90.2811E+06    -57.2370E+06    -53.1606E+06    -58.7746E+06    -105.684E-03     197.921E-03    -92.2370E-03     71.2775E-03    -106.124E-03     197.980E-03    -92.2889E-03     69.5277E-03
            1323     4.92535E-03     146.776E-03    -83.6746E+06    -55.8579E+06    -42.2108E+06    -65.4497E+06    -114.746E-03     210.097E-03    -95.3509E-03     87.0904E-03    -115.249E-03     210.217E-03    -95.3596E-03     84.8971E-03
            1324     5.72556E-03     146.963E-03    -79.7338E+06    -55.2516E+06    -35.8141E+06    -69.8501E+06    -125.527E-03     224.496E-03    -98.9683E-03     103.097E-03    -126.120E-03     224.707E-03    -98.9517E-03     100.410E-03
            1325     6.51606E-03     147.181E-03    -77.8839E+06    -57.5267E+06    -31.8451E+06    -73.4083E+06    -137.762E-03     240.841E-03    -103.079E-03     119.168E-03    -138.470E-03     241.158E-03    -103.042E-03     115.918E-03
            1326     7.29660E-03     147.432E-03    -77.0594E+06    -61.4047E+06    -26.9512E+06    -78.4180E+06    -151.174E-03     258.821E-03    -107.647E-03     134.491E-03    -152.022E-03     259.257E-03    -107.581E-03     130.567E-03
            1327     8.06654E-03     147.710E-03    -75.6285E+06    -55.9886E+06    -15.9192E+06    -80.9757E+06    -165.726E-03     278.360E-03    -112.634E-03     148.358E-03    -166.756E-03     278.974E-03    -112.522E-03     143.681E-03
            1328     8.82331E-03     148.016E-03    -71.1219E+06    -50.4535E+06     1.13571E+06    -77.3490E+06    -180.378E-03     298.351E-03    -117.974E-03     159.953E-03    -181.606E-03     299.154E-03    -117.792E-03     154.483E-03
            1329     9.57079E-03     148.341E-03    -60.4639E+06    -47.1961E+06     19.9034E+06    -70.2324E+06    -194.244E-03     317.763E-03    -123.519E-03     168.586E-03    -195.651E-03     318.742E-03    -123.264E-03     162.272E-03
            1330     10.3056E-03     148.681E-03    -45.6116E+06    -27.8478E+06     43.6065E+06    -59.4880E+06    -206.675E-03     335.790E-03    -129.116E-03     175.050E-03    -208.265E-03     337.009E-03    -128.791E-03     167.908E-03
            1331     11.0332E-03     149.026E-03    -29.9766E+06    -116.594E+03     73.2763E+06    -42.1239E+06    -216.793E-03     351.429E-03    -134.636E-03     177.864E-03    -218.561E-03     352.892E-03    -134.226E-03     169.987E-03
            1332     11.7571E-03     149.360E-03    -13.8906E+06     18.4415E+06     98.1614E+06    -19.0766E+06    -224.576E-03     364.512E-03    -139.937E-03     176.203E-03    -226.481E-03     366.162E-03    -139.453E-03     167.602E-03
            1333     12.4737E-03     149.682E-03    -1.02021E+06     70.2823E+06     124.580E+06     5.09298E+06    -229.746E-03     374.664E-03    -144.917E-03     169.543E-03    -231.833E-03     376.646E-03    -144.395E-03     160.147E-03
            1334     13.1901E-03     149.962E-03     780.359E+03     96.2099E+06     134.747E+06     19.4788E+06    -233.346E-03     382.913E-03    -149.567E-03     155.818E-03    -235.639E-03     385.167E-03    -149.033E-03     145.036E-03
            1335     13.9053E-03     150.204E-03    -8.39766E+06     60.2727E+06     118.347E+06     13.4915E+06    -234.764E-03     388.654E-03    -153.890E-03     133.283E-03    -237.140E-03     390.876E-03    -153.374E-03     120.744E-03
            1336     14.6082E-03     150.367E-03    -12.9128E+06    -25.4134E+06       99.39E+06     2.82275E+06    -232.164E-03     390.053E-03    -157.889E-03     92.1059E-03    -233.792E-03     391.258E-03    -157.336E-03     81.0142E-03
            1337     814.867E-06     147.430E-03    -60.6846E+06    -52.3350E+06    -55.8605E+06    -14.6274E+06    -105.146E-03     208.723E-03    -103.578E-03     694.156E-06    -105.325E-03     208.601E-03    -103.693E-03     249.911E-06
            1338     1.62740E-03     147.473E-03    -55.1380E+06    -46.6295E+06    -42.5012E+06    -25.6653E+06    -106.014E-03     211.275E-03    -105.261E-03     535.409E-06    -106.199E-03     211.158E-03    -105.326E-03    -284.742E-06
            1339     2.43735E-03     147.545E-03    -48.9174E+06    -40.1586E+06    -26.8092E+06    -35.1678E+06    -108.507E-03     215.250E-03    -106.743E-03     1.58905E-03    -108.701E-03     215.143E-03    -106.748E-03     365.157E-06
            1340     3.24354E-03     147.645E-03    -43.4961E+06    -34.2883E+06    -12.9530E+06    -42.0493E+06    -112.021E-03     220.765E-03    -108.744E-03     3.33552E-03    -112.232E-03     220.677E-03    -108.696E-03     1.70137E-03
            1341     4.04421E-03     147.777E-03    -40.0165E+06    -31.9604E+06    -1.90276E+06    -46.1722E+06    -116.224E-03     227.473E-03    -111.250E-03     5.75863E-03    -116.459E-03     227.401E-03    -111.155E-03     3.70830E-03
            1342     4.83859E-03     147.940E-03    -38.6855E+06    -32.2063E+06     5.31864E+06    -49.0657E+06    -120.883E-03     235.073E-03    -114.190E-03     9.14639E-03    -121.154E-03     235.022E-03    -114.061E-03     6.66273E-03
            1343     5.62633E-03     148.136E-03    -38.6313E+06    -33.8098E+06     9.82164E+06    -50.9378E+06    -126.140E-03     243.653E-03    -117.513E-03     14.0747E-03    -126.458E-03     243.637E-03    -117.359E-03     11.1394E-03
            1344     6.40636E-03     148.366E-03    -38.3418E+06    -34.5449E+06     14.7397E+06    -52.7010E+06    -131.956E-03     253.145E-03    -121.188E-03     19.9719E-03    -132.330E-03     253.174E-03    -121.009E-03     16.5659E-03
            1345     7.17905E-03     148.627E-03    -38.2705E+06    -34.9073E+06     20.8493E+06    -54.9694E+06    -138.379E-03     263.551E-03    -125.173E-03     26.7559E-03    -138.819E-03     263.637E-03    -124.962E-03     22.8486E-03
            1346     7.94239E-03     148.922E-03    -39.6340E+06    -35.1713E+06     26.0061E+06    -56.9167E+06    -145.160E-03     274.543E-03    -129.383E-03     34.9451E-03    -145.680E-03     274.700E-03    -129.145E-03     30.5535E-03
            1347     8.69891E-03     149.243E-03    -42.1520E+06    -35.9427E+06     29.1736E+06    -57.8619E+06    -151.950E-03     285.635E-03    -133.684E-03     44.5660E-03    -152.555E-03     285.871E-03    -133.425E-03     39.7684E-03
            1348     9.44680E-03     149.589E-03    -46.8293E+06    -38.7652E+06     31.6654E+06    -58.6427E+06    -158.685E-03     296.614E-03    -137.929E-03     56.0485E-03    -159.388E-03     296.930E-03    -137.646E-03     50.9050E-03
            1349     10.1911E-03     149.948E-03    -52.3823E+06    -33.5854E+06     38.5986E+06    -59.7440E+06    -164.751E-03     306.712E-03    -141.961E-03     68.7281E-03    -165.573E-03     307.137E-03    -141.643E-03     63.3199E-03
            1350     10.9336E-03     150.313E-03    -54.7912E+06    -24.7227E+06     53.0153E+06    -57.7979E+06    -170.390E-03     316.038E-03    -145.648E-03     82.3999E-03    -171.334E-03     316.582E-03    -145.268E-03     76.7970E-03
            1351     11.6683E-03     150.674E-03    -49.6679E+06    -26.5977E+06     66.4233E+06    -47.3042E+06    -176.015E-03     324.874E-03    -148.860E-03     97.7243E-03    -177.050E-03     325.494E-03    -148.417E-03     91.9582E-03
            1352     12.4060E-03     151.009E-03    -34.4017E+06     4.22091E+06     84.4773E+06    -25.1753E+06    -182.350E-03     333.901E-03    -151.552E-03     113.719E-03    -183.502E-03     334.747E-03    -151.085E-03     107.829E-03
            1353     13.1391E-03     151.320E-03    -15.7063E+06     46.4681E+06     105.508E+06     9.76398E+06    -190.131E-03     344.024E-03    -153.893E-03     125.317E-03    -191.426E-03     345.156E-03    -153.410E-03     119.157E-03
            1354     13.8674E-03     151.572E-03     1.34296E+06     83.9030E+06     131.685E+06     31.5102E+06    -201.995E-03     358.246E-03    -156.251E-03     124.738E-03    -203.569E-03     359.758E-03    -155.716E-03     117.057E-03
            1355     14.6033E-03     151.763E-03     12.6139E+06     10.0828E+06     103.937E+06     14.8619E+06    -210.466E-03     369.173E-03    -158.708E-03     88.2071E-03    -211.599E-03     370.090E-03    -158.221E-03     80.3617E-03
            1356     785.673E-06     148.629E-03     3.55949E+06    -20.1633E+06     8.71205E+06    -9.17696E+06    -140.158E-03     281.046E-03    -140.888E-03    -21.4657E-03    -140.202E-03     280.833E-03    -140.821E-03    -21.9226E-03
            1357     1.57082E-03     148.673E-03     4.44773E+06    -18.0194E+06     17.5261E+06    -15.4088E+06    -140.260E-03     282.093E-03    -141.833E-03    -39.2554E-03    -140.311E-03     281.851E-03    -141.726E-03    -40.0818E-03
            1358     2.35380E-03     148.746E-03     3.97347E+06    -15.3308E+06     28.4034E+06    -20.3835E+06    -139.916E-03     283.213E-03    -143.297E-03    -57.8071E-03    -139.965E-03     282.946E-03    -143.139E-03    -59.0013E-03
            1359     3.13250E-03     148.849E-03     2.21470E+06    -13.3341E+06     37.5048E+06    -23.5023E+06    -139.367E-03     284.600E-03    -145.233E-03    -75.6352E-03    -139.406E-03     284.302E-03    -145.029E-03    -77.1908E-03
            1360     3.90633E-03     148.982E-03    -508.708E+03    -13.6964E+06     44.7270E+06    -24.9381E+06    -138.099E-03     285.698E-03    -147.599E-03    -92.2197E-03    -138.122E-03     285.357E-03    -147.355E-03    -94.1196E-03
            1361     4.67504E-03     149.147E-03    -3.17274E+06    -14.5515E+06     51.0395E+06    -25.7457E+06    -135.908E-03     286.207E-03    -150.298E-03    -106.791E-03    -135.909E-03     285.818E-03    -150.017E-03    -109.025E-03
            1362     5.43792E-03     149.343E-03    -5.55992E+06    -16.0966E+06     57.1808E+06    -26.8602E+06    -132.617E-03     285.858E-03    -153.241E-03    -118.653E-03    -132.594E-03     285.422E-03    -152.923E-03    -121.205E-03
            1363     6.19566E-03     149.572E-03    -8.14865E+06    -15.9854E+06     63.4338E+06    -28.1705E+06    -128.354E-03     284.688E-03    -156.334E-03    -127.217E-03    -128.314E-03     284.223E-03    -155.982E-03    -130.068E-03
            1364     6.94651E-03     149.834E-03    -11.2924E+06    -15.5442E+06     68.2066E+06    -29.0148E+06    -123.254E-03     282.714E-03    -159.460E-03    -131.362E-03    -123.210E-03     282.246E-03    -159.080E-03    -134.471E-03
            1365     7.69342E-03     150.125E-03    -15.1292E+06    -15.3275E+06     70.6261E+06    -28.9999E+06    -117.064E-03     279.505E-03    -162.440E-03    -130.021E-03    -117.038E-03     279.061E-03    -162.043E-03    -133.291E-03
            1366     8.43758E-03     150.446E-03    -19.0280E+06    -15.6209E+06     71.6821E+06    -29.0680E+06    -110.282E-03     275.353E-03    -165.072E-03    -122.559E-03    -110.292E-03     274.961E-03    -164.663E-03    -125.886E-03
            1367     9.18345E-03     150.789E-03    -22.8430E+06    -18.3350E+06     71.1138E+06     -27.162E+06    -103.664E-03     270.843E-03    -167.178E-03    -109.517E-03    -103.729E-03     270.519E-03    -166.763E-03    -112.795E-03
            1368     9.93193E-03     151.150E-03    -24.3976E+06    -11.1823E+06     73.3801E+06    -28.6653E+06    -97.4862E-03     266.074E-03    -168.588E-03    -91.6338E-03    -97.6229E-03     265.880E-03    -168.169E-03    -94.8429E-03
            1369     10.6837E-03     151.520E-03    -28.8244E+06    -9.90533E+06     70.3562E+06    -28.4833E+06    -91.7202E-03     260.809E-03    -169.088E-03    -67.8772E-03    -91.9427E-03     260.734E-03    -168.680E-03    -70.9288E-03
            1370     11.4548E-03     151.888E-03    -34.6252E+06    -20.1784E+06     61.9217E+06    -28.0563E+06    -88.0226E-03     256.616E-03    -168.594E-03    -39.5261E-03    -88.3279E-03     256.614E-03    -168.204E-03    -42.3846E-03
            1371     12.2354E-03     152.247E-03    -38.6632E+06    -25.1764E+06     59.8074E+06    -28.4124E+06    -88.6507E-03     255.927E-03    -167.276E-03    -9.75922E-03    -89.0451E-03     256.003E-03    -166.884E-03    -12.4769E-03
            1372     13.0278E-03     152.579E-03    -36.0137E+06    -14.3714E+06     60.9037E+06    -22.3031E+06    -96.3371E-03     261.831E-03    -165.494E-03     15.6685E-03    -96.7894E-03     262.002E-03    -165.117E-03     13.1163E-03
            1373     13.8246E-03     152.875E-03    -12.1916E+06     41.7124E+06     80.1746E+06    -1.87980E+06    -113.398E-03     277.172E-03    -163.774E-03     39.3162E-03    -113.971E-03     277.711E-03    -163.416E-03     36.3810E-03
            1374     14.5763E-03     153.128E-03     14.4546E+06     23.5906E+06     65.3512E+06     18.5695E+06    -131.458E-03     293.760E-03    -162.303E-03     33.7115E-03    -131.840E-03     294.168E-03    -162.031E-03     30.8195E-03
            1375     14.5145E-03     75.9680E-03    -5.30221E+06     89.2968E+06     97.5194E+06    -544.407E+03    -163.296E-03     327.725E-03    -164.430E-03     66.5090E-03    -165.307E-03     329.752E-03    -164.064E-03     57.0564E-03
            1376     13.7482E-03     75.8575E-03    -10.9496E+06     86.2709E+06     98.3885E+06     192.703E+03    -163.290E-03     327.759E-03    -164.469E-03     100.816E-03    -166.301E-03     330.752E-03    -164.087E-03     89.0684E-03
            1377     12.9847E-03     75.7344E-03    -17.1986E+06     78.5561E+06     92.7854E+06     454.824E+03    -164.006E-03     328.501E-03    -164.495E-03     114.959E-03    -167.393E-03     331.837E-03    -164.120E-03     102.816E-03
            1378     12.2202E-03     75.5893E-03    -23.5257E+06     72.5129E+06     81.7888E+06     243.031E+03    -164.652E-03     329.146E-03    -164.495E-03     131.500E-03    -168.557E-03     332.988E-03    -164.157E-03     118.678E-03
            1379     11.4555E-03     75.4259E-03    -30.0656E+06     67.7780E+06     71.7226E+06     416.850E+03    -165.534E-03     330.032E-03    -164.498E-03     142.999E-03    -169.745E-03     334.169E-03    -164.194E-03     129.843E-03
            1380     10.6920E-03     75.2504E-03    -36.7851E+06     53.7710E+06     64.5846E+06     743.025E+03    -166.135E-03     330.665E-03    -164.530E-03     151.202E-03    -170.483E-03     334.886E-03    -164.232E-03     137.939E-03
            1381     9.92729E-03     75.0666E-03    -44.2744E+06     21.1416E+06     54.9082E+06     1.07172E+06    -166.667E-03     331.250E-03    -164.583E-03     154.899E-03    -170.918E-03     335.259E-03    -164.275E-03     141.809E-03
            1382     9.16326E-03     74.8799E-03    -52.0954E+06    -22.4116E+06     41.8710E+06     940.535E+03    -167.152E-03     331.783E-03    -164.631E-03     154.119E-03    -171.095E-03     335.340E-03    -164.314E-03     141.480E-03
            1383     8.39972E-03     74.6963E-03    -60.1392E+06    -64.2516E+06     27.1418E+06     673.534E+03    -167.367E-03     332.028E-03    -164.661E-03     149.824E-03    -170.859E-03     334.999E-03    -164.345E-03     137.930E-03
            1384     7.63589E-03     74.5189E-03    -68.4668E+06    -100.875E+06     12.6298E+06     630.919E+03    -167.255E-03     331.943E-03    -164.687E-03     142.670E-03    -170.226E-03     334.275E-03    -164.379E-03     131.756E-03
            1385     6.87194E-03     74.3522E-03    -76.9747E+06    -137.112E+06    -2.52746E+06     655.570E+03    -167.006E-03     331.728E-03    -164.722E-03     133.385E-03    -169.440E-03     333.409E-03    -164.424E-03     123.591E-03
            1386     6.10785E-03     74.1968E-03    -85.3549E+06    -168.421E+06    -17.3694E+06     499.936E+03    -166.843E-03     331.596E-03    -164.753E-03     122.358E-03    -168.771E-03     332.673E-03    -164.471E-03     113.744E-03
            1387     5.34432E-03     74.0556E-03    -93.9148E+06    -196.688E+06    -32.5774E+06     231.278E+03    -166.653E-03     331.415E-03    -164.762E-03     109.839E-03    -168.126E-03     331.951E-03    -164.504E-03     102.425E-03
            1388     4.58117E-03     73.9292E-03    -102.669E+06    -226.711E+06    -49.3826E+06     38.5863E+03    -166.283E-03     331.035E-03    -164.752E-03     96.4501E-03    -167.362E-03     331.088E-03    -164.521E-03     90.2192E-03
            1389     3.81712E-03     73.8199E-03    -111.180E+06    -250.133E+06    -67.7907E+06    -39.9434E+03    -165.763E-03     330.493E-03    -164.730E-03     82.0535E-03    -166.518E-03     330.162E-03    -164.545E-03     76.9785E-03
            1390     3.05375E-03     73.7289E-03    -119.483E+06    -271.553E+06    -86.8466E+06    -63.6036E+03    -165.409E-03     330.116E-03    -164.707E-03     66.8184E-03    -165.903E-03     329.474E-03    -164.574E-03     62.8427E-03
            1391     2.29029E-03     73.6559E-03    -127.155E+06    -293.223E+06    -105.510E+06    -40.8586E+03    -165.138E-03     329.806E-03    -164.668E-03     50.8759E-03    -165.430E-03     328.912E-03    -164.586E-03     47.9388E-03
            1392     1.52671E-03     73.6035E-03    -133.110E+06    -309.090E+06    -122.381E+06     34.5831E+03    -164.848E-03     329.461E-03    -164.613E-03     34.6413E-03    -164.996E-03     328.394E-03    -164.583E-03     32.6893E-03
            1393     763.520E-06     73.5704E-03    -137.219E+06    -318.431E+06    -134.594E+06     93.1169E+03    -164.737E-03     329.219E-03    -164.482E-03     19.0281E-03    -164.801E-03     328.056E-03    -164.495E-03     17.9811E-03
            1394     14.5099E-03     74.6508E-03    -5.17266E+06     89.1136E+06     97.0376E+06    -385.336E+03    -163.156E-03     327.609E-03    -164.452E-03     66.1989E-03    -165.167E-03     329.635E-03    -164.089E-03     56.7256E-03
            1395     13.7488E-03     74.5395E-03    -10.9206E+06     85.5717E+06     98.0594E+06    -310.299E+03    -163.570E-03     328.061E-03    -164.491E-03     101.079E-03    -166.582E-03     331.054E-03    -164.109E-03     89.3103E-03
            1396     12.9839E-03     74.4195E-03    -16.7191E+06     78.2490E+06     93.0705E+06     201.531E+03    -163.879E-03     328.396E-03    -164.517E-03     115.469E-03    -167.269E-03     331.735E-03    -164.141E-03     103.332E-03
            1397     12.2191E-03     74.2724E-03    -23.3681E+06     72.5644E+06     81.9856E+06     503.113E+03    -164.816E-03     329.333E-03    -164.517E-03     131.734E-03    -168.723E-03     333.178E-03    -164.179E-03     118.906E-03
            1398     11.4559E-03     74.1091E-03    -30.3500E+06     67.3435E+06     71.2773E+06     448.106E+03    -165.546E-03     330.060E-03    -164.515E-03     142.738E-03    -169.753E-03     334.192E-03    -164.212E-03     129.581E-03
            1399     10.6910E-03     73.9343E-03    -37.7757E+06     52.9736E+06     63.8588E+06     646.244E+03    -166.228E-03     330.770E-03    -164.542E-03     150.790E-03    -170.576E-03     334.987E-03    -164.245E-03     137.511E-03
            1400     9.92756E-03     73.7495E-03    -45.2868E+06     21.0782E+06     54.5940E+06     813.895E+03    -166.817E-03     331.401E-03    -164.584E-03     154.524E-03    -171.071E-03     335.410E-03    -164.276E-03     141.411E-03
            1401     9.16388E-03     73.5637E-03    -53.0142E+06    -22.0459E+06     41.6707E+06     811.278E+03    -167.136E-03     331.760E-03    -164.625E-03     154.064E-03    -171.081E-03     335.318E-03    -164.307E-03     141.427E-03
            1402     8.39967E-03     73.3794E-03    -61.0284E+06    -64.2937E+06     26.9141E+06     734.483E+03    -167.211E-03     331.873E-03    -164.663E-03     149.922E-03    -170.706E-03     334.845E-03    -164.346E-03     138.042E-03
            1403     7.63566E-03     73.2029E-03    -68.9135E+06    -100.744E+06     12.5269E+06     671.009E+03    -167.148E-03     331.850E-03    -164.702E-03     142.707E-03    -170.120E-03     334.184E-03    -164.394E-03     131.801E-03
            1404     6.87160E-03     73.0357E-03    -76.7338E+06    -136.729E+06    -2.35431E+06     473.743E+03    -167.167E-03     331.901E-03    -164.734E-03     133.301E-03    -169.600E-03     333.584E-03    -164.436E-03     123.490E-03
            1405     6.10811E-03     72.8804E-03    -84.8996E+06    -168.421E+06    -17.0184E+06     262.938E+03    -166.994E-03     331.741E-03    -164.747E-03     122.132E-03    -168.918E-03     332.815E-03    -164.465E-03     113.508E-03
            1406     5.34449E-03     72.7385E-03    -93.4132E+06    -196.204E+06    -32.1730E+06     252.930E+03    -166.609E-03     331.356E-03    -164.747E-03     109.847E-03    -168.080E-03     331.892E-03    -164.488E-03     102.439E-03
            1407     4.58063E-03     72.6128E-03    -102.223E+06    -226.332E+06    -49.2992E+06     29.6596E+03    -166.207E-03     330.951E-03    -164.744E-03     96.4681E-03    -167.285E-03     331.006E-03    -164.514E-03     90.2405E-03
            1408     3.81733E-03     72.5037E-03    -110.980E+06    -250.249E+06    -67.7499E+06    -122.223E+03    -165.832E-03     330.553E-03    -164.721E-03     81.9684E-03    -166.585E-03     330.220E-03    -164.536E-03     76.8910E-03
            1409     3.05370E-03     72.4121E-03    -119.367E+06    -271.602E+06    -86.5901E+06    -205.875E+03    -165.451E-03     330.133E-03    -164.682E-03     66.8146E-03    -165.946E-03     329.491E-03    -164.548E-03     62.8350E-03
            1410     2.29043E-03     72.3396E-03    -127.055E+06    -293.702E+06    -105.399E+06    -202.744E+03    -165.060E-03     329.705E-03    -164.644E-03     50.9993E-03    -165.352E-03     328.808E-03    -164.561E-03     48.0629E-03
            1411     1.52710E-03     72.2873E-03    -133.520E+06    -309.324E+06    -122.392E+06    -10.3008E+03    -164.780E-03     329.397E-03    -164.617E-03     34.9342E-03    -164.930E-03     328.330E-03    -164.587E-03     32.9784E-03
            1412     763.410E-06     72.2542E-03    -138.377E+06    -318.159E+06    -134.582E+06     344.109E+03    -164.713E-03     329.262E-03    -164.549E-03     19.2484E-03    -164.784E-03     328.102E-03    -164.560E-03     18.1947E-03
            1413     14.5140E-03     73.3325E-03    -4.75517E+06     89.7725E+06     97.4238E+06    -16.5629E+03    -162.975E-03     327.445E-03    -164.470E-03     66.4141E-03    -164.984E-03     329.473E-03    -164.106E-03     56.9727E-03
            1414     13.7474E-03     73.2240E-03    -10.9947E+06     85.6637E+06     98.0293E+06    -246.726E+03    -163.471E-03     327.987E-03    -164.516E-03     100.481E-03    -166.479E-03     330.976E-03    -164.134E-03     88.7115E-03
            1415     12.9831E-03     73.1031E-03    -18.0012E+06     76.8199E+06     92.1482E+06    -214.882E+03    -164.230E-03     328.762E-03    -164.533E-03     114.847E-03    -167.618E-03     332.092E-03    -164.157E-03     102.677E-03
            1416     12.2201E-03     72.9548E-03    -24.4205E+06     72.0984E+06     81.8040E+06     322.743E+03    -164.886E-03     329.406E-03    -164.520E-03     131.133E-03    -168.794E-03     333.247E-03    -164.180E-03     118.286E-03
            1417     11.4551E-03     72.7936E-03    -31.0682E+06     67.2623E+06     71.3298E+06     766.587E+03    -165.581E-03     330.093E-03    -164.511E-03     142.416E-03    -169.789E-03     334.222E-03    -164.207E-03     129.258E-03
            1418     10.6920E-03     72.6166E-03    -38.1310E+06     52.7942E+06     63.8316E+06     698.330E+03    -166.267E-03     330.800E-03    -164.533E-03     150.602E-03    -170.615E-03     335.015E-03    -164.235E-03     137.317E-03
            1419     9.92782E-03     72.4335E-03    -45.5958E+06     21.1083E+06     54.6366E+06     622.970E+03    -166.704E-03     331.281E-03    -164.577E-03     154.598E-03    -170.960E-03     335.292E-03    -164.268E-03     141.491E-03
            1420     9.16335E-03     72.2467E-03    -53.2027E+06    -22.1720E+06     41.6996E+06     596.269E+03    -167.025E-03     331.652E-03    -164.627E-03     154.249E-03    -170.973E-03     335.212E-03    -164.310E-03     141.615E-03
            1421     8.39960E-03     72.0633E-03    -60.6814E+06    -64.0222E+06     27.1756E+06     415.804E+03    -167.155E-03     331.829E-03    -164.673E-03     149.840E-03    -170.648E-03     334.799E-03    -164.357E-03     137.960E-03
            1422     7.63539E-03     71.8866E-03    -68.4298E+06    -100.639E+06     12.7853E+06     178.540E+03    -167.315E-03     332.022E-03    -164.707E-03     142.632E-03    -170.285E-03     334.355E-03    -164.398E-03     131.706E-03
            1423     6.87188E-03     71.7188E-03    -76.4841E+06    -136.726E+06    -2.01546E+06     181.181E+03    -167.314E-03     332.036E-03    -164.722E-03     133.079E-03    -169.744E-03     333.715E-03    -164.423E-03     123.259E-03
            1424     6.10835E-03     71.5636E-03    -84.7174E+06    -168.346E+06    -16.6932E+06     166.285E+03    -166.951E-03     331.676E-03    -164.726E-03     122.032E-03    -168.871E-03     332.747E-03    -164.442E-03     113.414E-03
            1425     5.34456E-03     71.4225E-03    -93.2039E+06    -196.238E+06    -31.8427E+06     68.4236E+03    -166.550E-03     331.280E-03    -164.730E-03     109.825E-03    -168.021E-03     331.816E-03    -164.469E-03     102.416E-03
            1426     4.58093E-03     71.2962E-03    -101.923E+06    -226.028E+06    -48.8644E+06     41.3667E+03    -166.174E-03     330.904E-03    -164.730E-03     96.2544E-03    -167.250E-03     330.957E-03    -164.499E-03     90.0327E-03
            1427     3.81731E-03     71.1870E-03    -110.734E+06    -250.205E+06    -67.4914E+06    -158.514E+03    -165.756E-03     330.470E-03    -164.714E-03     82.0308E-03    -166.509E-03     330.137E-03    -164.528E-03     76.9536E-03
            1428     3.05405E-03     71.0957E-03    -119.209E+06    -271.939E+06    -86.3243E+06    -57.9530E+03    -165.332E-03     330.033E-03    -164.701E-03     67.0432E-03    -165.827E-03     329.389E-03    -164.565E-03     63.0651E-03
            1429     2.29015E-03     71.0235E-03    -127.094E+06    -293.921E+06    -105.357E+06     144.623E+03    -165.033E-03     329.727E-03    -164.695E-03     51.2283E-03    -165.325E-03     328.830E-03    -164.611E-03     48.2897E-03
            1430     1.52645E-03     70.9707E-03    -133.620E+06    -309.541E+06    -122.896E+06     67.1343E+03    -164.878E-03     329.546E-03    -164.667E-03     34.8571E-03    -165.028E-03     328.479E-03    -164.639E-03     32.9045E-03
            1431     763.202E-06     70.9381E-03    -137.314E+06    -317.926E+06    -135.028E+06    -26.8618E+03    -164.888E-03     329.342E-03    -164.454E-03     18.9768E-03    -164.953E-03     328.182E-03    -164.469E-03     17.9231E-03
            1432     14.5100E-03     72.0172E-03    -5.22152E+06     89.3820E+06     97.0898E+06     210.496E+03    -163.096E-03     327.570E-03    -164.475E-03     66.4205E-03    -165.106E-03     329.598E-03    -164.111E-03     56.9709E-03
            1433     13.7475E-03     71.9070E-03    -11.3352E+06     85.1480E+06     97.5418E+06     322.752E+03    -163.730E-03     328.238E-03    -164.508E-03     99.9017E-03    -166.736E-03     331.223E-03    -164.127E-03     88.1095E-03
            1434     12.9847E-03     71.7851E-03    -17.4136E+06     77.1976E+06     92.3753E+06     208.766E+03    -164.197E-03     328.715E-03    -164.517E-03     114.337E-03    -167.582E-03     332.043E-03    -164.142E-03     102.163E-03
            1435     12.2195E-03     71.6398E-03    -24.0909E+06     71.1856E+06     81.4934E+06     184.778E+03    -164.840E-03     329.346E-03    -164.506E-03     131.340E-03    -168.748E-03     333.184E-03    -164.166E-03     118.495E-03
            1436     11.4562E-03     71.4758E-03    -30.5654E+06     66.5879E+06     71.4350E+06     546.905E+03    -165.573E-03     330.074E-03    -164.500E-03     142.571E-03    -169.779E-03     334.200E-03    -164.195E-03     129.411E-03
            1437     10.6917E-03     71.3006E-03    -37.3139E+06     53.1642E+06     64.4839E+06     848.608E+03    -166.101E-03     330.630E-03    -164.530E-03     150.809E-03    -170.445E-03     334.844E-03    -164.230E-03     137.549E-03
            1438     9.92733E-03     71.1169E-03    -44.5836E+06     21.3213E+06     55.2066E+06     569.106E+03    -166.661E-03     331.243E-03    -164.582E-03     154.697E-03    -170.913E-03     335.252E-03    -164.272E-03     141.594E-03
            1439     9.16373E-03     70.9304E-03    -52.1424E+06    -21.9687E+06     42.3707E+06     303.926E+03    -167.003E-03     331.639E-03    -164.636E-03     154.036E-03    -170.944E-03     335.194E-03    -164.316E-03     141.401E-03
            1440     8.39932E-03     70.7472E-03    -59.9442E+06    -63.8861E+06     27.5933E+06     217.209E+03    -167.330E-03     332.004E-03    -164.673E-03     149.776E-03    -170.820E-03     334.974E-03    -164.356E-03     137.880E-03
            1441     7.63581E-03     70.5697E-03    -68.0069E+06    -100.781E+06     12.8760E+06     123.665E+03    -167.490E-03     332.179E-03    -164.688E-03     142.538E-03    -170.458E-03     334.510E-03    -164.379E-03     131.601E-03
            1442     6.87225E-03     70.4020E-03    -76.1496E+06    -136.820E+06    -1.82996E+06     140.795E+03    -167.192E-03     331.891E-03    -164.699E-03     133.029E-03    -169.618E-03     333.566E-03    -164.399E-03     123.222E-03
            1443     6.10826E-03     70.2476E-03    -84.4965E+06    -168.025E+06    -16.4301E+06     156.387E+03    -166.868E-03     331.581E-03    -164.713E-03     122.115E-03    -168.789E-03     332.653E-03    -164.429E-03     113.499E-03
            1444     5.34460E-03     70.1057E-03    -93.3634E+06    -196.296E+06    -31.5737E+06     35.3047E+03    -166.559E-03     331.281E-03    -164.722E-03     109.961E-03    -168.032E-03     331.818E-03    -164.460E-03     102.547E-03
            1445     4.58116E-03     69.9799E-03    -102.328E+06    -225.539E+06    -48.2739E+06    -25.7613E+03    -166.127E-03     330.854E-03    -164.727E-03     96.4953E-03    -167.208E-03     330.910E-03    -164.493E-03     90.2750E-03
            1446     3.81736E-03     69.8710E-03    -111.232E+06    -250.454E+06    -67.3891E+06    -175.017E+03    -165.665E-03     330.389E-03    -164.724E-03     82.0967E-03    -166.419E-03     330.055E-03    -164.536E-03     77.0276E-03
            1447     3.05320E-03     69.7793E-03    -119.735E+06    -272.840E+06    -86.8293E+06     17.0074E+03    -165.335E-03     330.056E-03    -164.720E-03     66.8266E-03    -165.829E-03     329.408E-03    -164.585E-03     62.8514E-03
            1448     2.29000E-03     69.7072E-03    -127.197E+06    -293.575E+06    -105.363E+06     176.726E+03    -165.147E-03     329.841E-03    -164.694E-03     50.8888E-03    -165.439E-03     328.945E-03    -164.611E-03     47.9499E-03
            1449     1.52696E-03     69.6538E-03    -133.468E+06    -309.579E+06    -122.892E+06     34.0102E+03    -164.945E-03     329.560E-03    -164.615E-03     34.5237E-03    -165.093E-03     328.491E-03    -164.587E-03     32.5751E-03
            1450     763.747E-06     69.6217E-03    -137.061E+06    -318.065E+06    -134.925E+06    -202.185E+03    -164.912E-03     329.174E-03    -164.263E-03     18.8193E-03    -164.974E-03     328.013E-03    -164.277E-03     17.7705E-03
            1451     14.5134E-03     70.7011E-03    -5.66481E+06     88.7981E+06     96.5774E+06     237.584E+03    -163.310E-03     327.769E-03    -164.459E-03     65.9613E-03    -165.314E-03     329.788E-03    -164.097E-03     56.5228E-03
            1452     13.7490E-03     70.5883E-03    -10.7990E+06     85.4872E+06     97.8745E+06     498.165E+03    -163.428E-03     327.925E-03    -164.497E-03     100.411E-03    -166.429E-03     330.908E-03    -164.116E-03     88.6704E-03
            1453     12.9836E-03     70.4708E-03    -16.8421E+06     77.6564E+06     92.6179E+06     412.899E+03    -164.103E-03     328.622E-03    -164.519E-03     115.100E-03    -167.493E-03     331.960E-03    -164.145E-03     102.940E-03
            1454     12.2200E-03     70.3217E-03    -23.0938E+06     71.2981E+06     81.8117E+06     259.753E+03    -164.997E-03     329.506E-03    -164.509E-03     131.749E-03    -168.906E-03     333.349E-03    -164.169E-03     118.894E-03
            1455     11.4558E-03     70.1597E-03    -29.5523E+06     65.5552E+06     71.4801E+06     356.517E+03    -165.490E-03     329.993E-03    -164.503E-03     142.610E-03    -169.687E-03     334.110E-03    -164.198E-03     129.462E-03
            1456     10.6914E-03     69.9846E-03    -36.5474E+06     53.1252E+06     64.7516E+06     711.868E+03    -166.140E-03     330.675E-03    -164.535E-03     150.867E-03    -170.481E-03     334.887E-03    -164.235E-03     137.604E-03
            1457     9.92777E-03     69.7997E-03    -43.8779E+06     22.0091E+06     55.7449E+06     509.082E+03    -166.697E-03     331.281E-03    -164.585E-03     154.466E-03    -170.942E-03     335.287E-03    -164.274E-03     141.364E-03
            1458     9.16330E-03     69.6146E-03    -51.5815E+06    -21.9316E+06     42.5535E+06     289.733E+03    -167.122E-03     331.752E-03    -164.630E-03     153.907E-03    -171.058E-03     335.304E-03    -164.311E-03     141.265E-03
            1459     8.39964E-03     69.4302E-03    -59.5325E+06    -64.0266E+06     27.7315E+06     260.722E+03    -167.478E-03     332.133E-03    -164.656E-03     149.830E-03    -170.966E-03     335.103E-03    -164.338E-03     137.922E-03
            1460     7.63612E-03     69.2526E-03    -67.5592E+06    -100.316E+06     13.3953E+06     400.765E+03    -167.332E-03     332.003E-03    -164.671E-03     142.487E-03    -170.296E-03     334.333E-03    -164.361E-03     131.568E-03
            1461     6.87202E-03     69.0863E-03    -75.8706E+06    -136.729E+06    -1.78392E+06     223.552E+03    -167.085E-03     331.779E-03    -164.694E-03     133.209E-03    -169.512E-03     333.456E-03    -164.394E-03     123.408E-03
            1462     6.10834E-03     68.9306E-03    -84.3508E+06    -168.485E+06    -16.4799E+06     144.534E+03    -166.896E-03     331.609E-03    -164.713E-03     122.244E-03    -168.818E-03     332.681E-03    -164.429E-03     113.624E-03
            1463     5.34470E-03     68.7897E-03    -92.9143E+06    -195.769E+06    -31.4072E+06     308.812E+03    -166.504E-03     331.229E-03    -164.725E-03     109.890E-03    -167.974E-03     331.766E-03    -164.463E-03     102.488E-03
            1464     4.58057E-03     68.6634E-03    -101.818E+06    -225.596E+06    -48.4957E+06     135.779E+03    -166.086E-03     330.823E-03    -164.737E-03     96.3884E-03    -167.162E-03     330.877E-03    -164.504E-03     90.1740E-03
            1465     3.81717E-03     68.5545E-03    -110.801E+06    -250.625E+06    -67.3848E+06     353.171E+03    -165.786E-03     330.514E-03    -164.727E-03     81.9963E-03    -166.538E-03     330.178E-03    -164.540E-03     76.9310E-03
            1466     3.05414E-03     68.4633E-03    -119.420E+06    -272.691E+06    -86.8224E+06     85.4370E+03    -165.468E-03     330.160E-03    -164.692E-03     66.8035E-03    -165.961E-03     329.512E-03    -164.557E-03     62.8274E-03
            1467     2.29055E-03     68.3902E-03    -126.955E+06    -293.523E+06    -105.252E+06    -207.698E+03    -165.089E-03     329.738E-03    -164.649E-03     51.0338E-03    -165.380E-03     328.841E-03    -164.566E-03     48.0964E-03
            1468     1.52694E-03     68.3379E-03    -133.456E+06    -309.550E+06    -122.499E+06    -39.4723E+03    -164.790E-03     329.405E-03    -164.614E-03     34.8551E-03    -164.940E-03     328.336E-03    -164.584E-03     32.9068E-03
            1469     763.276E-06     68.3052E-03    -137.677E+06    -318.477E+06    -134.798E+06    -21.2368E+03    -164.757E-03     329.251E-03    -164.494E-03     19.0345E-03    -164.823E-03     328.088E-03    -164.507E-03     17.9847E-03
            1470     14.5118E-03     69.3827E-03    -5.18179E+06     88.5141E+06     96.3855E+06     147.191E+03    -163.053E-03     327.513E-03    -164.460E-03     66.5773E-03    -165.061E-03     329.537E-03    -164.099E-03     57.1473E-03
            1471     13.7469E-03     69.2748E-03    -10.5997E+06     85.5897E+06     97.8204E+06     112.716E+03    -163.296E-03     327.806E-03    -164.510E-03     100.726E-03    -166.300E-03     330.793E-03    -164.130E-03     88.9861E-03
            1472     12.9833E-03     69.1519E-03    -16.6409E+06     77.8217E+06     92.7262E+06     94.4901E+03    -164.295E-03     328.827E-03    -164.532E-03     114.959E-03    -167.682E-03     332.162E-03    -164.157E-03     102.785E-03
            1473     12.2198E-03     69.0054E-03    -23.1206E+06     71.2511E+06     81.8732E+06    -93.9979E+03    -164.960E-03     329.476E-03    -164.516E-03     131.197E-03    -168.861E-03     333.310E-03    -164.176E-03     118.341E-03
            1474     11.4555E-03     68.8435E-03    -29.5222E+06     64.3660E+06     71.2109E+06     269.585E+03    -165.554E-03     330.063E-03    -164.508E-03     142.442E-03    -169.745E-03     334.170E-03    -164.203E-03     129.294E-03
            1475     10.6918E-03     68.6673E-03    -36.0005E+06     52.9191E+06     64.9319E+06     607.408E+03    -166.237E-03     330.771E-03    -164.534E-03     150.720E-03    -170.574E-03     334.980E-03    -164.234E-03     137.447E-03
            1476     9.92745E-03     68.4837E-03    -43.5180E+06     22.5441E+06     55.9269E+06     647.128E+03    -166.730E-03     331.307E-03    -164.577E-03     154.363E-03    -170.971E-03     335.312E-03    -164.267E-03     141.265E-03
            1477     9.16370E-03     68.2978E-03    -51.4309E+06    -22.0758E+06     42.4903E+06     473.162E+03    -167.263E-03     331.878E-03    -164.615E-03     153.985E-03    -171.200E-03     335.431E-03    -164.296E-03     141.334E-03
            1478     8.40013E-03     68.1130E-03    -59.4918E+06    -63.5424E+06     28.0857E+06     505.525E+03    -167.321E-03     331.963E-03    -164.642E-03     149.847E-03    -170.809E-03     334.933E-03    -164.323E-03     137.956E-03
            1479     7.63584E-03     67.9370E-03    -67.8027E+06    -100.170E+06     13.5938E+06     497.498E+03    -167.186E-03     331.858E-03    -164.672E-03     142.611E-03    -170.152E-03     334.188E-03    -164.361E-03     131.706E-03
            1480     6.87200E-03     67.7694E-03    -76.1795E+06    -136.560E+06    -1.73986E+06     376.293E+03    -167.154E-03     331.852E-03    -164.698E-03     133.188E-03    -169.581E-03     333.529E-03    -164.398E-03     123.387E-03
            1481     6.10829E-03     67.6144E-03    -84.5492E+06    -168.530E+06    -16.8187E+06     175.193E+03    -166.894E-03     331.606E-03    -164.712E-03     122.116E-03    -168.813E-03     332.676E-03    -164.429E-03     113.503E-03
            1482     5.34446E-03     67.4730E-03    -93.0610E+06    -196.024E+06    -31.7905E+06     116.503E+03    -166.501E-03     331.224E-03    -164.723E-03     109.734E-03    -167.970E-03     331.758E-03    -164.462E-03     102.333E-03
            1483     4.58123E-03     67.3474E-03    -101.725E+06    -226.084E+06    -49.1218E+06     384.245E+03    -166.111E-03     330.841E-03    -164.730E-03     96.3361E-03    -167.184E-03     330.893E-03    -164.500E-03     90.1262E-03
            1484     3.81726E-03     67.2381E-03    -110.336E+06    -250.425E+06    -67.3139E+06     400.433E+03    -165.775E-03     330.497E-03    -164.722E-03     82.1407E-03    -166.526E-03     330.162E-03    -164.535E-03     77.0734E-03
            1485     3.05358E-03     67.1461E-03    -118.699E+06    -271.631E+06    -85.6650E+06     259.104E+03    -165.415E-03     330.114E-03    -164.699E-03     66.9961E-03    -165.907E-03     329.470E-03    -164.562E-03     63.0250E-03
            1486     2.29017E-03     67.0747E-03    -127.087E+06    -293.924E+06    -105.226E+06     62.1983E+03    -165.015E-03     329.697E-03    -164.681E-03     51.1951E-03    -165.307E-03     328.799E-03    -164.597E-03     48.2599E-03
            1487     1.52654E-03     67.0211E-03    -133.401E+06    -309.543E+06    -122.414E+06     122.076E+03    -164.746E-03     329.442E-03    -164.696E-03     34.8465E-03    -164.895E-03     328.374E-03    -164.666E-03     32.8950E-03
            1488     763.264E-06     66.9894E-03    -137.469E+06    -318.371E+06    -134.565E+06     147.937E+03    -164.708E-03     329.477E-03    -164.769E-03     19.0525E-03    -164.773E-03     328.314E-03    -164.781E-03     17.9989E-03
            1489     14.5119E-03     68.0679E-03    -5.00831E+06     88.6249E+06     96.5764E+06    -7.02432E+03    -163.068E-03     327.548E-03    -164.480E-03     66.1906E-03    -165.077E-03     329.573E-03    -164.118E-03     56.7262E-03
            1490     13.7482E-03     67.9570E-03    -10.6483E+06     85.5543E+06     97.6319E+06    -147.030E+03    -163.809E-03     328.322E-03    -164.513E-03     100.372E-03    -166.816E-03     331.312E-03    -164.134E-03     88.5716E-03
            1491     12.9844E-03     67.8356E-03    -16.9062E+06     77.5029E+06     92.3373E+06    -40.9119E+03    -164.251E-03     328.772E-03    -164.521E-03     114.736E-03    -167.632E-03     332.100E-03    -164.147E-03     102.568E-03
            1492     12.2196E-03     67.6888E-03    -23.2613E+06     70.9861E+06     81.5148E+06    -36.9273E+03    -164.845E-03     329.353E-03    -164.508E-03     130.882E-03    -168.738E-03     333.179E-03    -164.170E-03     118.044E-03
            1493     11.4559E-03     67.5269E-03    -29.8987E+06     63.9652E+06     70.7730E+06    -124.529E+03    -165.610E-03     330.111E-03    -164.501E-03     142.412E-03    -169.802E-03     334.219E-03    -164.197E-03     129.250E-03
            1494     10.6916E-03     67.3504E-03    -36.7935E+06     51.9878E+06     64.3226E+06     147.531E+03    -166.202E-03     330.728E-03    -164.526E-03     150.565E-03    -170.538E-03     334.931E-03    -164.226E-03     137.290E-03
            1495     9.92772E-03     67.1679E-03    -44.1453E+06     22.5170E+06     55.7369E+06     629.948E+03    -166.817E-03     331.383E-03    -164.566E-03     154.443E-03    -171.063E-03     335.391E-03    -164.256E-03     141.335E-03
            1496     9.16392E-03     66.9800E-03    -52.1350E+06    -21.5248E+06     42.5727E+06     644.412E+03    -167.142E-03     331.748E-03    -164.606E-03     154.044E-03    -171.082E-03     335.303E-03    -164.286E-03     141.408E-03
            1497     8.39972E-03     66.7978E-03    -60.1954E+06    -63.6120E+06     27.8301E+06     542.046E+03    -167.194E-03     331.836E-03    -164.642E-03     149.801E-03    -170.682E-03     334.804E-03    -164.324E-03     137.927E-03
            1498     7.63572E-03     66.6200E-03    -68.0193E+06    -100.448E+06     13.3028E+06     410.314E+03    -167.283E-03     331.955E-03    -164.673E-03     142.584E-03    -170.248E-03     334.284E-03    -164.362E-03     131.675E-03
            1499     6.87221E-03     66.4530E-03    -75.9960E+06    -136.331E+06    -1.50631E+06     418.011E+03    -167.162E-03     331.856E-03    -164.694E-03     133.079E-03    -169.586E-03     333.531E-03    -164.394E-03     123.283E-03
            1500     6.10837E-03     66.2980E-03    -84.4283E+06    -167.877E+06    -16.5763E+06     386.113E+03    -166.829E-03     331.539E-03    -164.710E-03     122.116E-03    -168.749E-03     332.612E-03    -164.427E-03     113.509E-03
            1501     5.34480E-03     66.1566E-03    -93.1918E+06    -196.436E+06    -31.9111E+06     204.707E+03    -166.461E-03     331.190E-03    -164.729E-03     109.889E-03    -167.930E-03     331.723E-03    -164.468E-03     102.491E-03
            1502     4.58060E-03     66.0311E-03    -102.139E+06    -226.110E+06    -48.7446E+06     177.184E+03    -166.187E-03     330.925E-03    -164.738E-03     96.5828E-03    -167.265E-03     330.979E-03    -164.505E-03     90.3646E-03
            1503     3.81739E-03     65.9214E-03    -110.802E+06    -250.244E+06    -66.9103E+06    -1.54536E+03    -165.791E-03     330.513E-03    -164.722E-03     82.1151E-03    -166.544E-03     330.179E-03    -164.533E-03     77.0425E-03
            1504     3.05374E-03     65.8304E-03    -119.244E+06    -271.919E+06    -85.5675E+06     156.456E+03    -165.324E-03     330.032E-03    -164.707E-03     66.7138E-03    -165.818E-03     329.385E-03    -164.568E-03     62.7450E-03
            1505     2.29012E-03     65.7575E-03    -126.968E+06    -293.632E+06    -105.006E+06     427.567E+03    -165.006E-03     329.707E-03    -164.702E-03     50.8471E-03    -165.297E-03     328.810E-03    -164.617E-03     47.9148E-03
            1506     1.52686E-03     65.7055E-03    -133.270E+06    -309.532E+06    -122.583E+06     88.2119E+03    -164.803E-03     329.509E-03    -164.705E-03     34.8598E-03    -164.952E-03     328.441E-03    -164.676E-03     32.9023E-03
            1507     763.230E-06     65.6718E-03    -137.453E+06    -318.081E+06    -134.505E+06    -22.3016E+03    -164.788E-03     329.476E-03    -164.688E-03     19.0822E-03    -164.854E-03     328.315E-03    -164.700E-03     18.0258E-03
            1508     14.5111E-03     66.7488E-03    -5.08589E+06     88.6177E+06     96.7186E+06    -48.1685E+03    -163.220E-03     327.691E-03    -164.471E-03     66.2843E-03    -165.225E-03     329.712E-03    -164.108E-03     56.8222E-03
            1509     13.7477E-03     66.6405E-03    -10.7787E+06     85.3344E+06     97.6054E+06    -5.06105E+03    -163.822E-03     328.320E-03    -164.498E-03     100.034E-03    -166.822E-03     331.302E-03    -164.119E-03     88.2440E-03
            1510     12.9836E-03     66.5182E-03    -16.8852E+06     77.4115E+06     92.2788E+06    -113.442E+03    -164.166E-03     328.671E-03    -164.506E-03     114.504E-03    -167.545E-03     331.998E-03    -164.132E-03     102.338E-03
            1511     12.2201E-03     66.3731E-03    -23.2318E+06     70.9390E+06      81.285E+06    -132.421E+03    -164.845E-03     329.338E-03    -164.494E-03     130.960E-03    -168.737E-03     333.165E-03    -164.156E-03     118.121E-03
            1512     11.4558E-03     66.2091E-03    -29.9598E+06     63.8892E+06     70.5636E+06     18.2775E+03    -165.528E-03     330.016E-03    -164.489E-03     142.321E-03    -169.718E-03     334.123E-03    -164.185E-03     129.166E-03
            1513     10.6919E-03     66.0352E-03    -37.4242E+06     51.1260E+06     63.7251E+06     126.038E+03    -166.221E-03     330.736E-03    -164.515E-03     150.612E-03    -170.557E-03     334.936E-03    -164.216E-03     137.339E-03
            1514     9.92787E-03     65.8496E-03    -44.8881E+06     22.0367E+06     55.3927E+06     337.748E+03    -166.728E-03     331.287E-03    -164.559E-03     154.512E-03    -170.974E-03     335.291E-03    -164.249E-03     141.414E-03
            1515     9.16383E-03     65.6650E-03    -52.2802E+06    -21.1852E+06     42.5757E+06     521.955E+03    -167.018E-03     331.625E-03    -164.607E-03     154.010E-03    -170.957E-03     335.179E-03    -164.287E-03     141.389E-03
            1516     8.39967E-03     65.4806E-03    -59.9179E+06    -63.8487E+06     27.6169E+06     318.967E+03    -167.321E-03     331.963E-03    -164.641E-03     149.761E-03    -170.807E-03     334.929E-03    -164.324E-03     137.877E-03
            1517     7.63625E-03     65.3038E-03    -67.9078E+06    -100.304E+06     13.2943E+06     282.343E+03    -167.288E-03     331.954E-03    -164.666E-03     142.522E-03    -170.250E-03     334.281E-03    -164.356E-03     131.614E-03
            1518     6.87202E-03     65.1365E-03    -76.1749E+06    -136.289E+06    -1.63260E+06     342.147E+03    -167.049E-03     331.742E-03    -164.693E-03     133.212E-03    -169.476E-03     333.419E-03    -164.393E-03     123.421E-03
            1519     6.10835E-03     64.9815E-03    -84.5554E+06    -167.752E+06    -16.2853E+06     445.648E+03    -166.806E-03     331.526E-03    -164.720E-03     122.172E-03    -168.728E-03     332.600E-03    -164.436E-03     113.566E-03
            1520     5.34417E-03     64.8407E-03    -93.2570E+06    -196.169E+06    -31.6616E+06     425.919E+03    -166.550E-03     331.284E-03    -164.734E-03     109.789E-03    -168.020E-03     331.819E-03    -164.473E-03     102.387E-03
            1521     4.58098E-03     64.7142E-03    -102.220E+06    -225.843E+06    -48.4391E+06     35.6050E+03    -166.223E-03     330.955E-03    -164.732E-03     96.3069E-03    -167.300E-03     331.008E-03    -164.498E-03     90.0866E-03
            1522     3.81726E-03     64.6050E-03    -111.213E+06    -250.151E+06    -67.0779E+06    -40.6610E+03    -165.740E-03     330.452E-03    -164.712E-03     81.8833E-03    -166.494E-03     330.118E-03    -164.523E-03     76.8140E-03
            1523     3.05387E-03     64.5139E-03    -119.557E+06    -272.557E+06    -86.5770E+06    -49.0520E+03    -165.303E-03     330.003E-03    -164.700E-03     66.9293E-03    -165.797E-03     329.356E-03    -164.564E-03     62.9538E-03
            1524     2.29034E-03     64.4415E-03    -127.151E+06    -293.578E+06    -105.387E+06     42.6583E+03    -165.036E-03     329.731E-03    -164.695E-03     51.0881E-03    -165.329E-03     328.835E-03    -164.612E-03     48.1534E-03
            1525     1.52652E-03     64.3889E-03    -133.633E+06    -309.169E+06    -122.610E+06     134.363E+03    -164.853E-03     329.528E-03    -164.676E-03     34.9259E-03    -165.003E-03     328.463E-03    -164.647E-03     32.9742E-03
            1526     763.420E-06     64.3554E-03    -137.816E+06    -318.204E+06    -135.120E+06     67.2987E+03    -164.839E-03     329.376E-03    -164.536E-03     19.2392E-03    -164.906E-03     328.216E-03    -164.551E-03     18.1893E-03
            1527     14.5131E-03     65.4341E-03    -5.07054E+06     88.5393E+06     96.7692E+06     258.311E+03    -163.410E-03     327.846E-03    -164.436E-03     66.0558E-03    -165.407E-03     329.859E-03    -164.073E-03     56.6140E-03
            1528     13.7486E-03     65.3217E-03    -10.7770E+06     85.1714E+06     97.7063E+06    -271.293E+03    -163.381E-03     327.850E-03    -164.469E-03     99.4739E-03    -166.368E-03     330.818E-03    -164.089E-03     87.7252E-03
            1529     12.9847E-03     65.2037E-03    -16.7146E+06     77.5043E+06     92.5733E+06    -436.976E+03    -163.994E-03     328.486E-03    -164.492E-03     114.392E-03    -167.372E-03     331.811E-03    -164.117E-03     102.232E-03
            1530     12.2200E-03     65.0546E-03    -23.5323E+06     70.6117E+06     81.3092E+06    -7.30945E+03    -164.786E-03     329.273E-03    -164.487E-03     131.220E-03    -168.683E-03     333.101E-03    -164.148E-03     118.387E-03
            1531     11.4562E-03     64.8947E-03    -30.4014E+06     63.4383E+06     70.3511E+06     185.322E+03    -165.558E-03     330.040E-03    -164.482E-03     142.446E-03    -169.749E-03     334.145E-03    -164.178E-03     129.298E-03
            1532     10.6919E-03     64.7168E-03    -37.1563E+06     51.2271E+06     63.8967E+06     230.568E+03    -166.172E-03     330.681E-03    -164.510E-03     150.751E-03    -170.505E-03     334.880E-03    -164.211E-03     137.491E-03
            1533     9.92797E-03     64.5347E-03    -44.2858E+06     21.6635E+06     55.3816E+06     90.1209E+03    -166.613E-03     331.173E-03    -164.560E-03     154.489E-03    -170.854E-03     335.173E-03    -164.250E-03     141.402E-03
            1534     9.16345E-03     64.3477E-03    -51.9170E+06    -21.7061E+06     42.3817E+06     219.304E+03    -167.104E-03     331.713E-03    -164.609E-03     154.100E-03    -171.041E-03     335.266E-03    -164.290E-03     141.466E-03
            1535     8.40010E-03     64.1642E-03    -59.9327E+06    -63.3898E+06     27.6644E+06     437.543E+03    -167.343E-03     331.983E-03    -164.640E-03     149.840E-03    -170.831E-03     334.953E-03    -164.323E-03     137.954E-03
            1536     7.63575E-03     63.9873E-03    -68.1701E+06    -100.304E+06     13.0638E+06     286.971E+03    -167.258E-03     331.923E-03    -164.665E-03     142.501E-03    -170.223E-03     334.252E-03    -164.355E-03     131.592E-03
            1537     6.87216E-03     63.8205E-03    -76.3587E+06    -136.336E+06    -1.73859E+06     298.003E+03    -167.072E-03     331.763E-03    -164.692E-03     133.040E-03    -169.498E-03     333.440E-03    -164.392E-03     123.245E-03
            1538     6.10800E-03     63.6652E-03    -84.8296E+06    -167.902E+06    -16.4489E+06     377.775E+03    -166.888E-03     331.598E-03    -164.710E-03     121.911E-03    -168.809E-03     332.669E-03    -164.426E-03     113.303E-03
            1539     5.34491E-03     63.5239E-03    -93.5701E+06    -195.857E+06    -31.6781E+06     301.640E+03    -166.594E-03     331.304E-03    -164.711E-03     109.596E-03    -168.064E-03     331.839E-03    -164.450E-03     102.193E-03
            1540     4.58113E-03     63.3978E-03    -102.364E+06    -225.262E+06    -48.5434E+06     171.551E+03    -166.098E-03     330.808E-03    -164.710E-03     96.3719E-03    -167.177E-03     330.865E-03    -164.478E-03     90.1578E-03
            1541     3.81753E-03     63.2890E-03    -111.176E+06    -250.227E+06    -67.5084E+06    -42.1529E+03    -165.655E-03     330.363E-03    -164.708E-03     82.0167E-03    -166.409E-03     330.030E-03    -164.521E-03     76.9496E-03
            1542     3.05350E-03     63.1977E-03    -119.913E+06    -272.667E+06    -86.9983E+06    -63.9180E+03    -165.307E-03     330.012E-03    -164.705E-03     66.8048E-03    -165.802E-03     329.366E-03    -164.571E-03     62.8319E-03
            1543     2.28990E-03     63.1250E-03    -127.596E+06    -293.779E+06    -105.789E+06    -121.725E+03    -165.078E-03     329.770E-03    -164.692E-03     51.1123E-03    -165.371E-03     328.874E-03    -164.610E-03     48.1734E-03
            1544     1.52706E-03     63.0721E-03    -133.828E+06    -309.279E+06    -123.116E+06    -65.4883E+03    -164.953E-03     329.581E-03    -164.628E-03     34.8397E-03    -165.105E-03     328.517E-03    -164.601E-03     32.8812E-03
            1545     763.335E-06     63.0394E-03    -138.197E+06    -318.027E+06    -135.073E+06     245.780E+03    -164.756E-03     329.206E-03    -164.450E-03     19.0883E-03    -164.825E-03     328.047E-03    -164.464E-03     18.0497E-03
            1546     14.5131E-03     64.1162E-03    -4.96237E+06     88.7466E+06     97.0400E+06    -173.262E+03    -163.303E-03     327.740E-03    -164.438E-03     66.8846E-03    -165.318E-03     329.772E-03    -164.074E-03     57.4123E-03
            1547     13.7489E-03     64.0075E-03    -10.3194E+06     85.5831E+06     98.1759E+06     6.02828E+03    -163.341E-03     327.819E-03    -164.478E-03     101.000E-03    -166.349E-03     330.809E-03    -164.096E-03     89.2506E-03
            1548     12.9839E-03     63.8858E-03    -17.0795E+06     77.0887E+06     92.2634E+06     182.216E+03    -164.064E-03     328.566E-03    -164.502E-03     115.381E-03    -167.452E-03     331.900E-03    -164.128E-03     103.231E-03
            1549     12.2201E-03     63.7398E-03    -23.8379E+06     70.2875E+06     81.0557E+06     260.736E+03    -164.963E-03     329.456E-03    -164.492E-03     131.471E-03    -168.864E-03     333.286E-03    -164.154E-03     118.631E-03
            1550     11.4557E-03     63.5763E-03    -30.3069E+06     63.5059E+06     70.3747E+06     80.7694E+03    -165.585E-03     330.068E-03    -164.482E-03     142.423E-03    -169.774E-03     334.170E-03    -164.179E-03     129.276E-03
            1551     10.6922E-03     63.4016E-03    -36.9784E+06     51.3389E+06     63.9667E+06    -123.001E+03    -166.084E-03     330.596E-03    -164.512E-03     150.689E-03    -170.415E-03     334.793E-03    -164.213E-03     137.431E-03
            1552     9.92737E-03     63.2177E-03    -44.5258E+06     21.4337E+06     55.1974E+06    -2.35993E+03    -166.705E-03     331.267E-03    -164.562E-03     154.530E-03    -170.949E-03     335.269E-03    -164.252E-03     141.427E-03
            1553     9.16410E-03     63.0313E-03    -52.5829E+06    -21.9283E+06     42.0590E+06     207.442E+03    -167.171E-03     331.775E-03    -164.603E-03     153.955E-03    -171.110E-03     335.327E-03    -164.285E-03     141.313E-03
            1554     8.39949E-03     62.8478E-03    -60.4493E+06    -63.5023E+06     27.4409E+06     205.388E+03    -167.271E-03     331.904E-03    -164.633E-03     149.576E-03    -170.756E-03     334.870E-03    -164.316E-03     137.695E-03
            1555     7.63612E-03     62.6707E-03    -68.2165E+06    -100.177E+06     13.0457E+06     264.424E+03    -167.264E-03     331.922E-03    -164.658E-03     142.264E-03    -170.227E-03     334.249E-03    -164.349E-03     131.354E-03
            1556     6.87212E-03     62.5041E-03    -76.4107E+06    -136.538E+06    -1.91166E+06     300.936E+03    -167.196E-03     331.871E-03    -164.675E-03     132.934E-03    -169.622E-03     333.546E-03    -164.375E-03     123.132E-03
            1557     6.10885E-03     62.3486E-03    -84.6612E+06    -168.070E+06    -16.7036E+06     268.037E+03    -166.893E-03     331.575E-03    -164.682E-03     122.007E-03    -168.812E-03     332.645E-03    -164.399E-03     113.398E-03
            1558     5.34473E-03     62.2074E-03    -93.0108E+06    -195.384E+06    -31.6264E+06     217.010E+03    -166.418E-03     331.113E-03    -164.694E-03     109.799E-03    -167.887E-03     331.649E-03    -164.434E-03     102.407E-03
            1559     4.58093E-03     62.0819E-03    -101.836E+06    -225.203E+06    -48.5283E+06     192.778E+03    -166.060E-03     330.770E-03    -164.711E-03     96.4352E-03    -167.137E-03     330.827E-03    -164.479E-03     90.2221E-03
            1560     3.81701E-03     61.9725E-03    -110.810E+06    -250.151E+06    -67.1921E+06     318.864E+03    -165.729E-03     330.435E-03    -164.706E-03     81.9231E-03    -166.481E-03     330.100E-03    -164.518E-03     76.8592E-03
            1561     3.05403E-03     61.8811E-03    -119.502E+06    -272.166E+06    -86.3365E+06     229.696E+03    -165.398E-03     330.080E-03    -164.681E-03     66.7110E-03    -165.892E-03     329.433E-03    -164.545E-03     62.7428E-03
            1562     2.29051E-03     61.8092E-03    -127.504E+06    -294.110E+06    -105.578E+06    -31.1780E+03    -165.116E-03     329.753E-03    -164.637E-03     51.0361E-03    -165.409E-03     328.855E-03    -164.553E-03     48.0991E-03
            1563     1.52651E-03     61.7550E-03    -133.765E+06    -309.587E+06    -122.958E+06     100.930E+03    -164.869E-03     329.428E-03    -164.560E-03     34.6864E-03    -165.019E-03     328.361E-03    -164.532E-03     32.7382E-03
            1564     763.876E-06     61.7234E-03    -137.678E+06    -317.743E+06    -135.032E+06     5.13204E+03    -164.717E-03     329.071E-03    -164.354E-03     18.7819E-03    -164.783E-03     327.912E-03    -164.369E-03     17.7356E-03
            1565     14.5110E-03     62.7990E-03    -4.86239E+06     88.5132E+06     96.8064E+06    -153.195E+03    -162.763E-03     327.228E-03    -164.465E-03     66.2388E-03    -164.767E-03     329.249E-03    -164.103E-03     56.8080E-03
            1566     13.7470E-03     62.6908E-03    -10.9464E+06     84.9473E+06     97.4667E+06     26.9585E+03    -163.587E-03     328.101E-03    -164.513E-03     100.643E-03    -166.594E-03     331.087E-03    -164.133E-03     88.8674E-03
            1567     12.9836E-03     62.5693E-03    -17.2476E+06     76.9614E+06     92.1218E+06     311.717E+03    -164.503E-03     329.022E-03    -164.519E-03     114.790E-03    -167.889E-03     332.353E-03    -164.145E-03     102.598E-03
            1568     12.2198E-03     62.4222E-03    -23.5319E+06     70.5777E+06     81.2465E+06     74.9529E+03    -165.041E-03     329.533E-03    -164.492E-03     130.910E-03    -168.935E-03     333.359E-03    -164.154E-03     118.056E-03
            1569     11.4564E-03     62.2601E-03    -30.0262E+06     63.7330E+06     70.4465E+06    -105.415E+03    -165.485E-03     329.965E-03    -164.481E-03     142.157E-03    -169.669E-03     334.065E-03    -164.177E-03     129.013E-03
            1570     10.6914E-03     62.0854E-03    -37.1689E+06     51.1019E+06     63.7271E+06     75.4455E+03    -166.157E-03     330.666E-03    -164.509E-03     150.557E-03    -170.489E-03     334.863E-03    -164.211E-03     137.290E-03
            1571     9.92815E-03     61.9007E-03    -44.9017E+06     21.3839E+06     55.0511E+06     171.838E+03    -166.793E-03     331.345E-03    -164.552E-03     154.414E-03    -171.037E-03     335.346E-03    -164.243E-03     141.307E-03
            1572     9.16361E-03     61.7151E-03    -52.5443E+06    -21.9005E+06     42.1155E+06     36.9707E+03    -167.155E-03     331.745E-03    -164.590E-03     153.835E-03    -171.092E-03     335.295E-03    -164.271E-03     141.195E-03
            1573     8.40047E-03     61.5310E-03    -60.2689E+06    -63.6546E+06     27.4548E+06     86.6703E+03    -167.280E-03     331.897E-03    -164.618E-03     149.510E-03    -170.762E-03     334.860E-03    -164.301E-03     137.630E-03
            1574     7.63600E-03     61.3549E-03    -68.4419E+06    -100.395E+06     12.8140E+06     149.104E+03    -167.266E-03     331.907E-03    -164.640E-03     142.349E-03    -170.228E-03     334.232E-03    -164.331E-03     131.444E-03
            1575     6.87241E-03     61.1870E-03    -76.4152E+06    -136.660E+06    -2.05892E+06     43.1426E+03    -167.129E-03     331.789E-03    -164.660E-03     133.040E-03    -169.555E-03     333.464E-03    -164.361E-03     123.241E-03
            1576     6.10844E-03     61.0326E-03    -84.6159E+06    -167.863E+06    -16.6460E+06    -9.04352E+03    -166.784E-03     331.462E-03    -164.678E-03     122.095E-03    -168.704E-03     332.534E-03    -164.395E-03     113.488E-03
            1577     5.34468E-03     60.8915E-03    -93.2718E+06    -195.488E+06    -31.7962E+06     77.0522E+03    -166.463E-03     331.156E-03    -164.693E-03     109.755E-03    -167.933E-03     331.693E-03    -164.434E-03     102.357E-03
            1578     4.58094E-03     60.7654E-03    -102.106E+06    -225.462E+06    -48.7012E+06     204.462E+03    -166.131E-03     330.830E-03    -164.699E-03     96.2414E-03    -167.207E-03     330.884E-03    -164.467E-03     90.0291E-03
            1579     3.81783E-03     60.6560E-03    -110.904E+06    -250.064E+06    -67.0213E+06     303.569E+03    -165.757E-03     330.438E-03    -164.681E-03     81.8822E-03    -166.510E-03     330.104E-03    -164.493E-03     76.8190E-03
            1580     3.05357E-03     60.5652E-03    -119.308E+06    -271.874E+06    -85.9648E+06     351.166E+03    -165.488E-03     330.122E-03    -164.634E-03     66.7109E-03    -165.981E-03     329.476E-03    -164.496E-03     62.7429E-03
            1581     2.29037E-03     60.4918E-03    -127.022E+06    -293.939E+06    -105.234E+06     344.350E+03    -165.127E-03     329.682E-03    -164.556E-03     50.8401E-03    -165.417E-03     328.783E-03    -164.471E-03     47.9151E-03
            1582     1.52755E-03     60.4400E-03    -133.547E+06    -309.462E+06    -122.682E+06     63.9859E+03    -164.652E-03     329.154E-03    -164.502E-03     34.6905E-03    -164.801E-03     328.086E-03    -164.473E-03     32.7469E-03
            1583     763.013E-06     60.4063E-03    -137.844E+06    -317.718E+06    -134.896E+06     90.4850E+03    -164.594E-03     329.034E-03    -164.440E-03     18.8126E-03    -164.662E-03     327.876E-03    -164.454E-03     17.7633E-03
            1584     14.5129E-03     61.4864E-03    -5.02492E+06     88.3816E+06     96.7112E+06     277.239E+03    -163.167E-03     327.626E-03    -164.458E-03     65.5337E-03    -165.161E-03     329.635E-03    -164.096E-03     56.1062E-03
            1585     13.7477E-03     61.3719E-03    -10.7991E+06     85.0521E+06     97.7322E+06     313.857E+03    -163.678E-03     328.170E-03    -164.492E-03     99.7894E-03    -166.670E-03     331.142E-03    -164.111E-03     88.0280E-03
            1586     12.9844E-03     61.2526E-03    -17.0632E+06     77.0774E+06     92.3536E+06    -167.783E+03    -164.296E-03     328.794E-03    -164.498E-03     113.988E-03    -167.668E-03     332.111E-03    -164.123E-03     101.811E-03
            1587     12.2207E-03     61.1050E-03    -23.4871E+06     70.5451E+06     81.2297E+06    -161.735E+03    -164.760E-03     329.242E-03    -164.482E-03     130.826E-03    -168.650E-03     333.064E-03    -164.144E-03     117.996E-03
            1588     11.4555E-03     60.9448E-03    -30.1767E+06     63.5651E+06     70.3649E+06     93.6688E+03    -165.519E-03     329.998E-03    -164.479E-03     142.290E-03    -169.708E-03     334.101E-03    -164.175E-03     129.140E-03
            1589     10.6924E-03     60.7677E-03    -37.2807E+06     50.9753E+06     63.6908E+06     230.974E+03    -166.296E-03     330.797E-03    -164.501E-03     150.602E-03    -170.629E-03     334.994E-03    -164.203E-03     137.328E-03
            1590     9.92781E-03     60.5851E-03    -44.4069E+06     21.5031E+06     55.2070E+06     159.496E+03    -166.770E-03     331.309E-03    -164.540E-03     154.464E-03    -171.011E-03     335.309E-03    -164.230E-03     141.365E-03
            1591     9.16435E-03     60.3978E-03    -52.1014E+06    -21.9536E+06     42.2253E+06     97.4706E+03    -167.106E-03     331.686E-03    -164.580E-03     153.950E-03    -171.040E-03     335.235E-03    -164.262E-03     141.320E-03
            1592     8.39972E-03     60.2152E-03    -60.1067E+06    -63.7182E+06     27.5254E+06     174.861E+03    -167.301E-03     331.911E-03    -164.610E-03     149.584E-03    -170.784E-03     334.874E-03    -164.292E-03     137.704E-03
            1593     7.63635E-03     60.0378E-03    -67.9655E+06    -100.308E+06     13.0341E+06     109.361E+03    -167.279E-03     331.910E-03    -164.631E-03     142.429E-03    -170.240E-03     334.236E-03    -164.321E-03     131.521E-03
            1594     6.87241E-03     59.8712E-03    -76.3072E+06    -136.624E+06    -1.98271E+06    -39.1789E+03    -167.042E-03     331.696E-03    -164.654E-03     132.981E-03    -169.465E-03     333.369E-03    -164.355E-03     123.190E-03
            1595     6.10843E-03     59.7163E-03    -84.8830E+06    -168.011E+06    -16.7515E+06    -75.8839E+03    -166.826E-03     331.498E-03    -164.672E-03     121.900E-03    -168.745E-03     332.568E-03    -164.389E-03     113.292E-03
            1596     5.34482E-03     59.5748E-03    -93.5902E+06    -195.911E+06    -31.8633E+06     69.7798E+03    -166.560E-03     331.235E-03    -164.675E-03     109.623E-03    -168.030E-03     331.770E-03    -164.415E-03     102.221E-03
            1597     4.58143E-03     59.4491E-03    -102.478E+06    -225.243E+06    -48.3333E+06     232.110E+03    -166.174E-03     330.840E-03    -164.666E-03     96.1660E-03    -167.252E-03     330.895E-03    -164.433E-03     89.9566E-03
            1598     3.81707E-03     59.3401E-03    -111.350E+06    -250.060E+06    -67.0809E+06    -51.3131E+03    -165.803E-03     330.432E-03    -164.629E-03     81.7746E-03    -166.557E-03     330.097E-03    -164.441E-03     76.7063E-03
            1599     3.05447E-03     59.2480E-03    -119.766E+06    -272.319E+06    -86.6179E+06    -63.4973E+03    -165.400E-03     329.972E-03    -164.572E-03     66.6509E-03    -165.894E-03     329.326E-03    -164.437E-03     62.6769E-03
            1600     2.29095E-03     59.1763E-03    -127.295E+06    -293.410E+06    -105.291E+06     263.707E+03    -164.958E-03     329.478E-03    -164.521E-03     50.8364E-03    -165.250E-03     328.582E-03    -164.437E-03     47.9123E-03
            1601     1.52660E-03     59.1235E-03    -133.671E+06    -308.951E+06    -122.514E+06     222.729E+03    -164.631E-03     329.123E-03    -164.492E-03     34.7212E-03    -164.782E-03     328.058E-03    -164.463E-03     32.7763E-03
            1602     763.788E-06     59.0915E-03    -138.071E+06    -317.886E+06    -135.030E+06     73.1489E+03    -164.482E-03     329.021E-03    -164.539E-03     19.0993E-03    -164.550E-03     327.862E-03    -164.553E-03     18.0546E-03
            1603     14.5118E-03     60.1662E-03    -5.27199E+06     88.3880E+06     96.7684E+06    -46.7599E+03    -163.677E-03     328.125E-03    -164.448E-03     66.3291E-03    -165.689E-03     330.151E-03    -164.085E-03     56.8313E-03
            1604     13.7496E-03     60.0576E-03    -10.6737E+06     85.1696E+06     97.9943E+06     286.458E+03    -163.774E-03     328.240E-03    -164.466E-03     100.558E-03    -166.780E-03     331.226E-03    -164.084E-03     88.7795E-03
            1605     12.9845E-03     59.9346E-03    -16.8022E+06     77.1964E+06     92.4931E+06     224.396E+03    -163.803E-03     328.286E-03    -164.484E-03     114.692E-03    -167.176E-03     331.606E-03    -164.109E-03     102.573E-03
            1606     12.2196E-03     59.7906E-03    -23.6045E+06     70.4004E+06     81.0818E+06     111.398E+03    -164.753E-03     329.238E-03    -164.485E-03     131.172E-03    -168.646E-03     333.061E-03    -164.147E-03     118.349E-03
            1607     11.4563E-03     59.6263E-03    -30.4335E+06     63.2986E+06     70.1768E+06     141.591E+03    -165.659E-03     330.137E-03    -164.478E-03     142.364E-03    -169.847E-03     334.238E-03    -164.175E-03     129.209E-03
            1608     10.6918E-03     59.4522E-03    -36.9920E+06     51.0350E+06     63.8906E+06     50.3921E+03    -166.280E-03     330.777E-03    -164.497E-03     150.599E-03    -170.610E-03     334.972E-03    -164.198E-03     137.327E-03
            1609     9.92821E-03     59.2675E-03    -44.4196E+06     21.3712E+06     55.2334E+06     40.2232E+03    -166.792E-03     331.327E-03    -164.535E-03     154.456E-03    -171.034E-03     335.327E-03    -164.225E-03     141.351E-03
            1610     9.16374E-03     59.0823E-03    -52.1443E+06    -21.9943E+06     42.1654E+06     116.550E+03    -167.124E-03     331.696E-03    -164.572E-03     153.763E-03    -171.055E-03     335.242E-03    -164.254E-03     141.133E-03
            1611     8.40036E-03     58.8981E-03    -59.9387E+06    -63.7670E+06     27.6499E+06     44.0884E+03    -167.264E-03     331.865E-03    -164.601E-03     149.467E-03    -170.744E-03     334.825E-03    -164.283E-03     137.589E-03
            1612     7.63625E-03     58.7218E-03    -68.1795E+06    -100.032E+06     13.2684E+06     234.030E+03    -167.229E-03     331.854E-03    -164.625E-03     142.282E-03    -170.190E-03     334.179E-03    -164.315E-03     131.381E-03
            1613     6.87226E-03     58.5549E-03    -76.5709E+06    -136.449E+06    -2.04100E+06     209.965E+03    -167.146E-03     331.787E-03    -164.641E-03     132.893E-03    -169.569E-03     333.460E-03    -164.343E-03     123.100E-03
            1614     6.10882E-03     58.3997E-03    -84.9468E+06    -168.267E+06    -16.9485E+06      -22.37E+03    -166.942E-03     331.586E-03    -164.643E-03     121.813E-03    -168.861E-03     332.654E-03    -164.361E-03     113.200E-03
            1615     5.34508E-03     58.2587E-03    -93.5463E+06    -196.080E+06    -31.8080E+06    -12.2278E+03    -166.570E-03     331.204E-03    -164.634E-03     109.435E-03    -168.037E-03     331.735E-03    -164.373E-03     102.036E-03
            1616     4.58106E-03     58.1327E-03    -102.268E+06    -225.259E+06    -48.1179E+06    -10.5338E+03    -166.187E-03     330.801E-03    -164.614E-03     95.9694E-03    -167.263E-03     330.853E-03    -164.379E-03     89.7576E-03
            1617     3.81856E-03     58.0235E-03    -111.001E+06    -249.833E+06    -66.8438E+06     44.7561E+03    -165.688E-03     330.264E-03    -164.576E-03     81.7833E-03    -166.440E-03     329.930E-03    -164.387E-03     76.7234E-03
            1618     3.05408E-03     57.9324E-03    -119.813E+06    -272.500E+06    -86.8997E+06     14.5595E+03    -165.143E-03     329.699E-03    -164.555E-03     66.8683E-03    -165.637E-03     329.052E-03    -164.421E-03     62.9056E-03
            1619     2.29020E-03     57.8601E-03    -127.713E+06    -293.632E+06    -105.906E+06    -55.3846E+03    -164.855E-03     329.414E-03    -164.559E-03     51.0924E-03    -165.150E-03     328.520E-03    -164.477E-03     48.1580E-03
            1620     1.52738E-03     57.8079E-03    -133.994E+06    -308.686E+06    -122.600E+06     4.18407E+03    -164.717E-03     329.267E-03    -164.550E-03     34.8447E-03    -164.871E-03     328.205E-03    -164.521E-03     32.8892E-03
            1621     763.245E-06     57.7748E-03    -138.098E+06    -317.609E+06    -134.914E+06     149.610E+03    -164.679E-03     329.124E-03    -164.445E-03     19.3610E-03    -164.748E-03     327.967E-03    -164.459E-03     18.3162E-03
            1622     14.5122E-03     58.8487E-03    -5.07541E+06     88.1309E+06     96.7370E+06     40.8286E+03    -163.250E-03     327.695E-03    -164.444E-03     66.1247E-03    -165.253E-03     329.712E-03    -164.081E-03     56.6747E-03
            1623     13.7478E-03     58.7388E-03    -10.9922E+06     84.6633E+06     97.3757E+06    -334.358E+03    -163.440E-03     327.920E-03    -164.480E-03     100.195E-03    -166.440E-03     330.900E-03    -164.100E-03     88.4253E-03
            1624     12.9840E-03     58.6212E-03    -17.1469E+06     76.8908E+06     92.1304E+06     154.573E+03    -164.139E-03     328.639E-03    -164.500E-03     114.915E-03    -167.521E-03     331.965E-03    -164.126E-03     102.760E-03
            1625     12.2202E-03     58.4718E-03    -23.3475E+06     70.6393E+06     81.3022E+06     488.386E+03    -164.988E-03     329.473E-03    -164.485E-03     131.046E-03    -168.880E-03     333.297E-03    -164.147E-03     118.210E-03
            1626     11.4559E-03     58.3110E-03    -29.8452E+06     63.8223E+06     70.5687E+06     104.619E+03    -165.616E-03     330.087E-03    -164.471E-03     142.126E-03    -169.798E-03     334.185E-03    -164.167E-03     128.979E-03
            1627     10.6922E-03     58.1347E-03    -37.0356E+06     50.8946E+06     63.7216E+06    -62.7601E+03    -166.266E-03     330.756E-03    -164.490E-03     150.519E-03    -170.596E-03     334.951E-03    -164.192E-03     137.241E-03
            1628     9.92793E-03     57.9516E-03    -44.4149E+06     21.2080E+06     55.1253E+06     48.0943E+03    -166.825E-03     331.351E-03    -164.525E-03     154.235E-03    -171.062E-03     335.346E-03    -164.216E-03     141.129E-03
            1629     9.16453E-03     57.7652E-03    -52.2147E+06    -21.9629E+06     42.2350E+06     40.3327E+03    -167.118E-03     331.678E-03    -164.561E-03     153.683E-03    -171.047E-03     335.222E-03    -164.242E-03     141.055E-03
            1630     8.40021E-03     57.5822E-03    -60.4045E+06    -63.8323E+06     27.3664E+06     161.505E+03    -167.247E-03     331.836E-03    -164.589E-03     149.519E-03    -170.728E-03     334.796E-03    -164.272E-03     137.648E-03
            1631     7.63624E-03     57.4054E-03    -68.3475E+06    -100.488E+06     12.9524E+06     101.159E+03    -167.329E-03     331.936E-03    -164.607E-03     142.195E-03    -170.288E-03     334.258E-03    -164.297E-03     131.288E-03
            1632     6.87273E-03     57.2383E-03    -76.1976E+06    -136.130E+06    -1.57654E+06     202.840E+03    -167.247E-03     331.858E-03    -164.611E-03     132.655E-03    -169.668E-03     333.530E-03    -164.311E-03     122.857E-03
            1633     6.10887E-03     57.0833E-03    -84.6800E+06    -167.650E+06    -16.5912E+06     356.379E+03    -166.931E-03     331.532E-03    -164.601E-03     121.613E-03    -168.847E-03     332.600E-03    -164.318E-03     113.012E-03
            1634     5.34533E-03     56.9423E-03    -93.5783E+06    -196.092E+06    -32.1209E+06    -23.8472E+03    -166.552E-03     331.136E-03    -164.584E-03     109.451E-03    -168.019E-03     331.668E-03    -164.325E-03     102.053E-03
            1635     4.58227E-03     56.8164E-03    -102.459E+06    -225.408E+06    -48.5048E+06    -280.125E+03    -166.055E-03     330.625E-03    -164.570E-03     96.1520E-03    -167.132E-03     330.679E-03    -164.337E-03     89.9429E-03
            1636     3.81740E-03     56.7077E-03    -111.450E+06    -250.229E+06    -67.1195E+06    -28.7338E+03    -165.537E-03     330.093E-03    -164.556E-03     81.8295E-03    -166.291E-03     329.758E-03    -164.367E-03     76.7750E-03
            1637     3.05420E-03     56.6167E-03    -119.925E+06    -272.293E+06    -86.7882E+06     146.485E+03    -165.129E-03     329.677E-03    -164.548E-03     66.5829E-03    -165.623E-03     329.030E-03    -164.413E-03     62.6245E-03
            1638     2.29055E-03     56.5443E-03    -127.712E+06    -293.478E+06    -106.191E+06    -45.3721E+03    -164.812E-03     329.366E-03    -164.554E-03     50.8157E-03    -165.105E-03     328.472E-03    -164.474E-03     47.8872E-03
            1639     1.52635E-03     56.4911E-03    -134.029E+06    -309.102E+06    -123.540E+06    -142.199E+03    -164.710E-03     329.261E-03    -164.551E-03     34.6535E-03    -164.861E-03     328.197E-03    -164.526E-03     32.7029E-03
            1640     763.510E-06     56.4593E-03    -137.633E+06    -317.387E+06    -135.225E+06      -95.82E+03    -164.780E-03     329.136E-03    -164.356E-03     19.1188E-03    -164.847E-03     327.980E-03    -164.373E-03     18.0723E-03
            1641     14.5133E-03     57.5330E-03    -4.62928E+06     88.0149E+06     96.8230E+06     244.818E+03    -162.973E-03     327.426E-03    -164.453E-03     66.5342E-03    -164.979E-03     329.447E-03    -164.090E-03     57.1022E-03
            1642     13.7479E-03     57.4243E-03    -10.5983E+06     85.0592E+06     97.7481E+06     245.184E+03    -163.539E-03     328.035E-03    -164.496E-03     100.317E-03    -166.539E-03     331.016E-03    -164.115E-03     88.5494E-03
            1643     12.9839E-03     57.3017E-03    -17.2138E+06     76.8338E+06     92.1194E+06    -55.9131E+03    -164.491E-03     328.992E-03    -164.501E-03     114.215E-03    -167.865E-03     332.311E-03    -164.127E-03     102.030E-03
            1644     12.2204E-03     57.1565E-03    -23.4949E+06     70.4554E+06     81.2139E+06    -192.166E+03    -164.942E-03     329.417E-03    -164.475E-03     130.928E-03    -168.832E-03     333.239E-03    -164.137E-03     118.087E-03
            1645     11.4563E-03     56.9937E-03    -29.8265E+06     63.8173E+06     70.5998E+06     175.630E+03    -165.615E-03     330.078E-03    -164.463E-03     142.307E-03    -169.801E-03     334.179E-03    -164.159E-03     129.156E-03
            1646     10.6921E-03     56.8187E-03    -36.8253E+06     51.1609E+06     63.8642E+06     284.805E+03    -166.345E-03     330.824E-03    -164.479E-03     150.481E-03    -170.672E-03     335.016E-03    -164.180E-03     137.207E-03
            1647     9.92848E-03     56.6344E-03    -44.4917E+06     21.2129E+06     55.0869E+06     78.6740E+03    -166.767E-03     331.280E-03    -164.512E-03     154.164E-03    -171.000E-03     335.270E-03    -164.203E-03     141.071E-03
            1648     9.16403E-03     56.4492E-03    -52.2715E+06    -22.0826E+06     42.1495E+06     100.404E+03    -167.122E-03     331.671E-03    -164.548E-03     153.590E-03    -171.050E-03     335.212E-03    -164.230E-03     140.964E-03
            1649     8.40024E-03     56.2656E-03    -59.9061E+06    -63.7935E+06     27.6004E+06     83.2387E+03    -167.401E-03     331.968E-03    -164.567E-03     149.225E-03    -170.877E-03     334.924E-03    -164.249E-03     137.344E-03
            1650     7.63670E-03     56.0888E-03    -67.9324E+06    -100.378E+06     13.1286E+06     72.1614E+03    -167.401E-03     331.970E-03    -164.569E-03     141.951E-03    -170.356E-03     334.289E-03    -164.259E-03     131.042E-03
            1651     6.87297E-03     55.9217E-03    -76.3330E+06    -136.507E+06    -1.78757E+06     130.388E+03    -167.189E-03     331.756E-03    -164.567E-03     132.612E-03    -169.609E-03     333.425E-03    -164.267E-03     122.819E-03
            1652     6.10945E-03     55.7673E-03    -84.4832E+06    -167.589E+06    -16.4695E+06     290.324E+03    -166.879E-03     331.438E-03    -164.559E-03     121.663E-03    -168.794E-03     332.505E-03    -164.276E-03     113.065E-03
            1653     5.34560E-03     55.6260E-03    -92.7428E+06    -195.277E+06    -31.5714E+06     202.590E+03    -166.402E-03     330.954E-03    -164.552E-03     109.430E-03    -167.866E-03     331.486E-03    -164.292E-03     102.047E-03
            1654     4.58118E-03     55.5006E-03    -101.878E+06    -225.520E+06    -48.6309E+06     225.730E+03    -165.941E-03     330.494E-03    -164.553E-03     96.0660E-03    -167.014E-03     330.546E-03    -164.321E-03     89.8706E-03
            1655     3.81840E-03     55.3919E-03    -111.082E+06    -250.569E+06    -67.5524E+06     221.332E+03    -165.604E-03     330.141E-03    -164.537E-03     81.7145E-03    -166.355E-03     329.803E-03    -164.350E-03     76.6594E-03
            1656     3.05436E-03     55.3005E-03    -119.705E+06    -272.247E+06    -86.6977E+06     10.4999E+03    -165.258E-03     329.759E-03    -164.500E-03     66.5107E-03    -165.751E-03     329.112E-03    -164.365E-03     62.5451E-03
            1657     2.29076E-03     55.2286E-03    -127.348E+06    -293.297E+06    -105.647E+06     158.385E+03    -164.893E-03     329.348E-03    -164.455E-03     50.6990E-03    -165.184E-03     328.452E-03    -164.373E-03     47.7775E-03
            1658     1.52744E-03     55.1756E-03    -133.540E+06    -308.842E+06    -122.968E+06     61.1743E+03    -164.601E-03     329.015E-03    -164.414E-03     34.6170E-03    -164.750E-03     327.950E-03    -164.387E-03     32.6723E-03
            1659     763.643E-06     55.1419E-03    -138.314E+06    -317.947E+06    -135.222E+06     8.26988E+03    -164.409E-03     328.842E-03    -164.433E-03     18.9414E-03    -164.478E-03     327.684E-03    -164.448E-03     17.8958E-03
            1660     14.5104E-03     56.2183E-03    -5.20622E+06     87.6703E+06     96.3315E+06     76.3092E+03    -163.366E-03     327.829E-03    -164.463E-03     65.9925E-03    -165.373E-03     329.850E-03    -164.101E-03     56.5157E-03
            1661     13.7478E-03     56.1049E-03    -10.6245E+06     85.1480E+06     97.8316E+06     294.680E+03    -163.914E-03     328.400E-03    -164.486E-03     99.9332E-03    -166.913E-03     331.379E-03    -164.105E-03     88.1389E-03
            1662     12.9849E-03     55.9860E-03    -16.4907E+06     77.4655E+06     92.8060E+06     208.024E+03    -164.122E-03     328.613E-03    -164.491E-03     114.144E-03    -167.488E-03     331.927E-03    -164.116E-03     102.000E-03
            1663     12.2200E-03     55.8395E-03    -23.4686E+06     70.4685E+06     81.1802E+06    -19.4484E+03    -164.926E-03     329.402E-03    -164.476E-03     131.225E-03    -168.820E-03     333.227E-03    -164.138E-03     118.385E-03
            1664     11.4560E-03     55.6774E-03    -30.4039E+06     63.2664E+06     70.1403E+06    -122.881E+03    -165.809E-03     330.267E-03    -164.457E-03     142.368E-03    -169.997E-03     334.367E-03    -164.154E-03     129.199E-03
            1665     10.6925E-03     55.5013E-03    -37.0195E+06     51.0046E+06     63.8367E+06     40.2608E+03    -166.356E-03     330.823E-03    -164.467E-03     150.295E-03    -170.679E-03     335.010E-03    -164.168E-03     137.024E-03
            1666     9.92823E-03     55.3185E-03    -44.0999E+06     21.4231E+06     55.3542E+06     202.684E+03    -166.826E-03     331.321E-03    -164.495E-03     153.944E-03    -171.056E-03     335.310E-03    -164.186E-03     140.848E-03
            1667     9.16453E-03     55.1325E-03    -51.8236E+06    -21.9915E+06     42.3608E+06     125.907E+03    -167.271E-03     331.789E-03    -164.519E-03     153.280E-03    -171.193E-03     335.327E-03    -164.200E-03     140.644E-03
            1668     8.40097E-03     54.9490E-03    -60.0165E+06    -63.8106E+06     27.5698E+06     186.919E+03    -167.442E-03     331.966E-03    -164.524E-03     149.055E-03    -170.915E-03     334.920E-03    -164.207E-03     137.176E-03
            1669     7.63718E-03     54.7724E-03    -68.2742E+06    -100.418E+06     12.9883E+06     185.007E+03    -167.327E-03     331.850E-03    -164.523E-03     141.913E-03    -170.280E-03     334.167E-03    -164.214E-03     131.017E-03
            1670     6.87321E-03     54.6058E-03    -76.3092E+06    -136.475E+06    -2.01428E+06     100.882E+03    -167.086E-03     331.610E-03    -164.524E-03     132.544E-03    -169.502E-03     333.276E-03    -164.226E-03     122.766E-03
            1671     6.10928E-03     54.4507E-03    -84.6828E+06    -167.830E+06    -16.7049E+06    -94.9418E+03    -166.740E-03     331.267E-03    -164.527E-03     121.610E-03    -168.653E-03     332.332E-03    -164.244E-03     113.020E-03
            1672     5.34565E-03     54.3103E-03    -93.5866E+06    -195.329E+06    -31.6200E+06     269.063E+03    -166.346E-03     330.876E-03    -164.530E-03     109.330E-03    -167.812E-03     331.408E-03    -164.269E-03     101.952E-03
            1673     4.58226E-03     54.1850E-03    -102.481E+06    -225.396E+06    -48.8109E+06     483.921E+03    -165.989E-03     330.514E-03    -164.524E-03     95.9658E-03    -167.064E-03     330.566E-03    -164.293E-03     89.7720E-03
            1674     3.81771E-03     54.0754E-03    -111.130E+06    -250.259E+06    -67.5514E+06     347.588E+03    -165.594E-03     330.091E-03    -164.498E-03     81.6116E-03    -166.344E-03     329.755E-03    -164.311E-03     76.5635E-03
            1675     3.05445E-03     53.9850E-03    -119.364E+06    -271.906E+06    -86.5140E+06     250.472E+03    -165.207E-03     329.667E-03    -164.460E-03     66.5596E-03    -165.699E-03     329.020E-03    -164.325E-03     62.6040E-03
            1676     2.29096E-03     53.9122E-03    -127.304E+06    -293.343E+06    -105.547E+06    -45.8642E+03    -164.940E-03     329.341E-03    -164.401E-03     50.9651E-03    -165.233E-03     328.447E-03    -164.319E-03     48.0310E-03
            1677     1.52733E-03     53.8601E-03    -134.113E+06    -308.794E+06    -122.747E+06     103.206E+03    -164.608E-03     328.928E-03    -164.320E-03     34.8383E-03    -164.761E-03     327.865E-03    -164.292E-03     32.8949E-03
            1678     763.416E-06     53.8271E-03    -138.350E+06    -317.646E+06    -134.928E+06     126.818E+03    -164.481E-03     328.601E-03    -164.121E-03     18.7610E-03    -164.550E-03     327.444E-03    -164.134E-03     17.7235E-03
            1679     14.5133E-03     54.8981E-03    -5.31464E+06     87.5334E+06     96.2620E+06    -93.2931E+03    -163.435E-03     327.884E-03    -164.449E-03     66.1203E-03    -165.440E-03     329.901E-03    -164.087E-03     56.6542E-03
            1680     13.7496E-03     54.7893E-03    -10.8334E+06     84.8524E+06     97.5087E+06    -172.971E+03    -163.474E-03     327.955E-03    -164.481E-03     100.153E-03    -166.469E-03     330.930E-03    -164.100E-03     88.3972E-03
            1681     12.9835E-03     54.6697E-03    -16.8360E+06     77.1313E+06     92.4148E+06     254.432E+03    -164.157E-03     328.656E-03    -164.499E-03     114.738E-03    -167.530E-03     331.975E-03    -164.124E-03     102.595E-03
            1682     12.2200E-03     54.5227E-03    -23.0573E+06     70.9177E+06     81.7252E+06     514.987E+03    -165.257E-03     329.732E-03    -164.475E-03     131.046E-03    -169.149E-03     333.557E-03    -164.136E-03     118.187E-03
            1683     11.4566E-03     54.3598E-03    -29.6961E+06     63.9556E+06     70.9243E+06     165.361E+03    -165.842E-03     330.286E-03    -164.444E-03     141.902E-03    -170.020E-03     334.380E-03    -164.139E-03     128.738E-03
            1684     10.6924E-03     54.1852E-03    -37.0715E+06     50.7214E+06     63.8106E+06    -219.839E+03    -166.382E-03     330.828E-03    -164.446E-03     150.042E-03    -170.703E-03     335.013E-03    -164.147E-03     136.762E-03
            1685     9.92873E-03     54.0015E-03    -44.5806E+06     21.0377E+06     55.0878E+06    -74.6323E+03    -166.981E-03     331.445E-03    -164.464E-03     153.763E-03    -171.210E-03     335.431E-03    -164.155E-03     140.651E-03
            1686     9.16510E-03     53.8157E-03    -52.4318E+06    -21.9819E+06     42.1142E+06     265.268E+03    -167.283E-03     331.760E-03    -164.477E-03     153.216E-03    -171.203E-03     335.294E-03    -164.159E-03     140.593E-03
            1687     8.40109E-03     53.6327E-03    -60.2881E+06    -63.8431E+06     27.3685E+06     254.751E+03    -167.342E-03     331.825E-03    -164.483E-03     149.111E-03    -170.814E-03     334.777E-03    -164.166E-03     137.248E-03
            1688     7.63717E-03     53.4561E-03    -67.9682E+06    -100.351E+06     12.9401E+06     68.0729E+03    -167.288E-03     331.773E-03    -164.485E-03     141.870E-03    -170.238E-03     334.088E-03    -164.176E-03     130.981E-03
            1689     6.87366E-03     53.2895E-03    -76.0900E+06    -136.308E+06    -1.79630E+06     20.2869E+03    -167.020E-03     331.509E-03    -164.489E-03     132.461E-03    -169.433E-03     333.173E-03    -164.190E-03     122.690E-03
            1690     6.10983E-03     53.1352E-03    -84.7389E+06    -167.642E+06    -16.5416E+06     390.912E+03    -166.640E-03     331.137E-03    -164.497E-03     121.529E-03    -168.552E-03     332.202E-03    -164.214E-03     112.954E-03
            1691     5.34562E-03     52.9942E-03    -93.6245E+06    -195.777E+06    -31.9482E+06     308.613E+03    -166.362E-03     330.861E-03    -164.499E-03     109.290E-03    -167.827E-03     331.391E-03    -164.239E-03     101.915E-03
            1692     4.58169E-03     52.8686E-03    -102.321E+06    -225.572E+06    -48.6932E+06     176.568E+03    -166.030E-03     330.515E-03    -164.485E-03     95.8926E-03    -167.103E-03     330.565E-03    -164.253E-03     89.6967E-03
            1693     3.81877E-03     52.7601E-03    -110.908E+06    -249.891E+06    -67.0791E+06     280.009E+03    -165.538E-03     329.991E-03    -164.453E-03     81.5471E-03    -166.287E-03     329.653E-03    -164.265E-03     76.5039E-03
            1694     3.05459E-03     52.6689E-03    -119.547E+06    -271.618E+06    -86.3341E+06     320.453E+03    -165.173E-03     329.585E-03    -164.412E-03     66.4891E-03    -165.665E-03     328.939E-03    -164.277E-03     62.5363E-03
            1695     2.29070E-03     52.5969E-03    -127.561E+06    -293.061E+06    -106.033E+06     369.769E+03    -164.869E-03     329.220E-03    -164.350E-03     50.5840E-03    -165.161E-03     328.326E-03    -164.271E-03     47.6661E-03
            1696     1.52718E-03     52.5438E-03    -133.814E+06    -308.617E+06    -123.221E+06     80.7979E+03    -164.564E-03     328.832E-03    -164.268E-03     34.3956E-03    -164.714E-03     327.769E-03    -164.242E-03     32.4596E-03
            1697     764.122E-06     52.5120E-03    -137.495E+06    -317.363E+06    -135.123E+06    -439.502E+03    -164.628E-03     328.497E-03    -163.869E-03     19.0786E-03    -164.694E-03     327.340E-03    -163.885E-03     18.0254E-03
            1698     14.5120E-03     53.5822E-03    -4.84858E+06     87.7774E+06     96.5695E+06     113.236E+03    -163.082E-03     327.534E-03    -164.451E-03     66.5737E-03    -165.086E-03     329.552E-03    -164.089E-03     57.1348E-03
            1699     13.7465E-03     53.4734E-03    -10.9729E+06     84.7296E+06     97.3272E+06    -82.0185E+03    -163.527E-03     328.018E-03    -164.491E-03     100.022E-03    -166.523E-03     330.993E-03    -164.111E-03     88.2537E-03
            1700     12.9841E-03     53.3525E-03    -17.2635E+06     76.7633E+06     92.0328E+06    -252.258E+03    -164.610E-03     329.102E-03    -164.492E-03     114.223E-03    -167.984E-03     332.420E-03    -164.118E-03     102.024E-03
            1701     12.2208E-03     53.2048E-03    -23.3883E+06     70.5757E+06     81.5675E+06    -178.476E+03    -165.273E-03     329.726E-03    -164.453E-03     130.636E-03    -169.160E-03     333.544E-03    -164.113E-03     117.765E-03
            1702     11.4567E-03     53.0438E-03    -29.7253E+06     63.9120E+06     70.8889E+06     315.427E+03    -165.815E-03     330.233E-03    -164.419E-03     141.757E-03    -169.989E-03     334.323E-03    -164.114E-03     128.602E-03
            1703     10.6929E-03     52.8681E-03    -36.5833E+06     51.1597E+06     64.0016E+06     509.700E+03    -166.479E-03     330.896E-03    -164.416E-03     149.976E-03    -170.795E-03     335.077E-03    -164.117E-03     136.706E-03
            1704     9.92919E-03     52.6848E-03    -44.4927E+06     21.0025E+06     54.9549E+06     294.181E+03    -166.938E-03     331.368E-03    -164.430E-03     153.746E-03    -171.162E-03     335.349E-03    -164.121E-03     140.654E-03
            1705     9.16521E-03     52.4993E-03    -52.2816E+06    -22.1512E+06     41.9543E+06     81.4481E+03    -167.232E-03     331.676E-03    -164.444E-03     153.203E-03    -171.148E-03     335.207E-03    -164.126E-03     140.587E-03
            1706     8.40143E-03     52.3165E-03    -59.8626E+06    -63.8239E+06     27.5379E+06    -81.5716E+03    -167.346E-03     331.796E-03    -164.450E-03     148.957E-03    -170.813E-03     334.743E-03    -164.133E-03     137.095E-03
            1707     7.63780E-03     52.1397E-03     -68.025E+06    -99.9509E+06     13.2691E+06     168.070E+03    -167.184E-03     331.638E-03    -164.454E-03     141.774E-03    -170.131E-03     333.950E-03    -164.144E-03     130.901E-03
            1708     6.87359E-03     51.9738E-03    -76.6499E+06    -136.164E+06    -1.95466E+06     426.679E+03    -166.982E-03     331.441E-03    -164.460E-03     132.385E-03    -169.396E-03     333.106E-03    -164.161E-03     122.627E-03
            1709     6.10962E-03     51.8191E-03    -85.0631E+06    -167.991E+06    -17.0394E+06     258.702E+03    -166.759E-03     331.215E-03    -164.456E-03     121.365E-03    -168.669E-03     332.277E-03    -164.174E-03     112.788E-03
            1710     5.34613E-03     51.6786E-03    -93.2565E+06    -195.639E+06    -31.9468E+06     217.884E+03    -166.359E-03     330.803E-03    -164.444E-03     109.056E-03    -167.819E-03     331.330E-03    -164.184E-03     101.688E-03
            1711     4.58257E-03     51.5526E-03    -102.117E+06    -225.639E+06    -48.8156E+06     103.414E+03    -165.876E-03     330.309E-03    -164.432E-03     95.6779E-03    -166.945E-03     330.356E-03    -164.201E-03     89.4937E-03
            1712     3.81810E-03     51.4445E-03    -111.267E+06    -250.081E+06    -67.3327E+06     231.017E+03    -165.538E-03     329.942E-03    -164.403E-03     81.5306E-03    -166.289E-03     329.604E-03    -164.216E-03     76.4874E-03
            1713     3.05473E-03     51.3532E-03    -119.843E+06    -271.622E+06    -86.4442E+06     447.571E+03    -165.205E-03     329.550E-03    -164.345E-03     66.4370E-03    -165.699E-03     328.905E-03    -164.210E-03     62.4847E-03
            1714     2.29158E-03     51.2808E-03    -127.355E+06    -292.424E+06    -105.554E+06     336.993E+03    -164.768E-03     329.043E-03    -164.276E-03     50.5744E-03    -165.059E-03     328.151E-03    -164.195E-03     47.6646E-03
            1715     1.52773E-03     51.2291E-03    -133.478E+06    -308.080E+06    -122.985E+06     132.170E+03    -164.398E-03     328.626E-03    -164.228E-03     34.5247E-03    -164.548E-03     327.565E-03    -164.203E-03     32.5812E-03
            1716     763.279E-06     51.1961E-03    -137.971E+06    -317.610E+06    -135.134E+06     96.3534E+03    -164.223E-03     328.483E-03    -164.260E-03     19.2044E-03    -164.291E-03     327.326E-03    -164.275E-03     18.1489E-03
            1717     14.5119E-03     52.2670E-03    -4.86750E+06     87.7452E+06     96.6164E+06     134.019E+03    -163.454E-03     327.906E-03    -164.453E-03     65.5799E-03    -165.451E-03     329.918E-03    -164.090E-03     56.1064E-03
            1718     13.7493E-03     52.1556E-03    -10.7006E+06     85.0364E+06     97.7528E+06     37.0996E+03    -163.949E-03     328.418E-03    -164.469E-03     99.4732E-03    -166.938E-03     331.387E-03    -164.088E-03     87.6799E-03
            1719     12.9850E-03     52.0350E-03    -16.9111E+06     77.0769E+06     92.3340E+06    -98.1310E+03    -164.462E-03     328.923E-03    -164.461E-03     114.196E-03    -167.831E-03     332.237E-03    -164.086E-03     102.018E-03
            1720     12.2206E-03     51.8885E-03    -23.7864E+06     70.1547E+06     80.7124E+06    -236.664E+03    -165.113E-03     329.539E-03    -164.426E-03     130.741E-03    -168.999E-03     333.355E-03    -164.089E-03     117.886E-03
            1721     11.4569E-03     51.7266E-03    -30.5834E+06     63.0535E+06     69.7710E+06    -91.5818E+03    -165.909E-03     330.301E-03    -164.392E-03     141.820E-03    -170.082E-03     334.387E-03    -164.090E-03     128.658E-03
            1722     10.6933E-03     51.5512E-03    -37.2998E+06     50.8201E+06     63.3967E+06     265.853E+03    -166.499E-03     330.885E-03    -164.386E-03     149.878E-03    -170.811E-03     335.061E-03    -164.088E-03     136.613E-03
            1723     9.92930E-03     51.3684E-03    -44.2293E+06     21.5810E+06     55.1109E+06     326.994E+03    -166.860E-03     331.260E-03    -164.400E-03     153.586E-03    -171.077E-03     335.237E-03    -164.092E-03     140.512E-03
            1724     9.16542E-03     51.1829E-03    -51.9241E+06    -21.9128E+06     42.2525E+06     121.092E+03    -167.198E-03     331.615E-03    -164.417E-03     153.134E-03    -171.110E-03     335.143E-03    -164.099E-03     140.527E-03
            1725     8.40185E-03     50.9998E-03    -60.2497E+06    -63.8639E+06     27.3938E+06     217.000E+03    -167.302E-03     331.724E-03    -164.423E-03     148.916E-03    -170.768E-03     334.670E-03    -164.106E-03     137.066E-03
            1726     7.63764E-03     50.8244E-03    -68.4589E+06    -100.253E+06     12.9133E+06     368.956E+03    -167.235E-03     331.657E-03    -164.422E-03     141.682E-03    -170.183E-03     333.969E-03    -164.113E-03     130.809E-03
            1727     6.87390E-03     50.6574E-03    -76.3852E+06    -136.086E+06    -1.93933E+06     404.317E+03    -167.092E-03     331.506E-03    -164.414E-03     132.060E-03    -169.500E-03     333.166E-03    -164.116E-03     122.303E-03
            1728     6.11038E-03     50.5034E-03    -84.6026E+06    -167.596E+06    -16.9205E+06     217.767E+03    -166.774E-03     331.169E-03    -164.395E-03     121.065E-03    -168.678E-03     332.227E-03    -164.114E-03     112.493E-03
            1729     5.34655E-03     50.3623E-03    -93.4855E+06    -195.627E+06    -32.1285E+06     134.769E+03    -166.303E-03     330.678E-03    -164.375E-03     108.928E-03    -167.763E-03     331.204E-03    -164.116E-03     101.566E-03
            1730     4.58233E-03     50.2378E-03    -102.404E+06    -225.580E+06    -49.0231E+06     276.751E+03    -165.857E-03     330.213E-03    -164.357E-03     95.5155E-03    -166.925E-03     330.259E-03    -164.126E-03     89.3415E-03
            1731     3.81891E-03     50.1285E-03    -111.215E+06    -250.237E+06    -67.4352E+06     209.607E+03    -165.454E-03     329.776E-03    -164.322E-03     81.3182E-03    -166.202E-03     329.436E-03    -164.135E-03     76.2801E-03
            1732     3.05528E-03     50.0373E-03    -119.624E+06    -271.252E+06    -86.2081E+06     122.359E+03    -164.964E-03     329.250E-03    -164.286E-03     66.3102E-03    -165.456E-03     328.605E-03    -164.150E-03     62.3625E-03
            1733     2.29082E-03     49.9660E-03    -127.474E+06    -292.250E+06    -105.236E+06     107.486E+03    -164.590E-03     328.858E-03    -164.268E-03     50.7522E-03    -164.884E-03     327.967E-03    -164.186E-03     47.8370E-03
            1734     1.52714E-03     49.9132E-03    -134.036E+06    -308.139E+06    -122.861E+06     244.282E+03    -164.480E-03     328.708E-03    -164.228E-03     34.5146E-03    -164.633E-03     327.648E-03    -164.201E-03     32.5710E-03
            1735     763.974E-06     49.8818E-03    -138.132E+06    -317.075E+06    -135.025E+06     104.734E+03    -164.258E-03     328.431E-03    -164.173E-03     18.6213E-03    -164.327E-03     327.276E-03    -164.188E-03     17.5776E-03
            1736     14.5126E-03     50.9473E-03    -5.07024E+06     87.6998E+06     96.6974E+06    -45.9575E+03    -163.611E-03     328.051E-03    -164.440E-03     66.0491E-03    -165.613E-03     330.066E-03    -164.076E-03     56.5723E-03
            1737     13.7486E-03     50.8395E-03    -10.4334E+06     85.2872E+06     98.1089E+06     259.440E+03    -163.957E-03     328.411E-03    -164.453E-03     100.323E-03    -166.953E-03     331.387E-03    -164.071E-03     88.5405E-03
            1738     12.9845E-03     50.7180E-03    -16.9470E+06     77.0356E+06     92.3039E+06     417.044E+03    -164.415E-03     328.861E-03    -164.446E-03     114.540E-03    -167.784E-03     332.176E-03    -164.072E-03     102.382E-03
            1739     12.2211E-03     50.5720E-03    -23.4763E+06     70.4585E+06     80.8924E+06     436.984E+03    -165.227E-03     329.636E-03    -164.409E-03     130.842E-03    -169.110E-03     333.451E-03    -164.073E-03     117.996E-03
            1740     11.4572E-03     50.4093E-03    -30.3506E+06     63.2884E+06     69.9582E+06     96.9884E+03    -165.954E-03     330.324E-03    -164.370E-03     141.763E-03    -170.125E-03     334.409E-03    -164.068E-03     128.603E-03
            1741     10.6935E-03     50.2347E-03    -37.5016E+06     50.5886E+06     63.3485E+06    -299.005E+03    -166.461E-03     330.823E-03    -164.361E-03     149.721E-03    -170.769E-03     334.993E-03    -164.064E-03     136.459E-03
            1742     9.92970E-03     50.0519E-03    -44.7242E+06     21.2726E+06     54.9549E+06    -188.568E+03    -166.911E-03     331.284E-03    -164.372E-03     153.481E-03    -171.126E-03     335.256E-03    -164.064E-03     140.400E-03
            1743     9.16594E-03     49.8665E-03    -52.3869E+06    -21.9700E+06     42.1378E+06     239.525E+03    -167.167E-03     331.552E-03    -164.385E-03     152.921E-03    -171.075E-03     335.074E-03    -164.067E-03     140.327E-03
            1744     8.40156E-03     49.6840E-03    -60.2484E+06    -63.6961E+06     27.3203E+06     446.765E+03    -167.326E-03     331.711E-03    -164.385E-03     148.514E-03    -170.784E-03     334.650E-03    -164.069E-03     136.675E-03
            1745     7.63812E-03     49.5077E-03    -68.0398E+06    -100.336E+06     12.7059E+06     182.825E+03    -167.331E-03     331.702E-03    -164.371E-03     141.198E-03    -170.269E-03     334.005E-03    -164.063E-03     130.324E-03
            1746     6.87460E-03     49.3415E-03    -76.0890E+06    -136.233E+06    -1.90003E+06     153.479E+03    -167.074E-03     331.426E-03    -164.352E-03     131.942E-03    -169.478E-03     333.082E-03    -164.054E-03     122.188E-03
            1747     6.11067E-03     49.1874E-03    -84.5161E+06    -167.356E+06    -16.4361E+06     372.521E+03    -166.693E-03     331.026E-03    -164.333E-03     121.073E-03    -168.598E-03     332.084E-03    -164.050E-03     112.510E-03
            1748     5.34665E-03     49.0472E-03    -93.1951E+06    -195.439E+06    -31.7516E+06     369.305E+03    -166.294E-03     330.602E-03    -164.309E-03     108.782E-03    -167.750E-03     331.126E-03    -164.049E-03     101.428E-03
            1749     4.58324E-03     48.9218E-03    -102.119E+06    -225.391E+06    -48.8253E+06     376.545E+03    -165.916E-03     330.188E-03    -164.273E-03     95.4891E-03    -166.983E-03     330.234E-03    -164.042E-03     89.3144E-03
            1750     3.81936E-03     48.8133E-03    -110.841E+06    -249.797E+06    -67.2945E+06     215.293E+03    -165.358E-03     329.583E-03    -164.225E-03     81.2402E-03    -166.105E-03     329.244E-03    -164.039E-03     76.2077E-03
            1751     3.05489E-03     48.7227E-03    -119.537E+06    -271.299E+06    -86.2811E+06     164.759E+03    -164.810E-03     329.006E-03    -164.196E-03     66.0009E-03    -165.300E-03     328.358E-03    -164.060E-03     62.0655E-03
            1752     2.29141E-03     48.6506E-03    -127.495E+06    -292.261E+06    -105.562E+06     275.587E+03    -164.555E-03     328.726E-03    -164.171E-03     50.2278E-03    -164.846E-03     327.833E-03    -164.090E-03     47.3225E-03
            1753     1.52752E-03     48.5981E-03    -133.761E+06    -307.705E+06    -122.748E+06     61.4751E+03    -164.368E-03     328.486E-03    -164.118E-03     34.1344E-03    -164.519E-03     327.425E-03    -164.092E-03     32.2015E-03
            1754     763.888E-06     48.5652E-03    -137.867E+06    -316.882E+06    -135.260E+06    -56.3971E+03    -164.285E-03     328.207E-03    -163.923E-03     18.5321E-03    -164.353E-03     327.053E-03    -163.939E-03     17.4880E-03
            1755     14.5122E-03     49.6329E-03    -5.13762E+06     87.3125E+06     96.3080E+06    -8.58365E+03    -163.466E-03     327.900E-03    -164.435E-03     65.9717E-03    -165.461E-03     329.908E-03    -164.072E-03     56.5221E-03
            1756     13.7483E-03     49.5204E-03    -10.5281E+06     85.1812E+06     97.7972E+06     228.846E+03    -163.837E-03     328.292E-03    -164.455E-03     99.9778E-03    -166.825E-03     331.261E-03    -164.074E-03     88.2110E-03
            1757     12.9852E-03     49.4022E-03    -16.8121E+06     77.2013E+06     92.5178E+06     335.096E+03    -164.687E-03     329.132E-03    -164.444E-03     114.334E-03    -168.057E-03     332.447E-03    -164.069E-03     102.148E-03
            1758     12.2210E-03     49.2542E-03    -23.4209E+06     70.5384E+06     81.6205E+06     449.535E+03    -165.424E-03     329.819E-03    -164.395E-03     130.800E-03    -169.307E-03     333.632E-03    -164.055E-03     117.940E-03
            1759     11.4576E-03     49.0926E-03    -29.8092E+06     63.8209E+06     70.8544E+06     327.997E+03    -165.922E-03     330.270E-03    -164.348E-03     141.466E-03    -170.083E-03     334.347E-03    -164.043E-03     128.322E-03
            1760     10.6936E-03     48.9181E-03    -36.6166E+06     51.1456E+06     63.9414E+06     109.923E+03    -166.461E-03     330.797E-03    -164.336E-03     149.553E-03    -170.759E-03     334.962E-03    -164.037E-03     136.302E-03
            1761     9.92992E-03     48.7349E-03    -44.4122E+06     20.7638E+06     54.9162E+06     25.4221E+03    -166.950E-03     331.292E-03    -164.342E-03     153.232E-03    -171.157E-03     335.256E-03    -164.033E-03     140.155E-03
            1762     9.16596E-03     48.5505E-03    -52.2879E+06    -22.2702E+06     41.8312E+06     192.305E+03    -167.323E-03     331.664E-03    -164.341E-03     152.621E-03    -171.225E-03     335.179E-03    -164.023E-03     140.020E-03
            1763     8.40275E-03     48.3674E-03    -59.9626E+06    -63.6399E+06     27.3388E+06     109.181E+03    -167.425E-03     331.749E-03    -164.324E-03     148.264E-03    -170.876E-03     334.682E-03    -164.008E-03     136.422E-03
            1764     7.63891E-03     48.1917E-03    -68.0533E+06    -99.9751E+06     12.9485E+06     241.586E+03    -167.222E-03     331.527E-03    -164.304E-03     141.080E-03    -170.156E-03     333.826E-03    -163.996E-03     130.227E-03
            1765     6.87472E-03     48.0259E-03    -76.4623E+06    -136.233E+06    -2.00979E+06     283.147E+03    -166.990E-03     331.277E-03    -164.287E-03     131.783E-03    -169.392E-03     332.930E-03    -163.989E-03     122.044E-03
            1766     6.11087E-03     47.8717E-03    -84.9819E+06    -167.589E+06    -16.6769E+06     301.075E+03    -166.692E-03     330.955E-03    -164.263E-03     120.706E-03    -168.593E-03     332.007E-03    -163.980E-03     112.155E-03
            1767     5.34736E-03     47.7315E-03    -93.7304E+06    -195.241E+06    -31.8700E+06     382.386E+03    -166.293E-03     330.518E-03    -164.225E-03     108.518E-03    -167.749E-03     331.041E-03    -163.966E-03     101.170E-03
            1768     4.58318E-03     47.6065E-03    -102.576E+06    -225.092E+06    -48.6761E+06     172.169E+03    -165.806E-03     329.990E-03    -164.184E-03     95.2703E-03    -166.875E-03     330.036E-03    -163.952E-03     89.1010E-03
            1769     3.81936E-03     47.4980E-03    -111.469E+06    -249.646E+06    -67.4610E+06     244.946E+03    -165.309E-03     329.438E-03    -164.129E-03     80.9083E-03    -166.056E-03     329.098E-03    -163.942E-03     75.8866E-03
            1770     3.05606E-03     47.4079E-03    -119.792E+06    -271.378E+06    -86.9704E+06     264.208E+03    -164.916E-03     328.976E-03    -164.060E-03     65.9190E-03    -165.406E-03     328.329E-03    -163.927E-03     61.9855E-03
            1771     2.29182E-03     47.3355E-03    -127.251E+06    -291.694E+06    -105.665E+06     75.5908E+03    -164.473E-03     328.463E-03    -163.990E-03     50.3051E-03    -164.764E-03     327.573E-03    -163.911E-03     47.4025E-03
            1772     1.52816E-03     47.2833E-03    -133.609E+06    -307.452E+06    -122.826E+06     71.0670E+03    -163.986E-03     327.972E-03    -163.986E-03     34.3299E-03    -164.137E-03     326.913E-03    -163.961E-03     32.4033E-03
            1773     763.559E-06     47.2514E-03    -137.976E+06    -316.891E+06    -134.802E+06     207.724E+03    -163.970E-03     328.079E-03    -164.110E-03     19.0024E-03    -164.039E-03     326.925E-03    -164.124E-03     17.9602E-03
            1774     14.5129E-03     48.3147E-03    -4.96379E+06     87.3308E+06     96.2712E+06    -136.009E+03    -163.613E-03     328.054E-03    -164.441E-03     66.1328E-03    -165.617E-03     330.072E-03    -164.079E-03     56.6407E-03
            1775     13.7491E-03     48.2050E-03    -10.9386E+06     84.8070E+06     97.3821E+06     175.209E+03    -164.001E-03     328.455E-03    -164.453E-03     100.411E-03    -166.996E-03     331.430E-03    -164.074E-03     88.6281E-03
            1776     12.9842E-03     48.0838E-03    -17.1786E+06     76.8565E+06     92.1909E+06     328.478E+03    -164.887E-03     329.320E-03    -164.433E-03     114.429E-03    -168.256E-03     332.633E-03    -164.058E-03     102.234E-03
            1777     12.2219E-03     47.9370E-03    -23.2936E+06     70.6884E+06     81.7862E+06     91.5141E+03    -165.532E-03     329.905E-03    -164.373E-03     130.286E-03    -169.407E-03     333.711E-03    -164.033E-03     117.415E-03
            1778     11.4577E-03     47.7761E-03    -29.7294E+06     63.8866E+06     70.8754E+06     73.2542E+03    -165.905E-03     330.225E-03    -164.320E-03     141.265E-03    -170.059E-03     334.295E-03    -164.015E-03     128.127E-03
            1779     10.6942E-03     47.6009E-03    -36.6557E+06     51.0521E+06     63.8444E+06     350.758E+03    -166.514E-03     330.818E-03    -164.304E-03     149.422E-03    -170.808E-03     334.977E-03    -164.005E-03     136.176E-03
            1780     9.93028E-03     47.4191E-03    -44.1987E+06     21.0939E+06     54.9677E+06     501.701E+03    -167.059E-03     331.359E-03    -164.299E-03     152.955E-03    -171.258E-03     335.316E-03    -163.991E-03     139.888E-03
            1781     9.16681E-03     47.2334E-03    -52.1019E+06    -22.0548E+06     41.8920E+06     290.330E+03    -167.365E-03     331.653E-03    -164.288E-03     152.413E-03    -171.259E-03     335.162E-03    -163.971E-03     139.820E-03
            1782     8.40295E-03     47.0513E-03    -60.2677E+06    -63.6409E+06     27.2366E+06     292.272E+03    -167.372E-03     331.638E-03    -164.266E-03     148.201E-03    -170.820E-03     334.567E-03    -163.951E-03     136.375E-03
            1783     7.63896E-03     46.8761E-03    -68.4927E+06    -100.185E+06     12.7063E+06     322.116E+03    -167.289E-03     331.528E-03    -164.239E-03     140.912E-03    -170.220E-03     333.823E-03    -163.931E-03     130.063E-03
            1784     6.87544E-03     46.7099E-03    -76.5716E+06    -136.090E+06    -2.13723E+06     334.355E+03    -167.072E-03     331.276E-03    -164.204E-03     131.368E-03    -169.468E-03     332.923E-03    -163.906E-03     121.634E-03
            1785     6.11184E-03     46.5562E-03    -84.9349E+06    -167.551E+06    -16.8667E+06     341.877E+03    -166.681E-03     330.842E-03    -164.161E-03     120.345E-03    -168.576E-03     331.889E-03    -163.879E-03     111.804E-03
            1786     5.34765E-03     46.4162E-03    -93.4675E+06    -194.882E+06    -31.8255E+06     295.986E+03    -166.193E-03     330.308E-03    -164.115E-03     108.164E-03    -167.644E-03     330.827E-03    -163.856E-03     100.830E-03
            1787     4.58417E-03     46.2913E-03    -102.246E+06    -224.801E+06    -48.9191E+06     254.429E+03    -165.652E-03     329.724E-03    -164.072E-03     94.9480E-03    -166.715E-03     329.767E-03    -163.842E-03     88.7979E-03
            1788     3.82013E-03     46.1834E-03    -111.031E+06    -249.771E+06    -67.7343E+06     242.859E+03    -165.219E-03     329.236E-03    -164.018E-03     80.8830E-03    -165.962E-03     328.895E-03    -163.833E-03     75.8690E-03
            1789     3.05570E-03     46.0925E-03    -119.572E+06    -270.878E+06    -86.9689E+06     140.179E+03    -164.774E-03     328.726E-03    -163.953E-03     65.9523E-03    -165.262E-03     328.081E-03    -163.821E-03     62.0238E-03
            1790     2.29231E-03     46.0212E-03    -127.358E+06    -291.645E+06    -105.831E+06     64.4187E+03    -164.243E-03     328.158E-03    -163.915E-03     50.4470E-03    -164.535E-03     327.269E-03    -163.836E-03     47.5466E-03
            1791     1.52757E-03     45.9694E-03    -133.571E+06    -307.335E+06    -122.891E+06     142.544E+03    -164.019E-03     327.929E-03    -163.911E-03     34.4591E-03    -164.170E-03     326.872E-03    -163.886E-03     32.5332E-03
            1792     763.846E-06     45.9366E-03    -137.640E+06    -316.689E+06    -134.770E+06    -98.5527E+03    -163.953E-03     327.879E-03    -163.926E-03     19.0260E-03    -164.020E-03     326.725E-03    -163.941E-03     18.0102E-03
            1793     14.5114E-03     46.9963E-03    -5.20099E+06     87.3613E+06     96.3569E+06     117.041E+03    -163.677E-03     328.129E-03    -164.452E-03     66.2883E-03    -165.681E-03     330.146E-03    -164.090E-03     56.7917E-03
            1794     13.7480E-03     46.8883E-03    -11.2716E+06     84.5470E+06     97.3680E+06     42.7761E+03    -164.569E-03     329.015E-03    -164.446E-03     99.8807E-03    -167.563E-03     331.987E-03    -164.065E-03     88.0393E-03
            1795     12.9859E-03     46.7653E-03    -17.2018E+06     76.8314E+06     92.2494E+06    -61.9794E+03    -164.874E-03     329.280E-03    -164.407E-03     113.908E-03    -168.233E-03     332.584E-03    -164.032E-03     101.713E-03
            1796     12.2215E-03     46.6202E-03    -23.3759E+06     70.5654E+06     81.0672E+06    -153.171E+03    -165.349E-03     329.697E-03    -164.347E-03     130.123E-03    -169.215E-03     333.494E-03    -164.010E-03     117.274E-03
            1797     11.4584E-03     46.4590E-03    -30.1047E+06     63.5361E+06     70.2119E+06     101.430E+03    -166.092E-03     330.385E-03    -164.293E-03     141.229E-03    -170.245E-03     334.453E-03    -163.990E-03     128.077E-03
            1798     10.6943E-03     46.2847E-03    -37.2447E+06     50.6556E+06     63.4253E+06     319.854E+03    -166.668E-03     330.932E-03    -164.263E-03     149.156E-03    -170.955E-03     335.082E-03    -163.965E-03     135.911E-03
            1799     9.93089E-03     46.1016E-03    -44.5323E+06     21.4219E+06     54.8296E+06     417.887E+03    -167.119E-03     331.365E-03    -164.246E-03     152.766E-03    -171.312E-03     335.317E-03    -163.939E-03     139.706E-03
            1800     9.16723E-03     45.9174E-03    -52.3216E+06    -21.7574E+06     41.9602E+06     461.343E+03    -167.320E-03     331.549E-03    -164.229E-03     152.022E-03    -171.205E-03     335.050E-03    -163.912E-03     139.449E-03
            1801     8.40325E-03     45.7354E-03    -60.2030E+06    -63.4932E+06     27.1983E+06     498.151E+03    -167.405E-03     331.604E-03    -164.199E-03     147.714E-03    -170.843E-03     334.524E-03    -163.884E-03     135.902E-03
            1802     7.63990E-03     45.5597E-03    -68.1748E+06    -100.047E+06     12.6311E+06     314.765E+03    -167.370E-03     331.525E-03    -164.155E-03     140.448E-03    -170.292E-03     333.813E-03    -163.848E-03     129.605E-03
            1803     6.87625E-03     45.3944E-03    -76.3376E+06    -136.277E+06    -2.27879E+06     287.302E+03    -167.058E-03     331.162E-03    -164.105E-03     131.100E-03    -169.446E-03     332.803E-03    -163.808E-03     121.380E-03
            1804     6.11220E-03     45.2409E-03    -84.4527E+06    -167.325E+06    -16.6406E+06     329.857E+03    -166.596E-03     330.652E-03    -164.056E-03     120.287E-03    -168.486E-03     331.696E-03    -163.774E-03     111.760E-03
            1805     5.34881E-03     45.1010E-03    -93.0871E+06     -194.38E+06    -31.5251E+06     335.609E+03    -166.056E-03     330.067E-03    -164.012E-03     108.193E-03    -167.503E-03     330.586E-03    -163.752E-03     100.876E-03
            1806     4.58427E-03     44.9769E-03    -101.993E+06    -224.867E+06    -49.0573E+06     441.160E+03    -165.596E-03     329.563E-03    -163.967E-03     95.0243E-03    -166.656E-03     329.605E-03    -163.738E-03     88.8865E-03
            1807     3.82018E-03     44.8685E-03    -110.909E+06    -249.664E+06    -67.9344E+06     450.751E+03    -165.079E-03     328.992E-03    -163.913E-03     80.8040E-03    -165.820E-03     328.650E-03    -163.730E-03     75.8039E-03
            1808     3.05671E-03     44.7782E-03    -119.499E+06    -270.246E+06    -86.6941E+06     470.159E+03    -164.502E-03     328.378E-03    -163.876E-03     65.7723E-03    -164.990E-03     327.734E-03    -163.745E-03     61.8624E-03
            1809     2.29163E-03     44.7074E-03    -127.312E+06    -291.616E+06    -105.999E+06     185.284E+03    -164.280E-03     328.121E-03    -163.841E-03     50.1912E-03    -164.570E-03     327.231E-03    -163.764E-03     47.2978E-03
            1810     1.52816E-03     44.6546E-03    -133.341E+06    -307.178E+06    -123.022E+06    -90.8157E+03    -164.175E-03     327.908E-03    -163.733E-03     34.1174E-03    -164.324E-03     326.850E-03    -163.710E-03     32.1952E-03
            1811     764.484E-06     44.6218E-03    -137.250E+06    -316.499E+06    -134.904E+06     145.974E+03    -163.799E-03     327.354E-03    -163.555E-03     18.6669E-03    -163.864E-03     326.200E-03    -163.572E-03     17.6615E-03
            1812     14.5123E-03     45.6802E-03    -5.26835E+06      87.294E+06     96.4119E+06     206.744E+03    -163.999E-03     328.426E-03    -164.428E-03     65.9211E-03    -165.995E-03     330.434E-03    -164.065E-03     56.4323E-03
            1813     13.7498E-03     45.5676E-03    -10.4493E+06     84.7712E+06     97.8583E+06     15.0034E+03    -164.406E-03     328.822E-03    -164.416E-03     99.4317E-03    -167.385E-03     331.781E-03    -164.034E-03     87.6179E-03
            1814     12.9859E-03     45.4498E-03    -16.3699E+06     77.0633E+06     92.6738E+06     19.2019E+03    -164.748E-03     329.131E-03    -164.383E-03     113.816E-03    -168.097E-03     332.427E-03    -164.007E-03     101.644E-03
            1815     12.2219E-03     45.3031E-03    -23.4842E+06     70.4744E+06     81.1439E+06     294.438E+03    -165.455E-03     329.778E-03    -164.323E-03     130.149E-03    -169.314E-03     333.569E-03    -163.985E-03     117.311E-03
            1816     11.4581E-03     45.1414E-03    -30.3084E+06     63.3546E+06     70.0391E+06     267.474E+03    -166.239E-03     330.495E-03    -164.256E-03     140.678E-03    -170.380E-03     334.550E-03    -163.954E-03     127.528E-03
            1817     10.6954E-03     44.9677E-03    -37.1798E+06     50.6316E+06     63.1638E+06     219.917E+03    -166.782E-03     330.993E-03    -164.211E-03     148.795E-03    -171.060E-03     335.136E-03    -163.915E-03     135.548E-03
            1818     9.93146E-03     44.7852E-03    -44.6487E+06     21.0625E+06     54.5431E+06     409.647E+03    -167.109E-03     331.295E-03    -164.186E-03     152.443E-03    -171.291E-03     335.235E-03    -163.879E-03     139.397E-03
            1819     9.16773E-03     44.6010E-03    -52.3027E+06    -21.5798E+06     41.8954E+06     454.498E+03    -167.388E-03     331.547E-03    -164.159E-03     151.678E-03    -171.264E-03     335.039E-03    -163.843E-03     139.115E-03
            1820     8.40451E-03     44.4193E-03    -60.2065E+06    -63.2969E+06     27.1857E+06     336.208E+03    -167.507E-03     331.620E-03    -164.114E-03     147.531E-03    -170.939E-03     334.536E-03    -163.799E-03     135.721E-03
            1821     7.64059E-03     44.2439E-03    -68.1332E+06    -99.7826E+06     12.6681E+06     382.055E+03    -167.268E-03     331.329E-03    -164.061E-03     140.285E-03    -170.181E-03     333.610E-03    -163.754E-03     129.469E-03
            1822     6.87668E-03     44.0790E-03    -76.1692E+06    -136.210E+06    -2.25631E+06     209.220E+03    -166.924E-03     330.937E-03    -164.013E-03     130.954E-03    -169.305E-03     332.571E-03    -163.716E-03     121.256E-03
            1823     6.11314E-03     43.9256E-03    -84.5749E+06    -167.314E+06    -16.8255E+06     272.706E+03    -166.483E-03     330.450E-03    -163.966E-03     120.102E-03    -168.368E-03     331.490E-03    -163.685E-03     111.594E-03
            1824     5.34844E-03     43.7866E-03    -93.2100E+06    -194.252E+06    -31.6674E+06     452.465E+03    -166.004E-03     329.923E-03    -163.919E-03     107.896E-03    -167.447E-03     330.437E-03    -163.661E-03     100.596E-03
            1825     4.58483E-03     43.6619E-03    -102.256E+06    -225.100E+06    -49.1627E+06     552.603E+03    -165.548E-03     329.414E-03    -163.866E-03     94.7285E-03    -166.606E-03     329.452E-03    -163.637E-03     88.5997E-03
            1826     3.82116E-03     43.5541E-03    -110.979E+06    -249.264E+06    -67.7106E+06     719.961E+03    -164.957E-03     328.763E-03    -163.806E-03     80.4150E-03    -165.696E-03     328.419E-03    -163.622E-03     75.4327E-03
            1827     3.05596E-03     43.4648E-03    -119.330E+06    -269.707E+06    -86.2729E+06     382.894E+03    -164.547E-03     328.292E-03    -163.745E-03     65.4369E-03    -165.033E-03     327.648E-03    -163.613E-03     61.5321E-03
            1828     2.29274E-03     43.3924E-03    -126.804E+06    -290.930E+06    -105.128E+06     181.025E+03    -164.290E-03     327.943E-03    -163.653E-03     49.8705E-03    -164.578E-03     327.053E-03    -163.573E-03     46.9855E-03
            1829     1.52874E-03     43.3404E-03    -133.353E+06    -307.014E+06    -122.535E+06     150.419E+03    -163.849E-03     327.391E-03    -163.542E-03     34.0063E-03    -163.998E-03     326.332E-03    -163.516E-03     32.0939E-03
            1830     764.142E-06     43.3089E-03    -137.894E+06    -316.510E+06    -134.862E+06     645.451E+03    -163.647E-03     327.028E-03    -163.382E-03     18.5836E-03    -163.716E-03     325.876E-03    -163.397E-03     17.5561E-03
            1831     14.5140E-03     44.3620E-03    -4.73692E+06     87.6725E+06     96.8362E+06     54.5554E+03    -164.235E-03     328.630E-03    -164.395E-03     66.1429E-03    -166.229E-03     330.637E-03    -164.031E-03     56.6558E-03
            1832     13.7491E-03     44.2514E-03    -10.4582E+06     84.7108E+06     97.6891E+06     17.6838E+03    -164.014E-03     328.400E-03    -164.385E-03     99.5431E-03    -166.986E-03     331.351E-03    -164.004E-03     87.7762E-03
            1833     12.9853E-03     44.1322E-03    -17.1538E+06     76.3281E+06     91.9048E+06     259.739E+03    -164.903E-03     329.259E-03    -164.356E-03     113.448E-03    -168.247E-03     332.547E-03    -163.982E-03     101.270E-03
            1834     12.2226E-03     43.9852E-03    -23.4486E+06     70.5529E+06     81.3527E+06     460.916E+03    -165.748E-03     330.029E-03    -164.281E-03     129.544E-03    -169.597E-03     333.808E-03    -163.942E-03     116.695E-03
            1835     11.4596E-03     43.8249E-03    -29.9971E+06     63.6665E+06     70.3283E+06     408.310E+03    -166.177E-03     330.379E-03    -164.202E-03     140.450E-03    -170.305E-03     334.422E-03    -163.899E-03     127.327E-03
            1836     10.6953E-03     43.6502E-03    -37.2610E+06     50.5228E+06     63.2023E+06     496.425E+03    -166.759E-03     330.914E-03    -164.156E-03     148.572E-03    -171.028E-03     335.047E-03    -163.859E-03     135.344E-03
            1837     9.93220E-03     43.4689E-03    -44.7854E+06     21.2374E+06     54.6301E+06     397.629E+03    -167.175E-03     331.297E-03    -164.123E-03     152.138E-03    -171.348E-03     335.229E-03    -163.815E-03     139.103E-03
            1838     9.16860E-03     43.2846E-03    -52.4143E+06    -21.4653E+06     41.7839E+06     198.408E+03    -167.427E-03     331.511E-03    -164.084E-03     151.587E-03    -171.296E-03     334.997E-03    -163.768E-03     139.033E-03
            1839     8.40474E-03     43.1029E-03    -60.0292E+06    -63.2230E+06     27.2818E+06     254.583E+03    -167.454E-03     331.487E-03    -164.033E-03     147.299E-03    -170.877E-03     334.393E-03    -163.718E-03     135.509E-03
            1840     7.64125E-03     42.9285E-03    -67.9379E+06    -99.5188E+06     12.9320E+06     354.194E+03    -167.218E-03     331.195E-03    -163.977E-03     140.022E-03    -170.123E-03     333.468E-03    -163.669E-03     129.226E-03
            1841     6.87747E-03     42.7636E-03    -76.3312E+06    -135.919E+06    -2.26774E+06     375.115E+03    -166.890E-03     330.811E-03    -163.921E-03     130.615E-03    -169.265E-03     332.439E-03    -163.624E-03     120.936E-03
            1842     6.11310E-03     42.6109E-03    -84.8082E+06    -167.522E+06    -17.1152E+06     261.907E+03    -166.496E-03     330.355E-03    -163.859E-03     119.511E-03    -168.373E-03     331.386E-03    -163.579E-03     111.017E-03
            1843     5.34984E-03     42.4717E-03    -93.3693E+06    -194.678E+06    -31.9601E+06     384.525E+03    -166.000E-03     329.791E-03    -163.791E-03     107.351E-03    -167.436E-03     330.298E-03    -163.533E-03     100.062E-03
            1844     4.58558E-03     42.3476E-03    -101.931E+06    -224.824E+06    -49.0842E+06     606.649E+03    -165.391E-03     329.117E-03    -163.726E-03     94.2038E-03    -166.442E-03     329.151E-03    -163.498E-03     88.0954E-03
            1845     3.82078E-03     42.2404E-03    -110.540E+06    -248.653E+06    -67.2886E+06     535.760E+03    -164.931E-03     328.583E-03    -163.652E-03     80.0154E-03    -165.666E-03     328.237E-03    -163.467E-03     75.0400E-03
            1846     3.05780E-03     42.1503E-03    -118.966E+06    -269.130E+06    -85.9272E+06     244.137E+03    -164.549E-03     328.100E-03    -163.551E-03     65.2313E-03    -165.033E-03     327.456E-03    -163.418E-03     61.3303E-03
            1847     2.29319E-03     42.0787E-03    -127.247E+06    -290.987E+06    -105.030E+06     254.735E+03    -163.932E-03     327.393E-03    -163.461E-03     49.8326E-03    -164.221E-03     326.502E-03    -163.380E-03     46.9591E-03
            1848     1.52844E-03     42.0277E-03    -133.677E+06    -306.610E+06    -122.236E+06     607.039E+03    -163.525E-03     326.954E-03    -163.429E-03     34.0056E-03    -163.677E-03     325.898E-03    -163.402E-03     32.1005E-03
            1849     764.216E-06     41.9950E-03    -137.779E+06    -315.619E+06    -134.420E+06     45.6159E+03    -163.705E-03     326.901E-03    -163.196E-03     18.5745E-03    -163.776E-03     325.752E-03    -163.211E-03     17.5285E-03
            1850     14.5127E-03     43.0428E-03    -4.80767E+06     87.5657E+06     96.3750E+06    -188.943E+03    -164.250E-03     328.650E-03    -164.401E-03     66.3274E-03    -166.249E-03     330.664E-03    -164.039E-03     56.8026E-03
            1851     13.7502E-03     42.9361E-03    -10.8642E+06     84.1380E+06     97.1915E+06     266.391E+03    -164.672E-03     329.045E-03    -164.373E-03     99.7591E-03    -167.653E-03     332.004E-03    -163.993E-03     87.9363E-03
            1852     12.9869E-03     42.8133E-03    -17.1359E+06     76.7699E+06     92.0224E+06     458.461E+03    -165.167E-03     329.484E-03    -164.318E-03     113.587E-03    -168.510E-03     332.772E-03    -163.944E-03     101.401E-03
            1853     12.2235E-03     42.6685E-03    -23.2962E+06     70.3884E+06     81.1717E+06     105.431E+03    -165.680E-03     329.914E-03    -164.234E-03     129.537E-03    -169.521E-03     333.687E-03    -163.896E-03     116.701E-03
            1854     11.4594E-03     42.5076E-03    -29.9027E+06     62.7766E+06     70.1576E+06      630.44E+03    -166.283E-03     330.436E-03    -164.153E-03     140.514E-03    -170.404E-03     334.470E-03    -163.849E-03     127.399E-03
            1855     10.6966E-03     42.3338E-03    -36.7504E+06     51.2070E+06     63.7144E+06     834.390E+03    -166.797E-03     330.895E-03    -164.098E-03     148.370E-03    -171.053E-03     335.018E-03    -163.801E-03     135.164E-03
            1856     9.93264E-03     42.1520E-03    -43.9854E+06     21.8538E+06     55.0969E+06     399.838E+03    -167.244E-03     331.299E-03    -164.056E-03     151.839E-03    -171.404E-03     335.221E-03    -163.748E-03     138.813E-03
            1857     9.16919E-03     41.9685E-03    -51.7790E+06    -21.3818E+06     42.0598E+06     362.681E+03    -167.467E-03     331.472E-03    -164.005E-03     151.130E-03    -171.319E-03     334.943E-03    -163.689E-03     138.595E-03
            1858     8.40575E-03     41.7871E-03    -59.8312E+06    -63.1816E+06     27.3635E+06     407.184E+03    -167.397E-03     331.342E-03    -163.945E-03     146.758E-03    -170.804E-03     334.233E-03    -163.630E-03     134.997E-03
            1859     7.64182E-03     41.6130E-03    -68.0574E+06    -99.4993E+06     12.8513E+06     444.708E+03    -167.235E-03     331.112E-03    -163.877E-03     139.430E-03    -170.129E-03     333.374E-03    -163.570E-03     128.649E-03
            1860     6.87797E-03     41.4485E-03    -76.3103E+06    -135.652E+06    -2.20392E+06     568.308E+03    -166.944E-03     330.745E-03    -163.801E-03     129.983E-03    -169.309E-03     332.364E-03    -163.505E-03     120.321E-03
            1861     6.11474E-03     41.2960E-03    -84.6725E+06    -167.114E+06    -16.9215E+06     435.288E+03    -166.481E-03     330.200E-03    -163.719E-03     119.065E-03    -168.351E-03     331.225E-03    -163.438E-03     110.589E-03
            1862     5.35023E-03     41.1573E-03    -93.5053E+06    -194.794E+06    -31.9649E+06     311.439E+03    -165.930E-03     329.563E-03    -163.633E-03     106.989E-03    -167.361E-03     330.064E-03    -163.375E-03     99.7172E-03
            1863     4.58620E-03     41.0338E-03    -102.336E+06    -224.601E+06    -49.0553E+06     282.569E+03    -165.366E-03     328.911E-03    -163.545E-03     93.6953E-03    -166.413E-03     328.940E-03    -163.316E-03     87.6009E-03
            1864     3.82259E-03     40.9267E-03    -110.873E+06    -248.328E+06    -67.3678E+06     129.599E+03    -164.773E-03     328.222E-03    -163.449E-03     79.7809E-03    -165.506E-03     327.875E-03    -163.265E-03     74.8189E-03
            1865     3.05750E-03     40.8362E-03    -119.407E+06    -269.042E+06    -86.1284E+06     490.611E+03    -164.124E-03     327.497E-03    -163.373E-03     65.1048E-03    -164.609E-03     326.852E-03    -163.240E-03     61.2298E-03
            1866     2.29326E-03     40.7666E-03    -127.086E+06    -290.596E+06    -105.458E+06     522.876E+03    -163.654E-03     326.990E-03    -163.336E-03     49.7601E-03    -163.942E-03     326.102E-03    -163.258E-03     46.8991E-03
            1867     1.52892E-03     40.7140E-03    -133.196E+06    -306.286E+06    -122.591E+06    -49.0819E+03    -163.484E-03     326.797E-03    -163.313E-03     34.1333E-03    -163.634E-03     325.742E-03    -163.289E-03     32.2187E-03
            1868     764.530E-06     40.6825E-03    -136.691E+06    -314.963E+06    -134.396E+06    -78.7104E+03    -163.533E-03     326.645E-03    -163.113E-03     18.6137E-03    -163.599E-03     325.498E-03    -163.130E-03     17.5791E-03
            1869     14.5124E-03     41.7263E-03    -5.08643E+06     87.4225E+06     95.9531E+06     8.65465E+03    -164.346E-03     328.748E-03    -164.402E-03     65.4692E-03    -166.337E-03     330.753E-03    -164.042E-03     55.9510E-03
            1870     13.7491E-03     41.6149E-03    -10.8804E+06     83.3062E+06     96.6021E+06         820.492    -164.881E-03     329.247E-03    -164.365E-03     99.5392E-03    -167.858E-03     332.200E-03    -163.987E-03     87.6919E-03
            1871     12.9870E-03     41.4968E-03    -16.6881E+06     77.4251E+06     92.3178E+06     203.718E+03    -165.331E-03     329.631E-03    -164.300E-03     113.719E-03    -168.672E-03     332.920E-03    -163.927E-03     101.525E-03
            1872     12.2230E-03     41.3509E-03    -23.3539E+06     70.3832E+06     81.4137E+06     330.110E+03    -165.872E-03     330.079E-03    -164.207E-03     129.598E-03    -169.709E-03     333.847E-03    -163.868E-03     116.760E-03
            1873     11.4606E-03     41.1902E-03    -29.8712E+06     61.8010E+06     69.9632E+06     447.173E+03    -166.487E-03     330.596E-03    -164.109E-03     140.168E-03    -170.597E-03     334.616E-03    -163.805E-03     127.044E-03
            1874     10.6967E-03     41.0170E-03    -36.4480E+06     51.6316E+06     63.8575E+06     596.727E+03    -166.968E-03     331.004E-03    -164.036E-03     148.021E-03    -171.212E-03     335.117E-03    -163.739E-03     134.814E-03
            1875     9.93356E-03     40.8354E-03    -43.8550E+06     22.1111E+06     55.1305E+06     719.474E+03    -167.326E-03     331.303E-03    -163.977E-03     151.439E-03    -171.473E-03     335.213E-03    -163.670E-03     138.431E-03
            1876     9.17019E-03     40.6521E-03     -51.711E+06    -21.1076E+06     42.1364E+06     713.902E+03    -167.503E-03     331.416E-03    -163.913E-03     150.603E-03    -171.342E-03     334.875E-03    -163.597E-03     138.088E-03
            1877     8.40645E-03     40.4716E-03    -59.9612E+06    -63.0648E+06     27.2335E+06     638.048E+03    -167.496E-03     331.330E-03    -163.834E-03     146.222E-03    -170.890E-03     334.209E-03    -163.520E-03     134.477E-03
            1878     7.64294E-03     40.2975E-03    -68.0602E+06    -99.3846E+06     12.7275E+06     560.713E+03    -167.293E-03     331.036E-03    -163.743E-03     138.856E-03    -170.175E-03     333.287E-03    -163.437E-03     128.095E-03
            1879     6.87950E-03     40.1334E-03    -76.0893E+06    -135.222E+06    -1.90137E+06     585.664E+03    -166.892E-03     330.542E-03    -163.650E-03     129.401E-03    -169.245E-03     332.150E-03    -163.353E-03     119.764E-03
            1880     6.11502E-03     39.9816E-03    -84.6015E+06    -166.666E+06    -16.7234E+06     661.221E+03    -166.359E-03     329.913E-03    -163.555E-03     118.565E-03    -168.220E-03     330.931E-03    -163.274E-03     110.119E-03
            1881     5.35145E-03     39.8431E-03    -93.2891E+06    -194.329E+06    -31.8547E+06     458.221E+03    -165.822E-03     329.280E-03    -163.458E-03     106.541E-03    -167.246E-03     329.775E-03    -163.200E-03     99.2941E-03
            1882     4.58742E-03     39.7201E-03    -101.984E+06    -224.230E+06    -49.0060E+06     210.399E+03    -165.260E-03     328.615E-03    -163.355E-03     93.4960E-03    -166.302E-03     328.641E-03    -163.127E-03     87.4202E-03
            1883     3.82277E-03     39.6132E-03    -110.973E+06    -248.375E+06    -67.7837E+06     390.006E+03    -164.526E-03     327.781E-03    -163.255E-03     79.5730E-03    -165.256E-03     327.432E-03    -163.073E-03     74.6382E-03
            1884     3.05857E-03     39.5246E-03    -119.277E+06    -269.047E+06    -86.5057E+06     303.931E+03    -163.877E-03     327.068E-03    -163.191E-03     64.7482E-03    -164.357E-03     326.420E-03    -163.060E-03     60.8885E-03
            1885     2.29352E-03     39.4531E-03    -126.628E+06    -289.755E+06    -104.996E+06     176.744E+03    -163.565E-03     326.710E-03    -163.145E-03     49.3058E-03    -163.851E-03     325.822E-03    -163.066E-03     46.4567E-03
            1886     1.52889E-03     39.4021E-03    -133.149E+06    -306.009E+06    -122.576E+06     108.748E+03    -163.277E-03     326.374E-03    -163.097E-03     33.7125E-03    -163.425E-03     325.319E-03    -163.073E-03     31.8171E-03
            1887     764.389E-06     39.3687E-03    -137.407E+06    -315.302E+06    -134.637E+06    -165.705E+03    -163.105E-03     326.202E-03    -163.096E-03     18.5898E-03    -163.174E-03     325.054E-03    -163.113E-03     17.5536E-03
            1888     14.5139E-03     40.4078E-03     -5.0787E+06     87.5511E+06     96.3210E+06     455.846E+03    -164.506E-03     328.902E-03    -164.396E-03     66.0433E-03    -166.501E-03     330.910E-03    -164.034E-03     56.5323E-03
            1889     13.7506E-03     40.2980E-03    -10.9993E+06     83.8012E+06     96.8842E+06     57.2896E+03    -164.885E-03     329.238E-03    -164.354E-03     99.4217E-03    -167.854E-03     332.185E-03    -163.975E-03     87.5890E-03
            1890     12.9862E-03     40.1783E-03    -17.4513E+06     76.6697E+06     91.6183E+06    -307.171E+03    -165.487E-03     329.766E-03    -164.279E-03     112.768E-03    -168.812E-03     333.036E-03    -163.907E-03     100.564E-03
            1891     12.2244E-03     40.0329E-03    -23.5131E+06     69.8778E+06     80.8458E+06     40.5578E+03    -166.094E-03     330.262E-03    -164.169E-03     128.919E-03    -169.917E-03     334.016E-03    -163.832E-03     116.066E-03
            1892     11.4604E-03     39.8732E-03    -29.9939E+06     61.9923E+06     69.7195E+06     264.337E+03    -166.661E-03     330.715E-03    -164.054E-03     139.817E-03    -170.760E-03     334.726E-03    -163.752E-03     126.688E-03
            1893     10.6979E-03     39.6995E-03    -36.9805E+06     51.2016E+06     63.4691E+06     494.095E+03    -167.161E-03     331.124E-03    -163.963E-03     147.469E-03    -171.391E-03     335.220E-03    -163.666E-03     134.261E-03
            1894     9.93450E-03     39.5190E-03    -44.4594E+06     22.2019E+06     54.8895E+06     732.685E+03    -167.406E-03     331.291E-03    -163.885E-03     150.909E-03    -171.539E-03     335.185E-03    -163.578E-03     137.919E-03
            1895     9.17089E-03     39.3358E-03    -52.3005E+06    -20.8938E+06     41.7998E+06     838.567E+03    -167.593E-03     331.396E-03    -163.803E-03     150.071E-03    -171.420E-03     334.842E-03    -163.488E-03     137.574E-03
            1896     8.40771E-03     39.1558E-03    -60.0331E+06    -62.6538E+06     27.1356E+06     706.480E+03    -167.595E-03     331.296E-03    -163.701E-03     145.601E-03    -170.975E-03     334.162E-03    -163.388E-03     133.873E-03
            1897     7.64425E-03     38.9821E-03    -68.0198E+06    -98.9000E+06     12.8223E+06     510.504E+03    -167.271E-03     330.862E-03    -163.591E-03     138.360E-03    -170.139E-03     333.101E-03    -163.285E-03     127.626E-03
            1898     6.88020E-03     38.8189E-03    -76.2879E+06    -135.218E+06    -1.93377E+06     522.624E+03    -166.808E-03     330.291E-03    -163.484E-03     128.957E-03    -169.151E-03     331.889E-03    -163.187E-03     119.348E-03
            1899     6.11686E-03     38.6673E-03    -84.4958E+06    -166.282E+06    -16.5709E+06     668.439E+03    -166.286E-03     329.660E-03    -163.374E-03     118.103E-03    -168.138E-03     330.669E-03    -163.093E-03     109.685E-03
            1900     5.35232E-03     38.5297E-03    -92.9039E+06    -193.617E+06    -31.7207E+06     435.376E+03    -165.668E-03     328.931E-03    -163.263E-03     106.123E-03    -167.083E-03     329.422E-03    -163.007E-03     98.9051E-03
            1901     4.58788E-03     38.4066E-03    -101.691E+06    -224.367E+06    -49.1936E+06     391.683E+03    -164.998E-03     328.158E-03    -163.160E-03     92.9576E-03    -166.030E-03     328.176E-03    -162.933E-03     86.9146E-03
            1902     3.82368E-03     38.3009E-03    -110.234E+06    -248.314E+06    -67.5034E+06     502.099E+03    -164.403E-03     327.458E-03    -163.055E-03     78.9398E-03    -165.124E-03     327.102E-03    -162.873E-03     74.0251E-03
            1903     3.05878E-03     38.2118E-03    -118.669E+06    -268.436E+06    -86.0303E+06     323.762E+03    -163.914E-03     326.857E-03    -162.943E-03     64.2620E-03    -164.390E-03     326.208E-03    -162.812E-03     60.4149E-03
            1904     2.29458E-03     38.1415E-03    -126.672E+06    -289.672E+06    -105.080E+06     246.868E+03    -163.464E-03     326.283E-03    -162.819E-03     48.9802E-03    -163.747E-03     325.393E-03    -162.741E-03     46.1444E-03
            1905     1.53005E-03     38.0893E-03    -132.824E+06    -305.440E+06    -121.783E+06     313.689E+03    -163.043E-03     325.732E-03    -162.689E-03     33.1296E-03    -163.190E-03     324.676E-03    -162.663E-03     31.2472E-03
            1906     764.790E-06     38.0585E-03    -137.339E+06    -315.048E+06    -134.343E+06     330.829E+03    -162.802E-03     325.281E-03    -162.479E-03     18.1550E-03    -162.870E-03     324.133E-03    -162.495E-03     17.1480E-03
            1907     14.5118E-03     39.0882E-03    -5.17914E+06     86.9478E+06     95.9925E+06     437.831E+03    -164.834E-03     329.220E-03    -164.385E-03     65.5728E-03    -166.820E-03     331.218E-03    -164.024E-03     56.0404E-03
            1908     13.7495E-03     38.9796E-03    -10.6272E+06     85.1136E+06     97.7240E+06     391.141E+03    -165.211E-03     329.537E-03    -164.325E-03     98.5895E-03    -168.168E-03     332.474E-03    -163.945E-03     86.7493E-03
            1909     12.9884E-03     38.8595E-03    -16.7158E+06     77.1980E+06     92.3619E+06    -88.7149E+03    -165.541E-03     329.778E-03    -164.237E-03     112.453E-03    -168.852E-03     333.036E-03    -163.863E-03     100.263E-03
            1910     12.2241E-03     38.7160E-03    -23.4805E+06     68.9786E+06     80.4190E+06    -40.9158E+03    -166.223E-03     330.338E-03    -164.115E-03     128.631E-03    -170.033E-03     334.076E-03    -163.779E-03     115.781E-03
            1911     11.4618E-03     38.5549E-03    -30.1879E+06     61.9795E+06     69.4256E+06     408.590E+03    -166.834E-03     330.818E-03    -163.985E-03     139.296E-03    -170.918E-03     334.814E-03    -163.684E-03     126.175E-03
            1912     10.6985E-03     38.3826E-03    -37.1633E+06     50.8845E+06     63.1016E+06     511.490E+03    -167.234E-03     331.112E-03    -163.878E-03     147.008E-03    -171.448E-03     335.192E-03    -163.583E-03     133.818E-03
            1913     9.93540E-03     38.2023E-03    -44.6697E+06     22.0464E+06     54.5703E+06     773.242E+03    -167.604E-03     331.384E-03    -163.781E-03     150.385E-03    -171.721E-03     335.264E-03    -163.475E-03     137.400E-03
            1914     9.17240E-03     38.0198E-03    -52.4498E+06    -20.4019E+06     41.8430E+06     774.695E+03    -167.711E-03     331.386E-03    -163.675E-03     149.485E-03    -171.521E-03     334.815E-03    -163.360E-03     137.009E-03
            1915     8.40896E-03     37.8398E-03    -60.3075E+06    -61.9895E+06     27.2967E+06     603.841E+03    -167.531E-03     331.088E-03    -163.557E-03     145.103E-03    -170.898E-03     333.941E-03    -163.243E-03     133.409E-03
            1916     7.64529E-03     37.6674E-03    -68.2524E+06    -98.6212E+06     12.6923E+06     514.830E+03    -167.212E-03     330.646E-03    -163.434E-03     137.879E-03    -170.069E-03     332.873E-03    -163.129E-03     127.176E-03
            1917     6.88180E-03     37.5043E-03    -76.1833E+06    -135.370E+06    -2.23030E+06     340.882E+03    -166.797E-03     330.106E-03    -163.309E-03     128.458E-03    -169.126E-03     331.691E-03    -163.013E-03     118.875E-03
            1918     6.11732E-03     37.3536E-03    -84.2877E+06    -166.366E+06    -16.5546E+06     247.180E+03    -166.265E-03     329.443E-03    -163.177E-03     117.524E-03    -168.105E-03     330.440E-03    -162.896E-03     109.125E-03
            1919     5.35360E-03     37.2162E-03    -92.8623E+06    -193.169E+06    -31.4592E+06     437.930E+03    -165.574E-03     328.616E-03    -163.042E-03     105.347E-03    -166.980E-03     329.097E-03    -162.785E-03     98.1556E-03
            1920     4.58936E-03     37.0943E-03    -101.659E+06    -224.264E+06    -49.1630E+06     456.275E+03    -164.898E-03     327.808E-03    -162.910E-03     92.1542E-03    -165.922E-03     327.818E-03    -162.683E-03     86.1371E-03
            1921     3.82446E-03     36.9884E-03    -110.252E+06    -248.331E+06    -67.4902E+06     308.888E+03    -164.308E-03     327.074E-03    -162.766E-03     78.1536E-03    -165.022E-03     326.711E-03    -162.584E-03     73.2585E-03
            1922     3.06030E-03     36.8998E-03    -118.539E+06    -267.872E+06    -85.7230E+06     501.408E+03    -163.701E-03     326.315E-03    -162.614E-03     63.6130E-03    -164.172E-03     325.663E-03    -162.482E-03     59.7924E-03
            1923     2.29531E-03     36.8298E-03    -126.161E+06    -289.220E+06    -104.845E+06     396.199E+03    -163.166E-03     325.627E-03    -162.461E-03     48.7233E-03    -163.446E-03     324.737E-03    -162.383E-03     45.9057E-03
            1924     1.53021E-03     36.7786E-03    -132.254E+06    -305.159E+06    -121.731E+06     193.431E+03    -162.783E-03     325.066E-03    -162.284E-03     33.1334E-03    -162.927E-03     324.011E-03    -162.258E-03     31.2663E-03
            1925     765.871E-06     36.7473E-03    -135.884E+06    -313.945E+06    -133.202E+06     456.130E+03    -162.641E-03     324.408E-03    -161.767E-03     18.1167E-03    -162.704E-03     323.261E-03    -161.781E-03     17.1292E-03
            1926     14.5148E-03     37.7707E-03    -4.85594E+06     86.4239E+06     95.8522E+06    -1.68692E+03    -165.137E-03     329.497E-03    -164.360E-03     65.3370E-03    -167.116E-03     331.487E-03    -163.999E-03     55.7990E-03
            1927     13.7521E-03     37.6595E-03    -9.82615E+06     85.1966E+06     97.7939E+06     441.220E+03    -165.133E-03     329.426E-03    -164.293E-03     98.7614E-03    -168.081E-03     332.358E-03    -163.913E-03     86.9406E-03
            1928     12.9873E-03     37.5434E-03    -16.2919E+06     77.7118E+06     92.5662E+06     731.368E+03    -165.798E-03     329.997E-03    -164.199E-03     112.537E-03    -169.104E-03     333.252E-03    -163.825E-03     100.352E-03
            1929     12.2255E-03     37.3963E-03    -23.4501E+06     68.8979E+06     80.6518E+06     695.295E+03    -166.548E-03     330.606E-03    -164.058E-03     128.393E-03    -170.346E-03     334.332E-03    -163.720E-03     115.547E-03
            1930     11.4626E-03     37.2381E-03    -30.2431E+06     61.8190E+06     69.5726E+06     658.942E+03    -166.977E-03     330.884E-03    -163.907E-03     138.750E-03    -171.043E-03     334.860E-03    -163.605E-03     125.645E-03
            1931     10.6995E-03     37.0652E-03    -37.4678E+06     50.8681E+06     62.9362E+06     826.563E+03    -167.396E-03     331.176E-03    -163.780E-03     146.460E-03    -171.592E-03     335.238E-03    -163.485E-03     133.286E-03
            1932     9.93665E-03     36.8854E-03    -45.0079E+06     22.2428E+06     54.4672E+06     636.407E+03    -167.715E-03     331.378E-03    -163.662E-03     149.714E-03    -171.813E-03     335.237E-03    -163.357E-03     136.749E-03
            1933     9.17356E-03     36.7033E-03    -52.3787E+06    -19.9141E+06     42.1094E+06     353.822E+03    -167.726E-03     331.264E-03    -163.538E-03     148.879E-03    -171.517E-03     334.677E-03    -163.223E-03     136.425E-03
            1934     8.41013E-03     36.5249E-03    -59.9144E+06    -61.6645E+06     27.6385E+06     363.266E+03    -167.549E-03     330.952E-03    -163.403E-03     144.448E-03    -170.896E-03     333.787E-03    -163.088E-03     132.780E-03
            1935     7.64658E-03     36.3522E-03    -67.7189E+06    -98.2152E+06     13.0353E+06     430.600E+03    -167.223E-03     330.481E-03    -163.258E-03     137.032E-03    -170.058E-03     332.689E-03    -162.952E-03     126.360E-03
            1936     6.88267E-03     36.1904E-03    -75.8327E+06    -135.217E+06    -2.25245E+06     234.380E+03    -166.782E-03     329.889E-03    -163.106E-03     127.612E-03    -169.094E-03     331.458E-03    -162.812E-03     118.058E-03
            1937     6.11934E-03     36.0398E-03    -84.2957E+06    -166.620E+06    -16.8175E+06     187.966E+03    -166.203E-03     329.151E-03    -162.948E-03     116.713E-03    -168.029E-03     330.135E-03    -162.668E-03     108.344E-03
            1938     5.35500E-03     35.9035E-03    -92.8711E+06    -193.153E+06    -31.4623E+06     364.148E+03    -165.516E-03     328.298E-03    -162.783E-03     104.610E-03    -166.911E-03     328.770E-03    -162.525E-03     97.4464E-03
            1939     4.59043E-03     35.7821E-03    -101.401E+06    -223.945E+06    -48.9046E+06     436.700E+03    -164.830E-03     327.443E-03    -162.613E-03     91.6314E-03    -165.847E-03     327.446E-03    -162.385E-03     85.6374E-03
            1940     3.82648E-03     35.6765E-03    -110.073E+06    -248.066E+06    -67.4525E+06     534.360E+03    -164.068E-03     326.505E-03    -162.437E-03     77.8460E-03    -164.777E-03     326.138E-03    -162.255E-03     72.9823E-03
            1941     3.06116E-03     35.5892E-03    -118.559E+06    -267.617E+06    -85.8013E+06     452.177E+03    -163.382E-03     325.653E-03    -162.271E-03     63.4730E-03    -163.851E-03     325.000E-03    -162.140E-03     59.6763E-03
            1942     2.29611E-03     35.5191E-03    -125.966E+06    -288.459E+06    -104.464E+06     266.760E+03    -162.794E-03     324.913E-03    -162.119E-03     48.3741E-03    -163.072E-03     324.024E-03    -162.041E-03     45.5750E-03
            1943     1.53106E-03     35.4685E-03    -132.213E+06    -304.946E+06    -122.158E+06     137.843E+03    -162.240E-03     324.249E-03    -162.010E-03     32.9338E-03    -162.382E-03     323.194E-03    -161.987E-03     31.0827E-03
            1944     765.016E-06     35.4374E-03    -135.715E+06    -313.576E+06    -133.470E+06    -541.362E+03    -162.084E-03     323.998E-03    -161.914E-03     18.0739E-03    -162.147E-03     322.853E-03    -161.930E-03     17.0718E-03
            1945     14.5130E-03     36.4502E-03    -5.06236E+06     86.3853E+06     95.7610E+06    -223.470E+03    -165.146E-03     329.513E-03    -164.367E-03     66.0912E-03    -167.134E-03     331.512E-03    -164.006E-03     56.5281E-03
            1946     13.7495E-03     36.3432E-03    -11.2732E+06     83.7786E+06     96.6708E+06     359.858E+03    -165.703E-03     329.986E-03    -164.283E-03     98.9637E-03    -168.656E-03     332.917E-03    -163.905E-03     87.0967E-03
            1947     12.9888E-03     36.2223E-03    -17.5946E+06     77.6067E+06     91.8412E+06     877.769E+03    -166.284E-03     330.441E-03    -164.156E-03     111.942E-03    -169.585E-03     333.688E-03    -163.784E-03     99.7295E-03
            1948     12.2261E-03     36.0794E-03    -23.5224E+06     69.7619E+06     80.8207E+06     634.918E+03    -166.735E-03     330.726E-03    -163.991E-03     127.770E-03    -170.518E-03     334.438E-03    -163.654E-03     114.931E-03
            1949     11.4633E-03     35.9193E-03    -29.8807E+06     60.9925E+06     69.4917E+06     767.042E+03    -167.221E-03     331.041E-03    -163.820E-03     138.182E-03    -171.265E-03     334.993E-03    -163.518E-03     125.084E-03
            1950     10.7010E-03     35.7485E-03    -36.3948E+06     51.2087E+06     63.5688E+06     1.13364E+06    -167.643E-03     331.311E-03    -163.668E-03     145.854E-03    -171.815E-03     335.352E-03    -163.372E-03     132.691E-03
            1951     9.93804E-03     35.5681E-03    -43.4333E+06     23.4438E+06     55.5005E+06     712.872E+03    -167.732E-03     331.261E-03    -163.529E-03     149.002E-03    -171.801E-03     335.097E-03    -163.222E-03     136.072E-03
            1952     9.17479E-03     35.3880E-03    -51.1973E+06    -19.7976E+06     42.5399E+06     408.151E+03    -167.771E-03     331.158E-03    -163.386E-03     148.073E-03    -171.534E-03     334.546E-03    -163.071E-03     135.649E-03
            1953     8.41167E-03     35.2088E-03    -59.2830E+06    -61.6962E+06     27.7076E+06     512.994E+03    -167.683E-03     330.906E-03    -163.223E-03     143.563E-03    -171.006E-03     333.719E-03    -162.909E-03     131.920E-03
            1954     7.64838E-03     35.0383E-03    -67.3866E+06    -98.0801E+06     13.2434E+06     410.821E+03    -167.281E-03     330.327E-03    -163.046E-03     136.131E-03    -170.095E-03     332.515E-03    -162.740E-03     125.489E-03
            1955     6.88485E-03     34.8760E-03    -75.6616E+06    -134.565E+06    -1.83628E+06     492.748E+03    -166.727E-03     329.592E-03    -162.866E-03     126.800E-03    -169.023E-03     331.147E-03    -162.570E-03     117.285E-03
            1956     6.12050E-03     34.7269E-03    -84.0742E+06    -166.292E+06    -16.9368E+06     453.768E+03    -166.042E-03     328.724E-03    -162.682E-03     115.890E-03    -167.852E-03     329.694E-03    -162.404E-03     107.570E-03
            1957     5.35636E-03     34.5909E-03    -92.6158E+06    -193.190E+06    -31.7531E+06     320.579E+03    -165.291E-03     327.793E-03    -162.501E-03     104.007E-03    -166.674E-03     328.253E-03    -162.246E-03     96.8855E-03
            1958     4.59236E-03     34.4702E-03    -101.466E+06    -223.920E+06    -48.9676E+06     464.131E+03    -164.524E-03     326.852E-03    -162.327E-03     91.2735E-03    -165.535E-03     326.849E-03    -162.100E-03     85.3153E-03
            1959     3.82685E-03     34.3660E-03    -110.119E+06    -247.805E+06    -67.2339E+06     500.714E+03    -163.787E-03     325.938E-03    -162.152E-03     77.6072E-03    -164.493E-03     325.569E-03    -161.969E-03     72.7683E-03
            1960     3.06207E-03     34.2787E-03    -118.075E+06    -266.890E+06    -85.2043E+06     318.267E+03    -163.132E-03     325.110E-03    -161.978E-03     63.2079E-03    -163.598E-03     324.457E-03    -161.846E-03     59.4246E-03
            1961     2.29704E-03     34.2093E-03    -125.663E+06    -288.137E+06    -104.321E+06     183.382E+03    -162.459E-03     324.283E-03    -161.824E-03     48.0763E-03    -162.735E-03     323.393E-03    -161.746E-03     45.2905E-03
            1962     1.53112E-03     34.1600E-03    -132.114E+06    -304.355E+06    -121.509E+06     111.327E+03    -161.865E-03     323.614E-03    -161.748E-03     32.6693E-03    -162.008E-03     322.560E-03    -161.723E-03     30.8218E-03
            1963     765.610E-06     34.1284E-03    -136.614E+06    -313.978E+06    -133.891E+06     147.626E+03    -161.498E-03     323.518E-03    -162.020E-03     18.0638E-03    -161.563E-03     322.373E-03    -162.036E-03     17.0815E-03
            1964     14.5125E-03     35.1323E-03    -5.08259E+06     85.8662E+06     95.1516E+06     258.334E+03    -165.496E-03     329.856E-03    -164.361E-03     64.9277E-03    -167.465E-03     331.837E-03    -164.002E-03     55.3653E-03
            1965     13.7522E-03     35.0209E-03    -10.7735E+06     83.0784E+06     96.3648E+06     389.531E+03    -166.164E-03     330.417E-03    -164.253E-03     97.8933E-03    -169.094E-03     333.325E-03    -163.876E-03     86.0083E-03
            1966     12.9893E-03     34.9049E-03    -16.4224E+06     77.8915E+06     92.2362E+06     388.286E+03    -166.535E-03     330.638E-03    -164.103E-03     111.419E-03    -169.817E-03     333.871E-03    -163.731E-03     99.1933E-03
            1967     12.2269E-03     34.7597E-03    -22.7913E+06     70.3074E+06     81.0970E+06     549.232E+03    -167.008E-03     330.924E-03    -163.917E-03     127.347E-03    -170.773E-03     334.624E-03    -163.580E-03     114.501E-03
            1968     11.4649E-03     34.6023E-03    -29.1603E+06     60.5478E+06     69.5740E+06     445.859E+03    -167.508E-03     331.229E-03    -163.721E-03     137.659E-03    -171.528E-03     335.159E-03    -163.419E-03     124.560E-03
            1969     10.7020E-03     34.4299E-03    -35.5755E+06     50.8961E+06     63.8296E+06     540.209E+03    -167.738E-03     331.285E-03    -163.547E-03     145.175E-03    -171.883E-03     335.299E-03    -163.251E-03     132.031E-03
            1970     9.93947E-03     34.2524E-03    -42.8957E+06     24.0157E+06      55.802E+06     1.01453E+06    -167.884E-03     331.269E-03    -163.386E-03     148.357E-03    -171.930E-03     335.087E-03    -163.079E-03     135.450E-03
            1971     9.17654E-03     34.0714E-03    -51.0006E+06    -19.3742E+06     42.5879E+06     1.14004E+06    -167.948E-03     331.162E-03    -163.214E-03     147.387E-03    -171.689E-03     334.529E-03    -162.899E-03     134.997E-03
            1972     8.41346E-03     33.8941E-03    -59.1795E+06    -61.1955E+06     27.8532E+06     904.462E+03    -167.712E-03     330.734E-03    -163.023E-03     142.822E-03    -171.013E-03     333.528E-03    -162.709E-03     131.220E-03
            1973     7.65004E-03     33.7233E-03    -67.3616E+06    -97.5628E+06     13.2991E+06     715.740E+03    -167.312E-03     330.130E-03    -162.818E-03     135.513E-03    -170.111E-03     332.305E-03    -162.512E-03     124.905E-03
            1974     6.88636E-03     33.5629E-03    -75.3678E+06    -134.412E+06    -1.66784E+06     569.789E+03    -166.691E-03     329.300E-03    -162.609E-03     126.061E-03    -168.969E-03     330.838E-03    -162.313E-03     116.587E-03
            1975     6.12268E-03     33.4142E-03    -83.4977E+06    -165.648E+06    -16.2963E+06     590.258E+03    -165.837E-03     328.242E-03    -162.405E-03     115.186E-03    -167.630E-03     329.198E-03    -162.125E-03     106.915E-03
            1976     5.35828E-03     33.2794E-03    -92.1876E+06    -192.866E+06    -31.4730E+06     588.738E+03    -164.996E-03     327.211E-03    -162.215E-03     103.390E-03    -166.366E-03     327.660E-03    -161.959E-03     96.3153E-03
            1977     4.59275E-03     33.1595E-03    -100.962E+06    -224.066E+06    -48.9806E+06     496.745E+03    -164.205E-03     326.243E-03    -162.038E-03     90.4370E-03    -165.203E-03     326.229E-03    -161.812E-03     84.5201E-03
            1978     3.82836E-03     33.0556E-03    -109.436E+06    -247.258E+06    -66.9865E+06     243.571E+03    -163.467E-03     325.329E-03    -161.862E-03     76.9077E-03    -164.165E-03     324.955E-03    -161.680E-03     72.0943E-03
            1979     3.06305E-03     32.9689E-03    -117.822E+06    -266.719E+06    -85.2039E+06     180.885E+03    -162.767E-03     324.464E-03    -161.697E-03     62.6677E-03    -163.228E-03     323.808E-03    -161.566E-03     58.9052E-03
            1980     2.29717E-03     32.9008E-03    -125.699E+06    -288.000E+06    -104.193E+06     434.092E+03    -162.119E-03     323.682E-03    -161.563E-03     47.5793E-03    -162.394E-03     322.790E-03    -161.484E-03     44.8147E-03
            1981     1.53180E-03     32.8511E-03    -132.224E+06    -303.855E+06    -121.255E+06     536.889E+03    -161.735E-03     323.190E-03    -161.456E-03     32.4358E-03    -161.878E-03     322.137E-03    -161.430E-03     30.6051E-03
            1982     765.815E-06     32.8206E-03    -136.283E+06    -313.246E+06    -133.151E+06     542.204E+03    -161.275E-03     322.849E-03    -161.574E-03     18.1516E-03    -161.340E-03     321.705E-03    -161.588E-03     17.1785E-03
            1983     14.5152E-03     33.8115E-03    -4.94793E+06      85.417E+06     94.9838E+06     320.369E+03    -166.041E-03     330.364E-03    -164.323E-03     64.9633E-03    -168.006E-03     332.339E-03    -163.965E-03     55.4006E-03
            1984     13.7512E-03     33.7024E-03    -10.1853E+06     83.8648E+06     96.6873E+06     199.127E+03    -166.028E-03     330.231E-03    -164.204E-03     98.0571E-03    -168.949E-03     333.134E-03    -163.827E-03     86.2004E-03
            1985     12.9898E-03     33.5843E-03    -16.2457E+06     77.0921E+06     91.8577E+06    -32.1650E+03    -166.677E-03     330.727E-03    -164.051E-03     111.098E-03    -169.942E-03     333.942E-03    -163.679E-03     98.8770E-03
            1986     12.2280E-03     33.4419E-03    -22.4930E+06     69.7435E+06     80.9332E+06     593.056E+03    -167.386E-03     331.231E-03    -163.844E-03     127.050E-03    -171.138E-03     334.915E-03    -163.508E-03     114.191E-03
            1987     11.4657E-03     33.2828E-03    -29.0406E+06     61.6880E+06     69.9177E+06     485.868E+03    -167.732E-03     331.355E-03    -163.623E-03     137.187E-03    -171.737E-03     335.274E-03    -163.321E-03     124.092E-03
            1988     10.7038E-03     33.1135E-03    -36.3083E+06     49.9616E+06     63.0574E+06     440.871E+03    -167.931E-03     331.355E-03    -163.424E-03     144.551E-03    -172.056E-03     335.346E-03    -163.129E-03     131.419E-03
            1989     9.94070E-03     32.9351E-03    -44.0627E+06     23.4762E+06      54.984E+06     1.10892E+06    -168.119E-03     331.352E-03    -163.233E-03     147.687E-03    -172.146E-03     335.147E-03    -162.929E-03     134.798E-03
            1990     9.17823E-03     32.7555E-03    -51.7568E+06    -18.6548E+06     42.4008E+06     1.24474E+06    -168.064E-03     331.095E-03    -163.031E-03     146.550E-03    -171.785E-03     334.443E-03    -162.717E-03     134.189E-03
            1991     8.41514E-03     32.5791E-03    -59.4477E+06    -60.4359E+06     27.8336E+06     918.256E+03    -167.749E-03     330.561E-03    -162.812E-03     142.017E-03    -171.031E-03     333.336E-03    -162.499E-03     130.453E-03
            1992     7.65180E-03     32.4092E-03    -67.2874E+06    -96.9460E+06     13.5120E+06     649.211E+03    -167.228E-03     329.812E-03    -162.584E-03     134.655E-03    -170.006E-03     331.967E-03    -162.278E-03     124.095E-03
            1993     6.88839E-03     32.2494E-03    -75.4525E+06    -134.034E+06    -1.56663E+06     622.626E+03    -166.505E-03     328.864E-03    -162.358E-03     125.302E-03    -168.767E-03     330.386E-03    -162.062E-03     115.876E-03
            1994     6.12408E-03     32.1025E-03    -84.0019E+06    -165.339E+06    -16.3465E+06     712.868E+03    -165.728E-03     327.865E-03    -162.136E-03     114.570E-03    -167.513E-03     328.812E-03    -161.856E-03     106.334E-03
            1995     5.35927E-03     31.9684E-03    -92.8826E+06    -192.731E+06    -31.4780E+06     729.654E+03    -164.877E-03     326.796E-03    -161.918E-03     102.558E-03    -166.240E-03     327.236E-03    -161.662E-03     95.5172E-03
            1996     4.59532E-03     31.8492E-03    -101.597E+06    -223.095E+06    -48.9772E+06     389.534E+03    -163.976E-03     325.688E-03    -161.713E-03     89.6323E-03    -164.968E-03     325.670E-03    -161.487E-03     83.7495E-03
            1997     3.82943E-03     31.7467E-03    -110.214E+06    -246.874E+06    -67.5418E+06    -28.4297E+03    -163.103E-03     324.626E-03    -161.523E-03     76.2023E-03    -163.797E-03     324.248E-03    -161.343E-03     71.4221E-03
            1998     3.06369E-03     31.6601E-03    -118.728E+06    -267.333E+06    -86.0431E+06     203.595E+03    -162.336E-03     323.702E-03    -161.367E-03     61.9037E-03    -162.794E-03     323.040E-03    -161.237E-03     58.1747E-03
            1999     2.29831E-03     31.5927E-03    -126.309E+06    -287.836E+06    -104.450E+06     453.231E+03    -161.806E-03     323.044E-03    -161.238E-03     46.9726E-03    -162.080E-03     322.151E-03    -161.160E-03     44.2290E-03
            2000     1.53189E-03     31.5435E-03    -132.049E+06    -303.270E+06    -121.469E+06     267.130E+03    -161.515E-03     322.600E-03    -161.085E-03     32.0652E-03    -161.657E-03     321.549E-03    -161.061E-03     30.2426E-03
            2001     766.378E-06     31.5123E-03    -135.950E+06    -312.424E+06    -133.336E+06    -81.5570E+03    -161.048E-03     322.026E-03    -160.978E-03     17.3715E-03    -161.112E-03     320.885E-03    -160.994E-03     16.3926E-03
            2002     14.5135E-03     32.4923E-03    -4.97454E+06     85.1718E+06     94.8231E+06     43.2371E+03    -166.372E-03     330.689E-03    -164.317E-03     65.2339E-03    -168.338E-03     332.665E-03    -163.959E-03     55.6326E-03
            2003     13.7533E-03     32.3823E-03    -10.6762E+06     84.5156E+06     96.6532E+06    -5.99907E+03    -166.546E-03     330.719E-03    -164.173E-03     97.9957E-03    -169.465E-03     333.620E-03    -163.797E-03     86.1100E-03
            2004     12.9906E-03     32.2656E-03    -16.6911E+06     76.5785E+06     91.5548E+06    -102.365E+03    -167.029E-03     331.022E-03    -163.993E-03     110.795E-03    -170.280E-03     334.220E-03    -163.622E-03     98.5748E-03
            2005     12.2286E-03     32.1216E-03    -23.0581E+06     68.6848E+06     80.2945E+06     144.923E+03    -167.563E-03     331.327E-03    -163.764E-03     126.160E-03    -171.290E-03     334.983E-03    -163.429E-03     113.309E-03
            2006     11.4671E-03     31.9649E-03    -29.6153E+06     61.8353E+06     69.4097E+06     818.724E+03    -167.857E-03     331.381E-03    -163.524E-03     136.453E-03    -171.843E-03     335.280E-03    -163.224E-03     123.379E-03
            2007     10.7044E-03     31.7954E-03    -36.8244E+06     49.6442E+06     62.4280E+06     1.24373E+06    -168.251E-03     331.550E-03    -163.299E-03     143.848E-03    -172.357E-03     335.520E-03    -163.005E-03     130.727E-03
            2008     9.94280E-03     31.6182E-03    -44.2371E+06     23.6657E+06     54.8178E+06     1.07046E+06    -168.300E-03     331.377E-03    -163.077E-03     146.935E-03    -172.306E-03     335.151E-03    -162.773E-03     134.063E-03
            2009     9.17990E-03     31.4397E-03    -51.7919E+06    -18.0676E+06     42.3619E+06     811.188E+03    -168.145E-03     330.992E-03    -162.847E-03     145.862E-03    -171.845E-03     334.321E-03    -162.534E-03     133.527E-03
            2010     8.41705E-03     31.2640E-03    -59.4250E+06    -59.9755E+06     27.8031E+06     633.573E+03    -167.833E-03     330.432E-03    -162.599E-03     141.271E-03    -171.094E-03     333.189E-03    -162.287E-03     129.733E-03
            2011     7.65397E-03     31.0954E-03    -67.2945E+06    -96.6375E+06     13.6000E+06     554.226E+03    -167.136E-03     329.483E-03    -162.347E-03     133.795E-03    -169.893E-03     331.619E-03    -162.041E-03     123.277E-03
            2012     6.88969E-03     30.9373E-03    -75.5945E+06    -133.659E+06    -1.39716E+06     775.106E+03    -166.367E-03     328.469E-03    -162.102E-03     124.320E-03    -168.611E-03     329.974E-03    -161.805E-03     114.941E-03
            2013     6.12559E-03     30.7905E-03    -83.9562E+06    -165.257E+06    -16.4742E+06     924.194E+03    -165.615E-03     327.469E-03    -161.854E-03     113.479E-03    -167.382E-03     328.399E-03    -161.575E-03     105.286E-03
            2014     5.36180E-03     30.6577E-03    -92.1966E+06    -192.098E+06    -31.4578E+06     765.872E+03    -164.699E-03     326.307E-03    -161.608E-03     101.651E-03    -166.046E-03     326.736E-03    -161.353E-03     94.6493E-03
            2015     4.59583E-03     30.5401E-03    -100.854E+06    -222.066E+06    -48.5653E+06     529.842E+03    -163.802E-03     325.177E-03    -161.375E-03     88.9414E-03    -164.784E-03     325.154E-03    -161.149E-03     83.0923E-03
            2016     3.83106E-03     30.4378E-03    -109.748E+06    -246.468E+06    -66.9660E+06     497.795E+03    -162.918E-03     324.067E-03    -161.148E-03     75.3042E-03    -163.604E-03     323.682E-03    -160.967E-03     70.5594E-03
            2017     3.06545E-03     30.3530E-03    -118.299E+06    -267.186E+06    -85.7247E+06     223.448E+03    -162.020E-03     322.973E-03    -160.953E-03     61.0523E-03    -162.471E-03     322.305E-03    -160.823E-03     57.3522E-03
            2018     2.29872E-03     30.2853E-03    -125.671E+06    -287.723E+06    -104.377E+06    -61.9233E+03    -161.404E-03     322.203E-03    -160.799E-03     46.4136E-03    -161.671E-03     321.306E-03    -160.721E-03     43.6911E-03
            2019     1.53325E-03     30.2365E-03    -131.750E+06    -303.011E+06    -121.185E+06    -157.977E+03    -160.965E-03     321.637E-03    -160.672E-03     31.7843E-03    -161.105E-03     320.585E-03    -160.647E-03     29.9706E-03
            2020     766.568E-06     30.2060E-03    -136.251E+06    -312.277E+06    -133.489E+06     295.498E+03    -160.905E-03     321.260E-03    -160.355E-03     17.1221E-03    -160.970E-03     320.121E-03    -160.372E-03     16.1545E-03
            2021     14.5139E-03     31.1679E-03    -4.77327E+06     85.3283E+06     94.8462E+06    -135.344E+03    -166.676E-03     330.992E-03    -164.316E-03     64.7973E-03    -168.633E-03     332.960E-03    -163.959E-03     55.1711E-03
            2022     13.7521E-03     31.0635E-03    -10.4066E+06     84.8025E+06     96.8164E+06    -115.137E+03    -167.184E-03     331.329E-03    -164.145E-03     97.0743E-03    -170.089E-03     334.217E-03    -163.769E-03     85.1451E-03
            2023     12.9914E-03     30.9440E-03    -16.6586E+06     76.6745E+06     91.5256E+06     85.4567E+03    -167.410E-03     331.341E-03    -163.931E-03     110.502E-03    -170.649E-03     334.528E-03    -163.561E-03     98.2736E-03
            2024     12.2305E-03     30.8031E-03    -23.1100E+06     67.7091E+06     79.8769E+06     338.565E+03    -167.734E-03     331.414E-03    -163.681E-03     125.668E-03    -171.440E-03     335.047E-03    -163.346E-03     112.833E-03
            2025     11.4677E-03     30.6464E-03    -29.8455E+06     60.5073E+06     68.8186E+06     1.14874E+06    -168.121E-03     331.540E-03    -163.419E-03     135.896E-03    -172.083E-03     335.411E-03    -163.119E-03     122.839E-03
            2026     10.7066E-03     30.4769E-03    -36.6136E+06     50.0693E+06     62.5773E+06     1.46032E+06    -168.384E-03     331.554E-03    -163.171E-03     143.191E-03    -172.465E-03     335.501E-03    -162.877E-03     130.099E-03
            2027     9.94384E-03     30.3016E-03    -43.6707E+06     24.7434E+06     55.1896E+06     1.01707E+06    -168.417E-03     331.343E-03    -162.926E-03     146.178E-03    -172.399E-03     335.098E-03    -162.622E-03     133.330E-03
            2028     9.18145E-03     30.1237E-03    -51.1899E+06    -17.4442E+06     42.6945E+06     619.380E+03    -168.296E-03     330.965E-03    -162.669E-03     145.169E-03    -171.974E-03     334.276E-03    -162.356E-03     132.852E-03
            2029     8.41878E-03     29.9490E-03    -59.1957E+06    -59.6402E+06     28.0389E+06     606.403E+03    -167.845E-03     330.238E-03    -162.394E-03     140.329E-03    -171.083E-03     332.973E-03    -162.081E-03     128.825E-03
            2030     7.65525E-03     29.7821E-03    -67.4010E+06    -96.2639E+06     13.5281E+06     743.740E+03    -167.169E-03     329.280E-03    -162.111E-03     132.761E-03    -169.906E-03     331.397E-03    -161.806E-03     122.279E-03
            2031     6.89204E-03     29.6249E-03    -75.4858E+06    -133.945E+06    -1.64989E+06     701.706E+03    -166.409E-03     328.237E-03    -161.828E-03     123.349E-03    -168.632E-03     329.722E-03    -161.533E-03     114.002E-03
            2032     6.12808E-03     29.4795E-03    -83.4250E+06    -165.051E+06    -16.2774E+06     681.103E+03    -165.443E-03     326.992E-03    -161.549E-03     112.547E-03    -167.191E-03     327.905E-03    -161.271E-03     104.397E-03
            2033     5.36243E-03     29.3481E-03    -91.9073E+06    -191.499E+06    -31.2159E+06     714.713E+03    -164.496E-03     325.776E-03    -161.280E-03     100.605E-03    -165.828E-03     326.193E-03    -161.025E-03     93.6475E-03
            2034     4.59834E-03     29.2310E-03    -100.865E+06    -221.682E+06    -48.4605E+06     740.914E+03    -163.616E-03     324.631E-03    -161.015E-03     87.8846E-03    -164.587E-03     324.598E-03    -160.789E-03     82.0748E-03
            2035     3.83252E-03     29.1300E-03    -109.392E+06    -245.697E+06    -66.6301E+06     501.870E+03    -162.654E-03     323.407E-03    -160.753E-03     74.4559E-03    -163.331E-03     323.017E-03    -160.572E-03     69.7455E-03
            2036     3.06647E-03     29.0462E-03    -117.370E+06    -266.634E+06    -85.2048E+06     263.022E+03    -161.744E-03     322.265E-03    -160.520E-03     60.5355E-03    -162.188E-03     321.592E-03    -160.390E-03     56.8631E-03
            2037     2.30081E-03     28.9795E-03    -125.290E+06    -287.389E+06    -104.193E+06     290.936E+03    -161.023E-03     321.352E-03    -160.329E-03     46.2065E-03    -161.288E-03     320.454E-03    -160.252E-03     43.5095E-03
            2038     1.53324E-03     28.9310E-03    -132.081E+06    -302.997E+06    -121.331E+06     438.566E+03    -160.468E-03     320.655E-03    -160.187E-03     31.1484E-03    -160.607E-03     319.602E-03    -160.163E-03     29.3709E-03
            2039     766.336E-06     28.9012E-03    -135.983E+06    -311.827E+06    -133.134E+06     167.858E+03    -160.490E-03     320.288E-03    -159.798E-03     16.9655E-03    -160.554E-03     319.149E-03    -159.815E-03     16.0104E-03
            2040     14.5144E-03     29.8493E-03    -4.98463E+06     85.5094E+06     94.8998E+06    -28.8246E+03    -167.078E-03     331.367E-03    -164.289E-03     64.2453E-03    -169.022E-03     333.322E-03    -163.931E-03     54.6371E-03
            2041     13.7539E-03     29.7396E-03    -10.4946E+06     84.6893E+06     96.6486E+06    -236.301E+03    -167.183E-03     331.287E-03    -164.104E-03     96.6196E-03    -170.073E-03     334.160E-03    -163.728E-03     84.7010E-03
            2042     12.9926E-03     29.6256E-03    -17.0195E+06     76.1679E+06     90.8306E+06     65.6984E+03    -167.608E-03     331.488E-03    -163.879E-03     110.029E-03    -170.833E-03     334.659E-03    -163.511E-03     97.7995E-03
            2043     12.2299E-03     29.4824E-03    -23.3495E+06     66.6566E+06     79.3858E+06     623.411E+03    -168.051E-03     331.661E-03    -163.610E-03     125.400E-03    -171.742E-03     335.276E-03    -163.276E-03     112.566E-03
            2044     11.4699E-03     29.3278E-03    -29.5811E+06     59.9115E+06     69.0092E+06     1.04994E+06    -168.452E-03     331.776E-03    -163.324E-03     135.451E-03    -172.397E-03     335.628E-03    -163.022E-03     122.387E-03
            2045     10.7071E-03     29.1591E-03    -36.0556E+06     50.5575E+06     63.0120E+06     1.03405E+06    -168.543E-03     331.592E-03    -163.048E-03     142.556E-03    -172.601E-03     335.518E-03    -162.754E-03     129.477E-03
            2046     9.94550E-03     28.9845E-03    -43.1455E+06     25.6062E+06     55.6514E+06     851.432E+03    -168.595E-03     331.372E-03    -162.777E-03     145.356E-03    -172.553E-03     335.106E-03    -162.474E-03     132.523E-03
            2047     9.18325E-03     28.8076E-03    -50.8862E+06    -17.0930E+06     42.9190E+06     845.206E+03    -168.400E-03     330.891E-03    -162.491E-03     144.088E-03    -172.052E-03     334.178E-03    -162.178E-03     131.798E-03
            2048     8.42042E-03     28.6346E-03    -58.8088E+06    -59.3087E+06     28.0426E+06     967.942E+03    -167.838E-03     330.026E-03    -162.188E-03     139.252E-03    -171.048E-03     332.735E-03    -161.876E-03     127.794E-03
            2049     7.65753E-03     28.4688E-03    -66.8758E+06    -95.8854E+06     13.4344E+06     973.966E+03    -167.214E-03     329.090E-03    -161.876E-03     131.885E-03    -169.928E-03     331.187E-03    -161.572E-03     121.440E-03
            2050     6.89366E-03     28.3126E-03    -75.1128E+06    -133.746E+06    -1.68902E+06     869.875E+03    -166.393E-03     327.954E-03    -161.561E-03     122.391E-03    -168.596E-03     329.421E-03    -161.266E-03     113.085E-03
            2051     6.12921E-03     28.1692E-03    -83.8610E+06    -164.912E+06    -16.4260E+06     783.833E+03    -165.384E-03     326.630E-03    -161.247E-03     111.517E-03    -167.116E-03     327.528E-03    -160.968E-03     103.409E-03
            2052     5.36552E-03     28.0385E-03    -92.7573E+06    -191.384E+06    -31.2896E+06     839.958E+03    -164.353E-03     325.295E-03    -160.942E-03     99.7853E-03    -165.676E-03     325.700E-03    -160.686E-03     92.8711E-03
            2053     4.59953E-03     27.9230E-03    -101.444E+06    -220.507E+06    -48.1477E+06     576.746E+03    -163.283E-03     323.938E-03    -160.655E-03     87.1682E-03    -164.249E-03     323.900E-03    -160.429E-03     81.4040E-03
            2054     3.83402E-03     27.8232E-03    -110.121E+06    -245.185E+06    -67.0216E+06     90.2583E+03    -162.264E-03     322.650E-03    -160.386E-03     73.9160E-03    -162.938E-03     322.257E-03    -160.206E-03     69.2406E-03
            2055     3.06797E-03     27.7403E-03    -118.465E+06    -266.875E+06    -86.1515E+06     316.489E+03    -161.461E-03     321.599E-03    -160.137E-03     60.0583E-03    -161.905E-03     320.924E-03    -160.009E-03     56.4132E-03
            2056     2.30067E-03     27.6747E-03    -125.761E+06    -286.842E+06    -104.727E+06     671.333E+03    -160.736E-03     320.644E-03    -159.907E-03     45.7170E-03    -161.001E-03     319.747E-03    -159.832E-03     43.0458E-03
            2057     1.53489E-03     27.6264E-03    -131.633E+06    -302.418E+06    -121.673E+06     525.863E+03    -160.117E-03     319.826E-03    -159.709E-03     31.0026E-03    -160.253E-03     318.774E-03    -159.688E-03     29.2396E-03
            2058     768.070E-06     27.5977E-03    -135.323E+06    -310.944E+06    -133.052E+06     28.1326E+03    -159.838E-03     319.279E-03    -159.441E-03     17.2387E-03    -159.901E-03     318.143E-03    -159.459E-03     16.2884E-03
            2059     14.5156E-03     28.5266E-03    -4.82225E+06     86.0307E+06     94.7960E+06     34.3362E+03    -167.335E-03     331.625E-03    -164.290E-03     65.1055E-03    -169.285E-03     333.588E-03    -163.933E-03     55.4835E-03
            2060     13.7534E-03     28.4205E-03    -10.6352E+06     84.2368E+06     96.0358E+06     14.4820E+03    -167.612E-03     331.699E-03    -164.087E-03     97.3665E-03    -170.500E-03     334.570E-03    -163.714E-03     85.4464E-03
            2061     12.9919E-03     28.3031E-03    -16.6033E+06     75.4818E+06     90.5892E+06     351.752E+03    -168.017E-03     331.857E-03    -163.840E-03     109.441E-03    -171.223E-03     335.009E-03    -163.472E-03     97.2061E-03
            2062     12.2324E-03     28.1639E-03    -23.1262E+06     66.4861E+06     79.1535E+06     595.090E+03    -168.394E-03     331.937E-03    -163.543E-03     124.748E-03    -172.065E-03     335.532E-03    -163.210E-03     111.909E-03
            2063     11.4695E-03     28.0073E-03    -29.4274E+06     59.7425E+06     68.7912E+06     431.010E+03    -168.654E-03     331.885E-03    -163.231E-03     134.657E-03    -172.577E-03     335.716E-03    -162.931E-03     121.589E-03
            2064     10.7092E-03     27.8416E-03    -35.7562E+06     50.7582E+06     63.1180E+06     546.026E+03    -168.827E-03     331.756E-03    -162.929E-03     141.650E-03    -172.861E-03     335.660E-03    -162.635E-03     128.564E-03
            2065     9.94688E-03     27.6669E-03    -43.0732E+06     25.5374E+06     55.4581E+06     895.613E+03    -168.748E-03     331.376E-03    -162.628E-03     144.606E-03    -172.683E-03     335.088E-03    -162.325E-03     131.791E-03
            2066     9.18486E-03     27.4917E-03    -50.8174E+06    -16.9156E+06     42.6730E+06     1.11246E+06    -168.408E-03     330.726E-03    -162.318E-03     143.179E-03    -172.033E-03     333.987E-03    -162.006E-03     130.932E-03
            2067     8.42223E-03     27.3204E-03    -58.6480E+06    -59.1592E+06     27.7907E+06     1.09848E+06    -167.919E-03     329.909E-03    -161.990E-03     138.443E-03    -171.105E-03     332.596E-03    -161.680E-03     127.020E-03
            2068     7.65882E-03     27.1553E-03    -66.5840E+06    -95.7846E+06     13.2959E+06     1.19892E+06    -167.248E-03     328.896E-03    -161.648E-03     130.892E-03    -169.936E-03     330.969E-03    -161.346E-03     120.493E-03
            2069     6.89548E-03     27.0011E-03    -74.9595E+06    -133.277E+06    -1.58819E+06     1.50628E+06    -166.367E-03     327.669E-03    -161.301E-03     121.187E-03    -168.546E-03     329.112E-03    -161.007E-03     111.940E-03
            2070     6.13182E-03     26.8587E-03    -83.3602E+06    -163.976E+06    -16.0604E+06     1.37468E+06    -165.320E-03     326.273E-03    -160.953E-03     110.404E-03    -167.032E-03     327.153E-03    -160.675E-03     102.354E-03
            2071     5.36612E-03     26.7300E-03    -91.6772E+06    -190.737E+06    -30.8970E+06     834.272E+03    -164.131E-03     324.751E-03    -160.620E-03     98.7620E-03    -165.434E-03     325.141E-03    -160.365E-03     91.8998E-03
            2072     4.60141E-03     26.6155E-03    -100.353E+06    -219.541E+06    -47.4035E+06     691.136E+03    -162.966E-03     323.285E-03    -160.319E-03     86.1285E-03    -163.916E-03     323.236E-03    -160.092E-03     80.4185E-03
            2073     3.83514E-03     26.5176E-03    -109.468E+06    -244.700E+06    -66.2385E+06     672.493E+03    -161.965E-03     322.002E-03    -160.037E-03     72.9442E-03    -162.628E-03     321.600E-03    -159.855E-03     68.3192E-03
            2074     3.06848E-03     26.4350E-03    -118.062E+06    -267.060E+06    -86.1430E+06     561.386E+03    -161.069E-03     320.848E-03    -159.779E-03     59.2768E-03    -161.504E-03     320.166E-03    -159.651E-03     55.6712E-03
            2075     2.30280E-03     26.3704E-03    -125.752E+06    -286.419E+06    -105.034E+06     401.484E+03    -160.244E-03     319.817E-03    -159.573E-03     45.3152E-03    -160.505E-03     318.920E-03    -159.501E-03     42.6666E-03
            2076     1.53445E-03     26.3237E-03    -132.058E+06    -301.409E+06    -121.743E+06     363.913E+03    -159.665E-03     319.114E-03    -159.449E-03     31.0879E-03    -159.805E-03     318.068E-03    -159.429E-03     29.3281E-03
            2077     766.636E-06     26.2943E-03    -135.951E+06    -310.152E+06    -133.489E+06     596.795E+03    -159.675E-03     318.851E-03    -159.175E-03     17.1598E-03    -159.741E-03     317.720E-03    -159.196E-03     16.2243E-03
            2078     14.5122E-03     27.2050E-03    -4.59930E+06     86.4103E+06     94.4571E+06    -78.0204E+03    -167.781E-03     332.072E-03    -164.292E-03     63.6062E-03    -169.708E-03     334.016E-03    -163.938E-03     53.9801E-03
            2079     13.7534E-03     27.0965E-03    -10.2653E+06     83.6255E+06     95.6236E+06     4.72449E+03    -167.983E-03     332.047E-03    -164.064E-03     95.5666E-03    -170.841E-03     334.888E-03    -163.692E-03     83.6321E-03
            2080     12.9939E-03     26.9832E-03    -16.3044E+06     74.6450E+06     90.3772E+06     473.847E+03    -168.246E-03     332.042E-03    -163.796E-03     108.675E-03    -171.434E-03     335.175E-03    -163.429E-03     96.4352E-03
            2081     12.2315E-03     26.8422E-03    -22.6113E+06     67.1661E+06     79.5702E+06     635.010E+03    -168.690E-03     332.169E-03    -163.479E-03     124.193E-03    -172.345E-03     335.751E-03    -163.146E-03     111.346E-03
            2082     11.4722E-03     26.6890E-03    -28.9636E+06     60.0198E+06     68.7554E+06     351.824E+03    -168.858E-03     332.001E-03    -163.143E-03     134.034E-03    -172.757E-03     335.811E-03    -162.844E-03     120.976E-03
            2083     10.7095E-03     26.5223E-03    -35.9815E+06     50.0469E+06     62.4517E+06     565.568E+03    -168.976E-03     331.796E-03    -162.820E-03     141.220E-03    -172.992E-03     335.680E-03    -162.528E-03     128.145E-03
            2084     9.94863E-03     26.3500E-03    -43.5340E+06     25.3048E+06     54.9067E+06     1.06982E+06    -168.869E-03     331.367E-03    -162.498E-03     143.866E-03    -172.778E-03     335.052E-03    -162.197E-03     131.083E-03
            2085     9.18607E-03     26.1760E-03    -51.3573E+06    -16.6998E+06     42.2300E+06     1.12722E+06    -168.532E-03     330.696E-03    -162.163E-03     142.353E-03    -172.129E-03     333.929E-03    -161.854E-03     130.144E-03
            2086     8.42352E-03     26.0057E-03    -59.2306E+06    -58.9300E+06     27.5386E+06     1.14284E+06    -168.162E-03     329.962E-03    -161.801E-03     137.336E-03    -171.321E-03     332.622E-03    -161.491E-03     125.944E-03
            2087     7.66097E-03     25.8424E-03    -67.3983E+06    -96.1094E+06     12.8068E+06     1.42951E+06    -167.381E-03     328.793E-03    -161.413E-03     129.374E-03    -170.036E-03     330.831E-03    -161.112E-03     119.030E-03
            2088     6.89732E-03     25.6895E-03    -75.4324E+06    -132.422E+06    -2.00225E+06     1.47630E+06    -166.325E-03     327.349E-03    -161.024E-03     119.681E-03    -168.473E-03     328.765E-03    -160.733E-03     110.501E-03
            2089     6.13273E-03     25.5490E-03    -83.2742E+06    -162.663E+06    -16.2581E+06     884.852E+03    -165.206E-03     325.846E-03    -160.640E-03     108.781E-03    -166.890E-03     326.704E-03    -160.365E-03     100.791E-03
            2090     5.36889E-03     25.4219E-03    -91.7477E+06    -190.590E+06    -31.1759E+06     815.178E+03    -163.926E-03     324.200E-03    -160.275E-03     96.9822E-03    -165.203E-03     324.565E-03    -160.021E-03     90.1878E-03
            2091     4.60264E-03     25.3094E-03    -100.764E+06    -219.075E+06    -47.6933E+06     1.08854E+06    -162.742E-03     322.681E-03    -159.939E-03     84.6222E-03    -163.675E-03     322.616E-03    -159.713E-03     78.9771E-03
            2092     3.83677E-03     25.2121E-03    -109.504E+06    -244.165E+06    -66.3012E+06     1.03160E+06    -161.651E-03     321.275E-03    -159.624E-03     71.4815E-03    -162.300E-03     320.861E-03    -159.443E-03     66.9180E-03
            2093     3.07053E-03     25.1312E-03    -118.040E+06    -266.500E+06    -85.9593E+06     992.428E+03    -160.519E-03     319.882E-03    -159.364E-03     57.9980E-03    -160.944E-03     319.192E-03    -159.236E-03     54.4506E-03
            2094     2.30178E-03     25.0678E-03    -126.080E+06    -285.817E+06    -105.182E+06     971.676E+03    -159.753E-03     318.933E-03    -159.180E-03     44.1769E-03    -160.011E-03     318.034E-03    -159.108E-03     41.5705E-03
            2095     1.53529E-03     25.0208E-03    -132.459E+06    -300.490E+06    -122.012E+06     600.869E+03    -159.321E-03     318.367E-03    -159.046E-03     29.8936E-03    -159.460E-03     317.322E-03    -159.028E-03     28.1681E-03
            2096     768.113E-06     24.9923E-03    -136.316E+06    -308.974E+06    -133.342E+06     37.9340E+03    -158.985E-03     317.996E-03    -159.012E-03     16.7661E-03    -159.054E-03     316.871E-03    -159.033E-03     15.8256E-03
            2097     14.5173E-03     25.8814E-03    -5.12662E+06     86.1470E+06     94.1496E+06    -567.785E+03    -168.250E-03     332.530E-03    -164.280E-03     63.8677E-03    -170.177E-03     334.472E-03    -163.927E-03     54.2206E-03
            2098     13.7553E-03     25.7758E-03    -9.98951E+06      82.799E+06     95.5733E+06     230.944E+03    -168.063E-03     332.102E-03    -164.039E-03     95.9482E-03    -170.912E-03     334.932E-03    -163.666E-03     84.0382E-03
            2099     12.9929E-03     25.6615E-03    -16.0292E+06     74.5467E+06     90.3704E+06     633.939E+03    -168.453E-03     332.214E-03    -163.761E-03     108.767E-03    -171.627E-03     335.333E-03    -163.394E-03     96.5435E-03
            2100     12.2339E-03     25.5216E-03    -22.1701E+06     67.3172E+06     79.6701E+06     560.507E+03    -168.785E-03     332.218E-03    -163.433E-03     123.759E-03    -172.421E-03     335.783E-03    -163.100E-03     110.924E-03
            2101     11.4714E-03     25.3690E-03    -28.8284E+06     60.0676E+06     68.5295E+06     935.133E+03    -168.995E-03     332.080E-03    -163.085E-03     133.890E-03    -172.880E-03     335.877E-03    -162.787E-03     120.849E-03
            2102     10.7113E-03     25.2042E-03    -36.0701E+06     49.4970E+06     61.8069E+06     1.25728E+06    -169.228E-03     331.971E-03    -162.742E-03     140.901E-03    -173.221E-03     335.832E-03    -162.453E-03     127.850E-03
            2103     9.94897E-03     25.0321E-03    -43.5031E+06     25.2314E+06     54.5616E+06     1.36380E+06    -169.193E-03     331.584E-03    -162.391E-03     142.939E-03    -173.067E-03     335.235E-03    -162.092E-03     130.180E-03
            2104     9.18748E-03     24.8606E-03    -51.3805E+06    -16.0885E+06     42.2410E+06     1.42536E+06    -169.037E-03     331.046E-03    -162.009E-03     141.071E-03    -172.598E-03     334.245E-03    -161.700E-03     128.880E-03
            2105     8.42539E-03     24.6904E-03    -59.5734E+06    -58.7130E+06     27.3015E+06     1.43968E+06    -168.496E-03     330.082E-03    -161.586E-03     135.644E-03    -171.612E-03     332.699E-03    -161.278E-03     124.301E-03
            2106     7.66272E-03     24.5294E-03    -67.4842E+06    -95.9296E+06     12.6582E+06     1.56847E+06    -167.563E-03     328.704E-03    -161.140E-03     127.387E-03    -170.173E-03     330.696E-03    -160.840E-03     117.107E-03
            2107     6.89945E-03     24.3786E-03    -75.4403E+06    -130.942E+06    -2.20250E+06     1.10007E+06    -166.441E-03     327.131E-03    -160.689E-03     117.539E-03    -168.547E-03     328.511E-03    -160.401E-03     108.425E-03
            2108     6.13591E-03     24.2395E-03    -83.7917E+06    -161.931E+06    -16.8579E+06     638.527E+03    -165.103E-03     325.351E-03    -160.248E-03     106.436E-03    -166.749E-03     326.174E-03    -159.976E-03     98.5283E-03
            2109     5.37022E-03     24.1145E-03    -92.3248E+06    -191.030E+06    -31.9300E+06     928.329E+03    -163.792E-03     323.620E-03    -159.828E-03     94.6874E-03    -165.037E-03     323.952E-03    -159.576E-03     87.9754E-03
            2110     4.60518E-03     24.0039E-03    -100.901E+06    -218.700E+06    -48.1994E+06     1.05350E+06    -162.531E-03     321.959E-03    -159.428E-03     82.4103E-03    -163.437E-03     321.871E-03    -159.206E-03     76.8418E-03
            2111     3.83890E-03     23.9073E-03    -109.637E+06    -243.736E+06    -66.5587E+06     1.20250E+06    -161.199E-03     320.262E-03    -159.063E-03     69.3190E-03    -161.828E-03     319.830E-03    -158.884E-03     64.8367E-03
            2112     3.07121E-03     23.8295E-03    -118.264E+06    -266.048E+06    -86.1046E+06     1.47027E+06    -160.137E-03     318.885E-03    -158.748E-03     56.0356E-03    -160.549E-03     318.183E-03    -158.621E-03     52.5577E-03
            2113     2.30509E-03     23.7652E-03    -125.627E+06    -284.515E+06    -104.751E+06     1.28850E+06    -159.290E-03     317.772E-03    -158.482E-03     42.5483E-03    -159.539E-03     316.869E-03    -158.411E-03     39.9976E-03
            2114     1.53652E-03     23.7201E-03    -131.444E+06    -298.991E+06    -121.504E+06     743.368E+03    -158.663E-03     316.932E-03    -158.269E-03     29.0425E-03    -158.796E-03     315.889E-03    -158.252E-03     27.3510E-03
            2115     768.019E-06     23.6909E-03    -135.768E+06    -307.949E+06    -132.992E+06     95.9372E+03    -158.155E-03     316.373E-03    -158.218E-03     15.8067E-03    -158.222E-03     315.251E-03    -158.239E-03     14.8978E-03
            2116     14.5118E-03     24.5565E-03    -5.44070E+06     86.1102E+06     94.0640E+06    -498.207E+03    -168.050E-03     332.352E-03    -164.302E-03     63.6822E-03    -169.968E-03     334.284E-03    -163.949E-03     54.0557E-03
            2117     13.7529E-03     24.4545E-03    -11.3382E+06     81.2113E+06     94.6580E+06    -343.300E+03    -168.338E-03     332.398E-03    -164.059E-03     95.8536E-03    -171.184E-03     335.216E-03    -163.687E-03     83.9258E-03
            2118     12.9945E-03     24.3381E-03    -17.2221E+06     74.4649E+06     90.0311E+06     325.860E+03    -168.624E-03     332.395E-03    -163.771E-03     109.105E-03    -171.805E-03     335.518E-03    -163.403E-03     96.8626E-03
            2119     12.2325E-03     24.2019E-03    -23.6265E+06     66.7562E+06     78.9279E+06     639.692E+03    -168.966E-03     332.398E-03    -163.432E-03     123.943E-03    -172.600E-03     335.956E-03    -163.100E-03     111.107E-03
            2120     11.4726E-03     24.0490E-03    -30.2744E+06     59.5758E+06     67.8588E+06     1.01549E+06    -169.464E-03     332.526E-03    -163.063E-03     133.691E-03    -173.337E-03     336.307E-03    -162.766E-03     120.637E-03
            2121     10.7108E-03     23.8847E-03    -36.7457E+06     49.4148E+06     61.4652E+06     1.21380E+06    -169.806E-03     332.485E-03    -162.679E-03     139.790E-03    -173.766E-03     336.312E-03    -162.390E-03     126.730E-03
            2122     9.95037E-03     23.7147E-03    -43.8359E+06     24.9964E+06     54.0247E+06     1.44561E+06    -169.886E-03     332.152E-03    -162.266E-03     141.380E-03    -173.717E-03     335.759E-03    -161.969E-03     128.618E-03
            2123     9.18903E-03     23.5430E-03    -51.4591E+06    -15.5064E+06     42.0894E+06     1.59895E+06    -169.692E-03     331.501E-03    -161.809E-03     139.061E-03    -173.200E-03     334.649E-03    -161.501E-03     126.889E-03
            2124     8.42774E-03     23.3758E-03    -59.2542E+06    -58.3040E+06     27.2940E+06     1.60895E+06    -168.986E-03     330.290E-03    -161.304E-03     133.139E-03    -172.037E-03     332.845E-03    -160.997E-03     121.853E-03
            2125     7.66532E-03     23.2165E-03    -67.0274E+06    -95.2092E+06     12.8166E+06     1.45338E+06    -167.945E-03     328.717E-03    -160.772E-03     124.500E-03    -170.488E-03     330.647E-03    -160.472E-03     114.298E-03
            2126     6.90257E-03     23.0673E-03    -74.9532E+06    -129.576E+06    -1.85134E+06     1.23691E+06    -166.627E-03     326.856E-03    -160.229E-03     114.282E-03    -168.670E-03     328.178E-03    -159.942E-03     105.267E-03
            2127     6.13835E-03     22.9311E-03    -83.2169E+06    -161.359E+06    -16.7324E+06     1.06434E+06    -165.128E-03     324.823E-03    -159.695E-03     103.125E-03    -166.716E-03     325.591E-03    -159.424E-03     95.3342E-03
            2128     5.37416E-03     22.8082E-03    -91.7138E+06    -191.223E+06    -31.8441E+06     972.570E+03    -163.670E-03     322.852E-03    -159.181E-03     91.4241E-03    -164.866E-03     323.135E-03    -158.930E-03     84.8216E-03
            2129     4.60844E-03     22.6984E-03    -100.531E+06    -218.260E+06    -48.0339E+06     1.19871E+06    -162.092E-03     320.790E-03    -158.698E-03     79.2549E-03    -162.961E-03     320.667E-03    -158.476E-03     73.7990E-03
            2130     3.84167E-03     22.6061E-03    -109.295E+06    -243.664E+06    -66.4461E+06     1.42639E+06    -160.719E-03     318.975E-03    -158.256E-03     66.7229E-03    -161.321E-03     318.517E-03    -158.077E-03     62.3406E-03
            2131     3.07510E-03     22.5269E-03    -117.333E+06    -265.360E+06    -85.6460E+06     1.47775E+06    -159.623E-03     317.465E-03    -157.842E-03     53.8833E-03    -160.016E-03     316.748E-03    -157.715E-03     50.4890E-03
            2132     2.30620E-03     22.4663E-03    -124.749E+06    -283.063E+06    -104.112E+06     1.27298E+06    -158.541E-03     316.010E-03    -157.469E-03     40.8215E-03    -158.779E-03     315.102E-03    -157.399E-03     38.3444E-03
            2133     1.53792E-03     22.4210E-03    -130.961E+06    -297.447E+06    -120.425E+06     1.02131E+06    -157.685E-03     314.858E-03    -157.173E-03     27.7704E-03    -157.814E-03     313.815E-03    -157.154E-03     26.1417E-03
            2134     769.481E-06     22.3927E-03    -135.059E+06    -306.471E+06    -132.598E+06     1.10895E+06    -157.277E-03     314.097E-03    -156.820E-03     15.0105E-03    -157.341E-03     312.979E-03    -156.842E-03     14.1445E-03
            2135     14.5158E-03     23.2358E-03    -4.67667E+06     87.0725E+06     94.9088E+06     500.313E+03    -167.996E-03     332.323E-03    -164.327E-03     62.5836E-03    -169.893E-03     334.238E-03    -163.972E-03     53.0151E-03
            2136     13.7545E-03     23.1297E-03    -10.7511E+06     81.1370E+06     94.8029E+06     167.247E+03    -167.885E-03     331.983E-03    -164.098E-03     95.6659E-03    -170.717E-03     334.790E-03    -163.726E-03     83.7941E-03
            2137     12.9921E-03     23.0182E-03    -18.0136E+06     73.2036E+06     89.0361E+06     370.979E+03    -168.730E-03     332.549E-03    -163.819E-03     109.275E-03    -171.909E-03     335.666E-03    -163.454E-03     97.0211E-03
            2138     12.2325E-03     22.8792E-03    -24.4122E+06     66.6878E+06     78.7194E+06     482.392E+03    -169.707E-03     333.165E-03    -163.458E-03     123.325E-03    -173.328E-03     336.708E-03    -163.126E-03     110.433E-03
            2139     11.4718E-03     22.7286E-03    -30.3486E+06     59.2758E+06      67.907E+06     491.134E+03    -170.429E-03     333.460E-03    -163.031E-03     132.438E-03    -174.271E-03     337.207E-03    -162.733E-03     119.319E-03
            2140     10.7125E-03     22.5644E-03    -37.0402E+06     48.8680E+06     61.0591E+06     902.271E+03    -170.796E-03     333.362E-03    -162.566E-03     137.777E-03    -174.703E-03     337.134E-03    -162.278E-03     124.678E-03
            2141     9.95200E-03     22.3958E-03    -44.1733E+06     25.0324E+06     53.7127E+06     1.19411E+06    -170.833E-03     332.892E-03    -162.060E-03     138.872E-03    -174.593E-03     336.429E-03    -161.763E-03     126.110E-03
            2142     9.19182E-03     22.2255E-03    -51.5443E+06    -15.3049E+06     41.8262E+06     1.26713E+06    -170.527E-03     332.023E-03    -161.497E-03     135.876E-03    -173.947E-03     335.085E-03    -161.191E-03     123.750E-03
            2143     8.43068E-03     22.0606E-03    -58.9769E+06    -57.8402E+06     27.3148E+06     1.31406E+06    -169.734E-03     330.607E-03    -160.873E-03     129.150E-03    -172.686E-03     333.065E-03    -160.567E-03     117.946E-03
            2144     7.66959E-03     21.9029E-03    -66.6531E+06    -94.4601E+06     13.0511E+06     1.28501E+06    -168.418E-03     328.631E-03    -160.213E-03     120.258E-03    -170.866E-03     330.470E-03    -159.914E-03     110.174E-03
            2145     6.90708E-03     21.7572E-03    -74.5146E+06    -128.822E+06    -1.49783E+06     1.22835E+06    -166.804E-03     326.351E-03    -159.547E-03     109.869E-03    -168.760E-03     327.590E-03    -159.259E-03     101.002E-03
            2146     6.14375E-03     21.6233E-03    -82.5614E+06    -160.825E+06    -16.2327E+06     1.21126E+06    -165.151E-03     324.039E-03    -158.888E-03     98.8935E-03    -166.665E-03     324.736E-03    -158.616E-03     91.2549E-03
            2147     5.37902E-03     21.5022E-03    -91.0788E+06    -191.093E+06    -31.2812E+06     1.44600E+06    -163.374E-03     321.626E-03    -158.252E-03     87.4233E-03    -164.509E-03     321.850E-03    -157.999E-03     80.9841E-03
            2148     4.61303E-03     21.3968E-03    -99.7259E+06    -217.658E+06    -47.5494E+06     1.61459E+06    -161.637E-03     319.284E-03    -157.647E-03     75.3502E-03    -162.457E-03     319.115E-03    -157.424E-03     70.0532E-03
            2149     3.84621E-03     21.3044E-03    -108.162E+06    -243.110E+06    -65.9357E+06     1.46944E+06    -160.077E-03     317.153E-03    -157.076E-03     63.1358E-03    -160.641E-03     316.661E-03    -156.896E-03     58.8929E-03
            2150     3.07793E-03     21.2286E-03    -116.468E+06    -264.737E+06    -84.9335E+06     1.47415E+06    -158.628E-03     315.176E-03    -156.548E-03     50.7092E-03    -158.995E-03     314.436E-03    -156.420E-03     47.4391E-03
            2151     2.31008E-03     21.1688E-03    -124.107E+06    -281.744E+06    -103.428E+06     1.60793E+06    -157.468E-03     313.528E-03    -156.059E-03     38.2015E-03    -157.691E-03     312.609E-03    -155.988E-03     35.8273E-03
            2152     1.54081E-03     21.1251E-03    -130.152E+06    -295.774E+06    -119.928E+06     1.34416E+06    -156.411E-03     312.028E-03    -155.617E-03     25.7164E-03    -156.532E-03     310.984E-03    -155.599E-03     24.1601E-03
            2153     770.177E-06     21.0986E-03    -134.121E+06    -304.145E+06    -130.968E+06     1.03042E+06    -155.474E-03     310.822E-03    -155.348E-03     13.9839E-03    -155.537E-03     309.710E-03    -155.367E-03     13.1556E-03
            2154     14.5127E-03     21.9109E-03    -4.14812E+06     86.4128E+06     94.6647E+06     515.803E+03    -167.629E-03     332.034E-03    -164.404E-03     64.4098E-03    -169.535E-03     333.957E-03    -164.050E-03     54.8536E-03
            2155     13.7514E-03     21.8116E-03    -10.1718E+06     81.1495E+06     94.6431E+06     1.52250E+06    -168.525E-03     332.700E-03    -164.175E-03     96.9281E-03    -171.363E-03     335.515E-03    -163.804E-03     85.0407E-03
            2156     12.9920E-03     21.6930E-03    -15.8030E+06     73.7585E+06     90.1662E+06     960.327E+03    -169.576E-03     333.438E-03    -163.862E-03     108.596E-03    -172.735E-03     336.541E-03    -163.495E-03     96.2898E-03
            2157     12.2323E-03     21.5580E-03    -21.9748E+06     67.2971E+06     79.7883E+06     726.955E+03    -170.736E-03     334.177E-03    -163.441E-03     122.101E-03    -174.319E-03     337.690E-03    -163.108E-03     109.141E-03
            2158     11.4735E-03     21.4051E-03    -28.9824E+06     58.7957E+06     67.8927E+06     1.04750E+06    -171.741E-03     334.668E-03    -162.927E-03     130.569E-03    -175.526E-03     338.362E-03    -162.631E-03     117.378E-03
            2159     10.7143E-03     21.2436E-03    -35.8353E+06     48.4703E+06     61.1234E+06     1.22319E+06    -172.232E-03     334.581E-03    -162.349E-03     135.075E-03    -176.050E-03     338.266E-03    -162.062E-03     121.950E-03
            2160     9.95551E-03     21.0755E-03    -43.0184E+06     25.4173E+06     54.0332E+06     1.32135E+06    -172.260E-03     333.963E-03    -161.703E-03     135.210E-03    -175.906E-03     337.390E-03    -161.407E-03     122.470E-03
            2161     9.19609E-03     20.9077E-03    -50.5901E+06    -14.7109E+06     42.2024E+06     1.28777E+06    -171.763E-03     332.743E-03    -160.980E-03     131.188E-03    -175.049E-03     335.675E-03    -160.675E-03     119.151E-03
            2162     8.43688E-03     20.7443E-03    -58.3380E+06    -57.2886E+06     27.5752E+06     1.13326E+06    -170.592E-03     330.781E-03    -160.189E-03     123.836E-03    -173.405E-03     333.104E-03    -159.884E-03     112.783E-03
            2163     7.67587E-03     20.5907E-03    -65.9916E+06    -94.0119E+06     13.3663E+06     1.11464E+06    -168.945E-03     328.307E-03    -159.363E-03     114.561E-03    -171.260E-03     330.016E-03    -159.064E-03     104.667E-03
            2164     6.91376E-03     20.4473E-03    -73.6945E+06    -128.180E+06    -922.750E+03     1.11772E+06    -167.108E-03     325.631E-03    -158.523E-03     103.958E-03    -168.944E-03     326.753E-03    -158.235E-03     95.3021E-03
            2165     6.15048E-03     20.3166E-03    -81.7187E+06    -160.618E+06    -15.6404E+06     1.33938E+06    -165.069E-03     322.755E-03    -157.686E-03     92.7397E-03    -166.476E-03     323.347E-03    -157.413E-03     85.3355E-03
            2166     5.38562E-03     20.1994E-03    -89.8892E+06    -190.782E+06    -30.4999E+06     1.73321E+06    -163.021E-03     319.890E-03    -156.868E-03     81.1564E-03    -164.065E-03     320.025E-03    -156.614E-03     74.9551E-03
            2167     4.61985E-03     20.0954E-03    -98.4139E+06    -216.701E+06    -46.5939E+06     1.70749E+06    -161.048E-03     317.115E-03    -156.067E-03     69.3304E-03    -161.796E-03     316.880E-03    -155.844E-03     64.2535E-03
            2168     3.85280E-03     20.0070E-03    -107.082E+06    -242.369E+06    -65.0444E+06     1.70116E+06    -158.997E-03     314.303E-03    -155.307E-03     57.6098E-03    -159.507E-03     313.762E-03    -155.125E-03     53.5719E-03
            2169     3.08446E-03     19.9334E-03    -115.400E+06    -264.070E+06    -83.9822E+06     2.01733E+06    -157.111E-03     311.735E-03    -154.624E-03     46.1020E-03    -157.442E-03     310.963E-03    -154.494E-03     43.0159E-03
            2170     2.31408E-03     19.8751E-03    -122.871E+06    -280.175E+06    -102.360E+06     1.88590E+06    -155.568E-03     309.601E-03    -154.034E-03     34.7519E-03    -155.770E-03     308.669E-03    -153.961E-03     32.5210E-03
            2171     1.54348E-03     19.8337E-03    -128.827E+06    -293.604E+06    -118.800E+06     1.31094E+06    -154.362E-03     307.905E-03    -153.542E-03     23.3502E-03    -154.473E-03     306.860E-03    -153.524E-03     21.8844E-03
            2172     772.554E-06     19.8088E-03    -132.373E+06    -301.546E+06    -130.120E+06     436.256E+03    -153.646E-03     306.629E-03    -152.983E-03     12.3430E-03    -153.702E-03     305.523E-03    -153.004E-03     11.5606E-03
            2173     14.5093E-03     20.5911E-03    -5.01358E+06     84.9754E+06     93.3930E+06     279.720E+03    -167.952E-03     332.414E-03    -164.462E-03     62.3788E-03    -169.829E-03     334.303E-03    -164.111E-03     52.8327E-03
            2174     13.7511E-03     20.4827E-03    -10.6451E+06     80.8838E+06     94.3275E+06     363.972E+03    -169.302E-03     333.503E-03    -164.201E-03     94.0861E-03    -172.109E-03     336.286E-03    -163.831E-03     82.1150E-03
            2175     12.9925E-03     20.3723E-03    -15.8857E+06     74.4253E+06     90.5591E+06     535.108E+03    -170.468E-03     334.305E-03    -163.837E-03     107.430E-03    -173.612E-03     337.394E-03    -163.469E-03     95.0279E-03
            2176     12.2331E-03     20.2320E-03    -22.5786E+06     66.2548E+06     79.2839E+06     1.30328E+06    -172.193E-03     335.529E-03    -163.336E-03     120.928E-03    -175.732E-03     338.993E-03    -163.003E-03     107.895E-03
            2177     11.4754E-03     20.0819E-03    -28.9472E+06     59.3270E+06     68.1161E+06     1.55283E+06    -173.581E-03     336.280E-03    -162.699E-03     127.676E-03    -177.270E-03     339.880E-03    -162.402E-03     114.448E-03
            2178     10.7181E-03     19.9198E-03    -35.5742E+06     48.6574E+06     61.3317E+06     1.25136E+06    -174.281E-03     336.235E-03    -161.953E-03     130.866E-03    -177.963E-03     339.785E-03    -161.666E-03     117.740E-03
            2179     9.96094E-03     19.7541E-03    -42.7044E+06     25.6415E+06     54.1709E+06     1.37215E+06    -174.285E-03     335.385E-03    -161.100E-03     129.584E-03    -177.761E-03     338.644E-03    -160.804E-03     116.915E-03
            2180     9.20380E-03     19.5883E-03    -50.0126E+06    -13.5711E+06     42.6405E+06     1.30629E+06    -173.334E-03     333.484E-03    -160.149E-03     124.428E-03    -176.429E-03     336.230E-03    -159.844E-03     112.559E-03
            2181     8.44482E-03     19.4288E-03    -57.2568E+06    -56.5040E+06     28.1554E+06     994.755E+03    -171.784E-03     330.906E-03    -159.123E-03     116.165E-03    -174.399E-03     333.037E-03    -158.817E-03     105.347E-03
            2182     7.68514E-03     19.2785E-03    -64.7223E+06    -93.2943E+06     14.0650E+06     926.266E+03    -169.873E-03     327.913E-03    -158.040E-03     105.872E-03    -171.994E-03     329.433E-03    -157.741E-03     96.2627E-03
            2183     6.92430E-03     19.1388E-03    -72.4523E+06    -127.613E+06    -155.659E+03     1.03152E+06    -167.510E-03     324.439E-03    -156.929E-03     94.6308E-03    -169.167E-03     325.386E-03    -156.640E-03     86.3047E-03
            2184     6.16147E-03     19.0125E-03    -80.3252E+06    -160.530E+06    -14.8275E+06     1.29262E+06    -164.978E-03     320.795E-03    -155.817E-03     83.2693E-03    -166.230E-03     321.235E-03    -155.542E-03     76.2063E-03
            2185     5.39729E-03     18.8983E-03    -88.6469E+06    -190.673E+06    -29.6909E+06     1.87722E+06    -162.355E-03     317.082E-03    -154.727E-03     72.1471E-03    -163.274E-03     317.095E-03    -154.470E-03     66.2902E-03
            2186     4.63103E-03     18.7987E-03    -97.3616E+06    -215.460E+06    -45.8093E+06     2.22801E+06    -159.628E-03     313.313E-03    -153.685E-03     61.2688E-03    -160.283E-03     312.991E-03    -153.461E-03     56.5270E-03
            2187     3.86268E-03     18.7135E-03    -106.090E+06    -241.519E+06    -64.2601E+06     2.28494E+06    -157.110E-03     309.838E-03    -152.728E-03     50.7573E-03    -157.556E-03     309.236E-03    -152.545E-03     47.0165E-03
            2188     3.09250E-03     18.6436E-03    -114.161E+06    -262.957E+06    -82.7499E+06     2.32839E+06    -154.825E-03     306.704E-03    -151.879E-03     40.5517E-03    -155.114E-03     305.894E-03    -151.746E-03     37.7085E-03
            2189     2.32128E-03     18.5882E-03    -121.576E+06    -278.109E+06    -100.780E+06     1.97660E+06    -152.773E-03     303.962E-03    -151.189E-03     30.2769E-03    -152.951E-03     303.013E-03    -151.114E-03     28.2341E-03
            2190     1.54793E-03     18.5488E-03    -127.588E+06    -291.164E+06    -117.076E+06     1.38312E+06    -151.294E-03     302.018E-03    -150.724E-03     20.3307E-03    -151.394E-03     300.970E-03    -150.702E-03     18.9970E-03
            2191     773.777E-06     18.5244E-03    -131.793E+06    -299.302E+06    -128.926E+06     525.733E+03    -150.718E-03     301.075E-03    -150.357E-03     11.1734E-03    -150.774E-03     299.974E-03    -150.377E-03     10.4474E-03
            2192     14.5147E-03     19.2638E-03    -5.53762E+06     85.2112E+06     93.3870E+06     109.307E+03    -168.946E-03     333.391E-03    -164.445E-03     63.0715E-03    -170.831E-03     335.289E-03    -164.094E-03     53.4822E-03
            2193     13.7536E-03     19.1628E-03    -10.3133E+06     81.1069E+06     94.7704E+06     177.770E+03    -169.802E-03     333.947E-03    -164.145E-03     94.6949E-03    -172.603E-03     336.725E-03    -163.774E-03     82.6920E-03
            2194     12.9926E-03     19.0457E-03    -16.7906E+06     73.2965E+06     89.5186E+06     805.287E+03    -172.262E-03     335.969E-03    -163.706E-03     106.615E-03    -175.360E-03     339.007E-03    -163.340E-03     94.1382E-03
            2195     12.2362E-03     18.9070E-03    -22.9278E+06     65.3344E+06     78.8960E+06     1.10497E+06    -174.705E-03     337.765E-03    -163.060E-03     117.551E-03    -178.134E-03     341.116E-03    -162.727E-03     104.438E-03
            2196     11.4801E-03     18.7545E-03    -29.0122E+06     59.7931E+06     68.3415E+06     1.19998E+06    -176.273E-03     338.491E-03    -162.218E-03     122.263E-03    -179.790E-03     341.920E-03    -161.921E-03     109.031E-03
            2197     10.7253E-03     18.5950E-03    -35.3866E+06     49.3551E+06     61.5564E+06     1.22200E+06    -177.090E-03     338.309E-03    -161.218E-03     123.478E-03    -180.546E-03     341.636E-03    -160.931E-03     110.436E-03
            2198     9.97056E-03     18.4299E-03    -42.0455E+06     26.2849E+06     54.6223E+06     839.039E+03    -176.729E-03     336.803E-03    -160.074E-03     120.476E-03    -179.940E-03     339.800E-03    -159.778E-03     107.998E-03
            2199     9.21495E-03     18.2689E-03    -48.7105E+06    -12.3704E+06     43.4996E+06     568.200E+03    -175.444E-03     334.248E-03    -158.804E-03     113.700E-03    -178.255E-03     336.717E-03    -158.498E-03     102.108E-03
            2200     8.45865E-03     18.1132E-03    -55.8328E+06    -55.7053E+06     28.9248E+06     664.821E+03    -173.434E-03     330.863E-03    -157.429E-03     104.452E-03    -175.770E-03     332.720E-03    -157.123E-03     93.9972E-03
            2201     7.70104E-03     17.9667E-03    -63.2531E+06    -92.7209E+06     14.7805E+06     881.227E+03    -170.787E-03     326.775E-03    -155.987E-03     93.8327E-03    -172.654E-03     328.045E-03    -155.687E-03     84.6487E-03
            2202     6.94100E-03     17.8331E-03    -70.9833E+06    -126.968E+06     616.455E+03     1.13863E+06    -167.734E-03     322.253E-03    -154.519E-03     82.8933E-03    -169.175E-03     322.991E-03    -154.229E-03     75.0162E-03
            2203     6.17892E-03     17.7110E-03    -79.2662E+06    -160.364E+06    -14.1019E+06     1.64463E+06    -164.382E-03     317.448E-03    -153.066E-03     72.2636E-03    -165.462E-03     317.718E-03    -152.789E-03     65.6591E-03
            2204     5.41409E-03     17.6028E-03    -87.6805E+06    -190.602E+06    -29.0013E+06     2.36616E+06    -160.796E-03     312.472E-03    -151.676E-03     62.1233E-03    -161.581E-03     312.353E-03    -151.417E-03     56.7166E-03
            2205     4.64638E-03     17.5080E-03    -95.9403E+06    -214.265E+06    -45.1244E+06     2.76428E+06    -157.317E-03     307.707E-03    -150.390E-03     52.4910E-03    -157.874E-03     307.294E-03    -150.166E-03     48.1648E-03
            2206     3.87628E-03     17.4276E-03    -104.094E+06    -240.030E+06    -63.0151E+06     2.81993E+06    -154.272E-03     303.511E-03    -149.239E-03     43.2355E-03    -154.648E-03     302.847E-03    -149.055E-03     39.8524E-03
            2207     3.10420E-03     17.3611E-03    -112.360E+06    -261.297E+06    -80.8885E+06     2.61254E+06    -151.559E-03     299.798E-03    -148.239E-03     34.2111E-03    -151.803E-03     298.950E-03    -148.102E-03     31.6531E-03
            2208     2.32965E-03     17.3096E-03    -120.085E+06    -275.644E+06    -99.2962E+06     2.19562E+06    -149.211E-03     296.643E-03    -147.433E-03     25.5131E-03    -149.364E-03     295.679E-03    -147.355E-03     23.6852E-03
            2209     1.55399E-03     17.2727E-03    -126.454E+06    -288.903E+06    -116.486E+06     1.64071E+06    -147.557E-03     294.436E-03    -146.879E-03     17.1106E-03    -147.645E-03     293.386E-03    -146.859E-03     15.9254E-03
            2210     777.040E-06     17.2495E-03    -130.460E+06    -296.831E+06    -127.944E+06     975.271E+03    -146.540E-03     293.298E-03    -146.759E-03     9.03721E-03    -146.590E-03     292.202E-03    -146.779E-03     8.41039E-03
            2211     14.5098E-03     17.9405E-03    -4.94324E+06     85.1356E+06     92.8084E+06    -2.88366E+03    -169.751E-03     334.172E-03    -164.422E-03     63.0551E-03    -171.621E-03     336.058E-03    -164.074E-03     53.3947E-03
            2212     13.7514E-03     17.8373E-03    -10.1719E+06     79.8101E+06     93.3636E+06     221.749E+03    -172.550E-03     336.569E-03    -164.019E-03     94.0275E-03    -175.314E-03     339.309E-03    -163.653E-03     81.8574E-03
            2213     12.9971E-03     17.7174E-03    -15.3738E+06     72.5626E+06     89.6399E+06     848.796E+03    -175.965E-03     339.350E-03    -163.385E-03     103.756E-03    -178.968E-03     342.296E-03    -163.020E-03     91.0964E-03
            2214     12.2427E-03     17.5772E-03    -21.2167E+06     65.6432E+06     80.0014E+06     1.11113E+06    -178.626E-03     341.100E-03    -162.473E-03     111.825E-03    -181.876E-03     344.276E-03    -162.138E-03     98.6250E-03
            2215     11.4902E-03     17.4259E-03    -27.2763E+06     59.8176E+06     69.4585E+06     854.801E+03    -180.200E-03     341.510E-03    -161.311E-03     113.982E-03    -183.466E-03     344.692E-03    -161.011E-03     100.770E-03
            2216     10.7386E-03     17.2660E-03    -33.1375E+06     50.0054E+06     62.7788E+06     721.138E+03    -180.530E-03     340.479E-03    -159.949E-03     112.892E-03    -183.673E-03     343.501E-03    -159.660E-03     100.025E-03
            2217     9.98683E-03     17.1061E-03    -39.4793E+06     27.7934E+06     55.9137E+06     391.405E+03    -179.710E-03     338.124E-03    -158.414E-03     108.132E-03    -182.580E-03     340.792E-03    -158.117E-03     95.9493E-03
            2218     9.23439E-03     16.9479E-03    -46.7622E+06    -11.4914E+06     44.3678E+06     375.353E+03    -177.794E-03     334.522E-03    -156.728E-03     100.373E-03    -180.269E-03     336.663E-03    -156.422E-03     89.1845E-03
            2219     8.48061E-03     16.7982E-03    -54.3148E+06    -54.7672E+06     29.7365E+06     785.810E+03    -174.887E-03     329.818E-03    -154.931E-03     91.0148E-03    -176.918E-03     331.377E-03    -154.624E-03     81.0450E-03
            2220     7.72353E-03     16.6584E-03    -62.0182E+06    -92.0647E+06     15.2943E+06     1.11660E+06    -171.270E-03     324.349E-03    -153.079E-03     80.7220E-03    -172.875E-03     325.364E-03    -152.779E-03     72.0720E-03
            2221     6.96417E-03     16.5304E-03    -69.8785E+06    -126.542E+06     887.064E+03     1.63224E+06    -167.232E-03     318.457E-03    -151.225E-03     70.2687E-03    -168.456E-03     318.982E-03    -150.936E-03     62.9473E-03
            2222     6.20160E-03     16.4156E-03    -77.9704E+06    -160.146E+06    -13.6550E+06     2.44931E+06    -162.846E-03     312.273E-03    -149.427E-03     60.4532E-03    -163.751E-03     312.373E-03    -149.150E-03     54.4022E-03
            2223     5.43542E-03     16.3142E-03    -86.0465E+06    -189.622E+06    -28.1135E+06     2.87208E+06    -158.411E-03     306.151E-03    -147.740E-03     51.3435E-03    -159.064E-03     305.907E-03    -147.481E-03     46.4438E-03
            2224     4.66605E-03     16.2258E-03    -94.5962E+06    -213.356E+06    -44.2771E+06     3.11513E+06    -154.283E-03     300.477E-03    -146.194E-03     42.9489E-03    -154.745E-03     299.974E-03    -145.969E-03     39.0640E-03
            2225     3.89352E-03     16.1507E-03    -103.418E+06    -238.221E+06    -62.5661E+06     3.35769E+06    -150.572E-03     295.398E-03    -144.825E-03     35.0657E-03    -150.887E-03     294.679E-03    -144.643E-03     32.0595E-03
            2226     3.11821E-03     16.0888E-03    -111.533E+06    -258.892E+06    -80.6436E+06     3.04319E+06    -147.336E-03     291.004E-03    -143.668E-03     27.4176E-03    -147.541E-03     290.127E-03    -143.534E-03     25.1656E-03
            2227     2.34080E-03     16.0418E-03    -118.863E+06    -273.564E+06    -98.8803E+06     2.73863E+06    -144.820E-03     287.554E-03    -142.734E-03     20.2841E-03    -144.950E-03     286.576E-03    -142.660E-03     18.6861E-03
            2228     1.56136E-03     16.0067E-03    -125.050E+06    -285.793E+06    -115.478E+06     2.24935E+06    -143.088E-03     285.092E-03    -142.004E-03     13.5911E-03    -143.166E-03     284.044E-03    -141.985E-03     12.5640E-03
            2229     781.471E-06     15.9856E-03    -129.415E+06    -293.822E+06    -126.915E+06     1.35688E+06    -141.836E-03     283.311E-03    -141.476E-03     7.22370E-03    -141.884E-03     282.223E-03    -141.497E-03     6.69448E-03
            2230     14.5140E-03     16.6169E-03    -4.15526E+06     85.9108E+06     92.9987E+06     247.330E+03    -173.120E-03     337.411E-03    -164.291E-03     61.4368E-03    -174.964E-03     339.275E-03    -163.944E-03     51.5469E-03
            2231     13.7582E-03     16.5053E-03    -10.1276E+06     80.5051E+06     93.3155E+06    -92.0179E+03    -176.852E-03     340.515E-03    -163.663E-03     90.7555E-03    -179.549E-03     343.191E-03    -163.299E-03     78.3233E-03
            2232     13.0045E-03     16.3856E-03    -16.6581E+06     71.1442E+06     88.3620E+06    -328.563E+03    -180.856E-03     343.583E-03    -162.727E-03     98.8529E-03    -183.741E-03     346.406E-03    -162.365E-03     85.9384E-03
            2233     12.2547E-03     16.2423E-03    -21.8755E+06     66.0653E+06     80.0419E+06    -341.524E+03    -183.737E-03     345.186E-03    -161.449E-03     104.031E-03    -186.786E-03     348.160E-03    -161.113E-03     90.6872E-03
            2234     11.5072E-03     16.0921E-03    -26.5744E+06     60.1399E+06     70.0516E+06    -671.322E+03    -184.832E-03     344.701E-03    -159.869E-03     104.179E-03    -187.830E-03     347.616E-03    -159.567E-03     90.9887E-03
            2235     10.7593E-03     15.9364E-03    -32.0667E+06     49.3484E+06     62.8095E+06    -363.230E+03    -184.602E-03     342.660E-03    -158.058E-03     101.486E-03    -187.435E-03     345.373E-03    -157.769E-03     88.7968E-03
            2236     10.0110E-03     15.7794E-03    -38.6649E+06     28.8347E+06     56.0638E+06     316.152E+03    -182.869E-03     338.924E-03    -156.055E-03     95.3643E-03    -185.418E-03     341.277E-03    -155.761E-03     83.5249E-03
            2237     9.26123E-03     15.6284E-03    -45.9568E+06    -10.1278E+06     44.4989E+06     652.077E+03    -179.824E-03     333.733E-03    -153.908E-03     87.0700E-03    -181.991E-03     335.573E-03    -153.604E-03     76.3523E-03
            2238     8.50803E-03     15.4856E-03    -53.3798E+06    -53.9947E+06     29.7809E+06     990.932E+03    -175.984E-03     327.644E-03    -151.660E-03     77.4890E-03    -177.736E-03     328.931E-03    -151.356E-03     68.0516E-03
            2239     7.75283E-03     15.3536E-03    -60.9235E+06    -91.1520E+06     15.4002E+06     1.67050E+06    -171.367E-03     320.733E-03    -149.366E-03     66.9633E-03    -172.728E-03     321.511E-03    -149.068E-03     58.8921E-03
            2240     6.99334E-03     15.2343E-03    -68.9027E+06    -126.224E+06     752.910E+03     2.54457E+06    -166.033E-03     313.138E-03    -147.104E-03     56.8366E-03    -167.053E-03     313.463E-03    -146.818E-03     50.1233E-03
            2241     6.22952E-03     15.1280E-03    -76.8445E+06    -159.030E+06    -13.7751E+06     3.04581E+06    -160.598E-03     305.547E-03    -144.948E-03     47.7283E-03    -161.342E-03     305.493E-03    -144.675E-03     42.2542E-03
            2242     5.46180E-03     15.0346E-03    -85.3046E+06    -188.359E+06    -28.2488E+06     3.41672E+06    -155.377E-03     298.320E-03    -142.944E-03     39.6584E-03    -155.909E-03     297.964E-03    -142.688E-03     35.2799E-03
            2243     4.68991E-03     14.9538E-03    -93.9795E+06    -212.697E+06    -44.9724E+06     4.13853E+06    -150.470E-03     291.587E-03    -141.117E-03     32.6490E-03    -150.847E-03     291.004E-03    -140.897E-03     29.2201E-03
            2244     3.91450E-03     14.8850E-03    -102.462E+06    -235.608E+06    -63.1147E+06     4.30712E+06    -146.038E-03     285.558E-03    -139.520E-03     26.2758E-03    -146.295E-03     284.796E-03    -139.346E-03     23.6553E-03
            2245     3.13558E-03     14.8295E-03    -110.860E+06    -256.245E+06    -81.2843E+06     3.71562E+06    -142.356E-03     280.543E-03    -138.187E-03     20.3285E-03    -142.527E-03     279.644E-03    -138.061E-03     18.3834E-03
            2246     2.35396E-03     14.7856E-03    -118.257E+06    -271.276E+06    -99.0080E+06     3.23572E+06    -139.577E-03     276.677E-03    -137.100E-03     15.0171E-03    -139.689E-03     275.690E-03    -137.030E-03     13.6413E-03
            2247     1.57092E-03     14.7545E-03    -124.218E+06    -282.042E+06    -114.290E+06     2.78668E+06    -137.454E-03     273.711E-03    -136.258E-03     9.98751E-03    -137.527E-03     272.671E-03    -136.240E-03     9.10860E-03
            2248     785.616E-06     14.7349E-03    -128.147E+06    -289.480E+06    -125.340E+06     1.72550E+06    -136.070E-03     271.731E-03    -135.661E-03     5.25834E-03    -136.118E-03     270.657E-03    -135.682E-03     4.80361E-03
            2249     14.5165E-03     15.2784E-03    -5.02755E+06     85.9850E+06     92.9457E+06     44.7598E+03    -178.637E-03     342.674E-03    -164.037E-03     63.9177E-03    -180.535E-03     344.590E-03    -163.690E-03     53.5403E-03
            2250     13.7659E-03     15.1754E-03    -10.4307E+06     81.3806E+06     93.8190E+06     35.6376E+03    -183.588E-03     346.645E-03    -163.057E-03     89.7848E-03    -186.286E-03     349.323E-03    -162.691E-03     76.8121E-03
            2251     13.0182E-03     15.0432E-03    -15.7734E+06     72.0966E+06     89.2186E+06    -442.289E+03    -187.078E-03     348.779E-03    -161.702E-03     94.1562E-03    -189.856E-03     351.499E-03    -161.337E-03     80.9207E-03
            2252     12.2745E-03     14.9045E-03    -21.4847E+06     67.3955E+06     79.9403E+06    -1.85564E+06    -189.100E-03     349.081E-03    -159.981E-03     96.8169E-03    -191.978E-03     351.891E-03    -159.648E-03     83.2880E-03
            2253     11.5294E-03     14.7546E-03    -27.4358E+06     60.1352E+06     68.6314E+06    -2.48494E+06    -189.900E-03     347.835E-03    -157.935E-03     95.5455E-03    -192.685E-03     350.539E-03    -157.640E-03     82.3149E-03
            2254     10.7860E-03     14.6033E-03    -33.2888E+06     47.3735E+06     60.8351E+06    -1.74709E+06    -188.903E-03     344.532E-03    -155.629E-03     90.7258E-03    -191.481E-03     346.985E-03    -155.345E-03     78.1707E-03
            2255     10.0411E-03     14.4528E-03    -39.3014E+06     28.6166E+06     54.6615E+06    -696.932E+03    -185.899E-03     339.027E-03    -153.128E-03     83.4559E-03    -188.181E-03     341.114E-03    -152.839E-03     71.9294E-03
            2256     9.29294E-03     14.3106E-03    -45.5159E+06    -9.08668E+06     43.6698E+06     115.782E+03    -181.994E-03     332.478E-03    -150.484E-03     74.3629E-03    -183.900E-03     334.067E-03    -150.187E-03     64.0607E-03
            2257     8.54250E-03     14.1760E-03    -52.4620E+06    -53.7054E+06     28.7583E+06     1.24796E+06    -177.128E-03     324.863E-03    -147.735E-03     63.7602E-03    -178.636E-03     325.913E-03    -147.437E-03     54.8175E-03
            2258     7.78737E-03     14.0540E-03    -59.9961E+06    -90.9412E+06     14.2649E+06     2.53224E+06    -171.021E-03     315.986E-03    -144.965E-03     52.8802E-03    -172.166E-03     316.556E-03    -144.675E-03     45.3726E-03
            2259     7.02759E-03     13.9456E-03    -67.8855E+06    -125.411E+06    -52.9146E+03     3.74903E+06    -164.478E-03     306.756E-03    -142.278E-03     43.2713E-03    -165.323E-03     306.917E-03    -141.998E-03     37.1275E-03
            2260     6.26273E-03     13.8495E-03    -76.4112E+06    -156.741E+06    -14.5947E+06     4.33549E+06    -157.971E-03     297.708E-03    -139.737E-03     35.0108E-03    -158.584E-03     297.537E-03    -139.472E-03     30.0740E-03
            2261     5.49261E-03     13.7658E-03    -85.0140E+06    -187.053E+06    -29.5663E+06     4.51609E+06    -151.752E-03     289.146E-03    -137.394E-03     28.0709E-03    -152.187E-03     288.701E-03    -137.147E-03     24.1736E-03
            2262     4.71795E-03     13.6937E-03    -93.3594E+06    -211.668E+06    -46.5539E+06     4.92596E+06    -145.975E-03     281.256E-03    -135.282E-03     22.3830E-03    -146.279E-03     280.612E-03    -135.072E-03     19.3710E-03
            2263     3.93846E-03     13.6332E-03    -101.540E+06    -232.788E+06    -63.8634E+06     5.24039E+06    -140.853E-03     274.309E-03    -133.456E-03     17.6012E-03    -141.065E-03     273.517E-03    -133.291E-03     15.3275E-03
            2264     3.15543E-03     13.5834E-03    -109.502E+06    -253.161E+06    -81.4719E+06     5.06402E+06    -136.705E-03     268.642E-03    -131.936E-03     13.5245E-03    -136.847E-03     267.729E-03    -131.818E-03     11.8603E-03
            2265     2.36952E-03     13.5450E-03    -116.823E+06    -268.004E+06    -98.9522E+06     4.23550E+06    -133.431E-03     264.147E-03    -130.716E-03     9.89020E-03    -133.526E-03     263.160E-03    -130.653E-03     8.72483E-03
            2266     1.58081E-03     13.5168E-03    -122.677E+06    -277.892E+06    -113.439E+06     2.94144E+06    -130.990E-03     260.823E-03    -129.833E-03     6.48831E-03    -131.056E-03     259.793E-03    -129.819E-03     5.74259E-03
            2267     790.903E-06     13.5011E-03    -126.234E+06    -284.210E+06    -123.720E+06     1.62093E+06    -129.590E-03     258.886E-03    -129.296E-03     3.42212E-03    -129.637E-03     257.832E-03    -129.320E-03     3.03111E-03
            2268     14.5202E-03     13.9424E-03    -5.02072E+06     85.8783E+06     93.6808E+06     206.884E+03    -185.721E-03     349.357E-03    -163.635E-03     63.1935E-03    -187.632E-03     351.283E-03    -163.284E-03     52.3088E-03
            2269     13.7765E-03     13.8232E-03    -10.0295E+06     81.6370E+06     94.4596E+06    -524.545E+03    -190.467E-03     352.711E-03    -162.244E-03     87.3743E-03    -193.164E-03     355.389E-03    -161.875E-03     73.8035E-03
            2270     13.0374E-03     13.7008E-03    -15.1965E+06     74.2529E+06     90.4463E+06    -1.37844E+06    -193.646E-03     354.092E-03    -160.446E-03     91.6587E-03    -196.403E-03     356.797E-03    -160.079E-03     77.9319E-03
            2271     12.2947E-03     13.5588E-03    -20.7741E+06     69.1545E+06     80.4902E+06    -2.09997E+06    -195.315E-03     353.562E-03    -158.247E-03     92.6240E-03    -198.107E-03     356.294E-03    -157.915E-03     78.7907E-03
            2272     11.5566E-03     13.4140E-03    -26.7453E+06     60.3308E+06     67.9118E+06    -2.62073E+06    -195.368E-03     351.059E-03    -155.691E-03     88.5637E-03    -198.005E-03     353.621E-03    -155.400E-03     75.2052E-03
            2273     10.8168E-03     13.2665E-03    -32.7390E+06     46.1946E+06     59.1161E+06    -2.79908E+06    -193.189E-03     346.056E-03    -152.866E-03     81.8511E-03    -195.585E-03     348.330E-03    -152.590E-03     69.3369E-03
            2274     10.0745E-03     13.1279E-03    -38.5609E+06     27.3940E+06     52.5049E+06    -2.29496E+06    -189.532E-03     339.366E-03    -149.834E-03     72.8771E-03    -191.612E-03     341.257E-03    -149.555E-03     61.5019E-03
            2275     9.32945E-03     12.9927E-03    -45.1023E+06    -9.87071E+06     41.2797E+06    -315.503E+03    -184.589E-03     331.229E-03    -146.640E-03     62.4794E-03    -186.298E-03     332.626E-03    -146.354E-03     52.4427E-03
            2276     8.58065E-03     12.8700E-03    -52.4136E+06    -54.1412E+06     26.2613E+06     1.92469E+06    -178.036E-03     321.399E-03    -143.363E-03     50.9212E-03    -179.359E-03     322.270E-03    -143.077E-03     42.3721E-03
            2277     7.82631E-03     12.7612E-03    -60.1053E+06    -90.7744E+06     11.8286E+06     3.55690E+06    -170.432E-03     310.554E-03    -140.122E-03     40.2361E-03    -171.421E-03     310.976E-03    -139.844E-03     33.1820E-03
            2278     7.06565E-03     12.6650E-03    -67.7987E+06    -124.674E+06    -2.33120E+06     4.83656E+06    -162.674E-03     299.687E-03    -137.013E-03     31.3010E-03    -163.397E-03     299.736E-03    -136.746E-03     25.6043E-03
            2279     6.29904E-03     12.5813E-03    -75.6182E+06    -154.644E+06    -16.0471E+06     5.76610E+06    -155.086E-03     289.181E-03    -134.094E-03     23.9839E-03    -155.607E-03     288.931E-03    -133.841E-03     19.4703E-03
            2280     5.52657E-03     12.5090E-03    -83.8296E+06    -184.892E+06    -30.3914E+06     6.24815E+06    -147.818E-03     279.243E-03    -131.425E-03     18.1413E-03    -148.185E-03     278.744E-03    -131.187E-03     14.6285E-03
            2281     4.74814E-03     12.4472E-03    -92.5581E+06    -209.588E+06    -46.9420E+06     6.34054E+06    -141.173E-03     270.213E-03    -129.040E-03     13.7228E-03    -141.432E-03     269.534E-03    -128.837E-03     11.0419E-03
            2282     3.96500E-03     12.3956E-03    -101.254E+06    -230.201E+06    -64.3849E+06     6.27492E+06    -135.419E-03     262.400E-03    -126.981E-03     10.3345E-03    -135.602E-03     261.592E-03    -126.822E-03     8.33373E-03
            2283     3.17715E-03     12.3533E-03    -108.756E+06    -249.557E+06    -81.5622E+06     6.09359E+06    -130.631E-03     255.908E-03    -125.277E-03     7.77944E-03    -130.757E-03     254.995E-03    -125.165E-03     6.33295E-03
            2284     2.38593E-03     12.3198E-03    -115.231E+06    -263.254E+06    -97.9115E+06     5.10532E+06    -126.871E-03     250.816E-03    -123.945E-03     5.50834E-03    -126.957E-03     249.839E-03    -123.886E-03     4.50686E-03
            2285     1.59202E-03     12.2971E-03    -120.691E+06    -272.981E+06    -111.873E+06     3.45494E+06    -124.218E-03     247.230E-03    -123.012E-03     3.56945E-03    -124.280E-03     246.215E-03    -123.000E-03     2.93285E-03
            2286     796.341E-06     12.2813E-03    -124.702E+06    -279.315E+06    -122.245E+06     1.80264E+06    -122.702E-03     245.214E-03    -122.511E-03     2.09843E-03    -122.750E-03     244.178E-03    -122.537E-03     1.76490E-03
            2287     14.5338E-03     12.5918E-03    -4.65954E+06     86.2351E+06     94.9448E+06    -366.499E+03    -193.559E-03     356.732E-03    -163.173E-03     67.0091E-03    -195.568E-03     358.756E-03    -162.817E-03     55.4479E-03
            2288     13.7922E-03     12.4738E-03    -9.44434E+06     83.2211E+06     96.1941E+06    -213.993E+03    -196.920E-03     358.298E-03    -161.378E-03     91.0731E-03    -199.721E-03     361.082E-03    -161.004E-03     76.9189E-03
            2289     13.0510E-03     12.3465E-03    -15.4098E+06     76.4506E+06     91.3420E+06    -1.92895E+06    -200.584E-03     359.732E-03    -159.148E-03     91.3887E-03    -203.383E-03     362.483E-03    -158.780E-03     77.0946E-03
            2290     12.3192E-03     12.2074E-03    -21.1272E+06     69.6844E+06     80.2491E+06    -2.90444E+06    -202.168E-03     358.616E-03    -156.448E-03     89.9171E-03    -204.951E-03     361.340E-03    -156.117E-03     75.6059E-03
            2291     11.5841E-03     12.0671E-03    -26.8503E+06     59.9542E+06     66.4324E+06    -2.56110E+06    -201.117E-03     354.475E-03    -153.359E-03     83.5786E-03    -203.703E-03     356.989E-03    -153.075E-03     69.9074E-03
            2292     10.8477E-03     11.9299E-03    -33.0688E+06     47.4388E+06     56.9613E+06    -2.83127E+06    -198.128E-03     348.118E-03    -149.989E-03     74.4635E-03    -200.432E-03     350.310E-03    -149.725E-03     61.7891E-03
            2293     10.1096E-03     11.7984E-03    -40.1063E+06     26.1477E+06     48.5480E+06    -2.67234E+06    -193.549E-03     339.941E-03    -146.393E-03     63.8450E-03    -195.519E-03     341.725E-03    -146.130E-03     52.4211E-03
            2294     9.36833E-03     11.6767E-03    -47.3518E+06    -12.8813E+06     36.3913E+06    -214.846E+03    -186.797E-03     329.455E-03    -142.658E-03     52.3323E-03    -188.389E-03     330.732E-03    -142.389E-03     42.4122E-03
            2295     8.62016E-03     11.5686E-03    -54.5575E+06    -54.9210E+06     22.1622E+06     2.50768E+06    -178.347E-03     317.262E-03    -138.915E-03     40.9597E-03    -179.565E-03     318.031E-03    -138.645E-03     32.6750E-03
            2296     7.86545E-03     11.4743E-03    -61.8355E+06    -90.6538E+06     8.33518E+06     4.28775E+06    -169.529E-03     304.802E-03    -135.273E-03     31.0503E-03    -170.438E-03     305.150E-03    -135.011E-03     24.2839E-03
            2297     7.10393E-03     11.3936E-03    -69.1879E+06    -123.909E+06    -5.44356E+06     5.68353E+06    -160.623E-03     292.432E-03    -131.809E-03     23.0684E-03    -161.288E-03     292.430E-03    -131.556E-03     17.6568E-03
            2298     6.33526E-03     11.3232E-03    -76.7227E+06    -153.446E+06    -18.8508E+06     6.71087E+06    -151.908E-03     280.499E-03    -128.591E-03     16.9468E-03    -152.390E-03     280.220E-03    -128.352E-03     12.7033E-03
            2299     5.55982E-03     11.2643E-03    -84.8175E+06    -182.679E+06    -32.3274E+06     7.53256E+06    -143.867E-03     269.540E-03    -125.673E-03     12.3985E-03    -144.213E-03     269.031E-03    -125.447E-03     9.12516E-03
            2300     4.77814E-03     11.2144E-03    -92.9038E+06    -206.640E+06    -47.7668E+06     7.72157E+06    -136.626E-03     259.694E-03    -123.068E-03     9.00754E-03    -136.873E-03     259.016E-03    -122.872E-03     6.52404E-03
            2301     3.99052E-03     11.1725E-03    -100.452E+06    -226.990E+06    -64.3383E+06     7.46123E+06    -130.275E-03     251.088E-03    -120.813E-03     6.60117E-03    -130.450E-03     250.286E-03    -120.660E-03     4.76143E-03
            2302     3.19858E-03     11.1385E-03    -107.992E+06    -245.221E+06    -80.8601E+06     6.56498E+06    -124.947E-03     243.894E-03    -118.947E-03     4.85661E-03    -125.070E-03     242.996E-03    -118.839E-03     3.52951E-03
            2303     2.40207E-03     11.1120E-03    -114.449E+06    -258.126E+06    -96.8333E+06     5.22769E+06    -120.744E-03     238.241E-03    -117.497E-03     3.39104E-03    -120.832E-03     237.285E-03    -117.441E-03     2.47413E-03
            2304     1.60309E-03     11.0923E-03    -119.372E+06    -267.669E+06    -110.273E+06     3.88688E+06    -117.873E-03     234.348E-03    -116.475E-03     2.29959E-03    -117.936E-03     233.354E-03    -116.465E-03     1.72189E-03
            2305     801.858E-06     11.0813E-03    -122.789E+06    -273.913E+06    -120.464E+06     2.28849E+06    -116.195E-03     232.059E-03    -115.863E-03     1.40318E-03    -116.243E-03     231.045E-03    -115.890E-03     1.10288E-03
            2306     14.5319E-03     11.2321E-03    -4.74915E+06     86.4057E+06     94.9822E+06    -1.15688E+06    -200.126E-03     363.002E-03    -162.877E-03     73.3780E-03    -202.309E-03     365.200E-03    -162.520E-03     60.9358E-03
            2307     13.7979E-03     11.1136E-03    -10.1478E+06     84.2073E+06     96.3954E+06    -1.88584E+06    -205.716E-03     366.374E-03    -160.658E-03     94.7821E-03    -208.696E-03     369.337E-03    -160.283E-03     79.6154E-03
            2308     13.0711E-03     10.9826E-03    -14.4529E+06     78.9221E+06     93.0995E+06    -2.04416E+06    -208.326E-03     366.251E-03    -157.925E-03     91.7362E-03    -211.222E-03     369.107E-03    -157.553E-03     76.7071E-03
            2309     12.3390E-03     10.8501E-03    -21.1536E+06     69.7357E+06     79.8083E+06    -1.93765E+06    -208.710E-03     363.425E-03    -154.715E-03     87.5170E-03    -211.549E-03     366.207E-03    -154.387E-03     72.6048E-03
            2310     11.6097E-03     10.7139E-03    -28.1843E+06     59.4345E+06     63.9777E+06    -1.93257E+06    -206.945E-03     358.052E-03    -151.107E-03     78.9599E-03    -209.546E-03     360.582E-03    -150.832E-03     64.8181E-03
            2311     10.8793E-03     10.5885E-03    -34.9989E+06     48.9369E+06     53.8805E+06    -1.86378E+06    -203.008E-03     350.215E-03    -147.207E-03     68.7104E-03    -205.307E-03     352.410E-03    -146.957E-03     55.7012E-03
            2312     10.1448E-03     10.4674E-03    -42.3423E+06     25.2108E+06     44.0167E+06    -1.15244E+06    -196.500E-03     339.615E-03    -143.115E-03     57.5223E-03    -198.443E-03     341.374E-03    -142.870E-03     45.9754E-03
            2313     9.40382E-03     10.3629E-03    -49.7270E+06    -15.9357E+06     31.1922E+06     638.288E+03    -187.668E-03     326.645E-03    -138.977E-03     45.8037E-03    -189.217E-03     327.875E-03    -138.726E-03     35.9469E-03
            2314     8.65621E-03     10.2715E-03    -56.9242E+06    -56.1544E+06     17.9264E+06     2.98953E+06    -177.765E-03     312.688E-03    -134.924E-03     35.6542E-03    -178.957E-03     313.431E-03    -134.670E-03     27.5004E-03
            2315     7.90045E-03     10.1949E-03    -64.0856E+06    -90.9192E+06     4.83769E+06     4.88761E+06    -167.669E-03     298.718E-03    -131.049E-03     27.3142E-03    -168.571E-03     299.059E-03    -130.800E-03     20.7082E-03
            2316     7.13705E-03     10.1293E-03    -71.3631E+06    -123.248E+06    -8.22721E+06     6.19761E+06    -157.848E-03     285.270E-03    -127.422E-03     21.0368E-03    -158.521E-03     285.279E-03    -127.181E-03     15.7767E-03
            2317     6.36576E-03     10.0764E-03    -78.7928E+06    -152.623E+06    -21.4338E+06     7.22159E+06    -148.543E-03     272.635E-03    -124.092E-03     16.4488E-03    -149.042E-03     272.377E-03    -123.863E-03     12.3279E-03
            2318     5.58681E-03     10.0303E-03    -85.7438E+06    -180.443E+06    -34.2403E+06     7.72977E+06    -140.078E-03     261.173E-03    -121.095E-03     13.1433E-03    -140.441E-03     260.692E-03    -120.880E-03     9.96233E-03
            2319     4.80187E-03     9.99308E-03    -92.6579E+06    -203.994E+06    -48.1552E+06     7.72119E+06    -132.637E-03     251.070E-03    -118.433E-03     10.6545E-03    -132.900E-03     250.420E-03    -118.244E-03     8.23110E-03
            2320     4.01122E-03     9.96214E-03    -99.8465E+06    -223.727E+06    -63.1168E+06     7.68618E+06    -126.156E-03     242.275E-03    -116.118E-03     8.68135E-03    -126.345E-03     241.498E-03    -115.965E-03     6.88014E-03
            2321     3.21492E-03     9.93707E-03    -106.553E+06    -240.058E+06    -78.9157E+06     6.72905E+06    -120.698E-03     234.866E-03    -114.168E-03     6.84567E-03    -120.832E-03     233.998E-03    -114.060E-03     5.53981E-03
            2322     2.41525E-03     9.91734E-03    -112.620E+06    -253.270E+06    -94.8168E+06     4.99491E+06    -116.368E-03     228.966E-03    -112.598E-03     4.95360E-03    -116.461E-03     228.034E-03    -112.542E-03     4.04558E-03
            2323     1.61147E-03     9.90350E-03    -117.394E+06    -262.561E+06    -108.148E+06     3.44625E+06    -113.179E-03     224.604E-03    -111.425E-03     3.25538E-03    -113.244E-03     223.633E-03    -111.415E-03     2.68016E-03
            2324     806.698E-06     9.89288E-03    -120.284E+06    -268.198E+06    -117.500E+06     2.13784E+06    -111.169E-03     221.818E-03    -110.649E-03     1.95718E-03    -111.217E-03     220.826E-03    -110.673E-03     1.65826E-03
            2325     14.5354E-03     9.86138E-03    -3.96331E+06     88.8938E+06     97.1781E+06    -755.734E+03    -206.990E-03     369.536E-03    -162.547E-03     71.3645E-03    -209.220E-03     371.786E-03    -162.184E-03     58.3383E-03
            2326     13.8105E-03     9.73625E-03    -10.6235E+06     85.8089E+06     97.0840E+06    -2.61857E+06    -211.793E-03     371.744E-03    -159.950E-03     93.2139E-03    -214.886E-03     374.822E-03    -159.574E-03     77.2512E-03
            2327     13.0822E-03     9.61399E-03    -17.3504E+06     77.8453E+06     91.4102E+06    -2.87109E+06    -214.914E-03     371.722E-03    -156.808E-03     91.2476E-03    -217.943E-03     374.702E-03    -156.439E-03     75.4292E-03
            2328     12.3603E-03     9.48134E-03    -23.4875E+06     69.3150E+06     78.2854E+06    -1.58662E+06    -214.649E-03     367.802E-03    -153.153E-03     85.7550E-03    -217.605E-03     370.696E-03    -152.828E-03     70.1610E-03
            2329     11.6350E-03     9.35892E-03    -29.3236E+06     59.2792E+06     61.9191E+06    -913.038E+03    -211.733E-03     360.834E-03    -149.100E-03     76.5047E-03    -214.411E-03     363.441E-03    -148.834E-03     61.8715E-03
            2330     10.9061E-03     9.24028E-03    -35.6759E+06     47.6712E+06     50.5467E+06     114.184E+03    -205.879E-03     350.684E-03    -144.805E-03     65.5389E-03    -208.214E-03     352.919E-03    -144.570E-03     52.2755E-03
            2331     10.1731E-03     9.13882E-03    -43.3210E+06     24.4926E+06     40.4324E+06     1.79470E+06    -196.846E-03     337.282E-03    -140.437E-03     54.5364E-03    -198.806E-03     339.064E-03    -140.207E-03     42.9921E-03
            2332     9.43237E-03     9.05104E-03    -51.5728E+06    -16.6743E+06     27.7233E+06     3.09399E+06    -186.241E-03     322.401E-03    -136.160E-03     44.7799E-03    -187.817E-03     323.660E-03    -135.923E-03     35.0439E-03
            2333     8.68282E-03     8.98051E-03    -59.5811E+06    -57.4451E+06     14.4812E+06     4.26824E+06    -175.187E-03     307.265E-03    -132.078E-03     36.9543E-03    -176.423E-03     308.049E-03    -131.836E-03     28.9303E-03
            2334     7.92474E-03     8.92110E-03    -66.9134E+06    -90.9056E+06     2.56065E+06     5.30719E+06    -164.183E-03     292.457E-03    -128.274E-03     31.2591E-03    -165.143E-03     292.853E-03    -128.033E-03     24.7808E-03
            2335     7.15751E-03     8.87514E-03    -73.6846E+06    -122.779E+06    -9.57099E+06     5.89554E+06    -153.999E-03     278.796E-03    -124.798E-03     27.1711E-03    -154.735E-03     278.866E-03    -124.561E-03     21.9966E-03
            2336     6.38274E-03     8.83571E-03    -79.6994E+06    -151.581E+06    -21.7062E+06     6.14850E+06    -144.933E-03     266.587E-03    -121.654E-03     24.1488E-03    -145.489E-03     266.387E-03    -121.427E-03     20.0600E-03
            2337     5.60151E-03     8.80620E-03    -85.7272E+06    -178.906E+06    -33.2264E+06     6.51810E+06    -136.808E-03     255.657E-03    -118.849E-03     21.6512E-03    -137.219E-03     255.228E-03    -118.632E-03     18.4683E-03
            2338     4.81294E-03     8.77979E-03    -92.2441E+06    -201.822E+06    -45.9981E+06     6.77731E+06    -129.683E-03     246.061E-03    -116.377E-03     19.2927E-03    -129.985E-03     245.453E-03    -116.181E-03     16.8565E-03
            2339     4.01942E-03     8.76018E-03    -98.4653E+06    -220.644E+06    -59.7925E+06     6.08606E+06    -123.696E-03     237.926E-03    -114.230E-03     16.8387E-03    -123.912E-03     237.184E-03    -114.067E-03     15.0013E-03
            2340     3.22194E-03     8.74332E-03    -104.363E+06    -235.848E+06    -74.1436E+06     5.18617E+06    -118.635E-03     231.042E-03    -112.407E-03     14.2200E-03    -118.787E-03     230.202E-03    -112.284E-03     12.8773E-03
            2341     2.41992E-03     8.73141E-03    -109.815E+06    -248.141E+06    -89.4664E+06     4.01039E+06    -114.596E-03     225.506E-03    -110.910E-03     11.3854E-03    -114.699E-03     224.598E-03    -110.839E-03     10.4511E-03
            2342     1.61625E-03     8.72162E-03    -114.506E+06    -258.394E+06    -104.248E+06     2.12840E+06    -111.578E-03     221.317E-03    -109.739E-03     8.10733E-03    -111.645E-03     220.363E-03    -109.720E-03     7.50563E-03
            2343     808.317E-06     8.71760E-03    -117.036E+06    -264.254E+06    -114.313E+06     867.102E+03    -109.625E-03     218.421E-03    -108.797E-03     4.51033E-03    -109.667E-03     217.442E-03    -108.815E-03     4.19049E-03
            2344     14.5513E-03     8.48926E-03    -5.53655E+06     90.0098E+06     97.2531E+06    -1.16179E+06    -213.900E-03     376.146E-03    -162.246E-03     78.7762E-03    -216.340E-03     378.604E-03    -161.882E-03     64.9486E-03
            2345     13.8179E-03     8.36232E-03    -9.65791E+06     88.2698E+06     99.0769E+06    -253.449E+03    -217.094E-03     376.419E-03    -159.325E-03     99.0239E-03    -220.408E-03     379.724E-03    -158.944E-03     82.4110E-03
            2346     13.0980E-03     8.23107E-03    -17.0162E+06     78.0080E+06     91.1501E+06    -532.690E+03    -219.291E-03     375.169E-03    -155.878E-03     93.0100E-03    -222.481E-03     378.313E-03    -155.511E-03     76.6391E-03
            2347     12.3754E-03     8.11189E-03    -24.4349E+06     67.9613E+06     75.4282E+06    -1.01380E+06    -218.842E-03     370.751E-03    -151.909E-03     86.2015E-03    -221.935E-03     373.782E-03    -151.595E-03     70.0491E-03
            2348     11.6523E-03     7.99448E-03    -31.1539E+06     57.7536E+06     58.7189E+06     107.876E+03    -214.092E-03     361.670E-03    -147.578E-03     75.5041E-03    -216.858E-03     364.365E-03    -147.323E-03     60.5603E-03
            2349     10.9267E-03     7.89480E-03    -38.5565E+06     44.0924E+06     47.1715E+06     2.61605E+06    -204.780E-03     347.937E-03    -143.157E-03     64.5341E-03    -207.161E-03     350.206E-03    -142.929E-03     51.3608E-03
            2350     10.1911E-03     7.81201E-03    -46.4805E+06     22.9681E+06     37.5881E+06     5.13944E+06    -193.118E-03     331.986E-03    -138.868E-03     56.0804E-03    -195.122E-03     333.803E-03    -138.646E-03     44.8622E-03
            2351     9.44624E-03     7.74634E-03    -54.7207E+06    -15.6118E+06     26.5251E+06     6.08003E+06    -181.032E-03     315.890E-03    -134.858E-03     50.2080E-03    -182.672E-03     317.209E-03    -134.623E-03     40.8550E-03
            2352     8.69261E-03     7.69445E-03    -62.3306E+06    -56.2723E+06     14.6059E+06     5.35391E+06    -169.410E-03     300.591E-03    -131.181E-03     46.2071E-03    -170.728E-03     301.451E-03    -130.936E-03     38.5118E-03
            2353     7.92934E-03     7.65654E-03    -68.9491E+06    -90.1824E+06     3.37110E+06     4.49818E+06    -158.787E-03     286.648E-03    -127.861E-03     43.6220E-03    -159.836E-03     287.127E-03    -127.614E-03     37.3611E-03
            2354     7.15840E-03     7.62537E-03    -74.7732E+06    -122.008E+06    -7.18793E+06     4.03053E+06    -149.399E-03     274.306E-03    -124.907E-03     41.5801E-03    -150.220E-03     274.453E-03    -124.657E-03     36.5379E-03
            2355     6.38006E-03     7.60305E-03    -80.5168E+06    -150.643E+06    -17.4334E+06     3.65609E+06    -141.306E-03     263.604E-03    -122.298E-03     39.5261E-03    -141.938E-03     263.469E-03    -122.050E-03     35.5043E-03
            2356     5.59527E-03     7.58370E-03    -86.3425E+06    -178.621E+06    -28.0556E+06     3.41990E+06    -134.438E-03     254.446E-03    -120.008E-03     37.0968E-03    -134.914E-03     254.064E-03    -119.764E-03     33.9233E-03
            2357     4.80646E-03     7.57108E-03    -91.4980E+06    -199.788E+06    -39.9801E+06     3.03594E+06    -128.524E-03     246.530E-03    -118.005E-03     34.2208E-03    -128.873E-03     245.962E-03    -117.783E-03     31.7634E-03
            2358     4.01234E-03     7.55862E-03    -96.4668E+06    -218.245E+06    -53.3159E+06     2.20446E+06    -123.524E-03     239.820E-03    -116.296E-03     30.5385E-03    -123.772E-03     239.106E-03    -116.106E-03     28.6667E-03
            2359     3.21425E-03     7.55130E-03    -101.450E+06    -233.696E+06    -67.5388E+06     1.41325E+06    -119.485E-03     234.364E-03    -114.879E-03     26.0004E-03    -119.655E-03     233.538E-03    -114.730E-03     24.6158E-03
            2360     2.41355E-03     7.54418E-03    -106.420E+06    -245.256E+06    -83.1081E+06     699.611E+03    -116.288E-03     230.041E-03    -113.754E-03     20.8448E-03    -116.399E-03     229.143E-03    -113.659E-03     19.8716E-03
            2361     1.60921E-03     7.54052E-03    -110.765E+06    -256.054E+06    -99.1354E+06     192.039E+03    -114.072E-03     226.999E-03    -112.927E-03     14.7904E-03    -114.137E-03     226.047E-03    -112.891E-03     14.1631E-03
            2362     805.862E-06     7.53714E-03    -113.973E+06    -263.324E+06    -110.683E+06    -245.523E+03    -112.938E-03     225.110E-03    -112.172E-03     8.38574E-03    -112.975E-03     224.126E-03    -112.178E-03     8.04743E-03
            2363     14.5348E-03     7.09736E-03    -4.97293E+06     89.9464E+06     95.8930E+06    -939.194E+03    -217.968E-03     380.151E-03    -162.183E-03     82.3413E-03    -220.560E-03     382.767E-03    -161.827E-03     67.9174E-03
            2364     13.8261E-03     6.97248E-03    -11.2970E+06     85.9154E+06     95.9028E+06     30.7892E+03    -222.340E-03     381.356E-03    -159.016E-03     104.761E-03    -225.928E-03     384.930E-03    -158.645E-03     87.3093E-03
            2365     13.1037E-03     6.85303E-03    -17.1896E+06     78.8988E+06     90.5161E+06     1.60302E+06    -223.936E-03     379.228E-03    -155.292E-03     96.8354E-03    -227.322E-03     382.572E-03    -154.929E-03     79.8384E-03
            2366     12.3850E-03     6.73121E-03    -24.3253E+06     67.7997E+06     75.4607E+06     2.38918E+06    -220.179E-03     371.302E-03    -151.124E-03     84.7353E-03    -223.315E-03     374.379E-03    -150.810E-03     68.4812E-03
            2367     11.6652E-03     6.63206E-03    -32.9727E+06     54.4894E+06     57.4250E+06     3.95514E+06    -210.428E-03     357.253E-03    -146.825E-03     74.2184E-03    -213.184E-03     359.925E-03    -146.569E-03     59.7210E-03
            2368     10.9329E-03     6.55380E-03    -41.6975E+06     40.7132E+06     46.3896E+06     6.27842E+06    -197.410E-03     340.155E-03    -142.745E-03     67.9494E-03    -199.779E-03     342.392E-03    -142.511E-03     55.5821E-03
            2369     10.1918E-03     6.49410E-03    -49.7760E+06     21.4296E+06     38.5086E+06     7.70493E+06    -184.116E-03     323.165E-03    -139.049E-03     65.1449E-03    -186.131E-03     324.975E-03    -138.815E-03     54.8186E-03
            2370     9.44017E-03     6.45015E-03    -56.5970E+06    -12.3860E+06     30.4316E+06     6.70936E+06    -171.695E-03     307.497E-03    -135.802E-03     63.6546E-03    -173.368E-03     308.843E-03    -135.550E-03     55.1206E-03
            2371     8.67796E-03     6.41864E-03    -62.6088E+06    -53.1140E+06     20.8499E+06     3.99100E+06    -160.954E-03     293.946E-03    -132.993E-03     63.3700E-03    -162.319E-03     294.846E-03    -132.721E-03     56.3322E-03
            2372     7.90893E-03     6.39598E-03    -68.1453E+06    -88.9573E+06     11.0028E+06     1.79066E+06    -152.253E-03     282.814E-03    -130.562E-03     62.7635E-03    -153.350E-03     283.326E-03    -130.279E-03     56.9787E-03
            2373     7.13307E-03     6.38061E-03    -73.4886E+06    -120.872E+06     2.12100E+06     187.338E+03    -144.974E-03     273.436E-03    -128.462E-03     61.5145E-03    -145.842E-03     273.611E-03    -128.170E-03     56.7950E-03
            2374     6.35212E-03     6.36893E-03    -78.6388E+06    -150.792E+06    -6.86436E+06    -977.358E+03    -138.914E-03     265.574E-03    -126.660E-03     59.1626E-03    -139.586E-03     265.453E-03    -126.362E-03     55.3465E-03
            2375     5.56697E-03     6.36143E-03    -83.4784E+06    -178.015E+06    -17.5039E+06    -2.07653E+06    -133.970E-03     259.087E-03    -125.118E-03     55.5425E-03    -134.474E-03     258.714E-03    -124.826E-03     52.4860E-03
            2376     4.77717E-03     6.35521E-03    -88.2344E+06    -198.822E+06    -30.3066E+06    -3.59534E+06    -129.979E-03     253.778E-03    -123.799E-03     50.7817E-03    -130.349E-03     253.215E-03    -123.534E-03     48.3532E-03
            2377     3.98516E-03     6.35202E-03    -92.5888E+06    -218.776E+06    -46.6689E+06    -4.21758E+06    -126.733E-03     249.424E-03    -122.691E-03     44.7935E-03    -126.986E-03     248.704E-03    -122.473E-03     42.9052E-03
            2378     3.19069E-03     6.34851E-03    -97.1047E+06    -234.469E+06    -64.1349E+06    -3.85983E+06    -124.256E-03     246.045E-03    -121.789E-03     37.5084E-03    -124.419E-03     245.211E-03    -121.629E-03     36.0880E-03
            2379     2.39423E-03     6.34724E-03    -101.799E+06    -246.742E+06    -80.8375E+06    -3.02596E+06    -122.437E-03     243.519E-03    -121.082E-03     29.0587E-03    -122.534E-03     242.606E-03    -120.981E-03     28.0432E-03
            2380     1.59761E-03     6.34518E-03    -106.445E+06    -257.439E+06    -96.4245E+06    -1.54272E+06    -121.054E-03     241.650E-03    -120.596E-03     19.9808E-03    -121.104E-03     240.680E-03    -120.550E-03     19.3291E-03
            2381     797.823E-06     6.34474E-03    -109.971E+06    -264.293E+06    -107.232E+06    -513.134E+03    -120.319E-03     240.760E-03    -120.441E-03     11.0470E-03    -120.342E-03     239.758E-03    -120.435E-03     10.7057E-03
            2382     14.5535E-03     5.70969E-03    -5.28148E+06     88.9151E+06     94.1374E+06     1.12144E+06    -221.361E-03     383.729E-03    -162.368E-03     92.9937E-03    -224.188E-03     386.578E-03    -162.018E-03     78.0804E-03
            2383     13.8186E-03     5.58481E-03    -13.1056E+06     83.7599E+06     92.4504E+06     2.16751E+06    -227.645E-03     386.635E-03    -158.990E-03     107.817E-03    -231.348E-03     390.319E-03    -158.630E-03     89.9029E-03
            2384     13.1077E-03     5.45305E-03    -19.7165E+06     77.7831E+06     87.6993E+06     2.40935E+06    -225.105E-03     380.199E-03    -155.093E-03     94.2103E-03    -228.470E-03     383.520E-03    -154.739E-03     77.2660E-03
            2385     12.3932E-03     5.35766E-03    -26.5202E+06     64.5654E+06     75.4564E+06     4.72568E+06    -213.620E-03     364.715E-03    -151.095E-03     85.0999E-03    -216.670E-03     367.687E-03    -150.773E-03     69.8053E-03
            2386     11.6611E-03     5.27832E-03    -33.4079E+06     51.0826E+06     60.7478E+06      7.8699E+06    -198.520E-03     345.922E-03    -147.402E-03     80.3842E-03    -201.130E-03     348.427E-03    -147.124E-03     67.4881E-03
            2387     10.9206E-03     5.22810E-03    -40.1993E+06     39.7913E+06     52.7105E+06     9.15459E+06    -183.769E-03     328.015E-03    -144.245E-03     79.6307E-03    -185.982E-03     330.081E-03    -143.981E-03     68.9956E-03
            2388     10.1665E-03     5.18860E-03    -46.7000E+06     23.9026E+06     49.3171E+06     7.65994E+06    -170.921E-03     312.578E-03    -141.657E-03     81.3116E-03    -172.807E-03     314.248E-03    -141.378E-03     72.5601E-03
            2389     9.40402E-03     5.16512E-03    -52.5700E+06    -8.48953E+06     43.4206E+06     4.26522E+06    -160.727E-03     300.297E-03    -139.570E-03     82.5168E-03    -162.292E-03     301.526E-03    -139.265E-03     75.3009E-03
            2390     8.63490E-03     5.14920E-03    -58.4915E+06    -50.2325E+06     34.2844E+06     972.352E+03    -153.057E-03     290.938E-03    -137.881E-03     82.9419E-03    -154.332E-03     291.732E-03    -137.552E-03     76.9516E-03
            2391     7.85982E-03     5.13799E-03    -64.4356E+06    -85.8676E+06     25.6153E+06    -2.99128E+06    -147.262E-03     283.761E-03    -136.499E-03     81.4013E-03    -148.291E-03     284.184E-03    -136.153E-03     76.3998E-03
            2392     7.08166E-03     5.13261E-03    -68.9957E+06    -119.450E+06     16.0852E+06    -7.21448E+06    -142.929E-03     278.283E-03    -135.354E-03     78.3355E-03    -143.739E-03     278.377E-03    -135.000E-03     74.1458E-03
            2393     6.30014E-03     5.12869E-03    -72.2609E+06    -152.555E+06     3.73005E+06    -9.40086E+06    -139.581E-03     273.972E-03    -134.392E-03     73.9691E-03    -140.193E-03     273.774E-03    -134.047E-03     70.4841E-03
            2394     5.51620E-03     5.12768E-03    -75.5208E+06    -178.724E+06    -10.1265E+06    -10.2570E+06    -137.028E-03     270.611E-03    -133.583E-03     67.9926E-03    -137.475E-03     270.181E-03    -133.265E-03     65.1239E-03
            2395     4.73121E-03     5.12673E-03    -79.6633E+06    -201.445E+06    -26.6412E+06    -10.4413E+06    -135.087E-03     267.993E-03    -132.906E-03     60.7385E-03    -135.400E-03     267.379E-03    -132.632E-03     58.4002E-03
            2396     3.94434E-03     5.12713E-03    -85.2198E+06    -223.981E+06    -47.0807E+06    -8.92949E+06    -133.734E-03     266.067E-03    -132.333E-03     52.3193E-03    -133.933E-03     265.297E-03    -132.120E-03     50.4616E-03
            2397     3.15647E-03     5.12725E-03    -91.5150E+06    -239.370E+06    -66.5409E+06    -6.32685E+06    -132.696E-03     264.554E-03    -131.858E-03     43.0574E-03    -132.816E-03     263.683E-03    -131.711E-03     41.6427E-03
            2398     2.36842E-03     5.12718E-03    -97.7008E+06    -252.032E+06    -83.3094E+06    -3.61999E+06    -131.948E-03     263.432E-03    -131.484E-03     33.0741E-03    -132.013E-03     262.486E-03    -131.393E-03     32.0559E-03
            2399     1.57867E-03     5.12814E-03    -102.377E+06    -261.000E+06    -95.8368E+06    -1.49517E+06    -131.472E-03     262.661E-03    -131.189E-03     22.6429E-03    -131.498E-03     261.664E-03    -131.141E-03     21.9843E-03
            2400     790.425E-06     5.12784E-03    -105.167E+06    -265.757E+06    -103.484E+06    -346.655E+03    -130.909E-03     262.037E-03    -131.128E-03     12.4115E-03    -130.914E-03     261.014E-03    -131.108E-03     12.0699E-03
            2401     14.5186E-03     4.31240E-03    -5.37013E+06     86.4582E+06     91.5838E+06     2.61607E+06    -227.618E-03     390.421E-03    -162.802E-03     99.8534E-03    -230.427E-03     393.250E-03    -162.462E-03     85.1107E-03
            2402     13.8257E-03     4.16798E-03    -10.3201E+06     82.9051E+06     92.2636E+06     3.94853E+06    -227.743E-03     387.048E-03    -159.304E-03     109.036E-03    -231.324E-03     390.621E-03    -158.948E-03     91.8235E-03
            2403     13.1098E-03     4.07220E-03    -16.6579E+06     75.7708E+06     87.9000E+06     5.92654E+06    -215.055E-03     370.773E-03    -155.718E-03     97.5410E-03    -218.198E-03     373.879E-03    -155.365E-03     82.3349E-03
            2404     12.3748E-03     3.99219E-03    -24.5391E+06     60.8144E+06     77.8039E+06     7.44670E+06    -197.550E-03     350.107E-03    -152.557E-03     93.9944E-03    -200.244E-03     352.713E-03    -152.221E-03     81.2686E-03
            2405     11.6337E-03     3.94957E-03    -30.9963E+06     49.7546E+06     68.3881E+06     7.65871E+06    -181.655E-03     331.687E-03    -150.031E-03     93.4688E-03    -183.865E-03     333.774E-03    -149.716E-03     83.2464E-03
            2406     10.8757E-03     3.91528E-03    -35.4508E+06     41.5775E+06     64.3127E+06     6.65578E+06    -168.873E-03     317.015E-03    -148.142E-03     95.0102E-03    -170.705E-03     318.689E-03    -147.829E-03     86.8053E-03
            2407     10.1123E-03     3.89931E-03    -39.9342E+06     28.2234E+06     64.3132E+06     4.73600E+06    -159.642E-03     306.440E-03    -146.797E-03     95.6240E-03    -161.171E-03     307.745E-03    -146.459E-03     88.9418E-03
            2408     9.34081E-03     3.88516E-03    -46.3295E+06    -4.08966E+06     58.5017E+06     823.682E+03    -153.578E-03     299.413E-03    -145.835E-03     94.3990E-03    -154.838E-03     300.327E-03    -145.469E-03     88.8366E-03
            2409     8.56740E-03     3.87875E-03    -51.5860E+06    -45.3718E+06     45.4085E+06    -5.38503E+06    -149.660E-03     294.770E-03    -145.110E-03     91.3768E-03    -150.669E-03     295.303E-03    -144.742E-03     86.6396E-03
            2410     7.79189E-03     3.87462E-03    -54.2279E+06    -81.1863E+06     31.9899E+06    -11.8118E+06    -146.936E-03     291.495E-03    -144.559E-03     87.1932E-03    -147.727E-03     291.712E-03    -144.203E-03     83.0982E-03
            2411     7.01453E-03     3.87308E-03    -56.9980E+06    -120.612E+06     18.1484E+06    -15.7176E+06    -145.278E-03     289.426E-03    -144.148E-03     81.4591E-03    -145.875E-03     289.337E-03    -143.800E-03     77.9120E-03
            2412     6.23655E-03     3.87394E-03    -61.3216E+06    -156.461E+06     332.294E+03    -16.7864E+06    -144.214E-03     288.022E-03    -143.809E-03     74.8531E-03    -144.646E-03     287.676E-03    -143.491E-03     71.8105E-03
            2413     5.45817E-03     3.87438E-03    -66.3930E+06    -184.273E+06    -18.0669E+06    -16.1426E+06    -143.529E-03     287.058E-03    -143.528E-03     67.4723E-03    -143.831E-03     286.516E-03    -143.255E-03     64.8948E-03
            2414     4.67870E-03     3.87677E-03    -72.4661E+06    -211.508E+06    -35.8513E+06    -12.4542E+06    -143.198E-03     286.499E-03    -143.301E-03     59.2298E-03    -143.393E-03     285.782E-03    -143.069E-03     57.1045E-03
            2415     3.89933E-03     3.87766E-03    -80.1203E+06    -233.039E+06    -54.1892E+06    -7.26084E+06    -142.959E-03     286.060E-03    -143.101E-03     50.3950E-03    -143.075E-03     285.213E-03    -142.917E-03     48.7090E-03
            2416     3.12018E-03     3.87953E-03    -87.7076E+06    -246.278E+06    -71.0724E+06    -3.39674E+06    -142.782E-03     285.712E-03    -142.930E-03     41.0816E-03    -142.846E-03     284.787E-03    -142.802E-03     39.7937E-03
            2417     2.33963E-03     3.88087E-03    -93.7952E+06    -256.885E+06    -85.1281E+06    -1.18435E+06    -142.690E-03     285.492E-03    -142.802E-03     31.3823E-03    -142.714E-03     284.508E-03    -142.719E-03     30.4475E-03
            2418     1.56048E-03     3.88130E-03    -97.9080E+06    -263.394E+06    -93.9284E+06    -258.394E+03    -142.713E-03     285.411E-03    -142.698E-03     21.4230E-03    -142.711E-03     284.388E-03    -142.644E-03     20.8040E-03
            2419     779.745E-06     3.88241E-03    -99.8499E+06    -266.468E+06    -98.7215E+06     35.2087E+03    -142.656E-03     285.225E-03    -142.569E-03     11.7256E-03    -142.639E-03     284.182E-03    -142.531E-03     11.3907E-03
            2420     14.5447E-03     2.90027E-03    -5.46582E+06     83.6636E+06     89.6341E+06     1.97643E+06    -233.212E-03     397.429E-03    -164.218E-03     130.005E-03    -236.402E-03     400.640E-03    -163.883E-03     115.176E-03
            2421     13.8089E-03     2.77430E-03    -7.43612E+06     78.1435E+06     91.7276E+06     4.93784E+06    -219.828E-03     380.719E-03    -160.891E-03     125.734E-03    -223.251E-03     384.129E-03    -160.535E-03     110.531E-03
            2422     13.0764E-03     2.70019E-03    -13.5707E+06     72.2501E+06     89.7368E+06     8.34599E+06    -199.265E-03     357.344E-03    -158.079E-03     108.365E-03    -201.769E-03     359.806E-03    -157.716E-03     96.7172E-03
            2423     12.3344E-03     2.66049E-03    -19.3184E+06     62.3299E+06     84.5926E+06     8.41970E+06    -181.840E-03     337.857E-03    -156.017E-03     102.179E-03    -183.759E-03     339.690E-03    -155.656E-03     93.2684E-03
            2424     11.5721E-03     2.63148E-03    -24.6635E+06     53.3233E+06     74.8889E+06     5.85140E+06    -169.197E-03     323.801E-03    -154.604E-03     97.7778E-03    -170.687E-03     325.179E-03    -154.271E-03     90.9103E-03
            2425     10.8089E-03     2.61972E-03    -30.7530E+06     44.8217E+06     64.8741E+06     3.10539E+06    -161.283E-03     314.976E-03    -153.693E-03     94.1141E-03    -162.490E-03     316.046E-03    -153.389E-03     88.6240E-03
            2426     10.0380E-03     2.60723E-03    -36.2303E+06     31.4569E+06     57.0819E+06     564.578E+03    -156.516E-03     309.650E-03    -153.135E-03     89.4160E-03    -157.510E-03     310.462E-03    -152.842E-03     84.8920E-03
            2427     9.26885E-03     2.60261E-03    -39.9376E+06     3.34088E+06     44.9766E+06    -4.93630E+06    -153.599E-03     306.399E-03    -152.800E-03     84.2312E-03    -154.404E-03     306.943E-03    -152.522E-03     80.3464E-03
            2428     8.49640E-03     2.59752E-03    -42.7251E+06    -37.0336E+06     27.1404E+06    -13.4960E+06    -151.916E-03     304.527E-03    -152.612E-03     78.5134E-03    -152.535E-03     304.783E-03    -152.360E-03     75.0671E-03
            2429     7.72378E-03     2.59744E-03    -46.0840E+06    -81.4358E+06     8.06369E+06    -18.5930E+06    -151.096E-03     303.627E-03    -152.531E-03     72.6325E-03    -151.551E-03     303.603E-03    -152.306E-03     69.5577E-03
            2430     6.95073E-03     2.59639E-03    -51.2177E+06    -127.180E+06    -7.29505E+06    -18.2897E+06    -150.803E-03     303.347E-03    -152.544E-03     66.5123E-03    -151.126E-03     303.054E-03    -152.322E-03     63.8044E-03
            2431     6.17808E-03     2.59817E-03    -57.7569E+06    -163.319E+06    -21.3788E+06    -16.5231E+06    -150.918E-03     303.508E-03    -152.590E-03     60.0624E-03    -151.142E-03     303.004E-03    -152.376E-03     57.7080E-03
            2432     5.40473E-03     2.59989E-03    -65.9006E+06    -195.305E+06    -36.9345E+06    -13.1175E+06    -151.188E-03     303.829E-03    -152.640E-03     53.5481E-03    -151.335E-03     303.150E-03    -152.446E-03     51.5421E-03
            2433     4.63256E-03     2.60121E-03    -74.5532E+06    -225.023E+06    -50.6658E+06    -7.79524E+06    -151.549E-03     304.249E-03    -152.700E-03     46.5975E-03    -151.634E-03     303.413E-03    -152.519E-03     44.9466E-03
            2434     3.86031E-03     2.60352E-03    -81.2466E+06    -242.223E+06    -62.6827E+06    -3.08898E+06    -151.886E-03     304.629E-03    -152.742E-03     39.4087E-03    -151.929E-03     303.699E-03    -152.587E-03     38.0933E-03
            2435     3.08731E-03     2.60495E-03    -86.1828E+06    -251.501E+06    -73.9972E+06    -158.766E+03    -152.184E-03     304.951E-03    -152.767E-03     31.9064E-03    -152.195E-03     303.971E-03    -152.647E-03     30.8947E-03
            2436     2.31613E-03     2.60612E-03    -89.7335E+06    -258.481E+06    -83.4012E+06     1.19456E+06    -152.428E-03     305.217E-03    -152.789E-03     24.3073E-03    -152.412E-03     304.200E-03    -152.701E-03     23.5687E-03
            2437     1.54327E-03     2.60729E-03     -92.217E+06    -263.025E+06    -89.8823E+06     1.26298E+06    -152.565E-03     305.402E-03    -152.838E-03     16.6148E-03    -152.530E-03     304.361E-03    -152.772E-03     16.1260E-03
            2438     772.001E-06     2.60747E-03    -94.1550E+06    -265.567E+06    -93.6298E+06     597.446E+03    -152.796E-03     305.708E-03    -152.912E-03     8.99961E-03    -152.753E-03     304.653E-03    -152.858E-03     8.73103E-03
            2439     14.4531E-03     1.45577E-03    -3.66258E+06     82.9031E+06     94.4581E+06     2.13360E+06    -249.404E-03     417.045E-03    -167.641E-03     143.649E-03    -252.077E-03     419.722E-03    -167.284E-03     131.341E-03
            2440     13.7588E-03     1.38863E-03    -6.91782E+06     75.1794E+06     94.1210E+06     3.15434E+06    -217.803E-03     381.946E-03    -164.144E-03     111.000E-03    -219.897E-03     384.016E-03    -163.772E-03     101.264E-03
            2441     13.0199E-03     1.35358E-03    -11.8278E+06     69.8383E+06     92.5380E+06     4.50406E+06    -192.542E-03     354.309E-03    -161.767E-03     89.3782E-03    -193.821E-03     355.530E-03    -161.388E-03     82.9946E-03
            2442     12.2637E-03     1.33140E-03    -15.1914E+06     64.2429E+06     86.1180E+06     4.68161E+06    -177.456E-03     337.709E-03    -160.253E-03     76.3290E-03    -178.390E-03     338.569E-03    -159.894E-03     71.7804E-03
            2443     11.5088E-03     1.32351E-03    -18.9501E+06     57.4194E+06     70.2900E+06     4.28718E+06    -168.427E-03     327.698E-03    -159.271E-03     67.0230E-03    -169.136E-03     328.339E-03    -158.975E-03     63.5969E-03
            2444     10.7436E-03     1.31311E-03    -23.7937E+06     49.0176E+06     49.8080E+06     2.25603E+06    -163.114E-03     321.755E-03    -158.641E-03     59.8968E-03    -163.687E-03     322.272E-03    -158.429E-03     57.1226E-03
            2445     9.98122E-03     1.30957E-03    -28.3290E+06     37.3459E+06     27.9490E+06    -2.00751E+06    -159.748E-03     318.008E-03    -158.260E-03     54.0016E-03    -160.216E-03     318.426E-03    -158.134E-03     51.6440E-03
            2446     9.21233E-03     1.30514E-03    -32.4017E+06     11.9745E+06     6.56884E+06    -8.03409E+06    -157.573E-03     315.662E-03    -158.089E-03     49.2133E-03    -157.941E-03     315.937E-03    -158.027E-03     47.1156E-03
            2447     8.44456E-03     1.30431E-03    -38.4131E+06    -32.6769E+06    -10.4632E+06    -12.3422E+06    -156.421E-03     314.532E-03    -158.111E-03     44.8250E-03    -156.692E-03     314.579E-03    -158.060E-03     42.9281E-03
            2448     7.67551E-03     1.30291E-03    -47.3507E+06    -86.8675E+06    -25.0357E+06    -13.0091E+06    -156.002E-03     314.260E-03    -158.258E-03     40.7999E-03    -156.188E-03     314.040E-03    -158.188E-03     39.1016E-03
            2449     6.90665E-03     1.30388E-03    -56.4016E+06    -134.397E+06    -35.5767E+06    -12.2117E+06    -156.032E-03     314.509E-03    -158.477E-03     36.9400E-03    -156.156E-03     314.057E-03    -158.378E-03     35.4342E-03
            2450     6.13707E-03     1.30405E-03    -64.5616E+06    -173.046E+06    -43.1359E+06    -9.64972E+06    -156.427E-03     315.156E-03    -158.729E-03     33.1218E-03    -156.506E-03     314.514E-03    -158.600E-03     31.8119E-03
            2451     5.36938E-03     1.30528E-03    -72.0158E+06    -206.661E+06    -51.4703E+06    -5.38922E+06    -157.025E-03     315.997E-03    -158.972E-03     29.3715E-03    -157.064E-03     315.194E-03    -158.825E-03     28.2751E-03
            2452     4.60072E-03     1.30656E-03    -78.0524E+06    -233.224E+06    -60.0708E+06    -2.55905E+06    -157.610E-03     316.802E-03    -159.192E-03     25.5985E-03    -157.614E-03     315.873E-03    -159.041E-03     24.6912E-03
            2453     3.83287E-03     1.30745E-03    -82.3981E+06    -247.877E+06    -68.2624E+06    -894.082E+03    -158.241E-03     317.614E-03    -159.373E-03     21.6226E-03    -158.223E-03     316.619E-03    -159.235E-03     20.8871E-03
            2454     3.06665E-03     1.30860E-03    -85.1247E+06    -254.237E+06    -75.5965E+06     587.975E+03    -158.776E-03     318.286E-03    -159.510E-03     17.5856E-03    -158.742E-03     317.264E-03    -159.396E-03     17.0156E-03
            2455     2.29878E-03     1.30953E-03    -86.8512E+06    -258.514E+06    -81.2703E+06     1.36536E+06    -159.184E-03     318.802E-03    -159.618E-03     13.3552E-03    -159.137E-03     317.762E-03    -159.524E-03     12.9419E-03
            2456     1.53301E-03     1.30997E-03    -87.7713E+06    -261.199E+06    -85.3492E+06     1.46260E+06    -159.490E-03     319.191E-03    -159.701E-03     8.99576E-03    -159.432E-03     318.140E-03    -159.622E-03     8.72600E-03
            2457     765.814E-06     1.31032E-03    -88.7372E+06    -263.100E+06    -88.2036E+06     1.14967E+06    -159.672E-03     319.453E-03    -159.781E-03     4.87788E-03    -159.609E-03     318.395E-03    -159.712E-03     4.73900E-03


