********************************************************************************
Field Output Report, written Mon Aug 12 22:15:20 2024

Source 1
---------

   ODB: G:/Abaqus_calc_2019/1740/Vel_40/odb/zeides_2a_40_red_2000_cal_30_vel_40_fric_050.odb
   Step: Step-1
   Frame: Increment   4022026: Step Time =   0.3734

Loc 1 : Nodal values from source 1

Output sorted by column "Nodal Label".

Field Output reported at nodes for region: DIE_2A_40_D0_36-1.Region_1
   Computation algorithm: EXTRAPOLATE_COMPUTE_AVERAGE
   Averaged at nodes
   Averaging regions: ODB_REGIONS

      Node Label     COORD.COOR1     COORD.COOR2
                          @Loc 1          @Loc 1
-------------------------------------------------
               1     19.3251E-03     174.239E-03


Field Output reported at nodes for region: DIE_2A_40_D0_36-1.Region_2
   Computation algorithm: EXTRAPOLATE_COMPUTE_AVERAGE
   Averaged at nodes
   Averaging regions: ODB_REGIONS

      Node Label     COORD.COOR1     COORD.COOR2
                          @Loc 1          @Loc 1
-------------------------------------------------
               1     19.3251E-03     174.239E-03


Field Output reported at nodes for part: WIRE-1
   Computation algorithm: EXTRAPOLATE_COMPUTE_AVERAGE
   Averaged at nodes
   Averaging regions: ODB_REGIONS

      Node Label     COORD.COOR1     COORD.COOR2           S.S11           S.S22           S.S33           S.S12         PE.PE11         PE.PE22         PE.PE33         PE.PE12         LE.LE11         LE.LE22         LE.LE33         LE.LE12
                          @Loc 1          @Loc 1          @Loc 1          @Loc 1          @Loc 1          @Loc 1          @Loc 1          @Loc 1          @Loc 1          @Loc 1          @Loc 1          @Loc 1          @Loc 1          @Loc 1
-------------------------------------------------------------------------------------------------------------------------------------------------------------------------------------------------------------------------------------------------
               1     3.32568E-06     85.0107E-03    -124.525E+06    -301.017E+06    -124.849E+06    -283.216E+03    -233.847E-03     465.792E-03    -231.945E-03     13.8744E-03    -233.876E-03     464.676E-03    -231.952E-03     12.1612E-03
               2     14.2669E-03     89.4452E-03    -2.25406E+06     65.0437E+06     79.2357E+06     38.7327E+03    -230.694E-03     463.293E-03    -232.599E-03     85.2448E-03    -233.927E-03     466.519E-03    -232.294E-03     65.7333E-03
               3     13.8691E-03     177.754E-03     20.6188E+06    -35.2513E+06     24.4682E+06     20.3476E+06     141.818E-03     108.514E-03    -250.332E-03    -6.59970E-03     141.656E-03     107.989E-03    -250.188E-03    -6.33306E-03
               4    -13.9126E-06     169.779E-03    -21.9841E+06    -16.6135E+06    -34.3005E+06    -5.82856E+06    -212.824E-03     437.438E-03    -224.615E-03    -48.5301E-03    -213.244E-03     437.019E-03    -224.730E-03    -49.0775E-03
               5     207.155E-09    -874.301E-18    -70.1175E+06    -246.606E+06    -69.9013E+06     72.2302E+03    -206.043E-03     412.463E-03    -206.420E-03     998.437E-06    -205.934E-03     411.433E-03    -206.311E-03     859.707E-06
               6     13.9605E-03    -874.301E-18     14.5072E+06     100.004E+06     101.941E+06     10.0296E+06    -584.513E-03     822.969E-03    -238.455E-03     286.871E-03    -591.271E-03     829.678E-03    -238.111E-03     243.820E-03
               7     711.929E-06     85.0300E-03    -123.558E+06    -299.388E+06    -122.191E+06    -128.378E+03    -233.333E-03     465.705E-03    -232.372E-03     24.0728E-03    -233.429E-03     464.655E-03    -232.369E-03     21.1547E-03
               8     1.42674E-03     85.0759E-03    -121.188E+06    -285.137E+06    -114.820E+06    -68.1015E+03    -233.007E-03     465.775E-03    -232.768E-03     45.1204E-03    -233.318E-03     464.976E-03    -232.753E-03     39.6723E-03
               9     2.13944E-03     85.1521E-03    -117.354E+06    -263.055E+06    -102.466E+06    -273.896E+03    -233.393E-03     466.134E-03    -232.740E-03     66.5350E-03    -234.068E-03     465.755E-03    -232.701E-03     58.3486E-03
              10     2.85232E-03     85.2568E-03    -111.504E+06    -240.128E+06    -86.0958E+06    -265.248E+03    -233.904E-03     466.654E-03    -232.750E-03     87.9356E-03    -235.092E-03     466.843E-03    -232.670E-03     76.8460E-03
              11     3.56626E-03     85.3902E-03    -104.608E+06    -214.206E+06    -68.4634E+06    -39.6862E+03    -234.500E-03     467.261E-03    -232.761E-03     109.649E-03    -236.375E-03     468.202E-03    -232.641E-03     95.4945E-03
              12     4.27879E-03     85.5536E-03    -97.0355E+06    -182.621E+06    -50.5186E+06     182.060E+03    -235.076E-03     467.831E-03    -232.755E-03     131.243E-03    -237.837E-03     469.745E-03    -232.602E-03     113.836E-03
              13     4.99280E-03     85.7444E-03    -88.4725E+06    -144.067E+06    -32.1399E+06     350.227E+03    -235.624E-03     468.346E-03    -232.723E-03     152.710E-03    -239.498E-03     471.488E-03    -232.546E-03     131.849E-03
              14     5.70667E-03     85.9633E-03    -78.8522E+06    -102.452E+06    -12.9582E+06     302.629E+03    -236.161E-03     468.839E-03    -232.677E-03     173.688E-03    -241.393E-03     473.465E-03    -232.479E-03     149.161E-03
              15     6.42022E-03     86.2090E-03    -69.1224E+06    -52.3704E+06     7.23522E+06     412.387E+03    -236.854E-03     469.487E-03    -232.632E-03     194.537E-03    -243.743E-03     475.923E-03    -232.420E-03     166.109E-03
              16     7.13418E-03     86.4834E-03    -60.6995E+06    -8.92100E+06     24.3414E+06     1.57287E+06    -237.479E-03     470.081E-03    -232.602E-03     215.014E-03    -246.305E-03     478.590E-03    -232.379E-03     182.581E-03
              17     7.84768E-03     86.7821E-03    -53.7371E+06     8.82664E+06     34.6612E+06     1.77988E+06    -238.009E-03     470.603E-03    -232.594E-03     234.791E-03    -249.014E-03     481.348E-03    -232.356E-03     198.319E-03
              18     8.56042E-03     87.1085E-03    -47.7206E+06     18.3263E+06     44.0830E+06     517.136E+03    -238.281E-03     470.884E-03    -232.603E-03     253.440E-03    -251.638E-03     484.009E-03    -232.340E-03     213.145E-03
              19     9.27479E-03     87.4550E-03    -41.0161E+06     30.7937E+06     56.2798E+06    -6.94510E+03    -238.054E-03     470.674E-03    -232.619E-03     267.114E-03    -253.586E-03     486.006E-03    -232.323E-03     223.773E-03
              20     9.98789E-03     87.8138E-03    -33.5005E+06     40.5745E+06     67.7226E+06     190.503E+03    -237.433E-03     470.076E-03    -232.643E-03     271.959E-03    -254.429E-03     486.900E-03    -232.314E-03     226.893E-03
              21     10.7016E-03     88.1732E-03    -26.2813E+06     49.0240E+06     75.4258E+06     400.682E+03    -235.959E-03     468.619E-03    -232.659E-03     265.753E-03    -253.266E-03     485.787E-03    -232.315E-03     220.732E-03
              22     11.4143E-03     88.5111E-03    -19.7419E+06     55.6645E+06     77.3756E+06     439.929E+03    -234.228E-03     466.877E-03    -232.649E-03     250.595E-03    -250.670E-03     483.222E-03    -232.314E-03     207.183E-03
              23     12.1281E-03     88.8256E-03    -13.9358E+06     60.6921E+06     77.7501E+06    -83.3868E+03    -232.733E-03     465.365E-03    -232.632E-03     224.532E-03    -246.874E-03     479.446E-03    -232.311E-03     184.605E-03
              24     12.8418E-03     89.0884E-03    -8.90997E+06     66.8621E+06     79.2571E+06    -372.574E+03    -231.724E-03     464.341E-03    -232.617E-03     203.141E-03    -243.925E-03     476.518E-03    -232.305E-03     166.095E-03
              25     13.5575E-03     89.3427E-03    -4.45626E+06     67.9324E+06     79.4891E+06    -33.9195E+03    -231.103E-03     463.706E-03    -232.603E-03     142.002E-03    -238.657E-03     471.254E-03    -232.298E-03     113.972E-03
              26     14.2709E-03     90.9536E-03    -2.51415E+06     64.9098E+06     79.5258E+06    -400.020E+03    -230.690E-03     463.265E-03    -232.576E-03     85.3653E-03    -233.931E-03     466.498E-03    -232.269E-03     65.7879E-03
              27     14.2683E-03     92.4609E-03    -2.39265E+06     65.4035E+06     80.7400E+06     9.75325E+03    -231.735E-03     464.285E-03    -232.550E-03     84.4512E-03    -234.964E-03     467.503E-03    -232.238E-03     64.8465E-03
              28     14.2696E-03     93.9787E-03    -1.75971E+06     65.8788E+06     80.5792E+06     674.906E+03    -231.511E-03     464.096E-03    -232.585E-03     85.5566E-03    -234.751E-03     467.330E-03    -232.275E-03     65.9984E-03
              29     14.2679E-03     95.4852E-03    -1.79234E+06     65.8835E+06     80.7750E+06    -57.8053E+03    -229.607E-03     462.235E-03    -232.628E-03     86.2523E-03    -232.867E-03     465.488E-03    -232.317E-03     66.7682E-03
              30     14.2705E-03     96.9884E-03    -1.85029E+06     65.9678E+06     81.1502E+06     38.0431E+03    -230.025E-03     462.630E-03    -232.605E-03     84.8161E-03    -233.249E-03     465.846E-03    -232.292E-03     65.3737E-03
              31     14.2678E-03     98.4995E-03    -2.30663E+06     65.4558E+06     80.0049E+06    -229.594E+03    -231.964E-03     464.521E-03    -232.557E-03     84.1893E-03    -235.162E-03     467.711E-03    -232.248E-03     64.6400E-03
              32     14.2702E-03     100.013E-03    -1.57543E+06     66.1508E+06     79.9547E+06     131.027E+03    -231.379E-03     463.931E-03    -232.552E-03     84.6245E-03    -234.583E-03     467.132E-03    -232.246E-03     65.1116E-03
              33     14.2690E-03     101.521E-03    -1.93446E+06     65.9747E+06     80.2005E+06     146.422E+03    -230.197E-03     462.795E-03    -232.599E-03     84.5476E-03    -233.424E-03     466.018E-03    -232.290E-03     65.0780E-03
              34     14.2681E-03     103.030E-03    -3.19589E+06     64.8669E+06     79.5484E+06    -1.33741E+06    -230.349E-03     462.963E-03    -232.614E-03     85.4716E-03    -233.605E-03     466.207E-03    -232.306E-03     65.9111E-03
              35     14.2701E-03     104.536E-03    -1.83592E+06     66.2246E+06     80.9298E+06     120.036E+03    -230.594E-03     463.147E-03    -232.553E-03     85.4337E-03    -233.812E-03     466.359E-03    -232.242E-03     65.9896E-03
              36     14.2703E-03     106.049E-03    -406.151E+03     67.9496E+06     82.0668E+06     688.002E+03    -231.475E-03     464.009E-03    -232.533E-03     83.8248E-03    -234.674E-03     467.209E-03    -232.221E-03     64.3203E-03
              37     14.2678E-03     107.558E-03    -2.14764E+06     66.4085E+06     80.0766E+06    -919.225E+03    -231.905E-03     464.519E-03    -232.614E-03     84.4960E-03    -235.143E-03     467.753E-03    -232.307E-03     64.8439E-03
              38     14.2673E-03     109.074E-03    -3.65976E+06     65.1062E+06     79.4228E+06     562.769E+03    -230.458E-03     463.153E-03    -232.695E-03     86.0534E-03    -233.709E-03     466.393E-03    -232.387E-03     66.6121E-03
              39     14.2685E-03     110.573E-03    -1.74188E+06     66.9754E+06     80.7489E+06     983.817E+03    -229.613E-03     462.256E-03    -232.643E-03     87.0768E-03    -232.866E-03     465.506E-03    -232.333E-03     67.7119E-03
              40     14.2708E-03     112.087E-03    -1.17211E+06     68.1670E+06     81.8206E+06    -493.395E+03    -230.424E-03     463.002E-03    -232.578E-03     85.0562E-03    -233.645E-03     466.223E-03    -232.266E-03     65.5746E-03
              41     14.2674E-03     113.595E-03    -3.01167E+06     67.1382E+06     81.7780E+06     337.764E+03    -231.089E-03     463.699E-03    -232.610E-03     85.4904E-03    -234.344E-03     466.944E-03    -232.294E-03     65.9305E-03
              42     14.2693E-03     115.104E-03    -2.31761E+06     68.8845E+06     83.1286E+06     956.400E+03    -229.820E-03     462.437E-03    -232.617E-03     85.6205E-03    -233.064E-03     465.677E-03    -232.298E-03     66.2147E-03
              43     14.2705E-03     116.609E-03    -2.82079E+06     69.0504E+06     83.6210E+06    -124.274E+03    -230.027E-03     462.610E-03    -232.583E-03     83.8244E-03    -233.241E-03     465.817E-03    -232.261E-03     64.3845E-03
              44     14.2680E-03     118.117E-03    -2.14553E+06     70.2324E+06     85.3041E+06     537.318E+03    -231.825E-03     464.374E-03    -232.549E-03     82.8498E-03    -234.987E-03     467.530E-03    -232.221E-03     63.4406E-03
              45     14.2715E-03     119.633E-03    -2.30576E+06     72.2099E+06     85.0962E+06     525.593E+03    -230.859E-03     463.431E-03    -232.572E-03     82.0282E-03    -234.003E-03     466.576E-03    -232.248E-03     62.7370E-03
              46     14.2668E-03     121.140E-03    -1.55262E+06     74.2948E+06     85.1895E+06     415.506E+03    -229.238E-03     461.821E-03    -232.583E-03     84.3557E-03    -232.445E-03     465.038E-03    -232.262E-03     65.0602E-03
              47     14.2743E-03     122.641E-03    -752.713E+03     75.5024E+06     86.7577E+06    -6.62287E+03    -229.982E-03     462.523E-03    -232.541E-03     83.0057E-03    -233.159E-03     465.714E-03    -232.216E-03     63.6743E-03
              48     14.2655E-03     124.160E-03    -4.01239E+06     72.4497E+06     85.5615E+06    -765.722E+03    -231.004E-03     463.591E-03    -232.587E-03     81.9464E-03    -234.189E-03     466.771E-03    -232.258E-03     62.5096E-03
              49     14.2717E-03     125.661E-03    -2.89888E+06     73.6093E+06     87.0466E+06     833.960E+03    -230.701E-03     463.321E-03    -232.620E-03     83.9681E-03    -233.913E-03     466.532E-03    -232.288E-03     64.6085E-03
              50     14.2670E-03     127.176E-03    -2.44783E+06     77.8356E+06     87.3986E+06     873.400E+03    -230.478E-03     463.055E-03    -232.578E-03     84.6060E-03    -233.702E-03     466.294E-03    -232.250E-03     65.2297E-03
              51     14.2726E-03     128.685E-03    -428.723E+03     79.6525E+06     88.6100E+06    -143.392E+03    -229.339E-03     461.921E-03    -232.582E-03     85.6021E-03    -232.591E-03     465.197E-03    -232.254E-03     66.2098E-03
              52     14.2675E-03     130.189E-03    -2.38157E+06     79.6656E+06     88.5594E+06     756.699E+03    -229.003E-03     461.619E-03    -232.616E-03     84.0374E-03    -232.265E-03     464.898E-03    -232.285E-03     64.6627E-03
              53     14.2707E-03     131.695E-03    -3.54440E+06     83.4352E+06     89.1481E+06     715.940E+03    -229.928E-03     462.535E-03    -232.607E-03     84.1164E-03    -233.188E-03     465.820E-03    -232.277E-03     64.7342E-03
              54     14.2686E-03     133.206E-03    -1.06811E+06     83.7385E+06     90.0669E+06    -267.631E+03    -228.609E-03     461.209E-03    -232.601E-03     83.7817E-03    -231.816E-03     464.449E-03    -232.270E-03     64.5748E-03
              55     14.2720E-03     134.710E-03    -2.74042E+06     81.1918E+06     89.7012E+06    -75.4035E+03    -228.050E-03     460.662E-03    -232.613E-03     83.8270E-03    -231.280E-03     463.912E-03    -232.278E-03     64.6088E-03
              56     14.2677E-03     136.211E-03    -1.86699E+06     83.2413E+06     90.5452E+06     899.259E+03    -228.332E-03     460.885E-03    -232.553E-03     82.8468E-03    -231.520E-03     464.100E-03    -232.218E-03     63.7404E-03
              57     14.2758E-03     137.722E-03    -2.25285E+06     83.3927E+06     91.6623E+06    -1.47494E+06    -227.846E-03     460.338E-03    -232.492E-03     82.5160E-03    -231.042E-03     463.556E-03    -232.151E-03     63.3083E-03
              58     14.2683E-03     139.223E-03    -1.82310E+06     83.5760E+06     93.8852E+06     43.5025E+03    -227.974E-03     460.451E-03    -232.477E-03     83.0979E-03    -231.181E-03     463.676E-03    -232.126E-03     63.9559E-03
              59     14.2764E-03     140.733E-03    -2.34739E+06     86.0887E+06     94.5681E+06     2.79980E+06    -225.077E-03     457.440E-03    -232.363E-03     85.8351E-03    -228.298E-03     460.684E-03    -232.011E-03     67.0878E-03
              60     14.2784E-03     142.222E-03    -1.62386E+06     90.1349E+06     98.1231E+06     350.146E+03    -224.289E-03     456.440E-03    -232.151E-03     85.3025E-03    -227.538E-03     459.719E-03    -231.789E-03     66.3934E-03
              61     14.2797E-03     143.731E-03    -546.708E+03     95.5161E+06     101.296E+06     996.593E+03    -223.874E-03     455.786E-03    -231.912E-03     84.8742E-03    -227.139E-03     459.094E-03    -231.543E-03     65.9026E-03
              62     14.2892E-03     145.216E-03    -5.69533E+06     94.4329E+06     99.4509E+06    -639.445E+03    -222.916E-03     454.411E-03    -231.495E-03     89.3339E-03    -226.270E-03     457.792E-03    -231.126E-03     70.3368E-03
              63     14.2936E-03     146.725E-03    -2.29405E+06     97.1859E+06     103.803E+06     905.085E+03    -220.747E-03     451.617E-03    -230.870E-03     91.9933E-03    -224.117E-03     455.022E-03    -230.488E-03     73.1331E-03
              64     14.3142E-03     148.203E-03    -1.63717E+06     97.6832E+06     106.435E+06     527.193E+03    -220.983E-03     450.944E-03    -229.961E-03     96.9601E-03    -224.486E-03     454.481E-03    -229.568E-03     77.6981E-03
              65     14.3197E-03     149.701E-03    -5.34792E+06     99.9926E+06     107.737E+06     1.81802E+06    -226.192E-03     455.023E-03    -228.831E-03     99.0152E-03    -229.746E-03     458.602E-03    -228.430E-03     79.2864E-03
              66     14.3443E-03     151.214E-03    -1.31878E+06     108.577E+06     113.801E+06     4.95993E+06    -227.687E-03     455.251E-03    -227.564E-03     106.628E-03    -231.447E-03     459.063E-03    -227.150E-03     86.2678E-03
              67     14.3592E-03     152.691E-03    -5.08177E+06     111.733E+06     115.909E+06     735.714E+03    -238.082E-03     464.132E-03    -226.050E-03     109.716E-03    -241.989E-03     468.087E-03    -225.625E-03     88.0483E-03
              68     14.3754E-03     154.245E-03    -1.90423E+06     117.036E+06     121.342E+06     2.14488E+06    -251.372E-03     476.008E-03    -224.635E-03     111.696E-03    -255.348E-03     480.042E-03    -224.196E-03     88.6628E-03
              69     14.3898E-03     155.774E-03    -3.38321E+06     117.995E+06     124.537E+06     1.12337E+06    -265.951E-03     489.344E-03    -223.392E-03     122.533E-03    -270.242E-03     493.684E-03    -222.936E-03     97.5651E-03
              70     14.3959E-03     157.353E-03    -2.97943E+06     119.592E+06     128.526E+06     1.71796E+06    -287.762E-03     510.098E-03    -222.336E-03     124.271E-03    -292.015E-03     514.400E-03    -221.862E-03     97.7132E-03
              71     14.4002E-03     158.964E-03    -3.69146E+06     119.282E+06     128.084E+06     811.003E+03    -305.548E-03     527.179E-03    -221.631E-03     128.805E-03    -309.920E-03     531.592E-03    -221.158E-03     100.407E-03
              72     14.4019E-03     160.575E-03    -3.53581E+06     116.935E+06     125.986E+06    -1.03414E+06    -322.844E-03     543.934E-03    -221.090E-03     132.743E-03    -327.327E-03     548.459E-03    -220.625E-03     102.421E-03
              73     14.4019E-03     162.245E-03    -1.93894E+06     105.082E+06     121.168E+06    -2.64568E+06    -338.852E-03     559.543E-03    -220.690E-03     135.961E-03    -343.361E-03     564.072E-03    -220.234E-03     103.931E-03
              74     14.4019E-03     163.911E-03    -3.93549E+06     93.4685E+06     116.318E+06    -2.99242E+06    -353.081E-03     573.454E-03    -220.373E-03     142.926E-03    -357.732E-03     578.088E-03    -219.921E-03     109.318E-03
              75     14.4021E-03     165.612E-03    -2.53445E+06     93.6927E+06     116.921E+06     59.2364E+03    -365.103E-03     585.252E-03    -220.149E-03     140.895E-03    -369.720E-03     589.858E-03    -219.697E-03     106.054E-03
              76     14.3989E-03     167.322E-03    -3.37849E+06     79.9326E+06     117.133E+06    -3.00614E+06    -370.005E-03     590.136E-03    -220.131E-03     143.494E-03    -374.801E-03     594.865E-03    -219.656E-03     107.100E-03
              77     14.4013E-03     169.033E-03    -2.38122E+06     47.4041E+06     123.948E+06    -8.87435E+06    -369.377E-03     589.551E-03    -220.174E-03     151.857E-03    -374.239E-03     594.220E-03    -219.619E-03     115.645E-03
              78     14.4037E-03     170.755E-03     304.317E+03     24.5304E+06     140.972E+06    -1.75753E+06    -360.152E-03     580.522E-03    -220.370E-03     152.845E-03    -365.029E-03     585.079E-03    -219.701E-03     117.831E-03
              79     14.4036E-03     172.413E-03    -3.33321E+06     40.7875E+06     177.302E+06     8.15888E+06    -335.918E-03     556.831E-03    -220.913E-03     160.392E-03    -341.368E-03     561.904E-03    -220.080E-03     126.238E-03
              80     14.4112E-03     174.077E-03    -6.54481E+06     68.9266E+06     208.249E+06     6.02672E+06    -288.421E-03     510.327E-03    -221.906E-03     206.466E-03    -294.950E-03     516.497E-03    -220.956E-03     176.231E-03
              81     14.4174E-03     175.668E-03    -13.2692E+06     45.7672E+06     147.111E+06    -16.1004E+06    -134.073E-03     359.668E-03    -225.596E-03     223.916E-03    -138.008E-03     363.565E-03    -224.907E-03     209.473E-03
              82     14.4078E-03     176.734E-03    -4.03834E+06    -11.3752E+06     50.6860E+06    -8.83000E+06     65.5359E-03     173.954E-03    -239.490E-03     99.1150E-03     65.0890E-03     174.177E-03    -239.214E-03     98.2759E-03
              83     13.0152E-03     177.296E-03     25.1852E+06     15.8169E+06     97.6069E+06     1.81275E+06     124.515E-03     134.487E-03    -259.002E-03     15.2859E-03     124.504E-03     134.532E-03    -258.573E-03     15.3443E-03
              84     11.9890E-03     176.822E-03     20.4989E+06     17.0508E+06     174.096E+06    -6.50662E+06     83.1591E-03     190.205E-03    -273.364E-03    -13.8350E-03     83.0034E-03     190.418E-03    -272.548E-03    -14.2010E-03
              85     11.2522E-03     176.166E-03     8.01970E+06    -11.6242E+06     185.308E+06    -3.42825E+06     73.0545E-03     210.213E-03    -283.267E-03    -42.4031E-03     72.5719E-03     210.230E-03    -282.336E-03    -43.0156E-03
              86     10.4363E-03     175.532E-03    -6.47009E+06    -3.21036E+06     174.022E+06    -8.27580E+06     81.9987E-03     209.673E-03    -291.671E-03    -53.3223E-03     81.5644E-03     209.798E-03    -290.787E-03    -54.1887E-03
              87     9.66547E-03     174.891E-03    -10.1676E+06    -10.3787E+06     151.155E+06    -11.1721E+06     71.4207E-03     226.604E-03    -298.024E-03    -126.183E-03     71.2460E-03     226.435E-03    -297.239E-03    -127.667E-03
              88     8.96127E-03     174.243E-03    -4.55479E+06    -9.53107E+06     138.822E+06    -14.7536E+06     60.8660E-03     239.549E-03    -300.415E-03    -202.884E-03     61.0904E-03     238.883E-03    -299.700E-03    -205.010E-03
              89     8.29140E-03     173.627E-03    -10.3868E+06    -11.7466E+06     118.178E+06    -15.4618E+06     47.6383E-03     251.618E-03    -299.257E-03    -275.965E-03     48.3356E-03     250.356E-03    -298.634E-03    -278.673E-03
              90     7.65586E-03     173.037E-03    -18.8759E+06    -12.1921E+06     92.5414E+06    -18.2001E+06     29.5395E-03     265.565E-03    -295.105E-03    -343.835E-03     30.7319E-03     263.694E-03    -294.597E-03    -347.171E-03
              91     7.03496E-03     172.496E-03    -26.7695E+06    -13.1722E+06     69.6861E+06    -22.8977E+06     5.84814E-03     282.708E-03    -288.556E-03    -400.892E-03     7.40573E-03     280.278E-03    -288.149E-03    -404.856E-03
              92     6.43337E-03     172.000E-03    -35.0597E+06    -16.6236E+06     51.6978E+06    -28.0855E+06    -23.6127E-03     304.032E-03    -280.419E-03    -440.443E-03    -21.8764E-03     301.222E-03    -280.086E-03    -445.009E-03
              93     5.82803E-03     171.562E-03    -42.3504E+06    -21.0416E+06     38.6982E+06    -32.4680E+06    -56.9335E-03     328.465E-03    -271.532E-03    -459.513E-03    -55.2178E-03     325.511E-03    -271.246E-03    -464.578E-03
              94     5.22266E-03     171.175E-03    -46.3687E+06    -23.9281E+06     29.1088E+06    -36.4815E+06    -91.9247E-03     354.373E-03    -262.449E-03    -455.818E-03    -90.4385E-03     351.518E-03    -262.201E-03    -461.174E-03
              95     4.60892E-03     170.838E-03    -47.8773E+06    -27.9113E+06     19.8010E+06    -37.3562E+06    -125.016E-03     378.662E-03    -253.646E-03    -430.344E-03    -123.880E-03     376.076E-03    -253.437E-03    -435.726E-03
              96     3.98438E-03     170.557E-03    -46.7669E+06    -28.8920E+06     11.3770E+06    -36.6918E+06    -154.365E-03     399.922E-03    -245.557E-03    -387.120E-03    -153.617E-03     397.723E-03    -245.391E-03    -392.286E-03
              97     3.34717E-03     170.319E-03    -44.6264E+06    -26.4008E+06     3.14709E+06    -32.8638E+06    -177.807E-03     416.207E-03    -238.400E-03    -331.592E-03    -177.438E-03     414.471E-03    -238.281E-03    -336.226E-03
              98     2.69554E-03     170.130E-03    -41.8569E+06    -22.9150E+06    -8.04912E+06    -27.6707E+06    -195.341E-03     427.597E-03    -232.256E-03    -269.325E-03    -195.312E-03     426.281E-03    -232.202E-03    -273.238E-03
              99     2.03482E-03     169.982E-03    -38.3513E+06    -21.0343E+06    -19.4163E+06    -22.2060E+06    -207.443E-03     434.605E-03    -227.163E-03    -202.643E-03    -207.672E-03     433.639E-03    -227.174E-03    -205.703E-03
             100     1.36306E-03     169.876E-03    -33.6635E+06    -18.4629E+06    -25.4170E+06    -15.3730E+06    -214.384E-03     437.631E-03    -223.247E-03    -134.326E-03    -214.788E-03     436.923E-03    -223.298E-03    -136.511E-03
             101     685.522E-06     169.810E-03    -26.4757E+06    -17.1437E+06    -30.8805E+06    -8.73819E+06    -214.845E-03     437.955E-03    -223.111E-03    -74.2257E-03    -215.290E-03     437.437E-03    -223.202E-03    -75.3934E-03
             102     6.84703E-06     168.314E-03    -72.8731E+06    -39.2063E+06    -70.4401E+06    -8.23883E+06    -178.328E-03     359.514E-03    -181.186E-03    -28.1433E-03    -178.789E-03     359.251E-03    -181.376E-03    -28.6946E-03
             103    -1.52312E-06     167.055E-03    -155.105E+06    -91.5569E+06    -150.642E+06    -14.4108E+06    -122.267E-03     242.166E-03    -119.900E-03     1.22571E-03    -122.767E-03     242.076E-03    -120.295E-03     775.639E-06
             104     482.947E-09     165.897E-03    -230.301E+06    -152.316E+06    -233.273E+06    -14.0054E+06    -93.9810E-03     187.413E-03    -93.4320E-03     14.1339E-03    -94.5875E-03     187.314E-03    -94.0436E-03     13.8743E-03
             105     1.47600E-06     164.772E-03    -306.919E+06    -201.722E+06    -307.091E+06    -9.15733E+06    -87.7502E-03     172.537E-03    -84.7865E-03     21.9437E-03    -88.5489E-03     172.417E-03    -85.5844E-03     21.8187E-03
             106     1.23624E-06     163.648E-03    -297.932E+06    -225.736E+06    -295.824E+06    -2.54979E+06    -93.6091E-03     185.660E-03    -92.0512E-03     26.4878E-03    -94.3477E-03     185.386E-03    -92.7710E-03     26.4738E-03
             107    -1.62897E-06     162.495E-03    -206.275E+06    -219.948E+06    -206.197E+06     5.04326E+06    -110.027E-03     220.118E-03    -110.091E-03     27.8531E-03    -110.462E-03     219.598E-03    -110.504E-03     27.8987E-03
             108     1.70323E-06     161.288E-03    -147.873E+06    -204.693E+06    -146.730E+06     1.79810E+06    -133.714E-03     266.101E-03    -132.387E-03     27.4202E-03    -133.972E-03     265.485E-03    -132.609E-03     27.3241E-03
             109     132.126E-09     160.021E-03    -128.619E+06    -208.687E+06    -129.070E+06    -3.12218E+06    -156.311E-03     312.392E-03    -156.081E-03     25.8434E-03    -156.493E-03     311.710E-03    -156.237E-03     25.5138E-03
             110    -1.72033E-06     158.700E-03    -117.678E+06    -222.782E+06    -119.032E+06    -2.40802E+06    -176.276E-03     354.260E-03    -177.984E-03     22.8284E-03    -176.398E-03     353.487E-03    -178.086E-03     22.2656E-03
             111     603.738E-09     157.318E-03    -117.561E+06    -236.476E+06    -117.434E+06    -2.22820E+06    -195.131E-03     389.403E-03    -194.271E-03     20.6714E-03    -195.232E-03     388.569E-03    -194.345E-03     19.8721E-03
             112     1.63615E-06     155.898E-03    -119.745E+06    -250.153E+06    -123.136E+06    -2.44992E+06    -208.950E-03     416.441E-03    -207.490E-03     20.7930E-03    -209.033E-03     415.557E-03    -207.570E-03     19.7822E-03
             113    -1.90323E-06     154.443E-03    -128.149E+06    -262.652E+06    -126.808E+06    -1.95728E+06    -218.130E-03     437.469E-03    -219.339E-03     19.3154E-03    -218.234E-03     436.548E-03    -219.406E-03     18.0012E-03
             114     318.998E-09     152.965E-03    -136.262E+06    -275.906E+06    -136.557E+06    -2.17871E+06    -226.346E-03     453.337E-03    -226.991E-03     16.2628E-03    -226.456E-03     452.376E-03    -227.076E-03     14.7788E-03
             115     247.714E-09     151.462E-03    -142.422E+06    -289.969E+06    -142.395E+06    -2.13871E+06    -231.693E-03     462.757E-03    -231.064E-03     15.7820E-03    -231.804E-03     461.745E-03    -231.149E-03     14.2271E-03
             116     726.028E-12     149.949E-03    -145.426E+06    -301.398E+06    -145.320E+06    -1.46498E+06    -234.198E-03     467.466E-03    -233.268E-03     16.3532E-03    -234.305E-03     466.408E-03    -233.347E-03     14.6719E-03
             117     986.623E-09     148.440E-03    -143.412E+06    -307.434E+06    -145.278E+06    -844.039E+03    -236.132E-03     470.334E-03    -234.202E-03     14.6448E-03    -236.220E-03     469.244E-03    -234.275E-03     12.8595E-03
             118     692.267E-09     146.922E-03    -144.406E+06    -313.342E+06    -144.559E+06    -969.136E+03    -236.937E-03     472.044E-03    -235.108E-03     14.2449E-03    -237.022E-03     470.924E-03    -235.167E-03     12.4527E-03
             119     173.280E-09     145.399E-03    -143.978E+06    -318.074E+06    -144.636E+06    -141.108E+03    -236.480E-03     472.408E-03    -235.928E-03     14.7950E-03    -236.556E-03     471.264E-03    -235.981E-03     13.0362E-03
             120    -324.384E-09     143.882E-03    -141.874E+06    -319.478E+06    -142.165E+06     -84.278E+03    -235.144E-03     471.079E-03    -235.935E-03     14.6875E-03    -235.212E-03     469.922E-03    -235.977E-03     12.8967E-03
             121    -712.834E-09     142.365E-03    -135.662E+06    -320.807E+06    -134.673E+06    -435.374E+03    -233.423E-03     469.135E-03    -235.712E-03     14.5238E-03    -233.468E-03     467.950E-03    -235.723E-03     12.7639E-03
             122    -1.55862E-06     140.856E-03    -138.745E+06    -323.501E+06    -137.311E+06    -168.303E+03    -234.149E-03     468.927E-03    -234.779E-03     14.0393E-03    -234.201E-03     467.737E-03    -234.795E-03     12.2854E-03
             123     2.89245E-06     139.339E-03    -136.061E+06    -326.047E+06    -137.591E+06    -448.823E+03    -235.833E-03     469.564E-03    -233.730E-03     14.1527E-03    -235.868E-03     468.359E-03    -233.748E-03     12.3638E-03
             124    -1.30138E-06     137.826E-03    -130.223E+06    -329.434E+06    -129.403E+06    -625.788E+03    -234.707E-03     468.688E-03    -233.981E-03     14.1658E-03    -234.720E-03     467.447E-03    -233.962E-03     12.3612E-03
             125     696.693E-09     136.313E-03    -133.132E+06    -332.296E+06    -132.721E+06    -116.218E+03    -233.376E-03     467.601E-03    -234.224E-03     14.3896E-03    -233.395E-03     466.353E-03    -234.213E-03     12.6137E-03
             126    -1.35352E-06     134.801E-03    -131.060E+06    -329.091E+06    -131.158E+06     1.40599E+06    -233.572E-03     467.025E-03    -233.453E-03     14.7512E-03    -233.587E-03     465.788E-03    -233.442E-03     13.0391E-03
             127     2.11572E-06     133.291E-03    -128.200E+06    -325.491E+06    -128.971E+06    -26.2646E+03    -233.944E-03     466.759E-03    -232.815E-03     15.1350E-03    -233.953E-03     465.535E-03    -232.802E-03     13.3719E-03
             128    -1.34424E-06     131.781E-03    -128.297E+06    -324.780E+06    -128.245E+06    -384.349E+03    -232.599E-03     466.067E-03    -233.468E-03     14.8477E-03    -232.612E-03     464.845E-03    -233.452E-03     13.0826E-03
             129    -729.899E-09     130.272E-03    -129.158E+06    -325.062E+06    -130.281E+06     929.364E+03    -231.683E-03     465.364E-03    -233.680E-03     14.2087E-03    -231.697E-03     464.143E-03    -233.673E-03     12.4727E-03
             130    -108.395E-09     128.765E-03    -131.650E+06    -317.041E+06    -131.287E+06     1.98082E+06    -232.761E-03     466.119E-03    -233.359E-03     14.7647E-03    -232.797E-03     464.944E-03    -233.365E-03     13.0148E-03
             131     36.1156E-09     127.253E-03    -131.509E+06    -308.652E+06    -130.333E+06     337.523E+03    -234.341E-03     467.166E-03    -232.826E-03     14.4681E-03    -234.388E-03     466.030E-03    -232.839E-03     12.7633E-03
             132     2.14536E-06     125.743E-03    -131.528E+06    -311.109E+06    -132.750E+06    -1.01281E+06    -233.971E-03     466.497E-03    -232.525E-03     14.5785E-03    -234.012E-03     465.353E-03    -232.547E-03     12.8189E-03
             133    -2.33936E-06     124.233E-03    -134.092E+06    -312.452E+06    -132.526E+06     873.071E+03    -232.955E-03     465.282E-03    -232.327E-03     13.8527E-03    -233.005E-03     464.136E-03    -232.342E-03     12.1241E-03
             134     3.39160E-06     122.727E-03    -129.802E+06    -309.796E+06    -131.941E+06     552.507E+03    -232.890E-03     465.807E-03    -232.917E-03     15.3613E-03    -232.923E-03     464.671E-03    -232.940E-03     13.6281E-03
             135    -4.57811E-06     121.213E-03    -130.904E+06    -308.864E+06    -129.685E+06    -328.411E+03    -232.950E-03     466.118E-03    -233.167E-03     14.1701E-03    -232.990E-03     464.986E-03    -233.178E-03     12.4031E-03
             136     5.40742E-06     119.708E-03    -131.278E+06    -309.492E+06    -132.288E+06    -648.167E+03    -234.496E-03     465.974E-03    -231.478E-03     14.1772E-03    -234.534E-03     464.842E-03    -231.500E-03     12.3939E-03
             137    -1.99905E-06     118.195E-03    -132.526E+06    -309.660E+06    -130.797E+06     270.647E+03    -233.066E-03     465.620E-03    -232.554E-03     15.5104E-03    -233.119E-03     464.485E-03    -232.567E-03     13.7175E-03
             138    -734.178E-09     116.690E-03    -130.142E+06    -307.630E+06    -129.601E+06     724.705E+03    -231.860E-03     465.647E-03    -233.787E-03     14.1347E-03    -231.904E-03     464.512E-03    -233.801E-03     12.4095E-03
             139     670.797E-09     115.180E-03    -127.939E+06    -305.550E+06    -128.828E+06     191.176E+03    -233.237E-03     465.893E-03    -232.656E-03     13.9967E-03    -233.273E-03     464.763E-03    -232.672E-03     12.3018E-03
             140     161.135E-09     113.669E-03    -128.374E+06    -304.938E+06    -128.207E+06    -104.797E+03    -232.440E-03     465.285E-03    -232.846E-03     15.1892E-03    -232.483E-03     464.161E-03    -232.859E-03     13.4308E-03
             141    -1.63479E-06     112.164E-03    -126.756E+06    -301.754E+06    -127.039E+06     933.408E+03    -233.069E-03     465.797E-03    -232.728E-03     14.1734E-03    -233.109E-03     464.684E-03    -232.741E-03     12.4252E-03
             142     3.54052E-06     110.652E-03    -126.164E+06    -301.519E+06    -126.860E+06    -702.904E+03    -233.125E-03     465.627E-03    -232.502E-03     14.4958E-03    -233.158E-03     464.517E-03    -232.516E-03     12.7588E-03
             143    -4.62677E-06     109.146E-03    -125.931E+06    -303.459E+06    -126.610E+06     -69.285E+03    -232.409E-03     465.344E-03    -232.935E-03     14.2339E-03    -232.436E-03     464.227E-03    -232.946E-03     12.5055E-03
             144     4.89243E-06     107.636E-03    -125.107E+06    -303.039E+06    -124.688E+06     60.2185E+03    -233.661E-03     465.547E-03    -231.886E-03     13.4798E-03    -233.687E-03     464.426E-03    -231.888E-03     11.7498E-03
             145    -2.67458E-06     106.127E-03    -125.972E+06    -303.209E+06    -125.285E+06    -152.879E+03    -232.647E-03     465.155E-03    -232.508E-03     15.8013E-03    -232.683E-03     464.036E-03    -232.512E-03     14.0392E-03
             146     583.513E-09     104.618E-03    -125.332E+06    -301.890E+06    -124.951E+06     580.514E+03    -232.020E-03     465.289E-03    -233.269E-03     14.3826E-03    -232.055E-03     464.171E-03    -233.274E-03     12.6613E-03
             147    -328.925E-09     103.113E-03    -125.640E+06    -302.393E+06    -126.223E+06    -567.815E+03    -233.248E-03     465.349E-03    -232.100E-03     14.1079E-03    -233.282E-03     464.229E-03    -232.111E-03     12.3767E-03
             148     1.65311E-06     101.601E-03    -126.813E+06    -302.968E+06    -126.746E+06     580.504E+03    -233.082E-03     465.361E-03    -232.279E-03     15.1403E-03    -233.121E-03     464.243E-03    -232.290E-03     13.3813E-03
             149    -1.89890E-06     100.095E-03    -124.524E+06    -300.184E+06    -124.464E+06     455.697E+03    -232.952E-03     465.692E-03    -232.740E-03     14.2127E-03    -232.985E-03     464.581E-03    -232.747E-03     12.4447E-03
             150     2.39094E-06     98.5862E-03    -125.389E+06    -299.099E+06    -126.705E+06    -339.140E+03    -234.012E-03     465.775E-03    -231.762E-03     13.5997E-03    -234.046E-03     464.669E-03    -231.780E-03     11.9744E-03
             151     260.665E-09     97.0733E-03    -126.053E+06    -299.613E+06    -126.682E+06    -96.3584E+03    -232.681E-03     464.816E-03    -232.136E-03     15.8118E-03    -232.722E-03     463.713E-03    -232.152E-03     14.0998E-03
             152    -2.22050E-06     95.5698E-03    -126.151E+06    -301.760E+06    -124.222E+06    -398.782E+03    -231.289E-03     464.694E-03    -233.406E-03     14.8328E-03    -231.332E-03     463.579E-03    -233.406E-03     13.0038E-03
             153     1.11690E-06     94.0632E-03    -126.237E+06    -301.976E+06    -128.377E+06     366.135E+03    -232.616E-03     465.612E-03    -232.996E-03     13.2876E-03    -232.649E-03     464.497E-03    -233.017E-03     11.5893E-03
             154    -618.750E-09     92.5514E-03    -127.062E+06    -300.111E+06    -125.866E+06     738.192E+03    -233.380E-03     465.619E-03    -232.239E-03     14.1505E-03    -233.424E-03     464.513E-03    -232.249E-03     12.4444E-03
             155     1.70293E-06     91.0425E-03    -124.865E+06    -300.077E+06    -124.948E+06    -727.997E+03    -232.943E-03     465.221E-03    -232.277E-03     15.0970E-03    -232.979E-03     464.112E-03    -232.286E-03     13.3258E-03
             156    -1.90471E-06     89.5362E-03    -127.244E+06    -301.853E+06    -126.148E+06    -144.978E+03    -232.766E-03     465.429E-03    -232.663E-03     14.8778E-03    -232.808E-03     464.316E-03    -232.671E-03     13.1274E-03
             157     2.19844E-06     88.0249E-03    -125.662E+06    -301.396E+06    -127.055E+06     133.706E+03    -232.290E-03     465.287E-03    -232.997E-03     14.7296E-03    -232.323E-03     464.176E-03    -233.014E-03     13.0145E-03
             158    -3.57976E-06     86.5202E-03    -125.377E+06    -300.523E+06    -125.315E+06     173.652E+03    -231.983E-03     465.072E-03    -233.089E-03     14.0864E-03    -232.016E-03     463.962E-03    -233.098E-03     12.3741E-03
             159    -417.294E-09     83.4995E-03    -125.543E+06    -300.505E+06    -124.773E+06     366.817E+03    -233.035E-03     465.674E-03    -232.639E-03     15.6901E-03    -233.076E-03     464.565E-03    -232.645E-03     13.9156E-03
             160    -1.99448E-06     81.9931E-03    -128.500E+06    -298.044E+06    -127.544E+06     360.692E+03    -232.507E-03     465.438E-03    -232.931E-03     14.1044E-03    -232.559E-03     464.348E-03    -232.950E-03     12.3826E-03
             161     3.75749E-06     80.4824E-03    -125.067E+06    -297.866E+06    -127.873E+06    -413.315E+03    -233.219E-03     464.993E-03    -231.774E-03     14.2390E-03    -233.251E-03     463.902E-03    -231.800E-03     12.4880E-03
             162    -3.54114E-06     78.9790E-03    -126.558E+06    -299.532E+06    -125.139E+06     196.069E+03    -232.310E-03     464.931E-03    -232.622E-03     14.2879E-03    -232.351E-03     463.831E-03    -232.630E-03     12.5428E-03
             163     2.83364E-06     77.4679E-03    -126.545E+06    -298.380E+06    -126.638E+06    -212.569E+03    -232.820E-03     465.788E-03    -232.969E-03     14.3431E-03    -232.860E-03     464.693E-03    -232.986E-03     12.6500E-03
             164    -2.40390E-06     75.9560E-03    -127.603E+06    -301.202E+06    -126.692E+06    -542.142E+03    -232.935E-03     465.574E-03    -232.639E-03     15.1705E-03    -232.979E-03     464.467E-03    -232.651E-03     13.4155E-03
             165     2.33425E-06     74.4521E-03    -127.359E+06    -300.940E+06    -128.796E+06     724.885E+03    -232.589E-03     465.677E-03    -233.088E-03     14.6317E-03    -232.628E-03     464.574E-03    -233.111E-03     12.9092E-03
             166    -3.05078E-06     72.9408E-03    -126.376E+06    -297.068E+06    -125.649E+06     396.127E+03    -232.191E-03     465.788E-03    -233.597E-03     14.3833E-03    -232.235E-03     464.698E-03    -233.612E-03     12.6499E-03
             167     1.71121E-06     71.4302E-03    -125.341E+06    -299.331E+06    -125.297E+06    -1.12357E+06    -232.444E-03     465.057E-03    -232.613E-03     14.5202E-03    -232.480E-03     463.952E-03    -232.624E-03     12.8015E-03
             168    -673.404E-09     69.9254E-03    -128.040E+06    -303.688E+06    -127.752E+06    -508.697E+03    -232.836E-03     465.126E-03    -232.291E-03     14.8443E-03    -232.879E-03     464.008E-03    -232.303E-03     13.0460E-03
             169     353.698E-09     68.4176E-03    -128.772E+06    -303.254E+06    -129.090E+06     913.389E+03    -233.433E-03     465.504E-03    -232.072E-03     13.4981E-03    -233.477E-03     464.389E-03    -232.091E-03     11.7507E-03
             170     1.86045E-06     66.9055E-03    -127.019E+06    -298.569E+06    -128.006E+06      504.57E+03    -233.587E-03     465.679E-03    -232.092E-03     15.5489E-03    -233.631E-03     464.584E-03    -232.115E-03     13.8514E-03
             171    -2.02694E-06     65.3984E-03    -129.710E+06    -301.306E+06    -128.102E+06    -1.03183E+06    -232.807E-03     465.781E-03    -232.975E-03     14.5574E-03    -232.859E-03     464.678E-03    -232.990E-03     12.7858E-03
             172     1.90686E-06     63.8904E-03    -125.814E+06    -302.357E+06    -127.650E+06     130.045E+03    -232.397E-03     464.893E-03    -232.496E-03     13.2398E-03    -232.428E-03     463.777E-03    -232.514E-03     11.5112E-03
             173    -1.98761E-06     62.3834E-03    -125.278E+06    -300.659E+06    -124.604E+06     284.336E+03    -231.005E-03     464.399E-03    -233.395E-03     15.2226E-03    -231.042E-03     463.289E-03    -233.400E-03     13.4536E-03
             174    -1.40371E-06     60.8735E-03    -126.630E+06    -300.107E+06    -127.056E+06     243.005E+03    -232.631E-03     465.263E-03    -232.633E-03     13.8525E-03    -232.669E-03     464.161E-03    -232.649E-03     12.1136E-03
             175     4.73378E-06     59.3675E-03    -124.516E+06    -297.760E+06    -124.504E+06     177.060E+03    -234.189E-03     465.671E-03    -231.483E-03     14.7044E-03    -234.221E-03     464.577E-03    -231.493E-03     12.9895E-03
             176    -4.27158E-06     57.8574E-03    -124.637E+06    -297.640E+06    -123.807E+06     39.7085E+03    -232.087E-03     464.687E-03    -232.601E-03     13.9858E-03    -232.120E-03     463.592E-03    -232.607E-03     12.2527E-03
             177     3.02691E-06     56.3516E-03    -123.509E+06    -297.872E+06    -124.192E+06     927.347E+03    -232.017E-03     464.270E-03    -232.253E-03     14.1435E-03    -232.045E-03     463.169E-03    -232.263E-03     12.5097E-03
             178    -2.18525E-06     54.8433E-03    -123.481E+06    -298.277E+06    -122.231E+06      -457.4E+03    -232.736E-03     464.509E-03    -231.772E-03     15.0085E-03    -232.769E-03     463.403E-03    -231.772E-03     13.3009E-03
             179     2.66352E-06     53.3354E-03    -123.088E+06    -298.827E+06    -123.876E+06    -559.093E+03    -233.074E-03     463.877E-03    -230.802E-03     14.3117E-03    -233.103E-03     462.770E-03    -230.810E-03     12.5573E-03
             180     39.7850E-09     51.8328E-03    -124.068E+06     -299.52E+06    -122.888E+06     59.3084E+03    -232.614E-03     463.786E-03    -231.172E-03     15.3329E-03    -232.650E-03     462.677E-03    -231.172E-03     13.5595E-03
             181    -742.910E-09     50.3242E-03    -122.839E+06    -299.448E+06    -123.960E+06    -273.773E+03    -230.814E-03     463.294E-03    -232.480E-03     13.8840E-03    -230.841E-03     462.181E-03    -232.487E-03     12.1832E-03
             182    -994.035E-09     48.8219E-03    -123.203E+06    -298.355E+06    -122.751E+06     579.330E+03    -230.968E-03     462.762E-03    -231.795E-03     14.4938E-03    -230.999E-03     461.653E-03    -231.797E-03     12.8486E-03
             183     1.49133E-06     47.3129E-03    -122.767E+06    -294.678E+06    -123.888E+06     671.189E+03    -231.445E-03     462.798E-03    -231.352E-03     15.2575E-03    -231.480E-03     461.711E-03    -231.367E-03     13.5335E-03
             184    -1.93640E-06     45.8133E-03    -125.449E+06    -291.818E+06    -125.348E+06     623.280E+03    -230.986E-03     462.103E-03    -231.117E-03     14.0249E-03    -231.034E-03     461.035E-03    -231.139E-03     12.3169E-03
             185     2.14158E-06     44.3086E-03     -125.58E+06    -290.526E+06    -125.451E+06    -355.205E+03    -231.037E-03     461.878E-03    -230.841E-03     14.0228E-03    -231.088E-03     460.819E-03    -230.865E-03     12.2621E-03
             186    -2.11859E-06     42.8060E-03    -121.964E+06    -292.402E+06    -122.402E+06    -274.071E+03    -230.167E-03     461.346E-03    -231.179E-03     13.4874E-03    -230.201E-03     460.266E-03    -231.190E-03     11.7560E-03
             187     598.481E-09     41.3057E-03    -123.658E+06    -292.464E+06    -123.293E+06     950.491E+03    -229.871E-03     460.314E-03    -230.443E-03     13.1978E-03    -229.912E-03     459.235E-03    -230.456E-03     11.5538E-03
             188     64.0269E-09     39.8010E-03    -126.023E+06    -288.790E+06    -126.195E+06     274.661E+03    -228.978E-03     458.840E-03    -229.862E-03     14.6929E-03    -229.034E-03     457.788E-03    -229.891E-03     13.0136E-03
             189    -2.05660E-06     38.3077E-03    -124.028E+06    -289.780E+06    -123.094E+06    -1.53430E+06    -228.296E-03     457.501E-03    -229.206E-03     13.8034E-03    -228.343E-03     456.438E-03    -229.221E-03     12.1003E-03
             190     2.70387E-06     36.8098E-03    -122.981E+06    -296.523E+06    -124.305E+06    -737.267E+03    -229.109E-03     456.729E-03    -227.620E-03     13.2446E-03    -229.137E-03     455.632E-03    -227.633E-03     11.5843E-03
             191    -1.27565E-06     35.3173E-03    -124.262E+06    -295.299E+06    -123.756E+06     1.37643E+06    -227.499E-03     455.230E-03    -227.731E-03     13.4546E-03    -227.537E-03     454.140E-03    -227.742E-03     11.8484E-03
             192    -532.067E-09     33.8243E-03    -123.245E+06    -289.952E+06    -123.638E+06     18.3543E+03    -227.752E-03     454.485E-03    -226.733E-03     12.9196E-03    -227.792E-03     453.418E-03    -226.752E-03     11.3060E-03
             193     3.75464E-06     32.3299E-03    -122.907E+06    -293.313E+06    -123.713E+06    -880.364E+03    -227.678E-03     453.686E-03    -226.008E-03     14.5488E-03    -227.712E-03     452.608E-03    -226.023E-03     12.8483E-03
             194    -4.65279E-06     30.8438E-03    -125.693E+06    -298.454E+06    -124.370E+06    -607.896E+03    -225.556E-03     451.777E-03    -226.221E-03     12.8047E-03    -225.590E-03     450.679E-03    -226.228E-03     11.1668E-03
             195     4.56210E-06     29.3554E-03    -123.688E+06    -299.300E+06    -124.598E+06     499.766E+03    -226.710E-03     450.780E-03    -224.070E-03     11.9331E-03    -226.731E-03     449.671E-03    -224.080E-03     10.3935E-03
             196    -723.584E-09     27.8713E-03    -124.191E+06    -292.248E+06    -123.761E+06     1.37718E+06    -224.719E-03     449.151E-03    -224.432E-03     12.7400E-03    -224.757E-03     448.074E-03    -224.447E-03     11.2561E-03
             197    -2.75099E-06     26.3887E-03    -126.923E+06    -285.877E+06    -125.292E+06     645.705E+03    -222.858E-03     447.376E-03    -224.518E-03     11.3560E-03    -222.915E-03     446.335E-03    -224.545E-03     9.86583E-03
             198     3.82377E-06     24.9051E-03    -123.381E+06    -283.120E+06    -124.742E+06     67.6279E+03    -224.161E-03     446.282E-03    -222.121E-03     12.1205E-03    -224.205E-03     445.252E-03    -222.156E-03     10.5711E-03
             199    -2.00951E-06     23.4301E-03    -125.242E+06    -282.014E+06    -123.782E+06     11.0215E+03    -222.074E-03     443.537E-03    -221.463E-03     11.4602E-03    -222.131E-03     442.512E-03    -221.491E-03     9.93069E-03
             200     1.05700E-06     21.9548E-03    -122.418E+06    -279.686E+06    -124.122E+06     918.779E+03    -219.038E-03     438.710E-03    -219.672E-03     10.0377E-03    -219.082E-03     437.688E-03    -219.710E-03     8.66006E-03
             201    -1.05080E-06     20.4903E-03    -122.147E+06    -278.465E+06    -121.842E+06     164.765E+03    -216.223E-03     431.601E-03    -215.378E-03     8.77686E-03    -216.267E-03     430.577E-03    -215.406E-03     7.53332E-03
             202     2.26825E-06     19.0416E-03    -120.470E+06    -277.355E+06    -121.087E+06     143.240E+03    -212.107E-03     422.876E-03    -210.769E-03     7.70933E-03    -212.144E-03     421.853E-03    -210.798E-03     6.53301E-03
             203    -1.54548E-06     17.5994E-03    -117.928E+06    -273.225E+06    -117.771E+06     608.765E+03    -205.238E-03     411.401E-03    -206.164E-03     6.57284E-03    -205.273E-03     410.386E-03    -206.185E-03     5.50796E-03
             204    -530.726E-09     16.1829E-03    -118.446E+06    -271.715E+06    -117.976E+06     46.0489E+03    -198.384E-03     397.956E-03    -199.572E-03     4.99199E-03    -198.422E-03     396.947E-03    -199.596E-03     4.04213E-03
             205     889.402E-09     14.7815E-03    -114.982E+06    -268.835E+06    -115.365E+06     994.442E+03    -192.075E-03     383.989E-03    -191.914E-03     3.69743E-03    -192.101E-03     382.983E-03    -191.935E-03     2.91972E-03
             206    -992.459E-09     13.4034E-03    -111.887E+06    -266.933E+06    -112.242E+06    -357.097E+03    -183.780E-03     367.986E-03    -184.205E-03     2.69876E-03    -183.797E-03     366.978E-03    -184.217E-03     1.98715E-03
             207     483.720E-09     12.0433E-03    -113.080E+06    -267.356E+06    -112.733E+06     339.086E+03    -175.358E-03     350.097E-03    -174.738E-03     1.27824E-03    -175.379E-03     349.088E-03    -174.751E-03     668.884E-06
             208     1.01278E-06     10.7171E-03    -112.763E+06    -262.244E+06    -113.155E+06     1.67531E+06    -165.953E-03     330.614E-03    -164.661E-03    -376.274E-06    -165.978E-03     329.629E-03    -164.683E-03    -874.857E-06
             209    -508.843E-09     9.40967E-03    -112.200E+06    -252.734E+06    -111.685E+06     2.33505E+06    -157.177E-03     313.810E-03    -156.633E-03     522.252E-06    -157.215E-03     312.872E-03    -156.662E-03     35.2089E-06
             210     869.181E-09     8.12423E-03    -108.084E+06    -242.804E+06    -107.659E+06     1.50071E+06    -152.255E-03     305.020E-03    -152.765E-03     2.64029E-03    -152.292E-03     304.124E-03    -152.795E-03     2.12855E-03
             211    -2.00747E-06     6.84172E-03    -110.843E+06    -239.046E+06    -111.233E+06    -116.666E+03    -153.918E-03     308.753E-03    -154.836E-03     5.40916E-03    -153.972E-03     307.884E-03    -154.884E-03     4.86839E-03
             212     1.73810E-06     5.54703E-03    -111.355E+06    -243.558E+06    -109.731E+06    -1.34610E+06    -163.960E-03     328.019E-03    -164.059E-03     8.83813E-03    -164.017E-03     327.122E-03    -164.094E-03     8.31746E-03
             213    -1.57137E-06     4.21152E-03    -96.2430E+06    -250.559E+06    -97.3731E+06    -1.27619E+06    -177.903E-03     355.804E-03    -177.900E-03     9.33397E-03    -177.893E-03     354.830E-03    -177.884E-03     8.85274E-03
             214     1.44031E-06     2.84234E-03    -83.0051E+06    -252.360E+06    -82.7333E+06     799.033E+03    -192.295E-03     384.055E-03    -191.759E-03     8.26229E-03    -192.236E-03     383.030E-03    -191.687E-03     7.89214E-03
             215    -482.987E-09     1.43062E-03    -72.9695E+06    -248.204E+06    -72.9204E+06     596.051E+03    -202.814E-03     405.180E-03    -202.366E-03     4.64059E-03    -202.717E-03     404.149E-03    -202.265E-03     4.42092E-03
             216     731.757E-06    -874.301E-18    -69.4604E+06    -245.655E+06    -68.5724E+06     503.239E+03    -206.135E-03     412.467E-03    -206.331E-03     2.99468E-03    -206.028E-03     411.439E-03    -206.217E-03     2.79343E-03
             217     1.46164E-03    -874.301E-18    -69.0016E+06    -243.357E+06    -66.2583E+06     1.30035E+06    -205.970E-03     412.167E-03    -206.197E-03     7.33876E-03    -205.870E-03     411.148E-03    -206.075E-03     6.98276E-03
             218     2.19264E-03    -874.301E-18    -68.3787E+06    -236.000E+06    -63.5576E+06     196.615E+03    -205.458E-03     411.518E-03    -206.060E-03     10.9215E-03    -205.372E-03     410.535E-03    -205.936E-03     10.3619E-03
             219     2.92571E-03    -874.301E-18    -65.7373E+06    -216.300E+06    -58.8347E+06    -1.77231E+06    -205.049E-03     410.918E-03    -205.869E-03     13.7723E-03    -204.989E-03     410.027E-03    -205.754E-03     13.0025E-03
             220     3.65656E-03    -874.301E-18    -61.2265E+06    -183.680E+06    -53.6758E+06    -4.00524E+06    -204.456E-03     410.099E-03    -205.643E-03     17.6454E-03    -204.436E-03     409.364E-03    -205.557E-03     16.6452E-03
             221     4.38885E-03    -874.301E-18    -54.7742E+06    -142.114E+06    -48.5853E+06    -6.12019E+06    -203.638E-03     408.999E-03    -205.361E-03     21.5808E-03    -203.661E-03     408.464E-03    -205.319E-03     20.3489E-03
             222     5.12260E-03    -874.301E-18    -46.8319E+06    -91.5731E+06    -41.2623E+06    -7.21131E+06    -203.097E-03     408.151E-03    -205.054E-03     24.6805E-03    -203.173E-03     407.855E-03    -205.059E-03     23.2484E-03
             223     5.85553E-03    -874.301E-18    -38.4796E+06    -40.5482E+06    -29.3111E+06    -7.00212E+06    -202.954E-03     407.752E-03    -204.798E-03     27.7212E-03    -203.091E-03     407.693E-03    -204.830E-03     26.0591E-03
             224     6.58950E-03    -874.301E-18    -29.8593E+06    -13.4587E+06    -12.8100E+06    -6.91021E+06    -203.247E-03     407.913E-03    -204.666E-03     30.6375E-03    -203.418E-03     407.966E-03    -204.667E-03     28.7232E-03
             225     7.32212E-03    -874.301E-18    -22.0526E+06    -4.55955E+06     2.20670E+06    -4.08018E+06    -204.146E-03     408.795E-03    -204.648E-03     33.8252E-03    -204.330E-03     408.876E-03    -204.599E-03     31.6637E-03
             226     8.05439E-03    -874.301E-18    -18.2010E+06     6.20590E+06     16.1876E+06     1.69251E+06    -205.958E-03     410.725E-03    -204.767E-03     37.5715E-03    -206.178E-03     410.855E-03    -204.669E-03     35.1903E-03
             227     8.78411E-03    -874.301E-18    -17.8007E+06     13.8922E+06     31.7709E+06     4.46740E+06    -209.302E-03     414.410E-03    -205.108E-03     41.2842E-03    -209.582E-03     414.584E-03    -204.944E-03     38.5103E-03
             228     9.51263E-03    -874.301E-18    -17.8483E+06     18.8188E+06     47.7769E+06     3.46757E+06    -215.022E-03     420.783E-03    -205.761E-03     44.2574E-03    -215.368E-03     420.995E-03    -205.523E-03     40.9178E-03
             229     10.2352E-03    -874.301E-18    -15.8820E+06      25.349E+06     59.8816E+06     2.57413E+06    -224.822E-03     431.673E-03    -206.850E-03     49.1557E-03    -225.238E-03     431.950E-03    -206.565E-03     45.0646E-03
             230     10.9479E-03    -874.301E-18    -14.1774E+06     30.3075E+06     62.3034E+06     4.53759E+06    -241.069E-03     449.666E-03    -208.597E-03     53.9926E-03    -241.567E-03     450.046E-03    -208.309E-03     48.7170E-03
             231     11.6519E-03    -874.301E-18    -13.7575E+06     34.7522E+06     60.7695E+06     4.75122E+06    -266.865E-03     478.227E-03    -211.363E-03     73.1065E-03    -267.547E-03     478.808E-03    -211.089E-03     66.2103E-03
             232     12.3069E-03    -874.301E-18    -9.03224E+06     45.4626E+06     65.3317E+06    -1.26857E+06    -306.942E-03     522.566E-03    -215.624E-03     101.609E-03    -308.116E-03     523.704E-03    -215.350E-03     90.1387E-03
             233     12.9730E-03    -874.301E-18    -4.61031E+06     59.5504E+06     73.4137E+06     198.253E+03    -379.851E-03     602.065E-03    -222.214E-03     100.219E-03    -381.319E-03     603.604E-03    -221.927E-03     83.0155E-03
             234     13.5853E-03    -874.301E-18     5.11467E+06     82.9360E+06     89.3513E+06     8.36528E+06    -506.489E-03     738.834E-03    -232.344E-03     187.628E-03    -510.573E-03     742.952E-03    -232.025E-03     156.461E-03
             235     14.2123E-03     2.40061E-03    -1.76761E+06     85.1558E+06     75.9139E+06    -1.82345E+06    -492.633E-03     728.697E-03    -236.063E-03     264.573E-03    -500.808E-03     736.848E-03    -235.805E-03     219.199E-03
             236     14.1883E-03     4.08729E-03    -9.11308E+06     70.4135E+06     62.4874E+06    -673.385E+03    -374.568E-03     608.033E-03    -233.466E-03     201.670E-03    -381.699E-03     615.162E-03    -233.242E-03     162.889E-03
             237     14.2546E-03     5.73587E-03    -2.30222E+06     70.5552E+06     74.7100E+06     3.01240E+06    -329.347E-03     562.176E-03    -232.829E-03     159.104E-03    -334.730E-03     567.571E-03    -232.555E-03     127.360E-03
             238     14.2349E-03     7.35097E-03    -2.11136E+06     69.9923E+06       74.18E+06    -1.76353E+06    -310.737E-03     543.019E-03    -232.282E-03     131.407E-03    -315.661E-03     547.981E-03    -232.009E-03     100.540E-03
             239     14.2591E-03     8.99853E-03    -1.75252E+06     66.9885E+06     75.0046E+06    -85.6521E+03    -298.748E-03     530.892E-03    -232.144E-03     122.685E-03    -303.122E-03     535.285E-03    -231.863E-03     94.0243E-03
             240     14.2542E-03     10.5629E-03    -3.41424E+06     63.7153E+06     77.3660E+06    -1.89374E+06    -288.695E-03     520.840E-03    -232.146E-03     113.959E-03    -292.882E-03     525.022E-03    -231.846E-03     86.4180E-03
             241     14.2536E-03     12.1830E-03    -1.05500E+06     63.6388E+06     78.7612E+06    -800.980E+03    -277.006E-03     509.451E-03    -232.445E-03     97.2128E-03    -280.503E-03     512.944E-03    -232.142E-03     72.4939E-03
             242     14.2585E-03     13.7105E-03     47.9361E+03     63.3502E+06     77.9342E+06     447.814E+03    -260.089E-03     492.876E-03    -232.786E-03     94.3958E-03    -263.391E-03     496.174E-03    -232.489E-03     71.9370E-03
             243     14.2534E-03     15.2672E-03    -1.53628E+06     61.0932E+06     76.3017E+06    -717.661E+03    -253.827E-03     486.859E-03    -233.032E-03     81.0615E-03    -256.779E-03     489.801E-03    -232.737E-03     60.0318E-03
             244     14.2531E-03     16.7949E-03    -2.27022E+06     59.9964E+06     76.3472E+06    -73.1328E+03    -244.740E-03     477.986E-03    -233.247E-03     81.1845E-03    -247.646E-03     480.875E-03    -232.949E-03     61.2381E-03
             245     14.2599E-03     18.3187E-03    -2.01485E+06     60.4316E+06     77.0946E+06     950.894E+03    -239.903E-03     473.156E-03    -233.253E-03     79.4358E-03    -242.765E-03     476.001E-03    -232.952E-03     60.0821E-03
             246     14.2532E-03     19.8430E-03    -183.712E+03     62.0770E+06     77.8888E+06     466.990E+03    -240.077E-03     473.258E-03    -233.181E-03     78.5578E-03    -242.921E-03     476.095E-03    -232.881E-03     59.1176E-03
             247     14.2634E-03     21.3628E-03    -1.79861E+06     60.7789E+06     76.1031E+06     471.784E+03    -240.399E-03     473.407E-03    -233.008E-03     79.6962E-03    -243.264E-03     476.261E-03    -232.713E-03     60.2010E-03
             248     14.2586E-03     22.8922E-03    -3.43830E+06     59.8206E+06     75.7611E+06    -304.401E+03    -242.273E-03     475.134E-03    -232.861E-03     78.3369E-03    -245.141E-03     477.983E-03    -232.564E-03     58.6510E-03
             249     14.2636E-03     24.4240E-03    -368.615E+03     62.9689E+06     77.3717E+06     793.695E+03    -239.106E-03     471.872E-03    -232.766E-03     80.8540E-03    -242.021E-03     474.785E-03    -232.470E-03     61.3082E-03
             250     14.2683E-03     25.9326E-03    -1.31432E+06     62.6127E+06     77.1156E+06    -338.515E+03    -238.598E-03     471.244E-03    -232.646E-03     79.1572E-03    -241.549E-03     474.189E-03    -232.349E-03     59.4367E-03
             251     14.2611E-03     27.4674E-03    -2.76005E+06     61.9911E+06     78.8041E+06     151.265E+03    -241.256E-03     473.885E-03    -232.629E-03     77.5861E-03    -244.201E-03     476.812E-03    -232.321E-03     57.6960E-03
             252     14.2684E-03     28.9860E-03    -3.02804E+06     61.4317E+06     75.9624E+06    -337.039E+03    -238.892E-03     471.479E-03    -232.588E-03     80.8466E-03    -241.895E-03     474.470E-03    -232.293E-03     61.0267E-03
             253     14.2661E-03     30.5101E-03    -1.53879E+06     62.7686E+06     76.7633E+06    -222.155E+03    -237.860E-03     470.350E-03    -232.490E-03     83.0780E-03    -240.891E-03     473.376E-03    -232.195E-03     63.3779E-03
             254     14.2705E-03     32.0345E-03    -1.36587E+06     63.1773E+06     79.1589E+06     583.834E+03    -237.987E-03     470.497E-03    -232.509E-03     81.6965E-03    -241.015E-03     473.514E-03    -232.203E-03     62.0126E-03
             255     14.2633E-03     33.5477E-03    -2.89333E+06     61.6437E+06     78.0104E+06     281.509E+03    -237.556E-03     470.155E-03    -232.599E-03     81.5996E-03    -240.645E-03     473.227E-03    -232.294E-03     61.7425E-03
             256     14.2687E-03     35.0730E-03    -2.66244E+06     62.1131E+06     78.1042E+06     379.358E+03    -235.233E-03     467.849E-03    -232.617E-03     84.2155E-03    -238.360E-03     470.962E-03    -232.313E-03     64.5342E-03
             257     14.2675E-03     36.5823E-03    -1.04085E+06     63.5237E+06     77.9324E+06     55.1601E+03    -233.121E-03     465.702E-03    -232.581E-03     83.5799E-03    -236.230E-03     468.807E-03    -232.282E-03     64.0567E-03
             258     14.2692E-03     38.0950E-03    -2.00513E+06     62.6308E+06     76.7383E+06     35.9476E+03    -233.732E-03     466.278E-03    -232.546E-03     81.3836E-03    -236.801E-03     469.340E-03    -232.250E-03     61.9051E-03
             259     14.2679E-03     39.6061E-03    -3.37866E+06     61.3040E+06     76.5742E+06    -475.472E+03    -235.252E-03     467.757E-03    -232.505E-03     81.7399E-03    -238.346E-03     470.835E-03    -232.206E-03     62.0836E-03
             260     14.2690E-03     41.1320E-03    -770.896E+03     63.9679E+06     79.6217E+06     857.654E+03    -233.909E-03     466.421E-03    -232.512E-03     83.7752E-03    -237.041E-03     469.546E-03    -232.205E-03     64.2071E-03
             261     14.2700E-03     42.6396E-03    -511.331E+03     64.5907E+06     80.4363E+06     171.334E+03    -231.749E-03     464.319E-03    -232.570E-03     84.0077E-03    -234.930E-03     467.494E-03    -232.261E-03     64.4522E-03
             262     14.2668E-03     44.1489E-03    -2.54673E+06     62.3989E+06     76.5461E+06    -986.259E+03    -231.909E-03     464.512E-03    -232.604E-03     81.7023E-03    -235.056E-03     467.650E-03    -232.308E-03     62.1199E-03
             263     14.2693E-03     45.6571E-03    -3.00116E+06     61.4791E+06     75.4982E+06    -705.751E+03    -232.025E-03     464.568E-03    -232.543E-03     82.2398E-03    -235.151E-03     467.683E-03    -232.251E-03     62.7275E-03
             264     14.2706E-03     47.1698E-03    -972.995E+03     63.5258E+06     78.9328E+06     112.113E+03    -232.771E-03     465.227E-03    -232.456E-03     82.5352E-03    -235.874E-03     468.324E-03    -232.152E-03     63.0966E-03
             265     14.2700E-03     48.6894E-03    -2.38465E+06     62.7111E+06     78.8498E+06    -682.885E+03    -232.923E-03     465.463E-03    -232.541E-03     80.8596E-03    -236.021E-03     468.548E-03    -232.234E-03     61.4203E-03
             266     14.2650E-03     50.1959E-03    -2.11985E+06     62.1215E+06     79.1359E+06     1.07012E+06    -231.716E-03     464.352E-03    -232.635E-03     84.1634E-03    -234.883E-03     467.502E-03    -232.327E-03     64.7494E-03
             267     14.2723E-03     51.7058E-03    -2.46406E+06     60.5812E+06     76.3486E+06     324.292E+03    -232.038E-03     464.629E-03    -232.590E-03     83.3145E-03    -235.160E-03     467.735E-03    -232.293E-03     63.9326E-03
             268     14.2641E-03     53.2215E-03    -1.94124E+06     61.2256E+06     77.6152E+06    -513.428E+03    -231.070E-03     463.681E-03    -232.611E-03     83.3183E-03    -234.194E-03     466.790E-03    -232.309E-03     64.0068E-03
             269     14.2737E-03     54.7268E-03    -2.13834E+06     61.2715E+06     78.8332E+06     464.959E+03    -229.841E-03     462.459E-03    -232.618E-03     83.1927E-03    -232.970E-03     465.570E-03    -232.310E-03     63.9821E-03
             270     14.2644E-03     56.2290E-03    -2.42583E+06     61.6062E+06     77.2516E+06     460.800E+03    -231.679E-03     464.221E-03    -232.542E-03     80.8369E-03    -234.786E-03     467.314E-03    -232.241E-03     61.4218E-03
             271     14.2745E-03     57.7489E-03    -692.411E+03     64.5415E+06     79.5917E+06    -9.25912E+03    -231.569E-03     464.091E-03    -232.522E-03     81.9359E-03    -234.696E-03     467.214E-03    -232.217E-03     62.5074E-03
             272     14.2652E-03     59.2583E-03    -3.24554E+06     62.3240E+06     77.2139E+06    -1.19504E+06    -231.417E-03     464.010E-03    -232.593E-03     82.5163E-03    -234.570E-03     467.149E-03    -232.292E-03     63.0808E-03
             273     14.2697E-03     60.7677E-03    -1.97280E+06     63.8407E+06     78.6720E+06     716.327E+03    -230.472E-03     463.068E-03    -232.597E-03     84.4767E-03    -233.616E-03     466.204E-03    -232.293E-03     65.2451E-03
             274     14.2715E-03     62.2712E-03    -2.11476E+06     64.7450E+06     80.6807E+06     77.8789E+03    -231.194E-03     463.756E-03    -232.562E-03     82.1756E-03    -234.320E-03     466.870E-03    -232.249E-03     62.8686E-03
             275     14.2646E-03     63.7939E-03    -2.62714E+06     63.5613E+06     79.3663E+06     244.056E+03    -231.467E-03     464.090E-03    -232.623E-03     83.2069E-03    -234.649E-03     467.258E-03    -232.315E-03     63.7500E-03
             276     14.2725E-03     65.2914E-03    -1.70969E+06     63.7802E+06     79.7144E+06     266.157E+03    -229.307E-03     461.903E-03    -232.596E-03     86.0551E-03    -232.526E-03     465.111E-03    -232.287E-03     66.7027E-03
             277     14.2684E-03     66.8045E-03    -1.75429E+06     65.2007E+06     81.2416E+06     342.459E+03    -231.161E-03     463.712E-03    -232.550E-03     82.8987E-03    -234.322E-03     466.862E-03    -232.236E-03     63.5060E-03
             278     14.2687E-03     68.3164E-03    -2.72194E+06     64.8259E+06     79.6448E+06     180.973E+03    -231.001E-03     463.593E-03    -232.593E-03     83.1434E-03    -234.159E-03     466.741E-03    -232.284E-03     63.7870E-03
             279     14.2698E-03     69.8189E-03    -3.17606E+06     62.4512E+06     78.2030E+06    -1.42381E+06    -230.950E-03     463.512E-03    -232.562E-03     84.0869E-03    -234.143E-03     466.689E-03    -232.257E-03     64.5900E-03
             280     14.2690E-03     71.3355E-03    -786.280E+03     63.4677E+06     80.9088E+06     316.065E+03    -231.693E-03     464.245E-03    -232.552E-03     83.8691E-03    -234.872E-03     467.412E-03    -232.238E-03     64.3957E-03
             281     14.2695E-03     72.8486E-03    -1.59454E+06     64.4636E+06     80.8301E+06     1.26143E+06    -229.396E-03     462.021E-03    -232.625E-03     85.5996E-03    -232.637E-03     465.251E-03    -232.312E-03     66.2054E-03
             282     14.2685E-03     74.3471E-03    -3.82493E+06     64.0163E+06     79.7197E+06    -464.539E+03    -230.282E-03     462.893E-03    -232.611E-03     85.6080E-03    -233.543E-03     466.137E-03    -232.300E-03     66.0533E-03
             283     14.2694E-03     75.8585E-03    -2.57610E+06     65.0759E+06     80.0353E+06    -166.523E+03    -232.276E-03     464.847E-03    -232.571E-03     82.8268E-03    -235.431E-03     467.992E-03    -232.262E-03     63.3825E-03
             284     14.2678E-03     77.3776E-03    -1.41627E+06     65.8131E+06     80.1640E+06     409.764E+03    -230.325E-03     462.934E-03    -232.608E-03     85.3792E-03    -233.545E-03     466.149E-03    -232.301E-03     65.9520E-03
             285     14.2707E-03     78.8763E-03    -2.01345E+06     65.4143E+06     81.0827E+06    -560.036E+03    -230.156E-03     462.759E-03    -232.603E-03     87.0098E-03    -233.449E-03     466.041E-03    -232.289E-03     67.3970E-03
             286     14.2674E-03     80.3922E-03    -929.065E+03     65.1866E+06     81.9559E+06     354.751E+03    -230.853E-03     463.443E-03    -232.590E-03     84.9230E-03    -234.076E-03     466.657E-03    -232.273E-03     65.4295E-03
             287     14.2710E-03     81.8974E-03    -1.90738E+06     63.9820E+06     79.9792E+06    -156.687E+03    -229.570E-03     462.164E-03    -232.594E-03     85.0945E-03    -232.800E-03     465.383E-03    -232.284E-03     65.6324E-03
             288     14.2684E-03     83.4022E-03    -3.14304E+06     64.3853E+06     80.0756E+06    -720.832E+03    -231.251E-03     463.806E-03    -232.554E-03     84.5689E-03    -234.476E-03     467.016E-03    -232.243E-03     65.0039E-03
             289     14.2699E-03     84.9189E-03    -1.94306E+06     65.4113E+06     80.6127E+06     674.409E+03    -232.595E-03     465.150E-03    -232.555E-03     83.7401E-03    -235.765E-03     468.312E-03    -232.244E-03     64.2660E-03
             290     14.2675E-03     86.4296E-03    -1.53877E+06     65.6713E+06     80.3605E+06     415.666E+03    -230.416E-03     463.022E-03    -232.606E-03     85.5154E-03    -233.637E-03     466.237E-03    -232.297E-03     66.0836E-03
             291     14.2710E-03     87.9361E-03    -1.81415E+06     65.6415E+06     80.6511E+06    -36.8053E+03    -229.917E-03     462.530E-03    -232.613E-03     86.5064E-03    -233.184E-03     465.790E-03    -232.302E-03     67.0056E-03
             292     714.395E-06     86.5380E-03    -124.581E+06    -299.188E+06    -122.485E+06    -86.3742E+03    -232.519E-03     465.386E-03    -232.866E-03     24.1623E-03    -232.620E-03     464.340E-03    -232.864E-03     21.2362E-03
             293     1.42599E-03     86.5848E-03    -121.938E+06    -285.068E+06    -114.820E+06    -224.415E+03    -233.078E-03     465.739E-03    -232.660E-03     44.9357E-03    -233.393E-03     464.941E-03    -232.644E-03     39.4821E-03
             294     2.13950E-03     86.6607E-03    -117.655E+06    -262.566E+06    -102.267E+06    -143.783E+03    -233.297E-03     465.973E-03    -232.675E-03     66.5096E-03    -233.974E-03     465.596E-03    -232.636E-03     58.3315E-03
             295     2.85329E-03     86.7651E-03    -112.117E+06    -240.058E+06    -86.2083E+06    -244.983E+03    -233.858E-03     466.538E-03    -232.681E-03     88.2419E-03    -235.052E-03     466.732E-03    -232.601E-03     77.1468E-03
             296     3.56571E-03     86.8996E-03    -105.136E+06    -214.271E+06    -68.6700E+06    -389.357E+03    -234.487E-03     467.184E-03    -232.697E-03     109.877E-03    -236.367E-03     468.129E-03    -232.577E-03     95.7098E-03
             297     4.27992E-03     87.0615E-03    -97.3242E+06    -182.525E+06    -50.7274E+06    -651.449E+03    -235.024E-03     467.718E-03    -232.694E-03     131.380E-03    -237.791E-03     469.639E-03    -232.542E-03     113.954E-03
             298     4.99325E-03     87.2530E-03    -89.2420E+06    -143.891E+06    -32.6236E+06    -928.208E+03    -235.659E-03     468.329E-03    -232.670E-03     152.465E-03    -239.536E-03     471.473E-03    -232.496E-03     131.572E-03
             299     5.70665E-03     87.4712E-03    -81.5136E+06    -102.289E+06    -14.3307E+06    -1.44461E+06    -236.442E-03     469.097E-03    -232.655E-03     173.292E-03    -241.686E-03     473.730E-03    -232.460E-03     148.692E-03
             300     6.42022E-03     87.7180E-03    -74.2818E+06    -54.2962E+06     4.04651E+06    -1.09637E+06    -237.057E-03     469.702E-03    -232.645E-03     194.074E-03    -243.959E-03     476.135E-03    -232.438E-03     165.592E-03
             301     7.13344E-03     87.9914E-03    -66.1999E+06    -12.6646E+06     20.1458E+06     89.7890E+03    -237.466E-03     470.095E-03    -232.629E-03     214.692E-03    -246.304E-03     478.594E-03    -232.414E-03     182.231E-03
             302     7.84676E-03     88.2917E-03    -57.2513E+06     8.61770E+06     32.3328E+06     1.07121E+06    -237.839E-03     470.452E-03    -232.613E-03     235.087E-03    -248.870E-03     481.216E-03    -232.381E-03     198.608E-03
             303     8.56110E-03     88.6166E-03    -48.3312E+06     20.4793E+06     43.8842E+06     1.26218E+06    -238.127E-03     470.734E-03    -232.607E-03     253.582E-03    -251.488E-03     483.869E-03    -232.347E-03     213.331E-03
             304     9.27457E-03     88.9634E-03    -40.3097E+06     31.4238E+06     55.9966E+06     629.089E+03    -238.214E-03     470.835E-03    -232.622E-03     267.057E-03    -253.734E-03     486.162E-03    -232.329E-03     223.710E-03
             305     9.98793E-03     89.3247E-03    -33.2260E+06     40.8210E+06     67.1738E+06     290.287E+03    -237.404E-03     470.052E-03    -232.649E-03     271.947E-03    -254.395E-03     486.876E-03    -232.324E-03     226.890E-03
             306     10.7010E-03     89.6809E-03    -26.4461E+06     48.8122E+06     74.7442E+06     1.47206E+03    -235.665E-03     468.319E-03    -232.654E-03     266.013E-03    -252.977E-03     485.494E-03    -232.312E-03     221.030E-03
             307     11.4154E-03     90.0218E-03    -19.6573E+06     55.6491E+06     76.7993E+06    -59.9724E+03    -233.889E-03     466.510E-03    -232.621E-03     250.995E-03    -250.346E-03     482.872E-03    -232.289E-03     207.607E-03
             308     12.1292E-03     90.3334E-03    -13.6032E+06     60.9222E+06     77.3809E+06    -57.5126E+03    -232.445E-03     465.031E-03    -232.586E-03     224.305E-03    -246.572E-03     479.102E-03    -232.267E-03     184.451E-03
             309     12.8428E-03     90.5993E-03    -8.71429E+06     67.0553E+06     79.2993E+06     130.910E+03    -231.926E-03     464.499E-03    -232.573E-03     203.188E-03    -244.110E-03     476.660E-03    -232.261E-03     166.191E-03
             310     13.5528E-03     90.8521E-03    -4.45966E+06     68.0294E+06     79.8656E+06     34.3778E+03    -231.368E-03     463.942E-03    -232.573E-03     142.429E-03    -238.928E-03     471.495E-03    -232.266E-03     114.366E-03
             311     712.390E-06     88.0469E-03    -125.556E+06    -298.765E+06    -123.865E+06     44.0529E+03    -232.583E-03     465.408E-03    -232.825E-03     24.4406E-03    -232.687E-03     464.368E-03    -232.830E-03     21.5253E-03
             312     1.42659E-03     88.0936E-03    -123.469E+06    -284.563E+06    -115.613E+06    -125.447E+03    -232.941E-03     465.587E-03    -232.645E-03     44.6953E-03    -233.261E-03     464.794E-03    -232.632E-03     39.2555E-03
             313     2.13989E-03     88.1682E-03    -118.704E+06    -262.839E+06    -102.573E+06    -66.8232E+03    -233.234E-03     465.869E-03    -232.635E-03     66.3196E-03    -233.916E-03     465.494E-03    -232.594E-03     58.1310E-03
             314     2.85275E-03     88.2741E-03    -112.593E+06    -239.367E+06    -86.0234E+06    -181.480E+03    -233.751E-03     466.384E-03    -232.633E-03     88.0987E-03    -234.948E-03     466.581E-03    -232.553E-03     77.0053E-03
             315     3.56700E-03     88.4075E-03    -105.681E+06    -213.502E+06    -68.6580E+06    -570.730E+03    -234.401E-03     467.043E-03    -232.642E-03     109.529E-03    -236.282E-03     467.991E-03    -232.523E-03     95.3640E-03
             316     4.27961E-03     88.5704E-03    -98.4546E+06    -182.049E+06    -51.1602E+06    -623.811E+03    -235.134E-03     467.788E-03    -232.655E-03     130.923E-03    -237.900E-03     469.707E-03    -232.504E-03     113.495E-03
             317     4.99309E-03     88.7609E-03    -91.1127E+06    -143.319E+06    -33.5565E+06    -654.601E+03    -235.891E-03     468.556E-03    -232.665E-03     152.178E-03    -239.776E-03     471.705E-03    -232.492E-03     131.261E-03
             318     5.70652E-03     88.9804E-03    -83.6367E+06    -101.782E+06    -15.5217E+06    -155.955E+03    -236.598E-03     469.274E-03    -232.677E-03     173.307E-03    -241.854E-03     473.917E-03    -232.485E-03     148.703E-03
             319     6.41942E-03     89.2269E-03    -75.5534E+06    -54.2450E+06     3.17359E+06     195.122E+03    -237.066E-03     469.740E-03    -232.673E-03     194.318E-03    -243.979E-03     476.182E-03    -232.469E-03     165.858E-03
             320     7.13315E-03     89.4999E-03    -66.6043E+06    -13.4480E+06     19.7116E+06    -808.034E+03    -237.351E-03     469.997E-03    -232.646E-03     215.263E-03    -246.203E-03     478.508E-03    -232.431E-03     182.804E-03
             321     7.84743E-03     89.8000E-03    -57.1539E+06     6.56362E+06     32.1713E+06    -1.37564E+06    -237.831E-03     470.450E-03    -232.619E-03     235.441E-03    -248.858E-03     481.204E-03    -232.385E-03     198.960E-03
             322     8.56088E-03     90.1249E-03    -48.2578E+06     18.8906E+06     43.5290E+06    -466.667E+03    -238.398E-03     471.017E-03    -232.619E-03     253.539E-03    -251.751E-03     484.140E-03    -232.359E-03     213.239E-03
             323     9.27405E-03     90.4737E-03    -40.2960E+06     31.4237E+06     55.4921E+06     488.163E+03    -238.166E-03     470.805E-03    -232.639E-03     267.059E-03    -253.681E-03     486.128E-03    -232.348E-03     223.730E-03
             324     9.98756E-03     90.8326E-03    -32.7263E+06     41.2872E+06     67.0139E+06     521.219E+03    -237.014E-03     469.662E-03    -232.648E-03     272.176E-03    -254.006E-03     486.490E-03    -232.325E-03     227.193E-03
             325     10.7020E-03     91.1908E-03    -25.6170E+06     49.6779E+06     75.1653E+06     161.682E+03    -235.509E-03     468.143E-03    -232.634E-03     266.186E-03    -252.827E-03     485.328E-03    -232.293E-03     221.221E-03
             326     11.4152E-03     91.5293E-03    -19.4625E+06     55.9312E+06     76.8146E+06    -163.386E+03    -233.967E-03     466.567E-03    -232.600E-03     250.654E-03    -250.411E-03     482.917E-03    -232.269E-03     207.260E-03
             327     12.1290E-03     91.8431E-03    -14.2625E+06     60.3103E+06     76.5875E+06     94.3790E+03    -232.442E-03     465.012E-03    -232.569E-03     223.772E-03    -246.541E-03     479.052E-03    -232.253E-03     183.943E-03
             328     12.8424E-03     92.1077E-03    -8.87507E+06     66.8164E+06     79.0555E+06     114.289E+03    -231.450E-03     463.997E-03    -232.547E-03     203.068E-03    -243.599E-03     476.123E-03    -232.236E-03     166.175E-03
             329     13.5596E-03     92.3642E-03    -4.17095E+06     68.4150E+06     80.7117E+06    -133.153E+03    -231.492E-03     464.034E-03    -232.542E-03     142.071E-03    -239.027E-03     471.563E-03    -232.231E-03     114.066E-03
             330     713.627E-06     89.5549E-03    -125.684E+06    -298.821E+06    -123.578E+06    -88.4090E+03    -232.764E-03     465.424E-03    -232.660E-03     24.5518E-03    -232.870E-03     464.382E-03    -232.662E-03     21.6286E-03
             331     1.42632E-03     89.6016E-03    -122.506E+06    -284.372E+06    -115.727E+06     67.2802E+03    -232.915E-03     465.557E-03    -232.642E-03     44.6649E-03    -233.230E-03     464.763E-03    -232.631E-03     39.2332E-03
             332     2.13944E-03     89.6769E-03    -118.248E+06    -262.578E+06    -102.496E+06    -47.2496E+03    -233.301E-03     465.938E-03    -232.637E-03     66.2154E-03    -233.980E-03     465.563E-03    -232.597E-03     58.0259E-03
             333     2.85332E-03     89.7817E-03    -112.410E+06    -239.114E+06    -86.1938E+06    -91.1560E+03    -233.816E-03     466.468E-03    -232.652E-03     87.9116E-03    -235.011E-03     466.665E-03    -232.573E-03     76.8188E-03
             334     3.56589E-03     89.9160E-03    -105.801E+06    -213.179E+06    -68.7654E+06     217.588E+03    -234.435E-03     467.107E-03    -232.672E-03     109.199E-03    -236.313E-03     468.051E-03    -232.553E-03     95.0518E-03
             335     4.27988E-03     90.0786E-03    -98.4221E+06    -181.762E+06    -50.9083E+06     217.694E+03    -235.140E-03     467.827E-03    -232.687E-03     130.710E-03    -237.904E-03     469.744E-03    -232.535E-03     113.297E-03
             336     4.99301E-03     90.2701E-03    -90.3989E+06    -143.352E+06    -33.2423E+06     419.379E+03    -235.877E-03     468.569E-03    -232.692E-03     152.306E-03    -239.758E-03     471.716E-03    -232.519E-03     131.415E-03
             337     5.70604E-03     90.4892E-03    -81.8724E+06    -102.148E+06    -14.8912E+06     612.900E+03    -236.450E-03     469.137E-03    -232.687E-03     173.637E-03    -241.700E-03     473.777E-03    -232.494E-03     149.074E-03
             338     6.42015E-03     90.7356E-03    -72.3517E+06    -53.1881E+06     5.11007E+06     56.8685E+03    -236.872E-03     469.531E-03    -232.660E-03     194.666E-03    -243.775E-03     475.975E-03    -232.452E-03     166.235E-03
             339     7.13382E-03     91.0087E-03    -62.7818E+06    -11.1177E+06     22.4223E+06    -491.396E+03    -237.472E-03     470.098E-03    -232.627E-03     215.314E-03    -246.310E-03     478.609E-03    -232.408E-03     182.856E-03
             340     7.84720E-03     91.3080E-03    -54.9207E+06     6.36771E+06     33.1068E+06    -459.877E+03    -238.214E-03     470.834E-03    -232.620E-03     235.438E-03    -249.236E-03     481.588E-03    -232.384E-03     198.911E-03
             341     8.56038E-03     91.6354E-03    -48.1204E+06     17.5680E+06     43.3192E+06    -370.502E+03    -238.373E-03     471.006E-03    -232.633E-03     253.782E-03    -251.732E-03     484.131E-03    -232.372E-03     213.488E-03
             342     9.27396E-03     91.9817E-03    -40.9106E+06     30.8568E+06     55.6242E+06    -568.271E+03    -237.861E-03     470.499E-03    -232.637E-03     267.479E-03    -253.396E-03     485.836E-03    -232.345E-03     224.181E-03
             343     9.98830E-03     92.3415E-03    -33.3104E+06     40.7756E+06     66.9062E+06    -628.835E+03    -237.032E-03     469.664E-03    -232.632E-03     272.386E-03    -254.037E-03     486.501E-03    -232.308E-03     227.375E-03
             344     10.7017E-03     92.6988E-03    -26.0041E+06     49.3751E+06     74.9291E+06    -207.472E+03    -235.712E-03     468.338E-03    -232.626E-03     265.879E-03    -253.025E-03     485.516E-03    -232.285E-03     220.872E-03
             345     11.4156E-03     93.0395E-03    -19.7027E+06     55.8001E+06     76.9387E+06     307.598E+03    -234.109E-03     466.717E-03    -232.608E-03     250.261E-03    -250.541E-03     483.055E-03    -232.276E-03     206.850E-03
             346     12.1288E-03     93.3517E-03    -14.0770E+06     60.7116E+06     77.7958E+06     360.432E+03    -232.536E-03     465.128E-03    -232.592E-03     223.293E-03    -246.625E-03     479.157E-03    -232.270E-03     183.435E-03
             347     12.8431E-03     93.6163E-03    -9.12948E+06     66.8536E+06     79.9585E+06    -302.382E+03    -231.586E-03     464.166E-03    -232.580E-03     201.646E-03    -243.703E-03     476.257E-03    -232.264E-03     164.713E-03
             348     13.5540E-03     93.8699E-03    -4.36071E+06     68.3045E+06     80.5564E+06    -96.8252E+03    -231.459E-03     464.038E-03    -232.578E-03     141.501E-03    -238.969E-03     471.541E-03    -232.268E-03     113.510E-03
             349     712.954E-06     91.0637E-03    -123.925E+06    -298.709E+06    -121.987E+06    -313.900E+03    -232.898E-03     465.349E-03    -232.451E-03     24.5237E-03    -232.998E-03     464.303E-03    -232.448E-03     21.5923E-03
             350     1.42641E-03     91.1099E-03    -121.202E+06    -284.791E+06    -114.689E+06     59.8430E+03    -233.040E-03     465.677E-03    -232.636E-03     44.6758E-03    -233.350E-03     464.878E-03    -232.621E-03     39.2342E-03
             351     2.13992E-03     91.1850E-03    -117.129E+06    -262.503E+06    -102.635E+06     199.982E+03    -233.462E-03     466.138E-03    -232.676E-03     66.1327E-03    -234.135E-03     465.761E-03    -232.639E-03     57.9411E-03
             352     2.85248E-03     91.2905E-03    -111.789E+06    -239.601E+06    -86.1736E+06     499.695E+03    -233.882E-03     466.596E-03    -232.715E-03     87.7411E-03    -235.070E-03     466.787E-03    -232.636E-03     76.6667E-03
             353     3.56635E-03     91.4245E-03    -104.841E+06    -213.533E+06    -68.2184E+06     552.843E+03    -234.417E-03     467.145E-03    -232.727E-03     109.438E-03    -236.294E-03     468.089E-03    -232.607E-03     95.2898E-03
             354     4.27909E-03     91.5871E-03    -97.0615E+06    -181.690E+06    -50.1133E+06     647.849E+03    -235.095E-03     467.819E-03    -232.724E-03     131.013E-03    -237.856E-03     469.736E-03    -232.571E-03     113.609E-03
             355     4.99274E-03     91.7785E-03    -89.0300E+06    -143.685E+06    -32.2698E+06     553.052E+03    -235.666E-03     468.369E-03    -232.703E-03     152.494E-03    -239.539E-03     471.510E-03    -232.527E-03     131.643E-03
             356     5.70678E-03     91.9979E-03    -80.5318E+06    -101.555E+06    -13.4890E+06     179.912E+03    -236.240E-03     468.908E-03    -232.668E-03     173.730E-03    -241.484E-03     473.545E-03    -232.472E-03     149.191E-03
             357     6.42003E-03     92.2437E-03    -72.1109E+06    -50.8246E+06     6.41695E+06    -742.980E+03    -236.934E-03     469.567E-03    -232.633E-03     194.554E-03    -243.837E-03     476.016E-03    -232.423E-03     166.108E-03
             358     7.13386E-03     92.5173E-03    -64.0134E+06    -11.5680E+06     21.8449E+06    -1.23235E+06    -237.724E-03     470.341E-03    -232.617E-03     215.254E-03    -246.566E-03     478.851E-03    -232.398E-03     182.749E-03
             359     7.84697E-03     92.8184E-03    -55.7933E+06     4.86283E+06     31.6645E+06    -242.671E+03    -238.167E-03     470.784E-03    -232.618E-03     235.601E-03    -249.198E-03     481.543E-03    -232.386E-03     199.069E-03
             360     8.56055E-03     93.1436E-03    -47.5283E+06     18.3015E+06     43.2171E+06     319.291E+03    -238.061E-03     470.677E-03    -232.616E-03     253.933E-03    -251.428E-03     483.815E-03    -232.358E-03     213.677E-03
             361     9.27498E-03     93.4902E-03    -39.8731E+06     31.9406E+06     56.4665E+06    -39.7513E+03    -237.901E-03     470.515E-03    -232.614E-03     267.463E-03    -253.440E-03     485.862E-03    -232.320E-03     224.143E-03
             362     9.98820E-03     93.8506E-03    -33.1741E+06     41.0363E+06     67.5592E+06    -268.701E+03    -237.338E-03     469.963E-03    -232.625E-03     272.194E-03    -254.345E-03     486.802E-03    -232.299E-03     227.123E-03
             363     10.7016E-03     94.2084E-03    -26.8498E+06     48.6604E+06     75.0239E+06    -175.668E+03    -235.868E-03     468.506E-03    -232.637E-03     265.906E-03    -253.192E-03     485.689E-03    -232.294E-03     220.865E-03
             364     11.4146E-03     94.5481E-03    -20.4235E+06     55.2049E+06     77.0314E+06    -147.013E+03    -234.216E-03     466.842E-03    -232.626E-03     250.519E-03    -250.668E-03     483.195E-03    -232.292E-03     207.069E-03
             365     12.1286E-03     94.8608E-03    -14.1967E+06     60.6802E+06     77.7874E+06    -153.268E+03    -232.952E-03     465.573E-03    -232.622E-03     223.449E-03    -247.070E-03     479.631E-03    -232.300E-03     183.481E-03
             366     12.8408E-03     95.1261E-03    -8.87264E+06     67.1682E+06     79.7971E+06     207.605E+03    -232.286E-03     464.924E-03    -232.638E-03     201.897E-03    -244.429E-03     477.043E-03    -232.323E-03     164.841E-03
             367     13.5558E-03     95.3809E-03    -4.17646E+06     68.5206E+06     80.6490E+06     235.589E+03    -230.891E-03     463.529E-03    -232.638E-03     142.070E-03    -238.417E-03     471.049E-03    -232.328E-03     114.076E-03
             368     713.373E-06     92.5719E-03    -125.206E+06    -298.678E+06    -122.103E+06     370.383E+03    -233.064E-03     465.552E-03    -232.487E-03     23.9337E-03    -233.169E-03     464.506E-03    -232.483E-03     21.0363E-03
             369     1.42655E-03     92.6179E-03    -121.783E+06    -284.960E+06    -114.053E+06     104.683E+03    -232.989E-03     465.706E-03    -232.717E-03     44.6546E-03    -233.304E-03     464.907E-03    -232.697E-03     39.2063E-03
             370     2.13905E-03     92.6946E-03    -117.656E+06    -263.205E+06    -101.975E+06     364.758E+03    -233.384E-03     466.092E-03    -232.708E-03     66.3865E-03    -234.062E-03     465.713E-03    -232.666E-03     58.1929E-03
             371     2.85273E-03     92.7986E-03    -111.486E+06    -240.217E+06    -85.4850E+06     481.002E+03    -233.805E-03     466.519E-03    -232.714E-03     88.2069E-03    -234.996E-03     466.709E-03    -232.631E-03     77.1341E-03
             372     3.56579E-03     92.9328E-03    -104.315E+06    -213.659E+06    -67.6696E+06     459.568E+03    -234.418E-03     467.128E-03    -232.710E-03     109.947E-03    -236.296E-03     468.074E-03    -232.588E-03     95.8007E-03
             373     4.27975E-03     93.0959E-03    -96.6779E+06    -181.927E+06    -49.6662E+06     362.851E+03    -235.074E-03     467.776E-03    -232.703E-03     131.350E-03    -237.837E-03     469.695E-03    -232.547E-03     113.945E-03
             374     4.99306E-03     93.2869E-03    -88.3425E+06    -143.144E+06    -31.1778E+06     238.677E+03    -235.671E-03     468.354E-03    -232.683E-03     152.538E-03    -239.547E-03     471.499E-03    -232.504E-03     131.669E-03
             375     5.70651E-03     93.5055E-03    -79.8179E+06    -100.962E+06    -12.5162E+06    -33.1503E+03    -236.355E-03     469.015E-03    -232.659E-03     173.578E-03    -241.599E-03     473.652E-03    -232.460E-03     149.012E-03
             376     6.42052E-03     93.7529E-03    -71.4183E+06    -49.9639E+06     7.04077E+06     448.217E+03    -237.103E-03     469.744E-03    -232.641E-03     194.428E-03    -244.006E-03     476.196E-03    -232.430E-03     165.964E-03
             377     7.13338E-03     94.0264E-03    -63.5115E+06    -10.1221E+06     22.9692E+06     640.530E+03    -237.588E-03     470.216E-03    -232.629E-03     215.331E-03    -246.434E-03     478.735E-03    -232.407E-03     182.867E-03
             378     7.84714E-03     94.3272E-03    -55.8602E+06     4.56347E+06     32.3698E+06    -593.425E+03    -237.806E-03     470.413E-03    -232.607E-03     235.629E-03    -248.832E-03     481.163E-03    -232.371E-03     199.163E-03
             379     8.56133E-03     94.6516E-03    -48.1100E+06     17.3157E+06     42.9419E+06    -823.121E+03    -238.146E-03     470.737E-03    -232.591E-03     253.833E-03    -251.512E-03     483.869E-03    -232.332E-03     213.548E-03
             380     9.27437E-03     94.9994E-03    -40.4718E+06     31.4641E+06     55.7374E+06     90.1245E+03    -238.249E-03     470.855E-03    -232.606E-03     267.322E-03    -253.793E-03     486.206E-03    -232.314E-03     223.927E-03
             381     9.98801E-03     95.3595E-03    -33.0362E+06     41.2239E+06     67.5872E+06     751.606E+03    -237.322E-03     469.957E-03    -232.634E-03     272.091E-03    -254.330E-03     486.797E-03    -232.308E-03     227.029E-03
             382     10.7015E-03     95.7178E-03    -26.0052E+06     49.5434E+06      75.895E+06     566.841E+03    -235.780E-03     468.423E-03    -232.644E-03     266.105E-03    -253.106E-03     485.614E-03    -232.298E-03     221.091E-03
             383     11.4157E-03     96.0573E-03    -19.6242E+06     56.0557E+06     77.7641E+06     133.763E+03    -234.355E-03     466.986E-03    -232.631E-03     250.927E-03    -250.820E-03     483.354E-03    -232.295E-03     207.457E-03
             384     12.1280E-03     96.3717E-03    -14.3007E+06     60.5857E+06     77.4534E+06    -121.523E+03    -233.002E-03     465.625E-03    -232.623E-03     224.537E-03    -247.153E-03     479.716E-03    -232.303E-03     184.568E-03
             385     12.8416E-03     96.6366E-03    -9.34898E+06     66.7034E+06     79.0578E+06    -199.442E+03    -232.027E-03     464.651E-03    -232.624E-03     203.933E-03    -244.265E-03     476.864E-03    -232.312E-03     166.830E-03
             386     13.5527E-03     96.8905E-03    -4.27585E+06     68.5325E+06     80.6707E+06    -16.7814E+03    -230.887E-03     463.501E-03    -232.614E-03     142.562E-03    -238.469E-03     471.076E-03    -232.303E-03     114.526E-03
             387     712.613E-06     94.0798E-03    -125.749E+06    -298.831E+06    -125.043E+06     151.751E+03    -232.694E-03     465.555E-03    -232.861E-03     23.7954E-03    -232.798E-03     464.514E-03    -232.870E-03     20.8934E-03
             388     1.42586E-03     94.1271E-03    -123.200E+06    -284.992E+06    -115.484E+06    -62.1182E+03    -232.858E-03     465.546E-03    -232.689E-03     45.1988E-03    -233.179E-03     464.753E-03    -232.674E-03     39.7515E-03
             389     2.13999E-03     94.2023E-03    -118.070E+06    -263.739E+06    -101.205E+06     29.0547E+03    -233.226E-03     465.870E-03    -232.644E-03     66.6655E-03    -233.907E-03     465.489E-03    -232.597E-03     58.4765E-03
             390     2.85323E-03     94.3071E-03    -111.825E+06    -240.174E+06    -84.9762E+06     53.1551E+03    -233.856E-03     466.503E-03    -232.647E-03     88.1251E-03    -235.048E-03     466.692E-03    -232.562E-03     77.0442E-03
             391     3.56673E-03     94.4415E-03    -104.709E+06    -213.764E+06    -67.5806E+06    -12.5209E+03    -234.440E-03     467.107E-03    -232.667E-03     109.674E-03    -236.318E-03     468.050E-03    -232.543E-03     95.5275E-03
             392     4.27960E-03     94.6041E-03    -96.7480E+06    -181.529E+06    -49.3153E+06    -123.592E+03    -235.021E-03     467.690E-03    -232.669E-03     131.149E-03    -237.786E-03     469.610E-03    -232.512E-03     113.733E-03
             393     4.99326E-03     94.7954E-03    -88.5673E+06    -142.910E+06    -31.3256E+06    -375.681E+03    -235.830E-03     468.491E-03    -232.661E-03     152.468E-03    -239.710E-03     471.640E-03    -232.482E-03     131.559E-03
             394     5.70666E-03     95.0144E-03    -80.2124E+06    -101.075E+06    -12.9180E+06    -402.452E+03    -236.612E-03     469.278E-03    -232.666E-03     173.620E-03    -241.862E-03     473.922E-03    -232.468E-03     149.007E-03
             395     6.41944E-03     95.2614E-03     -71.475E+06    -52.5541E+06     6.30682E+06     385.361E+03    -237.062E-03     469.723E-03    -232.661E-03     194.704E-03    -243.976E-03     476.178E-03    -232.449E-03     166.219E-03
             396     7.13359E-03     95.5355E-03    -62.4209E+06    -10.3584E+06     23.0414E+06     1.85210E+06    -237.307E-03     469.936E-03    -232.629E-03     215.275E-03    -246.150E-03     478.453E-03    -232.408E-03     182.854E-03
             397     7.84767E-03     95.8348E-03    -54.6934E+06     8.62774E+06     33.9798E+06     2.10009E+06    -237.804E-03     470.401E-03    -232.596E-03     235.369E-03    -248.826E-03     481.160E-03    -232.360E-03     198.937E-03
             398     8.56100E-03     96.1609E-03    -48.3965E+06     18.5724E+06     43.2941E+06     547.131E+03    -238.371E-03     470.964E-03    -232.593E-03     253.707E-03    -251.736E-03     484.098E-03    -232.333E-03     213.407E-03
             399     9.27463E-03     96.5088E-03    -41.6940E+06     30.3061E+06     54.8771E+06    -442.019E+03    -238.195E-03     470.809E-03    -232.614E-03     267.396E-03    -253.744E-03     486.158E-03    -232.323E-03     224.017E-03
             400     9.98772E-03     96.8689E-03    -33.9928E+06     40.2859E+06     66.6366E+06    -644.311E+03    -237.232E-03     469.865E-03    -232.633E-03     272.370E-03    -254.255E-03     486.718E-03    -232.309E-03     227.299E-03
             401     10.7019E-03     97.2257E-03    -26.2252E+06     49.2592E+06     74.8632E+06    -427.206E+03    -235.870E-03     468.508E-03    -232.638E-03     266.380E-03    -253.219E-03     485.722E-03    -232.297E-03     221.305E-03
             402     11.4145E-03     97.5680E-03    -19.5565E+06     56.0342E+06     76.6875E+06     167.144E+03    -234.227E-03     466.849E-03    -232.622E-03     251.064E-03    -250.708E-03     483.237E-03    -232.292E-03     207.583E-03
             403     12.1289E-03     97.8800E-03    -13.8086E+06     61.0424E+06     77.4051E+06     360.647E+03    -232.331E-03     464.926E-03    -232.595E-03     224.496E-03    -246.468E-03     479.006E-03    -232.277E-03     184.648E-03
             404     12.8427E-03     98.1471E-03    -8.69367E+06     67.4735E+06     80.1506E+06     300.767E+03    -231.280E-03     463.843E-03    -232.562E-03     203.886E-03    -243.499E-03     476.037E-03    -232.247E-03     166.968E-03
             405     13.5592E-03     98.4000E-03    -4.32633E+06     68.5383E+06     80.6522E+06    -13.3748E+03    -231.601E-03     464.151E-03    -232.549E-03     142.185E-03    -239.163E-03     471.707E-03    -232.239E-03     114.180E-03
             406     713.713E-06     95.5892E-03    -125.225E+06    -298.532E+06    -122.653E+06    -237.272E+03    -232.137E-03     465.081E-03    -232.944E-03     24.4552E-03    -232.243E-03     464.039E-03    -232.943E-03     21.5065E-03
             407     1.42704E-03     95.6344E-03    -122.428E+06    -284.626E+06    -115.619E+06    -200.697E+03    -233.073E-03     465.609E-03    -232.535E-03     44.8354E-03    -233.388E-03     464.814E-03    -232.523E-03     39.4136E-03
             408     2.13979E-03     95.7107E-03    -118.041E+06    -263.741E+06    -102.365E+06    -409.776E+03    -233.401E-03     466.018E-03    -232.616E-03     66.1966E-03    -234.078E-03     465.636E-03    -232.575E-03     57.9953E-03
             409     2.85287E-03     95.8157E-03    -112.165E+06    -239.988E+06    -85.7432E+06    -248.559E+03    -233.839E-03     466.496E-03    -232.657E-03     87.7251E-03    -235.031E-03     466.686E-03    -232.575E-03     76.6312E-03
             410     3.56588E-03     95.9498E-03    -105.208E+06    -213.386E+06    -67.9828E+06    -226.406E+03    -234.354E-03     467.025E-03    -232.671E-03     109.445E-03    -236.233E-03     467.970E-03    -232.549E-03     95.2899E-03
             411     4.27989E-03     96.1122E-03    -97.6198E+06    -181.335E+06    -50.1064E+06    -431.374E+03    -235.056E-03     467.724E-03    -232.668E-03     131.016E-03    -237.821E-03     469.644E-03    -232.514E-03     113.596E-03
             412     4.99319E-03     96.3039E-03    -89.9338E+06    -142.983E+06    -32.4926E+06    -472.148E+03    -235.836E-03     468.500E-03    -232.663E-03     152.558E-03    -239.722E-03     471.653E-03    -232.488E-03     131.652E-03
             413     5.70629E-03     96.5236E-03    -82.3840E+06    -101.471E+06    -14.4056E+06    -70.3693E+03    -236.527E-03     469.189E-03    -232.662E-03     173.868E-03    -241.790E-03     473.840E-03    -232.467E-03     149.268E-03
             414     6.42029E-03     96.7702E-03    -74.7033E+06    -53.9805E+06     4.14733E+06    -9.59824E+03    -236.962E-03     469.606E-03    -232.644E-03     194.872E-03    -243.889E-03     476.064E-03    -232.436E-03     166.404E-03
             415     7.13368E-03     97.0436E-03    -66.6733E+06    -13.1947E+06     19.5714E+06     98.3912E+03    -237.449E-03     470.061E-03    -232.612E-03     215.320E-03    -246.311E-03     478.582E-03    -232.398E-03     182.843E-03
             416     7.84717E-03     97.3432E-03    -57.6166E+06     8.52643E+06     31.7157E+06     821.941E+03    -238.116E-03     470.719E-03    -232.603E-03     235.370E-03    -249.160E-03     481.497E-03    -232.373E-03     198.840E-03
             417     8.56075E-03     97.6704E-03    -48.1803E+06     20.8466E+06     43.4174E+06     968.056E+03    -238.237E-03     470.849E-03    -232.612E-03     253.693E-03    -251.610E-03     483.999E-03    -232.355E-03     213.401E-03
             418     9.27408E-03     98.0172E-03    -39.9766E+06     31.9243E+06     55.6322E+06     371.108E+03    -237.885E-03     470.501E-03    -232.616E-03     267.479E-03    -253.427E-03     485.853E-03    -232.326E-03     224.167E-03
             419     9.98873E-03     98.3775E-03    -33.0251E+06     41.2408E+06     67.2176E+06    -356.677E+03    -237.339E-03     469.966E-03    -232.627E-03     272.534E-03    -254.366E-03     486.827E-03    -232.303E-03     227.442E-03
             420     10.7013E-03     98.7363E-03    -26.7243E+06     48.8519E+06     74.5977E+06    -711.263E+03    -235.924E-03     468.561E-03    -232.637E-03     266.301E-03    -253.280E-03     485.780E-03    -232.296E-03     221.201E-03
             421     11.4156E-03     99.0762E-03    -20.4802E+06     55.2235E+06     76.1994E+06    -722.251E+03    -234.056E-03     466.676E-03    -232.620E-03     251.076E-03    -250.553E-03     483.075E-03    -232.289E-03     207.594E-03
             422     12.1285E-03     99.3898E-03    -14.3829E+06     60.4762E+06     76.6225E+06    -489.500E+03    -232.288E-03     464.877E-03    -232.589E-03     223.360E-03    -246.401E-03     478.931E-03    -232.272E-03     183.501E-03
             423     12.8435E-03     99.6523E-03    -9.01421E+06     66.9150E+06     78.4574E+06         565.164    -231.324E-03     463.884E-03    -232.560E-03     201.940E-03    -243.451E-03     475.989E-03    -232.251E-03     165.067E-03
             424     13.5545E-03     99.9105E-03    -4.02115E+06     68.6499E+06     79.6330E+06     266.121E+03    -231.332E-03     463.879E-03    -232.548E-03     141.700E-03    -238.842E-03     471.388E-03    -232.243E-03     113.758E-03
             425     713.619E-06     97.0970E-03    -124.765E+06    -298.443E+06    -122.665E+06     169.780E+03    -232.846E-03     465.188E-03    -232.342E-03     24.7687E-03    -232.949E-03     464.144E-03    -232.342E-03     21.8741E-03
             426     1.42611E-03     97.1434E-03    -122.039E+06    -284.893E+06    -114.748E+06     235.785E+03    -233.178E-03     465.781E-03    -232.603E-03     44.4912E-03    -233.490E-03     464.981E-03    -232.587E-03     39.0712E-03
             427     2.13933E-03     97.2193E-03    -118.175E+06    -262.781E+06    -103.019E+06    -21.1399E+03    -233.394E-03     466.069E-03    -232.675E-03     66.2450E-03    -234.072E-03     465.694E-03    -232.638E-03     58.0584E-03
             428     2.85273E-03     97.3240E-03    -112.502E+06    -239.782E+06    -86.6850E+06    -296.804E+03    -233.741E-03     466.426E-03    -232.685E-03     88.0115E-03    -234.937E-03     466.623E-03    -232.608E-03     76.9090E-03
             429     3.56667E-03     97.4577E-03    -105.526E+06    -213.510E+06    -68.9556E+06    -161.251E+03    -234.400E-03     467.083E-03    -232.684E-03     109.547E-03    -236.280E-03     468.031E-03    -232.566E-03     95.3848E-03
             430     4.27948E-03     97.6210E-03    -98.3417E+06    -181.559E+06    -51.1002E+06     292.760E+03    -235.106E-03     467.792E-03    -232.686E-03     131.048E-03    -237.873E-03     469.714E-03    -232.536E-03     113.638E-03
             431     4.99288E-03     97.8122E-03    -90.9017E+06    -142.975E+06    -33.1165E+06     690.189E+03    -235.744E-03     468.422E-03    -232.678E-03     152.588E-03    -239.633E-03     471.576E-03    -232.504E-03     131.714E-03
             432     5.70688E-03     98.0322E-03    -82.9159E+06    -102.233E+06    -14.9935E+06      912.31E+03    -236.330E-03     468.987E-03    -232.657E-03     173.762E-03    -241.589E-03     473.632E-03    -232.463E-03     149.210E-03
             433     6.42003E-03     98.2786E-03    -74.5334E+06    -53.2620E+06     4.02567E+06     1.17021E+06    -236.942E-03     469.570E-03    -232.628E-03     194.516E-03    -243.853E-03     476.015E-03    -232.422E-03     166.094E-03
             434     7.13393E-03     98.5522E-03    -65.4333E+06    -11.1406E+06     20.7955E+06    -90.0845E+03    -237.672E-03     470.283E-03    -232.611E-03     215.387E-03    -246.533E-03     478.812E-03    -232.396E-03     182.881E-03
             435     7.84708E-03     98.8532E-03    -55.8461E+06     6.65166E+06     32.8165E+06    -1.54850E+06    -238.114E-03     470.728E-03    -232.614E-03     235.761E-03    -249.161E-03     481.506E-03    -232.379E-03     199.200E-03
             436     8.56028E-03     99.1786E-03    -47.0824E+06     18.8094E+06     44.3353E+06    -610.117E+03    -238.149E-03     470.764E-03    -232.614E-03     254.091E-03    -251.528E-03     483.914E-03    -232.352E-03     213.803E-03
             437     9.27505E-03     99.5252E-03    -39.3366E+06     32.6554E+06     56.3988E+06     518.899E+03    -238.164E-03     470.782E-03    -232.618E-03     267.655E-03    -253.720E-03     486.151E-03    -232.326E-03     224.273E-03
             438     9.98760E-03     99.8873E-03    -32.1249E+06     42.1915E+06     67.7455E+06     1.02161E+06    -237.356E-03     469.994E-03    -232.638E-03     272.342E-03    -254.375E-03     486.853E-03    -232.314E-03     227.260E-03
             439     10.7018E-03     100.245E-03    -25.3987E+06     50.2333E+06     76.0929E+06     838.710E+03    -235.737E-03     468.385E-03    -232.648E-03     266.169E-03    -253.085E-03     485.600E-03    -232.303E-03     221.128E-03
             440     11.4147E-03     100.585E-03    -19.5586E+06     56.2219E+06     77.8822E+06     233.984E+03    -234.071E-03     466.698E-03    -232.627E-03     250.763E-03    -250.544E-03     483.075E-03    -232.291E-03     207.331E-03
             441     12.1290E-03     100.899E-03    -14.4949E+06     60.5810E+06     77.3385E+06    -119.361E+03    -232.681E-03     465.286E-03    -232.605E-03     223.581E-03    -246.792E-03     479.336E-03    -232.285E-03     183.705E-03
             442     12.8404E-03     101.162E-03    -9.60461E+06     66.5848E+06     78.5404E+06    -728.745E+03    -232.088E-03     464.691E-03    -232.603E-03     202.724E-03    -244.250E-03     476.827E-03    -232.293E-03     165.679E-03
             443     13.5567E-03     101.419E-03    -4.61920E+06     68.2288E+06     79.6153E+06    -541.818E+03    -231.106E-03     463.708E-03    -232.601E-03     141.969E-03    -238.646E-03     471.242E-03    -232.295E-03     113.938E-03
             444     712.531E-06     98.6039E-03    -124.872E+06    -298.961E+06    -123.783E+06    -179.367E+03    -233.351E-03     465.608E-03    -232.256E-03     24.2667E-03    -233.453E-03     464.564E-03    -232.261E-03     21.3908E-03
             445     1.42653E-03     98.6530E-03    -122.439E+06    -285.272E+06    -115.657E+06     201.873E+03    -232.864E-03     465.566E-03    -232.702E-03     45.1389E-03    -233.179E-03     464.769E-03    -232.689E-03     39.7058E-03
             446     2.13963E-03     98.7271E-03    -117.862E+06    -262.121E+06    -102.577E+06     186.523E+03    -233.262E-03     465.914E-03    -232.652E-03     66.3754E-03    -233.940E-03     465.541E-03    -232.614E-03     58.1976E-03
             447     2.85318E-03     98.8323E-03    -112.059E+06    -239.567E+06     -86.339E+06     93.9727E+03    -233.827E-03     466.484E-03    -232.656E-03     88.1721E-03    -235.022E-03     466.680E-03    -232.578E-03     77.0778E-03
             448     3.56576E-03     98.9664E-03    -105.538E+06    -214.162E+06    -69.0453E+06     288.750E+03    -234.531E-03     467.210E-03    -232.680E-03     109.728E-03    -236.413E-03     468.158E-03    -232.561E-03     95.5601E-03
             449     4.27959E-03     99.1292E-03    -97.9540E+06    -182.545E+06    -51.1452E+06     785.490E+03    -235.177E-03     467.876E-03    -232.699E-03     131.151E-03    -237.946E-03     469.798E-03    -232.548E-03     113.724E-03
             450     4.99311E-03     99.3209E-03    -89.5736E+06    -143.740E+06    -32.9270E+06     1.21227E+06    -235.764E-03     468.459E-03    -232.695E-03     152.468E-03    -239.645E-03     471.607E-03    -232.521E-03     131.592E-03
             451     5.70619E-03     99.5401E-03    -80.8420E+06    -102.040E+06    -13.8702E+06     1.16864E+06    -236.337E-03     469.013E-03    -232.677E-03     173.565E-03    -241.581E-03     473.648E-03    -232.481E-03     149.022E-03
             452     6.42032E-03     99.7872E-03    -71.1441E+06    -52.6242E+06     5.91328E+06     516.875E+03    -236.990E-03     469.640E-03    -232.650E-03     194.543E-03    -243.890E-03     476.083E-03    -232.441E-03     166.094E-03
             453     7.13342E-03     100.061E-03    -61.4573E+06    -9.18406E+06     23.5742E+06     5.64019E+03    -237.518E-03     470.144E-03    -232.626E-03     215.500E-03    -246.365E-03     478.672E-03    -232.405E-03     183.021E-03
             454     7.84719E-03     100.362E-03    -54.1200E+06     8.36697E+06     34.5872E+06     217.296E+03    -237.821E-03     470.427E-03    -232.605E-03     235.583E-03    -248.854E-03     481.196E-03    -232.366E-03     199.109E-03
             455     8.56188E-03     100.687E-03    -47.9991E+06     17.9685E+06     43.6463E+06    -251.979E+03    -238.392E-03     470.992E-03    -232.601E-03     253.925E-03    -251.772E-03     484.140E-03    -232.339E-03     213.587E-03
             456     9.27395E-03     101.036E-03    -41.0071E+06     31.0991E+06     55.5313E+06    -504.604E+03    -238.367E-03     470.993E-03    -232.626E-03     267.546E-03    -253.926E-03     486.356E-03    -232.334E-03     224.116E-03
             457     9.98775E-03     101.396E-03    -33.4139E+06     40.9130E+06     67.2252E+06    -41.6443E+03    -237.242E-03     469.892E-03    -232.651E-03     272.492E-03    -254.275E-03     486.758E-03    -232.326E-03     227.416E-03
             458     10.7014E-03     101.753E-03    -25.9609E+06     49.6509E+06     75.4410E+06     529.488E+03    -235.736E-03     468.387E-03    -232.650E-03     266.534E-03    -253.096E-03     485.611E-03    -232.307E-03     221.494E-03
             459     11.4153E-03     102.096E-03    -19.0708E+06     56.7590E+06     77.7512E+06     1.14875E+06    -234.039E-03     466.663E-03    -232.624E-03     250.839E-03    -250.486E-03     483.019E-03    -232.290E-03     207.466E-03
             460     12.1283E-03     102.406E-03    -12.8160E+06     62.3659E+06     79.0696E+06     846.890E+03    -232.758E-03     465.364E-03    -232.605E-03     224.417E-03    -246.886E-03     479.438E-03    -232.282E-03     184.521E-03
             461     12.8436E-03     102.675E-03    -8.46003E+06     68.1430E+06     81.1194E+06     441.661E+03    -232.291E-03     464.903E-03    -232.612E-03     203.367E-03    -244.501E-03     477.089E-03    -232.293E-03     166.278E-03
             462     13.5529E-03     102.927E-03    -5.09399E+06     68.1849E+06     80.5174E+06    -399.993E+03    -231.287E-03     463.903E-03    -232.616E-03     142.224E-03    -238.849E-03     471.456E-03    -232.305E-03     114.165E-03
             463     713.410E-06     100.113E-03    -123.814E+06    -298.987E+06    -121.714E+06     137.119E+03    -232.832E-03     465.570E-03    -232.738E-03     24.1905E-03    -232.931E-03     464.522E-03    -232.733E-03     21.2629E-03
             464     1.42621E-03     100.160E-03    -121.300E+06    -285.073E+06    -114.568E+06    -133.250E+03    -232.780E-03     465.451E-03    -232.672E-03     44.8938E-03    -233.090E-03     464.652E-03    -232.655E-03     39.4668E-03
             465     2.13997E-03     100.236E-03    -117.227E+06    -262.836E+06    -102.306E+06     274.186E+03    -233.271E-03     465.885E-03    -232.615E-03     66.3324E-03    -233.944E-03     465.506E-03    -232.575E-03     58.1573E-03
             466     2.85281E-03     100.341E-03    -111.921E+06    -240.187E+06    -85.8699E+06     711.837E+03    -233.929E-03     466.573E-03    -232.644E-03     87.9863E-03    -235.121E-03     466.764E-03    -232.563E-03     76.9059E-03
             467     3.56685E-03     100.475E-03    -105.059E+06    -214.236E+06    -68.1988E+06     694.808E+03    -234.506E-03     467.187E-03    -232.681E-03     109.705E-03    -236.388E-03     468.133E-03    -232.559E-03     95.5405E-03
             468     4.27948E-03     100.638E-03    -97.2668E+06    -182.828E+06    -50.4308E+06     329.532E+03    -235.200E-03     467.899E-03    -232.699E-03     131.210E-03    -237.967E-03     469.818E-03    -232.545E-03     113.770E-03
             469     4.99264E-03     100.829E-03    -88.9856E+06    -144.550E+06    -32.6673E+06     233.395E+03    -235.849E-03     468.549E-03    -232.700E-03     152.619E-03    -239.731E-03     471.697E-03    -232.525E-03     131.709E-03
             470     5.70655E-03     101.049E-03    -80.1866E+06    -101.647E+06    -13.4903E+06     226.047E+03    -236.473E-03     469.165E-03    -232.692E-03     173.784E-03    -241.725E-03     473.811E-03    -232.496E-03     149.191E-03
             471     6.41959E-03     101.295E-03     -71.917E+06    -51.7028E+06     6.35027E+06    -495.988E+03    -237.007E-03     469.679E-03    -232.672E-03     194.842E-03    -243.926E-03     476.141E-03    -232.461E-03     166.353E-03
             472     7.13354E-03     101.571E-03    -64.8087E+06    -10.7346E+06     22.0424E+06     330.641E+03    -237.353E-03     469.991E-03    -232.637E-03     215.342E-03    -246.208E-03     478.513E-03    -232.418E-03     182.896E-03
             473     7.84770E-03     101.869E-03    -57.3503E+06     9.11568E+06     33.3921E+06     1.09301E+06    -237.974E-03     470.591E-03    -232.617E-03     235.261E-03    -249.017E-03     481.366E-03    -232.380E-03     198.758E-03
             474     8.56011E-03     102.197E-03    -49.0598E+06     20.1766E+06     43.6200E+06     135.380E+03    -238.416E-03     471.039E-03    -232.623E-03     253.826E-03    -251.804E-03     484.198E-03    -232.363E-03     213.473E-03
             475     9.27426E-03     102.545E-03    -41.1485E+06     30.7405E+06     54.8446E+06    -461.397E+03    -237.986E-03     470.620E-03    -232.634E-03     267.501E-03    -253.533E-03     485.971E-03    -232.344E-03     224.157E-03
             476     9.98824E-03     102.904E-03    -33.9722E+06     40.4115E+06     66.5428E+06    -584.468E+03    -237.237E-03     469.880E-03    -232.642E-03     272.777E-03    -254.277E-03     486.749E-03    -232.319E-03     227.698E-03
             477     10.7014E-03     103.264E-03    -27.2230E+06     48.6300E+06     74.3687E+06    -739.852E+03    -235.802E-03     468.444E-03    -232.642E-03     266.580E-03    -253.166E-03     485.668E-03    -232.301E-03     221.512E-03
             478     11.4150E-03     103.602E-03    -20.2102E+06     55.6706E+06     76.7415E+06    -708.610E+03    -234.105E-03     466.727E-03    -232.623E-03     250.771E-03    -250.582E-03     483.108E-03    -232.290E-03     207.288E-03
             479     12.1294E-03     103.918E-03    -14.2340E+06     60.9035E+06     77.2092E+06    -30.7631E+03    -232.739E-03     465.344E-03    -232.605E-03     224.229E-03    -246.893E-03     479.440E-03    -232.287E-03     184.259E-03
             480     12.8404E-03     104.183E-03    -8.52615E+06     67.8016E+06     79.4710E+06     531.359E+03    -231.487E-03     464.076E-03    -232.589E-03     203.502E-03    -243.715E-03     476.284E-03    -232.278E-03     166.493E-03
             481     13.5577E-03     104.439E-03    -3.47352E+06     69.5346E+06     81.0132E+06     421.814E+03    -230.787E-03     463.351E-03    -232.564E-03     142.656E-03    -238.359E-03     470.923E-03    -232.255E-03     114.692E-03
             482     712.879E-06     101.623E-03    -125.568E+06    -299.217E+06    -123.571E+06     311.324E+03    -232.977E-03     465.456E-03    -232.478E-03     24.2834E-03    -233.081E-03     464.410E-03    -232.480E-03     21.3743E-03
             483     1.42647E-03     101.667E-03    -122.687E+06    -284.873E+06    -114.948E+06     111.495E+03    -233.010E-03     465.691E-03    -232.681E-03     44.5410E-03    -233.327E-03     464.894E-03    -232.665E-03     39.1140E-03
             484     2.13961E-03     101.744E-03    -118.253E+06    -264.186E+06    -101.725E+06     419.774E+03    -233.336E-03     466.027E-03    -232.691E-03     66.2062E-03    -234.014E-03     465.642E-03    -232.645E-03     58.0154E-03
             485     2.85309E-03     101.849E-03    -111.868E+06    -240.650E+06    -85.3039E+06     588.760E+03    -233.819E-03     466.519E-03    -232.700E-03     87.7580E-03    -235.009E-03     466.705E-03    -232.615E-03     76.6742E-03
             486     3.56558E-03     101.983E-03    -104.512E+06    -214.149E+06    -67.6198E+06     449.128E+03    -234.422E-03     467.128E-03    -232.706E-03     109.624E-03    -236.299E-03     468.070E-03    -232.582E-03     95.4682E-03
             487     4.27972E-03     102.147E-03    -96.9613E+06    -182.302E+06    -49.7137E+06     380.223E+03    -235.079E-03     467.783E-03    -232.704E-03     131.193E-03    -237.845E-03     469.701E-03    -232.547E-03     113.775E-03
             488     4.99326E-03     102.338E-03    -89.3265E+06    -143.953E+06    -31.8394E+06     234.273E+03    -235.823E-03     468.518E-03    -232.695E-03     152.620E-03    -239.708E-03     471.667E-03    -232.516E-03     131.718E-03
             489     5.70624E-03     102.557E-03    -81.8045E+06    -101.917E+06    -13.9563E+06     118.694E+03    -236.585E-03     469.274E-03    -232.689E-03     173.962E-03    -241.854E-03     473.931E-03    -232.493E-03     149.334E-03
             490     6.41999E-03     102.805E-03    -74.3508E+06    -52.2549E+06     5.32969E+06     1.32774E+06    -237.033E-03     469.710E-03    -232.678E-03     194.697E-03    -243.960E-03     476.172E-03    -232.468E-03     166.232E-03
             491     7.13354E-03     103.078E-03    -66.1143E+06    -10.9179E+06     21.8194E+06     1.67177E+06    -237.515E-03     470.170E-03    -232.655E-03     215.265E-03    -246.377E-03     478.695E-03    -232.434E-03     182.810E-03
             492     7.84655E-03     103.379E-03    -56.7849E+06     9.57932E+06     34.2474E+06     311.096E+03    -238.105E-03     470.751E-03    -232.646E-03     235.794E-03    -249.168E-03     481.548E-03    -232.407E-03     199.241E-03
             493     8.56055E-03     103.706E-03    -48.0379E+06     21.2019E+06     45.5151E+06    -96.9085E+03    -238.130E-03     470.773E-03    -232.643E-03     254.242E-03    -251.526E-03     483.941E-03    -232.376E-03     213.948E-03
             494     9.27443E-03     104.052E-03    -40.5893E+06     31.6541E+06     56.2981E+06     47.0166E+03    -238.020E-03     470.656E-03    -232.636E-03     267.787E-03    -253.583E-03     486.024E-03    -232.342E-03     224.431E-03
             495     9.98783E-03     104.414E-03    -33.4471E+06     41.2226E+06     67.3129E+06    -275.965E+03    -237.306E-03     469.951E-03    -232.645E-03     272.550E-03    -254.342E-03     486.820E-03    -232.320E-03     227.452E-03
             496     10.7017E-03     104.772E-03    -26.3676E+06     49.3885E+06     75.3116E+06    -514.919E+03    -235.754E-03     468.404E-03    -232.650E-03     266.225E-03    -253.115E-03     485.629E-03    -232.307E-03     221.148E-03
             497     11.4153E-03     105.113E-03    -20.4963E+06     55.3537E+06     76.7944E+06    -554.383E+03    -234.305E-03     466.941E-03    -232.636E-03     250.949E-03    -250.820E-03     483.357E-03    -232.303E-03     207.394E-03
             498     12.1271E-03     105.427E-03    -15.7189E+06     59.2754E+06     76.0283E+06    -210.078E+03    -232.293E-03     464.901E-03    -232.609E-03     224.231E-03    -246.441E-03     478.983E-03    -232.292E-03     184.368E-03
             499     12.8437E-03     105.692E-03    -9.63945E+06     66.4171E+06     78.5505E+06    -603.947E+03    -230.911E-03     463.473E-03    -232.562E-03     203.620E-03    -243.102E-03     475.638E-03    -232.252E-03     166.747E-03
             500     13.5558E-03     105.945E-03    -3.19582E+06     69.8885E+06     81.2711E+06    -401.361E+03    -231.176E-03     463.709E-03    -232.533E-03     142.095E-03    -238.730E-03     471.263E-03    -232.223E-03     114.101E-03
             501     713.533E-06     103.130E-03    -125.122E+06    -299.294E+06    -123.418E+06    -67.5020E+03    -233.121E-03     465.528E-03    -232.407E-03     23.9038E-03    -233.223E-03     464.481E-03    -232.409E-03     20.9932E-03
             502     1.42622E-03     103.177E-03    -122.639E+06    -285.528E+06    -114.941E+06     404.763E+03    -233.097E-03     465.825E-03    -232.728E-03     44.6287E-03    -233.413E-03     465.026E-03    -232.711E-03     39.1912E-03
             503     2.13906E-03     103.252E-03    -117.693E+06    -264.596E+06    -101.184E+06     344.230E+03    -233.329E-03     466.067E-03    -232.738E-03     66.5551E-03    -234.009E-03     465.683E-03    -232.689E-03     58.3492E-03
             504     2.85240E-03     103.358E-03    -111.461E+06    -241.016E+06    -84.8522E+06     338.910E+03    -233.774E-03     466.496E-03    -232.723E-03     88.2776E-03    -234.966E-03     466.684E-03    -232.636E-03     77.1834E-03
             505     3.56665E-03     103.492E-03    -104.544E+06    -214.483E+06    -67.4445E+06     557.766E+03    -234.417E-03     467.131E-03    -232.714E-03     109.845E-03    -236.296E-03     468.074E-03    -232.589E-03     95.6943E-03
             506     4.27933E-03     103.655E-03    -97.0657E+06    -182.798E+06    -49.5034E+06     917.108E+03    -235.098E-03     467.808E-03    -232.710E-03     131.290E-03    -237.865E-03     469.725E-03    -232.552E-03     113.878E-03
             507     4.99281E-03     103.846E-03    -89.3181E+06    -143.879E+06    -31.5450E+06     1.23818E+06    -235.855E-03     468.558E-03    -232.703E-03     152.580E-03    -239.741E-03     471.707E-03    -232.522E-03     131.686E-03
             508     5.70660E-03     104.067E-03    -81.4294E+06    -102.209E+06    -13.2221E+06     1.77785E+06    -236.536E-03     469.235E-03    -232.699E-03     173.824E-03    -241.797E-03     473.882E-03    -232.499E-03     149.240E-03
             509     6.41962E-03     104.313E-03    -72.3560E+06    -54.0073E+06     6.08600E+06     2.10205E+06    -237.106E-03     469.794E-03    -232.688E-03     194.575E-03    -244.018E-03     476.239E-03    -232.474E-03     166.118E-03
             510     7.13324E-03     104.587E-03    -62.4211E+06    -9.80021E+06     23.9532E+06     1.68167E+06    -237.606E-03     470.277E-03    -232.671E-03     215.495E-03    -246.464E-03     478.809E-03    -232.446E-03     183.011E-03
             511     7.84706E-03     104.889E-03    -54.1124E+06     11.9931E+06     36.7170E+06     1.36342E+06    -237.848E-03     470.500E-03    -232.652E-03     235.949E-03    -248.904E-03     481.300E-03    -232.407E-03     199.461E-03
             512     8.56089E-03     105.213E-03    -47.1434E+06     21.8857E+06     46.3146E+06     1.00810E+06    -238.186E-03     470.822E-03    -232.636E-03     254.076E-03    -251.580E-03     483.992E-03    -232.367E-03     213.774E-03
             513     9.27451E-03     105.562E-03    -39.8697E+06     32.4542E+06     57.1895E+06     488.854E+03    -238.277E-03     470.921E-03    -232.645E-03     267.669E-03    -253.850E-03     486.302E-03    -232.348E-03     224.245E-03
             514     9.98764E-03     105.923E-03    -32.5287E+06     41.9351E+06     68.8110E+06     371.372E+03    -237.279E-03     469.947E-03    -232.668E-03     272.284E-03    -254.313E-03     486.815E-03    -232.337E-03     227.194E-03
             515     10.7012E-03     106.280E-03    -25.9076E+06     49.5578E+06     76.3918E+06     694.228E+03    -235.725E-03     468.393E-03    -232.669E-03     266.526E-03    -253.092E-03     485.623E-03    -232.321E-03     221.483E-03
             516     11.4143E-03     106.623E-03    -19.9405E+06     55.6005E+06     77.7419E+06     839.479E+03    -233.969E-03     466.605E-03    -232.636E-03     251.567E-03    -250.460E-03     482.997E-03    -232.299E-03     208.180E-03
             517     12.1295E-03     106.936E-03    -13.4281E+06     61.4487E+06     78.9030E+06    -45.4904E+03    -232.341E-03     464.941E-03    -232.600E-03     223.843E-03    -246.468E-03     479.010E-03    -232.275E-03     183.981E-03
             518     12.8423E-03     107.197E-03    -8.56185E+06     67.7711E+06     80.8620E+06    -144.403E+03    -231.811E-03     464.398E-03    -232.586E-03     202.019E-03    -243.960E-03     476.522E-03    -232.268E-03     165.034E-03
             519     13.5573E-03     107.458E-03    -4.73453E+06     68.6549E+06     80.3959E+06    -224.403E+03    -231.914E-03     464.511E-03    -232.598E-03     141.317E-03    -239.431E-03     472.022E-03    -232.288E-03     113.285E-03
             520     712.767E-06     104.640E-03    -124.116E+06    -299.692E+06    -121.906E+06     370.204E+03    -232.444E-03     465.405E-03    -232.961E-03     24.2981E-03    -232.544E-03     464.355E-03    -232.956E-03     21.3789E-03
             521     1.42613E-03     104.685E-03    -121.082E+06    -286.104E+06    -114.123E+06     272.702E+03    -232.978E-03     465.626E-03    -232.648E-03     45.0115E-03    -233.289E-03     464.822E-03    -232.628E-03     39.5674E-03
             522     2.14005E-03     104.761E-03    -116.694E+06    -264.985E+06    -101.438E+06     393.525E+03    -233.371E-03     466.028E-03    -232.658E-03     66.6511E-03    -234.044E-03     465.641E-03    -232.611E-03     58.4555E-03
             523     2.85333E-03     104.866E-03    -111.017E+06    -241.601E+06    -84.9066E+06     651.781E+03    -233.909E-03     466.594E-03    -232.685E-03     88.2120E-03    -235.099E-03     466.778E-03    -232.598E-03     77.1162E-03
             524     3.56573E-03     105.000E-03    -104.342E+06    -215.215E+06    -67.2344E+06     955.648E+03    -234.476E-03     467.183E-03    -232.707E-03     109.707E-03    -236.352E-03     468.120E-03    -232.580E-03     95.5585E-03
             525     4.27981E-03     105.163E-03    -96.8212E+06    -183.759E+06    -49.2868E+06     1.22760E+06    -235.209E-03     467.929E-03    -232.720E-03     131.294E-03    -237.976E-03     469.842E-03    -232.559E-03     113.871E-03
             526     4.99297E-03     105.355E-03    -88.8118E+06    -145.167E+06    -31.5651E+06     1.71177E+06    -235.947E-03     468.671E-03    -232.724E-03     152.648E-03    -239.831E-03     471.816E-03    -232.543E-03     131.744E-03
             527     5.70592E-03     105.575E-03    -79.8877E+06    -103.313E+06    -12.5886E+06     1.95410E+06    -236.485E-03     469.207E-03    -232.722E-03     173.706E-03    -241.731E-03     473.839E-03    -232.519E-03     149.145E-03
             528     6.42009E-03     105.822E-03    -71.1697E+06    -53.8083E+06     7.20046E+06     1.58666E+06    -237.046E-03     469.748E-03    -232.701E-03     194.798E-03    -243.960E-03     476.197E-03    -232.484E-03     166.331E-03
             529     7.13315E-03     106.097E-03    -63.6207E+06    -9.99575E+06     23.5984E+06     1.74050E+06    -237.499E-03     470.171E-03    -232.672E-03     215.441E-03    -246.364E-03     478.706E-03    -232.447E-03     182.958E-03
             530     7.84703E-03     106.396E-03    -55.9331E+06     12.7839E+06     35.8241E+06     1.85142E+06    -237.947E-03     470.599E-03    -232.653E-03     235.543E-03    -249.006E-03     481.401E-03    -232.411E-03     199.033E-03
             531     8.56075E-03     106.723E-03    -47.8449E+06     23.5551E+06     46.0752E+06     1.09286E+06    -238.402E-03     471.056E-03    -232.654E-03     253.916E-03    -251.803E-03     484.237E-03    -232.388E-03     213.562E-03
             532     9.27354E-03     107.071E-03    -40.0860E+06     32.5458E+06     56.9799E+06     715.515E+03    -238.091E-03     470.758E-03    -232.667E-03     267.540E-03    -253.658E-03     486.134E-03    -232.371E-03     224.158E-03
             533     9.98774E-03     107.432E-03    -32.9995E+06     41.6024E+06     68.3470E+06     915.852E+03    -237.111E-03     469.786E-03    -232.674E-03     272.640E-03    -254.152E-03     486.659E-03    -232.345E-03     227.591E-03
             534     10.7012E-03     107.790E-03    -25.9190E+06     49.6241E+06     76.5190E+06     872.648E+03    -235.704E-03     468.370E-03    -232.666E-03     266.872E-03    -253.084E-03     485.612E-03    -232.318E-03     221.825E-03
             535     11.4158E-03     108.131E-03    -18.6564E+06     56.4708E+06     79.4147E+06     245.808E+03    -234.030E-03     466.671E-03    -232.641E-03     250.785E-03    -250.512E-03     483.057E-03    -232.299E-03     207.324E-03
             536     12.1291E-03     108.444E-03    -12.5944E+06     62.1537E+06     80.0303E+06     2.90528E+03    -232.976E-03     465.608E-03    -232.632E-03     222.997E-03    -247.102E-03     479.678E-03    -232.304E-03     182.986E-03
             537     12.8412E-03     108.712E-03    -8.03771E+06     68.7525E+06     80.8372E+06     631.709E+03    -232.743E-03     465.403E-03    -232.660E-03     201.946E-03    -244.933E-03     477.574E-03    -232.344E-03     164.755E-03
             538     13.5520E-03     108.963E-03    -4.79765E+06     68.9764E+06     80.1943E+06     844.269E+03    -231.605E-03     464.292E-03    -232.688E-03     142.115E-03    -239.160E-03     471.843E-03    -232.380E-03     114.057E-03
             539     713.741E-06     106.148E-03    -124.626E+06    -300.177E+06    -122.620E+06    -210.844E+03    -232.731E-03     465.276E-03    -232.545E-03     24.7768E-03    -232.830E-03     464.226E-03    -232.542E-03     21.8488E-03
             540     1.42706E-03     106.194E-03    -121.472E+06    -286.510E+06    -114.533E+06    -14.8455E+03    -233.036E-03     465.646E-03    -232.610E-03     44.4616E-03    -233.344E-03     464.838E-03    -232.591E-03     39.0217E-03
             541     2.13949E-03     106.269E-03    -117.095E+06    -265.734E+06    -101.407E+06     344.503E+03    -233.429E-03     466.093E-03    -232.663E-03     66.1120E-03    -234.100E-03     465.698E-03    -232.615E-03     57.9170E-03
             542     2.85249E-03     106.375E-03    -111.147E+06    -242.734E+06    -85.0550E+06     700.539E+03    -233.888E-03     466.588E-03    -232.700E-03     87.9592E-03    -235.074E-03     466.764E-03    -232.612E-03     76.8760E-03
             543     3.56659E-03     106.509E-03    -104.245E+06    -216.250E+06    -67.3300E+06     1.26829E+06    -234.560E-03     467.286E-03    -232.726E-03     109.650E-03    -236.434E-03     468.217E-03    -232.598E-03     95.5000E-03
             544     4.27918E-03     106.672E-03    -96.8406E+06    -184.357E+06    -49.2238E+06     1.43793E+06    -235.266E-03     468.013E-03    -232.748E-03     131.274E-03    -238.032E-03     469.924E-03    -232.586E-03     113.843E-03
             545     4.99257E-03     106.864E-03    -88.6509E+06    -146.418E+06    -31.2079E+06     1.43423E+06    -235.864E-03     468.614E-03    -232.750E-03     152.633E-03    -239.743E-03     471.749E-03    -232.565E-03     131.739E-03
             546     5.70640E-03     107.084E-03    -80.5257E+06    -104.217E+06    -12.9362E+06     1.57896E+06    -236.495E-03     469.230E-03    -232.736E-03     173.820E-03    -241.748E-03     473.866E-03    -232.533E-03     149.235E-03
             547     6.41929E-03     107.331E-03    -72.5962E+06    -54.7108E+06     6.42363E+06     2.40366E+06    -237.001E-03     469.712E-03    -232.711E-03     194.828E-03    -243.921E-03     476.161E-03    -232.494E-03     166.374E-03
             548     7.13360E-03     107.605E-03    -63.8550E+06    -10.4068E+06     23.6512E+06     2.87825E+06    -237.532E-03     470.215E-03    -232.682E-03     215.284E-03    -246.395E-03     478.745E-03    -232.456E-03     182.815E-03
             549     7.84682E-03     107.905E-03    -54.7932E+06     13.6897E+06     36.6106E+06     2.14835E+06    -238.237E-03     470.914E-03    -232.677E-03     235.619E-03    -249.303E-03     481.728E-03    -232.434E-03     199.050E-03
             550     8.55970E-03     108.232E-03    -46.6406E+06     24.6944E+06     47.2215E+06     1.94922E+06    -238.279E-03     470.963E-03    -232.684E-03     254.076E-03    -251.678E-03     484.147E-03    -232.416E-03     213.767E-03
             551     9.27420E-03     108.580E-03    -39.5127E+06     33.3430E+06     57.9435E+06     1.84998E+06    -237.873E-03     470.552E-03    -232.679E-03     267.799E-03    -253.443E-03     485.932E-03    -232.380E-03     224.479E-03
             552     9.98770E-03     108.940E-03    -32.3093E+06     42.1054E+06     69.1846E+06     1.20502E+06    -237.263E-03     469.944E-03    -232.681E-03     272.639E-03    -254.316E-03     486.831E-03    -232.349E-03     227.538E-03
             553     10.7019E-03     109.299E-03    -25.1930E+06     50.3322E+06     77.1920E+06     827.105E+03    -236.030E-03     468.723E-03    -232.694E-03     265.873E-03    -253.406E-03     485.965E-03    -232.344E-03     220.702E-03
             554     11.4143E-03     109.640E-03    -19.7017E+06     57.9288E+06     78.6529E+06     593.981E+03    -234.525E-03     467.225E-03    -232.699E-03     249.854E-03    -251.020E-03     483.627E-03    -232.361E-03     206.242E-03
             555     12.1266E-03     109.954E-03    -15.2934E+06     62.1069E+06     77.6771E+06     280.321E+03    -232.961E-03     465.663E-03    -232.703E-03     223.344E-03    -247.107E-03     479.751E-03    -232.382E-03     183.336E-03
             556     12.8408E-03     110.220E-03    -9.97772E+06     67.2201E+06     79.4479E+06     112.105E+03    -231.813E-03     464.514E-03    -232.700E-03     203.553E-03    -244.029E-03     476.703E-03    -232.386E-03     166.533E-03
             557     13.5545E-03     110.479E-03    -4.32168E+06     69.4255E+06     80.8608E+06     511.022E+03    -230.544E-03     463.211E-03    -232.667E-03     143.726E-03    -238.123E-03     470.787E-03    -232.357E-03     115.802E-03
             558     712.772E-06     107.655E-03    -124.201E+06    -300.154E+06    -121.835E+06     24.3169E+03    -233.221E-03     465.519E-03    -232.298E-03     23.7920E-03    -233.317E-03     464.468E-03    -232.292E-03     20.8662E-03
             559     1.42564E-03     107.703E-03    -121.285E+06    -287.078E+06    -113.711E+06     104.047E+03    -232.994E-03     465.696E-03    -232.702E-03     44.9105E-03    -233.304E-03     464.886E-03    -232.678E-03     39.4563E-03
             560     2.13941E-03     107.778E-03    -116.952E+06    -266.931E+06    -100.964E+06     673.729E+03    -233.454E-03     466.166E-03    -232.712E-03     66.4923E-03    -234.124E-03     465.766E-03    -232.660E-03     58.3018E-03
             561     2.85312E-03     107.883E-03    -111.433E+06    -243.706E+06    -84.7821E+06     1.16125E+06    -233.981E-03     466.728E-03    -232.747E-03     87.9985E-03    -235.167E-03     466.899E-03    -232.656E-03     76.9179E-03
             562     3.56564E-03     108.017E-03    -104.510E+06    -217.494E+06    -67.2842E+06     1.24252E+06    -234.581E-03     467.357E-03    -232.776E-03     109.572E-03    -236.454E-03     468.282E-03    -232.646E-03     95.4151E-03
             563     4.27934E-03     108.181E-03    -96.7043E+06    -185.249E+06    -49.2300E+06     1.61034E+06    -235.162E-03     467.945E-03    -232.783E-03     131.248E-03    -237.925E-03     469.850E-03    -232.620E-03     113.833E-03
             564     4.99274E-03     108.373E-03    -88.9253E+06    -146.808E+06    -31.0330E+06     1.88375E+06    -235.791E-03     468.558E-03    -232.767E-03     152.711E-03    -239.675E-03     471.695E-03    -232.581E-03     131.822E-03
             565     5.70600E-03     108.592E-03    -81.1187E+06    -105.499E+06    -13.1102E+06     2.26173E+06    -236.522E-03     469.270E-03    -232.748E-03     173.860E-03    -241.779E-03     473.903E-03    -232.543E-03     149.275E-03
             566     6.41992E-03     108.840E-03    -72.2943E+06    -56.6414E+06     6.10080E+06     2.67075E+06    -237.096E-03     469.825E-03    -232.728E-03     194.593E-03    -244.004E-03     476.257E-03    -232.511E-03     166.143E-03
             567     7.13291E-03     109.113E-03    -63.0600E+06    -10.7641E+06     24.0130E+06     2.33296E+06    -237.675E-03     470.385E-03    -232.710E-03     215.438E-03    -246.538E-03     478.916E-03    -232.483E-03     182.941E-03
             568     7.84647E-03     109.415E-03    -54.6263E+06     14.2826E+06     37.1637E+06      2.2687E+06    -238.050E-03     470.750E-03    -232.700E-03     235.755E-03    -249.118E-03     481.566E-03    -232.455E-03     199.224E-03
             569     8.56043E-03     109.741E-03    -46.6758E+06     24.6390E+06     47.5724E+06     2.24455E+06    -238.156E-03     470.847E-03    -232.692E-03     253.958E-03    -251.556E-03     484.031E-03    -232.422E-03     213.662E-03
             570     9.27396E-03     110.088E-03    -38.5834E+06     34.0022E+06     58.7876E+06     1.96299E+06    -238.236E-03     470.935E-03    -232.699E-03     267.414E-03    -253.808E-03     486.320E-03    -232.398E-03     223.993E-03
             571     9.98771E-03     110.450E-03    -31.2265E+06     42.7226E+06     70.0631E+06     2.19706E+06    -237.684E-03     470.420E-03    -232.736E-03     271.877E-03    -254.734E-03     487.308E-03    -232.402E-03     226.668E-03
             572     10.6997E-03     110.808E-03    -25.1281E+06     50.7514E+06     77.3695E+06     2.58242E+06    -236.215E-03     468.985E-03    -232.770E-03     265.728E-03    -253.593E-03     486.229E-03    -232.420E-03     220.548E-03
             573     11.4130E-03     111.151E-03    -19.1749E+06     59.2149E+06     79.2294E+06     2.66775E+06    -234.283E-03     467.048E-03    -232.765E-03     250.711E-03    -250.776E-03     483.453E-03    -232.427E-03     207.242E-03
             574     12.1272E-03     111.463E-03    -13.4076E+06     64.1258E+06     79.5475E+06     2.13867E+06    -232.372E-03     465.105E-03    -232.733E-03     224.699E-03    -246.538E-03     479.220E-03    -232.409E-03     184.851E-03
             575     12.8400E-03     111.730E-03    -8.74331E+06     68.1406E+06     80.6869E+06     1.19722E+06    -230.759E-03     463.434E-03    -232.675E-03     203.776E-03    -242.956E-03     475.608E-03    -232.358E-03     166.974E-03
             576     13.5565E-03     111.981E-03    -3.93340E+06     69.8516E+06     81.4448E+06     112.494E+03    -230.241E-03     462.848E-03    -232.606E-03     142.289E-03    -237.770E-03     470.374E-03    -232.295E-03     114.468E-03
             577     713.157E-06     109.164E-03    -124.734E+06    -300.528E+06    -123.142E+06     137.467E+03    -232.667E-03     465.479E-03    -232.812E-03     24.2577E-03    -232.765E-03     464.430E-03    -232.811E-03     21.3397E-03
             578     1.42708E-03     109.210E-03    -122.011E+06    -288.134E+06    -114.185E+06     615.729E+03    -233.070E-03     465.772E-03    -232.702E-03     44.9413E-03    -233.382E-03     464.958E-03    -232.678E-03     39.5039E-03
             579     2.13987E-03     109.287E-03    -117.744E+06    -268.532E+06    -100.983E+06     1.00978E+06    -233.501E-03     466.241E-03    -232.740E-03     66.3314E-03    -234.172E-03     465.834E-03    -232.684E-03     58.1482E-03
             580     2.85219E-03     109.392E-03    -111.596E+06    -244.716E+06    -84.7566E+06     1.30054E+06    -234.049E-03     466.831E-03    -232.782E-03     88.0750E-03    -235.237E-03     467.001E-03    -232.690E-03     76.9763E-03
             581     3.56590E-03     109.527E-03    -104.322E+06    -218.220E+06    -66.8833E+06     1.45519E+06    -234.570E-03     467.380E-03    -232.810E-03     109.843E-03    -236.447E-03     468.306E-03    -232.677E-03     95.6741E-03
             582     4.27899E-03     109.689E-03    -96.6619E+06    -186.809E+06    -49.2030E+06     1.69119E+06    -235.145E-03     467.952E-03    -232.807E-03     131.241E-03    -237.905E-03     469.849E-03    -232.642E-03     113.827E-03
             583     4.99262E-03     109.881E-03    -88.5652E+06    -148.094E+06    -31.3144E+06     2.34498E+06    -235.868E-03     468.658E-03    -232.790E-03     152.625E-03    -239.747E-03     471.787E-03    -232.603E-03     131.737E-03
             584     5.70610E-03     110.101E-03    -79.9451E+06    -106.443E+06    -12.5439E+06     2.57249E+06    -236.552E-03     469.330E-03    -232.778E-03     173.728E-03    -241.796E-03     473.949E-03    -232.570E-03     149.160E-03
             585     6.41913E-03     110.348E-03    -71.1602E+06    -57.4101E+06     6.81114E+06     2.40606E+06    -237.170E-03     469.932E-03    -232.761E-03     194.605E-03    -244.076E-03     476.361E-03    -232.541E-03     166.130E-03
             586     7.13297E-03     110.623E-03    -62.8266E+06    -11.0186E+06     24.4036E+06     2.80692E+06    -237.651E-03     470.392E-03    -232.741E-03     215.544E-03    -246.519E-03     478.927E-03    -232.512E-03     183.043E-03
             587     7.84638E-03     110.924E-03    -54.6977E+06     14.7054E+06     37.7092E+06     2.79674E+06    -237.923E-03     470.646E-03    -232.723E-03     235.488E-03    -248.986E-03     481.458E-03    -232.476E-03     198.980E-03
             588     8.56032E-03     111.249E-03    -46.6748E+06     25.0536E+06     48.0234E+06     2.16754E+06    -238.499E-03     471.224E-03    -232.726E-03     253.560E-03    -251.903E-03     484.412E-03    -232.454E-03     213.174E-03
             589     9.27336E-03     111.599E-03    -39.9358E+06     32.6856E+06     57.9363E+06     2.47563E+06    -238.631E-03     471.394E-03    -232.763E-03     267.028E-03    -254.206E-03     486.775E-03    -232.462E-03     223.525E-03
             590     9.98549E-03     111.959E-03    -34.0538E+06     42.4301E+06     68.5818E+06     3.19648E+06    -237.574E-03     470.376E-03    -232.803E-03     272.423E-03    -254.642E-03     487.276E-03    -232.472E-03     227.268E-03
             591     10.6997E-03     112.320E-03    -27.7589E+06     51.7862E+06     76.2713E+06     2.40766E+06    -235.765E-03     468.568E-03    -232.803E-03     266.899E-03    -253.162E-03     485.829E-03    -232.457E-03     221.859E-03
             592     11.4137E-03     112.659E-03    -20.8709E+06     58.9298E+06     78.6065E+06     1.17447E+06    -233.794E-03     466.553E-03    -232.759E-03     251.612E-03    -250.315E-03     482.981E-03    -232.421E-03     208.214E-03
             593     12.1271E-03     112.973E-03    -14.1866E+06     63.5350E+06     79.5201E+06     1.55838E+06    -231.888E-03     464.584E-03    -232.696E-03     224.648E-03    -246.043E-03     478.684E-03    -232.370E-03     184.900E-03
             594     12.8430E-03     113.237E-03    -8.49795E+06     70.7098E+06     81.7374E+06     1.47296E+06    -231.098E-03     463.736E-03    -232.638E-03     203.064E-03    -243.285E-03     475.906E-03    -232.319E-03     166.198E-03
             595     13.5549E-03     113.491E-03    -4.50535E+06     71.9131E+06     82.3226E+06     540.663E+03    -231.197E-03     463.807E-03    -232.610E-03     142.325E-03    -238.772E-03     471.382E-03    -232.296E-03     114.290E-03
             596     713.641E-06     110.673E-03    -125.769E+06    -300.872E+06    -124.030E+06    -154.740E+03    -233.106E-03     465.779E-03    -232.673E-03     23.9826E-03    -233.207E-03     464.729E-03    -232.675E-03     21.0630E-03
             597     1.42550E-03     110.719E-03    -123.215E+06    -290.042E+06    -115.469E+06     557.588E+03    -233.126E-03     465.966E-03    -232.840E-03     44.3744E-03    -233.437E-03     465.144E-03    -232.818E-03     38.9435E-03
             598     2.13887E-03     110.795E-03    -118.129E+06    -269.450E+06    -101.595E+06     730.756E+03    -233.355E-03     466.177E-03    -232.822E-03     66.3876E-03    -234.027E-03     465.768E-03    -232.768E-03     58.1985E-03
             599     2.85298E-03     110.901E-03    -111.771E+06    -246.086E+06    -85.1632E+06     887.083E+03    -233.893E-03     466.698E-03    -232.804E-03     88.2391E-03    -235.081E-03     466.862E-03    -232.711E-03     77.1377E-03
             600     3.56581E-03     111.035E-03    -104.698E+06    -219.631E+06    -67.7156E+06     1.41015E+06    -234.582E-03     467.391E-03    -232.809E-03     109.763E-03    -236.456E-03     468.310E-03    -232.677E-03     95.5997E-03
             601     4.27926E-03     111.198E-03    -97.0482E+06    -187.746E+06    -49.4953E+06     1.77984E+06    -235.309E-03     468.131E-03    -232.822E-03     131.244E-03    -238.071E-03     470.025E-03    -232.656E-03     113.815E-03
             602     4.99227E-03     111.390E-03    -88.8169E+06    -149.733E+06    -31.7146E+06     1.68074E+06    -236.013E-03     468.838E-03    -232.825E-03     152.689E-03    -239.892E-03     471.963E-03    -232.638E-03     131.769E-03
             603     5.70556E-03     111.610E-03    -80.2852E+06    -107.441E+06    -13.0808E+06     1.95525E+06    -236.591E-03     469.410E-03    -232.819E-03     173.673E-03    -241.836E-03     474.027E-03    -232.612E-03     149.080E-03
             604     6.41947E-03     111.857E-03    -71.7769E+06    -58.0515E+06     6.58258E+06     2.24868E+06    -237.142E-03     469.943E-03    -232.801E-03     194.713E-03    -244.058E-03     476.378E-03    -232.579E-03     166.223E-03
             605     7.13242E-03     112.132E-03    -62.9586E+06    -13.2986E+06     23.7731E+06     3.14497E+06    -237.631E-03     470.406E-03    -232.775E-03     215.325E-03    -246.494E-03     478.930E-03    -232.545E-03     182.818E-03
             606     7.84649E-03     112.432E-03    -55.0155E+06     15.1738E+06     37.4079E+06     4.00936E+06    -238.264E-03     471.033E-03    -232.769E-03     235.165E-03    -249.326E-03     481.846E-03    -232.524E-03     198.608E-03
             607     8.55918E-03     112.760E-03    -48.7165E+06     25.5857E+06     47.0179E+06     4.07196E+06    -238.683E-03     471.473E-03    -232.790E-03     253.722E-03    -252.099E-03     484.671E-03    -232.522E-03     213.335E-03
             608     9.27196E-03     113.108E-03    -42.5437E+06     32.0436E+06     56.7307E+06     4.13028E+06    -238.244E-03     471.055E-03    -232.811E-03     267.746E-03    -253.835E-03     486.444E-03    -232.512E-03     224.367E-03
             609     9.98659E-03     113.469E-03    -34.9115E+06     43.9927E+06     68.9068E+06     2.81724E+06    -237.137E-03     469.946E-03    -232.809E-03     273.302E-03    -254.214E-03     486.855E-03    -232.478E-03     228.268E-03
             610     10.7002E-03     113.827E-03    -26.5060E+06     52.7567E+06     77.6555E+06     1.88996E+06    -235.387E-03     468.165E-03    -232.777E-03     267.253E-03    -252.787E-03     485.433E-03    -232.427E-03     222.276E-03
             611     11.4140E-03     114.169E-03    -20.3088E+06     59.5277E+06     79.3287E+06     2.22718E+06    -233.587E-03     466.299E-03    -232.712E-03     251.741E-03    -250.113E-03     482.734E-03    -232.372E-03     208.393E-03
             612     12.1286E-03     114.481E-03    -15.9368E+06     64.8199E+06     78.8479E+06     1.12860E+06    -232.346E-03     465.003E-03    -232.657E-03     224.248E-03    -246.527E-03     479.128E-03    -232.333E-03     184.360E-03
             613     12.8411E-03     114.745E-03    -10.4819E+06     70.8779E+06     81.2611E+06    -96.2091E+03    -231.806E-03     464.447E-03    -232.641E-03     202.588E-03    -244.032E-03     476.651E-03    -232.322E-03     165.513E-03
             614     13.5555E-03     115.003E-03    -4.74557E+06     71.9975E+06     83.0447E+06     397.854E+03    -230.795E-03     463.424E-03    -232.629E-03     142.319E-03    -238.371E-03     470.998E-03    -232.311E-03     114.326E-03
             615     711.874E-06     112.182E-03    -125.921E+06    -301.430E+06    -123.856E+06     522.589E+03    -233.074E-03     465.885E-03    -232.811E-03     24.4249E-03    -233.178E-03     464.832E-03    -232.811E-03     21.4884E-03
             616     1.42629E-03     112.229E-03    -123.143E+06    -290.816E+06    -115.693E+06     227.085E+03    -233.151E-03     466.031E-03    -232.879E-03     45.0404E-03    -233.463E-03     465.208E-03    -232.858E-03     39.5884E-03
             617     2.13958E-03     112.303E-03    -118.550E+06    -270.352E+06    -102.839E+06     524.795E+03    -233.420E-03     466.275E-03    -232.854E-03     66.4640E-03    -234.093E-03     465.865E-03    -232.805E-03     58.2580E-03
             618     2.85225E-03     112.409E-03    -112.779E+06    -247.244E+06    -86.3615E+06     809.875E+03    -233.917E-03     466.759E-03    -232.841E-03     88.1116E-03    -235.105E-03     466.919E-03    -232.751E-03     77.0106E-03
             619     3.56584E-03     112.544E-03    -105.948E+06    -221.010E+06    -68.9491E+06     937.304E+03    -234.580E-03     467.423E-03    -232.843E-03     109.541E-03    -236.452E-03     468.334E-03    -232.714E-03     95.3820E-03
             620     4.27891E-03     112.707E-03    -98.1805E+06    -188.878E+06    -50.8765E+06     1.15409E+06    -235.346E-03     468.200E-03    -232.853E-03     131.195E-03    -238.110E-03     470.092E-03    -232.691E-03     113.751E-03
             621     4.99226E-03     112.899E-03    -90.2591E+06    -150.358E+06    -32.6876E+06     1.31227E+06    -236.046E-03     468.905E-03    -232.860E-03     152.620E-03    -239.930E-03     472.031E-03    -232.674E-03     131.685E-03
             622     5.70557E-03     113.119E-03    -82.2337E+06    -108.689E+06    -14.3627E+06     1.59383E+06    -236.657E-03     469.513E-03    -232.856E-03     173.784E-03    -241.918E-03     474.138E-03    -232.651E-03     149.152E-03
             623     6.41846E-03     113.366E-03    -74.1234E+06    -59.4351E+06     4.92362E+06     2.30611E+06    -237.222E-03     470.063E-03    -232.841E-03     194.697E-03    -244.145E-03     476.498E-03    -232.623E-03     166.192E-03
             624     7.13270E-03     113.641E-03    -66.3123E+06    -16.1321E+06     21.2285E+06     2.65348E+06    -237.810E-03     470.635E-03    -232.825E-03     215.203E-03    -246.676E-03     479.147E-03    -232.599E-03     182.677E-03
             625     7.84517E-03     113.942E-03    -58.2539E+06     11.1224E+06     33.6359E+06     4.14301E+06    -238.303E-03     471.121E-03    -232.818E-03     235.623E-03    -249.382E-03     481.935E-03    -232.581E-03     199.058E-03
             626     8.55859E-03     114.269E-03    -50.1006E+06     25.6286E+06     44.8209E+06     5.61077E+06    -238.227E-03     471.037E-03    -232.810E-03     254.394E-03    -251.653E-03     484.246E-03    -232.550E-03     214.126E-03
             627     9.27324E-03     114.617E-03    -41.5497E+06     35.1753E+06     57.1118E+06     3.97255E+06    -237.869E-03     470.661E-03    -232.792E-03     268.356E-03    -253.468E-03     486.072E-03    -232.497E-03     225.051E-03
             628     9.98659E-03     114.978E-03    -33.4115E+06     45.7743E+06      69.806E+06     2.34244E+06    -236.948E-03     469.720E-03    -232.771E-03     273.218E-03    -254.022E-03     486.635E-03    -232.440E-03     228.199E-03
             629     10.7005E-03     115.337E-03    -27.0773E+06     51.8748E+06     77.5133E+06     2.40108E+06    -235.298E-03     468.034E-03    -232.737E-03     266.939E-03    -252.696E-03     485.296E-03    -232.385E-03     221.976E-03
             630     11.4151E-03     115.676E-03    -20.4171E+06     59.2239E+06     80.0689E+06     2.54652E+06    -233.721E-03     466.403E-03    -232.682E-03     251.268E-03    -250.238E-03     482.826E-03    -232.338E-03     207.902E-03
             631     12.1284E-03     115.991E-03    -13.2256E+06     67.8604E+06     82.3626E+06     2.35842E+06    -232.371E-03     465.010E-03    -232.639E-03     224.682E-03    -246.553E-03     479.147E-03    -232.306E-03     184.837E-03
             632     12.8413E-03     116.257E-03    -8.29601E+06     73.3959E+06     84.4253E+06     1.58312E+06    -231.780E-03     464.396E-03    -232.616E-03     204.903E-03    -244.070E-03     476.673E-03    -232.288E-03     167.883E-03
             633     13.5539E-03     116.509E-03    -4.75339E+06     72.4639E+06     84.1322E+06     447.639E+03    -230.925E-03     463.519E-03    -232.594E-03     142.769E-03    -238.533E-03     471.123E-03    -232.271E-03     114.766E-03
             634     714.670E-06     113.691E-03    -127.290E+06    -302.801E+06    -125.334E+06     236.369E+03    -232.733E-03     465.506E-03    -232.773E-03     24.6564E-03    -232.840E-03     464.449E-03    -232.776E-03     21.7396E-03
             635     1.42615E-03     113.737E-03    -124.457E+06    -290.884E+06    -116.825E+06     470.949E+03    -233.253E-03     466.002E-03    -232.749E-03     44.7970E-03    -233.569E-03     465.183E-03    -232.731E-03     39.3460E-03
             636     2.13886E-03     113.813E-03    -120.080E+06    -271.205E+06    -103.726E+06     487.298E+03    -233.679E-03     466.513E-03    -232.834E-03     66.4700E-03    -234.357E-03     466.103E-03    -232.785E-03     58.2457E-03
             637     2.85241E-03     113.918E-03    -114.042E+06    -247.929E+06    -87.4558E+06     688.160E+03    -234.076E-03     466.956E-03    -232.881E-03     88.2281E-03    -235.268E-03     467.118E-03    -232.793E-03     77.1177E-03
             638     3.56537E-03     114.053E-03    -106.951E+06    -221.398E+06    -69.6691E+06     784.759E+03    -234.641E-03     467.539E-03    -232.897E-03     109.733E-03    -236.521E-03     468.455E-03    -232.770E-03     95.5552E-03
             639     4.27876E-03     114.216E-03    -99.5988E+06    -189.942E+06    -52.1468E+06     911.697E+03    -235.351E-03     468.253E-03    -232.902E-03     131.309E-03    -238.121E-03     470.147E-03    -232.743E-03     113.850E-03
             640     4.99188E-03     114.408E-03    -91.7782E+06    -151.413E+06    -34.1305E+06     1.54415E+06    -236.003E-03     468.901E-03    -232.898E-03     152.585E-03    -239.890E-03     472.024E-03    -232.716E-03     131.660E-03
             641     5.70524E-03     114.628E-03    -83.7794E+06    -110.079E+06    -15.7060E+06     2.14035E+06    -236.723E-03     469.615E-03    -232.892E-03     173.788E-03    -241.986E-03     474.236E-03    -232.689E-03     149.165E-03
             642     6.41900E-03     114.876E-03    -75.7504E+06    -61.9830E+06     2.84152E+06     2.92481E+06    -237.373E-03     470.256E-03    -232.882E-03     194.702E-03    -244.293E-03     476.678E-03    -232.668E-03     166.200E-03
             643     7.13131E-03     115.150E-03    -67.3945E+06    -17.4330E+06     19.6699E+06     3.81055E+06    -237.741E-03     470.603E-03    -232.862E-03     215.611E-03    -246.613E-03     479.118E-03    -232.641E-03     183.123E-03
             644     7.84545E-03     115.452E-03    -58.9082E+06     8.33082E+06     32.6014E+06     3.52166E+06    -237.849E-03     470.675E-03    -232.826E-03     236.231E-03    -248.935E-03     481.487E-03    -232.589E-03     199.736E-03
             645     8.55966E-03     115.777E-03    -49.6915E+06     23.4075E+06     43.8690E+06     3.38049E+06    -237.993E-03     470.774E-03    -232.780E-03     254.552E-03    -251.413E-03     483.973E-03    -232.523E-03     214.296E-03
             646     9.27311E-03     116.125E-03    -41.4646E+06     37.7682E+06      56.539E+06     3.60749E+06    -237.849E-03     470.599E-03    -232.750E-03     268.207E-03    -253.450E-03     486.023E-03    -232.462E-03     224.888E-03
             647     9.98700E-03     116.487E-03    -35.1975E+06     46.2075E+06     68.6841E+06     3.46030E+06    -236.861E-03     469.596E-03    -232.735E-03     272.927E-03    -253.936E-03     486.510E-03    -232.407E-03     227.939E-03
             648     10.7014E-03     116.843E-03    -28.4306E+06     52.6367E+06     77.5665E+06     2.68501E+06    -235.464E-03     468.177E-03    -232.712E-03     266.762E-03    -252.865E-03     485.439E-03    -232.360E-03     221.779E-03
             649     11.4143E-03     117.187E-03    -21.3955E+06     60.8391E+06     80.7000E+06     1.10356E+06    -233.864E-03     466.535E-03    -232.672E-03     251.324E-03    -250.398E-03     482.976E-03    -232.326E-03     207.896E-03
             650     12.1281E-03     117.498E-03    -15.4472E+06     65.8786E+06     81.2999E+06     805.217E+03    -231.881E-03     464.501E-03    -232.620E-03     224.153E-03    -246.024E-03     478.587E-03    -232.286E-03     184.413E-03
             651     12.8447E-03     117.765E-03    -9.75149E+06     73.9384E+06     84.0475E+06     1.22792E+06    -230.943E-03     463.506E-03    -232.563E-03     204.014E-03    -243.184E-03     475.731E-03    -232.235E-03     167.163E-03
             652     13.5590E-03     118.023E-03    -4.46778E+06     74.9580E+06     85.3976E+06     813.467E+03    -231.463E-03     464.003E-03    -232.540E-03     142.071E-03    -239.048E-03     471.591E-03    -232.215E-03     114.115E-03
             653     711.585E-06     115.199E-03    -127.901E+06    -303.692E+06    -126.294E+06     310.862E+03    -233.013E-03     465.755E-03    -232.742E-03     23.9440E-03    -233.118E-03     464.695E-03    -232.748E-03     21.0480E-03
             654     1.42649E-03     115.246E-03    -125.721E+06    -291.655E+06    -117.988E+06     536.544E+03    -233.070E-03     465.884E-03    -232.814E-03     44.7868E-03    -233.389E-03     465.064E-03    -232.799E-03     39.3406E-03
             655     2.13970E-03     115.322E-03    -120.915E+06    -271.666E+06    -104.485E+06     492.614E+03    -233.649E-03     466.482E-03    -232.833E-03     66.4875E-03    -234.329E-03     466.071E-03    -232.786E-03     58.2743E-03
             656     2.85216E-03     115.427E-03    -114.891E+06    -248.606E+06    -88.3354E+06     575.673E+03    -234.178E-03     467.065E-03    -232.887E-03     88.1734E-03    -235.372E-03     467.225E-03    -232.801E-03     77.0598E-03
             657     3.56550E-03     115.562E-03    -108.179E+06    -222.189E+06    -71.0257E+06     1.02890E+06    -234.770E-03     467.693E-03    -232.923E-03     109.930E-03    -236.657E-03     468.613E-03    -232.799E-03     95.7361E-03
             658     4.27844E-03     115.725E-03    -100.702E+06    -190.644E+06    -53.0369E+06     1.35853E+06    -235.403E-03     468.343E-03    -232.940E-03     131.359E-03    -238.176E-03     470.235E-03    -232.782E-03     113.907E-03
             659     4.99186E-03     115.917E-03    -92.8542E+06    -153.230E+06    -35.4038E+06     1.84196E+06    -236.069E-03     469.006E-03    -232.937E-03     152.631E-03    -239.956E-03     472.123E-03    -232.758E-03     131.710E-03
             660     5.70513E-03     116.137E-03    -84.9655E+06    -112.271E+06    -17.5173E+06     2.63540E+06    -236.739E-03     469.666E-03    -232.928E-03     173.890E-03    -241.998E-03     474.276E-03    -232.729E-03     149.286E-03
             661     6.41778E-03     116.385E-03    -76.5927E+06    -64.2101E+06     1.40665E+06     3.26462E+06    -237.144E-03     470.044E-03    -232.900E-03     195.076E-03    -244.070E-03     476.466E-03    -232.689E-03     166.608E-03
             662     7.13221E-03     116.659E-03    -68.0689E+06    -19.0186E+06     18.4561E+06     3.90189E+06    -237.405E-03     470.249E-03    -232.845E-03     216.073E-03    -246.289E-03     478.771E-03    -232.626E-03     183.619E-03
             663     7.84583E-03     116.960E-03    -59.7218E+06     9.90436E+06     32.3149E+06     3.43597E+06    -237.755E-03     470.542E-03    -232.787E-03     236.206E-03    -248.841E-03     481.357E-03    -232.553E-03     199.736E-03
             664     8.55963E-03     117.286E-03    -52.6165E+06     22.7638E+06     42.9979E+06     2.06301E+06    -238.092E-03     470.841E-03    -232.749E-03     254.527E-03    -251.529E-03     484.047E-03    -232.491E-03     214.229E-03
             665     9.27321E-03     117.635E-03    -45.4745E+06     35.3648E+06     55.0757E+06     2.12118E+06    -237.875E-03     470.606E-03    -232.731E-03     267.970E-03    -253.485E-03     486.020E-03    -232.441E-03     224.632E-03
             666     9.98762E-03     117.994E-03    -36.4992E+06     46.5472E+06     68.8122E+06     2.05147E+06    -237.001E-03     469.729E-03    -232.728E-03     272.491E-03    -254.072E-03     486.636E-03    -232.398E-03     227.454E-03
             667     10.7007E-03     118.355E-03    -27.5701E+06     53.7490E+06     78.5728E+06     1.34493E+06    -235.460E-03     468.176E-03    -232.716E-03     266.376E-03    -252.853E-03     485.434E-03    -232.361E-03     221.354E-03
             668     11.4152E-03     118.694E-03    -20.6408E+06     61.7093E+06     81.3830E+06     1.55581E+06    -233.651E-03     466.322E-03    -232.671E-03     251.043E-03    -250.162E-03     482.743E-03    -232.323E-03     207.667E-03
             669     12.1293E-03     119.009E-03    -15.0389E+06     66.2618E+06     81.4797E+06     1.42897E+06    -232.188E-03     464.812E-03    -232.623E-03     223.399E-03    -246.326E-03     478.895E-03    -232.290E-03     183.580E-03
             670     12.8406E-03     119.270E-03    -9.62712E+06     74.0319E+06     83.9440E+06     929.508E+03    -231.384E-03     463.978E-03    -232.594E-03     202.773E-03    -243.608E-03     476.187E-03    -232.267E-03     165.821E-03
             671     13.5552E-03     119.530E-03    -4.60724E+06     75.8933E+06     85.2084E+06     696.202E+03    -231.048E-03     463.623E-03    -232.576E-03     141.109E-03    -238.598E-03     471.179E-03    -232.253E-03     113.225E-03
             672     714.081E-06     116.708E-03    -128.469E+06    -304.805E+06    -126.245E+06     563.616E+03    -232.502E-03     465.829E-03    -233.326E-03     24.2066E-03    -232.611E-03     464.765E-03    -233.329E-03     21.2793E-03
             673     1.42571E-03     116.754E-03    -125.391E+06    -292.324E+06    -118.230E+06     408.901E+03    -233.243E-03     466.117E-03    -232.874E-03     45.0213E-03    -233.561E-03     465.294E-03    -232.859E-03     39.5610E-03
             674     2.13889E-03     116.831E-03    -121.368E+06    -272.653E+06    -105.687E+06     709.085E+03    -233.568E-03     466.460E-03    -232.892E-03     66.3936E-03    -234.244E-03     466.044E-03    -232.849E-03     58.2014E-03
             675     2.85242E-03     116.936E-03    -115.874E+06    -249.553E+06    -89.5356E+06     1.11856E+06    -234.145E-03     467.061E-03    -232.915E-03     88.0018E-03    -235.339E-03     467.216E-03    -232.833E-03     76.9077E-03
             676     3.56527E-03     117.071E-03    -109.171E+06    -223.479E+06    -72.0544E+06     1.40121E+06    -234.794E-03     467.740E-03    -232.946E-03     109.866E-03    -236.679E-03     468.653E-03    -232.824E-03     95.6894E-03
             677     4.27848E-03     117.235E-03    -101.693E+06    -192.119E+06    -54.1736E+06     1.95214E+06    -235.411E-03     468.372E-03    -232.961E-03     131.354E-03    -238.182E-03     470.257E-03    -232.806E-03     113.927E-03
             678     4.99155E-03     117.426E-03    -94.1532E+06    -154.846E+06    -36.6613E+06     2.39181E+06    -236.053E-03     469.006E-03    -232.953E-03     152.949E-03    -239.949E-03     472.124E-03    -232.775E-03     132.032E-03
             679     5.70460E-03     117.647E-03    -86.2895E+06    -114.217E+06    -18.7743E+06     2.89971E+06    -236.539E-03     469.463E-03    -232.924E-03     174.360E-03    -241.811E-03     474.078E-03    -232.727E-03     149.767E-03
             680     6.41897E-03     117.893E-03    -78.1519E+06    -65.7962E+06     291.513E+03     3.57705E+06    -236.897E-03     469.766E-03    -232.868E-03     195.369E-03    -243.834E-03     476.191E-03    -232.658E-03     166.930E-03
             681     7.13230E-03     118.168E-03    -70.0217E+06    -20.2608E+06     17.3631E+06     3.82124E+06    -237.378E-03     470.180E-03    -232.801E-03     215.925E-03    -246.264E-03     478.695E-03    -232.584E-03     183.475E-03
             682     7.84630E-03     118.468E-03    -62.0193E+06     10.5980E+06     31.2218E+06     3.72094E+06    -237.907E-03     470.661E-03    -232.754E-03     235.983E-03    -249.002E-03     481.483E-03    -232.523E-03     199.486E-03
             683     8.55965E-03     118.796E-03    -53.5813E+06     26.0080E+06     43.6356E+06     2.50880E+06    -238.186E-03     470.922E-03    -232.736E-03     254.300E-03    -251.630E-03     484.142E-03    -232.478E-03     213.983E-03
             684     9.27394E-03     119.142E-03    -44.7755E+06     35.3807E+06     56.7158E+06     568.097E+03    -238.043E-03     470.784E-03    -232.741E-03     267.525E-03    -253.644E-03     486.188E-03    -232.444E-03     224.122E-03
             685     9.98652E-03     119.505E-03    -36.6699E+06     45.9783E+06     69.8391E+06     -80.793E+03    -237.062E-03     469.811E-03    -232.750E-03     272.274E-03    -254.134E-03     486.714E-03    -232.414E-03     227.184E-03
             686     10.7008E-03     119.861E-03    -29.6428E+06     53.6359E+06     77.9956E+06     17.3487E+03    -235.396E-03     468.130E-03    -232.734E-03     266.312E-03    -252.795E-03     485.388E-03    -232.379E-03     221.285E-03
             687     11.4144E-03     120.203E-03    -22.5111E+06     59.8636E+06     80.0274E+06     15.2948E+03    -233.713E-03     466.401E-03    -232.688E-03     250.696E-03    -250.217E-03     482.806E-03    -232.342E-03     207.297E-03
             688     12.1279E-03     120.515E-03    -15.5483E+06     65.7022E+06     80.9804E+06     307.621E+03    -232.272E-03     464.918E-03    -232.646E-03     223.594E-03    -246.417E-03     479.006E-03    -232.313E-03     183.744E-03
             689     12.8431E-03     120.783E-03    -9.72321E+06     73.9564E+06     83.5508E+06     855.448E+03    -231.847E-03     464.472E-03    -232.625E-03     204.122E-03    -244.132E-03     476.743E-03    -232.301E-03     167.027E-03
             690     13.5549E-03     121.038E-03    -4.30212E+06     76.9287E+06     84.9401E+06     812.634E+03    -230.640E-03     463.240E-03    -232.600E-03     143.101E-03    -238.267E-03     470.879E-03    -232.281E-03     115.096E-03
             691     712.521E-06     118.217E-03    -130.698E+06    -306.123E+06    -128.075E+06     289.793E+03    -233.151E-03     465.867E-03    -232.716E-03     24.8023E-03    -233.265E-03     464.803E-03    -232.723E-03     21.8587E-03
             692     1.42629E-03     118.264E-03    -126.961E+06    -293.253E+06    -119.492E+06     499.443E+03    -233.344E-03     466.253E-03    -232.909E-03     44.8917E-03    -233.665E-03     465.429E-03    -232.897E-03     39.4515E-03
             693     2.13907E-03     118.340E-03    -122.456E+06     -274.24E+06    -106.095E+06     1.01989E+06    -233.608E-03     466.553E-03    -232.946E-03     66.5541E-03    -234.288E-03     466.133E-03    -232.901E-03     58.3653E-03
             694     2.85196E-03     118.445E-03    -116.456E+06    -251.147E+06    -89.9182E+06     1.59881E+06    -234.118E-03     467.073E-03    -232.955E-03     88.3217E-03    -235.314E-03     467.225E-03    -232.872E-03     77.2296E-03
             695     3.56515E-03     118.581E-03    -109.640E+06    -224.863E+06    -72.2900E+06     2.08572E+06    -234.735E-03     467.702E-03    -232.967E-03     109.915E-03    -236.618E-03     468.607E-03    -232.844E-03     95.7633E-03
             696     4.27839E-03     118.743E-03    -102.368E+06    -194.021E+06    -54.7095E+06     2.51004E+06    -235.301E-03     468.264E-03    -232.963E-03     131.518E-03    -238.076E-03     470.145E-03    -232.807E-03     114.097E-03
             697     4.99172E-03     118.936E-03    -94.4158E+06    -156.505E+06    -36.9594E+06     3.15297E+06    -235.852E-03     468.782E-03    -232.931E-03     153.097E-03    -239.747E-03     471.894E-03    -232.751E-03     132.208E-03
             698     5.70570E-03     119.155E-03    -86.4162E+06    -115.597E+06    -18.6816E+06     3.72371E+06    -236.396E-03     469.280E-03    -232.884E-03     174.247E-03    -241.664E-03     473.885E-03    -232.684E-03     149.689E-03
             699     6.41873E-03     119.403E-03    -78.1334E+06    -67.9364E+06     78.1262E+03     4.22158E+06    -237.015E-03     469.847E-03    -232.832E-03     195.026E-03    -243.941E-03     476.254E-03    -232.620E-03     166.581E-03
             700     7.13271E-03     119.676E-03    -69.3470E+06    -21.2001E+06     17.8174E+06     4.45762E+06    -237.563E-03     470.352E-03    -232.789E-03     215.604E-03    -246.441E-03     478.856E-03    -232.568E-03     183.134E-03
             701     7.84588E-03     119.978E-03    -59.9466E+06     12.2394E+06     33.6579E+06     3.53749E+06    -238.033E-03     470.798E-03    -232.765E-03     235.679E-03    -249.121E-03     481.619E-03    -232.528E-03     199.147E-03
             702     8.56001E-03     120.303E-03    -50.5466E+06     28.9061E+06     46.6246E+06     2.28085E+06    -238.340E-03     471.103E-03    -232.763E-03     253.804E-03    -251.759E-03     484.309E-03    -232.498E-03     213.469E-03
             703     9.27246E-03     120.653E-03    -42.5255E+06     37.6424E+06     58.5018E+06     1.68265E+06    -237.926E-03     470.692E-03    -232.767E-03     267.392E-03    -253.512E-03     486.092E-03    -232.467E-03     224.036E-03
             704     9.98704E-03     121.012E-03    -35.4602E+06     46.9801E+06     70.8898E+06     1.21942E+06    -236.876E-03     469.636E-03    -232.761E-03     272.529E-03    -253.940E-03     486.535E-03    -232.423E-03     227.516E-03
             705     10.7007E-03     121.371E-03    -28.0664E+06     54.4346E+06     79.5215E+06     750.443E+03    -235.563E-03     468.304E-03    -232.740E-03     266.722E-03    -252.964E-03     485.567E-03    -232.381E-03     221.699E-03
             706     11.4142E-03     121.712E-03    -21.4743E+06     60.2830E+06     81.2376E+06     504.361E+03    -233.877E-03     466.577E-03    -232.699E-03     251.159E-03    -250.397E-03     482.999E-03    -232.350E-03     207.752E-03
             707     12.1283E-03     122.025E-03    -16.3595E+06     65.5952E+06     80.9991E+06     143.377E+03    -232.320E-03     464.977E-03    -232.656E-03     224.289E-03    -246.490E-03     479.086E-03    -232.322E-03     184.438E-03
             708     12.8409E-03     122.289E-03    -11.1450E+06     73.0684E+06     82.7460E+06    -458.288E+03    -231.138E-03     463.751E-03    -232.612E-03     204.329E-03    -243.432E-03     476.024E-03    -232.289E-03     167.324E-03
             709     13.5561E-03     122.550E-03    -4.57290E+06     76.6967E+06     85.1544E+06    -415.928E+03    -230.275E-03     462.838E-03    -232.563E-03     142.186E-03    -237.880E-03     470.452E-03    -232.241E-03     114.261E-03
             710     713.195E-06     119.726E-03    -130.536E+06    -306.462E+06    -128.966E+06    -289.697E+03    -233.792E-03     466.005E-03    -232.213E-03     24.4176E-03    -233.902E-03     464.944E-03    -232.224E-03     21.4615E-03
             711     1.42568E-03     119.774E-03    -127.606E+06    -294.855E+06    -119.944E+06     388.861E+03    -233.201E-03     466.138E-03    -232.937E-03     45.0769E-03    -233.522E-03     465.308E-03    -232.924E-03     39.6251E-03
             712     2.13896E-03     119.849E-03    -122.701E+06    -276.239E+06    -106.339E+06     1.03696E+06    -233.621E-03     466.555E-03    -232.935E-03     66.6535E-03    -234.300E-03     466.127E-03    -232.888E-03     58.4566E-03
             713     2.85221E-03     119.955E-03    -116.758E+06    -253.349E+06    -90.0707E+06     1.71421E+06    -234.170E-03     467.125E-03    -232.954E-03     88.5065E-03    -235.366E-03     467.268E-03    -232.868E-03     77.4089E-03
             714     3.56531E-03     120.089E-03    -109.697E+06    -226.915E+06    -72.5008E+06     2.43368E+06    -234.643E-03     467.605E-03    -232.962E-03     109.903E-03    -236.525E-03     468.502E-03    -232.837E-03     95.7522E-03
             715     4.27849E-03     120.253E-03    -101.957E+06    -195.488E+06    -54.3391E+06     2.86618E+06    -235.168E-03     468.109E-03    -232.942E-03     131.532E-03    -237.941E-03     469.984E-03    -232.782E-03     114.118E-03
             716     4.99209E-03     120.444E-03    -93.8985E+06    -158.822E+06    -36.6046E+06     3.26640E+06    -235.848E-03     468.753E-03    -232.904E-03     152.903E-03    -239.736E-03     471.849E-03    -232.721E-03     132.015E-03
             717     5.70523E-03     120.664E-03    -85.1272E+06    -117.922E+06    -18.2674E+06     3.96511E+06    -236.564E-03     469.437E-03    -232.873E-03     173.794E-03    -241.814E-03     474.020E-03    -232.670E-03     149.223E-03
             718     6.41919E-03     120.911E-03    -75.9620E+06    -69.9391E+06     1.30932E+06     4.43188E+06    -237.154E-03     470.002E-03    -232.847E-03     194.674E-03    -244.064E-03     476.389E-03    -232.629E-03     166.210E-03
             719     7.13211E-03     121.186E-03    -66.3091E+06    -21.2154E+06     20.1643E+06     4.21081E+06    -237.712E-03     470.533E-03    -232.822E-03     215.326E-03    -246.573E-03     479.025E-03    -232.594E-03     182.825E-03
             720     7.84614E-03     121.486E-03    -57.2756E+06     14.4015E+06     36.0004E+06     3.42609E+06    -238.163E-03     470.971E-03    -232.808E-03     235.436E-03    -249.232E-03     481.784E-03    -232.566E-03     198.896E-03
             721     8.55858E-03     121.814E-03    -49.5925E+06     30.0719E+06     47.7040E+06     2.81657E+06    -238.089E-03     470.884E-03    -232.796E-03     253.869E-03    -251.502E-03     484.090E-03    -232.529E-03     213.599E-03
             722     9.27334E-03     122.161E-03    -41.7130E+06     38.2746E+06     59.3653E+06     2.35081E+06    -237.656E-03     470.430E-03    -232.774E-03     267.656E-03    -253.232E-03     485.821E-03    -232.472E-03     224.390E-03
             723     9.98705E-03     122.521E-03    -33.5004E+06     47.8932E+06     72.3573E+06     2.23273E+06    -236.979E-03     469.737E-03    -232.758E-03     272.639E-03    -254.028E-03     486.627E-03    -232.417E-03     227.646E-03
             724     10.7008E-03     122.880E-03    -26.5794E+06     55.0126E+06     80.9353E+06     2.51029E+06    -235.474E-03     468.212E-03    -232.738E-03     266.578E-03    -252.861E-03     485.466E-03    -232.374E-03     221.605E-03
             725     11.4148E-03     123.221E-03    -20.8148E+06     61.8639E+06     82.8812E+06     2.22704E+06    -233.726E-03     466.418E-03    -232.691E-03     251.153E-03    -250.248E-03     482.844E-03    -232.336E-03     207.779E-03
             726     12.1284E-03     123.533E-03    -14.6965E+06     68.1868E+06     83.6333E+06     1.24760E+06    -232.229E-03     464.872E-03    -232.643E-03     224.723E-03    -246.423E-03     479.013E-03    -232.302E-03     184.870E-03
             727     12.8425E-03     123.801E-03    -8.89312E+06     75.5363E+06     86.4468E+06    -24.4009E+03    -231.355E-03     463.963E-03    -232.608E-03     203.773E-03    -243.632E-03     476.226E-03    -232.273E-03     166.777E-03
             728     13.5576E-03     124.051E-03    -5.14314E+06     76.5165E+06     86.7367E+06    -723.837E+03    -231.133E-03     463.722E-03    -232.589E-03     140.788E-03    -238.713E-03     471.304E-03    -232.259E-03     112.798E-03
             729     712.886E-06     121.236E-03    -129.645E+06    -306.909E+06    -127.342E+06    -98.3924E+03    -232.964E-03     466.029E-03    -233.065E-03     24.0320E-03    -233.070E-03     464.961E-03    -233.069E-03     21.0872E-03
             730     1.42624E-03     121.282E-03    -126.831E+06    -296.401E+06    -119.611E+06     476.736E+03    -233.158E-03     466.098E-03    -232.940E-03     44.8720E-03    -233.474E-03     465.258E-03    -232.924E-03     39.4133E-03
             731     2.13930E-03     121.358E-03    -122.609E+06    -278.172E+06    -106.578E+06     989.508E+03    -233.642E-03     466.571E-03    -232.929E-03     66.6986E-03    -234.318E-03     466.133E-03    -232.881E-03     58.4976E-03
             732     2.85207E-03     121.464E-03    -116.603E+06    -255.480E+06    -90.2801E+06     1.55973E+06    -234.090E-03     467.035E-03    -232.945E-03     88.3196E-03    -235.280E-03     467.166E-03    -232.857E-03     77.2331E-03
             733     3.56517E-03     121.599E-03    -109.384E+06    -229.124E+06    -72.5436E+06     2.09632E+06    -234.580E-03     467.521E-03    -232.942E-03     109.894E-03    -236.459E-03     468.409E-03    -232.814E-03     95.7326E-03
             734     4.27879E-03     121.761E-03    -101.506E+06    -197.738E+06    -54.4068E+06     2.74363E+06    -235.307E-03     468.237E-03    -232.931E-03     131.275E-03    -238.070E-03     470.097E-03    -232.769E-03     113.848E-03
             735     4.99203E-03     121.954E-03    -93.3126E+06    -160.558E+06    -36.1494E+06     3.03159E+06    -236.014E-03     468.936E-03    -232.922E-03     152.510E-03    -239.892E-03     472.017E-03    -232.735E-03     131.603E-03
             736     5.70541E-03     122.173E-03    -84.7624E+06    -120.017E+06    -17.8068E+06     3.00744E+06    -236.653E-03     469.563E-03    -232.910E-03     173.653E-03    -241.899E-03     474.133E-03    -232.702E-03     149.050E-03
             737     6.41817E-03     122.420E-03    -75.8526E+06    -71.4536E+06     1.60947E+06     3.18232E+06    -237.253E-03     470.143E-03    -232.890E-03     194.655E-03    -244.158E-03     476.520E-03    -232.669E-03     166.168E-03
             738     7.13227E-03     122.695E-03    -67.1257E+06    -21.5770E+06     20.0912E+06     3.03742E+06    -237.788E-03     470.654E-03    -232.866E-03     215.502E-03    -246.654E-03     479.147E-03    -232.637E-03     182.980E-03
             739     7.84470E-03     122.997E-03    -58.7109E+06     13.6568E+06     35.0854E+06     3.47646E+06    -237.891E-03     470.726E-03    -232.835E-03     235.662E-03    -248.966E-03     481.540E-03    -232.595E-03     199.173E-03
             740     8.55959E-03     123.322E-03    -50.2542E+06     32.1593E+06     47.7524E+06     2.84086E+06    -237.808E-03     470.603E-03    -232.795E-03     254.014E-03    -251.226E-03     483.818E-03    -232.530E-03     213.795E-03
             741     9.27327E-03     123.669E-03    -41.9189E+06     39.1292E+06     59.8085E+06     1.36620E+06    -237.886E-03     470.659E-03    -232.773E-03     267.517E-03    -253.460E-03     486.050E-03    -232.470E-03     224.188E-03
             742     9.98695E-03     124.030E-03    -34.5472E+06     45.1767E+06     71.8395E+06     2.03065E+06    -237.027E-03     469.800E-03    -232.773E-03     272.104E-03    -254.061E-03     486.664E-03    -232.429E-03     227.092E-03
             743     10.7006E-03     124.388E-03    -27.2286E+06     54.5287E+06     81.0688E+06     2.95215E+06    -235.257E-03     468.010E-03    -232.752E-03     266.098E-03    -252.631E-03     485.245E-03    -232.387E-03     221.160E-03
             744     11.4147E-03     124.729E-03    -19.3224E+06     63.4664E+06     84.6398E+06     2.63157E+06    -233.598E-03     466.297E-03    -232.700E-03     250.879E-03    -250.102E-03     482.713E-03    -232.340E-03     207.527E-03
             745     12.1285E-03     125.043E-03    -12.9019E+06     70.4843E+06     86.1745E+06     1.67041E+06    -232.140E-03     464.791E-03    -232.651E-03     223.681E-03    -246.297E-03     478.903E-03    -232.304E-03     183.839E-03
             746     12.8432E-03     125.306E-03    -8.01649E+06     76.9383E+06     88.1937E+06     1.07522E+06    -231.717E-03     464.345E-03    -232.627E-03     203.326E-03    -243.983E-03     476.599E-03    -232.286E-03     166.281E-03
             747     13.5525E-03     125.569E-03    -4.30663E+06     77.3152E+06     87.9591E+06     989.468E+03    -231.345E-03     463.965E-03    -232.620E-03     142.264E-03    -238.951E-03     471.575E-03    -232.286E-03     114.275E-03
             748     712.637E-06     122.745E-03    -129.962E+06    -308.058E+06    -129.018E+06     568.831E+03    -232.954E-03     465.847E-03    -232.893E-03     24.7316E-03    -233.059E-03     464.775E-03    -232.903E-03     21.8153E-03
             749     1.42583E-03     122.791E-03    -127.910E+06    -297.787E+06    -119.900E+06     666.755E+03    -233.304E-03     466.198E-03    -232.894E-03     45.1977E-03    -233.624E-03     465.354E-03    -232.877E-03     39.7498E-03
             750     2.13879E-03     122.868E-03    -122.860E+06    -279.601E+06    -106.005E+06     912.153E+03    -233.717E-03     466.660E-03    -232.944E-03     66.7611E-03    -234.392E-03     466.214E-03    -232.890E-03     58.5677E-03
             751     2.85210E-03     122.973E-03    -116.695E+06    -257.289E+06    -90.0041E+06     1.22611E+06    -234.075E-03     467.042E-03    -232.967E-03     87.9902E-03    -235.261E-03     467.161E-03    -232.875E-03     76.8987E-03
             752     3.56578E-03     123.107E-03    -109.477E+06    -231.061E+06    -72.4937E+06     1.69338E+06    -234.675E-03     467.646E-03    -232.971E-03     109.458E-03    -236.546E-03     468.518E-03    -232.840E-03     95.2856E-03
             753     4.27845E-03     123.271E-03    -101.538E+06    -199.819E+06    -54.5392E+06     1.99200E+06    -235.370E-03     468.342E-03    -232.972E-03     130.998E-03    -238.127E-03     470.187E-03    -232.808E-03     113.559E-03
             754     4.99137E-03     123.462E-03    -93.1434E+06    -161.938E+06    -36.2939E+06     2.40671E+06    -236.004E-03     468.965E-03    -232.962E-03     152.618E-03    -239.879E-03     472.041E-03    -232.773E-03     131.705E-03
             755     5.70475E-03     123.682E-03    -84.5121E+06    -120.845E+06    -17.3821E+06     2.60870E+06    -236.692E-03     469.637E-03    -232.945E-03     173.935E-03    -241.940E-03     474.207E-03    -232.734E-03     149.324E-03
             756     6.41875E-03     123.930E-03    -76.0165E+06    -73.0795E+06     1.47816E+06     2.73916E+06    -237.374E-03     470.300E-03    -232.926E-03     194.893E-03    -244.279E-03     476.672E-03    -232.702E-03     166.388E-03
             757     7.13123E-03     124.205E-03    -67.5859E+06    -22.7647E+06     19.6052E+06     3.50638E+06    -237.579E-03     470.470E-03    -232.890E-03     215.606E-03    -246.441E-03     478.954E-03    -232.661E-03     183.138E-03
             758     7.84602E-03     124.505E-03    -59.1131E+06     13.2742E+06     35.3864E+06     3.24944E+06    -237.652E-03     470.491E-03    -232.839E-03     235.508E-03    -248.721E-03     481.295E-03    -232.596E-03     199.058E-03
             759     8.55942E-03     124.830E-03    -50.6969E+06     34.3686E+06     48.7866E+06     2.43933E+06    -238.155E-03     470.960E-03    -232.806E-03     253.607E-03    -251.570E-03     484.176E-03    -232.538E-03     213.311E-03
             760     9.27295E-03     125.179E-03    -43.5923E+06     40.0010E+06     59.9423E+06     2.40749E+06    -238.032E-03     470.841E-03    -232.808E-03     266.994E-03    -253.605E-03     486.227E-03    -232.504E-03     223.640E-03
             761     9.98609E-03     125.539E-03    -36.4616E+06     44.0720E+06     71.4393E+06     1.78218E+06    -236.843E-03     469.655E-03    -232.812E-03     271.750E-03    -253.878E-03     486.510E-03    -232.466E-03     226.749E-03
             762     10.7006E-03     125.896E-03    -28.4555E+06     54.2517E+06     80.9687E+06     577.240E+03    -235.362E-03     468.151E-03    -232.789E-03     265.918E-03    -252.745E-03     485.391E-03    -232.422E-03     220.892E-03
             763     11.4140E-03     126.238E-03    -21.2957E+06     61.7948E+06     83.4074E+06     637.874E+03    -233.795E-03     466.542E-03    -232.747E-03     250.135E-03    -250.302E-03     482.951E-03    -232.389E-03     206.675E-03
             764     12.1283E-03     126.550E-03    -15.1761E+06     70.5596E+06     84.5906E+06     1.51293E+06    -232.209E-03     464.917E-03    -232.708E-03     222.970E-03    -246.367E-03     479.026E-03    -232.365E-03     183.095E-03
             765     12.8397E-03     126.819E-03    -9.93303E+06     77.0887E+06     86.6481E+06     2.03299E+06    -230.874E-03     463.536E-03    -232.662E-03     203.270E-03    -243.117E-03     475.766E-03    -232.326E-03     166.425E-03
             766     13.5590E-03     127.073E-03    -4.95700E+06     78.4892E+06     87.2350E+06     1.53794E+06    -230.391E-03     462.994E-03    -232.604E-03     142.622E-03    -237.978E-03     470.589E-03    -232.274E-03     114.811E-03
             767     713.901E-06     124.254E-03    -132.134E+06    -309.042E+06    -129.387E+06     432.483E+03    -233.154E-03     465.723E-03    -232.569E-03     24.0257E-03    -233.267E-03     464.648E-03    -232.576E-03     21.1137E-03
             768     1.42644E-03     124.300E-03    -128.363E+06    -298.784E+06    -120.222E+06     210.808E+03    -233.507E-03     466.399E-03    -232.893E-03     45.0261E-03    -233.825E-03     465.550E-03    -232.874E-03     39.5846E-03
             769     2.13915E-03     124.377E-03    -123.537E+06    -281.549E+06    -106.202E+06     814.991E+03    -233.750E-03     466.747E-03    -232.997E-03     66.3548E-03    -234.423E-03     466.290E-03    -232.941E-03     58.1587E-03
             770     2.85210E-03     124.482E-03    -117.057E+06    -258.271E+06    -89.6190E+06     1.20784E+06    -234.158E-03     467.184E-03    -233.026E-03     87.8618E-03    -235.345E-03     467.299E-03    -232.930E-03     76.7559E-03
             771     3.56436E-03     124.617E-03    -109.813E+06    -232.449E+06    -72.3970E+06     1.21098E+06    -234.700E-03     467.730E-03    -233.029E-03     109.660E-03    -236.574E-03     468.598E-03    -232.895E-03     95.4777E-03
             772     4.27805E-03     124.779E-03    -101.970E+06    -200.898E+06    -54.6902E+06     1.41098E+06    -235.243E-03     468.252E-03    -233.009E-03     131.354E-03    -238.004E-03     470.096E-03    -232.843E-03     113.920E-03
             773     4.99193E-03     124.972E-03    -93.7894E+06    -163.354E+06    -36.7977E+06     1.58490E+06    -236.037E-03     469.018E-03    -232.981E-03     152.828E-03    -239.913E-03     472.087E-03    -232.792E-03     131.909E-03
             774     5.70524E-03     125.191E-03    -85.2645E+06    -122.589E+06    -18.4197E+06     1.88285E+06    -236.863E-03     469.834E-03    -232.971E-03     173.895E-03    -242.107E-03     474.393E-03    -232.761E-03     149.265E-03
             775     6.41777E-03     125.440E-03    -76.4084E+06    -75.1902E+06     808.924E+03     2.37984E+06    -237.240E-03     470.194E-03    -232.954E-03     194.740E-03    -244.139E-03     476.552E-03    -232.730E-03     166.251E-03
             776     7.13199E-03     125.714E-03    -67.5308E+06    -25.1941E+06     19.1737E+06     3.59762E+06    -237.421E-03     470.326E-03    -232.905E-03     215.182E-03    -246.268E-03     478.788E-03    -232.675E-03     182.732E-03
             777     7.84530E-03     126.013E-03    -58.9620E+06     15.4308E+06     36.0185E+06     3.76296E+06    -238.055E-03     470.922E-03    -232.867E-03     235.081E-03    -249.121E-03     481.729E-03    -232.624E-03     198.555E-03
             778     8.55885E-03     126.341E-03    -51.1461E+06     34.1537E+06     49.0091E+06     3.19841E+06    -238.351E-03     471.216E-03    -232.865E-03     253.137E-03    -251.762E-03     484.425E-03    -232.595E-03     212.801E-03
             779     9.27175E-03     126.688E-03    -42.8799E+06     39.6205E+06     60.7674E+06     3.54044E+06    -237.755E-03     470.623E-03    -232.868E-03     266.649E-03    -253.316E-03     485.996E-03    -232.559E-03     223.352E-03
             780     9.98662E-03     127.047E-03    -34.6720E+06     47.4659E+06     73.6538E+06     2.72073E+06    -236.950E-03     469.813E-03    -232.863E-03     271.660E-03    -253.990E-03     486.685E-03    -232.514E-03     226.628E-03
             781     10.6995E-03     127.406E-03    -28.0575E+06     55.7765E+06     82.1824E+06     1.85122E+06    -235.654E-03     468.508E-03    -232.854E-03     265.472E-03    -253.040E-03     485.754E-03    -232.483E-03     220.391E-03
             782     11.4133E-03     127.746E-03    -22.3740E+06     61.6882E+06     83.3247E+06     1.41299E+06    -233.860E-03     466.681E-03    -232.820E-03     250.205E-03    -250.385E-03     483.104E-03    -232.461E-03     206.743E-03
             783     12.1253E-03     128.061E-03    -16.7934E+06     68.8238E+06     83.0770E+06     1.43549E+06    -231.931E-03     464.695E-03    -232.764E-03     223.465E-03    -246.095E-03     478.803E-03    -232.424E-03     183.681E-03
             784     12.8427E-03     128.323E-03    -11.0654E+06     77.3329E+06     84.8099E+06     1.58362E+06    -230.595E-03     463.288E-03    -232.693E-03     202.517E-03    -242.781E-03     475.463E-03    -232.365E-03     165.768E-03
             785     13.5529E-03     128.581E-03    -4.32961E+06     80.4378E+06     86.9918E+06     577.390E+03    -229.821E-03     462.437E-03    -232.617E-03     142.288E-03    -237.377E-03     470.012E-03    -232.292E-03     114.477E-03
             786     712.333E-06     125.762E-03    -131.009E+06    -309.282E+06    -129.780E+06    -347.584E+03    -233.691E-03     466.571E-03    -232.880E-03     24.2024E-03    -233.798E-03     465.493E-03    -232.890E-03     21.2781E-03
             787     1.42540E-03     125.811E-03    -128.631E+06    -300.306E+06    -120.643E+06     584.075E+03    -233.349E-03     466.552E-03    -233.203E-03     44.3501E-03    -233.662E-03     465.692E-03    -233.184E-03     38.9326E-03
             788     2.13846E-03     125.886E-03    -123.746E+06    -282.688E+06    -106.634E+06     824.480E+03    -233.483E-03     466.612E-03    -233.129E-03     66.0519E-03    -234.153E-03     466.149E-03    -233.073E-03     57.8693E-03
             789     2.85154E-03     125.992E-03    -117.106E+06    -259.490E+06    -90.0346E+06     898.975E+03    -233.949E-03     467.009E-03    -233.060E-03     88.2078E-03    -235.136E-03     467.120E-03    -232.964E-03     77.1017E-03
             790     3.56559E-03     126.126E-03    -109.946E+06    -233.329E+06    -72.5076E+06     1.23354E+06    -234.594E-03     467.614E-03    -233.019E-03     109.955E-03    -236.469E-03     468.480E-03    -232.884E-03     95.7831E-03
             791     4.27860E-03     126.289E-03    -102.601E+06    -201.888E+06    -55.0013E+06     1.50013E+06    -235.464E-03     468.470E-03    -233.005E-03     131.426E-03    -238.226E-03     470.310E-03    -232.839E-03     113.979E-03
             792     4.99136E-03     126.481E-03    -94.9173E+06    -164.112E+06    -37.1344E+06     1.61920E+06    -236.315E-03     469.329E-03    -233.015E-03     152.648E-03    -240.192E-03     472.395E-03    -232.825E-03     131.701E-03
             793     5.70425E-03     126.702E-03    -87.2392E+06    -123.677E+06    -19.2129E+06     1.67249E+06    -236.809E-03     469.828E-03    -233.019E-03     173.693E-03    -242.059E-03     474.385E-03    -232.809E-03     149.058E-03
             794     6.41805E-03     126.949E-03    -79.5948E+06    -76.4994E+06    -614.953E+03     1.90281E+06    -237.105E-03     470.095E-03    -232.990E-03     194.416E-03    -244.009E-03     476.447E-03    -232.767E-03     165.933E-03
             795     7.13152E-03     127.222E-03    -71.0656E+06    -27.2577E+06     17.2596E+06     1.09388E+06    -237.820E-03     470.775E-03    -232.955E-03     214.871E-03    -246.677E-03     479.233E-03    -232.726E-03     182.308E-03
             796     7.84492E-03     127.524E-03    -61.2527E+06     12.7182E+06     33.6821E+06     1.79390E+06    -238.307E-03     471.252E-03    -232.945E-03     234.776E-03    -249.378E-03     482.053E-03    -232.706E-03     198.159E-03
             797     8.55748E-03     127.850E-03    -51.6207E+06     33.4246E+06     47.6430E+06     3.22833E+06    -238.020E-03     470.958E-03    -232.938E-03     252.844E-03    -251.422E-03     484.157E-03    -232.673E-03     212.556E-03
             798     9.27240E-03     128.195E-03    -43.1838E+06     39.5395E+06     59.9837E+06     2.34409E+06    -237.859E-03     470.789E-03    -232.930E-03     266.436E-03    -253.421E-03     486.165E-03    -232.625E-03     223.074E-03
             799     9.98503E-03     128.557E-03    -35.5933E+06     46.7505E+06     72.5262E+06     2.84106E+06    -237.148E-03     470.085E-03    -232.937E-03     271.190E-03    -254.179E-03     486.944E-03    -232.590E-03     226.112E-03
             800     10.6988E-03     128.915E-03    -28.2744E+06     57.3293E+06     81.9009E+06     3.33798E+06    -235.375E-03     468.296E-03    -232.922E-03     265.529E-03    -252.749E-03     485.537E-03    -232.554E-03     220.544E-03
             801     11.4119E-03     129.256E-03    -21.2426E+06     62.7328E+06     83.9046E+06     2.97886E+06    -233.325E-03     466.182E-03    -232.856E-03     250.774E-03    -249.830E-03     482.591E-03    -232.497E-03     207.492E-03
             802     12.1283E-03     129.568E-03    -14.9391E+06     69.2915E+06     84.6145E+06     2.75308E+06    -231.628E-03     464.398E-03    -232.770E-03     224.180E-03    -245.785E-03     478.503E-03    -232.426E-03     184.503E-03
             803     12.8388E-03     129.833E-03    -9.12421E+06     79.9435E+06     87.3558E+06     995.580E+03    -231.133E-03     463.834E-03    -232.701E-03     203.763E-03    -243.396E-03     476.095E-03    -232.367E-03     166.813E-03
             804     13.5569E-03     130.088E-03    -4.31613E+06     81.5424E+06     88.1921E+06     203.851E+03    -230.149E-03     462.793E-03    -232.644E-03     142.234E-03    -237.771E-03     470.433E-03    -232.315E-03     114.248E-03
             805     712.490E-06     127.274E-03    -130.228E+06    -311.032E+06    -126.896E+06     821.381E+03    -233.780E-03     466.897E-03    -233.117E-03     24.4687E-03    -233.887E-03     465.806E-03    -233.112E-03     21.5569E-03
             806     1.42497E-03     127.320E-03    -126.760E+06    -302.446E+06    -118.339E+06     1.35050E+06    -233.160E-03     466.452E-03    -233.292E-03     45.1386E-03    -233.470E-03     465.582E-03    -233.262E-03     39.6864E-03
             807     2.13856E-03     127.395E-03    -122.098E+06    -282.677E+06    -105.770E+06     1.27233E+06    -233.377E-03     466.490E-03    -233.114E-03     66.8226E-03    -234.046E-03     466.030E-03    -233.056E-03     58.6257E-03
             808     2.85224E-03     127.500E-03    -116.668E+06    -260.829E+06    -89.9374E+06     1.33765E+06    -233.996E-03     467.028E-03    -233.032E-03     88.3115E-03    -235.178E-03     467.131E-03    -232.934E-03     77.2202E-03
             809     3.56494E-03     127.634E-03    -109.987E+06    -234.555E+06    -72.4433E+06     1.72665E+06    -234.855E-03     467.882E-03    -233.028E-03     109.578E-03    -236.723E-03     468.737E-03    -232.890E-03     95.4044E-03
             810     4.27822E-03     127.798E-03    -102.482E+06    -203.143E+06    -54.6305E+06     2.20082E+06    -235.737E-03     468.800E-03    -233.064E-03     130.972E-03    -238.491E-03     470.628E-03    -232.894E-03     113.513E-03
             811     4.99111E-03     127.991E-03    -94.8954E+06    -164.974E+06    -36.8518E+06     2.72779E+06    -236.276E-03     469.363E-03    -233.087E-03     152.430E-03    -240.154E-03     472.425E-03    -232.894E-03     131.490E-03
             812     5.70435E-03     128.211E-03    -86.9614E+06    -123.623E+06    -18.2030E+06     3.06476E+06    -236.715E-03     469.794E-03    -233.078E-03     173.568E-03    -241.964E-03     474.348E-03    -232.864E-03     148.955E-03
             813     6.41775E-03     128.457E-03    -77.9248E+06    -75.9613E+06     1.05205E+06     2.59272E+06    -237.524E-03     470.588E-03    -233.064E-03     194.093E-03    -244.418E-03     476.933E-03    -232.835E-03     165.559E-03
             814     7.13079E-03     128.732E-03    -68.5960E+06    -24.9628E+06     19.6995E+06     1.40839E+06    -238.114E-03     471.174E-03    -233.060E-03     214.685E-03    -246.963E-03     479.634E-03    -232.826E-03     182.085E-03
             815     7.84303E-03     129.034E-03    -59.9428E+06     9.11515E+06     34.7412E+06     940.920E+03    -238.003E-03     471.049E-03    -233.046E-03     234.623E-03    -249.055E-03     481.820E-03    -232.799E-03     198.058E-03
             816     8.55806E-03     129.357E-03    -51.6507E+06     30.1057E+06     47.6236E+06     2.24171E+06    -238.127E-03     471.147E-03    -233.020E-03     252.670E-03    -251.517E-03     484.322E-03    -232.750E-03     212.353E-03
             817     9.27058E-03     129.706E-03    -44.2372E+06     41.1251E+06     59.7723E+06     3.34845E+06    -238.056E-03     471.069E-03    -233.013E-03     266.281E-03    -253.611E-03     486.439E-03    -232.709E-03     222.918E-03
             818     9.98407E-03     130.066E-03    -37.1878E+06     44.7105E+06     70.7311E+06     2.90244E+06    -236.864E-03     469.871E-03    -233.006E-03     271.526E-03    -253.892E-03     486.720E-03    -232.664E-03     226.530E-03
             819     10.6980E-03     130.423E-03    -30.0529E+06     56.8015E+06     80.3011E+06     2.97971E+06    -234.940E-03     467.897E-03    -232.957E-03     265.889E-03    -252.312E-03     485.131E-03    -232.594E-03     221.003E-03
             820     11.4136E-03     130.764E-03    -23.6628E+06     63.9677E+06     82.4685E+06     2.42473E+06    -233.046E-03     465.912E-03    -232.865E-03     250.314E-03    -249.540E-03     482.309E-03    -232.511E-03     207.069E-03
             821     12.1259E-03     131.075E-03    -16.9757E+06     71.4961E+06     83.5608E+06     156.886E+03    -231.508E-03     464.281E-03    -232.774E-03     223.252E-03    -245.679E-03     478.404E-03    -232.435E-03     183.455E-03
             822     12.8442E-03     131.342E-03    -10.2252E+06     79.4224E+06     87.3330E+06    -114.473E+03    -230.632E-03     463.335E-03    -232.703E-03     202.986E-03    -242.890E-03     475.585E-03    -232.366E-03     166.079E-03
             823     13.5530E-03     131.598E-03    -5.37842E+06     81.2547E+06     88.6868E+06     776.418E+03    -230.208E-03     462.847E-03    -232.639E-03     142.028E-03    -237.808E-03     470.459E-03    -232.305E-03     114.171E-03
             824     712.791E-06     128.784E-03    -130.346E+06    -315.459E+06    -127.991E+06     1.81351E+06    -232.863E-03     466.026E-03    -233.163E-03     24.3196E-03    -232.963E-03     464.915E-03    -233.157E-03     21.3924E-03
             825     1.42652E-03     128.829E-03    -126.993E+06    -303.485E+06    -119.219E+06     1.46735E+06    -233.216E-03     466.169E-03    -232.953E-03     44.8608E-03    -233.525E-03     465.295E-03    -232.925E-03     39.4097E-03
             826     2.13934E-03     128.904E-03    -122.328E+06    -284.261E+06    -105.606E+06     1.57976E+06    -233.796E-03     466.771E-03    -232.975E-03     66.5630E-03    -234.463E-03     466.301E-03    -232.914E-03     58.3616E-03
             827     2.85187E-03     129.010E-03    -116.315E+06    -262.249E+06    -89.0248E+06     2.14989E+06    -234.446E-03     467.495E-03    -233.048E-03     87.9297E-03    -235.622E-03     467.585E-03    -232.945E-03     76.8384E-03
             828     3.56508E-03     129.144E-03    -109.307E+06    -236.156E+06    -71.4622E+06     2.54112E+06    -235.162E-03     468.285E-03    -233.123E-03     109.634E-03    -237.030E-03     469.134E-03    -232.979E-03     95.4347E-03
             829     4.27730E-03     129.309E-03    -101.645E+06    -204.886E+06    -53.4867E+06     2.90500E+06    -235.722E-03     468.893E-03    -233.170E-03     131.111E-03    -238.477E-03     470.715E-03    -232.993E-03     113.639E-03
             830     4.99051E-03     129.500E-03    -93.3030E+06    -166.653E+06    -35.6501E+06     3.36961E+06    -236.210E-03     469.383E-03    -233.172E-03     152.238E-03    -240.074E-03     472.426E-03    -232.974E-03     131.321E-03
             831     5.70411E-03     129.720E-03    -84.4945E+06    -124.596E+06    -16.8203E+06     3.59405E+06    -237.101E-03     470.274E-03    -233.173E-03     173.164E-03    -242.327E-03     474.806E-03    -232.954E-03     148.524E-03
             832     6.41685E-03     129.968E-03    -75.9775E+06    -74.9450E+06     3.09142E+06     3.01100E+06    -237.820E-03     471.009E-03    -233.190E-03     193.882E-03    -244.707E-03     477.352E-03    -232.956E-03     165.308E-03
             833     7.12911E-03     130.243E-03    -68.0376E+06    -22.9714E+06     21.6941E+06     2.79569E+06    -237.751E-03     470.927E-03    -233.176E-03     214.414E-03    -246.592E-03     479.382E-03    -232.935E-03     181.889E-03
             834     7.84420E-03     130.541E-03    -60.4561E+06     9.69177E+06     35.5870E+06     2.57114E+06    -237.944E-03     471.076E-03    -233.132E-03     234.435E-03    -248.986E-03     481.834E-03    -232.880E-03     197.912E-03
             835     8.55635E-03     130.868E-03    -53.1816E+06     26.1707E+06     46.8387E+06     2.70763E+06    -238.322E-03     471.424E-03    -233.103E-03     252.797E-03    -251.707E-03     484.578E-03    -232.829E-03     212.471E-03
             836     9.26984E-03     131.215E-03    -45.4260E+06     39.8118E+06     59.6200E+06     3.83301E+06    -237.746E-03     470.827E-03    -233.081E-03     266.489E-03    -253.295E-03     486.184E-03    -232.775E-03     223.217E-03
             837     9.98445E-03     131.574E-03    -37.6021E+06     47.0395E+06     71.5674E+06     3.52989E+06    -236.582E-03     469.627E-03    -233.045E-03     271.589E-03    -253.605E-03     486.476E-03    -232.701E-03     226.668E-03
             838     10.6987E-03     131.932E-03    -29.8530E+06     54.8210E+06     80.4661E+06     3.06804E+06    -235.035E-03     468.026E-03    -232.991E-03     265.190E-03    -252.383E-03     485.229E-03    -232.625E-03     220.286E-03
             839     11.4114E-03     132.270E-03    -21.6659E+06     67.7386E+06     84.7419E+06     2.38570E+06    -233.284E-03     466.199E-03    -232.915E-03     249.544E-03    -249.782E-03     482.615E-03    -232.558E-03     206.195E-03
             840     12.1272E-03     132.585E-03    -15.1519E+06     76.1775E+06     86.0133E+06     649.374E+03    -231.662E-03     464.501E-03    -232.840E-03     222.681E-03    -245.839E-03     478.646E-03    -232.498E-03     182.842E-03
             841     12.8368E-03     132.847E-03    -10.6392E+06     77.8939E+06     86.3890E+06     107.834E+03    -230.216E-03     462.975E-03    -232.760E-03     201.479E-03    -242.403E-03     475.151E-03    -232.425E-03     164.730E-03
             842     13.5585E-03     133.104E-03    -4.78406E+06     80.9768E+06     88.0022E+06     63.0767E+03    -229.088E-03     461.743E-03    -232.656E-03     140.730E-03    -236.608E-03     469.279E-03    -232.326E-03     113.085E-03
             843     713.552E-06     130.293E-03    -128.661E+06    -319.860E+06    -127.876E+06     1.18179E+06    -232.485E-03     465.731E-03    -233.246E-03     23.6915E-03    -232.569E-03     464.594E-03    -233.235E-03     20.7697E-03
             844     1.42606E-03     130.337E-03    -126.561E+06    -304.716E+06    -119.812E+06     1.32802E+06    -233.587E-03     466.493E-03    -232.906E-03     44.1099E-03    -233.885E-03     465.608E-03    -232.880E-03     38.6727E-03
             845     2.13885E-03     130.415E-03    -122.096E+06    -286.185E+06    -105.655E+06     1.35617E+06    -234.080E-03     467.155E-03    -233.075E-03     65.8119E-03    -234.736E-03     466.668E-03    -233.011E-03     57.6277E-03
             846     2.85167E-03     130.519E-03    -115.627E+06    -264.688E+06    -88.4198E+06     1.94546E+06    -234.608E-03     467.799E-03    -233.191E-03     87.6835E-03    -235.779E-03     467.876E-03    -233.081E-03     76.5653E-03
             847     3.56397E-03     130.655E-03    -108.244E+06    -238.505E+06    -70.6755E+06     2.77805E+06    -235.118E-03     468.371E-03    -233.253E-03     109.509E-03    -236.976E-03     469.203E-03    -233.103E-03     95.3141E-03
             848     4.27755E-03     130.818E-03    -100.588E+06    -206.542E+06    -52.4950E+06     3.37480E+06    -235.677E-03     468.949E-03    -233.273E-03     130.857E-03    -238.418E-03     470.753E-03    -233.090E-03     113.414E-03
             849     4.99061E-03     131.010E-03    -92.4870E+06    -168.261E+06    -34.4661E+06     3.42616E+06    -236.631E-03     469.919E-03    -233.288E-03     151.972E-03    -240.483E-03     472.946E-03    -233.083E-03     131.019E-03
             850     5.70288E-03     131.230E-03    -84.4410E+06    -126.528E+06    -16.4261E+06     3.44209E+06    -237.381E-03     470.699E-03    -233.319E-03     173.141E-03    -242.609E-03     475.227E-03    -233.095E-03     148.453E-03
             851     6.41525E-03     131.479E-03    -76.3922E+06    -75.4646E+06     3.54393E+06     4.60120E+06    -237.426E-03     470.740E-03    -233.314E-03     193.990E-03    -244.315E-03     477.080E-03    -233.076E-03     165.486E-03
             852     7.12978E-03     131.751E-03    -68.1713E+06    -22.6393E+06     22.4982E+06     5.15208E+06    -237.635E-03     470.895E-03    -233.260E-03     214.427E-03    -246.470E-03     479.342E-03    -233.016E-03     181.961E-03
             853     7.84195E-03     132.052E-03    -60.4051E+06     9.53479E+06     35.9863E+06     5.14074E+06    -238.161E-03     471.369E-03    -233.208E-03     234.649E-03    -249.203E-03     482.126E-03    -232.955E-03     198.132E-03
             854     8.55603E-03     132.378E-03    -52.9412E+06     26.2157E+06     47.2054E+06     5.25763E+06    -238.055E-03     471.223E-03    -233.168E-03     252.762E-03    -251.426E-03     484.363E-03    -232.894E-03     212.534E-03
             855     9.27040E-03     132.723E-03    -45.3318E+06     40.1473E+06     60.1382E+06     4.18672E+06    -237.645E-03     470.775E-03    -233.130E-03     266.086E-03    -253.184E-03     486.121E-03    -232.822E-03     222.820E-03
             856     9.98357E-03     133.084E-03    -37.0007E+06     48.3830E+06     72.8490E+06     3.17892E+06    -236.800E-03     469.904E-03    -233.104E-03     270.669E-03    -253.804E-03     486.738E-03    -232.756E-03     225.678E-03
             857     10.6971E-03     133.440E-03    -28.3299E+06     55.9944E+06     82.1952E+06     1.83827E+06    -235.132E-03     468.200E-03    -233.068E-03     264.410E-03    -252.469E-03     485.397E-03    -232.697E-03     219.430E-03
             858     11.4118E-03     133.781E-03    -20.7310E+06     68.1313E+06     86.2519E+06     771.021E+03    -233.265E-03     466.263E-03    -232.998E-03     249.289E-03    -249.767E-03     482.684E-03    -232.636E-03     205.888E-03
             859     12.1237E-03     134.091E-03    -14.1778E+06     75.8900E+06     87.4290E+06     2.10232E+06    -231.174E-03     464.078E-03    -232.904E-03     222.777E-03    -245.320E-03     478.190E-03    -232.556E-03     183.113E-03
             860     12.8425E-03     134.359E-03    -8.55478E+06     80.9420E+06     89.0350E+06     2.12996E+06    -229.968E-03     462.762E-03    -232.794E-03     202.729E-03    -242.187E-03     474.979E-03    -232.454E-03     166.057E-03
             861     13.5497E-03     134.607E-03    -4.44071E+06     83.3323E+06     89.7774E+06     395.525E+03    -228.989E-03     461.662E-03    -232.673E-03     141.788E-03    -236.580E-03     469.273E-03    -232.338E-03     114.050E-03
             862     712.851E-06     131.801E-03    -127.235E+06    -322.736E+06    -125.203E+06     207.039E+03    -233.127E-03     466.449E-03    -233.322E-03     24.2687E-03    -233.203E-03     465.292E-03    -233.296E-03     21.3306E-03
             863     1.42562E-03     131.849E-03    -124.543E+06    -307.222E+06    -118.060E+06     1.26689E+06    -233.798E-03     467.027E-03    -233.229E-03     44.3608E-03    -234.086E-03     466.124E-03    -233.193E-03     38.9148E-03
             864     2.13798E-03     131.924E-03    -120.554E+06    -287.266E+06    -105.302E+06     1.73077E+06    -234.122E-03     467.446E-03    -233.323E-03     65.9584E-03    -234.772E-03     466.952E-03    -233.258E-03     57.7609E-03
             865     2.85086E-03     132.030E-03    -114.917E+06    -267.493E+06    -87.9951E+06     2.08049E+06    -234.576E-03     467.954E-03    -233.378E-03     87.8782E-03    -235.742E-03     468.017E-03    -233.263E-03     76.7521E-03
             866     3.56402E-03     132.165E-03    -108.055E+06    -241.278E+06    -70.4546E+06     2.89263E+06    -235.153E-03     468.553E-03    -233.400E-03     109.265E-03    -237.000E-03     469.364E-03    -233.246E-03     95.0902E-03
             867     4.27662E-03     132.327E-03    -100.562E+06    -209.147E+06    -52.4354E+06     3.63719E+06    -235.963E-03     469.385E-03    -233.422E-03     130.596E-03    -238.696E-03     471.171E-03    -233.235E-03     113.144E-03
             868     4.98918E-03     132.521E-03    -92.8822E+06    -169.862E+06    -34.0899E+06     4.23649E+06    -236.743E-03     470.191E-03    -233.448E-03     152.050E-03    -240.600E-03     473.214E-03    -233.237E-03     131.079E-03
             869     5.70174E-03     132.742E-03    -85.0552E+06    -127.847E+06    -15.7374E+06     4.81231E+06    -237.010E-03     470.455E-03    -233.444E-03     173.292E-03    -242.240E-03     474.974E-03    -233.214E-03     148.671E-03
             870     6.41591E-03     132.988E-03    -76.9248E+06    -78.8971E+06     2.95060E+06     5.73726E+06    -237.287E-03     470.679E-03    -233.392E-03     194.010E-03    -244.166E-03     476.996E-03    -233.151E-03     165.545E-03
             871     7.12860E-03     133.261E-03    -68.5273E+06    -24.7836E+06     21.7809E+06     6.78335E+06    -237.869E-03     471.199E-03    -233.330E-03     214.398E-03    -246.699E-03     479.634E-03    -233.086E-03     181.920E-03
             872     7.84259E-03     133.563E-03    -60.3434E+06     8.58011E+06     36.3725E+06     7.40198E+06    -238.114E-03     471.400E-03    -233.286E-03     234.244E-03    -249.140E-03     482.137E-03    -233.029E-03     197.772E-03
             873     8.55587E-03     133.886E-03    -52.2726E+06     27.8760E+06     48.8979E+06     6.94342E+06    -238.144E-03     471.395E-03    -233.251E-03     251.888E-03    -251.495E-03     484.518E-03    -232.971E-03     211.649E-03
             874     9.26896E-03     134.233E-03    -44.0293E+06     43.9258E+06     62.7399E+06     5.15977E+06    -237.891E-03     471.123E-03    -233.232E-03     265.025E-03    -253.406E-03     486.455E-03    -232.918E-03     221.706E-03
             875     9.98264E-03     134.593E-03    -36.0468E+06     50.7764E+06     75.2685E+06     3.02164E+06    -236.722E-03     469.940E-03    -233.218E-03     269.869E-03    -253.709E-03     486.762E-03    -232.863E-03     224.867E-03
             876     10.6963E-03     134.949E-03    -28.9783E+06     59.3557E+06     84.3442E+06     1.18290E+06    -234.853E-03     468.022E-03    -233.169E-03     264.359E-03    -252.197E-03     485.229E-03    -232.791E-03     219.414E-03
             877     11.4095E-03     135.288E-03    -22.6969E+06     67.1088E+06     86.6294E+06     825.782E+03    -232.642E-03     465.705E-03    -233.063E-03     249.575E-03    -249.129E-03     482.098E-03    -232.694E-03     206.356E-03
             878     12.1259E-03     135.601E-03    -17.2170E+06     72.8722E+06     86.5688E+06     910.594E+03    -230.414E-03     463.333E-03    -232.919E-03     222.870E-03    -244.559E-03     477.425E-03    -232.567E-03     183.326E-03
             879     12.8379E-03     135.860E-03    -11.3006E+06     81.5399E+06     88.9231E+06     600.795E+03    -229.258E-03     462.024E-03    -232.766E-03     203.038E-03    -241.531E-03     474.288E-03    -232.423E-03     166.355E-03
             880     13.5605E-03     136.121E-03    -4.78404E+06     85.3443E+06     90.4955E+06     769.900E+03    -228.744E-03     461.364E-03    -232.620E-03     141.692E-03    -236.349E-03     468.993E-03    -232.284E-03     114.015E-03
             881     712.512E-06     133.312E-03    -127.940E+06    -324.718E+06    -126.664E+06     256.843E+03    -233.820E-03     466.933E-03    -233.112E-03     24.9386E-03    -233.898E-03     465.771E-03    -233.089E-03     21.9837E-03
             882     1.42501E-03     133.359E-03    -125.987E+06    -309.808E+06    -119.696E+06     1.04326E+06    -233.871E-03     467.299E-03    -233.428E-03     45.0497E-03    -234.164E-03     466.392E-03    -233.394E-03     39.5720E-03
             883     2.13812E-03     133.435E-03    -121.503E+06    -289.243E+06    -105.796E+06     1.80149E+06    -234.285E-03     467.774E-03    -233.490E-03     66.1960E-03    -234.939E-03     467.277E-03    -233.423E-03     57.9662E-03
             884     2.85056E-03     133.540E-03    -115.493E+06    -270.256E+06    -88.0497E+06     2.42100E+06    -234.708E-03     468.251E-03    -233.542E-03     87.7502E-03    -235.868E-03     468.296E-03    -233.423E-03     76.6436E-03
             885     3.56322E-03     133.675E-03    -108.410E+06    -244.442E+06    -70.2667E+06     3.16840E+06    -235.373E-03     468.942E-03    -233.569E-03     109.260E-03    -237.220E-03     469.740E-03    -233.409E-03     95.0646E-03
             886     4.27588E-03     133.839E-03    -100.619E+06    -212.280E+06    -52.2758E+06     4.06635E+06    -236.102E-03     469.694E-03    -233.592E-03     130.909E-03    -238.840E-03     471.472E-03    -233.399E-03     113.415E-03
             887     4.98843E-03     134.032E-03    -92.6021E+06    -173.173E+06    -34.2396E+06     5.43572E+06    -236.419E-03     469.996E-03    -233.577E-03     152.348E-03    -240.273E-03     473.005E-03    -233.363E-03     131.424E-03
             888     5.70228E-03     134.251E-03    -84.7424E+06    -130.604E+06    -15.5736E+06     7.00427E+06    -236.889E-03     470.416E-03    -233.527E-03     173.099E-03    -242.102E-03     474.909E-03    -233.293E-03     148.534E-03
             889     6.41492E-03     134.498E-03    -77.3075E+06    -81.5670E+06     3.16488E+06     7.73423E+06    -237.646E-03     471.126E-03    -233.481E-03     193.598E-03    -244.514E-03     477.422E-03    -233.235E-03     165.119E-03
             890     7.12819E-03     134.773E-03    -69.6497E+06    -27.3457E+06     21.6809E+06     8.15913E+06    -238.030E-03     471.473E-03    -233.443E-03     213.774E-03    -246.851E-03     479.887E-03    -233.194E-03     181.277E-03
             891     7.84098E-03     135.071E-03    -61.0398E+06     8.12556E+06     36.7037E+06     7.83485E+06    -238.271E-03     471.684E-03    -233.413E-03     233.183E-03    -249.273E-03     482.392E-03    -233.153E-03     196.682E-03
             892     8.55441E-03     135.397E-03    -51.8625E+06     28.8300E+06     49.6279E+06     6.65224E+06    -238.414E-03     471.810E-03    -233.396E-03     250.988E-03    -251.743E-03     484.914E-03    -233.114E-03     210.680E-03
             893     9.26743E-03     135.743E-03    -43.2844E+06     46.4808E+06     64.0658E+06     5.86362E+06    -237.740E-03     471.120E-03    -233.381E-03     264.405E-03    -253.238E-03     486.444E-03    -233.065E-03     221.107E-03
             894     9.98087E-03     136.101E-03    -36.1305E+06     54.9299E+06     77.4681E+06     4.70339E+06    -236.261E-03     469.604E-03    -233.343E-03     269.671E-03    -253.240E-03     486.425E-03    -232.983E-03     224.777E-03
             895     10.6952E-03     136.457E-03    -29.6601E+06     62.4627E+06     86.8049E+06     3.49964E+06    -234.211E-03     467.463E-03    -233.252E-03     264.238E-03    -251.530E-03     484.647E-03    -232.866E-03     219.491E-03
             896     11.4107E-03     136.797E-03    -23.5608E+06     68.1705E+06     88.6071E+06     2.58362E+06    -231.883E-03     464.982E-03    -233.099E-03     249.055E-03    -248.332E-03     481.332E-03    -232.720E-03     206.049E-03
             897     12.1248E-03     137.105E-03    -16.8944E+06     74.3830E+06     89.1511E+06     1.47143E+06    -229.936E-03     462.856E-03    -232.921E-03     222.264E-03    -244.059E-03     476.926E-03    -232.559E-03     182.833E-03
             898     12.8429E-03     137.370E-03    -10.8722E+06     83.0149E+06     91.2330E+06     684.875E+03    -228.826E-03     461.570E-03    -232.744E-03     202.518E-03    -241.059E-03     473.795E-03    -232.393E-03     165.980E-03
             899     13.5514E-03     137.620E-03    -5.50191E+06     85.2928E+06     91.4432E+06    -498.682E+03    -228.179E-03     460.751E-03    -232.571E-03     141.211E-03    -235.754E-03     468.344E-03    -232.230E-03     113.598E-03
             900     712.908E-06     134.822E-03    -130.083E+06    -327.063E+06    -127.460E+06     1.20575E+06    -233.622E-03     467.100E-03    -233.478E-03     24.5968E-03    -233.704E-03     465.930E-03    -233.452E-03     21.6878E-03
             901     1.42562E-03     134.870E-03    -127.301E+06    -311.469E+06    -119.757E+06     900.492E+03    -233.963E-03     467.483E-03    -233.520E-03     45.1449E-03    -234.261E-03     466.571E-03    -233.483E-03     39.6660E-03
             902     2.13739E-03     134.946E-03    -122.640E+06    -291.703E+06    -106.835E+06     1.22735E+06    -234.494E-03     468.089E-03    -233.595E-03     66.3445E-03    -235.148E-03     467.582E-03    -233.528E-03     58.1021E-03
             903     2.85003E-03     135.051E-03    -116.265E+06    -273.208E+06    -88.8591E+06     2.08058E+06    -234.995E-03     468.678E-03    -233.684E-03     87.7315E-03    -236.155E-03     468.714E-03    -233.563E-03     76.5934E-03
             904     3.56268E-03     135.186E-03    -108.790E+06    -248.118E+06    -70.7685E+06     3.02407E+06    -235.495E-03     469.221E-03    -233.726E-03     109.556E-03    -237.346E-03     470.010E-03    -233.562E-03     95.3123E-03
             905     4.27512E-03     135.351E-03    -100.837E+06    -216.196E+06    -52.9268E+06     4.36854E+06    -235.931E-03     469.649E-03    -233.718E-03     130.956E-03    -238.663E-03     471.409E-03    -233.523E-03     113.475E-03
             906     4.98861E-03     135.542E-03    -92.7553E+06    -177.796E+06    -35.0133E+06     5.84514E+06    -236.527E-03     470.208E-03    -233.681E-03     151.810E-03    -240.362E-03     473.184E-03    -233.464E-03     130.890E-03
             907     5.70122E-03     135.762E-03    -84.1896E+06    -136.065E+06    -16.4305E+06     7.45748E+06    -237.344E-03     471.003E-03    -233.659E-03     172.417E-03    -242.537E-03     475.462E-03    -233.422E-03     147.793E-03
             908     6.41416E-03     136.009E-03    -74.9435E+06    -86.0974E+06     3.57451E+06     9.43044E+06    -237.906E-03     471.556E-03    -233.650E-03     192.769E-03    -244.742E-03     477.810E-03    -233.398E-03     164.272E-03
             909     7.12680E-03     136.283E-03    -65.8215E+06    -29.1323E+06     23.6772E+06     11.0895E+06    -238.249E-03     471.880E-03    -233.630E-03     212.828E-03    -247.028E-03     480.253E-03    -233.374E-03     180.338E-03
             910     7.84005E-03     136.583E-03    -57.8116E+06     10.7403E+06     39.5258E+06     10.6532E+06    -238.492E-03     472.103E-03    -233.611E-03     232.470E-03    -249.469E-03     482.798E-03    -233.345E-03     195.962E-03
             911     8.55235E-03     136.908E-03    -51.1140E+06     31.1803E+06     51.5605E+06     8.70389E+06    -238.120E-03     471.701E-03    -233.581E-03     250.587E-03    -251.427E-03     484.787E-03    -233.294E-03     210.374E-03
             912     9.26606E-03     137.252E-03    -44.6235E+06     47.9681E+06     64.8050E+06     7.13504E+06    -237.272E-03     470.794E-03    -233.522E-03     264.307E-03    -252.755E-03     486.101E-03    -233.203E-03     221.133E-03
             913     9.98050E-03     137.610E-03    -36.9991E+06     57.6023E+06     78.9778E+06     6.03587E+06    -235.935E-03     469.383E-03    -233.448E-03     269.306E-03    -252.886E-03     486.178E-03    -233.083E-03     224.523E-03
             914     10.6948E-03     137.965E-03    -29.1597E+06     64.1184E+06     89.0070E+06     5.31478E+06    -233.728E-03     467.060E-03    -233.332E-03     263.169E-03    -251.000E-03     484.198E-03    -232.938E-03     218.552E-03
             915     11.4095E-03     138.302E-03    -21.4655E+06     71.4916E+06     92.1449E+06     4.19359E+06    -231.373E-03     464.529E-03    -233.155E-03     247.717E-03    -247.772E-03     480.838E-03    -232.767E-03     204.806E-03
             916     12.1256E-03     138.612E-03    -14.7313E+06     77.4871E+06     92.6229E+06     2.57949E+06    -229.373E-03     462.324E-03    -232.951E-03     221.185E-03    -243.424E-03     476.329E-03    -232.579E-03     181.906E-03
             917     12.8388E-03     138.872E-03    -8.48487E+06     84.7062E+06     94.6383E+06     1.45291E+06    -228.257E-03     461.004E-03    -232.747E-03     201.517E-03    -240.433E-03     473.176E-03    -232.385E-03     165.089E-03
             918     13.5620E-03     139.129E-03    -3.38191E+06     86.6153E+06     94.9308E+06     592.301E+03    -228.031E-03     460.592E-03    -232.561E-03     140.922E-03    -235.597E-03     468.178E-03    -232.207E-03     113.338E-03
             919     712.061E-06     136.333E-03    -130.929E+06    -329.440E+06    -129.124E+06     272.848E+03    -233.636E-03     467.630E-03    -233.993E-03     24.4257E-03    -233.716E-03     466.450E-03    -233.971E-03     21.4947E-03
             920     1.42466E-03     136.381E-03    -127.105E+06    -312.834E+06    -120.955E+06     772.054E+03    -234.064E-03     467.812E-03    -233.748E-03     44.9843E-03    -234.354E-03     466.892E-03    -233.715E-03     39.5243E-03
             921     2.13780E-03     136.458E-03    -123.217E+06    -293.403E+06    -107.860E+06     1.08589E+06    -234.510E-03     468.277E-03    -233.768E-03     66.0873E-03    -235.162E-03     467.763E-03    -233.703E-03     57.8397E-03
             922     2.84988E-03     136.563E-03    -117.438E+06    -276.044E+06    -90.4467E+06     1.55057E+06    -235.077E-03     468.902E-03    -233.825E-03     87.6832E-03    -236.241E-03     468.931E-03    -233.707E-03     76.4959E-03
             923     3.56201E-03     136.698E-03    -110.161E+06    -251.929E+06    -72.5136E+06     2.60607E+06    -235.586E-03     469.445E-03    -233.859E-03     109.319E-03    -237.431E-03     470.215E-03    -233.696E-03     95.0675E-03
             924     4.27527E-03     136.861E-03    -102.259E+06    -220.686E+06     -54.772E+06     3.81458E+06    -236.214E-03     470.078E-03    -233.864E-03     130.316E-03    -238.935E-03     471.811E-03    -233.670E-03     112.813E-03
             925     4.98746E-03     137.053E-03    -93.8656E+06    -182.537E+06    -36.8829E+06     5.00839E+06    -237.062E-03     470.935E-03    -233.873E-03     151.050E-03    -240.887E-03     473.885E-03    -233.657E-03     130.044E-03
             926     5.69985E-03     137.273E-03    -85.5093E+06    -142.092E+06    -18.7414E+06     6.36198E+06    -237.736E-03     471.630E-03    -233.895E-03     171.735E-03    -242.915E-03     476.056E-03    -233.659E-03     147.035E-03
             927     6.41218E-03     137.521E-03    -77.3075E+06    -93.4543E+06     200.553E+03     8.36738E+06    -238.134E-03     472.035E-03    -233.901E-03     191.984E-03    -244.948E-03     478.243E-03    -233.653E-03     163.435E-03
             928     7.12509E-03     137.794E-03    -69.3756E+06    -36.1793E+06     19.8737E+06     10.9791E+06    -238.339E-03     472.220E-03    -233.881E-03     212.145E-03    -247.099E-03     480.548E-03    -233.628E-03     179.638E-03
             929     7.83722E-03     138.094E-03    -62.0353E+06     11.1893E+06     36.7235E+06     12.5219E+06    -238.082E-03     471.909E-03    -233.827E-03     231.931E-03    -249.049E-03     482.590E-03    -233.570E-03     195.507E-03
             930     8.55128E-03     138.417E-03    -54.7163E+06     36.3303E+06     50.2594E+06     11.0163E+06    -237.649E-03     471.397E-03    -233.748E-03     249.989E-03    -250.946E-03     484.483E-03    -233.470E-03     209.883E-03
             931     9.26549E-03     138.762E-03    -46.6578E+06     51.7295E+06     65.9283E+06     7.77470E+06    -237.016E-03     470.684E-03    -233.668E-03     263.302E-03    -252.456E-03     485.950E-03    -233.345E-03     220.212E-03
             932     9.97906E-03     139.119E-03    -38.2663E+06     59.4926E+06     80.2036E+06     5.31419E+06    -235.497E-03     469.069E-03    -233.572E-03     267.894E-03    -252.382E-03     485.797E-03    -233.202E-03     223.222E-03
             933     10.6936E-03     139.472E-03    -29.0469E+06     64.0821E+06     90.1420E+06     4.03893E+06    -233.272E-03     466.703E-03    -233.431E-03     262.157E-03    -250.498E-03     483.792E-03    -233.031E-03     217.611E-03
             934     11.4087E-03     139.808E-03    -20.5336E+06     72.4860E+06     94.1692E+06     3.53417E+06    -230.877E-03     464.103E-03    -233.226E-03     247.268E-03    -247.243E-03     480.380E-03    -232.830E-03     204.446E-03
             935     12.1239E-03     140.116E-03    -14.0633E+06     78.6869E+06     94.7636E+06     4.11419E+06    -228.851E-03     461.842E-03    -232.991E-03     221.047E-03    -242.904E-03     475.850E-03    -232.610E-03     181.825E-03
             936     12.8428E-03     140.378E-03    -9.02798E+06     86.8551E+06     96.5659E+06     2.84637E+06    -227.620E-03     460.375E-03    -232.754E-03     201.590E-03    -239.842E-03     472.592E-03    -232.384E-03     165.140E-03
             937     13.5515E-03     140.629E-03    -4.68691E+06     89.2999E+06     95.7028E+06     1.74078E+06    -226.149E-03     458.646E-03    -232.497E-03     142.415E-03    -233.752E-03     466.272E-03    -232.141E-03     115.013E-03
             938     712.526E-06     137.844E-03    -130.077E+06    -329.442E+06    -128.787E+06    -296.673E+03    -234.497E-03     468.612E-03    -234.115E-03     24.0208E-03    -234.573E-03     467.432E-03    -234.092E-03     21.0415E-03
             939     1.42453E-03     137.893E-03    -128.608E+06    -315.513E+06    -123.439E+06     680.131E+03    -234.193E-03     468.360E-03    -234.166E-03     44.4030E-03    -234.481E-03     467.429E-03    -234.140E-03     38.9350E-03
             940     2.13631E-03     137.969E-03    -124.932E+06    -295.527E+06    -109.836E+06     1.44488E+06    -234.393E-03     468.444E-03    -234.052E-03     65.9683E-03    -235.049E-03     467.926E-03    -233.991E-03     57.7143E-03
             941     2.84913E-03     138.075E-03    -119.619E+06    -277.887E+06    -92.1575E+06     1.93775E+06    -235.117E-03     469.143E-03    -234.026E-03     87.5233E-03    -236.284E-03     469.165E-03    -233.910E-03     76.3397E-03
             942     3.56197E-03     138.209E-03    -112.941E+06    -253.936E+06    -74.6079E+06     1.94748E+06    -236.003E-03     470.069E-03    -234.066E-03     108.602E-03    -237.847E-03     470.827E-03    -233.907E-03     94.3282E-03
             943     4.27353E-03     138.373E-03    -104.954E+06    -224.270E+06    -57.4511E+06     2.19140E+06    -236.797E-03     470.925E-03    -234.129E-03     129.567E-03    -239.514E-03     472.640E-03    -233.939E-03     111.983E-03
             944     4.98576E-03     138.566E-03    -96.9473E+06    -188.353E+06    -40.5452E+06     3.93994E+06    -237.425E-03     471.601E-03    -234.176E-03     150.521E-03    -241.244E-03     474.525E-03    -233.965E-03     129.457E-03
             945     5.69797E-03     138.786E-03    -89.2524E+06    -147.281E+06    -22.4625E+06     6.11716E+06    -237.930E-03     472.132E-03    -234.202E-03     171.208E-03    -243.102E-03     476.530E-03    -233.971E-03     146.480E-03
             946     6.41043E-03     139.033E-03    -81.4613E+06    -100.187E+06    -4.04212E+06     8.09715E+06    -238.271E-03     472.469E-03    -234.198E-03     191.672E-03    -245.083E-03     478.648E-03    -233.955E-03     163.094E-03
             947     7.12241E-03     139.306E-03    -72.7567E+06    -44.5294E+06     15.3302E+06     10.1829E+06    -238.132E-03     472.280E-03    -234.147E-03     211.878E-03    -246.875E-03     480.562E-03    -233.901E-03     179.389E-03
             948     7.83635E-03     139.604E-03    -62.4619E+06     6.11565E+06     34.3367E+06     12.1898E+06    -237.801E-03     471.852E-03    -234.052E-03     231.301E-03    -248.722E-03     482.474E-03    -233.798E-03     194.945E-03
             949     8.54988E-03     139.927E-03    -52.3259E+06     40.1581E+06     51.4513E+06     12.4071E+06    -237.606E-03     471.553E-03    -233.947E-03     248.967E-03    -250.847E-03     484.601E-03    -233.672E-03     208.910E-03
             950     9.26273E-03     140.272E-03    -43.7514E+06     58.0448E+06     67.4806E+06     10.1303E+06    -236.660E-03     470.505E-03    -233.844E-03     262.083E-03    -252.035E-03     485.734E-03    -233.528E-03     219.116E-03
             951     9.97738E-03     140.626E-03    -36.2205E+06     63.2122E+06     81.9461E+06     7.69107E+06    -234.792E-03     468.503E-03    -233.711E-03     267.269E-03    -251.619E-03     485.188E-03    -233.341E-03     222.804E-03
             952     10.6925E-03     140.979E-03    -29.9615E+06     67.7026E+06     92.4102E+06     5.22517E+06    -232.449E-03     465.966E-03    -233.517E-03     262.028E-03    -249.631E-03     483.014E-03    -233.110E-03     217.730E-03
             953     11.4083E-03     141.313E-03    -24.2857E+06     71.8133E+06     94.6315E+06     3.84972E+06    -230.129E-03     463.384E-03    -233.256E-03     247.434E-03    -246.475E-03     479.625E-03    -232.851E-03     204.830E-03
             954     12.1252E-03     141.621E-03    -18.2985E+06     76.6137E+06     94.0692E+06     3.97945E+06    -228.018E-03     460.982E-03    -232.964E-03     222.068E-03    -242.102E-03     475.000E-03    -232.578E-03     182.995E-03
             955     12.8386E-03     141.881E-03    -11.0051E+06     89.2031E+06     97.2673E+06     3.89341E+06    -226.116E-03     458.768E-03    -232.651E-03     203.557E-03    -238.356E-03     471.002E-03    -232.278E-03     167.459E-03
             956     13.5639E-03     142.133E-03    -4.11935E+06     94.2238E+06     98.9987E+06     2.15540E+06    -224.793E-03     457.111E-03    -232.318E-03     143.275E-03    -232.395E-03     464.746E-03    -231.954E-03     116.088E-03
             957     710.912E-06     139.360E-03    -135.460E+06    -328.798E+06    -133.141E+06    -465.663E+03    -235.139E-03     469.319E-03    -234.180E-03     23.8726E-03    -235.236E-03     468.156E-03    -234.172E-03     20.8828E-03
             958     1.42306E-03     139.405E-03    -132.549E+06    -318.016E+06    -125.098E+06    -4.25072E+03    -234.408E-03     468.921E-03    -234.513E-03     44.3442E-03    -234.712E-03     467.988E-03    -234.485E-03     38.8238E-03
             959     2.13652E-03     139.481E-03    -127.511E+06    -298.255E+06    -112.572E+06     1.08409E+06    -234.740E-03     469.108E-03    -234.368E-03     65.8986E-03    -235.399E-03     468.581E-03    -234.314E-03     57.6326E-03
             960     2.84872E-03     139.587E-03    -121.088E+06    -279.727E+06    -94.4259E+06     1.77281E+06    -235.564E-03     469.927E-03    -234.363E-03     87.0595E-03    -236.726E-03     469.940E-03    -234.254E-03     75.8645E-03
             961     3.56003E-03     139.723E-03    -113.445E+06    -253.452E+06    -76.0446E+06     1.48275E+06    -236.387E-03     470.811E-03    -234.425E-03     108.109E-03    -238.226E-03     471.569E-03    -234.273E-03     93.7947E-03
             962     4.27210E-03     139.887E-03    -105.796E+06    -227.502E+06    -58.6589E+06     1.87529E+06    -237.090E-03     471.585E-03    -234.495E-03     129.351E-03    -239.802E-03     473.283E-03    -234.305E-03     111.733E-03
             963     4.98392E-03     140.079E-03    -97.9586E+06    -194.271E+06    -42.4668E+06     3.60512E+06    -237.705E-03     472.238E-03    -234.533E-03     150.370E-03    -241.515E-03     475.133E-03    -234.321E-03     129.264E-03
             964     5.69596E-03     140.299E-03    -89.0638E+06    -152.367E+06    -25.4020E+06     5.40623E+06    -238.093E-03     472.629E-03    -234.535E-03     170.912E-03    -243.245E-03     476.997E-03    -234.312E-03     146.151E-03
             965     6.40807E-03     140.545E-03    -79.2936E+06    -107.388E+06    -6.58077E+06     7.38695E+06    -238.141E-03     472.640E-03    -234.500E-03     191.293E-03    -244.908E-03     478.764E-03    -234.262E-03     162.735E-03
             966     7.12136E-03     140.818E-03    -69.7003E+06    -51.1847E+06     13.7852E+06     9.70973E+06    -238.008E-03     472.418E-03    -234.411E-03     211.100E-03    -246.685E-03     480.626E-03    -234.166E-03     178.660E-03
             967     7.83412E-03     141.114E-03    -61.2490E+06    -133.473E+03     32.6247E+06     11.4486E+06    -237.922E-03     472.219E-03    -234.297E-03     230.414E-03    -248.782E-03     482.767E-03    -234.045E-03     194.067E-03
             968     8.54693E-03     141.438E-03    -53.6062E+06     38.9158E+06     49.4512E+06     12.0251E+06    -237.226E-03     471.388E-03    -234.162E-03     248.383E-03    -250.412E-03     484.378E-03    -233.893E-03     208.458E-03
             969     9.26159E-03     141.780E-03    -46.1116E+06     61.6210E+06     65.7980E+06     11.1442E+06    -235.858E-03     469.850E-03    -233.992E-03     261.995E-03    -251.189E-03     485.045E-03    -233.686E-03     219.279E-03
             970     9.97653E-03     142.134E-03    -38.6385E+06     65.7664E+06     80.8109E+06     9.70766E+06    -233.982E-03     467.772E-03    -233.790E-03     267.255E-03    -250.756E-03     484.408E-03    -233.425E-03     223.075E-03
             971     10.6924E-03     142.484E-03    -31.6890E+06     72.1105E+06     94.0728E+06     8.75087E+06    -231.468E-03     465.002E-03    -233.535E-03     262.041E-03    -248.589E-03     481.995E-03    -233.123E-03     218.105E-03
             972     11.4092E-03     142.818E-03    -25.1535E+06     75.8017E+06     98.1744E+06     7.34521E+06    -228.983E-03     462.190E-03    -233.207E-03     248.096E-03    -245.303E-03     478.404E-03    -232.789E-03     205.838E-03
             973     12.1254E-03     143.124E-03    -18.4890E+06     79.9364E+06     98.0143E+06     4.10532E+06    -226.476E-03     459.308E-03    -232.832E-03     222.811E-03    -240.530E-03     473.296E-03    -232.431E-03     184.096E-03
             974     12.8476E-03     143.382E-03    -13.2948E+06     89.8125E+06     98.7082E+06     1.15445E+06    -224.996E-03     457.440E-03    -232.443E-03     203.259E-03    -237.216E-03     469.644E-03    -232.061E-03     167.333E-03
             975     13.5610E-03     143.628E-03    -5.98818E+06     94.8620E+06     99.4934E+06     723.832E+03    -224.370E-03     456.448E-03    -232.078E-03     142.469E-03    -231.985E-03     464.090E-03    -231.709E-03     115.214E-03
             976     712.346E-06     140.873E-03    -135.901E+06    -325.442E+06    -132.741E+06    -1.36134E+06    -234.529E-03     469.203E-03    -234.675E-03     23.8203E-03    -234.634E-03     468.056E-03    -234.669E-03     20.8358E-03
             977     1.42427E-03     140.919E-03    -131.173E+06    -319.699E+06    -123.654E+06    -1.39573E+06    -235.173E-03     469.803E-03    -234.630E-03     44.2562E-03    -235.470E-03     468.858E-03    -234.595E-03     38.7009E-03
             978     2.13494E-03     140.994E-03    -126.847E+06    -301.721E+06    -112.586E+06     115.408E+03    -235.682E-03     470.423E-03    -234.741E-03     65.6761E-03    -236.332E-03     469.877E-03    -234.682E-03     57.3579E-03
             979     2.84641E-03     141.101E-03    -120.763E+06    -279.710E+06    -97.2043E+06     126.794E+03    -236.119E-03     470.942E-03    -234.824E-03     86.9408E-03    -237.275E-03     470.959E-03    -234.729E-03     75.6807E-03
             980     3.55860E-03     141.237E-03    -113.560E+06    -254.250E+06    -79.4429E+06     354.146E+03    -236.589E-03     471.458E-03    -234.869E-03     107.957E-03    -238.420E-03     472.214E-03    -234.733E-03     93.6097E-03
             981     4.27043E-03     141.401E-03    -105.883E+06    -230.720E+06    -61.3809E+06     1.38539E+06    -237.246E-03     472.146E-03    -234.900E-03     129.020E-03    -239.942E-03     473.825E-03    -234.719E-03     111.384E-03
             982     4.98220E-03     141.593E-03    -97.1870E+06    -197.982E+06    -44.1869E+06     1.91287E+06    -237.797E-03     472.701E-03    -234.904E-03     149.951E-03    -241.581E-03     475.565E-03    -234.697E-03     128.827E-03
             983     5.69395E-03     141.813E-03    -88.2196E+06    -157.502E+06    -28.0937E+06     2.59411E+06    -238.034E-03     472.894E-03    -234.860E-03     170.667E-03    -243.155E-03     477.224E-03    -234.644E-03     145.899E-03
             984     6.40641E-03     142.058E-03    -79.7123E+06    -115.293E+06    -10.5433E+06     4.71169E+06    -238.106E-03     472.888E-03    -234.781E-03     190.919E-03    -244.831E-03     478.950E-03    -234.551E-03     162.374E-03
             985     7.11895E-03     142.329E-03    -71.6015E+06    -61.1137E+06     9.14473E+06     8.12056E+06    -238.073E-03     472.739E-03    -234.666E-03     210.783E-03    -246.703E-03     480.871E-03    -234.428E-03     178.380E-03
             986     7.83176E-03     142.628E-03    -63.7167E+06    -7.52725E+06     28.3380E+06     12.0629E+06    -237.523E-03     472.033E-03    -234.510E-03     230.468E-03    -248.334E-03     482.508E-03    -234.265E-03     194.287E-03
             987     8.54591E-03     142.947E-03    -56.3840E+06     38.1403E+06     45.8367E+06     13.6370E+06    -236.415E-03     470.707E-03    -234.291E-03     248.592E-03    -249.545E-03     483.639E-03    -234.036E-03     208.959E-03
             988     9.26090E-03     143.287E-03    -49.1646E+06     63.7485E+06     63.0490E+06     12.5768E+06    -235.055E-03     469.094E-03    -234.039E-03     262.201E-03    -250.318E-03     484.227E-03    -233.745E-03     219.807E-03
             989     9.97646E-03     143.641E-03    -42.1265E+06     68.2684E+06     79.0380E+06     10.8518E+06    -233.006E-03     466.770E-03    -233.764E-03     267.373E-03    -249.708E-03     483.336E-03    -233.407E-03     223.563E-03
             990     10.6931E-03     143.987E-03    -34.2178E+06     73.8604E+06     93.4474E+06     8.93102E+06    -230.325E-03     463.759E-03    -233.434E-03     262.718E-03    -247.401E-03     480.705E-03    -233.025E-03     219.131E-03
             991     11.4106E-03     144.321E-03    -24.9230E+06     79.7646E+06     101.013E+06     6.45362E+06    -227.629E-03     460.660E-03    -233.031E-03     249.105E-03    -243.909E-03     476.842E-03    -232.606E-03     207.201E-03
             992     12.1305E-03     144.624E-03    -16.6015E+06     85.1226E+06     102.370E+06     4.49876E+06    -225.299E-03     457.885E-03    -232.586E-03     223.071E-03    -239.305E-03     471.837E-03    -232.173E-03     184.683E-03
             993     12.8462E-03     144.879E-03    -9.68963E+06     94.6418E+06     104.901E+06     4.22449E+06    -223.799E-03     455.940E-03    -232.141E-03     205.301E-03    -236.018E-03     468.157E-03    -231.740E-03     169.689E-03
             994     13.5676E-03     145.134E-03    -6.07384E+06     97.0201E+06     102.966E+06     1.79187E+06    -223.119E-03     454.827E-03    -231.707E-03     146.943E-03    -230.805E-03     462.537E-03    -231.325E-03     119.855E-03
             995     711.974E-06     142.387E-03    -135.094E+06    -319.774E+06    -132.126E+06    -1.09273E+06    -234.441E-03     469.701E-03    -235.260E-03     23.8339E-03    -234.549E-03     468.577E-03    -235.261E-03     20.8839E-03
             996     1.42289E-03     142.434E-03    -132.240E+06    -319.211E+06    -123.768E+06    -1.68169E+06    -235.850E-03     470.822E-03    -234.972E-03     43.8961E-03    -236.149E-03     469.878E-03    -234.937E-03     38.3466E-03
             997     2.13444E-03     142.511E-03    -127.166E+06    -304.258E+06    -112.767E+06    -1.32107E+06    -236.296E-03     471.496E-03    -235.200E-03     65.4933E-03    -236.942E-03     470.938E-03    -235.138E-03     57.1208E-03
             998     2.84563E-03     142.617E-03    -121.904E+06    -278.565E+06    -99.9758E+06    -868.392E+03    -236.479E-03     471.759E-03    -235.279E-03     86.9264E-03    -237.637E-03     471.784E-03    -235.199E-03     75.6449E-03
             999     3.55678E-03     142.752E-03    -116.040E+06    -255.421E+06    -83.9895E+06    -809.712E+03    -236.899E-03     472.192E-03    -235.293E-03     108.099E-03    -238.734E-03     472.952E-03    -235.174E-03     93.7209E-03
            1000     4.26821E-03     142.916E-03    -108.765E+06    -231.509E+06    -67.0339E+06    -1.32852E+06    -237.398E-03     472.680E-03    -235.282E-03     129.254E-03    -240.096E-03     474.364E-03    -235.124E-03     111.586E-03
            1001     4.97988E-03     143.108E-03    -100.707E+06    -200.016E+06    -49.6056E+06    -1.48294E+06    -237.693E-03     472.925E-03    -235.232E-03     150.119E-03    -241.471E-03     475.780E-03    -235.044E-03     129.005E-03
            1002     5.69235E-03     143.326E-03    -92.7614E+06    -162.333E+06    -32.3415E+06    -312.038E+03    -237.894E-03     473.032E-03    -235.138E-03     170.627E-03    -242.997E-03     477.323E-03    -234.930E-03     145.910E-03
            1003     6.40484E-03     143.572E-03    -84.9412E+06    -122.366E+06    -15.4655E+06     1.67172E+06    -238.001E-03     473.011E-03    -235.011E-03     190.972E-03    -244.697E-03     479.016E-03    -234.788E-03     162.503E-03
            1004     7.11734E-03     143.843E-03    -76.3632E+06    -73.5301E+06     2.49387E+06     5.37560E+06    -237.599E-03     472.432E-03    -234.833E-03     211.311E-03    -246.182E-03     480.475E-03    -234.603E-03     179.075E-03
            1005     7.83116E-03     144.138E-03    -67.1293E+06    -19.2893E+06     22.0544E+06     9.95970E+06    -236.678E-03     471.263E-03    -234.584E-03     230.962E-03    -247.408E-03     481.622E-03    -234.349E-03     195.073E-03
            1006     8.54614E-03     144.456E-03    -57.6061E+06     34.1716E+06     41.4407E+06     13.2435E+06    -235.662E-03     469.932E-03    -234.270E-03     249.096E-03    -248.702E-03     482.769E-03    -234.029E-03     209.788E-03
            1007     9.26120E-03     144.796E-03    -49.0436E+06     63.7829E+06     59.7101E+06     14.5900E+06    -234.053E-03     467.984E-03    -233.930E-03     262.864E-03    -249.215E-03     483.024E-03    -233.653E-03     220.911E-03
            1008     9.97807E-03     145.144E-03    -40.6909E+06     72.6734E+06     78.5077E+06     13.3046E+06    -231.678E-03     465.239E-03    -233.561E-03     268.738E-03    -248.287E-03     481.734E-03    -233.215E-03     225.472E-03
            1009     10.6960E-03     145.492E-03    -32.1237E+06     79.2302E+06     95.9854E+06     9.80458E+06    -229.063E-03     462.205E-03    -233.141E-03     264.716E-03    -246.077E-03     479.108E-03    -232.730E-03     221.630E-03
            1010     11.4151E-03     145.820E-03    -24.8228E+06     84.0728E+06     104.881E+06     6.97782E+06    -226.296E-03     458.954E-03    -232.658E-03     251.316E-03    -242.529E-03     475.093E-03    -232.219E-03     209.944E-03
            1011     12.1333E-03     146.124E-03    -18.7691E+06     88.2776E+06     104.387E+06     5.02226E+06    -224.041E-03     456.165E-03    -232.124E-03     227.204E-03    -238.085E-03     470.152E-03    -231.702E-03     189.236E-03
            1012     12.8557E-03     146.378E-03    -12.2448E+06     96.1491E+06     104.943E+06     3.38269E+06    -222.553E-03     454.155E-03    -231.602E-03     208.449E-03    -234.838E-03     466.434E-03    -231.199E-03     173.045E-03
            1013     13.5789E-03     146.622E-03    -5.36146E+06     99.9425E+06     105.529E+06     1.98671E+06    -221.328E-03     452.439E-03    -231.111E-03     148.610E-03    -229.031E-03     460.172E-03    -230.721E-03     121.677E-03
            1014     711.012E-06     143.902E-03    -140.590E+06    -316.799E+06    -138.454E+06    -9.78709E+03    -235.449E-03     471.192E-03    -235.743E-03     24.1371E-03    -235.580E-03     470.101E-03    -235.772E-03     21.1921E-03
            1015     1.42253E-03     143.951E-03    -137.462E+06    -314.370E+06    -128.731E+06    -1.67210E+06    -235.997E-03     471.592E-03    -235.595E-03     44.2907E-03    -236.323E-03     470.687E-03    -235.583E-03     38.7441E-03
            1016     2.13282E-03     144.027E-03    -132.473E+06    -303.362E+06    -116.176E+06    -3.07389E+06    -236.381E-03     472.036E-03    -235.655E-03     65.5027E-03    -237.047E-03     471.491E-03    -235.604E-03     57.1258E-03
            1017     2.84407E-03     144.133E-03    -125.814E+06    -279.304E+06    -102.384E+06    -2.57288E+06    -236.660E-03     472.315E-03    -235.655E-03     86.9137E-03    -237.827E-03     472.341E-03    -235.580E-03     75.6401E-03
            1018     3.55560E-03     144.268E-03    -118.532E+06    -254.575E+06    -86.8316E+06    -2.62720E+06    -237.003E-03     472.615E-03    -235.612E-03     108.548E-03    -238.843E-03     473.382E-03    -235.505E-03     94.1810E-03
            1019     4.26719E-03     144.432E-03    -111.038E+06    -229.029E+06    -69.8048E+06    -3.50436E+06    -237.342E-03     472.882E-03    -235.540E-03     129.795E-03    -240.041E-03     474.576E-03    -235.396E-03     112.175E-03
            1020     4.97925E-03     144.623E-03    -103.501E+06    -200.809E+06    -52.8730E+06    -3.87265E+06    -237.611E-03     473.045E-03    -235.435E-03     150.646E-03    -241.380E-03     475.888E-03    -235.258E-03     129.597E-03
            1021     5.69117E-03     144.841E-03    -95.2367E+06    -166.922E+06    -35.8428E+06    -2.57288E+06    -237.698E-03     472.986E-03    -235.288E-03     171.270E-03    -242.773E-03     477.234E-03    -235.087E-03     146.675E-03
            1022     6.40356E-03     145.085E-03    -86.3290E+06    -127.502E+06    -18.7707E+06    -823.122E+03    -237.365E-03     472.445E-03    -235.080E-03     192.027E-03    -244.018E-03     478.393E-03    -234.864E-03     163.774E-03
            1023     7.11744E-03     145.354E-03    -77.1166E+06    -84.2422E+06    -1.49463E+06     1.92592E+06    -236.680E-03     471.477E-03    -234.796E-03     212.423E-03    -245.183E-03     479.411E-03    -234.570E-03     180.494E-03
            1024     7.83218E-03     145.647E-03    -67.2901E+06    -31.1433E+06     18.0455E+06     5.85926E+06    -235.879E-03     470.324E-03    -234.445E-03     232.291E-03    -246.508E-03     480.551E-03    -234.212E-03     196.746E-03
            1025     8.54705E-03     145.965E-03    -57.7545E+06     21.8505E+06     37.4863E+06     10.8217E+06    -234.554E-03     468.584E-03    -234.030E-03     250.825E-03    -247.470E-03     481.264E-03    -233.790E-03     212.014E-03
            1026     9.26426E-03     146.301E-03    -48.5907E+06     59.3518E+06     56.3895E+06     14.6480E+06    -232.479E-03     466.034E-03    -233.555E-03     265.138E-03    -247.508E-03     480.937E-03    -233.288E-03     223.877E-03
            1027     9.98253E-03     146.647E-03    -40.1471E+06     77.3548E+06     76.4965E+06     13.7661E+06    -230.098E-03     463.142E-03    -233.044E-03     271.897E-03    -246.605E-03     479.559E-03    -232.715E-03     229.352E-03
            1028     10.7024E-03     146.991E-03    -32.7487E+06     84.3634E+06     96.2102E+06     11.4960E+06    -227.368E-03     459.875E-03    -232.506E-03     268.733E-03    -244.299E-03     476.710E-03    -232.100E-03     226.459E-03
            1029     11.4221E-03     147.320E-03    -25.5769E+06     88.5189E+06     107.560E+06     9.27369E+06    -224.725E-03     456.642E-03    -231.918E-03     256.352E-03    -240.945E-03     472.774E-03    -231.471E-03     215.698E-03
            1030     12.1457E-03     147.617E-03    -18.2018E+06     91.9165E+06     108.369E+06     7.50584E+06    -222.448E-03     453.738E-03    -231.290E-03     232.346E-03    -236.497E-03     467.734E-03    -230.855E-03     195.014E-03
            1031     12.8662E-03     147.874E-03    -12.3449E+06     101.602E+06     109.893E+06     4.37076E+06    -221.517E-03     452.217E-03    -230.700E-03     215.779E-03    -233.928E-03     464.625E-03    -230.280E-03     180.734E-03
            1032     13.5819E-03     148.118E-03    -5.98882E+06     103.121E+06     109.406E+06     955.048E+03    -221.352E-03     451.546E-03    -230.194E-03     156.002E-03    -229.265E-03     459.486E-03    -229.788E-03     128.858E-03
            1033     710.467E-06     145.421E-03    -142.660E+06    -315.342E+06    -141.390E+06    -544.837E+03    -236.244E-03     472.242E-03    -235.998E-03     24.4738E-03    -236.386E-03     471.168E-03    -236.041E-03     21.5032E-03
            1034     1.42091E-03     145.468E-03    -139.735E+06    -308.312E+06    -132.091E+06    -1.84667E+06    -236.017E-03     472.019E-03    -236.002E-03     44.8847E-03    -236.359E-03     471.153E-03    -236.013E-03     39.3507E-03
            1035     2.13280E-03     145.546E-03    -134.981E+06    -298.010E+06    -117.836E+06    -3.87979E+06    -236.240E-03     472.137E-03    -235.898E-03     66.2934E-03    -236.923E-03     471.625E-03    -235.859E-03     57.9607E-03
            1036     2.84365E-03     145.650E-03    -128.309E+06    -277.885E+06    -103.273E+06    -5.45616E+06    -236.682E-03     472.495E-03    -235.814E-03     87.8209E-03    -237.861E-03     472.533E-03    -235.741E-03     76.5491E-03
            1037     3.55496E-03     145.785E-03    -120.988E+06    -252.713E+06    -88.6779E+06    -5.81486E+06    -236.969E-03     472.691E-03    -235.721E-03     109.200E-03    -238.810E-03     473.462E-03    -235.623E-03     94.8907E-03
            1038     4.26674E-03     145.948E-03    -113.164E+06    -226.703E+06    -71.8582E+06    -5.79767E+06    -237.058E-03     472.649E-03    -235.591E-03     130.344E-03    -239.744E-03     474.337E-03    -235.458E-03     112.852E-03
            1039     4.97866E-03     146.138E-03    -104.892E+06    -199.891E+06    -55.0942E+06    -6.11797E+06    -237.074E-03     472.477E-03    -235.402E-03     151.757E-03    -240.818E-03     475.299E-03    -235.236E-03     130.910E-03
            1040     5.69133E-03     146.355E-03    -96.3395E+06    -169.604E+06    -38.9922E+06    -5.99504E+06    -236.878E-03     472.025E-03    -235.147E-03     173.093E-03    -241.917E-03     476.233E-03    -234.956E-03     148.760E-03
            1041     6.40533E-03     146.597E-03    -87.1193E+06    -132.206E+06    -22.2616E+06    -4.67796E+06    -236.354E-03     471.170E-03    -234.816E-03     194.063E-03    -242.944E-03     477.046E-03    -234.609E-03     166.176E-03
            1042     7.11986E-03     146.865E-03    -77.6654E+06    -92.4685E+06    -4.81531E+06    -2.55890E+06    -235.589E-03     470.004E-03    -234.416E-03     214.819E-03    -244.003E-03     477.828E-03    -234.193E-03     183.345E-03
            1043     7.83516E-03     147.156E-03    -68.9722E+06    -43.2878E+06     13.9630E+06     1.75365E+06    -234.468E-03     468.403E-03    -233.936E-03     235.531E-03    -244.990E-03     478.486E-03    -233.703E-03     200.591E-03
            1044     8.55258E-03     147.471E-03    -60.3091E+06     6.64223E+06     32.3520E+06     7.59236E+06    -232.665E-03     466.027E-03    -233.362E-03     254.657E-03    -245.439E-03     478.517E-03    -233.123E-03     216.673E-03
            1045     9.27126E-03     147.803E-03    -51.9499E+06     51.6256E+06     51.0812E+06     11.8630E+06    -230.507E-03     463.211E-03    -232.704E-03     270.039E-03    -245.411E-03     477.966E-03    -232.449E-03     229.698E-03
            1046     9.99206E-03     148.147E-03    -44.1250E+06     79.1030E+06     72.3360E+06     13.0803E+06    -228.141E-03     460.163E-03    -232.022E-03     277.886E-03    -244.546E-03     476.482E-03    -231.711E-03     236.361E-03
            1047     10.7134E-03     148.489E-03    -35.7575E+06     87.2520E+06     93.2138E+06     11.5416E+06    -225.425E-03     456.763E-03    -231.338E-03     275.312E-03    -242.276E-03     473.527E-03    -230.947E-03     234.059E-03
            1048     11.4383E-03     148.813E-03    -26.9279E+06     91.1095E+06     107.454E+06     9.34322E+06    -223.121E-03     453.762E-03    -230.642E-03     263.625E-03    -239.307E-03     469.865E-03    -230.198E-03     223.849E-03
            1049     12.1590E-03     149.114E-03    -18.4497E+06     95.3642E+06     111.267E+06     6.70121E+06    -221.808E-03     451.774E-03    -229.966E-03     239.679E-03    -235.908E-03     465.825E-03    -229.522E-03     202.846E-03
            1050     12.8841E-03     149.362E-03    -9.39230E+06     107.599E+06     116.550E+06     5.48841E+06    -221.288E-03     450.680E-03    -229.392E-03     221.099E-03    -233.793E-03     463.195E-03    -228.951E-03     186.208E-03
            1051     13.6163E-03     149.616E-03    -4.86084E+06     107.649E+06     114.948E+06     3.86435E+06    -223.685E-03     452.672E-03    -228.987E-03     158.787E-03    -231.655E-03     460.673E-03    -228.561E-03     131.475E-03
            1052     710.604E-06     146.939E-03    -144.202E+06    -311.151E+06    -142.368E+06    -1.75745E+06    -236.418E-03     471.924E-03    -235.505E-03     24.6640E-03    -236.573E-03     470.874E-03    -235.557E-03     21.6752E-03
            1053     1.42187E-03     146.987E-03    -141.427E+06    -302.682E+06    -134.185E+06    -3.06433E+06    -235.940E-03     471.785E-03    -235.846E-03     45.6030E-03    -236.294E-03     470.952E-03    -235.873E-03     40.1013E-03
            1054     2.13246E-03     147.062E-03    -135.771E+06    -289.459E+06    -120.448E+06    -5.07738E+06    -236.068E-03     471.803E-03    -235.735E-03     67.0333E-03    -236.760E-03     471.335E-03    -235.721E-03     58.7702E-03
            1055     2.84435E-03     147.168E-03    -129.517E+06    -272.594E+06    -104.778E+06    -7.05930E+06    -236.321E-03     471.941E-03    -235.621E-03     88.7602E-03    -237.502E-03     471.999E-03    -235.562E-03     77.6079E-03
            1056     3.55557E-03     147.302E-03    -122.711E+06    -249.424E+06    -89.4035E+06    -7.91682E+06    -236.456E-03     471.923E-03    -235.466E-03     110.523E-03    -238.295E-03     472.699E-03    -235.374E-03     96.3856E-03
            1057     4.26746E-03     147.463E-03    -115.067E+06    -223.949E+06    -74.3651E+06    -8.66372E+06    -236.277E-03     471.512E-03    -235.235E-03     132.425E-03    -238.954E-03     473.202E-03    -235.116E-03     115.165E-03
            1058     4.98068E-03     147.652E-03    -107.028E+06    -198.052E+06    -58.5554E+06    -9.33752E+06    -235.901E-03     470.816E-03    -234.915E-03     154.331E-03    -239.619E-03     473.621E-03    -234.766E-03     133.844E-03
            1059     5.69500E-03     147.867E-03    -98.7334E+06    -168.908E+06    -42.1652E+06    -9.90242E+06    -235.424E-03     469.933E-03    -234.510E-03     176.048E-03    -240.413E-03     474.094E-03    -234.332E-03     152.207E-03
            1060     6.40954E-03     148.108E-03    -90.1990E+06    -135.313E+06    -25.6859E+06    -9.45729E+06    -234.716E-03     468.740E-03    -234.024E-03     197.642E-03    -241.228E-03     474.526E-03    -233.826E-03     170.380E-03
            1061     7.12560E-03     148.372E-03    -81.8447E+06    -98.6078E+06    -8.71919E+06    -7.00282E+06    -233.687E-03     467.143E-03    -233.456E-03     219.676E-03    -242.013E-03     474.854E-03    -233.238E-03     188.980E-03
            1062     7.84364E-03     148.662E-03    -73.1065E+06    -56.6518E+06     8.68912E+06    -2.53266E+06    -232.100E-03     464.884E-03    -232.785E-03     241.285E-03    -242.497E-03     474.795E-03    -232.553E-03     207.330E-03
            1063     8.56323E-03     148.972E-03    -64.0932E+06    -7.31236E+06     26.0541E+06     3.20537E+06    -230.107E-03     462.102E-03    -231.995E-03     261.326E-03    -242.726E-03     474.391E-03    -231.761E-03     224.492E-03
            1064     9.28539E-03     149.302E-03    -54.8873E+06     40.9621E+06     44.8410E+06     8.72487E+06    -228.155E-03     459.287E-03    -231.132E-03     277.961E-03    -242.899E-03     473.850E-03    -230.888E-03     238.861E-03
            1065     10.0086E-03     149.644E-03    -45.0908E+06     76.7391E+06     65.4736E+06     11.5676E+06    -225.961E-03     456.221E-03    -230.260E-03     286.424E-03    -242.222E-03     472.403E-03    -229.978E-03     246.169E-03
            1066     10.7346E-03     149.982E-03    -35.9534E+06     90.1325E+06     87.1624E+06     10.9168E+06    -223.843E-03     453.288E-03    -229.445E-03     284.318E-03    -240.596E-03     469.980E-03    -229.088E-03     244.201E-03
            1067     11.4576E-03     150.306E-03    -27.5999E+06     94.2581E+06     107.275E+06      8.7109E+06    -222.511E-03     451.235E-03    -228.723E-03     272.714E-03    -238.679E-03     467.328E-03    -228.283E-03     233.777E-03
            1068     12.1862E-03     150.603E-03    -19.4398E+06     101.371E+06     115.647E+06     6.11249E+06    -222.760E-03     450.868E-03    -228.108E-03     248.351E-03    -236.952E-03     465.016E-03    -227.648E-03     211.853E-03
            1069     12.9060E-03     150.861E-03    -13.4597E+06     107.213E+06     116.162E+06     3.82262E+06    -225.437E-03     453.150E-03    -227.713E-03     228.692E-03    -238.189E-03     465.898E-03    -227.268E-03     193.181E-03
            1070     13.6155E-03     151.100E-03    -6.39734E+06     109.358E+06     115.494E+06     3.93426E+06    -227.557E-03     455.136E-03    -227.579E-03     165.997E-03    -235.808E-03     463.418E-03    -227.151E-03     137.739E-03
            1071     711.362E-06     148.457E-03    -143.417E+06    -304.021E+06    -142.527E+06    -1.98157E+06    -235.765E-03     470.446E-03    -234.681E-03     24.7722E-03    -235.922E-03     469.428E-03    -234.745E-03     21.8567E-03
            1072     1.42239E-03     148.504E-03    -141.257E+06    -294.768E+06    -134.973E+06    -4.25621E+06    -235.413E-03     470.548E-03    -235.136E-03     46.0186E-03    -235.771E-03     469.750E-03    -235.178E-03     40.6366E-03
            1073     2.13414E-03     148.579E-03    -137.027E+06    -281.058E+06    -123.284E+06    -6.26693E+06    -235.429E-03     470.477E-03    -235.048E-03     68.2289E-03    -236.125E-03     470.047E-03    -235.058E-03     60.1404E-03
            1074     2.84534E-03     148.684E-03    -131.518E+06    -265.016E+06    -107.805E+06    -8.20266E+06    -235.198E-03     470.062E-03    -234.864E-03     90.6338E-03    -236.382E-03     470.151E-03    -234.828E-03     79.7495E-03
            1075     3.55840E-03     148.816E-03    -124.193E+06    -243.742E+06    -91.1956E+06    -10.0467E+06    -234.840E-03     469.398E-03    -234.558E-03     113.240E-03    -236.671E-03     470.187E-03    -234.480E-03     99.4519E-03
            1076     4.27205E-03     148.976E-03    -116.366E+06    -218.789E+06    -75.2507E+06    -11.3671E+06    -234.580E-03     468.734E-03    -234.154E-03     135.889E-03    -237.236E-03     470.418E-03    -234.044E-03     119.097E-03
            1077     4.98633E-03     149.163E-03    -108.277E+06    -193.779E+06    -59.4538E+06    -12.4636E+06    -234.104E-03     467.780E-03    -233.676E-03     158.471E-03    -237.781E-03     470.557E-03    -233.535E-03     138.575E-03
            1078     5.70162E-03     149.376E-03    -100.035E+06    -166.670E+06    -43.4763E+06    -12.8587E+06    -233.108E-03     466.202E-03    -233.094E-03     181.137E-03    -238.027E-03     470.300E-03    -232.925E-03     158.092E-03
            1079     6.41926E-03     149.614E-03    -92.3042E+06    -135.669E+06    -27.4401E+06    -11.9362E+06    -231.915E-03     464.304E-03    -232.389E-03     204.266E-03    -238.340E-03     469.999E-03    -232.195E-03     178.014E-03
            1080     7.13859E-03     149.875E-03    -84.4000E+06    -103.535E+06    -11.6661E+06    -9.95720E+06    -230.623E-03     462.199E-03    -231.576E-03     227.521E-03    -238.825E-03     469.767E-03    -231.362E-03     198.044E-03
            1081     7.85937E-03     150.162E-03    -75.6078E+06    -66.4352E+06     4.53789E+06    -6.73361E+06    -228.886E-03     459.545E-03    -230.659E-03     250.056E-03    -239.115E-03     469.256E-03    -230.430E-03     217.501E-03
            1082     8.58309E-03     150.467E-03    -65.8205E+06    -20.2885E+06     23.0293E+06    -1.97868E+06    -227.230E-03     456.886E-03    -229.656E-03     271.432E-03    -239.671E-03     468.953E-03    -229.415E-03     236.051E-03
            1083     9.30819E-03     150.796E-03    -55.6414E+06     27.6102E+06     41.3414E+06     3.96493E+06    -225.758E-03     454.370E-03    -228.612E-03     288.649E-03    -240.309E-03     468.700E-03    -228.364E-03     251.022E-03
            1084     10.0356E-03     151.134E-03    -46.6383E+06     71.3086E+06     59.2430E+06     8.56987E+06    -224.133E-03     451.726E-03    -227.593E-03     297.349E-03    -240.231E-03     467.739E-03    -227.332E-03     258.493E-03
            1085     10.7618E-03     151.472E-03    -38.7023E+06     91.0592E+06     79.6560E+06     9.35601E+06    -223.310E-03     450.030E-03    -226.720E-03     295.755E-03    -239.989E-03     466.663E-03    -226.397E-03     256.745E-03
            1086     11.4914E-03     151.795E-03    -30.5181E+06     97.9024E+06     102.691E+06     7.64462E+06    -224.083E-03     450.168E-03    -226.085E-03     283.552E-03    -240.269E-03     466.296E-03    -225.670E-03     245.196E-03
            1087     12.2115E-03     152.097E-03    -22.4451E+06     103.587E+06     115.892E+06     6.46794E+06    -226.217E-03     451.918E-03    -225.701E-03     258.618E-03    -240.505E-03     466.158E-03    -225.239E-03     222.212E-03
            1088     12.9342E-03     152.355E-03    -13.6311E+06     109.595E+06     120.817E+06     5.38239E+06    -230.144E-03     455.745E-03    -225.601E-03     241.608E-03    -243.199E-03     468.790E-03    -225.136E-03     205.614E-03
            1089     13.6561E-03     152.622E-03    -6.81456E+06     114.335E+06     120.396E+06     2.56200E+06    -235.394E-03     461.236E-03    -225.842E-03     175.266E-03    -243.958E-03     469.835E-03    -225.396E-03     145.909E-03
            1090     712.125E-06     149.974E-03    -143.336E+06    -295.716E+06    -141.997E+06    -2.46226E+06    -234.103E-03     467.599E-03    -233.496E-03     26.0305E-03    -234.271E-03     466.620E-03    -233.569E-03     23.2350E-03
            1091     1.42423E-03     150.017E-03    -140.096E+06    -285.218E+06    -133.861E+06    -4.77243E+06    -233.876E-03     467.546E-03    -233.670E-03     47.4831E-03    -234.240E-03     466.788E-03    -233.723E-03     42.2775E-03
            1092     2.13663E-03     150.094E-03    -136.269E+06    -272.137E+06    -122.167E+06    -6.94214E+06    -233.484E-03     466.954E-03    -233.470E-03     70.5866E-03    -234.181E-03     466.554E-03    -233.489E-03     62.7983E-03
            1093     2.85047E-03     150.196E-03    -130.436E+06    -255.070E+06    -107.510E+06    -9.37507E+06    -232.927E-03     466.032E-03    -233.106E-03     93.7736E-03    -234.100E-03     466.148E-03    -233.084E-03     83.3176E-03
            1094     3.56476E-03     150.326E-03    -123.703E+06    -235.480E+06    -91.2097E+06    -11.8595E+06    -232.301E-03     464.913E-03    -232.612E-03     117.352E-03    -234.104E-03     465.705E-03    -232.547E-03     104.153E-03
            1095     4.28051E-03     150.484E-03    -116.277E+06    -212.401E+06    -74.4086E+06    -13.3524E+06    -231.632E-03     463.640E-03    -232.008E-03     141.099E-03    -234.241E-03     465.297E-03    -231.903E-03     125.091E-03
            1096     4.99737E-03     150.669E-03    -108.872E+06    -188.306E+06    -58.7253E+06    -14.0589E+06    -230.661E-03     461.949E-03    -231.288E-03     165.209E-03    -234.272E-03     464.674E-03    -231.151E-03     146.315E-03
            1097     5.71620E-03     150.878E-03    -101.688E+06    -162.759E+06    -43.3892E+06    -14.0615E+06    -229.427E-03     459.869E-03    -230.443E-03     189.607E-03    -234.266E-03     463.894E-03    -230.276E-03     167.762E-03
            1098     6.43727E-03     151.111E-03    -93.6886E+06    -135.134E+06    -28.0699E+06    -13.7929E+06    -228.133E-03     457.612E-03    -229.479E-03     214.106E-03    -234.441E-03     463.188E-03    -229.288E-03     189.247E-03
            1099     7.16015E-03     151.372E-03    -85.1314E+06    -106.024E+06    -12.7351E+06    -12.7654E+06    -226.491E-03     454.900E-03    -228.409E-03     238.202E-03    -234.518E-03     462.283E-03    -228.195E-03     210.366E-03
            1100     7.88614E-03     151.652E-03    -76.4104E+06    -70.1451E+06     4.05571E+06    -10.8850E+06    -225.075E-03     452.327E-03    -227.252E-03     262.111E-03    -235.103E-03     461.821E-03    -227.019E-03     231.305E-03
            1101     8.61352E-03     151.957E-03    -67.1714E+06    -31.3422E+06     21.4265E+06    -7.29959E+06    -224.364E-03     450.438E-03    -226.074E-03     284.572E-03    -236.593E-03     462.253E-03    -225.824E-03     250.901E-03
            1102     9.34269E-03     152.282E-03    -57.9519E+06     13.8568E+06     38.7062E+06    -1.21576E+06    -223.736E-03     448.665E-03    -224.929E-03     302.185E-03    -238.082E-03     462.741E-03    -224.671E-03     266.192E-03
            1103     10.0718E-03     152.620E-03    -48.3673E+06     61.7034E+06     56.5901E+06     5.07674E+06    -223.667E-03     447.560E-03    -223.893E-03     311.157E-03    -239.606E-03     463.382E-03    -223.629E-03     273.676E-03
            1104     10.8033E-03     152.956E-03    -38.9549E+06     90.4832E+06     75.3018E+06     8.25443E+06    -225.229E-03     448.349E-03    -223.120E-03     309.214E-03    -241.855E-03     464.940E-03    -222.818E-03     271.044E-03
            1105     11.5265E-03     153.287E-03    -31.1527E+06     102.041E+06     95.8131E+06     7.59604E+06    -228.151E-03     450.883E-03    -222.731E-03     296.202E-03    -244.385E-03     467.091E-03    -222.355E-03     258.118E-03
            1106     12.2523E-03     153.591E-03    -22.6967E+06     106.689E+06     114.915E+06     4.63205E+06    -232.817E-03     455.588E-03    -222.770E-03     270.420E-03    -247.332E-03     470.069E-03    -222.318E-03     233.397E-03
            1107     12.9665E-03     153.860E-03    -14.3028E+06     110.973E+06     123.965E+06     2.73033E+06    -239.124E-03     462.340E-03    -223.217E-03     247.593E-03    -252.434E-03     475.638E-03    -222.737E-03     210.100E-03
            1108     13.6759E-03     154.122E-03    -6.40531E+06     115.612E+06     123.092E+06     2.44673E+06    -246.906E-03     470.991E-03    -224.085E-03     176.498E-03    -255.567E-03     479.686E-03    -223.628E-03     145.591E-03
            1109     713.917E-06     151.481E-03    -141.154E+06    -285.039E+06    -139.661E+06    -3.23184E+06    -231.210E-03     462.264E-03    -231.054E-03     26.8175E-03    -231.385E-03     461.330E-03    -231.134E-03     24.1671E-03
            1110     1.42812E-03     151.528E-03    -138.156E+06    -275.011E+06    -131.435E+06    -5.30811E+06    -230.538E-03     461.383E-03    -230.845E-03     49.8172E-03    -230.903E-03     460.661E-03    -230.903E-03     44.9064E-03
            1111     2.14308E-03     151.599E-03    -133.678E+06    -261.875E+06    -119.336E+06    -7.80032E+06    -229.959E-03     460.353E-03    -230.394E-03     74.1286E-03    -230.648E-03     459.983E-03    -230.418E-03     66.7958E-03
            1112     2.85906E-03     151.701E-03    -127.769E+06    -244.867E+06    -104.300E+06    -10.0424E+06    -229.217E-03     459.051E-03    -229.834E-03     98.6378E-03    -230.365E-03     459.176E-03    -229.815E-03     88.8371E-03
            1113     3.57649E-03     151.828E-03    -121.154E+06    -225.954E+06    -88.0138E+06    -12.0198E+06    -228.307E-03     457.452E-03    -229.145E-03     123.544E-03    -230.064E-03     458.229E-03    -229.081E-03     111.239E-03
            1114     4.29536E-03     151.983E-03    -114.060E+06    -205.164E+06    -71.8781E+06    -13.7263E+06    -226.941E-03     455.234E-03    -228.294E-03     149.034E-03    -229.476E-03     456.842E-03    -228.190E-03     134.160E-03
            1115     5.01685E-03     152.164E-03    -106.393E+06    -182.716E+06    -55.5358E+06    -14.2117E+06    -225.465E-03     452.742E-03    -227.277E-03     174.553E-03    -228.963E-03     455.372E-03    -227.135E-03     157.075E-03
            1116     5.74099E-03     152.369E-03    -98.0698E+06    -158.350E+06    -39.7685E+06    -14.4303E+06    -224.329E-03     450.469E-03    -226.140E-03     200.474E-03    -229.012E-03     454.354E-03    -225.967E-03     180.258E-03
            1117     6.46607E-03     152.601E-03    -90.0828E+06    -132.741E+06    -24.4372E+06    -14.1291E+06    -223.014E-03     447.935E-03    -224.920E-03     226.388E-03    -229.123E-03     453.320E-03    -224.720E-03     203.385E-03
            1118     7.19440E-03     152.854E-03    -82.4440E+06    -103.341E+06    -8.82313E+06    -13.5238E+06    -221.671E-03     445.293E-03    -223.622E-03     252.055E-03    -229.471E-03     452.456E-03    -223.397E-03     226.229E-03
            1119     7.92492E-03     153.133E-03    -74.7747E+06    -70.8438E+06     6.87892E+06    -12.3158E+06    -221.339E-03     443.642E-03    -222.303E-03     277.513E-03    -231.126E-03     452.889E-03    -222.057E-03     248.727E-03
            1120     8.65702E-03     153.437E-03    -66.9428E+06    -38.1998E+06     22.4693E+06    -9.31989E+06    -221.815E-03     442.869E-03    -221.054E-03     300.694E-03    -233.790E-03     454.403E-03    -220.789E-03     268.982E-03
            1121     9.38926E-03     153.762E-03    -57.5620E+06     3.84546E+06     39.4831E+06    -5.05186E+06    -223.084E-03     443.033E-03    -219.949E-03     318.316E-03    -237.199E-03     456.842E-03    -219.674E-03     283.976E-03
            1122     10.1230E-03     154.099E-03    -47.6876E+06     49.6893E+06     56.4886E+06     926.155E+03    -225.918E-03     445.026E-03    -219.108E-03     326.863E-03    -241.716E-03     460.667E-03    -218.829E-03     290.427E-03
            1123     10.8494E-03     154.444E-03    -38.5475E+06     86.8537E+06     72.7558E+06     5.51654E+06    -230.051E-03     448.722E-03    -218.671E-03     324.064E-03    -246.666E-03     465.299E-03    -218.377E-03     286.296E-03
            1124     11.5765E-03     154.778E-03    -29.0618E+06     105.936E+06     92.7942E+06     5.44498E+06    -235.895E-03     454.666E-03    -218.771E-03     309.635E-03    -252.288E-03     471.065E-03    -218.418E-03     271.090E-03
            1125     12.2908E-03     155.095E-03    -20.4775E+06     109.713E+06     114.228E+06     4.31647E+06    -243.909E-03     463.384E-03    -219.476E-03     281.689E-03    -258.720E-03     478.186E-03    -219.034E-03     243.295E-03
            1126     12.9995E-03     155.378E-03    -13.9577E+06     113.959E+06     126.535E+06     3.87207E+06    -253.476E-03     474.201E-03    -220.725E-03     259.242E-03    -267.293E-03     488.010E-03    -220.237E-03     219.359E-03
            1127     13.6943E-03     155.661E-03    -7.22725E+06     117.421E+06     126.791E+06     2.31210E+06    -262.284E-03     484.715E-03    -222.432E-03     188.596E-03    -271.443E-03     493.902E-03    -221.957E-03     155.188E-03
            1128     716.265E-06     152.980E-03    -135.440E+06    -272.613E+06    -133.983E+06    -3.47656E+06    -226.078E-03     452.700E-03    -226.622E-03     28.2430E-03    -226.248E-03     451.806E-03    -226.700E-03     25.7962E-03
            1129     1.43468E-03     153.023E-03    -132.495E+06    -264.115E+06    -125.982E+06    -5.88136E+06    -225.314E-03     451.260E-03    -225.947E-03     52.9347E-03    -225.663E-03     450.564E-03    -226.001E-03     48.4598E-03
            1130     2.15387E-03     153.095E-03    -127.887E+06    -251.235E+06    -113.409E+06    -8.16170E+06    -224.415E-03     449.699E-03    -225.284E-03     78.7549E-03    -225.070E-03     449.334E-03    -225.301E-03     72.1131E-03
            1131     2.87407E-03     153.192E-03    -121.929E+06    -235.460E+06    -98.2803E+06    -10.3521E+06    -223.442E-03     447.953E-03    -224.511E-03     105.266E-03    -224.537E-03     448.059E-03    -224.484E-03     96.4003E-03
            1132     3.59587E-03     153.317E-03    -114.835E+06    -217.180E+06    -81.9407E+06    -11.8631E+06    -222.108E-03     445.697E-03    -223.589E-03     131.999E-03    -223.782E-03     446.425E-03    -223.517E-03     120.882E-03
            1133     4.32028E-03     153.467E-03    -107.344E+06    -197.243E+06    -65.2430E+06    -12.9660E+06    -220.467E-03     442.955E-03    -222.488E-03     158.802E-03    -222.873E-03     444.464E-03    -222.372E-03     145.421E-03
            1134     5.04732E-03     153.643E-03    -99.4559E+06    -176.820E+06    -49.1696E+06    -13.9390E+06    -218.960E-03     440.186E-03    -221.226E-03     186.214E-03    -222.283E-03     442.666E-03    -221.071E-03     170.481E-03
            1135     5.77577E-03     153.846E-03    -92.0705E+06    -154.075E+06    -34.3742E+06    -14.0201E+06    -217.605E-03     437.448E-03    -219.843E-03     214.154E-03    -222.064E-03     441.128E-03    -219.658E-03     195.969E-03
            1136     6.50823E-03     154.073E-03    -84.8542E+06    -128.571E+06    -19.0512E+06    -13.0769E+06    -216.575E-03     434.966E-03    -218.391E-03     241.781E-03    -222.412E-03     440.095E-03    -218.177E-03     221.046E-03
            1137     7.24268E-03     154.324E-03    -77.3153E+06    -100.094E+06    -3.37265E+06    -11.9015E+06    -216.817E-03     433.772E-03    -216.954E-03     269.144E-03    -224.322E-03     440.651E-03    -216.714E-03     245.611E-03
            1138     7.97833E-03     154.602E-03    -69.9008E+06    -70.7662E+06     12.3855E+06    -9.89416E+06    -218.230E-03     433.866E-03    -215.636E-03     295.577E-03    -227.707E-03     442.805E-03    -215.370E-03     269.012E-03
            1139     8.71431E-03     154.906E-03    -62.4631E+06    -37.9389E+06     28.9991E+06    -8.18812E+06    -220.787E-03     435.306E-03    -214.518E-03     318.756E-03    -232.470E-03     446.546E-03    -214.228E-03     289.005E-03
            1140     9.45078E-03     155.233E-03    -55.2806E+06    -794.962E+03     44.9535E+06    -5.91427E+06    -225.206E-03     438.913E-03    -213.707E-03     335.949E-03    -239.103E-03     452.481E-03    -213.401E-03     302.989E-03
            1141     10.1805E-03     155.580E-03    -48.0966E+06     39.9413E+06     60.5986E+06    -1.09163E+06    -231.190E-03     444.525E-03    -213.335E-03     344.004E-03    -246.920E-03     460.052E-03    -213.020E-03     308.195E-03
            1142     10.9095E-03     155.931E-03    -39.8896E+06     84.6621E+06     77.3276E+06     1.90379E+06    -238.663E-03     452.178E-03    -213.515E-03     339.767E-03    -255.381E-03     468.835E-03    -213.193E-03     301.731E-03
            1143     11.6260E-03     156.279E-03    -31.8027E+06     106.677E+06     94.5955E+06     2.35744E+06    -248.256E-03     462.635E-03    -214.378E-03     324.171E-03    -264.931E-03     479.307E-03    -214.014E-03     284.378E-03
            1144     12.3361E-03     156.615E-03    -24.0003E+06     107.819E+06     112.305E+06     2.41996E+06    -259.020E-03     474.985E-03    -215.965E-03     295.254E-03    -274.262E-03     490.206E-03    -215.525E-03     254.731E-03
            1145     13.0329E-03     156.912E-03    -14.7933E+06     115.258E+06     127.280E+06     2.04725E+06    -270.077E-03     488.236E-03    -218.159E-03     269.646E-03    -284.408E-03     502.562E-03    -217.668E-03     226.778E-03
            1146     13.7279E-03     157.217E-03    -6.38554E+06     120.292E+06     130.787E+06     1.77549E+06    -281.755E-03     502.617E-03    -220.862E-03     193.607E-03    -291.176E-03     512.070E-03    -220.373E-03     157.682E-03
            1147     723.275E-06     154.463E-03    -127.188E+06    -260.370E+06    -124.916E+06    -3.27435E+06    -218.362E-03     437.300E-03    -218.937E-03     31.0623E-03    -218.519E-03     436.435E-03    -219.000E-03     28.9207E-03
            1148     1.44540E-03     154.502E-03    -124.328E+06    -252.817E+06    -117.682E+06    -5.90914E+06    -218.002E-03     436.293E-03    -218.290E-03     56.8012E-03    -218.323E-03     435.609E-03    -218.332E-03     52.8970E-03
            1149     2.16989E-03     154.570E-03    -119.751E+06    -240.712E+06    -105.569E+06    -8.28298E+06    -216.654E-03     434.285E-03    -217.631E-03     84.5750E-03    -217.257E-03     433.907E-03    -217.636E-03     78.8014E-03
            1150     2.89633E-03     154.664E-03    -114.124E+06    -225.949E+06    -91.1359E+06    -10.3140E+06    -215.058E-03     431.736E-03    -216.678E-03     112.882E-03    -216.067E-03     431.794E-03    -216.641E-03     105.197E-03
            1151     3.62503E-03     154.786E-03    -107.867E+06    -209.227E+06    -75.7007E+06    -11.7927E+06    -213.412E-03     428.918E-03    -215.506E-03     141.816E-03    -214.956E-03     429.548E-03    -215.425E-03     132.212E-03
            1152     4.35584E-03     154.931E-03    -100.965E+06    -191.036E+06    -59.9960E+06    -12.5809E+06    -211.938E-03     426.112E-03    -214.175E-03     171.075E-03    -214.166E-03     427.469E-03    -214.051E-03     159.508E-03
            1153     5.08901E-03     155.104E-03    -94.0057E+06    -170.933E+06    -44.2853E+06    -12.7725E+06    -210.621E-03     423.346E-03    -212.724E-03     201.125E-03    -213.725E-03     425.629E-03    -212.562E-03     187.472E-03
            1154     5.82645E-03     155.302E-03    -86.7361E+06    -148.835E+06    -28.6647E+06    -12.2897E+06    -209.739E-03     420.933E-03    -211.194E-03     230.857E-03    -213.917E-03     424.350E-03    -210.996E-03     215.011E-03
            1155     6.56568E-03     155.526E-03    -79.2483E+06    -124.851E+06    -13.3108E+06    -11.4759E+06    -210.305E-03     419.990E-03    -209.685E-03     259.963E-03    -215.811E-03     424.803E-03    -209.456E-03     241.652E-03
            1156     7.30622E-03     155.777E-03    -72.1405E+06    -98.9690E+06     2.12019E+06    -9.76471E+06    -212.671E-03     421.009E-03    -208.339E-03     288.348E-03    -219.811E-03     427.531E-03    -208.080E-03     267.204E-03
            1157     8.04635E-03     156.058E-03    -65.2694E+06    -70.6791E+06     18.3059E+06    -7.02315E+06    -216.656E-03     423.924E-03    -207.268E-03     314.837E-03    -225.769E-03     432.498E-03    -206.979E-03     290.458E-03
            1158     8.78603E-03     156.365E-03    -59.7166E+06    -35.3830E+06     35.4511E+06    -3.81554E+06    -222.613E-03     429.181E-03    -206.568E-03     338.013E-03    -234.003E-03     440.131E-03    -206.253E-03     309.980E-03
            1159     9.51985E-03     156.702E-03    -55.2236E+06    -624.094E+03     52.1026E+06    -1.32359E+06    -230.566E-03     436.924E-03    -206.358E-03     355.042E-03    -244.321E-03     450.333E-03    -206.017E-03     323.089E-03
            1160     10.2519E-03     157.058E-03    -49.3326E+06     38.7699E+06     68.4911E+06    -374.175E+03    -240.329E-03     447.076E-03    -206.748E-03     361.725E-03    -256.088E-03     462.605E-03    -206.390E-03     325.953E-03
            1161     10.9714E-03     157.427E-03    -41.5015E+06     85.5396E+06     85.0255E+06     426.164E+03    -251.859E-03     459.701E-03    -207.841E-03     355.845E-03    -268.794E-03     476.554E-03    -207.480E-03     316.742E-03
            1162     11.6833E-03     157.794E-03    -32.4606E+06     106.494E+06     99.1454E+06     462.676E+03    -264.752E-03     474.485E-03    -209.733E-03     338.548E-03    -281.815E-03     491.534E-03    -209.345E-03     296.612E-03
            1163     12.3811E-03     158.150E-03    -22.9843E+06     107.747E+06     114.003E+06    -437.810E+03    -278.088E-03     490.510E-03    -212.422E-03     306.278E-03    -293.804E-03     506.207E-03    -211.975E-03     262.653E-03
            1164     13.0674E-03     158.474E-03    -14.7030E+06     114.964E+06     126.588E+06    -745.594E+03    -292.270E-03     508.058E-03    -215.788E-03     277.348E-03    -307.115E-03     522.903E-03    -215.301E-03     230.355E-03
            1165     13.7319E-03     158.797E-03    -7.38880E+06     119.662E+06     129.300E+06     52.6146E+03    -302.685E-03     522.310E-03    -219.626E-03     199.116E-03    -312.428E-03     532.083E-03    -219.142E-03     159.923E-03
            1166     729.858E-06     155.915E-03    -120.102E+06    -248.387E+06    -120.018E+06    -3.57554E+06    -208.410E-03     416.120E-03    -207.710E-03     33.4693E-03    -208.549E-03     415.287E-03    -207.775E-03     31.7329E-03
            1167     1.46133E-03     155.956E-03    -118.526E+06    -241.450E+06    -112.167E+06    -5.97695E+06    -207.348E-03     415.000E-03    -207.652E-03     61.1251E-03    -207.640E-03     414.326E-03    -207.691E-03     57.9218E-03
            1168     2.19291E-03     156.020E-03    -114.238E+06    -230.536E+06    -100.978E+06    -8.60790E+06    -205.967E-03     412.892E-03    -206.925E-03     91.6087E-03    -206.512E-03     412.493E-03    -206.930E-03     86.8590E-03
            1169     2.92707E-03     156.110E-03    -108.819E+06    -216.957E+06    -86.9832E+06    -10.3699E+06    -204.159E-03     410.029E-03    -205.870E-03     122.462E-03    -205.064E-03     410.017E-03    -205.833E-03     116.153E-03
            1170     3.66427E-03     156.226E-03    -102.523E+06    -201.808E+06    -71.4938E+06    -11.4679E+06    -202.351E-03     406.905E-03    -204.554E-03     153.624E-03    -203.732E-03     407.400E-03    -204.470E-03     145.766E-03
            1171     4.40458E-03     156.369E-03    -95.9380E+06    -185.129E+06    -55.7658E+06    -11.9245E+06    -201.105E-03     404.181E-03    -203.075E-03     185.565E-03    -203.111E-03     405.338E-03    -202.947E-03     176.046E-03
            1172     5.14769E-03     156.537E-03    -88.9746E+06    -165.837E+06    -39.8314E+06    -11.2801E+06    -200.857E-03     402.409E-03    -201.552E-03     217.574E-03    -203.667E-03     404.418E-03    -201.382E-03     206.230E-03
            1173     5.89209E-03     156.733E-03    -82.5010E+06    -145.667E+06    -24.2578E+06    -9.94517E+06    -202.033E-03     402.139E-03    -200.106E-03     248.827E-03    -205.856E-03     405.213E-03    -199.896E-03     235.417E-03
            1174     6.63807E-03     156.957E-03    -77.3747E+06    -122.921E+06    -9.52254E+06    -7.88554E+06    -205.131E-03     403.986E-03    -198.855E-03     279.467E-03    -210.252E-03     408.416E-03    -198.612E-03     263.596E-03
            1175     7.38340E-03     157.213E-03    -73.6665E+06    -97.4485E+06     5.44075E+06    -5.31264E+06    -210.304E-03     408.227E-03    -197.923E-03     308.547E-03    -217.061E-03     414.357E-03    -197.648E-03     289.714E-03
            1176     8.12780E-03     157.498E-03    -70.8636E+06    -70.0368E+06     20.2607E+06    -3.17218E+06    -217.824E-03     415.247E-03    -197.423E-03     335.153E-03    -226.602E-03     423.466E-03    -197.118E-03     312.708E-03
            1177     8.86661E-03     157.819E-03    -66.5440E+06    -35.5950E+06     36.6696E+06    -664.674E+03    -227.735E-03     425.199E-03    -197.464E-03     358.086E-03    -238.900E-03     435.898E-03    -197.133E-03     331.342E-03
            1178     9.60233E-03     158.167E-03    -59.5071E+06     1.77075E+06     54.7531E+06     1.05294E+06    -239.992E-03     438.156E-03    -198.164E-03     373.917E-03    -253.677E-03     451.485E-03    -197.807E-03     342.325E-03
            1179     10.3251E-03     158.544E-03    -51.4404E+06     45.9017E+06     72.5828E+06    -55.9611E+03    -254.159E-03     453.785E-03    -199.626E-03     378.756E-03    -270.040E-03     469.447E-03    -199.255E-03     342.177E-03
            1180     11.0396E-03     158.934E-03    -42.3453E+06     89.5915E+06     88.6318E+06    -2.59747E+06    -269.591E-03     471.521E-03    -201.930E-03     370.752E-03    -286.870E-03     488.725E-03    -201.555E-03     329.510E-03
            1181     11.7383E-03     159.327E-03    -32.0295E+06     105.011E+06     99.4826E+06    -3.86021E+06    -285.797E-03     490.913E-03    -205.116E-03     350.141E-03    -303.327E-03     508.430E-03    -204.724E-03     304.875E-03
            1182     12.4229E-03     159.712E-03    -23.1959E+06     107.346E+06     111.883E+06    -3.95881E+06    -301.193E-03     510.324E-03    -209.131E-03     314.986E-03    -317.390E-03     526.511E-03    -208.694E-03     267.313E-03
            1183     13.0905E-03     160.062E-03    -14.8514E+06     112.419E+06     122.487E+06    -3.50924E+06    -314.500E-03     528.240E-03    -213.739E-03     286.783E-03    -329.865E-03     543.606E-03    -213.268E-03     235.529E-03
            1184     13.7532E-03     160.426E-03    -6.83203E+06     115.295E+06     125.229E+06    -1.86884E+06    -321.721E-03     540.339E-03    -218.617E-03     206.509E-03    -331.794E-03     550.440E-03    -218.149E-03     164.236E-03
            1185     740.305E-06     157.336E-03    -116.347E+06    -235.563E+06    -114.977E+06    -3.91987E+06    -194.391E-03     388.607E-03    -194.216E-03     35.6656E-03    -194.529E-03     387.809E-03    -194.280E-03     34.3418E-03
            1186     1.48079E-03     157.373E-03    -113.684E+06    -230.141E+06    -108.651E+06    -7.05669E+06    -193.107E-03     386.872E-03    -193.765E-03     66.7281E-03    -193.366E-03     386.205E-03    -193.810E-03     64.2892E-03
            1187     2.22419E-03     157.435E-03    -109.952E+06    -220.391E+06    -98.4178E+06    -9.10179E+06    -191.872E-03     384.746E-03    -192.874E-03     99.6267E-03    -192.344E-03     384.310E-03    -192.887E-03     96.0144E-03
            1188     2.96921E-03     157.521E-03    -105.432E+06    -209.243E+06    -85.0846E+06    -10.3075E+06    -190.511E-03     382.287E-03    -191.776E-03     133.274E-03    -191.289E-03     382.174E-03    -191.745E-03     128.475E-03
            1189     3.71637E-03     157.634E-03    -100.593E+06    -195.959E+06    -70.2732E+06    -10.3464E+06    -189.460E-03     379.966E-03    -190.506E-03     167.064E-03    -190.657E-03     380.295E-03    -190.428E-03     161.016E-03
            1190     4.46659E-03     157.772E-03    -95.9894E+06    -180.191E+06     -55.142E+06    -9.53427E+06    -189.400E-03     378.563E-03    -189.163E-03     201.021E-03    -191.151E-03     379.478E-03    -189.038E-03     193.603E-03
            1191     5.21872E-03     157.940E-03    -92.8290E+06    -163.464E+06    -41.0425E+06    -7.91046E+06    -191.168E-03     379.063E-03    -187.896E-03     234.578E-03    -193.650E-03     380.742E-03    -187.729E-03     225.560E-03
            1192     5.97188E-03     158.137E-03    -90.6522E+06    -144.763E+06    -26.9377E+06    -5.32076E+06    -195.276E-03     382.153E-03    -186.877E-03     267.499E-03    -198.737E-03     384.846E-03    -186.670E-03     256.473E-03
            1193     6.72361E-03     158.367E-03    -88.3630E+06    -121.847E+06    -12.0218E+06    -2.91487E+06    -201.763E-03     388.002E-03    -186.239E-03     299.124E-03    -206.503E-03     392.026E-03    -185.995E-03     285.560E-03
            1194     7.47379E-03     158.629E-03    -84.5616E+06    -96.2722E+06     3.30444E+06    -945.254E+03    -210.788E-03     396.874E-03    -186.087E-03     328.470E-03    -217.176E-03     402.611E-03    -185.808E-03     311.659E-03
            1195     8.21806E-03     158.930E-03    -78.1394E+06    -66.7938E+06     19.7802E+06     90.7858E+03    -222.513E-03     409.035E-03    -186.523E-03     354.749E-03    -230.972E-03     416.927E-03    -186.214E-03     333.811E-03
            1196     8.95786E-03     159.264E-03    -69.5777E+06    -33.8289E+06     36.6090E+06     110.102E+03    -237.052E-03     424.706E-03    -187.654E-03     376.506E-03    -247.997E-03     435.187E-03    -187.321E-03     350.444E-03
            1197     9.68490E-03     159.637E-03    -60.2510E+06     4.98414E+06     53.5585E+06     216.110E+03    -253.992E-03     443.576E-03    -189.585E-03     390.834E-03    -267.629E-03     456.876E-03    -189.237E-03     358.812E-03
            1198     10.4032E-03     160.038E-03    -50.3285E+06     57.8109E+06     73.3088E+06    -1.85004E+06    -272.374E-03     464.778E-03    -192.404E-03     393.762E-03    -288.447E-03     480.682E-03    -192.048E-03     355.429E-03
            1199     11.1041E-03     160.458E-03    -40.4958E+06     97.6478E+06     89.1444E+06    -5.34774E+06    -291.565E-03     487.726E-03    -196.161E-03     383.696E-03    -309.256E-03     505.381E-03    -195.798E-03     339.305E-03
            1200     11.7891E-03     160.885E-03    -31.8607E+06     105.139E+06     96.4042E+06    -7.34983E+06    -310.002E-03     510.815E-03    -200.813E-03     361.435E-03    -328.060E-03     528.873E-03    -200.437E-03     312.020E-03
            1201     12.4571E-03     161.302E-03    -23.3088E+06     104.678E+06     106.421E+06    -7.92970E+06    -324.966E-03     531.167E-03    -206.201E-03     325.990E-03    -341.818E-03     548.016E-03    -205.787E-03     273.560E-03
            1202     13.1132E-03     161.685E-03    -14.1899E+06     108.694E+06     116.123E+06    -7.13622E+06    -334.960E-03     546.939E-03    -211.979E-03     294.663E-03    -350.869E-03     562.858E-03    -211.535E-03     238.971E-03
            1203     13.7591E-03     162.055E-03    -5.74646E+06     108.215E+06     119.630E+06    -4.66348E+06    -338.772E-03     556.570E-03    -217.798E-03     210.348E-03    -349.030E-03     566.852E-03    -217.349E-03     165.285E-03
            1204     752.618E-06     158.711E-03    -117.677E+06    -222.014E+06    -116.901E+06    -4.17479E+06    -176.366E-03     353.710E-03    -177.344E-03     39.0260E-03    -176.520E-03     352.966E-03    -177.435E-03     38.1133E-03
            1205     1.50786E-03     158.747E-03    -116.601E+06    -218.316E+06    -111.599E+06    -7.40950E+06    -175.932E-03     352.280E-03    -176.348E-03     72.5054E-03    -176.182E-03     351.635E-03    -176.420E-03     70.8292E-03
            1206     2.26307E-03     158.806E-03    -114.554E+06    -212.641E+06    -103.552E+06    -8.68564E+06    -174.998E-03     350.535E-03    -175.536E-03     107.972E-03    -175.413E-03     350.060E-03    -175.580E-03     105.488E-03
            1207     3.02083E-03     158.890E-03    -112.853E+06    -204.162E+06    -92.2587E+06    -7.76207E+06    -174.620E-03     349.205E-03    -174.585E-03     144.215E-03    -175.284E-03     348.985E-03    -174.587E-03     140.909E-03
            1208     3.78096E-03     159.000E-03    -111.677E+06    -192.401E+06    -79.1666E+06    -6.54602E+06    -175.516E-03     349.151E-03    -173.635E-03     180.454E-03    -176.538E-03     349.301E-03    -173.590E-03     176.186E-03
            1209     4.54150E-03     159.139E-03    -110.499E+06    -179.040E+06    -64.7159E+06    -4.36811E+06    -178.185E-03     351.015E-03    -172.830E-03     216.403E-03    -179.696E-03     351.668E-03    -172.734E-03     210.986E-03
            1210     5.30265E-03     159.309E-03    -108.533E+06    -162.989E+06    -48.8411E+06    -1.77617E+06    -183.032E-03     355.321E-03    -172.289E-03     251.489E-03    -185.215E-03     356.670E-03    -172.139E-03     244.588E-03
            1211     6.06227E-03     159.514E-03    -104.558E+06    -143.067E+06    -32.3670E+06    -578.599E+03    -190.653E-03     362.788E-03    -172.135E-03     285.228E-03    -193.755E-03     365.099E-03    -171.938E-03     276.313E-03
            1212     6.81921E-03     159.753E-03    -97.3264E+06    -119.946E+06    -15.4611E+06    -211.503E+03    -201.309E-03     373.813E-03    -172.504E-03     316.966E-03    -205.650E-03     377.427E-03    -172.267E-03     305.329E-03
            1213     7.56971E-03     160.032E-03    -87.5384E+06    -94.1845E+06     1.10646E+06    -234.689E+03    -214.870E-03     388.374E-03    -173.504E-03     345.938E-03    -220.851E-03     393.712E-03    -173.235E-03     330.681E-03
            1214     8.31464E-03     160.350E-03    -76.8945E+06    -62.1601E+06     17.9064E+06    -834.749E+03    -231.373E-03     406.600E-03    -175.227E-03     371.205E-03    -239.476E-03     414.169E-03    -174.935E-03     351.207E-03
            1215     9.04703E-03     160.710E-03    -65.9157E+06    -30.1386E+06     34.5279E+06    -1.96037E+06    -250.638E-03     428.407E-03    -177.769E-03     391.774E-03    -261.345E-03     438.689E-03    -177.457E-03     365.746E-03
            1216     9.76992E-03     161.111E-03    -54.7745E+06     8.34974E+06     52.1764E+06    -2.01385E+06    -271.881E-03     453.084E-03    -181.203E-03     404.627E-03    -285.461E-03     466.369E-03    -180.875E-03     371.471E-03
            1217     10.4745E-03     161.546E-03    -44.7108E+06     70.8490E+06     74.4879E+06    -2.30909E+06    -294.096E-03     479.673E-03    -185.577E-03     406.177E-03    -310.354E-03     495.833E-03    -185.243E-03     365.352E-03
            1218     11.1635E-03     162.005E-03    -35.4962E+06     107.817E+06     89.6041E+06    -5.59740E+06    -315.431E-03     506.315E-03    -190.884E-03     395.111E-03    -333.491E-03     524.395E-03    -190.540E-03     347.070E-03
            1219     11.8341E-03     162.470E-03    -26.2661E+06     106.164E+06     96.0213E+06    -8.04177E+06    -333.734E-03     530.717E-03    -196.983E-03     372.580E-03    -352.294E-03     549.304E-03    -196.619E-03     318.835E-03
            1220     12.4896E-03     162.923E-03    -17.9526E+06     106.432E+06     107.501E+06    -8.33631E+06    -346.637E-03     550.260E-03    -203.623E-03     336.482E-03    -364.011E-03     567.654E-03    -203.214E-03     279.769E-03
            1221     13.1323E-03     163.331E-03    -10.5547E+06     104.354E+06     115.964E+06    -8.25747E+06    -354.349E-03     564.794E-03    -210.445E-03     303.698E-03    -370.715E-03     581.169E-03    -210.001E-03     244.081E-03
            1222     13.7684E-03     163.726E-03    -5.41756E+06     97.3539E+06     116.543E+06    -5.44545E+06    -355.211E-03     572.321E-03    -217.110E-03     218.064E-03    -365.765E-03     582.870E-03    -216.660E-03     170.302E-03
            1223     770.042E-06     160.036E-03    -128.767E+06    -209.238E+06    -128.302E+06    -4.15399E+06    -156.273E-03     312.306E-03    -156.033E-03     42.5742E-03    -156.475E-03     311.640E-03    -156.184E-03     42.0326E-03
            1224     1.53829E-03     160.070E-03    -129.581E+06    -209.426E+06    -124.571E+06    -5.09992E+06    -156.197E-03     312.009E-03    -155.813E-03     78.2553E-03    -156.466E-03     311.399E-03    -155.944E-03     77.2749E-03
            1225     2.30984E-03     160.128E-03    -130.671E+06    -209.892E+06    -116.970E+06    -4.05706E+06    -156.603E-03     312.037E-03    -155.434E-03     116.336E-03    -156.991E-03     311.522E-03    -155.525E-03     114.896E-03
            1226     3.08199E-03     160.211E-03    -131.032E+06    -203.738E+06    -106.450E+06    -1.76791E+06    -158.346E-03     313.413E-03    -155.066E-03     154.653E-03    -158.923E-03     313.082E-03    -155.113E-03     152.673E-03
            1227     3.85371E-03     160.324E-03    -130.293E+06    -191.332E+06    -92.0656E+06     412.747E+03    -162.164E-03     317.060E-03    -154.895E-03     192.697E-03    -163.027E-03     317.026E-03    -154.889E-03     189.999E-03
            1228     4.62508E-03     160.468E-03    -127.227E+06    -178.462E+06    -74.1590E+06     1.29466E+06    -168.463E-03     323.539E-03    -155.076E-03     229.820E-03    -169.740E-03     323.932E-03    -155.004E-03     226.091E-03
            1229     5.39331E-03     160.647E-03    -120.181E+06    -160.803E+06    -55.0329E+06     579.015E+03    -177.443E-03     333.137E-03    -155.695E-03     265.772E-03    -179.317E-03     334.166E-03    -155.562E-03     260.563E-03
            1230     6.15808E-03     160.863E-03    -109.528E+06    -138.676E+06    -36.3228E+06    -1.54071E+06    -189.390E-03     346.222E-03    -156.832E-03     299.936E-03    -192.117E-03     348.173E-03    -156.653E-03     292.628E-03
            1231     6.91638E-03     161.121E-03    -97.4925E+06    -116.673E+06    -19.8147E+06    -3.88569E+06    -204.466E-03     363.053E-03    -158.586E-03     331.285E-03    -208.388E-03     366.278E-03    -158.375E-03     321.055E-03
            1232     7.66771E-03     161.421E-03    -85.3142E+06    -91.6091E+06    -3.84991E+06    -5.34545E+06    -222.747E-03     383.812E-03    -161.065E-03     359.301E-03    -228.301E-03     388.762E-03    -160.827E-03     345.091E-03
            1233     8.40629E-03     161.766E-03    -73.4210E+06    -57.8134E+06     13.4789E+06    -6.08214E+06    -243.971E-03     408.325E-03    -164.354E-03     383.533E-03    -251.701E-03     415.569E-03    -164.096E-03     363.969E-03
            1234     9.13432E-03     162.158E-03    -62.5225E+06    -26.5519E+06     30.0889E+06    -6.98184E+06    -267.500E-03     436.023E-03    -168.522E-03     402.548E-03    -277.910E-03     446.052E-03    -168.243E-03     376.129E-03
            1235     9.84430E-03     162.594E-03    -52.0790E+06     9.71959E+06     47.7843E+06    -7.92137E+06    -292.510E-03     466.116E-03    -173.606E-03     414.144E-03    -305.921E-03     479.266E-03    -173.306E-03     379.463E-03
            1236     10.5391E-03     163.072E-03    -40.2437E+06     74.2746E+06     71.4814E+06    -6.86973E+06    -316.916E-03     496.503E-03    -179.587E-03     415.034E-03    -333.160E-03     512.689E-03    -179.279E-03     371.547E-03
            1237     11.2139E-03     163.573E-03    -29.0219E+06     115.990E+06     89.6563E+06    -6.94250E+06    -338.238E-03     524.615E-03    -186.377E-03     403.517E-03    -356.462E-03     542.914E-03    -186.055E-03     351.940E-03
            1238     11.8722E-03     164.078E-03    -20.2680E+06     107.646E+06     98.1811E+06    -9.00335E+06    -355.151E-03     548.941E-03    -193.789E-03     380.534E-03    -374.038E-03     567.876E-03    -193.425E-03     322.700E-03
            1239     12.5164E-03     164.567E-03    -11.1334E+06     103.184E+06     112.311E+06    -7.25947E+06    -365.438E-03     566.973E-03    -201.535E-03     341.437E-03    -382.996E-03     584.550E-03    -201.107E-03     281.199E-03
            1240     13.1506E-03     165.002E-03    -5.50180E+06     99.5350E+06     119.571E+06    -2.29422E+06    -369.748E-03     578.983E-03    -209.235E-03     305.673E-03    -386.233E-03     595.467E-03    -208.774E-03     242.996E-03
            1241     13.7790E-03     165.414E-03    -3.73427E+06     92.3535E+06     116.849E+06     170.507E+03    -368.060E-03     584.644E-03    -216.585E-03     217.828E-03    -378.718E-03     595.285E-03    -216.129E-03     167.797E-03
            1242     786.562E-06     161.303E-03    -150.618E+06    -206.196E+06    -146.736E+06     2.47996E+06    -133.859E-03     266.616E-03    -132.757E-03     45.5061E-03    -134.136E-03     266.007E-03    -132.974E-03     45.3378E-03
            1243     1.57568E-03     161.338E-03    -155.546E+06    -208.826E+06    -144.245E+06     4.05378E+06    -135.241E-03     268.548E-03    -133.307E-03     83.8104E-03    -135.570E-03     267.962E-03    -133.500E-03     83.4748E-03
            1244     2.36185E-03     161.398E-03    -158.339E+06    -210.292E+06    -136.495E+06     4.46281E+06    -138.540E-03     272.351E-03    -133.811E-03     123.737E-03    -138.948E-03     271.815E-03    -133.959E-03     123.147E-03
            1245     3.14709E-03     161.485E-03    -156.783E+06    -203.402E+06    -123.088E+06     3.23758E+06    -143.697E-03     278.308E-03    -134.611E-03     163.248E-03    -144.234E-03     277.900E-03    -134.704E-03     162.252E-03
            1246     3.93081E-03     161.606E-03    -149.440E+06    -190.225E+06    -104.310E+06     1.45553E+06    -151.160E-03     286.920E-03    -135.760E-03     202.108E-03    -151.898E-03     286.739E-03    -135.789E-03     200.492E-03
            1247     4.70990E-03     161.762E-03    -137.322E+06    -174.558E+06    -82.7560E+06    -1.42877E+06    -161.401E-03     298.743E-03    -137.342E-03     239.776E-03    -162.457E-03     298.924E-03    -137.303E-03     237.200E-03
            1248     5.48446E-03     161.956E-03    -123.076E+06    -154.561E+06    -62.2468E+06    -5.57862E+06    -174.808E-03     314.251E-03    -139.443E-03     276.074E-03    -176.376E-03     315.014E-03    -139.352E-03     272.031E-03
            1249     6.25124E-03     162.192E-03    -109.382E+06    -133.340E+06    -44.2286E+06    -8.89799E+06    -191.418E-03     333.575E-03    -142.157E-03     310.022E-03    -193.778E-03     335.209E-03    -142.026E-03     303.841E-03
            1250     7.00966E-03     162.473E-03    -96.9822E+06    -111.187E+06    -27.5497E+06    -11.5351E+06    -211.127E-03     356.695E-03    -145.568E-03     340.560E-03    -214.643E-03     359.566E-03    -145.404E-03     331.323E-03
            1251     7.75571E-03     162.801E-03    -84.9254E+06    -86.7508E+06    -10.9377E+06    -14.7653E+06    -233.878E-03     383.630E-03    -149.752E-03     367.319E-03    -239.009E-03     388.203E-03    -149.558E-03     353.772E-03
            1252     8.49035E-03     163.180E-03    -72.2358E+06    -57.5953E+06     6.41475E+06    -16.0823E+06    -259.186E-03     413.955E-03    -154.769E-03     389.602E-03    -266.438E-03     420.752E-03    -154.548E-03     370.273E-03
            1253     9.20689E-03     163.608E-03    -58.6251E+06    -26.7122E+06     24.2910E+06    -15.4156E+06    -286.367E-03     447.023E-03    -160.656E-03     406.605E-03    -296.250E-03     456.561E-03    -160.410E-03     379.784E-03
            1254     9.90827E-03     164.088E-03    -44.7289E+06     10.8479E+06     44.1508E+06    -14.8536E+06    -313.644E-03     481.049E-03    -167.405E-03     416.650E-03    -326.501E-03     493.688E-03    -167.135E-03     380.792E-03
            1255     10.5887E-03     164.611E-03    -33.4422E+06     68.4017E+06     66.8279E+06    -11.4600E+06    -338.014E-03     512.922E-03    -174.909E-03     416.561E-03    -353.717E-03     528.585E-03    -174.625E-03     371.226E-03
            1256     11.2529E-03     165.156E-03    -25.5347E+06     117.438E+06     88.1458E+06    -7.64566E+06    -358.008E-03     541.023E-03    -183.016E-03     405.105E-03    -375.892E-03     559.006E-03    -182.708E-03     350.918E-03
            1257     11.9007E-03     165.704E-03    -20.4105E+06     112.909E+06     100.077E+06    -7.15643E+06    -372.862E-03     564.404E-03    -191.542E-03     382.104E-03    -391.726E-03     583.329E-03    -191.176E-03     320.825E-03
            1258     12.5336E-03     166.230E-03    -20.5014E+06     97.1231E+06     111.921E+06    -6.92327E+06    -379.886E-03     580.087E-03    -200.201E-03     342.001E-03    -397.729E-03     597.894E-03    -199.753E-03     277.958E-03
            1259     13.1573E-03     166.686E-03    -18.6836E+06     92.9707E+06     119.453E+06    -7.33860E+06    -380.835E-03     589.427E-03    -208.592E-03     305.674E-03    -397.597E-03     606.116E-03    -208.102E-03     239.780E-03
            1260     13.7764E-03     167.118E-03     -9.2885E+06     82.9587E+06     117.301E+06    -5.55516E+06    -375.355E-03     591.751E-03    -216.396E-03     219.234E-03    -386.163E-03     602.485E-03    -215.916E-03     167.094E-03
            1261     808.039E-06     162.511E-03    -203.659E+06    -218.600E+06    -198.933E+06     7.45587E+06    -111.578E-03     222.029E-03    -110.452E-03     46.6348E-03    -112.010E-03     221.504E-03    -110.834E-03     46.7046E-03
            1262     1.61163E-03     162.550E-03    -197.395E+06    -214.968E+06    -182.764E+06     9.53678E+06    -115.746E-03     227.263E-03    -111.517E-03     85.8499E-03    -116.181E-03     226.733E-03    -111.833E-03     85.9028E-03
            1263     2.41412E-03     162.618E-03    -188.685E+06    -208.537E+06    -163.274E+06     6.62597E+06    -122.301E-03     235.490E-03    -113.189E-03     126.899E-03    -122.754E-03     234.983E-03    -113.430E-03     126.784E-03
            1264     3.21144E-03     162.717E-03    -176.707E+06    -196.208E+06    -140.651E+06     8.09384E+03    -131.442E-03     246.826E-03    -115.384E-03     167.689E-03    -131.954E-03     246.408E-03    -115.547E-03     167.218E-03
            1265     4.00253E-03     162.851E-03    -161.597E+06    -182.492E+06    -118.194E+06    -7.87041E+06    -143.059E-03     261.138E-03    -118.079E-03     207.183E-03    -143.696E-03     260.890E-03    -118.171E-03     206.123E-03
            1266     4.78854E-03     163.023E-03    -144.899E+06    -165.817E+06    -96.9593E+06    -14.9143E+06    -157.498E-03     278.774E-03    -121.276E-03     244.983E-03    -158.381E-03     278.837E-03    -121.310E-03     243.012E-03
            1267     5.56578E-03     163.239E-03    -128.391E+06    -146.924E+06    -76.6337E+06    -20.1214E+06    -175.174E-03     300.222E-03    -125.048E-03     280.622E-03    -176.499E-03     300.800E-03    -125.032E-03     277.261E-03
            1268     6.33358E-03     163.501E-03    -112.470E+06    -129.404E+06    -56.9421E+06    -23.0190E+06    -196.092E-03     325.576E-03    -129.484E-03     313.347E-03    -198.125E-03     326.930E-03    -129.418E-03     307.898E-03
            1269     7.08855E-03     163.812E-03    -95.9309E+06    -106.958E+06    -36.0866E+06    -24.9931E+06    -220.233E-03     354.893E-03    -134.660E-03     342.321E-03    -223.330E-03     357.395E-03    -134.546E-03     333.778E-03
            1270     7.83046E-03     164.175E-03    -79.7639E+06    -83.4957E+06    -16.0917E+06    -25.9845E+06    -247.096E-03     387.733E-03    -140.637E-03     366.483E-03    -251.668E-03     391.798E-03    -140.481E-03     353.560E-03
            1271     8.55419E-03     164.592E-03    -64.8854E+06    -57.6451E+06     3.04537E+06    -26.2237E+06    -275.762E-03     423.205E-03    -147.443E-03     385.318E-03    -282.268E-03     429.298E-03    -147.250E-03     366.438E-03
            1272     9.26249E-03     165.064E-03    -51.2993E+06    -29.0088E+06     21.1675E+06    -26.6792E+06    -305.029E-03     460.087E-03    -155.058E-03     398.891E-03    -313.937E-03     468.680E-03    -154.836E-03     372.277E-03
            1273     9.94912E-03     165.590E-03    -41.8194E+06     2.71551E+06     38.6867E+06    -23.7509E+06    -332.196E-03     495.587E-03    -163.391E-03     405.731E-03    -343.811E-03     506.982E-03    -163.141E-03     370.007E-03
            1274     10.6199E-03     166.157E-03    -36.3738E+06     49.2953E+06     59.1745E+06    -15.4880E+06    -354.845E-03     527.112E-03    -172.267E-03     403.611E-03    -369.140E-03     541.309E-03    -171.990E-03     358.271E-03
            1275     11.2733E-03     166.747E-03    -35.0703E+06     107.749E+06     83.7245E+06    -5.59562E+06    -371.997E-03     553.484E-03    -181.487E-03     392.181E-03    -388.603E-03     570.131E-03    -181.174E-03     337.541E-03
            1276     11.9108E-03     167.339E-03    -37.9442E+06     124.492E+06     100.360E+06    -4.32580E+06    -381.983E-03     572.794E-03    -190.811E-03     371.958E-03    -400.030E-03     590.876E-03    -190.435E-03     309.719E-03
            1277     12.5379E-03     167.900E-03    -33.0901E+06     106.724E+06     117.313E+06    -12.2183E+06    -385.092E-03     585.057E-03    -199.965E-03     338.644E-03    -402.844E-03     602.745E-03    -199.485E-03     272.611E-03
            1278     13.1587E-03     168.385E-03    -18.1674E+06     88.4875E+06     129.518E+06    -17.2500E+06    -382.892E-03     591.492E-03    -208.599E-03     305.094E-03    -399.584E-03     608.064E-03    -208.054E-03     238.366E-03
            1279     13.7794E-03     168.827E-03    -6.21955E+06     61.0696E+06     126.039E+06    -13.3399E+06    -374.936E-03     591.387E-03    -216.452E-03     222.227E-03    -385.533E-03     601.817E-03    -215.901E-03     170.749E-03
            1280     821.238E-06     163.668E-03    -289.282E+06    -223.105E+06    -286.529E+06    -4.35039E+06    -95.2492E-03     188.203E-03    -92.9541E-03     44.0968E-03    -95.9613E-03     187.913E-03    -93.6438E-03     44.0681E-03
            1281     1.64146E-03     163.716E-03    -268.182E+06    -212.827E+06    -258.544E+06    -9.08265E+06    -100.419E-03     195.290E-03    -94.8710E-03     81.4734E-03    -101.081E-03     194.981E-03    -95.4662E-03     81.3774E-03
            1282     2.45502E-03     163.795E-03    -240.728E+06    -198.078E+06    -219.065E+06    -16.8261E+06    -109.170E-03     206.454E-03    -97.2837E-03     121.931E-03    -109.783E-03     206.135E-03    -97.7428E-03     121.673E-03
            1283     3.26274E-03     163.911E-03    -210.876E+06    -182.356E+06    -180.198E+06    -26.0551E+06    -121.261E-03     221.701E-03    -100.440E-03     162.867E-03    -121.846E-03     221.408E-03    -100.771E-03     162.314E-03
            1284     4.06268E-03     164.064E-03    -182.533E+06    -170.079E+06    -148.566E+06    -33.9708E+06    -136.748E-03     241.067E-03    -104.319E-03     202.717E-03    -137.366E-03     240.865E-03    -104.550E-03     201.686E-03
            1285     4.85143E-03     164.260E-03    -157.725E+06    -155.672E+06    -120.899E+06    -39.4878E+06    -155.539E-03     264.466E-03    -108.928E-03     240.701E-03    -156.322E-03     264.496E-03    -109.078E-03     238.884E-03
            1286     5.62952E-03     164.502E-03    -135.951E+06    -141.130E+06    -93.3339E+06    -42.4480E+06    -177.499E-03     291.788E-03    -114.289E-03     275.449E-03    -178.636E-03     292.227E-03    -114.354E-03     272.375E-03
            1287     6.39420E-03     164.794E-03    -115.519E+06    -127.000E+06    -67.3035E+06    -44.1801E+06    -202.560E-03     322.979E-03    -120.419E-03     305.710E-03    -204.286E-03     324.060E-03    -120.404E-03     300.674E-03
            1288     7.14487E-03     165.140E-03    -98.1172E+06    -106.724E+06    -44.4773E+06    -44.7986E+06    -230.421E-03     357.764E-03    -127.343E-03     330.837E-03    -233.041E-03     359.811E-03    -127.268E-03     322.869E-03
            1289     7.87684E-03     165.543E-03    -84.2176E+06    -85.8847E+06    -24.3615E+06    -45.0113E+06    -260.293E-03     395.391E-03    -135.099E-03     349.960E-03    -264.139E-03     398.734E-03    -134.974E-03     337.820E-03
            1290     8.59182E-03     166.003E-03    -72.9229E+06    -62.5723E+06    -6.23497E+06    -46.0012E+06    -290.962E-03     434.632E-03    -143.670E-03     363.139E-03    -296.403E-03     439.641E-03    -143.505E-03     345.289E-03
            1291     9.28427E-03     166.520E-03    -66.0908E+06    -39.5408E+06     10.9710E+06    -45.0369E+06    -319.976E-03     472.941E-03    -152.965E-03     370.718E-03    -327.353E-03     479.940E-03    -152.757E-03     345.668E-03
            1292     9.96040E-03     167.090E-03    -61.6109E+06    -19.1497E+06     28.9584E+06    -40.8526E+06    -344.763E-03     507.551E-03    -162.788E-03     372.111E-03    -354.311E-03     516.754E-03    -162.526E-03     338.646E-03
            1293     10.6178E-03     167.700E-03    -55.0711E+06     9.40605E+06     48.3345E+06    -31.8823E+06    -363.687E-03     536.555E-03    -172.868E-03     366.858E-03    -375.397E-03     547.986E-03    -172.560E-03     324.529E-03
            1294     11.2599E-03     168.332E-03    -43.0070E+06     61.3788E+06     73.5584E+06    -14.9196E+06    -374.358E-03     557.220E-03    -182.862E-03     357.521E-03    -388.085E-03     570.817E-03    -182.521E-03     306.965E-03
            1295     11.8930E-03     168.960E-03    -21.1208E+06     122.541E+06     108.093E+06     1.10050E+06    -376.831E-03     569.246E-03    -192.416E-03     345.583E-03    -392.239E-03     584.716E-03    -192.022E-03     288.151E-03
            1296     12.5234E-03     169.550E-03    -961.645E+03     138.627E+06     141.007E+06     4.88923E+06    -374.370E-03     575.686E-03    -201.316E-03     326.695E-03    -390.527E-03     591.936E-03    -200.810E-03     264.602E-03
            1297     13.1485E-03     170.077E-03     3.49965E+06     109.820E+06     157.971E+06     1.27667E+06    -371.000E-03     580.482E-03    -209.483E-03     303.299E-03    -387.509E-03     596.947E-03    -208.857E-03     237.901E-03
            1298     13.7762E-03     170.509E-03     996.130E+03     58.7175E+06     151.320E+06    -1.23465E+06    -364.904E-03     581.777E-03    -216.873E-03     222.340E-03    -375.748E-03     592.399E-03    -216.203E-03     171.299E-03
            1299     828.297E-06     164.796E-03    -302.200E+06    -195.882E+06    -298.584E+06    -17.6015E+06    -88.7658E-03     174.756E-03    -85.9906E-03     36.8058E-03    -89.5626E-03     174.648E-03    -86.7613E-03     36.5597E-03
            1300     1.65281E-03     164.851E-03    -287.050E+06    -184.281E+06    -274.982E+06    -34.3529E+06    -93.2727E-03     181.452E-03    -88.1792E-03     68.8003E-03    -94.0493E-03     181.350E-03    -88.8707E-03     68.3063E-03
            1301     2.47434E-03     164.944E-03    -263.038E+06    -170.797E+06    -241.367E+06    -49.3139E+06    -102.116E-03     192.737E-03    -90.6210E-03     104.111E-03    -102.855E-03     192.635E-03    -91.1988E-03     103.353E-03
            1302     3.28811E-03     165.076E-03    -235.234E+06    -158.430E+06    -206.500E+06    -61.2817E+06    -114.803E-03     208.804E-03    -94.0006E-03     140.750E-03    -115.510E-03     208.714E-03    -94.4623E-03     139.686E-03
            1303     4.09190E-03     165.252E-03    -208.456E+06    -152.777E+06    -179.294E+06    -70.1073E+06    -131.681E-03     230.004E-03    -98.3233E-03     177.601E-03    -132.388E-03     229.954E-03    -98.6959E-03     176.113E-03
            1304     4.88416E-03     165.475E-03    -184.571E+06    -146.134E+06    -156.694E+06    -74.8830E+06    -152.806E-03     256.445E-03    -103.638E-03     213.303E-03    -153.605E-03     256.534E-03    -103.942E-03     211.173E-03
            1305     5.66111E-03     165.748E-03    -163.573E+06    -136.593E+06    -130.870E+06    -77.7832E+06    -177.921E-03     287.929E-03    -110.008E-03     245.767E-03    -178.962E-03     288.300E-03    -110.227E-03     242.590E-03
            1306     6.42138E-03     166.076E-03    -145.347E+06    -127.317E+06    -102.941E+06    -80.6702E+06    -206.458E-03     323.904E-03    -117.446E-03     272.641E-03    -207.929E-03     324.725E-03    -117.565E-03     267.760E-03
            1307     7.16157E-03     166.461E-03    -127.681E+06    -114.808E+06    -73.9512E+06    -81.7120E+06    -237.164E-03     363.083E-03    -125.918E-03     292.385E-03    -239.268E-03     364.563E-03    -125.936E-03     284.957E-03
            1308     7.88326E-03     166.905E-03    -109.737E+06    -99.4313E+06    -46.4034E+06    -79.8549E+06    -268.482E-03     403.825E-03    -135.342E-03     304.362E-03    -271.423E-03     406.181E-03    -135.271E-03     293.362E-03
            1309     8.58153E-03     167.409E-03    -94.5893E+06    -81.5912E+06    -19.4995E+06    -73.2563E+06    -298.541E-03     444.132E-03    -145.591E-03     309.600E-03    -302.531E-03     447.576E-03    -145.433E-03     293.907E-03
            1310     9.26097E-03     167.970E-03    -81.4994E+06    -62.4604E+06     8.35132E+06    -62.0678E+06    -324.668E-03     481.111E-03    -156.442E-03     309.039E-03    -329.908E-03     485.834E-03    -156.192E-03     287.535E-03
            1311     9.91979E-03     168.578E-03    -68.6067E+06    -41.1198E+06     33.3659E+06    -50.6943E+06    -344.880E-03     512.435E-03    -167.555E-03     304.356E-03    -351.485E-03     518.569E-03    -167.229E-03     276.239E-03
            1312     10.5634E-03     169.226E-03    -57.2075E+06    -20.6663E+06     50.0605E+06    -41.2309E+06    -356.235E-03     534.700E-03    -178.466E-03     298.500E-03    -364.213E-03     542.270E-03    -178.102E-03     263.789E-03
            1313     11.1990E-03     169.886E-03    -42.1356E+06     14.8105E+06     68.0996E+06    -40.3199E+06    -357.149E-03     545.789E-03    -188.640E-03     294.364E-03    -366.540E-03     554.896E-03    -188.260E-03     253.660E-03
            1314     11.8370E-03     170.534E-03    -26.1150E+06     55.2148E+06     91.4396E+06    -38.4574E+06    -350.859E-03     548.528E-03    -197.669E-03     293.345E-03    -361.849E-03     559.369E-03    -197.254E-03     247.097E-03
            1315     12.4769E-03     171.157E-03    -17.0505E+06     81.8643E+06     123.053E+06    -17.1222E+06    -340.669E-03     546.096E-03    -205.427E-03     289.433E-03    -353.228E-03     558.545E-03    -204.906E-03     238.773E-03
            1316     13.1275E-03     171.704E-03    -11.0330E+06     103.007E+06     163.843E+06     6.29883E+06    -336.082E-03     548.187E-03    -212.105E-03     289.853E-03    -350.907E-03     562.884E-03    -211.419E-03     233.108E-03
            1317     13.7632E-03     172.202E-03    -5.58905E+06     75.9264E+06     180.328E+06     10.9112E+06    -336.615E-03     554.678E-03    -218.063E-03     227.338E-03    -347.532E-03     565.336E-03    -217.263E-03     179.693E-03
            1318     822.210E-06     165.923E-03    -227.173E+06    -146.022E+06    -224.336E+06    -22.4577E+06    -95.2784E-03     189.359E-03    -94.0811E-03     23.1924E-03    -95.8963E-03     189.277E-03    -94.6617E-03     22.7668E-03
            1319     1.64371E-03     165.984E-03    -219.097E+06    -134.447E+06    -204.479E+06    -40.3765E+06    -99.2398E-03     194.924E-03    -95.6839E-03     43.4148E-03    -99.8766E-03     194.871E-03    -96.1937E-03     42.6230E-03
            1320     2.45950E-03     166.085E-03    -208.572E+06    -126.469E+06    -185.080E+06    -57.6320E+06    -106.146E-03     204.175E-03    -98.0297E-03     66.3847E-03    -106.795E-03     204.148E-03    -98.4693E-03     65.1861E-03
            1321     3.26923E-03     166.231E-03    -197.601E+06    -121.233E+06    -168.779E+06    -70.9744E+06    -116.448E-03     217.764E-03    -101.316E-03     91.0147E-03    -117.121E-03     217.771E-03    -101.697E-03     89.3897E-03
            1322     4.06984E-03     166.426E-03    -186.999E+06    -120.605E+06    -155.850E+06    -81.4523E+06    -130.679E-03     236.339E-03    -105.660E-03     116.756E-03    -131.396E-03     236.395E-03    -105.993E-03     114.620E-03
            1323     4.85747E-03     166.673E-03    -175.982E+06    -122.408E+06    -145.675E+06    -90.0727E+06    -149.197E-03     260.373E-03    -111.176E-03     141.786E-03    -149.990E-03     260.512E-03    -111.471E-03     138.977E-03
            1324     5.62949E-03     166.977E-03    -162.574E+06    -118.646E+06    -132.202E+06    -96.1888E+06    -171.858E-03     289.819E-03    -117.961E-03     164.476E-03    -172.781E-03     290.115E-03    -118.215E-03     160.757E-03
            1325     6.38146E-03     167.341E-03    -146.397E+06    -112.319E+06    -112.221E+06    -101.094E+06    -198.148E-03     324.219E-03    -126.071E-03     182.866E-03    -199.275E-03     324.747E-03    -126.257E-03     177.844E-03
            1326     7.11185E-03     167.767E-03    -129.564E+06    -108.702E+06    -88.5377E+06    -103.898E+06    -226.754E-03     362.234E-03    -135.480E-03     194.476E-03    -228.164E-03     363.054E-03    -135.577E-03     187.626E-03
            1327     7.81606E-03     168.252E-03    -115.171E+06    -106.646E+06    -67.6745E+06    -101.871E+06    -255.081E-03     401.097E-03    -146.016E-03     198.717E-03    -256.860E-03     402.286E-03    -146.032E-03     189.399E-03
            1328     8.49838E-03     168.797E-03    -103.536E+06    -104.429E+06    -47.3207E+06    -94.3293E+06    -280.222E-03     437.611E-03    -157.389E-03     197.431E-03    -282.459E-03     439.248E-03    -157.324E-03     185.028E-03
            1329     9.15772E-03     169.393E-03    -93.3392E+06    -96.5763E+06    -24.0212E+06    -86.2726E+06    -300.412E-03     469.611E-03    -169.199E-03     193.109E-03    -303.184E-03     471.782E-03    -169.044E-03     177.101E-03
            1330     9.80045E-03     170.035E-03    -83.6992E+06    -85.2007E+06    -1.53629E+06    -77.6621E+06    -313.040E-03     493.935E-03    -180.895E-03     189.852E-03    -316.402E-03     496.709E-03    -180.658E-03     170.068E-03
            1331     10.4328E-03     170.703E-03    -71.4599E+06    -62.6088E+06     23.4859E+06    -71.6435E+06    -315.378E-03     507.154E-03    -191.775E-03     191.038E-03    -319.395E-03     510.639E-03    -191.464E-03     167.805E-03
            1332     11.0689E-03     171.374E-03    -61.1470E+06    -14.2029E+06     65.2154E+06    -71.7210E+06    -309.232E-03     510.485E-03    -201.253E-03     197.320E-03    -314.137E-03     514.954E-03    -200.817E-03     170.762E-03
            1333     11.7112E-03     172.033E-03    -57.5337E+06     10.8059E+06     97.3851E+06    -68.0413E+06    -296.612E-03     505.488E-03    -208.876E-03     208.107E-03    -302.673E-03     511.129E-03    -208.321E-03     178.386E-03
            1334     12.3725E-03     172.657E-03    -51.6485E+06    -3.29964E+06     105.430E+06    -55.0118E+06    -278.728E-03     493.076E-03    -214.348E-03     223.870E-03    -286.217E-03     500.108E-03    -213.742E-03     191.280E-03
            1335     13.0451E-03     173.231E-03    -37.5523E+06     18.2644E+06     130.616E+06    -26.8323E+06    -268.020E-03     485.903E-03    -217.883E-03     262.436E-03    -278.176E-03     495.660E-03    -217.202E-03     225.273E-03
            1336     13.7398E-03     173.777E-03    -17.6437E+06     58.7135E+06     180.343E+06    -813.938E+03    -277.802E-03     498.370E-03    -220.568E-03     249.031E-03    -287.072E-03     507.295E-03    -219.725E-03     213.759E-03
            1337     803.359E-06     167.085E-03    -151.980E+06    -89.5291E+06    -146.924E+06    -21.8132E+06    -122.286E-03     243.369E-03    -121.084E-03    -660.785E-06    -122.776E-03     243.281E-03    -121.468E-03    -1.34984E-03
            1338     1.60246E-03     167.148E-03    -144.916E+06    -83.5472E+06    -134.223E+06    -35.8592E+06    -123.715E-03     246.982E-03    -123.267E-03    -2.36752E-03    -124.196E-03     246.893E-03    -123.606E-03    -3.59216E-03
            1339     2.39869E-03     167.256E-03    -137.566E+06    -78.7994E+06    -118.349E+06    -48.6577E+06    -127.170E-03     252.917E-03    -125.747E-03    -1.87688E-03    -127.646E-03     252.817E-03    -126.025E-03    -3.70455E-03
            1340     3.18782E-03     167.408E-03    -130.654E+06    -79.6891E+06    -106.733E+06    -58.9582E+06    -132.266E-03     261.514E-03    -129.248E-03    -499.600E-06    -132.730E-03     261.385E-03    -129.476E-03    -2.96920E-03
            1341     3.96732E-03     167.614E-03    -123.249E+06    -81.0200E+06    -94.7553E+06    -66.8711E+06    -139.147E-03     273.035E-03    -133.888E-03     1.75378E-03    -139.601E-03     272.879E-03    -134.065E-03    -1.42085E-03
            1342     4.73407E-03     167.875E-03    -114.948E+06    -82.5500E+06    -80.9709E+06    -74.3385E+06    -148.029E-03     287.793E-03    -139.765E-03     4.78075E-03    -148.478E-03     287.621E-03    -139.883E-03     804.668E-06
            1343     5.48400E-03     168.197E-03    -106.071E+06    -83.1943E+06    -69.3721E+06    -81.1316E+06    -159.077E-03     306.026E-03    -146.949E-03     7.42292E-03    -159.527E-03     305.850E-03    -147.021E-03     2.52035E-03
            1344     6.21548E-03     168.582E-03    -98.1241E+06    -79.0838E+06    -59.5987E+06    -85.9566E+06    -171.658E-03     327.141E-03    -155.483E-03     8.20660E-03    -172.117E-03     326.992E-03    -155.524E-03     2.28645E-03
            1345     6.92367E-03     169.034E-03    -94.3365E+06    -77.5755E+06    -52.4082E+06    -88.3350E+06    -184.760E-03     350.063E-03    -165.303E-03     7.02280E-03    -185.240E-03     349.946E-03    -165.316E-03    -47.8607E-06
            1346     7.60937E-03     169.549E-03    -94.3495E+06    -82.0062E+06    -47.4889E+06    -88.6632E+06    -196.830E-03     372.992E-03    -176.162E-03     4.38607E-03    -197.355E-03     372.912E-03    -176.143E-03    -4.01925E-03
            1347     8.27053E-03     170.120E-03    -93.8948E+06    -89.6154E+06    -42.5048E+06    -88.8319E+06    -206.511E-03     394.146E-03    -187.634E-03     2.24992E-03    -207.103E-03     394.120E-03    -187.581E-03    -7.56012E-03
            1348     8.91476E-03     170.740E-03    -90.3350E+06    -92.5039E+06    -29.9531E+06    -87.8613E+06    -212.044E-03     411.176E-03    -199.132E-03     5.02490E-03    -212.752E-03     411.265E-03    -199.017E-03    -6.02339E-03
            1349     9.54602E-03     171.400E-03    -82.8307E+06    -93.1776E+06    -9.67575E+06    -85.6267E+06    -211.858E-03     421.692E-03    -209.834E-03     16.3234E-03    -212.756E-03     421.983E-03    -209.627E-03     4.37352E-03
            1350     10.1813E-03     172.075E-03    -71.1137E+06    -79.1012E+06     21.5393E+06    -83.1535E+06    -206.611E-03     425.520E-03    -218.909E-03     35.2515E-03    -207.792E-03     426.140E-03    -218.584E-03     22.6982E-03
            1351     10.8256E-03     172.754E-03    -56.8313E+06    -39.0857E+06     71.5828E+06    -73.6165E+06    -198.365E-03     424.171E-03    -225.806E-03     61.3084E-03    -199.995E-03     425.330E-03    -225.309E-03     48.2340E-03
            1352     11.4897E-03     173.416E-03    -42.9792E+06    -3.64331E+06     120.894E+06    -52.7833E+06    -186.419E-03     416.481E-03    -230.062E-03     94.5030E-03    -188.577E-03     418.243E-03    -229.390E-03     81.3363E-03
            1353     12.1770E-03     174.039E-03    -37.9529E+06    -1.73603E+06     139.774E+06    -38.1741E+06    -170.846E-03     402.207E-03    -231.361E-03     133.083E-03    -173.790E-03     404.727E-03    -230.604E-03     119.438E-03
            1354     12.9166E-03     174.605E-03    -34.1078E+06    -26.0221E+06     133.861E+06    -34.1613E+06    -164.219E-03     394.585E-03    -230.366E-03     177.806E-03    -168.913E-03     398.733E-03    -229.609E-03     161.486E-03
            1355     13.6799E-03     175.181E-03    -21.0019E+06     2.69128E+06     138.194E+06    -23.9329E+06    -149.940E-03     377.476E-03    -227.535E-03     213.036E-03    -154.862E-03     382.073E-03    -226.818E-03     196.649E-03
            1356     759.261E-06     168.340E-03    -72.3607E+06    -38.9532E+06    -68.7746E+06    -13.9653E+06    -178.560E-03     360.068E-03    -181.507E-03    -45.2343E-03    -179.014E-03     359.754E-03    -181.690E-03    -46.2464E-03
            1357     1.51851E-03     168.406E-03    -71.5983E+06    -39.1443E+06    -63.4765E+06    -24.3699E+06    -177.883E-03     361.039E-03    -183.157E-03    -82.8590E-03    -178.287E-03     360.614E-03    -183.313E-03    -84.7171E-03
            1358     2.27081E-03     168.513E-03    -70.5582E+06    -38.7029E+06    -53.8233E+06    -32.5192E+06    -175.082E-03     361.491E-03    -186.410E-03    -123.966E-03    -175.382E-03     360.912E-03    -186.520E-03    -126.625E-03
            1359     3.01572E-03     168.668E-03    -68.8562E+06    -41.2975E+06    -42.4784E+06    -39.3768E+06    -169.964E-03     360.787E-03    -190.823E-03    -164.135E-03    -170.104E-03     359.987E-03    -190.876E-03    -167.611E-03
            1360     3.74908E-03     168.873E-03    -66.4622E+06    -44.2597E+06    -30.7006E+06    -45.1820E+06    -162.157E-03     358.516E-03    -196.359E-03    -201.635E-03    -162.091E-03     357.457E-03    -196.352E-03    -205.892E-03
            1361     4.46998E-03     169.131E-03    -63.6817E+06    -45.1954E+06    -18.3364E+06    -49.7877E+06    -151.466E-03     354.483E-03    -203.017E-03    -234.761E-03    -151.173E-03     353.147E-03    -202.950E-03    -239.720E-03
            1362     5.17527E-03     169.450E-03    -62.1763E+06    -45.5595E+06    -7.92685E+06    -53.6985E+06    -138.199E-03     348.985E-03    -210.786E-03    -261.251E-03    -137.677E-03     347.406E-03    -210.669E-03    -266.796E-03
            1363     5.86000E-03     169.830E-03    -62.6060E+06    -43.0702E+06    -555.299E+03    -55.7889E+06    -122.877E-03     342.454E-03    -219.577E-03    -279.061E-03    -122.152E-03     340.702E-03    -219.427E-03    -285.074E-03
            1364     6.52529E-03     170.272E-03    -62.8681E+06    -40.4197E+06     6.02510E+06    -54.7392E+06    -105.824E-03     334.935E-03    -229.112E-03    -285.254E-03    -104.957E-03     333.105E-03    -228.932E-03    -291.599E-03
            1365     7.17081E-03     170.775E-03    -60.0601E+06    -39.3521E+06     14.7336E+06    -51.8151E+06    -88.7581E-03     327.743E-03    -238.985E-03    -278.617E-03    -87.8445E-03     325.956E-03    -238.767E-03    -285.129E-03
            1366     7.80388E-03     171.334E-03    -53.8963E+06    -38.7712E+06     28.3038E+06    -48.2109E+06    -73.0291E-03     321.712E-03    -248.683E-03    -259.256E-03    -72.1766E-03     320.102E-03    -248.407E-03    -265.763E-03
            1367     8.42486E-03     171.940E-03    -45.1559E+06    -39.6850E+06     48.2103E+06    -43.8661E+06    -58.5433E-03     315.983E-03    -257.439E-03    -226.155E-03    -57.8820E-03     314.677E-03    -257.075E-03    -232.442E-03
            1368     9.05475E-03     172.578E-03    -35.1136E+06    -38.9877E+06     71.9122E+06    -40.4902E+06    -45.3215E-03     309.679E-03    -264.357E-03    -181.242E-03    -44.9689E-03     308.770E-03    -263.890E-03    -187.020E-03
            1369     9.69760E-03     173.246E-03    -26.8667E+06    -34.6576E+06     95.5354E+06    -38.6315E+06    -34.2810E-03     303.006E-03    -268.725E-03    -129.419E-03    -34.2701E-03     302.530E-03    -268.158E-03    -134.582E-03
            1370     10.3682E-03     173.917E-03    -21.9276E+06    -27.0910E+06     116.831E+06    -34.6673E+06    -24.7355E-03     294.727E-03    -269.991E-03    -71.9180E-03    -25.0401E-03     294.662E-03    -269.336E-03    -76.3762E-03
            1371     11.0732E-03     174.585E-03    -20.1743E+06    -16.4790E+06     144.175E+06    -30.2881E+06    -14.5952E-03     282.328E-03    -267.733E-03    -10.8844E-03    -15.1705E-03     282.569E-03    -266.959E-03    -14.4296E-03
            1372     11.8396E-03     175.216E-03    -14.1509E+06    -3.30588E+06     171.299E+06    -15.8009E+06    -14.1491E-03     276.992E-03    -262.843E-03     18.4323E-03    -14.9550E-03     277.372E-03    -261.961E-03     15.5191E-03
            1373     12.6223E-03     175.802E-03       60.53E+03     2.92592E+06     167.824E+06    -12.5305E+06    -9.96006E-03     266.132E-03    -256.172E-03     46.0498E-03    -11.0612E-03     266.992E-03    -255.338E-03     42.4105E-03
            1374     13.3695E-03     176.383E-03     2.11966E+06     -5.1952E+06     102.609E+06    -15.7154E+06     32.3339E-03     213.584E-03    -245.917E-03     86.9681E-03     31.4671E-03     214.349E-03    -245.400E-03     84.2943E-03
            1375     13.5534E-03     87.8327E-03    -4.15345E+06     68.2543E+06     80.3839E+06    -126.329E+03    -230.695E-03     463.324E-03    -232.628E-03     143.024E-03    -238.256E-03     470.878E-03    -232.319E-03     115.022E-03
            1376     12.8408E-03     87.5807E-03    -9.08159E+06     66.6083E+06     79.0333E+06     124.496E+03    -231.965E-03     464.610E-03    -232.646E-03     202.798E-03    -244.133E-03     476.754E-03    -232.334E-03     165.746E-03
            1377     12.1277E-03     87.3135E-03    -14.5348E+06     60.0643E+06     76.8845E+06     48.2834E+03    -232.944E-03     465.584E-03    -232.640E-03     222.988E-03    -247.037E-03     479.616E-03    -232.322E-03     183.047E-03
            1378     11.4153E-03     87.0030E-03    -20.2235E+06     55.2110E+06     76.9719E+06    -78.3057E+03    -234.292E-03     466.935E-03    -232.643E-03     249.850E-03    -250.721E-03     483.264E-03    -232.308E-03     206.404E-03
            1379     10.7012E-03     86.6625E-03    -26.3502E+06     48.9944E+06     75.6447E+06     179.785E+03    -235.910E-03     468.559E-03    -232.649E-03     265.691E-03    -253.227E-03     485.737E-03    -232.304E-03     220.641E-03
            1380     9.98844E-03     86.3050E-03    -33.2145E+06     40.8635E+06     67.6847E+06     125.342E+03    -237.225E-03     469.861E-03    -232.637E-03     271.838E-03    -254.217E-03     486.684E-03    -232.309E-03     226.794E-03
            1381     9.27386E-03     85.9467E-03    -40.0286E+06     31.7225E+06     56.4314E+06    -211.843E+03    -238.147E-03     470.761E-03    -232.614E-03     266.888E-03    -253.667E-03     486.088E-03    -232.320E-03     223.526E-03
            1382     8.56151E-03     85.5980E-03    -46.9229E+06     16.9895E+06     43.9781E+06    -1.02000E+06    -238.292E-03     470.886E-03    -232.594E-03     253.396E-03    -251.631E-03     483.992E-03    -232.331E-03     213.108E-03
            1383     7.84756E-03     85.2745E-03    -54.3720E+06     5.09905E+06     33.6073E+06    -932.136E+03    -237.896E-03     470.491E-03    -232.596E-03     235.378E-03    -248.900E-03     481.223E-03    -232.356E-03     198.924E-03
            1384     7.13345E-03     84.9740E-03    -62.5185E+06    -9.99021E+06     23.3230E+06     476.228E+03    -237.352E-03     469.974E-03    -232.622E-03     215.492E-03    -246.191E-03     478.488E-03    -232.400E-03     183.068E-03
            1385     6.42018E-03     84.7009E-03    -71.9032E+06    -50.9283E+06     6.49725E+06     1.78593E+06    -236.679E-03     469.354E-03    -232.675E-03     194.779E-03    -243.581E-03     475.801E-03    -232.464E-03     166.413E-03
            1386     5.70591E-03     84.4555E-03    -81.3577E+06    -100.987E+06    -13.6795E+06     1.62459E+06    -236.243E-03     468.976E-03    -232.733E-03     173.861E-03    -241.490E-03     473.615E-03    -232.537E-03     149.349E-03
            1387     4.99234E-03     84.2356E-03    -89.6322E+06    -143.105E+06    -32.4857E+06     600.663E+03    -235.829E-03     468.594E-03    -232.765E-03     152.501E-03    -239.707E-03     471.739E-03    -232.590E-03     131.630E-03
            1388     4.27975E-03     84.0448E-03    -97.2391E+06    -181.977E+06    -50.1837E+06     38.6814E+03    -235.204E-03     467.979E-03    -232.775E-03     130.995E-03    -237.963E-03     469.892E-03    -232.621E-03     113.581E-03
            1389     3.56557E-03     83.8818E-03    -104.698E+06    -214.105E+06    -68.1243E+06    -160.206E+03    -234.493E-03     467.264E-03    -232.771E-03     109.453E-03    -236.367E-03     468.204E-03    -232.650E-03     95.2986E-03
            1390     2.85286E-03     83.7480E-03    -111.416E+06    -240.139E+06    -85.6016E+06    -188.029E+03    -233.896E-03     466.657E-03    -232.761E-03     87.6479E-03    -235.080E-03     466.842E-03    -232.679E-03     76.5694E-03
            1391     2.13940E-03     83.6435E-03    -117.009E+06    -263.329E+06    -102.129E+06    -189.949E+03    -233.409E-03     466.156E-03    -232.748E-03     66.2011E-03    -234.081E-03     465.774E-03    -232.707E-03     58.0021E-03
            1392     1.42552E-03     83.5675E-03    -121.256E+06    -285.667E+06    -114.840E+06    -133.570E+03    -233.020E-03     465.782E-03    -232.762E-03     44.6291E-03    -233.328E-03     464.979E-03    -232.746E-03     39.1949E-03
            1393     713.837E-06     83.5211E-03    -124.227E+06    -299.187E+06    -122.085E+06     140.250E+03    -232.962E-03     465.675E-03    -232.712E-03     24.7017E-03    -233.063E-03     464.627E-03    -232.709E-03     21.7729E-03
            1394     13.5553E-03     86.3259E-03    -4.02588E+06     68.3031E+06     80.5253E+06     211.888E+03    -231.236E-03     463.842E-03    -232.607E-03     141.749E-03    -238.753E-03     471.354E-03    -232.297E-03     113.760E-03
            1395     12.8418E-03     86.0677E-03    -9.24764E+06     66.5462E+06     79.6348E+06     45.4689E+03    -231.987E-03     464.591E-03    -232.603E-03     201.164E-03    -244.101E-03     476.677E-03    -232.288E-03     164.172E-03
            1396     12.1295E-03     85.8054E-03    -14.5587E+06     60.1014E+06     77.5859E+06    -113.174E+03    -232.555E-03     465.155E-03    -232.600E-03     222.279E-03    -246.619E-03     479.156E-03    -232.278E-03     182.426E-03
            1397     11.4147E-03     85.4935E-03    -20.1359E+06     55.2716E+06     77.2497E+06    -118.095E+03    -234.086E-03     466.700E-03    -232.614E-03     249.986E-03    -250.519E-03     483.034E-03    -232.279E-03     206.552E-03
            1398     10.7023E-03     85.1527E-03     -26.489E+06     48.7667E+06     74.9926E+06    -314.027E+03    -235.669E-03     468.298E-03    -232.628E-03     265.346E-03    -252.964E-03     485.454E-03    -232.286E-03     220.341E-03
            1399     9.98745E-03     84.7976E-03    -33.0203E+06     40.9162E+06     67.0617E+06    -610.101E+03    -237.163E-03     469.786E-03    -232.623E-03     271.703E-03    -254.136E-03     486.593E-03    -232.299E-03     226.679E-03
            1400     9.27530E-03     84.4354E-03    -40.0822E+06     31.4936E+06     55.7388E+06    -411.456E+03    -238.042E-03     470.650E-03    -232.608E-03     267.119E-03    -253.556E-03     485.972E-03    -232.317E-03     223.795E-03
            1401     8.56080E-03     84.0913E-03    -48.4889E+06     18.1708E+06     42.9082E+06    -218.797E+03    -238.045E-03     470.651E-03    -232.605E-03     253.563E-03    -251.385E-03     483.758E-03    -232.347E-03     213.344E-03
            1402     7.84669E-03     83.7647E-03    -58.0464E+06     4.70713E+06     30.9494E+06    -780.130E+03    -237.758E-03     470.383E-03    -232.625E-03     235.491E-03    -248.774E-03     481.119E-03    -232.392E-03     199.054E-03
            1403     7.13375E-03     83.4657E-03    -67.7574E+06    -12.9230E+06     19.5547E+06    -761.891E+03    -237.211E-03     469.878E-03    -232.667E-03     215.304E-03    -246.057E-03     478.381E-03    -232.453E-03     182.895E-03
            1404     6.41900E-03     83.1932E-03    -75.9414E+06    -52.0255E+06     3.93646E+06    -533.797E+03    -236.830E-03     469.552E-03    -232.722E-03     194.602E-03    -243.744E-03     476.001E-03    -232.517E-03     166.180E-03
            1405     5.70584E-03     82.9461E-03    -82.7004E+06    -100.715E+06    -14.2951E+06    -930.526E+03    -236.497E-03     469.256E-03    -232.759E-03     173.541E-03    -241.748E-03     473.897E-03    -232.565E-03     148.958E-03
            1406     4.99285E-03     82.7270E-03    -89.5165E+06    -142.664E+06    -31.9863E+06    -730.736E+03    -235.860E-03     468.635E-03    -232.774E-03     152.379E-03    -239.737E-03     471.780E-03    -232.597E-03     131.482E-03
            1407     4.27870E-03     82.5358E-03    -97.2056E+06    -182.221E+06    -50.0364E+06    -405.507E+03    -235.229E-03     468.009E-03    -232.779E-03     131.053E-03    -237.990E-03     469.923E-03    -232.624E-03     113.628E-03
            1408     3.56639E-03     82.3732E-03    -104.788E+06    -214.227E+06    -68.0429E+06    -188.788E+03    -234.579E-03     467.343E-03    -232.764E-03     109.406E-03    -236.453E-03     468.281E-03    -232.642E-03     95.2435E-03
            1409     2.85254E-03     82.2395E-03    -111.673E+06    -240.298E+06    -85.6348E+06    -150.041E+03    -233.953E-03     466.686E-03    -232.733E-03     87.7246E-03    -235.140E-03     466.872E-03    -232.651E-03     76.6359E-03
            1410     2.13957E-03     82.1346E-03    -117.841E+06    -263.451E+06    -101.850E+06    -90.6008E+03    -233.428E-03     466.126E-03    -232.698E-03     66.0743E-03    -234.103E-03     465.743E-03    -232.655E-03     57.8797E-03
            1411     1.42716E-03     82.0593E-03    -122.970E+06    -286.250E+06    -114.849E+06     237.918E+03    -232.987E-03     465.675E-03    -232.688E-03     44.8967E-03    -233.304E-03     464.873E-03    -232.669E-03     39.4578E-03
            1412     712.668E-06     82.0120E-03    -126.928E+06    -298.692E+06    -123.847E+06     427.428E+03    -232.664E-03     465.478E-03    -232.814E-03     24.2999E-03    -232.776E-03     464.440E-03    -232.816E-03     21.3952E-03
            1413     13.5567E-03     84.8152E-03    -4.04258E+06     68.3292E+06     80.7818E+06     380.780E+03    -231.853E-03     464.390E-03    -232.537E-03     141.187E-03    -239.366E-03     471.897E-03    -232.226E-03     113.237E-03
            1414     12.8440E-03     84.5595E-03    -8.83466E+06     66.8269E+06     79.8884E+06    -76.2271E+03    -231.137E-03     463.677E-03    -232.540E-03     202.246E-03    -243.281E-03     475.795E-03    -232.225E-03     165.387E-03
            1415     12.1284E-03     84.2973E-03    -14.1804E+06     60.3598E+06     77.8885E+06     115.006E+03    -232.300E-03     464.874E-03    -232.574E-03     223.452E-03    -246.383E-03     478.894E-03    -232.251E-03     183.655E-03
            1416     11.4162E-03     83.9831E-03    -19.9230E+06     55.4198E+06     77.3802E+06    -142.354E+03    -234.031E-03     466.633E-03    -232.602E-03     250.371E-03    -250.460E-03     482.964E-03    -232.267E-03     206.980E-03
            1417     10.7014E-03     83.6455E-03    -26.0574E+06     49.1071E+06     75.2449E+06    -477.404E+03    -235.632E-03     468.257E-03    -232.624E-03     265.732E-03    -252.925E-03     485.413E-03    -232.281E-03     220.769E-03
            1418     9.98904E-03     83.2870E-03    -33.1331E+06     40.6962E+06     67.1722E+06    -150.246E+03    -237.138E-03     469.766E-03    -232.628E-03     272.125E-03    -254.115E-03     486.574E-03    -232.303E-03     227.141E-03
            1419     9.27385E-03     82.9286E-03    -41.2170E+06     30.3606E+06     55.1301E+06     184.709E+03    -237.779E-03     470.408E-03    -232.629E-03     267.246E-03    -253.282E-03     485.712E-03    -232.337E-03     224.014E-03
            1420     8.56040E-03     82.5810E-03    -48.9727E+06     18.0159E+06     42.8855E+06     855.863E+03    -237.988E-03     470.631E-03    -232.643E-03     253.641E-03    -251.328E-03     483.737E-03    -232.384E-03     213.452E-03
            1421     7.84745E-03     82.2572E-03    -56.5241E+06     7.17782E+06     32.4318E+06     1.25733E+06    -237.803E-03     470.470E-03    -232.668E-03     235.424E-03    -248.820E-03     481.219E-03    -232.434E-03     198.995E-03
            1422     7.13230E-03     81.9572E-03    -63.9687E+06    -11.0241E+06     21.6855E+06    -219.757E+03    -237.443E-03     470.142E-03    -232.699E-03     214.962E-03    -246.271E-03     478.640E-03    -232.482E-03     182.529E-03
            1423     6.41969E-03     81.6842E-03    -71.5209E+06    -52.0663E+06     5.97797E+06    -1.97569E+06    -237.082E-03     469.809E-03    -232.728E-03     194.174E-03    -243.971E-03     476.243E-03    -232.518E-03     165.692E-03
            1424     5.70627E-03     81.4370E-03    -79.6968E+06    -101.949E+06    -13.1699E+06    -1.69169E+06    -236.485E-03     469.232E-03    -232.747E-03     173.373E-03    -241.719E-03     473.859E-03    -232.549E-03     148.778E-03
            1425     4.99230E-03     81.2188E-03    -88.4182E+06    -144.395E+06    -31.8589E+06    -585.045E+03    -235.830E-03     468.590E-03    -232.760E-03     152.212E-03    -239.695E-03     471.721E-03    -232.582E-03     131.324E-03
            1426     4.27965E-03     81.0267E-03    -96.7800E+06    -182.701E+06    -49.9496E+06     106.105E+03    -235.150E-03     467.920E-03    -232.770E-03     130.886E-03    -237.905E-03     469.828E-03    -232.614E-03     113.476E-03
            1427     3.56556E-03     80.8645E-03    -104.840E+06    -214.304E+06    -68.0756E+06     274.985E+03    -234.509E-03     467.275E-03    -232.766E-03     109.393E-03    -236.381E-03     468.212E-03    -232.644E-03     95.2463E-03
            1428     2.85298E-03     80.7306E-03    -112.498E+06    -240.173E+06    -86.0934E+06     426.724E+03    -233.942E-03     466.688E-03    -232.745E-03     87.9477E-03    -235.135E-03     466.878E-03    -232.664E-03     76.8634E-03
            1429     2.13971E-03     80.6261E-03    -118.825E+06    -263.588E+06    -102.733E+06     453.075E+03    -233.457E-03     466.169E-03    -232.713E-03     66.3469E-03    -234.137E-03     465.790E-03    -232.672E-03     58.1610E-03
            1430     1.42560E-03     80.5511E-03    -123.203E+06    -285.876E+06    -115.222E+06     286.269E+03    -233.147E-03     465.801E-03    -232.654E-03     44.7828E-03    -233.465E-03     465.001E-03    -232.637E-03     39.3513E-03
            1431     713.374E-06     80.5039E-03    -124.889E+06    -297.973E+06    -123.840E+06    -102.507E+03    -233.124E-03     465.320E-03    -232.195E-03     24.1580E-03    -233.225E-03     464.282E-03    -232.201E-03     21.2421E-03
            1432     13.5582E-03     83.3059E-03    -4.79977E+06     67.6979E+06     80.5002E+06    -66.4024E+03    -231.305E-03     463.858E-03    -232.553E-03     142.422E-03    -238.874E-03     471.417E-03    -232.242E-03     114.406E-03
            1433     12.8418E-03     83.0545E-03    -8.48437E+06     67.1749E+06     79.9974E+06     688.472E+03    -231.607E-03     464.170E-03    -232.564E-03     203.788E-03    -243.804E-03     476.344E-03    -232.249E-03     166.843E-03
            1434     12.1293E-03     82.7858E-03    -13.2339E+06     61.1094E+06     77.5775E+06     518.181E+03    -232.464E-03     465.047E-03    -232.584E-03     224.054E-03    -246.557E-03     479.085E-03    -232.265E-03     184.248E-03
            1435     11.4147E-03     82.4756E-03    -18.9515E+06     56.1494E+06     77.1085E+06     186.281E+03    -233.916E-03     466.532E-03    -232.616E-03     250.512E-03    -250.334E-03     482.858E-03    -232.284E-03     207.176E-03
            1436     10.7019E-03     82.1353E-03    -25.9427E+06     49.1440E+06     75.2760E+06     359.940E+03    -235.612E-03     468.263E-03    -232.651E-03     266.128E-03    -252.909E-03     485.424E-03    -232.308E-03     221.195E-03
            1437     9.98708E-03     81.7785E-03    -33.6071E+06     40.3276E+06     67.2542E+06     587.231E+03    -237.047E-03     469.712E-03    -232.666E-03     272.245E-03    -254.027E-03     486.521E-03    -232.339E-03     227.294E-03
            1438     9.27451E-03     81.4197E-03    -40.9129E+06     30.7620E+06     56.0123E+06     386.580E+03    -237.898E-03     470.569E-03    -232.671E-03     267.305E-03    -253.408E-03     485.880E-03    -232.376E-03     224.049E-03
            1439     8.56039E-03     81.0731E-03    -47.7843E+06     17.6704E+06     43.4966E+06    -316.211E+03    -238.116E-03     470.792E-03    -232.677E-03     253.536E-03    -251.448E-03     483.891E-03    -232.416E-03     213.315E-03
            1440     7.84556E-03     80.7477E-03    -53.5205E+06     6.68450E+06     33.9344E+06    -916.160E+03    -238.012E-03     470.699E-03    -232.687E-03     234.956E-03    -249.006E-03     481.428E-03    -232.449E-03     198.473E-03
            1441     7.13369E-03     80.4482E-03    -59.9712E+06    -9.28398E+06     24.5664E+06    -627.922E+03    -237.682E-03     470.377E-03    -232.695E-03     214.697E-03    -246.495E-03     478.873E-03    -232.472E-03     182.212E-03
            1442     6.41975E-03     80.1748E-03    -69.0130E+06    -51.7118E+06     7.43951E+06     159.104E+03    -237.047E-03     469.755E-03    -232.708E-03     194.059E-03    -243.923E-03     476.180E-03    -232.495E-03     165.617E-03
            1443     5.70595E-03     79.9293E-03    -79.2486E+06    -103.199E+06    -13.3763E+06     919.652E+03    -236.409E-03     469.138E-03    -232.729E-03     173.440E-03    -241.639E-03     473.759E-03    -232.531E-03     148.887E-03
            1444     4.99311E-03     79.7091E-03    -89.0327E+06    -144.613E+06    -32.4967E+06     1.14423E+06    -235.832E-03     468.577E-03    -232.745E-03     152.393E-03    -239.702E-03     471.712E-03    -232.569E-03     131.528E-03
            1445     4.27912E-03     79.5190E-03    -97.8846E+06    -182.535E+06    -50.5453E+06     989.532E+03    -235.130E-03     467.887E-03    -232.757E-03     130.936E-03    -237.889E-03     469.796E-03    -232.603E-03     113.549E-03
            1446     3.56624E-03     79.3556E-03    -105.754E+06    -213.888E+06    -68.6758E+06     832.874E+03    -234.378E-03     467.144E-03    -232.767E-03     109.403E-03    -236.253E-03     468.084E-03    -232.646E-03     95.2836E-03
            1447     2.85234E-03     79.2221E-03    -112.723E+06    -239.842E+06    -86.5458E+06     613.846E+03    -233.843E-03     466.618E-03    -232.775E-03     87.8635E-03    -235.034E-03     466.808E-03    -232.696E-03     76.7988E-03
            1448     2.13899E-03     79.1174E-03    -117.967E+06    -262.664E+06    -103.018E+06     344.209E+03    -233.549E-03     466.296E-03    -232.748E-03     66.2081E-03    -234.224E-03     465.920E-03    -232.711E-03     58.0245E-03
            1449     1.42711E-03     79.0417E-03    -121.871E+06    -284.952E+06    -115.676E+06    -243.386E+03    -233.249E-03     465.905E-03    -232.655E-03     44.7511E-03    -233.561E-03     465.108E-03    -232.644E-03     39.2980E-03
            1450     713.782E-06     78.9954E-03    -125.200E+06    -298.584E+06    -122.802E+06    -227.441E+03    -232.684E-03     465.292E-03    -232.608E-03     24.2685E-03    -232.788E-03     464.252E-03    -232.608E-03     21.3240E-03
            1451     13.5520E-03     81.7962E-03    -4.27076E+06     67.3325E+06     79.8751E+06    -246.514E+03    -230.869E-03     463.471E-03    -232.601E-03     141.759E-03    -238.410E-03     471.004E-03    -232.293E-03     113.723E-03
            1452     12.8423E-03     81.5411E-03    -8.83329E+06     66.7339E+06     79.0322E+06    -172.086E+03    -232.059E-03     464.666E-03    -232.607E-03     202.486E-03    -244.227E-03     476.810E-03    -232.295E-03     165.442E-03
            1453     12.1285E-03     81.2790E-03    -13.6320E+06     60.7470E+06     77.3956E+06    -23.9341E+03    -232.466E-03     465.081E-03    -232.615E-03     223.938E-03    -246.572E-03     479.130E-03    -232.296E-03     184.104E-03
            1454     11.4152E-03     80.9658E-03    -19.4576E+06     55.7390E+06     77.1643E+06     549.889E+03    -233.900E-03     466.551E-03    -232.651E-03     250.823E-03    -250.334E-03     482.890E-03    -232.318E-03     207.479E-03
            1455     10.7008E-03     80.6266E-03    -25.8401E+06     49.2422E+06     75.1950E+06     976.262E+03    -235.627E-03     468.314E-03    -232.686E-03     265.919E-03    -252.916E-03     485.468E-03    -232.344E-03     220.980E-03
            1456     9.98781E-03     80.2701E-03    -32.3697E+06     40.9911E+06     67.3015E+06     652.956E+03    -237.103E-03     469.798E-03    -232.696E-03     271.816E-03    -254.062E-03     486.593E-03    -232.372E-03     226.852E-03
            1457     9.27303E-03     79.9099E-03    -38.8572E+06     32.0059E+06     56.8639E+06     68.5284E+03    -238.055E-03     470.746E-03    -232.691E-03     266.779E-03    -253.545E-03     486.047E-03    -232.397E-03     223.481E-03
            1458     8.55984E-03     79.5641E-03    -45.5265E+06     20.0378E+06     45.3815E+06    -1.19616E+06    -238.361E-03     471.040E-03    -232.678E-03     252.999E-03    -251.679E-03     484.135E-03    -232.414E-03     212.717E-03
            1459     7.84777E-03     79.2389E-03    -53.8819E+06     6.20726E+06     33.6146E+06    -2.08206E+06    -238.063E-03     470.731E-03    -232.668E-03     234.813E-03    -249.051E-03     481.452E-03    -232.430E-03     198.311E-03
            1460     7.13294E-03     78.9388E-03    -63.8298E+06    -13.3359E+06     21.6594E+06    -804.717E+03    -237.450E-03     470.131E-03    -232.681E-03     214.949E-03    -246.275E-03     478.619E-03    -232.461E-03     182.493E-03
            1461     6.41967E-03     78.6664E-03    -73.9425E+06    -53.5400E+06     4.87933E+06     1.63469E+06    -236.995E-03     469.705E-03    -232.710E-03     194.327E-03    -243.896E-03     476.139E-03    -232.501E-03     165.906E-03
            1462     5.70651E-03     78.4203E-03    -83.3773E+06    -102.184E+06    -15.1687E+06     1.95752E+06    -236.515E-03     469.243E-03    -232.727E-03     173.506E-03    -241.763E-03     473.876E-03    -232.534E-03     148.966E-03
            1463     4.99225E-03     78.2010E-03    -91.6293E+06    -143.659E+06    -33.7639E+06     889.945E+03    -235.803E-03     468.541E-03    -232.738E-03     152.330E-03    -239.683E-03     471.684E-03    -232.566E-03     131.471E-03
            1464     4.27948E-03     78.0095E-03    -98.9171E+06    -181.867E+06    -51.0494E+06     448.362E+03    -235.073E-03     467.828E-03    -232.756E-03     130.816E-03    -237.834E-03     469.740E-03    -232.604E-03     113.432E-03
            1465     3.56579E-03     77.8477E-03    -105.891E+06    -213.301E+06    -68.7305E+06     150.074E+03    -234.457E-03     467.219E-03    -232.762E-03     109.405E-03    -236.334E-03     468.162E-03    -232.642E-03     95.2732E-03
            1466     2.85269E-03     77.7136E-03    -112.090E+06    -239.433E+06    -86.3626E+06    -186.517E+03    -233.948E-03     466.692E-03    -232.744E-03     87.7149E-03    -235.135E-03     466.882E-03    -232.666E-03     76.6366E-03
            1467     2.13983E-03     77.6082E-03    -117.613E+06    -262.344E+06    -102.505E+06    -204.819E+03    -233.449E-03     466.159E-03    -232.710E-03     66.0328E-03    -234.122E-03     465.781E-03    -232.672E-03     57.8449E-03
            1468     1.42568E-03     77.5330E-03    -122.423E+06    -284.959E+06    -114.931E+06     293.097E+03    -232.922E-03     465.647E-03    -232.726E-03     44.4622E-03    -233.237E-03     464.850E-03    -232.710E-03     39.0098E-03
            1469     712.364E-06     77.4877E-03    -125.493E+06    -298.167E+06    -123.126E+06     195.543E+03    -232.741E-03     465.606E-03    -232.865E-03     23.9877E-03    -232.846E-03     464.567E-03    -232.867E-03     21.0751E-03
            1470     13.5581E-03     80.2856E-03    -3.67882E+06     67.9618E+06     81.0275E+06    -125.446E+03    -230.891E-03     463.485E-03    -232.594E-03     141.615E-03    -238.415E-03     471.003E-03    -232.282E-03     113.652E-03
            1471     12.8417E-03     80.0330E-03    -9.22816E+06     66.2208E+06     78.9084E+06    -569.774E+03    -231.238E-03     463.857E-03    -232.618E-03     202.298E-03    -243.387E-03     475.979E-03    -232.307E-03     165.369E-03
            1472     12.1280E-03     79.7691E-03    -14.9011E+06     59.4270E+06     76.8232E+06    -327.251E+03    -232.465E-03     465.115E-03    -232.650E-03     223.808E-03    -246.573E-03     479.158E-03    -232.331E-03     183.946E-03
            1473     11.4140E-03     79.4569E-03    -20.3714E+06     54.7856E+06     77.0074E+06    -136.660E+03    -234.108E-03     466.789E-03    -232.680E-03     250.496E-03    -250.537E-03     483.116E-03    -232.345E-03     207.097E-03
            1474     10.7010E-03     79.1173E-03    -26.0662E+06     49.0152E+06     75.5762E+06    -379.572E+03    -235.762E-03     468.464E-03    -232.702E-03     265.397E-03    -253.038E-03     485.602E-03    -232.357E-03     220.414E-03
            1475     9.98691E-03     78.7604E-03    -32.2596E+06     41.1694E+06     68.1302E+06    -702.543E+03    -237.333E-03     470.026E-03    -232.693E-03     271.222E-03    -254.282E-03     486.808E-03    -232.365E-03     226.179E-03
            1476     9.27445E-03     78.4019E-03    -39.3831E+06     31.6997E+06     56.7456E+06    -410.827E+03    -238.155E-03     470.820E-03    -232.664E-03     266.182E-03    -253.630E-03     486.103E-03    -232.369E-03     222.849E-03
            1477     8.56090E-03     78.0544E-03    -48.6803E+06     22.2642E+06     43.6487E+06     15.7988E+03    -238.163E-03     470.803E-03    -232.640E-03     252.774E-03    -251.482E-03     483.902E-03    -232.383E-03     212.541E-03
            1478     7.84627E-03     77.7297E-03    -59.1094E+06     7.23867E+06     30.5508E+06    -372.583E+03    -237.755E-03     470.400E-03    -232.645E-03     234.915E-03    -248.761E-03     481.134E-03    -232.418E-03     198.481E-03
            1479     7.13343E-03     77.4310E-03    -68.8194E+06    -17.0921E+06     17.9321E+06    -303.258E+03    -237.335E-03     470.017E-03    -232.682E-03     215.014E-03    -246.170E-03     478.495E-03    -232.468E-03     182.593E-03
            1480     6.41932E-03     77.1571E-03    -77.2139E+06    -55.2961E+06     2.86128E+06    -107.439E+03    -237.006E-03     469.725E-03    -232.720E-03     194.269E-03    -243.910E-03     476.151E-03    -232.513E-03     165.839E-03
            1481     5.70568E-03     76.9112E-03    -84.1502E+06    -101.178E+06    -14.9507E+06    -396.397E+03    -236.585E-03     469.319E-03    -232.734E-03     173.344E-03    -241.837E-03     473.957E-03    -232.540E-03     148.762E-03
            1482     4.99337E-03     76.6922E-03    -90.6884E+06    -142.846E+06    -32.8528E+06    -698.642E+03    -235.873E-03     468.607E-03    -232.734E-03     152.204E-03    -239.752E-03     471.752E-03    -232.559E-03     131.304E-03
            1483     4.27920E-03     76.5016E-03    -98.0052E+06    -181.943E+06    -50.5866E+06    -979.957E+03    -235.147E-03     467.882E-03    -232.735E-03     130.680E-03    -237.904E-03     469.792E-03    -232.582E-03     113.268E-03
            1484     3.56596E-03     76.3388E-03    -105.322E+06    -213.542E+06    -67.9416E+06    -821.534E+03    -234.551E-03     467.270E-03    -232.718E-03     109.089E-03    -236.422E-03     468.205E-03    -232.596E-03     94.9419E-03
            1485     2.85300E-03     76.2043E-03    -112.374E+06    -239.587E+06    -85.3750E+06    -533.430E+03    -233.840E-03     466.533E-03    -232.693E-03     87.6760E-03    -235.030E-03     466.721E-03    -232.609E-03     76.5985E-03
            1486     2.13945E-03     76.1003E-03    -118.873E+06    -263.839E+06    -102.080E+06     21.6420E+03    -233.204E-03     465.908E-03    -232.705E-03     66.3381E-03    -233.885E-03     465.527E-03    -232.660E-03     58.1511E-03
            1487     1.42688E-03     76.0246E-03    -123.344E+06    -284.421E+06    -115.584E+06     374.405E+03    -232.959E-03     465.707E-03    -232.748E-03     44.5584E-03    -233.279E-03     464.915E-03    -232.735E-03     39.1197E-03
            1488     713.563E-06     75.9796E-03    -126.262E+06    -297.608E+06    -123.947E+06    -103.859E+03    -232.941E-03     465.646E-03    -232.705E-03     24.2931E-03    -233.050E-03     464.612E-03    -232.710E-03     21.3725E-03
            1489     13.5545E-03     78.7798E-03    -4.52838E+06      67.865E+06     81.3532E+06    -247.378E+03    -230.796E-03     463.415E-03    -232.619E-03     143.437E-03    -238.361E-03     470.970E-03    -232.305E-03     115.435E-03
            1490     12.8413E-03     78.5241E-03    -9.29312E+06     66.2978E+06     80.7994E+06     194.894E+03    -231.678E-03     464.326E-03    -232.648E-03     202.940E-03    -243.821E-03     476.437E-03    -232.327E-03     166.033E-03
            1491     12.1276E-03     78.2598E-03    -14.1048E+06     60.1964E+06     78.5526E+06    -57.0499E+03    -232.667E-03     465.326E-03    -232.660E-03     223.005E-03    -246.729E-03     479.325E-03    -232.334E-03     183.167E-03
            1492     11.4148E-03     77.9471E-03    -19.7082E+06     55.3310E+06     77.7630E+06    -853.475E+03    -234.168E-03     466.840E-03    -232.671E-03     249.609E-03    -250.562E-03     483.135E-03    -232.334E-03     206.208E-03
            1493     10.7010E-03     77.6084E-03    -25.9531E+06     49.0403E+06     76.1990E+06    -1.26901E+06    -235.821E-03     468.504E-03    -232.683E-03     265.037E-03    -253.090E-03     485.634E-03    -232.336E-03     220.024E-03
            1494     9.98822E-03     77.2511E-03    -33.3422E+06     40.4048E+06     68.5941E+06    -958.450E+03    -237.339E-03     470.009E-03    -232.670E-03     271.244E-03    -254.293E-03     486.789E-03    -232.337E-03     226.199E-03
            1495     9.27432E-03     76.8920E-03    -41.7346E+06     29.3782E+06     56.1811E+06     160.173E+03    -238.061E-03     470.706E-03    -232.645E-03     266.609E-03    -253.554E-03     485.992E-03    -232.346E-03     223.309E-03
            1496     8.56073E-03     76.5463E-03    -49.2833E+06     21.3357E+06     43.4019E+06     1.83049E+06    -237.988E-03     470.620E-03    -232.632E-03     253.178E-03    -251.315E-03     483.722E-03    -232.375E-03     213.011E-03
            1497     7.84739E-03     76.2222E-03    -56.5008E+06     9.38285E+06     32.2071E+06     2.71762E+06    -237.786E-03     470.434E-03    -232.648E-03     234.961E-03    -248.783E-03     481.171E-03    -232.419E-03     198.576E-03
            1498     7.13283E-03     75.9216E-03    -64.4394E+06    -13.9321E+06     20.7654E+06     1.23578E+06    -237.535E-03     470.210E-03    -232.675E-03     214.690E-03    -246.347E-03     478.684E-03    -232.457E-03     182.275E-03
            1499     6.41975E-03     75.6490E-03    -72.1631E+06    -53.8285E+06     5.53552E+06    -1.15521E+06    -237.049E-03     469.745E-03    -232.697E-03     193.927E-03    -243.924E-03     476.158E-03    -232.486E-03     165.487E-03
            1500     5.70654E-03     75.4019E-03    -79.9415E+06    -102.005E+06    -12.7908E+06    -1.76214E+06    -236.450E-03     469.164E-03    -232.714E-03     173.032E-03    -241.677E-03     473.782E-03    -232.514E-03     148.446E-03
            1501     4.99220E-03     75.1836E-03    -88.3579E+06    -143.506E+06    -31.2494E+06    -996.344E+03    -235.825E-03     468.545E-03    -232.720E-03     151.904E-03    -239.686E-03     471.674E-03    -232.540E-03     131.018E-03
            1502     4.27968E-03     74.9926E-03    -96.7746E+06    -182.225E+06    -49.6177E+06    -522.418E+03    -235.196E-03     467.911E-03    -232.715E-03     130.843E-03    -237.951E-03     469.819E-03    -232.559E-03     113.426E-03
            1503     3.56676E-03     74.8299E-03    -104.986E+06    -214.267E+06    -67.6724E+06    -341.490E+03    -234.450E-03     467.154E-03    -232.704E-03     109.591E-03    -236.326E-03     468.093E-03    -232.580E-03     95.4423E-03
            1504     2.85294E-03     74.6969E-03    -112.517E+06    -240.407E+06    -85.1301E+06     62.3422E+03    -233.757E-03     466.462E-03    -232.705E-03     87.9662E-03    -234.948E-03     466.647E-03    -232.619E-03     76.9012E-03
            1505     2.13948E-03     74.5918E-03    -118.777E+06    -263.977E+06    -101.708E+06     26.2145E+03    -233.225E-03     465.955E-03    -232.730E-03     66.2288E-03    -233.904E-03     465.571E-03    -232.684E-03     58.0511E-03
            1506     1.42539E-03     74.5162E-03    -123.545E+06    -284.341E+06    -115.462E+06    -202.411E+03    -232.967E-03     465.747E-03    -232.779E-03     44.8660E-03    -233.289E-03     464.955E-03    -232.765E-03     39.4230E-03
            1507     712.901E-06     74.4693E-03    -126.425E+06    -297.588E+06    -124.932E+06     269.523E+03    -232.772E-03     465.721E-03    -232.949E-03     24.4882E-03    -232.882E-03     464.690E-03    -232.959E-03     21.5655E-03
            1508     13.5537E-03     77.2661E-03    -4.01492E+06     68.1528E+06     80.2759E+06     168.086E+03    -230.953E-03     463.569E-03    -232.617E-03     141.367E-03    -238.448E-03     471.060E-03    -232.309E-03     113.445E-03
            1509     12.8415E-03     77.0150E-03    -8.95345E+06     66.3589E+06     79.8183E+06    -640.812E+03    -231.870E-03     464.498E-03    -232.628E-03     201.549E-03    -243.988E-03     476.589E-03    -232.312E-03     164.574E-03
            1510     12.1288E-03     76.7494E-03    -13.7380E+06     60.3942E+06     78.6960E+06    -1.07055E+06    -232.698E-03     465.330E-03    -232.631E-03     222.800E-03    -246.771E-03     479.339E-03    -232.305E-03     182.917E-03
            1511     11.4149E-03     76.4389E-03    -19.0578E+06     55.9419E+06     78.9625E+06    -794.347E+03    -234.059E-03     466.707E-03    -232.648E-03     249.810E-03    -250.464E-03     483.013E-03    -232.306E-03     206.427E-03
            1512     10.7017E-03     76.0983E-03    -25.9735E+06     48.9724E+06     76.4372E+06    -370.017E+03    -235.740E-03     468.404E-03    -232.665E-03     265.484E-03    -253.017E-03     485.541E-03    -232.316E-03     220.516E-03
            1513     9.98769E-03     75.7424E-03    -33.6811E+06     39.1449E+06     67.2895E+06     264.825E+03    -237.117E-03     469.779E-03    -232.662E-03     271.640E-03    -254.061E-03     486.547E-03    -232.333E-03     226.693E-03
            1514     9.27419E-03     75.3829E-03    -40.4981E+06     28.3839E+06     55.5131E+06     431.679E+03    -237.846E-03     470.505E-03    -232.660E-03     266.802E-03    -253.320E-03     485.776E-03    -232.364E-03     223.577E-03
            1515     8.56030E-03     75.0378E-03    -46.8810E+06     17.8530E+06     43.8874E+06     690.905E+03    -238.218E-03     470.876E-03    -232.658E-03     253.184E-03    -251.531E-03     483.959E-03    -232.396E-03     212.974E-03
            1516     7.84626E-03     74.7124E-03    -53.1527E+06     8.43817E+06     34.7230E+06     1.71878E+06    -238.183E-03     470.836E-03    -232.652E-03     234.853E-03    -249.171E-03     481.564E-03    -232.414E-03     198.394E-03
            1517     7.13384E-03     74.4131E-03    -60.0077E+06    -8.58829E+06     25.0450E+06     1.68082E+06    -237.660E-03     470.310E-03    -232.650E-03     214.532E-03    -246.462E-03     478.796E-03    -232.425E-03     182.108E-03
            1518     6.42012E-03     74.1397E-03    -68.7847E+06    -50.7893E+06     8.17621E+06     518.555E+03    -237.018E-03     469.678E-03    -232.660E-03     193.944E-03    -243.888E-03     476.100E-03    -232.446E-03     165.524E-03
            1519     5.70633E-03     73.8939E-03    -78.7747E+06    -102.467E+06    -12.4256E+06     123.189E+03    -236.326E-03     469.007E-03    -232.682E-03     173.164E-03    -241.545E-03     473.619E-03    -232.481E-03     148.634E-03
            1520     4.99361E-03     73.6751E-03    -88.2616E+06    -144.235E+06    -31.4530E+06     264.286E+03    -235.664E-03     468.371E-03    -232.708E-03     152.243E-03    -239.526E-03     471.499E-03    -232.528E-03     131.393E-03
            1521     4.27949E-03     73.4840E-03    -96.8919E+06    -182.372E+06    -49.7473E+06     527.574E+03    -235.003E-03     467.739E-03    -232.736E-03     131.066E-03    -237.759E-03     469.648E-03    -232.580E-03     113.685E-03
            1522     3.56538E-03     73.3218E-03    -104.800E+06    -214.162E+06    -68.1696E+06     581.984E+03    -234.379E-03     467.134E-03    -232.755E-03     109.598E-03    -236.251E-03     468.071E-03    -232.633E-03     95.4734E-03
            1523     2.85247E-03     73.1877E-03    -111.962E+06    -240.484E+06    -85.9960E+06     346.391E+03    -233.944E-03     466.694E-03    -232.750E-03     87.9268E-03    -235.134E-03     466.881E-03    -232.668E-03     76.8458E-03
            1524     2.13961E-03     73.0835E-03    -117.992E+06    -262.881E+06    -102.133E+06     62.1041E+03    -233.459E-03     466.176E-03    -232.717E-03     66.0605E-03    -234.134E-03     465.795E-03    -232.676E-03     57.8826E-03
            1525     1.42702E-03     73.0082E-03    -122.573E+06    -284.952E+06    -114.675E+06    -214.456E+03    -232.925E-03     465.656E-03    -232.732E-03     44.7303E-03    -233.241E-03     464.858E-03    -232.714E-03     39.2921E-03
            1526     712.859E-06     72.9604E-03    -125.463E+06    -297.467E+06    -122.649E+06     82.1248E+03    -232.442E-03     465.624E-03    -233.183E-03     24.3317E-03    -232.549E-03     464.589E-03    -233.183E-03     21.4108E-03
            1527     13.5584E-03     75.7634E-03    -4.23885E+06     68.3538E+06     80.0766E+06     96.8698E+03    -231.525E-03     464.086E-03    -232.561E-03     140.845E-03    -239.021E-03     471.577E-03    -232.253E-03     112.962E-03
            1528     12.8423E-03     75.5038E-03    -8.78877E+06     68.5496E+06     79.2021E+06    -23.8502E+03    -231.143E-03     463.716E-03    -232.572E-03     202.569E-03    -243.297E-03     475.852E-03    -232.263E-03     165.699E-03
            1529     12.1284E-03     75.2411E-03    -14.8439E+06     61.1387E+06     76.7303E+06    -970.181E+03    -232.384E-03     464.990E-03    -232.605E-03     223.271E-03    -246.463E-03     479.010E-03    -232.289E-03     183.434E-03
            1530     11.4152E-03     74.9289E-03    -21.4393E+06     55.0611E+06     75.9004E+06    -1.42635E+06    -234.014E-03     466.649E-03    -232.634E-03     250.168E-03    -250.426E-03     482.959E-03    -232.304E-03     206.788E-03
            1531     10.7012E-03     74.5900E-03    -27.8152E+06     46.8594E+06     73.3836E+06    -1.09286E+06    -235.589E-03     468.252E-03    -232.662E-03     265.704E-03    -252.859E-03     485.376E-03    -232.323E-03     220.778E-03
            1532     9.98777E-03     74.2329E-03    -33.7671E+06     37.6508E+06     65.5718E+06    -632.771E+03    -237.018E-03     469.692E-03    -232.674E-03     271.552E-03    -253.945E-03     486.443E-03    -232.352E-03     226.630E-03
            1533     9.27368E-03     73.8750E-03    -40.8585E+06     28.9330E+06     54.8355E+06    -702.855E+03    -238.006E-03     470.677E-03    -232.671E-03     266.501E-03    -253.475E-03     485.945E-03    -232.379E-03     223.236E-03
            1534     8.56009E-03     73.5280E-03    -48.5923E+06     16.8308E+06     42.8530E+06    -1.39777E+06    -238.427E-03     471.079E-03    -232.652E-03     252.803E-03    -251.737E-03     484.152E-03    -232.392E-03     212.527E-03
            1535     7.84773E-03     73.2034E-03    -56.1335E+06     6.07377E+06     32.7321E+06    -1.88432E+06    -238.152E-03     470.784E-03    -232.632E-03     234.628E-03    -249.142E-03     481.502E-03    -232.396E-03     198.120E-03
            1536     7.13349E-03     72.9038E-03    -64.2110E+06    -10.6809E+06     22.5107E+06    -1.03596E+06    -237.508E-03     470.142E-03    -232.634E-03     214.823E-03    -246.332E-03     478.635E-03    -232.413E-03     182.372E-03
            1537     6.42008E-03     72.6313E-03    -72.7617E+06    -51.3070E+06     6.08684E+06     624.443E+03    -236.887E-03     469.548E-03    -232.661E-03     194.333E-03    -243.780E-03     475.983E-03    -232.451E-03     165.929E-03
            1538     5.70674E-03     72.3854E-03    -81.3107E+06    -101.629E+06    -13.8198E+06     1.21535E+06    -236.293E-03     468.990E-03    -232.696E-03     173.563E-03    -241.532E-03     473.619E-03    -232.500E-03     149.043E-03
            1539     4.99221E-03     72.1667E-03    -89.8429E+06    -143.562E+06    -32.6406E+06     952.435E+03    -235.653E-03     468.384E-03    -232.731E-03     152.503E-03    -239.528E-03     471.525E-03    -232.556E-03     131.653E-03
            1540     4.27909E-03     71.9756E-03    -98.1796E+06    -182.261E+06    -51.0771E+06     692.827E+03    -235.065E-03     467.825E-03    -232.759E-03     130.924E-03    -237.823E-03     469.735E-03    -232.608E-03     113.548E-03
            1541     3.56636E-03     71.8134E-03    -105.755E+06    -213.637E+06    -69.1837E+06     552.981E+03    -234.514E-03     467.274E-03    -232.760E-03     109.255E-03    -236.386E-03     468.213E-03    -232.643E-03     95.1278E-03
            1542     2.85274E-03     71.6789E-03    -112.490E+06    -239.615E+06    -86.9941E+06     349.716E+03    -233.825E-03     466.577E-03    -232.753E-03     87.6688E-03    -235.012E-03     466.767E-03    -232.677E-03     76.6098E-03
            1543     2.13941E-03     71.5745E-03    -117.996E+06    -262.389E+06    -103.628E+06     61.3467E+03    -233.401E-03     466.151E-03    -232.750E-03     66.3784E-03    -234.076E-03     465.776E-03    -232.717E-03     58.2007E-03
            1544     1.42587E-03     71.4995E-03    -121.968E+06    -284.721E+06    -115.662E+06    -201.399E+03    -233.245E-03     465.949E-03    -232.703E-03     45.0245E-03    -233.560E-03     465.154E-03    -232.692E-03     39.5793E-03
            1545     713.447E-06     71.4529E-03    -124.460E+06    -298.406E+06    -122.539E+06    -743.097E+03    -232.787E-03     465.424E-03    -232.637E-03     24.3504E-03    -232.888E-03     464.381E-03    -232.637E-03     21.4474E-03
            1546     13.5548E-03     74.2506E-03    -5.39705E+06     67.7995E+06     80.5667E+06    -205.387E+03    -231.373E-03     463.985E-03    -232.612E-03     143.416E-03    -238.988E-03     471.589E-03    -232.300E-03     115.269E-03
            1547     12.8430E-03     73.9992E-03    -9.27123E+06     69.0371E+06     80.4225E+06     402.501E+03    -232.099E-03     464.711E-03    -232.612E-03     204.283E-03    -244.331E-03     476.921E-03    -232.296E-03     167.222E-03
            1548     12.1284E-03     73.7304E-03    -14.0655E+06     64.2599E+06     77.7057E+06     309.986E+03    -232.440E-03     465.058E-03    -232.618E-03     223.890E-03    -246.521E-03     479.092E-03    -232.302E-03     184.116E-03
            1549     11.4147E-03     73.4206E-03    -19.8669E+06     55.4066E+06     75.4360E+06    -259.834E+03    -234.044E-03     466.689E-03    -232.644E-03     250.166E-03    -250.439E-03     482.991E-03    -232.319E-03     206.810E-03
            1550     10.7013E-03     73.0805E-03    -26.9052E+06     46.4837E+06     72.4954E+06    -378.572E+03    -235.694E-03     468.362E-03    -232.667E-03     265.355E-03    -252.957E-03     485.483E-03    -232.333E-03     220.395E-03
            1551     9.98721E-03     72.7247E-03    -34.6908E+06     38.2106E+06     64.7821E+06    -1.03267E+06    -237.181E-03     469.847E-03    -232.666E-03     271.025E-03    -254.105E-03     486.595E-03    -232.347E-03     226.050E-03
            1552     9.27403E-03     72.3652E-03    -41.8903E+06     28.6492E+06     54.4547E+06    -1.40387E+06    -238.149E-03     470.796E-03    -232.647E-03     266.096E-03    -253.612E-03     486.054E-03    -232.356E-03     222.788E-03
            1553     8.56123E-03     72.0191E-03    -49.3047E+06     18.2393E+06     43.2253E+06    -1.46125E+06    -238.260E-03     470.886E-03    -232.627E-03     252.892E-03    -251.574E-03     483.965E-03    -232.365E-03     212.640E-03
            1554     7.84671E-03     71.6941E-03    -58.0202E+06     5.97753E+06     31.4109E+06    -2.02980E+06    -237.864E-03     470.487E-03    -232.623E-03     234.879E-03    -248.860E-03     481.207E-03    -232.390E-03     198.418E-03
            1555     7.13358E-03     71.3956E-03    -67.0003E+06    -14.2747E+06     19.2121E+06    -2.11418E+06    -237.285E-03     469.934E-03    -232.649E-03     214.902E-03    -246.110E-03     478.414E-03    -232.435E-03     182.469E-03
            1556     6.41963E-03     71.1224E-03    -75.6614E+06    -54.6130E+06     3.24975E+06    -1.08925E+06    -236.800E-03     469.497E-03    -232.697E-03     194.418E-03    -243.698E-03     475.924E-03    -232.492E-03     166.006E-03
            1557     5.70560E-03     70.8771E-03    -83.7836E+06    -102.176E+06    -15.7347E+06    -77.8350E+03    -236.404E-03     469.139E-03    -232.735E-03     173.468E-03    -241.651E-03     473.771E-03    -232.544E-03     148.913E-03
            1558     4.99308E-03     70.6579E-03    -91.5795E+06    -143.625E+06    -34.2450E+06     284.382E+03    -235.808E-03     468.560E-03    -232.752E-03     152.150E-03    -239.682E-03     471.698E-03    -232.582E-03     131.293E-03
            1559     4.27939E-03     70.4675E-03    -99.2133E+06    -181.899E+06    -52.0039E+06     424.181E+03    -235.135E-03     467.899E-03    -232.765E-03     130.991E-03    -237.896E-03     469.813E-03    -232.617E-03     113.606E-03
            1560     3.56570E-03     70.3037E-03    -106.736E+06    -213.278E+06    -70.0039E+06     343.005E+03    -234.474E-03     467.242E-03    -232.768E-03     109.618E-03    -236.356E-03     468.191E-03    -232.654E-03     95.4832E-03
            1561     2.85289E-03     70.1713E-03    -113.561E+06    -238.925E+06    -87.5771E+06     121.109E+03    -233.869E-03     466.634E-03    -232.766E-03     87.9025E-03    -235.063E-03     466.831E-03    -232.692E-03     76.8403E-03
            1562     2.13900E-03     70.0664E-03    -119.473E+06    -262.296E+06    -104.154E+06    -5.48015E+03    -233.465E-03     466.214E-03    -232.750E-03     66.1762E-03    -234.147E-03     465.843E-03    -232.717E-03     57.9866E-03
            1563     1.42636E-03     69.9895E-03    -124.125E+06    -283.996E+06    -117.750E+06    -44.3055E+03    -233.179E-03     465.871E-03    -232.692E-03     44.4290E-03    -233.498E-03     465.082E-03    -232.689E-03     39.0158E-03
            1564     713.377E-06     69.9442E-03    -127.021E+06    -299.570E+06    -125.484E+06    -353.909E+03    -232.947E-03     465.418E-03    -232.471E-03     24.2855E-03    -233.054E-03     464.375E-03    -232.480E-03     21.3608E-03
            1565     13.5523E-03     72.7379E-03    -4.11259E+06     69.5838E+06     80.8494E+06     381.759E+03    -230.638E-03     463.275E-03    -232.637E-03     141.516E-03    -238.169E-03     470.803E-03    -232.328E-03     113.521E-03
            1566     12.8401E-03     72.4846E-03    -8.94165E+06     67.2593E+06     79.0294E+06    -843.491E+03    -232.064E-03     464.708E-03    -232.644E-03     201.686E-03    -244.211E-03     476.833E-03    -232.334E-03     164.605E-03
            1567     12.1285E-03     72.2239E-03    -13.8626E+06     62.6637E+06     76.8787E+06    -111.459E+03    -232.778E-03     465.413E-03    -232.636E-03     223.354E-03    -246.866E-03     479.452E-03    -232.322E-03     183.462E-03
            1568     11.4144E-03     71.9097E-03    -19.6926E+06     56.2699E+06     76.3311E+06     918.145E+03    -234.172E-03     466.822E-03    -232.649E-03     249.845E-03    -250.568E-03     483.126E-03    -232.321E-03     206.469E-03
            1569     10.7011E-03     71.5718E-03    -26.2688E+06     47.8424E+06     74.6333E+06     686.309E+03    -235.865E-03     468.526E-03    -232.661E-03     264.663E-03    -253.114E-03     485.635E-03    -232.319E-03     219.688E-03
            1570     9.98825E-03     71.2153E-03    -33.0197E+06     40.5131E+06     67.1709E+06     294.303E+03    -237.268E-03     469.911E-03    -232.644E-03     270.928E-03    -254.190E-03     486.666E-03    -232.319E-03     225.954E-03
            1571     9.27494E-03     70.8563E-03    -40.7478E+06     28.3317E+06     54.8432E+06     6.52348E+03    -238.000E-03     470.623E-03    -232.623E-03     266.456E-03    -253.456E-03     485.876E-03    -232.331E-03     223.209E-03
            1572     8.56039E-03     70.5105E-03    -49.1547E+06     19.1073E+06     42.9164E+06    -236.106E+03    -238.037E-03     470.655E-03    -232.617E-03     253.066E-03    -251.345E-03     483.730E-03    -232.359E-03     212.879E-03
            1573     7.84738E-03     70.1857E-03    -57.4702E+06     8.10496E+06     31.9931E+06    -724.274E+03    -237.652E-03     470.288E-03    -232.636E-03     234.830E-03    -248.642E-03     481.010E-03    -232.405E-03     198.422E-03
            1574     7.13312E-03     69.8869E-03    -66.1323E+06    -14.2095E+06     19.2440E+06    -1.05403E+06    -237.256E-03     469.931E-03    -232.675E-03     214.803E-03    -246.068E-03     478.403E-03    -232.463E-03     182.409E-03
            1575     6.41934E-03     69.6146E-03    -74.9222E+06    -56.8837E+06     2.10708E+06    -1.10461E+06    -236.960E-03     469.676E-03    -232.716E-03     194.177E-03    -243.842E-03     476.084E-03    -232.515E-03     165.751E-03
            1576     5.70633E-03     69.3677E-03    -83.5175E+06    -103.809E+06    -16.6765E+06    -660.495E+03    -236.442E-03     469.185E-03    -232.743E-03     173.149E-03    -241.674E-03     473.800E-03    -232.555E-03     148.601E-03
            1577     4.99226E-03     69.1493E-03    -91.8840E+06    -144.298E+06    -35.0119E+06    -144.716E+03    -235.818E-03     468.575E-03    -232.757E-03     152.149E-03    -239.690E-03     471.710E-03    -232.590E-03     131.290E-03
            1578     4.27914E-03     68.9585E-03    -99.7578E+06    -182.176E+06    -52.8916E+06    -21.6245E+03    -235.145E-03     467.913E-03    -232.768E-03     130.945E-03    -237.911E-03     469.831E-03    -232.624E-03     113.539E-03
            1579     3.56597E-03     68.7957E-03    -107.132E+06    -212.995E+06    -70.5724E+06     59.6040E+03    -234.384E-03     467.163E-03    -232.778E-03     109.210E-03    -236.261E-03     468.108E-03    -232.667E-03     95.0930E-03
            1580     2.85192E-03     68.6622E-03    -114.250E+06    -238.836E+06    -88.0878E+06     258.363E+03    -233.983E-03     466.752E-03    -232.769E-03     87.7745E-03    -235.179E-03     466.951E-03    -232.698E-03     76.6980E-03
            1581     2.14015E-03     68.5565E-03    -120.471E+06    -261.996E+06    -104.291E+06     299.041E+03    -233.619E-03     466.326E-03    -232.706E-03     66.2607E-03    -234.308E-03     465.959E-03    -232.673E-03     58.0642E-03
            1582     1.42658E-03     68.4824E-03    -124.883E+06    -283.743E+06    -117.651E+06     369.165E+03    -232.982E-03     465.638E-03    -232.656E-03     44.5858E-03    -233.306E-03     464.852E-03    -232.652E-03     39.1702E-03
            1583     712.821E-06     68.4350E-03    -127.660E+06    -299.374E+06    -126.173E+06     763.458E+03    -233.049E-03     465.412E-03    -232.363E-03     23.7146E-03    -233.160E-03     464.373E-03    -232.375E-03     20.8010E-03
            1584     13.5590E-03     71.2338E-03    -3.35741E+06     70.7261E+06     80.3676E+06     269.006E+03    -230.931E-03     463.481E-03    -232.550E-03     141.006E-03    -238.410E-03     470.966E-03    -232.246E-03     113.189E-03
            1585     12.8426E-03     70.9766E-03    -8.82157E+06     68.5283E+06     78.0078E+06     175.572E+03    -230.936E-03     463.514E-03    -232.578E-03     201.400E-03    -243.015E-03     475.579E-03    -232.275E-03     164.628E-03
            1586     12.1278E-03     70.7126E-03    -15.0992E+06     59.4504E+06     75.7371E+06     308.525E+03    -232.660E-03     465.267E-03    -232.607E-03     222.133E-03    -246.692E-03     479.237E-03    -232.293E-03     182.284E-03
            1587     11.4154E-03     70.4013E-03    -20.8310E+06     56.4842E+06     76.5544E+06     288.522E+03    -234.098E-03     466.717E-03    -232.619E-03     249.075E-03    -250.472E-03     482.996E-03    -232.288E-03     205.713E-03
            1588     10.7019E-03     70.0620E-03    -26.2484E+06     48.5986E+06     75.2051E+06    -285.986E+03    -235.530E-03     468.170E-03    -232.641E-03     264.951E-03    -252.772E-03     485.274E-03    -232.297E-03     220.051E-03
            1589     9.98818E-03     69.7060E-03    -33.2804E+06     39.0337E+06     67.0085E+06     398.809E+03    -237.115E-03     469.761E-03    -232.645E-03     271.557E-03    -254.046E-03     486.518E-03    -232.319E-03     226.625E-03
            1590     9.27386E-03     69.3480E-03    -40.8654E+06     29.7352E+06     55.3639E+06     1.15291E+06    -237.967E-03     470.604E-03    -232.637E-03     266.738E-03    -253.429E-03     485.865E-03    -232.344E-03     223.528E-03
            1591     8.56108E-03     69.0012E-03    -47.9485E+06     20.5416E+06     44.3767E+06     416.071E+03    -238.016E-03     470.656E-03    -232.640E-03     253.120E-03    -251.320E-03     483.734E-03    -232.378E-03     212.961E-03
            1592     7.84663E-03     68.6778E-03    -55.4917E+06     8.93683E+06     33.5119E+06     398.845E+03    -237.722E-03     470.382E-03    -232.660E-03     234.841E-03    -248.703E-03     481.101E-03    -232.425E-03     198.455E-03
            1593     7.13289E-03     68.3783E-03    -64.1328E+06    -13.8226E+06     20.1443E+06     774.984E+03    -237.503E-03     470.186E-03    -232.683E-03     214.654E-03    -246.303E-03     478.651E-03    -232.470E-03     182.259E-03
            1594     6.41975E-03     68.1051E-03    -73.4234E+06    -56.2000E+06     2.78740E+06     563.555E+03    -237.057E-03     469.760E-03    -232.703E-03     193.823E-03    -243.926E-03     476.161E-03    -232.501E-03     165.413E-03
            1595     5.70596E-03     67.8592E-03    -82.6388E+06    -103.986E+06    -16.5606E+06     354.462E+03    -236.386E-03     469.108E-03    -232.723E-03     172.946E-03    -241.607E-03     473.715E-03    -232.535E-03     148.430E-03
            1596     4.99276E-03     67.6411E-03    -91.2601E+06    -144.413E+06    -34.8669E+06     228.438E+03    -235.815E-03     468.551E-03    -232.736E-03     151.892E-03    -239.680E-03     471.680E-03    -232.569E-03     131.035E-03
            1597     4.27933E-03     67.4490E-03    -99.4259E+06    -182.089E+06    -52.7505E+06     91.2484E+03    -235.146E-03     467.884E-03    -232.738E-03     130.404E-03    -237.902E-03     469.794E-03    -232.594E-03     113.011E-03
            1598     3.56592E-03     67.2880E-03    -107.288E+06    -213.235E+06    -70.6004E+06     213.541E+03    -234.497E-03     467.222E-03    -232.725E-03     109.056E-03    -236.373E-03     468.165E-03    -232.613E-03     94.9281E-03
            1599     2.85336E-03     67.1530E-03    -114.237E+06    -238.930E+06    -88.2837E+06     367.789E+03    -233.869E-03     466.571E-03    -232.702E-03     87.6716E-03    -235.064E-03     466.769E-03    -232.631E-03     76.6095E-03
            1600     2.13881E-03     67.0482E-03    -119.368E+06    -261.126E+06    -104.555E+06     305.416E+03    -233.214E-03     465.924E-03    -232.710E-03     66.0873E-03    -233.894E-03     465.557E-03    -232.681E-03     57.9267E-03
            1601     1.42620E-03     66.9730E-03    -123.399E+06    -284.082E+06    -116.025E+06     213.547E+03    -232.959E-03     465.734E-03    -232.775E-03     44.8140E-03    -233.281E-03     464.946E-03    -232.764E-03     39.3564E-03
            1602     713.434E-06     66.9282E-03    -126.216E+06    -298.345E+06    -124.028E+06     337.072E+03    -233.274E-03     465.731E-03    -232.457E-03     24.8248E-03    -233.384E-03     464.694E-03    -232.461E-03     21.9064E-03
            1603     13.5555E-03     69.7257E-03    -4.79818E+06     68.7233E+06     79.6937E+06    -374.365E+03    -231.527E-03     464.086E-03    -232.559E-03     143.074E-03    -239.124E-03     471.679E-03    -232.253E-03     114.998E-03
            1604     12.8426E-03     69.4699E-03    -8.70469E+06     69.1756E+06     80.5345E+06     1.25916E+06    -232.066E-03     464.624E-03    -232.558E-03     203.808E-03    -244.286E-03     476.825E-03    -232.243E-03     166.775E-03
            1605     12.1298E-03     69.2028E-03    -13.0231E+06     61.1585E+06     79.2461E+06     1.12364E+06    -232.361E-03     464.931E-03    -232.570E-03     222.574E-03    -246.392E-03     478.903E-03    -232.243E-03     182.846E-03
            1606     11.4159E-03     68.8922E-03    -18.5131E+06     56.2491E+06     78.7705E+06     850.896E+03    -233.560E-03     466.168E-03    -232.609E-03     249.802E-03    -249.916E-03     482.430E-03    -232.269E-03     206.607E-03
            1607     10.7015E-03     68.5545E-03    -26.4745E+06     49.8128E+06     75.4772E+06     1.42847E+06    -235.443E-03     468.095E-03    -232.652E-03     265.771E-03    -252.696E-03     485.212E-03    -232.308E-03     220.932E-03
            1608     9.98715E-03     68.1968E-03    -34.2926E+06     39.0434E+06     66.1898E+06     444.852E+03    -237.095E-03     469.758E-03    -232.663E-03     271.412E-03    -254.014E-03     486.502E-03    -232.339E-03     226.496E-03
            1609     9.27453E-03     67.8386E-03    -40.7707E+06     29.4160E+06     54.6888E+06    -421.089E+03    -237.896E-03     470.552E-03    -232.656E-03     266.407E-03    -253.349E-03     485.806E-03    -232.366E-03     223.175E-03
            1610     8.55991E-03     67.4928E-03    -48.1847E+06     21.0924E+06     43.5929E+06     220.407E+03    -238.051E-03     470.708E-03    -232.657E-03     252.882E-03    -251.352E-03     483.786E-03    -232.400E-03     212.709E-03
            1611     7.84664E-03     67.1689E-03    -56.7981E+06     7.35535E+06     32.0324E+06     541.102E+03    -238.027E-03     470.688E-03    -232.660E-03     234.511E-03    -249.003E-03     481.395E-03    -232.428E-03     198.080E-03
            1612     7.13350E-03     66.8690E-03    -65.4339E+06    -14.2305E+06     19.5584E+06     1.03623E+06    -237.645E-03     470.304E-03    -232.659E-03     214.390E-03    -246.448E-03     478.768E-03    -232.446E-03     181.969E-03
            1613     6.41984E-03     66.5964E-03    -74.1844E+06    -54.6274E+06     3.17140E+06     1.58373E+06    -236.974E-03     469.645E-03    -232.671E-03     193.543E-03    -243.841E-03     476.045E-03    -232.468E-03     165.175E-03
            1614     5.70639E-03     66.3513E-03    -82.8864E+06    -102.961E+06    -16.2741E+06     1.15663E+06    -236.476E-03     469.158E-03    -232.681E-03     172.806E-03    -241.701E-03     473.770E-03    -232.493E-03     148.281E-03
            1615     4.99295E-03     66.1314E-03    -91.1974E+06    -143.741E+06    -34.6690E+06     676.417E+03    -235.833E-03     468.511E-03    -232.678E-03     151.740E-03    -239.698E-03     471.643E-03    -232.511E-03     130.887E-03
            1616     4.27972E-03     65.9415E-03    -99.3762E+06    -181.723E+06    -52.4213E+06     613.047E+03    -235.066E-03     467.742E-03    -232.676E-03     130.345E-03    -237.818E-03     469.648E-03    -232.531E-03     112.985E-03
            1617     3.56635E-03     65.7788E-03    -107.093E+06    -213.045E+06    -70.4327E+06     381.898E+03    -234.444E-03     467.108E-03    -232.664E-03     109.228E-03    -236.321E-03     468.053E-03    -232.552E-03     95.1031E-03
            1618     2.85271E-03     65.6444E-03    -113.963E+06    -238.483E+06    -87.8781E+06     79.7069E+03    -233.699E-03     466.358E-03    -232.659E-03     87.7395E-03    -234.894E-03     466.556E-03    -232.587E-03     76.6914E-03
            1619     2.14030E-03     65.5411E-03    -120.000E+06    -261.381E+06    -103.977E+06     192.543E+03    -233.056E-03     465.769E-03    -232.713E-03     66.2242E-03    -233.741E-03     465.401E-03    -232.679E-03     58.0646E-03
            1620     1.42569E-03     65.4644E-03    -124.902E+06    -283.296E+06    -117.426E+06     163.059E+03    -232.930E-03     465.740E-03    -232.809E-03     44.7570E-03    -233.258E-03     464.958E-03    -232.804E-03     39.3207E-03
            1621     712.542E-06     65.4178E-03    -128.360E+06    -298.232E+06    -125.533E+06    -536.177E+03    -232.905E-03     465.823E-03    -232.918E-03     24.1922E-03    -233.021E-03     464.790E-03    -232.927E-03     21.2617E-03
            1622     13.5537E-03     68.2138E-03    -4.83964E+06     67.7643E+06     80.7705E+06    -398.525E+03    -231.709E-03     464.291E-03    -232.582E-03     140.628E-03    -239.250E-03     471.821E-03    -232.269E-03     112.553E-03
            1623     12.8426E-03     67.9558E-03    -8.85749E+06     66.7428E+06     80.9916E+06    -1.00020E+06    -231.853E-03     464.423E-03    -232.570E-03     202.191E-03    -244.038E-03     476.579E-03    -232.249E-03     165.129E-03
            1624     12.1297E-03     67.6959E-03    -13.5961E+06     60.3685E+06     78.7533E+06     197.135E+03    -232.009E-03     464.602E-03    -232.592E-03     223.824E-03    -246.066E-03     478.596E-03    -232.266E-03     184.157E-03
            1625     11.4143E-03     67.3848E-03    -19.9415E+06     54.7585E+06     77.8142E+06     1.71227E+06    -233.848E-03     466.491E-03    -232.643E-03     250.665E-03    -250.233E-03     482.774E-03    -232.305E-03     207.431E-03
            1626     10.7008E-03     67.0441E-03    -25.5971E+06     50.7977E+06     76.7241E+06     1.76853E+06    -235.748E-03     468.422E-03    -232.674E-03     265.311E-03    -252.990E-03     485.531E-03    -232.327E-03     220.415E-03
            1627     9.98839E-03     66.6884E-03    -31.3368E+06     42.3784E+06     68.7558E+06     1.21052E+06    -237.075E-03     469.748E-03    -232.673E-03     271.158E-03    -253.977E-03     486.490E-03    -232.345E-03     226.267E-03
            1628     9.27353E-03     66.3298E-03    -39.4891E+06     29.6465E+06     55.5516E+06     808.468E+03    -237.905E-03     470.569E-03    -232.664E-03     266.214E-03    -253.343E-03     485.812E-03    -232.372E-03     223.010E-03
            1629     8.56061E-03     65.9844E-03    -48.0694E+06     19.8682E+06     43.4988E+06     1.37610E+06    -238.318E-03     470.968E-03    -232.650E-03     252.537E-03    -251.608E-03     484.032E-03    -232.391E-03     212.334E-03
            1630     7.84706E-03     65.6592E-03    -56.5233E+06     7.86787E+06     32.2033E+06     2.13464E+06    -238.174E-03     470.802E-03    -232.628E-03     234.232E-03    -249.148E-03     481.510E-03    -232.396E-03     197.792E-03
            1631     7.13359E-03     65.3602E-03    -65.6914E+06    -13.7888E+06     19.5509E+06     1.93061E+06    -237.495E-03     470.115E-03    -232.621E-03     214.061E-03    -246.290E-03     478.572E-03    -232.408E-03     181.681E-03
            1632     6.42001E-03     65.0881E-03    -74.6041E+06    -54.0273E+06     3.15931E+06     1.52959E+06    -236.984E-03     469.617E-03    -232.633E-03     193.615E-03    -243.857E-03     476.025E-03    -232.431E-03     165.238E-03
            1633     5.70668E-03     64.8419E-03    -82.8720E+06    -101.603E+06    -15.6527E+06     1.26362E+06    -236.492E-03     469.131E-03    -232.639E-03     172.899E-03    -241.723E-03     473.752E-03    -232.449E-03     148.367E-03
            1634     4.99348E-03     64.6234E-03    -91.1350E+06    -142.744E+06    -34.2079E+06     999.210E+03    -235.709E-03     468.348E-03    -232.639E-03     151.861E-03    -239.576E-03     471.483E-03    -232.471E-03     131.034E-03
            1635     4.27974E-03     64.4331E-03    -99.0747E+06    -181.098E+06    -52.2589E+06     633.951E+03    -235.067E-03     467.709E-03    -232.642E-03     130.715E-03    -237.825E-03     469.624E-03    -232.497E-03     113.344E-03
            1636     3.56650E-03     64.2701E-03    -106.507E+06    -212.386E+06    -69.9989E+06     358.267E+03    -234.344E-03     466.982E-03    -232.638E-03     109.258E-03    -236.219E-03     467.928E-03    -232.525E-03     95.1533E-03
            1637     2.85316E-03     64.1372E-03    -113.449E+06    -238.160E+06    -87.3184E+06     347.532E+03    -233.696E-03     466.335E-03    -232.639E-03     87.5814E-03    -234.887E-03     466.531E-03    -232.566E-03     76.5405E-03
            1638     2.13863E-03     64.0320E-03    -119.643E+06    -261.571E+06    -103.764E+06     323.043E+03    -233.415E-03     466.025E-03    -232.610E-03     65.8409E-03    -234.096E-03     465.654E-03    -232.576E-03     57.6820E-03
            1639     1.42678E-03     63.9565E-03    -123.557E+06    -282.538E+06    -116.616E+06     145.455E+03    -233.035E-03     465.565E-03    -232.529E-03     44.2629E-03    -233.352E-03     464.778E-03    -232.524E-03     38.8674E-03
            1640     713.548E-06     63.9085E-03    -125.182E+06    -297.920E+06    -124.428E+06     55.0212E+03    -232.581E-03     465.071E-03    -232.490E-03     23.4785E-03    -232.682E-03     464.033E-03    -232.499E-03     20.5745E-03
            1641     13.5595E-03     66.7015E-03    -4.10132E+06     69.4844E+06     81.1232E+06    -150.526E+03    -230.773E-03     463.333E-03    -232.560E-03     141.883E-03    -238.323E-03     470.880E-03    -232.250E-03     113.984E-03
            1642     12.8434E-03     66.4522E-03    -9.71493E+06     66.3489E+06     78.9635E+06    -551.787E+03    -230.946E-03     463.551E-03    -232.604E-03     203.909E-03    -243.125E-03     475.701E-03    -232.292E-03     167.082E-03
            1643     12.1263E-03     66.1862E-03    -15.8096E+06     56.4064E+06     75.8654E+06     13.6151E+03    -232.622E-03     465.267E-03    -232.645E-03     223.602E-03    -246.682E-03     479.251E-03    -232.325E-03     183.806E-03
            1644     11.4148E-03     65.8744E-03    -20.6067E+06     54.9093E+06     76.9666E+06    -151.379E+03    -234.364E-03     467.023E-03    -232.658E-03     249.699E-03    -250.761E-03     483.318E-03    -232.323E-03     206.265E-03
            1645     10.7021E-03     65.5351E-03    -26.1950E+06     50.4044E+06     75.7468E+06    -878.808E+03    -235.677E-03     468.345E-03    -232.667E-03     264.974E-03    -252.911E-03     485.445E-03    -232.324E-03     220.053E-03
            1646     9.98694E-03     65.1798E-03    -33.5921E+06     40.0618E+06     66.5448E+06     284.172E+03    -237.111E-03     469.775E-03    -232.664E-03     271.013E-03    -254.012E-03     486.506E-03    -232.340E-03     226.105E-03
            1647     9.27435E-03     64.8205E-03    -40.8797E+06     29.5849E+06     54.4095E+06     2.03983E+06    -238.167E-03     470.807E-03    -232.639E-03     265.811E-03    -253.600E-03     486.041E-03    -232.351E-03     222.578E-03
            1648     8.56052E-03     64.4752E-03    -48.6500E+06     19.1647E+06     43.2620E+06     2.48755E+06    -238.427E-03     471.035E-03    -232.608E-03     252.268E-03    -251.711E-03     484.089E-03    -232.349E-03     212.065E-03
            1649     7.84753E-03     64.1495E-03    -57.0026E+06     8.32864E+06     32.8126E+06     2.73057E+06    -237.985E-03     470.571E-03    -232.586E-03     234.024E-03    -248.952E-03     481.270E-03    -232.351E-03     197.635E-03
            1650     7.13400E-03     63.8523E-03    -65.3108E+06    -11.8015E+06     20.3514E+06     2.51509E+06    -237.401E-03     469.985E-03    -232.584E-03     213.947E-03    -246.191E-03     478.442E-03    -232.370E-03     181.604E-03
            1651     6.42027E-03     63.5792E-03    -73.8029E+06    -52.7137E+06     3.78283E+06     1.52073E+06    -236.934E-03     469.534E-03    -232.600E-03     193.740E-03    -243.808E-03     475.948E-03    -232.397E-03     165.365E-03
            1652     5.70692E-03     63.3332E-03    -82.1896E+06    -100.925E+06    -15.0402E+06     1.20272E+06    -236.302E-03     468.922E-03    -232.620E-03     172.930E-03    -241.524E-03     473.537E-03    -232.430E-03     148.450E-03
            1653     4.99299E-03     63.1156E-03    -90.1065E+06    -141.746E+06    -33.2664E+06     1.01207E+06    -235.676E-03     468.312E-03    -232.636E-03     151.982E-03    -239.540E-03     471.448E-03    -232.466E-03     131.164E-03
            1654     4.27979E-03     62.9241E-03    -98.0373E+06    -180.312E+06    -51.3603E+06     709.618E+03    -235.067E-03     467.710E-03    -232.643E-03     130.805E-03    -237.825E-03     469.628E-03    -232.496E-03     113.434E-03
            1655     3.56637E-03     62.7622E-03    -105.690E+06    -211.956E+06    -69.0322E+06     678.785E+03    -234.488E-03     467.111E-03    -232.624E-03     109.093E-03    -236.360E-03     468.056E-03    -232.508E-03     94.9793E-03
            1656     2.85277E-03     62.6289E-03    -112.556E+06    -237.953E+06    -86.6923E+06     558.232E+03    -234.004E-03     466.560E-03    -232.556E-03     87.3724E-03    -235.192E-03     466.755E-03    -232.481E-03     76.3198E-03
            1657     2.14112E-03     62.5233E-03    -117.846E+06    -260.461E+06    -103.299E+06     62.9985E+03    -233.482E-03     465.916E-03    -232.434E-03     65.8309E-03    -234.155E-03     465.545E-03    -232.402E-03     57.6790E-03
            1658     1.42708E-03     62.4482E-03    -121.818E+06    -282.505E+06    -115.298E+06    -173.725E+03    -232.881E-03     465.186E-03    -232.305E-03     44.5050E-03    -233.194E-03     464.398E-03    -232.295E-03     39.0937E-03
            1659     713.704E-06     62.4021E-03    -124.558E+06    -298.073E+06    -122.127E+06     164.632E+03    -231.783E-03     464.605E-03    -232.822E-03     24.5698E-03    -231.886E-03     463.564E-03    -232.820E-03     21.6534E-03
            1660     13.5527E-03     65.1997E-03    -4.63222E+06     70.2423E+06     79.6851E+06     815.121E+03    -230.498E-03     463.112E-03    -232.614E-03     143.034E-03    -238.051E-03     470.667E-03    -232.310E-03     115.135E-03
            1661     12.8379E-03     64.9387E-03    -9.76020E+06     67.6156E+06     78.4855E+06     579.569E+03    -232.014E-03     464.650E-03    -232.636E-03     202.210E-03    -244.164E-03     476.777E-03    -232.327E-03     165.213E-03
            1662     12.1295E-03     64.6770E-03    -14.1229E+06     55.8738E+06     76.6083E+06    -484.587E+03    -232.859E-03     465.494E-03    -232.635E-03     222.122E-03    -246.884E-03     479.445E-03    -232.313E-03     182.235E-03
            1663     11.4153E-03     64.3639E-03    -19.9832E+06     56.0220E+06     77.1520E+06    -644.456E+03    -234.032E-03     466.674E-03    -232.642E-03     249.538E-03    -250.400E-03     482.946E-03    -232.308E-03     206.200E-03
            1664     10.7006E-03     64.0274E-03    -27.4699E+06     50.1242E+06     74.2861E+06    -294.745E+03    -235.762E-03     468.416E-03    -232.654E-03     264.900E-03    -253.007E-03     485.526E-03    -232.315E-03     219.959E-03
            1665     9.98843E-03     63.6697E-03    -34.8352E+06     36.7026E+06     64.8396E+06     294.724E+03    -237.467E-03     470.100E-03    -232.633E-03     270.562E-03    -254.361E-03     486.812E-03    -232.311E-03     225.581E-03
            1666     9.27446E-03     63.3122E-03    -42.1258E+06     27.1307E+06     53.3016E+06     1.05841E+06    -238.303E-03     470.887E-03    -232.584E-03     265.475E-03    -253.721E-03     486.098E-03    -232.296E-03     222.213E-03
            1667     8.56171E-03     62.9651E-03    -49.3885E+06     18.3933E+06     42.4435E+06     2.09120E+06    -238.176E-03     470.724E-03    -232.548E-03     251.970E-03    -251.445E-03     483.760E-03    -232.291E-03     211.818E-03
            1668     7.84777E-03     62.6422E-03    -56.6616E+06     8.72718E+06     32.5762E+06     2.45658E+06    -237.679E-03     470.224E-03    -232.545E-03     234.034E-03    -248.633E-03     480.914E-03    -232.313E-03     197.712E-03
            1669     7.13386E-03     62.3429E-03    -64.2535E+06    -10.4699E+06     21.1617E+06     2.04900E+06    -237.378E-03     469.939E-03    -232.561E-03     214.254E-03    -246.167E-03     478.401E-03    -232.347E-03     181.920E-03
            1670     6.42071E-03     62.0710E-03    -72.4027E+06    -51.0244E+06     5.02682E+06     1.92956E+06    -236.875E-03     469.458E-03    -232.584E-03     193.691E-03    -243.737E-03     475.868E-03    -232.379E-03     165.357E-03
            1671     5.70655E-03     61.8253E-03    -80.8563E+06    -99.8991E+06    -14.2843E+06     1.43719E+06    -236.255E-03     468.862E-03    -232.607E-03     172.846E-03    -241.468E-03     473.475E-03    -232.417E-03     148.384E-03
            1672     4.99338E-03     61.6067E-03    -89.2872E+06    -141.198E+06    -32.4975E+06     986.768E+03    -235.730E-03     468.350E-03    -232.620E-03     151.746E-03    -239.587E-03     471.483E-03    -232.448E-03     130.930E-03
            1673     4.27979E-03     61.4161E-03    -97.3075E+06    -179.641E+06    -50.1811E+06     998.996E+03    -235.128E-03     467.741E-03    -232.612E-03     130.353E-03    -237.875E-03     469.650E-03    -232.462E-03     113.000E-03
            1674     3.56635E-03     61.2536E-03    -104.786E+06    -211.475E+06    -68.0711E+06     766.860E+03    -234.477E-03     467.054E-03    -232.577E-03     108.904E-03    -236.342E-03     467.993E-03    -232.459E-03     94.8026E-03
            1675     2.85411E-03     61.1194E-03    -111.611E+06    -236.890E+06    -85.5368E+06     436.531E+03    -233.816E-03     466.343E-03    -232.527E-03     87.8098E-03    -235.004E-03     466.542E-03    -232.449E-03     76.7726E-03
            1676     2.13950E-03     61.0161E-03    -117.648E+06    -259.764E+06    -102.054E+06     233.798E+03    -233.170E-03     465.667E-03    -232.497E-03     66.7229E-03    -233.850E-03     465.304E-03    -232.460E-03     58.5677E-03
            1677     1.42674E-03     60.9400E-03    -122.199E+06    -282.808E+06    -114.914E+06     116.185E+03    -232.741E-03     465.268E-03    -232.527E-03     45.1432E-03    -233.061E-03     464.484E-03    -232.515E-03     39.7036E-03
            1678     713.131E-06     60.8960E-03    -125.228E+06    -297.774E+06    -123.366E+06     145.755E+03    -232.625E-03     465.223E-03    -232.598E-03     24.0114E-03    -232.730E-03     464.187E-03    -232.602E-03     21.0891E-03
            1679     13.5548E-03     63.6827E-03    -4.52410E+06     68.9100E+06     80.2741E+06     211.806E+03    -231.731E-03     464.338E-03    -232.607E-03     140.049E-03    -239.220E-03     471.823E-03    -232.299E-03     112.070E-03
            1680     12.8464E-03     63.4326E-03    -7.75474E+06     68.2444E+06     80.2825E+06     395.538E+03    -231.838E-03     464.431E-03    -232.593E-03     201.532E-03    -243.954E-03     476.529E-03    -232.280E-03     164.574E-03
            1681     12.1282E-03     63.1661E-03    -12.8441E+06     57.7857E+06     76.7887E+06     522.693E+03    -232.470E-03     465.070E-03    -232.600E-03     222.975E-03    -246.494E-03     479.031E-03    -232.281E-03     183.202E-03
            1682     11.4145E-03     62.8574E-03    -19.2104E+06     55.1959E+06     76.1859E+06     847.879E+03    -234.133E-03     466.748E-03    -232.616E-03     249.177E-03    -250.467E-03     482.990E-03    -232.287E-03     205.872E-03
            1683     10.7020E-03     62.5159E-03    -25.2501E+06     49.6092E+06     74.6594E+06     1.82427E+06    -235.942E-03     468.560E-03    -232.618E-03     264.305E-03    -253.152E-03     485.639E-03    -232.280E-03     219.365E-03
            1684     9.98818E-03     62.1613E-03    -32.6892E+06     37.3792E+06     65.7189E+06     2.16074E+06    -237.516E-03     470.100E-03    -232.584E-03     270.410E-03    -254.393E-03     486.802E-03    -232.262E-03     225.452E-03
            1685     9.27565E-03     61.8018E-03    -40.2106E+06     27.3728E+06     54.5920E+06     1.86171E+06    -238.111E-03     470.654E-03    -232.543E-03     265.700E-03    -253.517E-03     485.856E-03    -232.251E-03     222.513E-03
            1686     8.56178E-03     61.4574E-03    -46.9456E+06     17.2013E+06     43.9219E+06     1.60368E+06    -238.001E-03     470.528E-03    -232.527E-03     252.374E-03    -251.253E-03     483.547E-03    -232.264E-03     212.297E-03
            1687     7.84782E-03     61.1341E-03    -53.7833E+06     7.75741E+06     33.9900E+06     2.28266E+06    -237.793E-03     470.323E-03    -232.530E-03     234.283E-03    -248.729E-03     480.997E-03    -232.293E-03     197.982E-03
            1688     7.13427E-03     60.8344E-03    -62.1255E+06    -9.14676E+06     22.8117E+06     3.39278E+06    -237.317E-03     469.861E-03    -232.544E-03     214.115E-03    -246.088E-03     478.312E-03    -232.327E-03     181.838E-03
            1689     6.42017E-03     60.5624E-03    -71.5582E+06    -48.7537E+06     6.34630E+06     2.74236E+06    -236.828E-03     469.396E-03    -232.568E-03     193.420E-03    -243.682E-03     475.804E-03    -232.362E-03     165.119E-03
            1690     5.70720E-03     60.3171E-03    -80.4702E+06    -98.2134E+06    -13.3292E+06     1.60188E+06    -236.391E-03     468.970E-03    -232.580E-03     172.723E-03    -241.606E-03     473.590E-03    -232.387E-03     148.240E-03
            1691     4.99341E-03     60.0983E-03    -88.7052E+06    -140.327E+06    -31.7427E+06     1.16117E+06    -235.823E-03     468.393E-03    -232.570E-03     151.665E-03    -239.676E-03     471.525E-03    -232.397E-03     130.856E-03
            1692     4.28030E-03     59.9076E-03    -96.4369E+06    -179.165E+06    -49.2204E+06     873.334E+03    -235.120E-03     467.668E-03    -232.549E-03     130.278E-03    -237.861E-03     469.573E-03    -232.395E-03     112.937E-03
            1693     3.56737E-03     59.7452E-03    -103.781E+06    -210.400E+06    -66.9832E+06     678.766E+03    -234.214E-03     466.744E-03    -232.530E-03     108.918E-03    -236.074E-03     467.683E-03    -232.409E-03     94.8576E-03
            1694     2.85237E-03     59.6126E-03    -110.824E+06    -236.204E+06    -84.7106E+06     397.737E+03    -233.452E-03     466.001E-03    -232.549E-03     87.5730E-03    -234.634E-03     466.197E-03    -232.469E-03     76.5593E-03
            1695     2.13987E-03     59.5071E-03    -116.679E+06    -259.446E+06    -101.019E+06     490.314E+03    -232.979E-03     465.592E-03    -232.613E-03     65.9418E-03    -233.653E-03     465.224E-03    -232.573E-03     57.7961E-03
            1696     1.42570E-03     59.4331E-03    -120.981E+06    -282.851E+06    -113.594E+06     404.424E+03    -232.813E-03     465.527E-03    -232.714E-03     44.5321E-03    -233.124E-03     464.734E-03    -232.696E-03     39.1097E-03
            1697     712.855E-06     59.3852E-03    -123.674E+06    -297.169E+06    -121.408E+06     112.805E+03    -233.518E-03     465.647E-03    -232.129E-03     24.4146E-03    -233.617E-03     464.610E-03    -232.126E-03     21.4908E-03
            1698     13.5590E-03     62.1786E-03    -4.51052E+06     69.1067E+06     80.4205E+06    -273.501E+03    -231.039E-03     463.604E-03    -232.565E-03     141.795E-03    -238.581E-03     471.142E-03    -232.257E-03     113.890E-03
            1699     12.8385E-03     61.9210E-03    -10.3500E+06     66.4507E+06     77.6425E+06    -310.059E+03    -231.595E-03     464.174E-03    -232.579E-03     203.757E-03    -243.803E-03     476.356E-03    -232.272E-03     166.765E-03
            1700     12.1287E-03     61.6586E-03    -15.3908E+06     57.5389E+06     74.7361E+06    -554.145E+03    -232.969E-03     465.550E-03    -232.581E-03     222.497E-03    -247.004E-03     479.518E-03    -232.269E-03     182.617E-03
            1701     11.4162E-03     61.3455E-03    -19.9328E+06     52.3904E+06     75.2575E+06     373.574E+03    -234.363E-03     466.938E-03    -232.575E-03     248.810E-03    -250.692E-03     483.164E-03    -232.246E-03     205.437E-03
            1702     10.7024E-03     61.0089E-03    -26.7898E+06     47.7095E+06     73.6219E+06     2.18416E+06    -235.931E-03     468.498E-03    -232.567E-03     264.586E-03    -253.131E-03     485.559E-03    -232.229E-03     219.690E-03
            1703     9.98921E-03     60.6507E-03    -33.8826E+06     38.9220E+06     65.2669E+06     2.03837E+06    -237.153E-03     469.699E-03    -232.545E-03     270.614E-03    -254.018E-03     486.392E-03    -232.226E-03     225.765E-03
            1704     9.27520E-03     60.2937E-03    -40.6431E+06     27.5514E+06     53.4021E+06     1.45617E+06    -237.781E-03     470.309E-03    -232.528E-03     265.790E-03    -253.182E-03     485.510E-03    -232.242E-03     222.674E-03
            1705     8.56103E-03     59.9493E-03    -48.5219E+06     18.3490E+06     41.8839E+06     1.02183E+06    -238.141E-03     470.656E-03    -232.515E-03     252.287E-03    -251.397E-03     483.684E-03    -232.262E-03     212.174E-03
            1706     7.84799E-03     59.6241E-03    -57.2958E+06     5.58557E+06     31.3754E+06     756.863E+03    -237.923E-03     470.429E-03    -232.506E-03     233.877E-03    -248.857E-03     481.089E-03    -232.274E-03     197.538E-03
            1707     7.13444E-03     59.3271E-03    -65.4379E+06    -10.6546E+06     21.4916E+06     1.08111E+06    -237.304E-03     469.817E-03    -232.513E-03     213.966E-03    -246.083E-03     478.263E-03    -232.295E-03     181.662E-03
            1708     6.42094E-03     59.0538E-03    -72.6713E+06    -46.9597E+06     6.71278E+06     1.44036E+06    -236.866E-03     469.395E-03    -232.529E-03     193.412E-03    -243.726E-03     475.812E-03    -232.322E-03     165.097E-03
            1709     5.70700E-03     58.8086E-03    -80.2696E+06    -97.0664E+06    -12.5343E+06     1.24003E+06    -236.473E-03     469.001E-03    -232.528E-03     172.472E-03    -241.677E-03     473.613E-03    -232.334E-03     148.010E-03
            1710     4.99398E-03     58.5899E-03    -88.0645E+06    -139.482E+06    -30.9467E+06     857.902E+03    -235.778E-03     468.285E-03    -232.507E-03     151.484E-03    -239.625E-03     471.414E-03    -232.332E-03     130.683E-03
            1711     4.28055E-03     58.3992E-03    -95.7747E+06    -178.550E+06    -48.7758E+06     623.707E+03    -234.888E-03     467.384E-03    -232.495E-03     130.170E-03    -237.625E-03     469.288E-03    -232.341E-03     112.853E-03
            1712     3.56633E-03     58.2381E-03    -103.463E+06    -209.971E+06    -66.6917E+06     556.453E+03    -234.192E-03     466.679E-03    -232.487E-03     108.712E-03    -236.050E-03     467.618E-03    -232.366E-03     94.6445E-03
            1713     2.85423E-03     58.1044E-03    -110.255E+06    -235.749E+06    -84.4040E+06     515.825E+03    -233.606E-03     466.076E-03    -232.470E-03     87.1296E-03    -234.785E-03     466.272E-03    -232.390E-03     76.1051E-03
            1714     2.13969E-03     58.0002E-03    -115.884E+06    -258.869E+06    -100.796E+06     124.378E+03    -233.092E-03     465.545E-03    -232.453E-03     65.4694E-03    -233.760E-03     465.175E-03    -232.414E-03     57.3183E-03
            1715     1.42692E-03     57.9243E-03    -120.365E+06    -282.394E+06    -113.201E+06     68.3143E+03    -232.822E-03     465.254E-03    -232.432E-03     44.0773E-03    -233.129E-03     464.459E-03    -232.414E-03     38.6752E-03
            1716     713.422E-06     57.8772E-03    -123.453E+06    -296.961E+06    -120.771E+06     162.860E+03    -232.415E-03     464.925E-03    -232.510E-03     23.7407E-03    -232.511E-03     463.885E-03    -232.504E-03     20.8542E-03
            1717     13.5517E-03     60.6694E-03    -4.03860E+06     69.0493E+06     79.3898E+06     1.11051E+06    -231.505E-03     464.094E-03    -232.589E-03     141.904E-03    -239.066E-03     471.655E-03    -232.286E-03     113.867E-03
            1718     12.8445E-03     60.4123E-03    -8.29048E+06     68.3100E+06     78.9355E+06     461.033E+03    -232.409E-03     464.975E-03    -232.566E-03     201.918E-03    -244.593E-03     477.143E-03    -232.258E-03     164.736E-03
            1719     12.1297E-03     60.1465E-03    -14.1068E+06     57.8609E+06     76.1298E+06     69.9915E+03    -232.778E-03     465.323E-03    -232.545E-03     221.781E-03    -246.755E-03     479.235E-03    -232.228E-03     181.973E-03
            1720     11.4157E-03     59.8383E-03    -21.4048E+06     49.0869E+06     74.5042E+06     541.721E+03    -234.173E-03     466.722E-03    -232.549E-03     249.324E-03    -250.498E-03     482.930E-03    -232.217E-03     206.027E-03
            1721     10.7025E-03     59.4977E-03    -27.3615E+06     45.5919E+06     73.2587E+06     973.142E+03    -235.820E-03     468.374E-03    -232.554E-03     265.085E-03    -253.042E-03     485.448E-03    -232.214E-03     220.190E-03
            1722     9.98915E-03     59.1430E-03    -33.1003E+06     39.5690E+06     66.0873E+06     1.78234E+06    -237.044E-03     469.585E-03    -232.542E-03     270.615E-03    -253.902E-03     486.275E-03    -232.220E-03     225.799E-03
            1723     9.27485E-03     58.7861E-03    -40.2998E+06     28.8831E+06     54.4654E+06     1.64505E+06    -237.988E-03     470.508E-03    -232.520E-03     265.577E-03    -253.379E-03     485.701E-03    -232.231E-03     222.441E-03
            1724     8.56219E-03     58.4390E-03    -47.7393E+06     19.0460E+06     43.1594E+06     1.75098E+06    -238.197E-03     470.690E-03    -232.493E-03     251.817E-03    -251.429E-03     483.695E-03    -232.236E-03     211.731E-03
            1725     7.84846E-03     58.1171E-03    -55.0184E+06     7.06273E+06     32.9193E+06     1.66988E+06    -237.786E-03     470.268E-03    -232.482E-03     233.817E-03    -248.705E-03     480.921E-03    -232.247E-03     197.529E-03
            1726     7.13456E-03     57.8178E-03    -62.7134E+06    -10.4198E+06     22.5133E+06     399.714E+03    -237.502E-03     469.984E-03    -232.482E-03     214.057E-03    -246.273E-03     478.430E-03    -232.263E-03     181.717E-03
            1727     6.42094E-03     57.5460E-03    -70.9225E+06    -47.9854E+06     7.31106E+06     72.5131E+03    -237.089E-03     469.562E-03    -232.473E-03     193.233E-03    -243.933E-03     475.963E-03    -232.264E-03     164.886E-03
            1728     5.70789E-03     57.2997E-03    -79.1432E+06    -96.6512E+06    -11.6966E+06     712.248E+03    -236.449E-03     468.900E-03    -232.451E-03     172.276E-03    -241.646E-03     473.507E-03    -232.255E-03     147.814E-03
            1729     4.99438E-03     57.0818E-03    -87.3360E+06    -138.970E+06    -30.3474E+06     870.854E+03    -235.603E-03     468.032E-03    -232.428E-03     151.086E-03    -239.441E-03     471.154E-03    -232.252E-03     130.313E-03
            1730     4.28049E-03     56.8920E-03    -95.3990E+06    -177.999E+06    -48.5824E+06     855.269E+03    -234.808E-03     467.226E-03    -232.417E-03     129.785E-03    -237.539E-03     469.127E-03    -232.264E-03     112.480E-03
            1731     3.56766E-03     56.7298E-03    -103.033E+06    -209.745E+06    -66.6235E+06     725.734E+03    -234.229E-03     466.620E-03    -232.392E-03     108.457E-03    -236.084E-03     467.559E-03    -232.271E-03     94.3845E-03
            1732     2.85317E-03     56.5964E-03    -109.881E+06    -235.135E+06    -84.0712E+06     565.220E+03    -233.688E-03     466.020E-03    -232.332E-03     86.9995E-03    -234.865E-03     466.216E-03    -232.252E-03     75.9783E-03
            1733     2.14097E-03     56.4927E-03    -115.623E+06    -258.050E+06    -100.719E+06     230.905E+03    -233.158E-03     465.398E-03    -232.240E-03     65.7004E-03    -233.826E-03     465.032E-03    -232.202E-03     57.5585E-03
            1734     1.42719E-03     56.4164E-03    -119.884E+06    -281.978E+06    -113.050E+06    -191.984E+03    -232.618E-03     464.781E-03    -232.163E-03     44.5793E-03    -232.925E-03     463.990E-03    -232.146E-03     39.1670E-03
            1735     713.956E-06     56.3708E-03    -122.556E+06    -296.884E+06    -120.744E+06     329.805E+03    -232.176E-03     464.373E-03    -232.197E-03     24.0425E-03    -232.271E-03     463.332E-03    -232.192E-03     21.1856E-03
            1736     13.5585E-03     59.1553E-03    -4.75620E+06     68.1217E+06     78.3368E+06    -386.213E+03    -231.989E-03     464.561E-03    -232.572E-03     141.095E-03    -239.524E-03     472.094E-03    -232.273E-03     113.019E-03
            1737     12.8424E-03     58.9016E-03    -8.44981E+06     67.7903E+06     78.6462E+06     1.50254E+06    -232.326E-03     464.871E-03    -232.545E-03     202.989E-03    -244.502E-03     477.030E-03    -232.238E-03     165.919E-03
            1738     12.1295E-03     58.6392E-03    -13.2506E+06     57.9812E+06     76.7373E+06     2.94516E+06    -232.697E-03     465.236E-03    -232.539E-03     222.815E-03    -246.704E-03     479.179E-03    -232.220E-03     183.077E-03
            1739     11.4161E-03     58.3282E-03    -18.6432E+06     51.6950E+06     76.2519E+06     2.07885E+06    -234.196E-03     466.745E-03    -232.549E-03     249.520E-03    -250.526E-03     482.971E-03    -232.215E-03     206.241E-03
            1740     10.7026E-03     57.9890E-03    -24.9859E+06     44.6818E+06     74.0667E+06     670.740E+03    -235.702E-03     468.259E-03    -232.557E-03     264.678E-03    -252.890E-03     485.302E-03    -232.215E-03     219.821E-03
            1741     9.98835E-03     57.6344E-03    -31.7296E+06     37.9982E+06     66.7340E+06     1.15403E+06    -237.243E-03     469.784E-03    -232.540E-03     270.312E-03    -254.078E-03     486.447E-03    -232.216E-03     225.469E-03
            1742     9.27606E-03     57.2759E-03    -38.1641E+06     30.0225E+06     56.4706E+06     1.98344E+06    -238.186E-03     470.691E-03    -232.505E-03     265.585E-03    -253.562E-03     485.874E-03    -232.210E-03     222.443E-03
            1743     8.56206E-03     56.9313E-03    -44.6654E+06     18.2425E+06     45.5154E+06     2.08382E+06    -238.101E-03     470.579E-03    -232.479E-03     251.959E-03    -251.308E-03     483.561E-03    -232.213E-03     211.936E-03
            1744     7.84802E-03     56.6085E-03    -51.7172E+06     8.27623E+06     35.5342E+06     1.93464E+06    -238.042E-03     470.501E-03    -232.459E-03     233.822E-03    -248.950E-03     481.151E-03    -232.218E-03     197.511E-03
            1745     7.13477E-03     56.3090E-03    -59.9177E+06    -7.49552E+06     24.7951E+06     1.80126E+06    -237.746E-03     470.170E-03    -232.425E-03     213.411E-03    -246.490E-03     478.603E-03    -232.203E-03     181.081E-03
            1746     6.42185E-03     56.0371E-03    -69.1717E+06    -47.5398E+06     8.16071E+06     1.26366E+06    -237.110E-03     469.496E-03    -232.386E-03     192.705E-03    -243.936E-03     475.885E-03    -232.176E-03     164.374E-03
            1747     5.70826E-03     55.7917E-03    -78.3020E+06    -97.0207E+06    -11.5186E+06     1.08688E+06    -236.317E-03     468.671E-03    -232.354E-03     171.931E-03    -241.507E-03     473.273E-03    -232.158E-03     147.478E-03
            1748     4.99464E-03     55.5741E-03    -86.8571E+06    -138.363E+06    -30.0506E+06     1.38508E+06    -235.489E-03     467.820E-03    -232.331E-03     150.804E-03    -239.320E-03     470.938E-03    -232.155E-03     130.062E-03
            1749     4.28151E-03     55.3843E-03    -95.0224E+06    -177.302E+06    -48.2731E+06     1.16706E+06    -234.824E-03     467.133E-03    -232.309E-03     129.737E-03    -237.554E-03     469.036E-03    -232.155E-03     112.438E-03
            1750     3.56739E-03     55.2223E-03    -102.679E+06    -208.861E+06    -66.3617E+06     916.239E+03    -234.135E-03     466.405E-03    -232.270E-03     108.519E-03    -235.989E-03     467.345E-03    -232.150E-03     94.4729E-03
            1751     2.85490E-03     55.0892E-03    -109.619E+06    -234.466E+06    -84.1553E+06     654.687E+03    -233.517E-03     465.732E-03    -232.215E-03     87.1177E-03    -234.691E-03     465.929E-03    -232.137E-03     76.1267E-03
            1752     2.14045E-03     54.9847E-03    -115.220E+06    -257.163E+06    -100.410E+06     492.627E+03    -232.953E-03     465.108E-03    -232.154E-03     65.7686E-03    -233.619E-03     464.743E-03    -232.117E-03     57.6606E-03
            1753     1.42722E-03     54.9104E-03    -119.375E+06    -281.480E+06    -113.146E+06     330.530E+03    -232.419E-03     464.560E-03    -232.141E-03     44.5011E-03    -232.724E-03     463.771E-03    -232.126E-03     39.1045E-03
            1754     712.925E-06     54.8638E-03    -122.286E+06    -297.172E+06    -120.143E+06    -171.932E+03    -232.461E-03     464.428E-03    -231.967E-03     24.4488E-03    -232.556E-03     463.385E-03    -231.959E-03     21.5452E-03
            1755     13.5538E-03     57.6476E-03    -3.96604E+06     67.2763E+06     78.8225E+06     200.498E+03    -231.181E-03     463.701E-03    -232.520E-03     140.542E-03    -238.651E-03     471.167E-03    -232.217E-03     112.679E-03
            1756     12.8420E-03     57.3909E-03    -10.0900E+06     63.5723E+06     76.4560E+06     801.554E+03    -231.299E-03     463.833E-03    -232.534E-03     201.767E-03    -243.392E-03     475.894E-03    -232.229E-03     164.932E-03
            1757     12.1290E-03     57.1288E-03    -14.7816E+06     56.7662E+06     74.4575E+06     726.844E+03    -232.745E-03     465.290E-03    -232.545E-03     222.131E-03    -246.750E-03     479.228E-03    -232.233E-03     182.314E-03
            1758     11.4160E-03     56.8188E-03    -19.1056E+06     53.7189E+06     75.3621E+06     781.045E+03    -234.311E-03     466.858E-03    -232.546E-03     249.322E-03    -250.639E-03     483.090E-03    -232.220E-03     205.994E-03
            1759     10.7024E-03     56.4800E-03    -25.0140E+06     45.3632E+06     73.6786E+06     1.10162E+06    -235.830E-03     468.379E-03    -232.549E-03     264.420E-03    -252.987E-03     485.395E-03    -232.210E-03     219.590E-03
            1760     9.98964E-03     56.1258E-03    -32.0137E+06     37.4614E+06     66.4966E+06     606.705E+03    -237.335E-03     469.865E-03    -232.530E-03     270.576E-03    -254.160E-03     486.516E-03    -232.205E-03     225.747E-03
            1761     9.27536E-03     55.7659E-03    -39.1716E+06     28.5976E+06     56.1722E+06     195.921E+03    -238.097E-03     470.595E-03    -232.498E-03     265.503E-03    -253.461E-03     485.758E-03    -232.201E-03     222.385E-03
            1762     8.56179E-03     55.4242E-03    -46.3249E+06     16.8402E+06     44.5856E+06     239.312E+03    -238.511E-03     470.961E-03    -232.450E-03     251.530E-03    -251.724E-03     483.940E-03    -232.185E-03     211.391E-03
            1763     7.84894E-03     55.0980E-03    -53.8512E+06     7.86260E+06     34.4263E+06     479.370E+03    -238.413E-03     470.793E-03    -232.380E-03     233.001E-03    -249.314E-03     481.431E-03    -232.141E-03     196.605E-03
            1764     7.13622E-03     54.8010E-03    -61.8718E+06    -7.93920E+06     23.8269E+06     1.04052E+06    -237.697E-03     470.010E-03    -232.313E-03     212.839E-03    -246.435E-03     478.431E-03    -232.092E-03     180.504E-03
            1765     6.42230E-03     54.5284E-03    -70.2564E+06    -46.8006E+06     7.86474E+06     1.94890E+06    -236.899E-03     469.169E-03    -232.270E-03     192.294E-03    -243.722E-03     475.553E-03    -232.061E-03     164.009E-03
            1766     5.70904E-03     54.2841E-03    -79.1049E+06    -95.9702E+06    -11.9661E+06     1.94306E+06    -236.075E-03     468.321E-03    -232.245E-03     171.566E-03    -241.253E-03     472.912E-03    -232.051E-03     147.194E-03
            1767     4.99545E-03     54.0667E-03    -87.6112E+06    -137.502E+06    -30.3875E+06     1.24358E+06    -235.377E-03     467.608E-03    -232.231E-03     150.884E-03    -239.210E-03     470.730E-03    -232.056E-03     130.164E-03
            1768     4.28144E-03     53.8767E-03    -95.5386E+06    -176.358E+06    -48.1382E+06     902.375E+03    -234.751E-03     466.961E-03    -232.210E-03     129.802E-03    -237.482E-03     468.866E-03    -232.057E-03     112.529E-03
            1769     3.56845E-03     53.7153E-03    -102.935E+06    -208.097E+06    -66.2947E+06     676.494E+03    -234.067E-03     466.233E-03    -232.166E-03     108.451E-03    -235.919E-03     467.173E-03    -232.046E-03     94.4313E-03
            1770     2.85382E-03     53.5818E-03    -109.533E+06    -233.819E+06    -84.0285E+06     444.054E+03    -233.326E-03     465.445E-03    -232.119E-03     86.9758E-03    -234.498E-03     465.641E-03    -232.041E-03     76.0105E-03
            1771     2.14103E-03     53.4782E-03    -115.169E+06    -257.116E+06    -100.615E+06     425.263E+03    -232.761E-03     464.848E-03    -232.088E-03     65.5077E-03    -233.425E-03     464.482E-03    -232.051E-03     57.4063E-03
            1772     1.42700E-03     53.4032E-03    -118.694E+06    -280.514E+06    -111.987E+06     485.078E+03    -232.487E-03     464.544E-03    -232.057E-03     44.1092E-03    -232.791E-03     463.756E-03    -232.038E-03     38.7113E-03
            1773     714.131E-06     53.3575E-03    -121.410E+06      -296.5E+06    -119.659E+06    -38.9738E+03    -232.743E-03     464.164E-03    -231.421E-03     23.8758E-03    -232.835E-03     463.121E-03    -231.413E-03     20.9618E-03
            1774     13.5609E-03     56.1429E-03    -3.29366E+06     65.6845E+06     79.2530E+06     734.255E+03    -231.682E-03     464.219E-03    -232.537E-03     141.376E-03    -239.233E-03     471.761E-03    -232.231E-03     113.360E-03
            1775     12.8441E-03     55.8837E-03    -6.89926E+06     65.0739E+06     79.3880E+06     1.29029E+06    -231.728E-03     464.265E-03    -232.537E-03     203.803E-03    -243.905E-03     476.418E-03    -232.225E-03     166.852E-03
            1776     12.1293E-03     55.6203E-03    -12.9227E+06     58.2338E+06     75.9388E+06     1.10899E+06    -232.637E-03     465.180E-03    -232.543E-03     222.644E-03    -246.605E-03     479.088E-03    -232.229E-03     182.925E-03
            1777     11.4159E-03     55.3078E-03    -19.3745E+06     53.1342E+06     75.0422E+06     380.627E+03    -234.312E-03     466.860E-03    -232.548E-03     249.033E-03    -250.594E-03     483.045E-03    -232.222E-03     205.757E-03
            1778     10.7027E-03     54.9726E-03    -25.5164E+06     45.1912E+06     73.2650E+06     356.211E+03    -236.037E-03     468.580E-03    -232.543E-03     264.344E-03    -253.180E-03     485.581E-03    -232.206E-03     219.490E-03
            1779     9.98871E-03     54.6142E-03    -31.9413E+06     38.1158E+06     66.0918E+06     515.676E+03    -237.467E-03     469.973E-03    -232.506E-03     270.027E-03    -254.280E-03     486.616E-03    -232.185E-03     225.160E-03
            1780     9.27563E-03     54.2601E-03    -38.8931E+06     28.9998E+06     55.3509E+06     329.683E+03    -238.450E-03     470.890E-03    -232.441E-03     264.474E-03    -253.791E-03     486.036E-03    -232.150E-03     221.270E-03
            1781     8.56281E-03     53.9115E-03    -46.1615E+06     16.9286E+06     44.1559E+06     27.2727E+03    -238.755E-03     471.109E-03    -232.354E-03     250.668E-03    -251.939E-03     484.062E-03    -232.091E-03     210.492E-03
            1782     7.85047E-03     53.5906E-03    -54.1093E+06     6.67617E+06     33.9565E+06     457.960E+03    -238.268E-03     470.535E-03    -232.267E-03     232.722E-03    -249.155E-03     481.155E-03    -232.028E-03     196.363E-03
            1783     7.13635E-03     53.2917E-03    -63.0376E+06    -9.80901E+06     22.4503E+06     1.26069E+06    -237.519E-03     469.720E-03    -232.201E-03     212.884E-03    -246.255E-03     478.132E-03    -231.983E-03     180.594E-03
            1784     6.42364E-03     53.0210E-03    -72.1532E+06    -46.8899E+06     6.58596E+06     1.35605E+06    -236.670E-03     468.839E-03    -232.169E-03     192.289E-03    -243.484E-03     475.212E-03    -231.964E-03     164.074E-03
            1785     5.70943E-03     52.7771E-03    -80.3199E+06    -94.5115E+06    -12.0270E+06     912.024E+03    -236.004E-03     468.160E-03    -232.156E-03     171.773E-03    -241.188E-03     472.758E-03    -231.962E-03     147.418E-03
            1786     4.99552E-03     52.5594E-03    -87.9329E+06    -136.630E+06    -30.3450E+06     414.672E+03    -235.440E-03     467.568E-03    -232.129E-03     150.723E-03    -239.269E-03     470.688E-03    -231.955E-03     130.010E-03
            1787     4.28221E-03     52.3698E-03    -95.4474E+06    -176.246E+06    -48.0062E+06     261.631E+03    -234.730E-03     466.816E-03    -232.085E-03     129.295E-03    -237.449E-03     468.709E-03    -231.931E-03     112.044E-03
            1788     3.56809E-03     52.2078E-03    -102.713E+06    -207.618E+06    -65.6968E+06     335.783E+03    -233.926E-03     465.953E-03    -232.027E-03     107.876E-03    -235.770E-03     466.886E-03    -231.905E-03     93.8768E-03
            1789     2.85552E-03     52.0757E-03    -109.839E+06    -233.414E+06    -83.5953E+06     427.705E+03    -233.187E-03     465.158E-03    -231.971E-03     86.4674E-03    -234.355E-03     465.350E-03    -231.891E-03     75.5274E-03
            1790     2.14083E-03     51.9715E-03    -115.765E+06    -257.206E+06    -100.353E+06     285.885E+03    -232.624E-03     464.553E-03    -231.929E-03     65.2011E-03    -233.289E-03     464.184E-03    -231.889E-03     57.1125E-03
            1791     1.42764E-03     51.8965E-03    -120.427E+06    -279.771E+06    -113.701E+06     16.7295E+03    -232.253E-03     464.154E-03    -231.901E-03     44.1583E-03    -232.563E-03     463.373E-03    -231.889E-03     38.7696E-03
            1792     713.639E-06     51.8505E-03    -123.395E+06    -295.897E+06    -120.974E+06    -26.7921E+03    -232.368E-03     463.901E-03    -231.533E-03     24.5443E-03    -232.470E-03     462.867E-03    -231.530E-03     21.6209E-03
            1793     13.5503E-03     54.6262E-03    -4.75021E+06     64.3618E+06     78.2196E+06    -402.769E+03    -231.400E-03     464.013E-03    -232.612E-03     142.021E-03    -238.977E-03     471.574E-03    -232.307E-03     113.895E-03
            1794     12.8411E-03     54.3745E-03    -9.75779E+06     63.6277E+06     76.8386E+06    -294.196E+03    -232.777E-03     465.363E-03    -232.585E-03     203.502E-03    -244.990E-03     477.544E-03    -232.279E-03     166.264E-03
            1795     12.1294E-03     54.1089E-03    -13.9495E+06     58.4693E+06     75.8661E+06     703.430E+03    -233.104E-03     465.659E-03    -232.555E-03     222.711E-03    -247.072E-03     479.565E-03    -232.240E-03     182.958E-03
            1796     11.4157E-03     53.8009E-03    -18.6332E+06     54.0912E+06     76.4545E+06     936.718E+03    -234.561E-03     467.104E-03    -232.543E-03     248.793E-03    -250.822E-03     483.269E-03    -232.212E-03     205.524E-03
            1797     10.7025E-03     53.4598E-03    -24.8615E+06     45.5881E+06     74.2527E+06     591.639E+03    -236.333E-03     468.845E-03    -232.512E-03     263.443E-03    -253.457E-03     485.828E-03    -232.171E-03     218.516E-03
            1798     9.99006E-03     53.1082E-03    -31.4952E+06     38.0358E+06     66.6316E+06     88.2030E+03    -237.887E-03     470.319E-03    -232.433E-03     268.915E-03    -254.673E-03     486.936E-03    -232.109E-03     223.943E-03
            1799     9.27728E-03     52.7472E-03    -38.3414E+06     28.4476E+06     55.2264E+06     545.169E+03    -238.615E-03     470.942E-03    -232.327E-03     263.999E-03    -253.933E-03     486.065E-03    -232.036E-03     220.782E-03
            1800     8.56484E-03     52.4052E-03    -46.6654E+06     17.6289E+06     43.3087E+06     1.48182E+06    -238.415E-03     470.649E-03    -232.234E-03     250.754E-03    -251.588E-03     483.593E-03    -231.975E-03     210.683E-03
            1801     7.85009E-03     52.0809E-03    -55.7576E+06     6.52919E+06     32.4209E+06     1.36989E+06    -237.984E-03     470.150E-03    -232.167E-03     232.822E-03    -248.862E-03     480.760E-03    -231.933E-03     196.550E-03
            1802     7.13782E-03     51.7840E-03    -63.9138E+06    -9.72705E+06     21.9143E+06     694.889E+03    -237.259E-03     469.383E-03    -232.123E-03     212.673E-03    -245.972E-03     477.770E-03    -231.907E-03     180.474E-03
            1803     6.42303E-03     51.5138E-03    -71.4176E+06    -45.4585E+06     7.32268E+06    -120.017E+03    -236.654E-03     468.753E-03    -232.099E-03     192.203E-03    -243.459E-03     475.123E-03    -231.893E-03     163.997E-03
            1804     5.70969E-03     51.2696E-03    -78.8523E+06    -95.0175E+06    -11.4165E+06    -627.731E+03    -236.281E-03     468.339E-03    -232.058E-03     171.328E-03    -241.450E-03     472.923E-03    -231.863E-03     146.931E-03
            1805     4.99656E-03     51.0520E-03    -86.7036E+06    -137.020E+06    -29.7941E+06     36.2155E+03    -235.556E-03     467.539E-03    -231.982E-03     150.038E-03    -239.363E-03     470.638E-03    -231.807E-03     129.341E-03
            1806     4.28297E-03     50.8627E-03    -94.8567E+06    -176.375E+06    -47.9837E+06     361.150E+03    -234.588E-03     466.497E-03    -231.908E-03     128.863E-03    -237.297E-03     468.381E-03    -231.755E-03     111.638E-03
            1807     3.56982E-03     50.7018E-03    -102.727E+06    -207.893E+06    -65.9025E+06     502.412E+03    -233.705E-03     465.554E-03    -231.848E-03     107.771E-03    -235.546E-03     466.482E-03    -231.728E-03     93.8049E-03
            1808     2.85484E-03     50.5692E-03    -109.606E+06    -232.920E+06    -83.4505E+06     678.966E+03    -233.070E-03     464.859E-03    -231.789E-03     86.5042E-03    -234.237E-03     465.052E-03    -231.710E-03     75.5856E-03
            1809     2.14210E-03     50.4656E-03    -115.599E+06    -256.389E+06    -99.6773E+06     688.451E+03    -232.526E-03     464.249E-03    -231.723E-03     65.1153E-03    -233.190E-03     463.881E-03    -231.682E-03     57.0566E-03
            1810     1.42753E-03     50.3910E-03    -120.486E+06    -279.114E+06    -113.661E+06     585.296E+03    -232.046E-03     463.711E-03    -231.665E-03     43.7572E-03    -232.354E-03     462.931E-03    -231.654E-03     38.4077E-03
            1811     713.563E-06     50.3449E-03    -122.647E+06    -295.495E+06    -121.862E+06     86.2884E+03    -231.335E-03     463.397E-03    -232.062E-03     23.5036E-03    -231.430E-03     462.362E-03    -232.065E-03     20.6318E-03
            1812     13.5578E-03     53.1181E-03    -3.64595E+06     64.4773E+06     78.6999E+06     838.668E+03    -231.546E-03     464.151E-03    -232.606E-03     140.426E-03    -238.996E-03     471.589E-03    -232.300E-03     112.521E-03
            1813     12.8427E-03     52.8613E-03    -7.91174E+06     63.7182E+06     78.6110E+06     887.637E+03    -232.312E-03     464.899E-03    -232.587E-03     200.972E-03    -244.366E-03     476.923E-03    -232.275E-03     164.002E-03
            1814     12.1288E-03     52.6010E-03    -13.5217E+06     57.8645E+06     76.0523E+06    -208.679E+03    -233.439E-03     465.984E-03    -232.545E-03     221.603E-03    -247.393E-03     479.874E-03    -232.229E-03     181.725E-03
            1815     11.4164E-03     52.2884E-03    -19.2555E+06     53.5797E+06     75.8177E+06    -279.177E+03    -234.993E-03     467.487E-03    -232.495E-03     248.049E-03    -251.273E-03     483.670E-03    -232.165E-03     204.596E-03
            1816     10.7040E-03     51.9523E-03    -24.8023E+06     45.8074E+06     74.2618E+06    -206.185E+03    -236.610E-03     469.039E-03    -232.429E-03     262.907E-03    -253.730E-03     486.019E-03    -232.089E-03     217.887E-03
            1817     9.99110E-03     51.5956E-03    -31.5589E+06     37.8128E+06     66.5175E+06     350.410E+03    -237.859E-03     470.192E-03    -232.333E-03     268.951E-03    -254.628E-03     486.791E-03    -232.010E-03     224.026E-03
            1818     9.27861E-03     51.2401E-03    -39.5369E+06     27.2444E+06     54.8551E+06     761.152E+03    -238.278E-03     470.520E-03    -232.242E-03     264.481E-03    -253.583E-03     485.622E-03    -231.950E-03     221.400E-03
            1819     8.56389E-03     50.8960E-03    -46.1537E+06     15.6280E+06     44.0649E+06     1.10006E+06    -238.435E-03     470.603E-03    -232.168E-03     251.165E-03    -251.594E-03     483.526E-03    -231.903E-03     211.148E-03
            1820     7.85212E-03     50.5729E-03    -51.8577E+06     7.80964E+06     35.4653E+06     1.87306E+06    -237.966E-03     470.066E-03    -232.100E-03     232.475E-03    -248.798E-03     480.638E-03    -231.859E-03     196.293E-03
            1821     7.13705E-03     50.2769E-03    -58.9842E+06    -6.34409E+06     25.4472E+06     1.33851E+06    -237.256E-03     469.303E-03    -232.047E-03     212.115E-03    -245.927E-03     477.668E-03    -231.825E-03     179.977E-03
            1822     6.42425E-03     50.0062E-03    -67.6562E+06    -44.6136E+06     9.40270E+06     317.991E+03    -236.945E-03     468.934E-03    -231.989E-03     191.524E-03    -243.721E-03     475.284E-03    -231.779E-03     163.302E-03
            1823     5.71102E-03     49.7616E-03    -77.2459E+06    -95.5686E+06    -10.9830E+06     859.818E+03    -236.311E-03     468.214E-03    -231.904E-03     170.628E-03    -241.448E-03     472.770E-03    -231.708E-03     146.294E-03
            1824     4.99755E-03     49.5451E-03    -86.5474E+06    -137.177E+06    -29.9230E+06     1.09284E+06    -235.317E-03     467.134E-03    -231.817E-03     149.865E-03    -239.115E-03     470.224E-03    -231.642E-03     129.230E-03
            1825     4.28387E-03     49.3565E-03    -95.1685E+06    -175.722E+06    -48.1986E+06     1.00470E+06    -234.383E-03     466.135E-03    -231.751E-03     128.884E-03    -237.091E-03     468.020E-03    -231.600E-03     111.710E-03
            1826     3.56923E-03     49.1960E-03    -102.941E+06    -207.622E+06    -66.4406E+06     744.169E+03    -233.617E-03     465.305E-03    -231.688E-03     107.747E-03    -235.454E-03     466.233E-03    -231.570E-03     93.8079E-03
            1827     2.85646E-03     49.0634E-03    -109.768E+06    -232.782E+06    -83.9733E+06     551.274E+03    -232.938E-03     464.555E-03    -231.617E-03     86.3881E-03    -234.104E-03     464.748E-03    -231.540E-03     75.4832E-03
            1828     2.14157E-03     48.9600E-03    -115.485E+06    -255.890E+06    -100.460E+06     747.538E+03    -232.409E-03     463.940E-03    -231.531E-03     65.0345E-03    -233.070E-03     463.574E-03    -231.495E-03     56.9878E-03
            1829     1.42851E-03     48.8855E-03    -119.053E+06    -278.010E+06    -112.369E+06     694.985E+03    -231.929E-03     463.372E-03    -231.443E-03     43.8377E-03    -232.235E-03     462.594E-03    -231.429E-03     38.4874E-03
            1830     714.890E-06     48.8400E-03    -121.677E+06    -294.154E+06    -119.547E+06     580.613E+03    -231.308E-03     462.908E-03    -231.600E-03     23.8345E-03    -231.404E-03     461.874E-03    -231.595E-03     20.9960E-03
            1831     13.5552E-03     51.6087E-03    -5.21009E+06     63.7170E+06     76.4907E+06     40.1868E+03    -232.129E-03     464.700E-03    -232.571E-03     142.040E-03    -239.625E-03     472.182E-03    -232.273E-03     114.094E-03
            1832     12.8421E-03     51.3533E-03    -9.10472E+06     63.9972E+06     77.3333E+06    -101.660E+03    -232.687E-03     465.223E-03    -232.536E-03     202.390E-03    -244.790E-03     477.296E-03    -232.228E-03     165.357E-03
            1833     12.1300E-03     51.0886E-03    -12.8118E+06     58.7224E+06     76.9369E+06    -219.899E+03    -233.721E-03     466.200E-03    -232.479E-03     220.735E-03    -247.650E-03     480.070E-03    -232.161E-03     180.787E-03
            1834     11.4176E-03     50.7790E-03    -18.2316E+06     53.2958E+06     76.2499E+06    -471.940E+03    -234.944E-03     467.355E-03    -232.411E-03     247.420E-03    -251.188E-03     483.502E-03    -232.080E-03     203.969E-03
            1835     10.7047E-03     50.4412E-03    -25.0482E+06     44.5417E+06     73.2257E+06    -33.7419E+03    -236.321E-03     468.670E-03    -232.349E-03     263.280E-03    -253.413E-03     485.619E-03    -232.011E-03     218.374E-03
            1836     9.99222E-03     50.0868E-03    -32.4899E+06     36.9199E+06     65.1652E+06     684.174E+03    -237.475E-03     469.753E-03    -232.278E-03     269.310E-03    -254.218E-03     486.323E-03    -231.959E-03     224.537E-03
            1837     9.27750E-03     49.7322E-03    -38.9156E+06     27.9710E+06     54.6617E+06     532.957E+03    -238.455E-03     470.651E-03    -232.196E-03     264.483E-03    -253.745E-03     485.744E-03    -231.907E-03     221.394E-03
            1838     8.56574E-03     49.3862E-03    -45.6660E+06     15.7315E+06     43.8036E+06    -567.705E+03    -238.579E-03     470.681E-03    -232.102E-03     250.493E-03    -251.705E-03     483.575E-03    -231.840E-03     210.462E-03
            1839     7.85120E-03     49.0652E-03    -53.1697E+06     6.17709E+06     34.4540E+06    -1.28770E+06    -237.995E-03     470.009E-03    -232.014E-03     231.805E-03    -248.807E-03     480.555E-03    -231.774E-03     195.600E-03
            1840     7.13897E-03     48.7693E-03    -61.2736E+06    -7.80734E+06     24.0068E+06    -192.413E+03    -237.677E-03     469.597E-03    -231.920E-03     211.720E-03    -246.349E-03     477.954E-03    -231.700E-03     179.507E-03
            1841     6.42536E-03     48.4978E-03    -70.4642E+06    -45.5911E+06     7.59580E+06     1.67969E+06    -236.951E-03     468.769E-03    -231.817E-03     190.923E-03    -243.709E-03     475.092E-03    -231.611E-03     162.779E-03
            1842     5.71196E-03     48.2550E-03    -79.6070E+06    -94.7005E+06    -12.0415E+06     1.99477E+06    -235.899E-03     467.633E-03    -231.733E-03     170.381E-03    -241.032E-03     472.182E-03    -231.541E-03     146.150E-03
            1843     4.99793E-03     48.0389E-03    -88.0081E+06    -135.857E+06    -30.4688E+06     1.29769E+06    -235.028E-03     466.698E-03    -231.670E-03     149.608E-03    -238.826E-03     469.789E-03    -231.497E-03     129.029E-03
            1844     4.28385E-03     47.8506E-03    -95.7932E+06    -175.050E+06    -48.2514E+06     845.756E+03    -234.294E-03     465.902E-03    -231.608E-03     128.473E-03    -236.994E-03     467.780E-03    -231.457E-03     111.337E-03
            1845     3.57088E-03     47.6903E-03    -103.454E+06    -206.705E+06    -66.1523E+06     633.501E+03    -233.568E-03     465.093E-03    -231.525E-03     107.397E-03    -235.405E-03     466.020E-03    -231.406E-03     93.4743E-03
            1846     2.85594E-03     47.5581E-03    -110.560E+06    -232.408E+06     -84.294E+06     346.845E+03    -232.808E-03     464.236E-03    -231.428E-03     86.0775E-03    -233.974E-03     464.429E-03    -231.352E-03     75.1917E-03
            1847     2.14281E-03     47.4551E-03    -116.109E+06    -255.657E+06    -100.882E+06     98.3096E+03    -232.096E-03     463.449E-03    -231.353E-03     64.8555E-03    -232.757E-03     463.083E-03    -231.319E-03     56.8343E-03
            1848     1.42804E-03     47.3803E-03    -120.311E+06    -277.940E+06    -113.396E+06     318.031E+03    -231.606E-03     462.944E-03    -231.338E-03     43.6259E-03    -231.914E-03     462.168E-03    -231.328E-03     38.3061E-03
            1849     713.082E-06     47.3370E-03    -122.461E+06    -292.329E+06    -121.055E+06     612.605E+03    -231.446E-03     462.798E-03    -231.352E-03     24.0491E-03    -231.547E-03     461.777E-03    -231.356E-03     21.1840E-03
            1850     13.5551E-03     50.0988E-03    -5.13188E+06     64.6327E+06     77.8625E+06     474.579E+03    -232.896E-03     465.482E-03    -232.586E-03     141.590E-03    -240.442E-03     473.013E-03    -232.283E-03     113.355E-03
            1851     12.8434E-03     49.8404E-03    -9.81398E+06     63.9089E+06     76.1833E+06    -1.31674E+06    -233.574E-03     466.058E-03    -232.484E-03     201.334E-03    -245.724E-03     478.179E-03    -232.181E-03     163.937E-03
            1852     12.1318E-03     49.5777E-03    -14.1388E+06     57.6758E+06     74.6414E+06    -1.70100E+06    -233.494E-03     465.891E-03    -232.397E-03     220.811E-03    -247.421E-03     479.756E-03    -232.087E-03     180.854E-03
            1853     11.4186E-03     49.2701E-03    -19.9647E+06     51.8861E+06     74.2398E+06    -275.444E+03    -234.638E-03     466.988E-03    -232.349E-03     248.159E-03    -250.846E-03     483.094E-03    -232.024E-03     204.884E-03
            1854     10.7055E-03     48.9313E-03    -26.1516E+06     43.5862E+06     72.0046E+06     309.078E+03    -236.104E-03     468.417E-03    -232.313E-03     263.565E-03    -253.166E-03     485.332E-03    -231.978E-03     218.790E-03
            1855     9.99079E-03     48.5794E-03    -31.8778E+06     36.4923E+06     65.0260E+06    -76.3992E+03    -237.774E-03     470.013E-03    -232.239E-03     268.857E-03    -254.490E-03     486.557E-03    -231.921E-03     224.033E-03
            1856     9.27928E-03     48.2210E-03    -38.3324E+06     28.7677E+06     55.2709E+06    -434.359E+03    -238.741E-03     470.867E-03    -232.125E-03     263.629E-03    -254.004E-03     485.935E-03    -231.835E-03     220.474E-03
            1857     8.56575E-03     47.8781E-03    -46.2760E+06     17.2434E+06     44.6280E+06    -145.667E+03    -238.539E-03     470.546E-03    -232.007E-03     249.549E-03    -251.636E-03     483.410E-03    -231.742E-03     209.557E-03
            1858     7.85319E-03     47.5582E-03    -55.5269E+06     6.35298E+06     33.0845E+06     -418.16E+03    -238.240E-03     470.123E-03    -231.884E-03     231.248E-03    -249.038E-03     480.652E-03    -231.647E-03     195.038E-03
            1859     7.13940E-03     47.2595E-03    -65.3917E+06    -10.9564E+06     20.5371E+06    -514.321E+03    -237.616E-03     469.375E-03    -231.759E-03     211.271E-03    -246.275E-03     477.703E-03    -231.545E-03     179.100E-03
            1860     6.42684E-03     46.9915E-03    -74.0101E+06    -47.0903E+06     5.37654E+06     234.590E+03    -236.610E-03     468.271E-03    -231.661E-03     190.734E-03    -243.364E-03     474.579E-03    -231.459E-03     162.655E-03
            1861     5.71260E-03     46.7490E-03    -81.3816E+06    -93.9822E+06    -12.9180E+06     147.349E+03    -235.796E-03     467.379E-03    -231.583E-03     170.171E-03    -240.928E-03     471.927E-03    -231.393E-03     145.952E-03
            1862     4.99889E-03     46.5330E-03    -88.7368E+06    -135.791E+06    -30.8478E+06     7.49814E+03    -234.987E-03     466.493E-03    -231.505E-03     149.110E-03    -238.771E-03     469.569E-03    -231.334E-03     128.561E-03
            1863     4.28533E-03     46.3451E-03    -96.3637E+06    -174.855E+06    -48.4338E+06     252.969E+03    -234.207E-03     465.630E-03    -231.422E-03     128.089E-03    -236.899E-03     467.499E-03    -231.271E-03     110.986E-03
            1864     3.57054E-03     46.1848E-03    -103.693E+06    -206.589E+06    -66.2308E+06     168.983E+03    -233.432E-03     464.751E-03    -231.319E-03     106.930E-03    -235.260E-03     465.670E-03    -231.201E-03     93.0461E-03
            1865     2.85758E-03     46.0534E-03    -110.308E+06    -231.703E+06    -83.5591E+06     16.4226E+03    -232.576E-03     463.791E-03    -231.215E-03     85.6336E-03    -233.735E-03     463.978E-03    -231.137E-03     74.7846E-03
            1866     2.14260E-03     45.9506E-03    -116.306E+06    -255.416E+06    -99.7678E+06    -93.7029E+03    -231.826E-03     462.977E-03    -231.150E-03     64.4757E-03    -232.487E-03     462.607E-03    -231.110E-03     56.4746E-03
            1867     1.42848E-03     45.8774E-03    -121.113E+06    -278.418E+06    -112.839E+06     -67.312E+03    -231.448E-03     462.571E-03    -231.123E-03     43.3977E-03    -231.759E-03     461.792E-03    -231.108E-03     38.0754E-03
            1868     715.308E-06     45.8305E-03    -124.247E+06    -291.361E+06    -121.635E+06     320.054E+03    -231.188E-03     462.305E-03    -231.117E-03     23.4608E-03    -231.297E-03     461.293E-03    -231.123E-03     20.5945E-03
            1869     13.5555E-03     48.5816E-03    -3.36642E+06     65.9197E+06     80.0535E+06    -138.384E+03    -232.840E-03     465.336E-03    -232.496E-03     138.870E-03    -240.261E-03     472.747E-03    -232.186E-03     110.841E-03
            1870     12.8453E-03     48.3290E-03    -7.17197E+06     64.6247E+06     79.0389E+06     531.972E+03    -232.474E-03     464.897E-03    -232.423E-03     200.466E-03    -244.492E-03     476.890E-03    -232.111E-03     163.455E-03
            1871     12.1310E-03     48.0693E-03    -13.3667E+06     56.7214E+06     74.9545E+06     782.820E+03    -233.017E-03     465.394E-03    -232.377E-03     221.513E-03    -246.902E-03     479.215E-03    -232.065E-03     181.779E-03
            1872     11.4180E-03     47.7586E-03    -19.5664E+06     51.5819E+06     74.0436E+06     454.505E+03    -234.748E-03     467.091E-03    -232.343E-03     248.341E-03    -250.953E-03     483.194E-03    -232.019E-03     205.077E-03
            1873     10.7044E-03     47.4238E-03    -24.9908E+06     44.6941E+06     72.8780E+06    -808.172E+03    -236.708E-03     468.988E-03    -232.280E-03     262.899E-03    -253.761E-03     485.900E-03    -231.944E-03     217.964E-03
            1874     9.99330E-03     47.0678E-03    -31.5491E+06     35.4956E+06     65.6269E+06    -1.03545E+06    -238.261E-03     470.421E-03    -232.160E-03     268.164E-03    -254.951E-03     486.935E-03    -231.838E-03     223.237E-03
            1875     9.28009E-03     46.7126E-03    -39.4988E+06     27.7680E+06     54.5840E+06     203.735E+03    -238.669E-03     470.682E-03    -232.012E-03     262.776E-03    -253.883E-03     485.696E-03    -231.722E-03     219.702E-03
            1876     8.56705E-03     46.3703E-03    -47.3948E+06     17.3006E+06     43.2737E+06     750.734E+03    -238.661E-03     470.531E-03    -231.871E-03     248.997E-03    -251.718E-03     483.357E-03    -231.611E-03     209.058E-03
            1877     7.85394E-03     46.0481E-03    -54.9674E+06     6.37666E+06     33.0960E+06     1.23429E+06    -238.262E-03     469.992E-03    -231.731E-03     230.829E-03    -249.024E-03     480.486E-03    -231.495E-03     194.702E-03
            1878     7.14162E-03     45.7536E-03    -62.5326E+06    -8.73663E+06     22.5679E+06     1.30025E+06    -237.217E-03     468.829E-03    -231.612E-03     210.785E-03    -245.832E-03     477.125E-03    -231.396E-03     178.771E-03
            1879     6.42653E-03     45.4847E-03    -70.7733E+06    -46.2434E+06     6.99798E+06    -202.249E+03    -236.482E-03     468.006E-03    -231.523E-03     190.309E-03    -243.204E-03     474.291E-03    -231.319E-03     162.281E-03
            1880     5.71357E-03     45.2423E-03    -79.3815E+06    -94.5486E+06    -12.0516E+06    -492.702E+03    -235.889E-03     467.314E-03    -231.425E-03     169.510E-03    -240.991E-03     471.833E-03    -231.233E-03     145.319E-03
            1881     4.99991E-03     45.0277E-03    -87.7487E+06    -136.120E+06    -30.5337E+06    -168.727E+03    -235.027E-03     466.334E-03    -231.307E-03     148.546E-03    -238.789E-03     469.389E-03    -231.135E-03     128.036E-03
            1882     4.28557E-03     44.8400E-03    -95.6292E+06    -175.345E+06    -48.5235E+06    -376.423E+03    -234.120E-03     465.308E-03    -231.188E-03     127.524E-03    -236.794E-03     467.161E-03    -231.038E-03     110.455E-03
            1883     3.57255E-03     44.6801E-03    -102.825E+06    -206.521E+06    -66.0482E+06    -228.348E+03    -233.105E-03     464.181E-03    -231.076E-03     106.386E-03    -234.918E-03     465.088E-03    -230.958E-03     92.5525E-03
            1884     2.85736E-03     44.5494E-03    -109.844E+06    -231.801E+06    -83.4234E+06    -63.8633E+03    -232.197E-03     463.193E-03    -230.997E-03     85.4078E-03    -233.349E-03     463.375E-03    -230.918E-03     74.6033E-03
            1885     2.14356E-03     44.4474E-03    -115.939E+06    -255.009E+06    -99.7388E+06    -60.8128E+03    -231.615E-03     462.568E-03    -230.953E-03     64.5581E-03    -232.275E-03     462.200E-03    -230.914E-03     56.5696E-03
            1886     1.42916E-03     44.3731E-03    -120.510E+06    -278.903E+06    -112.283E+06    -408.580E+03    -231.247E-03     462.187E-03    -230.941E-03     43.8763E-03    -231.557E-03     461.406E-03    -230.923E-03     38.5526E-03
            1887     713.608E-06     44.3283E-03    -124.085E+06    -291.825E+06    -121.274E+06    -472.763E+03    -231.067E-03     461.961E-03    -230.894E-03     23.8259E-03    -231.176E-03     460.946E-03    -230.897E-03     20.9417E-03
            1888     13.5618E-03     47.0761E-03    -3.16727E+06     65.5288E+06     78.5668E+06    -657.705E+03    -232.085E-03     464.516E-03    -232.431E-03     141.378E-03    -239.548E-03     471.973E-03    -232.128E-03     113.406E-03
            1889     12.8438E-03     46.8208E-03    -8.87607E+06     62.5932E+06     76.7822E+06    -210.826E+03    -231.907E-03     464.313E-03    -232.406E-03     202.272E-03    -243.934E-03     476.308E-03    -232.100E-03     165.420E-03
            1890     12.1312E-03     46.5585E-03    -13.9151E+06     56.3501E+06     75.4141E+06     394.863E+03    -233.398E-03     465.778E-03    -232.380E-03     221.244E-03    -247.264E-03     479.576E-03    -232.064E-03     181.501E-03
            1891     11.4180E-03     46.2501E-03    -17.6959E+06     53.3782E+06     76.6806E+06    -327.038E+03    -235.340E-03     467.652E-03    -232.312E-03     247.259E-03    -251.526E-03     483.742E-03    -231.980E-03     203.819E-03
            1892     10.7067E-03     45.9112E-03    -24.2539E+06     45.8329E+06     74.2780E+06    -60.9901E+03    -237.036E-03     469.240E-03    -232.204E-03     262.023E-03    -254.034E-03     486.099E-03    -231.864E-03     217.070E-03
            1893     9.99364E-03     45.5587E-03    -32.4581E+06     34.4090E+06     65.2720E+06     629.881E+03    -238.183E-03     470.247E-03    -232.063E-03     267.922E-03    -254.830E-03     486.710E-03    -231.740E-03     223.114E-03
            1894     9.28103E-03     45.2034E-03    -39.8022E+06     27.2853E+06     54.3105E+06     642.231E+03    -238.867E-03     470.770E-03    -231.903E-03     262.670E-03    -254.048E-03     485.749E-03    -231.614E-03     219.645E-03
            1895     8.56853E-03     44.8617E-03    -46.2474E+06     17.1360E+06     43.2470E+06     223.527E+03    -238.850E-03     470.587E-03    -231.737E-03     248.857E-03    -251.875E-03     483.383E-03    -231.479E-03     208.945E-03
            1896     7.85579E-03     44.5406E-03    -52.7435E+06     5.04190E+06     33.9849E+06     546.265E+03    -238.045E-03     469.636E-03    -231.592E-03     230.401E-03    -248.759E-03     480.083E-03    -231.353E-03     194.377E-03
            1897     7.14108E-03     44.2470E-03    -60.3091E+06    -7.65457E+06     24.2878E+06     898.117E+03    -237.258E-03     468.721E-03    -231.464E-03     210.080E-03    -245.833E-03     476.985E-03    -231.244E-03     178.110E-03
            1898     6.42885E-03     43.9782E-03    -68.9129E+06    -44.2909E+06     8.47662E+06     1.04052E+06    -236.585E-03     467.926E-03    -231.340E-03     189.483E-03    -243.271E-03     474.185E-03    -231.134E-03     161.517E-03
            1899     5.71471E-03     43.7366E-03    -77.9462E+06    -94.1034E+06    -11.0387E+06     594.243E+03    -235.795E-03     467.006E-03    -231.211E-03     168.622E-03    -240.861E-03     471.493E-03    -231.017E-03     144.522E-03
            1900     5.00089E-03     43.5222E-03    -86.4131E+06    -135.632E+06    -29.7722E+06     150.976E+03    -234.945E-03     466.010E-03    -231.065E-03     147.761E-03    -238.681E-03     469.043E-03    -230.892E-03     127.314E-03
            1901     4.28776E-03     43.3352E-03    -94.4428E+06    -174.977E+06    -47.8411E+06     87.4094E+03    -233.860E-03     464.787E-03    -230.927E-03     126.921E-03    -236.515E-03     466.624E-03    -230.776E-03     109.920E-03
            1902     3.57253E-03     43.1768E-03    -102.382E+06    -206.899E+06    -65.9269E+06     60.4181E+03    -232.697E-03     463.523E-03    -230.826E-03     105.986E-03    -234.500E-03     464.418E-03    -230.707E-03     92.2123E-03
            1903     2.85860E-03     43.0466E-03    -109.321E+06    -231.694E+06    -83.7763E+06     120.897E+03    -231.917E-03     462.679E-03    -230.762E-03     85.1533E-03    -233.062E-03     462.856E-03    -230.686E-03     74.3869E-03
            1904     2.14339E-03     42.9440E-03    -114.914E+06    -254.487E+06    -100.618E+06    -88.2533E+03    -231.410E-03     462.123E-03    -230.713E-03     64.0633E-03    -232.059E-03     461.752E-03    -230.681E-03     56.1176E-03
            1905     1.42857E-03     42.8708E-03    -118.906E+06    -279.169E+06    -112.671E+06    -205.693E+03    -231.019E-03     461.710E-03    -230.690E-03     43.2067E-03    -231.316E-03     460.919E-03    -230.676E-03     37.9228E-03
            1906     715.095E-06     42.8244E-03    -121.167E+06    -293.250E+06    -119.507E+06    -298.783E+03    -230.531E-03     461.467E-03    -230.936E-03     23.2957E-03    -230.625E-03     460.437E-03    -230.933E-03     20.4266E-03
            1907     13.5530E-03     45.5651E-03    -4.37807E+06     65.0496E+06     77.3621E+06     140.223E+03    -232.622E-03     465.135E-03    -232.513E-03     141.171E-03    -240.117E-03     472.621E-03    -232.214E-03     113.052E-03
            1908     12.8443E-03     45.3102E-03    -8.03917E+06     64.4822E+06     78.2452E+06     131.092E+03    -233.305E-03     465.746E-03    -232.441E-03     202.118E-03    -245.390E-03     477.805E-03    -232.132E-03     164.956E-03
            1909     12.1312E-03     45.0484E-03    -13.0587E+06     58.1204E+06     76.4096E+06    -1.25266E+06    -234.228E-03     466.572E-03    -232.344E-03     220.870E-03    -248.112E-03     480.395E-03    -232.027E-03     180.862E-03
            1910     11.4202E-03     44.7373E-03    -19.7062E+06     52.0903E+06     75.3269E+06    -1.10057E+06    -235.675E-03     467.908E-03    -232.233E-03     247.090E-03    -251.813E-03     483.943E-03    -231.903E-03     203.656E-03
            1911     10.7072E-03     44.4023E-03    -26.5794E+06     43.5440E+06     72.3871E+06     294.560E+03    -236.964E-03     469.078E-03    -232.114E-03     262.023E-03    -253.910E-03     485.874E-03    -231.777E-03     217.201E-03
            1912     9.99452E-03     44.0490E-03    -32.3283E+06     34.3158E+06     64.6207E+06     643.186E+03    -238.283E-03     470.250E-03    -231.967E-03     267.411E-03    -254.873E-03     486.660E-03    -231.646E-03     222.660E-03
            1913     9.28182E-03     43.6941E-03    -38.2721E+06     28.1305E+06      54.776E+06    -2.07027E+03    -238.933E-03     470.724E-03    -231.792E-03     261.990E-03    -254.058E-03     485.655E-03    -231.503E-03     219.001E-03
            1914     8.56932E-03     43.3519E-03    -45.5142E+06     17.5531E+06     43.8217E+06    -476.747E+03    -238.742E-03     470.357E-03    -231.615E-03     248.179E-03    -251.725E-03     483.113E-03    -231.355E-03     208.327E-03
            1915     7.85581E-03     43.0342E-03    -53.5636E+06     3.70733E+06     33.1960E+06    -666.021E+03    -238.226E-03     469.671E-03    -231.444E-03     229.552E-03    -248.904E-03     480.075E-03    -231.206E-03     193.532E-03
            1916     7.14383E-03     42.7393E-03    -61.9919E+06    -9.28500E+06     23.2893E+06     168.056E+03    -237.474E-03     468.746E-03    -231.273E-03     209.163E-03    -246.012E-03     476.964E-03    -231.053E-03     177.223E-03
            1917     6.42959E-03     42.4724E-03    -70.6903E+06    -44.0834E+06     7.83758E+06     740.085E+03    -236.645E-03     467.748E-03    -231.103E-03     188.612E-03    -243.302E-03     473.974E-03    -230.897E-03     160.709E-03
            1918     5.71632E-03     42.2312E-03    -78.7176E+06    -93.1048E+06    -11.4069E+06     470.401E+03    -235.704E-03     466.639E-03    -230.935E-03     167.784E-03    -240.743E-03     471.101E-03    -230.743E-03     143.764E-03
            1919     5.00281E-03     42.0174E-03    -86.8344E+06    -135.118E+06    -29.9456E+06     310.486E+03    -234.526E-03     465.306E-03    -230.780E-03     147.021E-03    -238.239E-03     468.318E-03    -230.608E-03     126.677E-03
            1920     4.28785E-03     41.8317E-03    -94.9533E+06    -174.696E+06    -47.9266E+06     481.679E+03    -233.425E-03     464.085E-03    -230.660E-03     126.347E-03    -236.068E-03     465.910E-03    -230.509E-03     109.433E-03
            1921     3.57416E-03     41.6742E-03    -102.539E+06    -206.510E+06    -66.1461E+06     487.197E+03    -232.649E-03     463.190E-03    -230.541E-03     105.347E-03    -234.440E-03     464.076E-03    -230.424E-03     91.6263E-03
            1922     2.85884E-03     41.5442E-03    -109.578E+06    -231.339E+06    -84.1863E+06     194.915E+03    -231.932E-03     462.329E-03    -230.396E-03     84.1950E-03    -233.067E-03     462.497E-03    -230.323E-03     73.4643E-03
            1923     2.14483E-03     41.4416E-03    -115.126E+06    -254.087E+06    -100.763E+06     80.0147E+03    -231.168E-03     461.421E-03    -230.253E-03     63.0309E-03    -231.808E-03     461.043E-03    -230.221E-03     55.1423E-03
            1924     1.43045E-03     41.3688E-03    -119.345E+06    -279.223E+06    -113.130E+06    -10.2620E+03    -230.555E-03     460.724E-03    -230.168E-03     42.6772E-03    -230.849E-03     459.930E-03    -230.156E-03     37.4353E-03
            1925     714.619E-06     41.3225E-03    -122.462E+06    -293.452E+06    -120.357E+06     492.304E+03    -230.083E-03     460.381E-03    -230.298E-03     23.0673E-03    -230.181E-03     459.352E-03    -230.296E-03     20.2563E-03
            1926     13.5578E-03     44.0511E-03    -5.21352E+06     65.1357E+06     76.5011E+06    -792.416E+03    -233.021E-03     465.575E-03    -232.554E-03     139.688E-03    -240.482E-03     473.026E-03    -232.258E-03     111.471E-03
            1927     12.8436E-03     43.7986E-03    -8.85473E+06     65.0191E+06     77.1498E+06    -589.828E+03    -234.184E-03     466.624E-03    -232.441E-03     201.111E-03    -246.216E-03     478.632E-03    -232.136E-03     163.828E-03
            1928     12.1331E-03     43.5353E-03    -13.4087E+06     58.6524E+06     75.6487E+06     135.786E+03    -234.750E-03     467.054E-03    -232.304E-03     221.116E-03    -248.596E-03     480.841E-03    -231.991E-03     181.120E-03
            1929     11.4199E-03     43.2277E-03    -19.6290E+06     51.1929E+06     74.0712E+06     504.618E+03    -235.848E-03     468.020E-03    -232.172E-03     246.883E-03    -251.935E-03     484.004E-03    -231.847E-03     203.529E-03
            1930     10.7076E-03     42.8913E-03    -25.1568E+06     43.0030E+06     72.1377E+06    -295.101E+03    -237.337E-03     469.368E-03    -232.031E-03     261.377E-03    -254.245E-03     486.130E-03    -231.696E-03     216.498E-03
            1931     9.99573E-03     42.5392E-03    -31.5266E+06     34.4346E+06     64.6606E+06    -837.388E+03    -238.535E-03     470.385E-03    -231.850E-03     266.501E-03    -255.070E-03     486.743E-03    -231.531E-03     221.723E-03
            1932     9.28379E-03     42.1846E-03    -38.8825E+06     27.2965E+06     54.1671E+06    -386.540E+03    -238.863E-03     470.515E-03    -231.653E-03     261.169E-03    -253.924E-03     485.378E-03    -231.365E-03     218.268E-03
            1933     8.57032E-03     41.8454E-03    -46.7380E+06     17.8407E+06     43.4659E+06     425.898E+03    -238.812E-03     470.268E-03    -231.456E-03     247.128E-03    -251.732E-03     482.960E-03    -231.197E-03     207.362E-03
            1934     7.85820E-03     41.5247E-03    -55.4070E+06     5.08899E+06     32.4972E+06     160.407E+03    -238.343E-03     469.593E-03    -231.250E-03     228.385E-03    -248.967E-03     479.944E-03    -231.014E-03     192.445E-03
            1935     7.14453E-03     41.2335E-03    -64.0300E+06    -10.5750E+06     21.4421E+06    -814.259E+03    -237.599E-03     468.633E-03    -231.034E-03     208.301E-03    -246.101E-03     476.809E-03    -230.819E-03     176.409E-03
            1936     6.43185E-03     40.9660E-03    -71.5963E+06    -45.5101E+06     6.71434E+06    -899.420E+03    -236.655E-03     467.478E-03    -230.823E-03     187.581E-03    -243.272E-03     473.660E-03    -230.620E-03     159.735E-03
            1937     5.71844E-03     40.7264E-03    -79.5940E+06    -93.0227E+06    -12.1008E+06    -246.429E+03    -235.429E-03     466.057E-03    -230.628E-03     166.885E-03    -240.439E-03     470.489E-03    -230.438E-03     142.954E-03
            1938     5.00392E-03     40.5143E-03    -87.8240E+06    -135.025E+06    -30.6195E+06     89.7748E+03    -234.234E-03     464.694E-03    -230.459E-03     146.121E-03    -237.927E-03     467.685E-03    -230.289E-03     125.861E-03
            1939     4.28987E-03     40.3295E-03    -95.7174E+06    -174.967E+06    -48.6004E+06     66.7239E+03    -233.322E-03     463.627E-03    -230.305E-03     125.156E-03    -235.944E-03     465.429E-03    -230.155E-03     108.300E-03
            1940     3.57459E-03     40.1714E-03    -103.366E+06    -206.103E+06    -66.5068E+06     271.858E+03    -232.570E-03     462.686E-03    -230.116E-03     104.195E-03    -234.347E-03     463.558E-03    -230.000E-03     90.5287E-03
            1941     2.86143E-03     40.0417E-03    -110.353E+06    -230.700E+06    -84.4760E+06     317.822E+03    -231.683E-03     461.576E-03    -229.892E-03     83.3358E-03    -232.810E-03     461.736E-03    -229.820E-03     72.6700E-03
            1942     2.14615E-03     39.9415E-03    -116.246E+06    -254.002E+06    -100.847E+06     58.6553E+03    -230.760E-03     460.443E-03    -229.684E-03     62.7499E-03    -231.402E-03     460.064E-03    -229.651E-03     54.8911E-03
            1943     1.43044E-03     39.8681E-03    -120.782E+06    -279.401E+06    -112.210E+06     390.990E+03    -230.035E-03     459.578E-03    -229.543E-03     42.2149E-03    -230.334E-03     458.782E-03    -229.524E-03     37.0291E-03
            1944     715.544E-06     39.8242E-03    -124.409E+06    -291.911E+06    -121.115E+06     519.345E+03    -229.357E-03     459.037E-03    -229.680E-03     23.3308E-03    -229.464E-03     458.017E-03    -229.682E-03     20.5513E-03
            1945     13.5538E-03     42.5378E-03    -3.12627E+06     67.1055E+06     79.2545E+06    -37.2864E+03    -232.913E-03     465.430E-03    -232.517E-03     140.280E-03    -240.337E-03     472.851E-03    -232.213E-03     112.077E-03
            1946     12.8444E-03     42.2849E-03    -9.68605E+06     63.9245E+06     75.0634E+06    -280.848E+03    -234.131E-03     466.519E-03    -232.388E-03     199.738E-03    -246.056E-03     478.419E-03    -232.092E-03     162.528E-03
            1947     12.1315E-03     42.0233E-03    -15.2120E+06     55.8300E+06     71.8732E+06    -685.523E+03    -234.714E-03     466.954E-03    -232.240E-03     219.523E-03    -248.481E-03     480.657E-03    -231.939E-03     179.577E-03
            1948     11.4208E-03     41.7154E-03    -19.2697E+06     51.3152E+06     73.2193E+06    -742.549E+03    -236.138E-03     468.231E-03    -232.093E-03     245.613E-03    -252.182E-03     484.176E-03    -231.773E-03     202.167E-03
            1949     10.7093E-03     41.3810E-03    -25.3196E+06     43.8816E+06     71.8194E+06    -496.747E+03    -237.561E-03     469.484E-03    -231.923E-03     260.503E-03    -254.417E-03     486.197E-03    -231.591E-03     215.613E-03
            1950     9.99753E-03     41.0281E-03    -32.7540E+06     34.5932E+06     63.8187E+06    -302.358E+03    -238.536E-03     470.258E-03    -231.722E-03     265.955E-03    -255.014E-03     486.557E-03    -231.405E-03     221.268E-03
            1951     9.28420E-03     40.6778E-03    -40.3010E+06     26.0175E+06     53.0739E+06     91.7037E+03    -239.245E-03     470.743E-03    -231.498E-03     260.589E-03    -254.249E-03     485.542E-03    -231.212E-03     217.725E-03
            1952     8.57268E-03     40.3345E-03    -47.5804E+06     16.3961E+06     43.0425E+06     657.541E+03    -239.125E-03     470.383E-03    -231.258E-03     246.245E-03    -251.978E-03     483.000E-03    -230.998E-03     206.549E-03
            1953     7.85955E-03     40.0196E-03    -54.5969E+06     7.50412E+06     33.7352E+06     638.125E+03    -238.481E-03     469.488E-03    -231.007E-03     227.394E-03    -249.045E-03     479.787E-03    -230.770E-03     191.554E-03
            1954     7.14693E-03     39.7254E-03    -62.2170E+06    -8.64067E+06     22.3608E+06    -640.948E+03    -237.629E-03     468.374E-03    -230.745E-03     206.923E-03    -246.070E-03     476.499E-03    -230.531E-03     175.116E-03
            1955     6.43394E-03     39.4608E-03    -71.1871E+06    -46.3171E+06     6.33973E+06    -1.14203E+06    -236.392E-03     466.893E-03    -230.501E-03     186.238E-03    -242.960E-03     473.025E-03    -230.299E-03     158.495E-03
            1956     5.71973E-03     39.2230E-03    -80.0241E+06    -93.9061E+06    -12.7410E+06    -687.826E+03    -235.246E-03     465.524E-03    -230.278E-03     165.661E-03    -240.223E-03     469.920E-03    -230.089E-03     141.810E-03
            1957     5.00600E-03     39.0113E-03    -88.1208E+06    -135.396E+06    -31.1594E+06    -429.152E+03    -234.295E-03     464.346E-03    -230.050E-03     144.720E-03    -237.955E-03     467.302E-03    -229.882E-03     124.523E-03
            1958     4.29162E-03     38.8273E-03    -96.2078E+06    -175.263E+06    -48.9805E+06    -146.937E+03    -233.269E-03     463.081E-03    -229.812E-03     123.996E-03    -235.866E-03     464.857E-03    -229.663E-03     107.212E-03
            1959     3.57825E-03     38.6700E-03    -103.870E+06    -206.503E+06    -66.9114E+06     93.9188E+03    -232.048E-03     461.622E-03    -229.575E-03     103.481E-03    -233.810E-03     462.477E-03    -229.459E-03     89.9090E-03
            1960     2.86185E-03     38.5419E-03    -110.606E+06    -230.232E+06    -84.5162E+06     164.218E+03    -230.989E-03     460.353E-03    -229.364E-03     82.8707E-03    -232.107E-03     460.506E-03    -229.292E-03     72.2932E-03
            1961     2.14704E-03     38.4415E-03    -116.348E+06    -253.885E+06    -100.713E+06     167.844E+03    -230.221E-03     459.400E-03    -229.178E-03     62.3959E-03    -230.861E-03     459.017E-03    -229.145E-03     54.5829E-03
            1962     1.43220E-03     38.3703E-03    -120.847E+06    -279.036E+06    -112.974E+06    -39.4447E+03    -229.628E-03     458.631E-03    -229.003E-03     42.1755E-03    -229.926E-03     457.837E-03    -228.988E-03     37.0039E-03
            1963     716.255E-06     38.3253E-03    -123.380E+06    -291.681E+06    -120.348E+06     -901.49E+03    -228.842E-03     457.905E-03    -229.063E-03     22.9596E-03    -228.944E-03     456.884E-03    -229.063E-03     20.1672E-03
            1964     13.5593E-03     41.0253E-03    -3.31874E+06     66.5359E+06     79.4609E+06     385.029E+03    -233.792E-03     466.230E-03    -232.439E-03     139.814E-03    -241.158E-03     473.591E-03    -232.133E-03     111.708E-03
            1965     12.8457E-03     40.7729E-03    -7.83599E+06     65.3811E+06     78.2297E+06     66.1144E+03    -233.849E-03     466.146E-03    -232.297E-03     198.735E-03    -245.724E-03     477.998E-03    -231.989E-03     161.624E-03
            1966     12.1352E-03     40.5120E-03    -12.7574E+06     57.4276E+06     75.2373E+06     12.9308E+03    -234.691E-03     466.838E-03    -232.147E-03     218.705E-03    -248.411E-03     480.498E-03    -231.835E-03     178.771E-03
            1967     11.4223E-03     40.2047E-03    -19.5241E+06     50.4141E+06     73.4912E+06    -159.420E+03    -236.033E-03     468.021E-03    -231.988E-03     245.370E-03    -252.016E-03     483.901E-03    -231.665E-03     202.013E-03
            1968     10.7106E-03     39.8684E-03    -26.8767E+06     43.5407E+06     70.9396E+06     249.808E+03    -237.458E-03     469.274E-03    -231.816E-03     260.232E-03    -254.244E-03     485.913E-03    -231.485E-03     215.472E-03
            1969     9.99755E-03     39.5212E-03    -33.7181E+06     35.0763E+06     63.5215E+06     306.856E+03    -239.043E-03     470.636E-03    -231.593E-03     265.401E-03    -255.456E-03     486.869E-03    -231.277E-03     220.730E-03
            1970     9.28670E-03     39.1648E-03    -40.6248E+06     25.5307E+06     53.1369E+06     42.9831E+03    -239.760E-03     471.075E-03    -231.315E-03     259.262E-03    -254.689E-03     485.796E-03    -231.028E-03     216.394E-03
            1971     8.57416E-03     38.8291E-03    -47.9154E+06     16.9038E+06     42.9333E+06    -494.134E+03    -239.405E-03     470.415E-03    -231.010E-03     244.648E-03    -252.186E-03     482.961E-03    -230.751E-03     204.976E-03
            1972     7.86193E-03     38.5100E-03    -55.3104E+06     8.02420E+06     33.1263E+06    -1.49903E+06    -238.645E-03     469.342E-03    -230.697E-03     225.941E-03    -249.153E-03     479.586E-03    -230.463E-03     190.122E-03
            1973     7.14991E-03     38.2200E-03    -63.1618E+06    -8.43219E+06     21.9265E+06    -1.18426E+06    -237.386E-03     467.781E-03    -230.395E-03     205.476E-03    -245.771E-03     475.848E-03    -230.181E-03     173.793E-03
            1974     6.43589E-03     37.9569E-03    -71.4998E+06    -46.3784E+06     5.90211E+06    -650.169E+03    -236.190E-03     466.310E-03    -230.120E-03     184.822E-03    -242.707E-03     472.391E-03    -229.919E-03     157.206E-03
            1975     5.72276E-03     37.7193E-03    -80.0402E+06    -94.9021E+06    -13.3048E+06    -717.438E+03    -235.231E-03     465.078E-03    -229.847E-03     164.291E-03    -240.162E-03     469.427E-03    -229.660E-03     140.533E-03
            1976     5.00870E-03     37.5095E-03    -88.5193E+06    -135.989E+06    -31.6312E+06    -478.589E+03    -234.204E-03     463.757E-03    -229.554E-03     143.806E-03    -237.836E-03     466.684E-03    -229.386E-03     123.694E-03
            1977     4.29482E-03     37.3257E-03    -96.3394E+06    -175.764E+06    -49.3155E+06    -257.300E+03    -232.909E-03     462.170E-03    -229.262E-03     122.993E-03    -235.479E-03     463.918E-03    -229.114E-03     106.326E-03
            1978     3.57863E-03     37.1714E-03    -103.531E+06    -206.536E+06    -66.9408E+06    -176.902E+03    -231.430E-03     460.434E-03    -229.004E-03     102.498E-03    -233.170E-03     461.267E-03    -228.889E-03     89.0323E-03
            1979     2.86437E-03     37.0431E-03    -110.196E+06    -230.305E+06    -84.5065E+06     29.2502E+03    -230.310E-03     459.115E-03    -228.804E-03     82.2069E-03    -231.417E-03     459.258E-03    -228.733E-03     71.7015E-03
            1980     2.14819E-03     36.9443E-03    -115.758E+06    -253.925E+06    -101.060E+06     58.5299E+03    -229.588E-03     458.230E-03    -228.642E-03     61.6818E-03    -230.215E-03     457.837E-03    -228.611E-03     53.9528E-03
            1981     1.43163E-03     36.8723E-03    -119.404E+06    -277.829E+06    -113.589E+06    -588.515E+03    -229.021E-03     457.522E-03    -228.502E-03     41.4647E-03    -229.307E-03     456.728E-03    -228.494E-03     36.3281E-03
            1982     715.842E-06     36.8297E-03    -121.815E+06    -293.965E+06    -121.127E+06    -883.236E+03    -228.935E-03     456.967E-03    -228.032E-03     22.3342E-03    -229.023E-03     455.932E-03    -228.035E-03     19.5675E-03
            1983     13.5584E-03     39.5162E-03    -4.51466E+06     65.7249E+06     77.8380E+06    -474.800E+03    -234.754E-03     467.165E-03    -232.411E-03     140.516E-03    -242.182E-03     474.585E-03    -232.111E-03     112.259E-03
            1984     12.8473E-03     39.2595E-03    -8.03163E+06     66.1499E+06     78.4579E+06    -334.577E+03    -234.296E-03     466.541E-03    -232.245E-03     201.087E-03    -246.253E-03     478.477E-03    -231.937E-03     163.883E-03
            1985     12.1344E-03     39.0009E-03    -12.8790E+06     57.6895E+06     76.8191E+06     879.590E+03    -234.933E-03     467.026E-03    -232.092E-03     219.884E-03    -248.636E-03     480.664E-03    -231.773E-03     180.031E-03
            1986     11.4237E-03     38.6920E-03    -18.5493E+06     50.1814E+06     75.8676E+06     2.11475E+06    -236.315E-03     468.244E-03    -231.929E-03     245.967E-03    -252.243E-03     484.064E-03    -231.595E-03     202.726E-03
            1987     10.7105E-03     38.3609E-03    -24.9760E+06     44.9300E+06     73.6726E+06     2.02197E+06    -238.294E-03     470.011E-03    -231.717E-03     259.668E-03    -255.006E-03     486.581E-03    -231.378E-03     214.877E-03
            1988     10.0002E-03     38.0068E-03    -32.0262E+06     37.2053E+06     65.9572E+06     1.12100E+06    -239.807E-03     471.226E-03    -231.419E-03     263.751E-03    -256.134E-03     487.380E-03    -231.097E-03     219.019E-03
            1989     9.28850E-03     37.6575E-03    -39.1388E+06     26.8381E+06     54.8398E+06     13.7684E+03    -240.088E-03     471.154E-03    -231.066E-03     257.446E-03    -254.932E-03     485.796E-03    -230.774E-03     214.592E-03
            1990     8.57713E-03     37.3187E-03    -45.8213E+06     18.7480E+06     44.6643E+06    -761.005E+03    -239.620E-03     470.319E-03    -230.698E-03     243.074E-03    -252.325E-03     482.798E-03    -230.436E-03     203.440E-03
            1991     7.86579E-03     37.0039E-03    -53.5066E+06     8.59844E+06     33.9847E+06    -617.641E+03    -238.441E-03     468.781E-03    -230.340E-03     224.583E-03    -248.870E-03     478.952E-03    -230.105E-03     188.919E-03
            1992     7.15178E-03     36.7153E-03    -62.1979E+06    -9.58874E+06     21.6443E+06    -478.256E+03    -237.200E-03     467.209E-03    -230.009E-03     204.300E-03    -245.517E-03     475.209E-03    -229.797E-03     172.771E-03
            1993     6.43934E-03     36.4524E-03    -71.1800E+06    -46.5441E+06     5.87874E+06    -401.689E+03    -236.221E-03     465.911E-03    -229.690E-03     183.691E-03    -242.687E-03     471.942E-03    -229.490E-03     156.187E-03
            1994     5.72523E-03     36.2176E-03    -79.8972E+06    -94.6358E+06    -13.0752E+06    -206.138E+03    -235.139E-03     464.496E-03    -229.358E-03     163.192E-03    -240.029E-03     468.805E-03    -229.170E-03     139.554E-03
            1995     5.01123E-03     36.0075E-03    -88.1176E+06    -136.079E+06    -31.5651E+06    -398.898E+03    -233.755E-03     462.777E-03    -229.023E-03     142.668E-03    -237.351E-03     465.669E-03    -228.856E-03     122.692E-03
            1996     4.29635E-03     35.8265E-03    -95.8692E+06    -176.039E+06    -49.3191E+06    -353.470E+03    -232.321E-03     461.040E-03    -228.719E-03     122.082E-03    -234.866E-03     462.763E-03    -228.571E-03     105.531E-03
            1997     3.58248E-03     35.6735E-03    -103.137E+06    -206.916E+06    -67.1780E+06    -228.512E+03    -231.062E-03     459.497E-03    -228.436E-03     101.727E-03    -232.786E-03     460.315E-03    -228.322E-03     88.3359E-03
            1998     2.86534E-03     35.5473E-03    -109.872E+06    -230.471E+06    -84.9732E+06    -79.0167E+03    -229.917E-03     458.095E-03    -228.178E-03     81.5034E-03    -231.011E-03     458.228E-03    -228.110E-03     71.0567E-03
            1999     2.14954E-03     35.4476E-03    -115.089E+06    -253.316E+06    -101.215E+06    -155.352E+03    -229.018E-03     456.979E-03    -227.961E-03     60.8525E-03    -229.634E-03     456.581E-03    -227.933E-03     53.1870E-03
            2000     1.43391E-03     35.3778E-03    -119.332E+06    -278.132E+06    -113.120E+06    -3.76268E+03    -228.347E-03     456.135E-03    -227.788E-03     40.5597E-03    -228.627E-03     455.333E-03    -227.778E-03     35.4887E-03
            2001     717.084E-06     35.3340E-03    -122.878E+06    -294.504E+06    -120.562E+06     831.565E+03    -227.772E-03     455.497E-03    -227.725E-03     22.0804E-03    -227.864E-03     454.459E-03    -227.723E-03     19.3541E-03
            2002     13.5567E-03     37.9980E-03    -4.49319E+06     65.7105E+06     77.1283E+06    -602.482E+03    -234.443E-03     466.903E-03    -232.460E-03     139.943E-03    -241.862E-03     474.315E-03    -232.163E-03     111.630E-03
            2003     12.8456E-03     37.7481E-03    -9.51325E+06     64.4571E+06     76.2865E+06    -333.584E+03    -234.980E-03     467.261E-03    -232.281E-03     201.030E-03    -246.926E-03     479.180E-03    -231.979E-03     163.673E-03
            2004     12.1355E-03     37.4865E-03    -15.2012E+06     55.7813E+06     73.5825E+06     169.586E+03    -235.669E-03     467.754E-03    -232.085E-03     219.766E-03    -249.325E-03     481.341E-03    -231.776E-03     179.846E-03
            2005     11.4223E-03     37.1829E-03    -20.1138E+06     49.5414E+06     74.3174E+06     198.904E+03    -237.727E-03     469.583E-03    -231.856E-03     244.786E-03    -253.597E-03     485.342E-03    -231.527E-03     201.323E-03
            2006     10.7132E-03     36.8446E-03    -24.7489E+06     44.4890E+06     74.4414E+06     676.586E+03    -239.431E-03     470.982E-03    -231.551E-03     257.933E-03    -256.069E-03     487.474E-03    -231.207E-03     212.965E-03
            2007     10.0027E-03     36.4975E-03    -30.0973E+06     38.0586E+06     68.0094E+06     969.547E+03    -240.163E-03     471.338E-03    -231.174E-03     262.035E-03    -256.394E-03     487.399E-03    -230.846E-03     217.323E-03
            2008     9.29171E-03     36.1466E-03    -36.1682E+06     29.4763E+06     57.1731E+06     662.751E+03    -240.183E-03     470.953E-03    -230.770E-03     256.267E-03    -254.932E-03     485.512E-03    -230.475E-03     213.525E-03
            2009     8.58075E-03     35.8105E-03    -44.1145E+06     19.0252E+06     45.3044E+06     553.885E+03    -239.437E-03     469.810E-03    -230.372E-03     242.261E-03    -252.062E-03     482.214E-03    -230.109E-03     202.803E-03
            2010     7.86732E-03     35.4986E-03    -52.7548E+06     8.22604E+06     34.2812E+06     1.15110E+06    -238.446E-03     468.435E-03    -229.988E-03     223.694E-03    -248.815E-03     478.545E-03    -229.752E-03     188.168E-03
            2011     7.15567E-03     35.2099E-03    -61.6924E+06    -7.81676E+06     22.4407E+06     1.29491E+06    -237.320E-03     466.926E-03    -229.606E-03     203.104E-03    -245.578E-03     474.873E-03    -229.393E-03     171.711E-03
            2012     6.44158E-03     34.9503E-03    -70.7285E+06    -45.6094E+06     6.32855E+06     510.428E+03    -236.152E-03     465.381E-03    -229.229E-03     182.518E-03    -242.566E-03     471.364E-03    -229.029E-03     155.153E-03
            2013     5.72855E-03     34.7146E-03    -79.2126E+06    -94.2428E+06    -12.6699E+06    -36.5749E+03    -234.843E-03     463.695E-03    -228.852E-03     162.003E-03    -239.692E-03     467.965E-03    -228.664E-03     138.492E-03
            2014     5.01450E-03     34.5089E-03    -87.1984E+06    -135.210E+06    -30.9558E+06    -30.2888E+03    -233.187E-03     461.683E-03    -228.496E-03     141.605E-03    -236.750E-03     464.547E-03    -228.328E-03     121.766E-03
            2015     4.29925E-03     34.3288E-03    -95.2777E+06    -176.239E+06    -49.0747E+06    -196.816E+03    -231.822E-03     460.005E-03    -228.183E-03     121.306E-03    -234.348E-03     461.709E-03    -228.035E-03     104.848E-03
            2016     3.58236E-03     34.1765E-03    -103.161E+06    -207.429E+06    -67.4892E+06     34.5192E+03    -230.749E-03     458.609E-03    -227.859E-03     100.663E-03    -232.455E-03     459.408E-03    -227.747E-03     87.3529E-03
            2017     2.86815E-03     34.0518E-03    -109.767E+06    -230.321E+06    -85.3788E+06    -104.294E+03    -229.478E-03     457.016E-03    -227.539E-03     80.5563E-03    -230.558E-03     457.137E-03    -227.473E-03     70.1851E-03
            2018     2.15156E-03     33.9541E-03    -115.371E+06    -253.207E+06    -101.268E+06     183.116E+03    -228.261E-03     455.572E-03    -227.311E-03     60.8185E-03    -228.876E-03     455.172E-03    -227.283E-03     53.2106E-03
            2019     1.43407E-03     33.8842E-03    -119.715E+06    -278.674E+06    -112.595E+06     1.02838E+06    -227.528E-03     454.754E-03    -227.226E-03     41.0443E-03    -227.812E-03     453.950E-03    -227.211E-03     36.0142E-03
            2020     717.157E-06     33.8427E-03    -122.303E+06    -292.100E+06    -120.031E+06     646.186E+03    -227.519E-03     454.497E-03    -226.979E-03     22.0694E-03    -227.613E-03     453.469E-03    -226.978E-03     19.3611E-03
            2021     13.5564E-03     36.4845E-03    -3.91000E+06     65.8279E+06     77.4424E+06     611.117E+03    -234.191E-03     466.693E-03    -232.501E-03     140.296E-03    -241.542E-03     474.038E-03    -232.204E-03     112.098E-03
            2022     12.8458E-03     36.2322E-03    -9.62876E+06     63.5518E+06     75.9305E+06     914.593E+03    -235.744E-03     468.052E-03    -232.308E-03     199.569E-03    -247.578E-03     479.857E-03    -232.007E-03     162.249E-03
            2023     12.1334E-03     35.9747E-03    -14.2475E+06     57.4771E+06     74.6848E+06     405.455E+03    -237.418E-03     469.450E-03    -232.032E-03     217.881E-03    -251.037E-03     483.006E-03    -231.721E-03     177.616E-03
            2024     11.4260E-03     35.6650E-03    -19.2869E+06     50.6219E+06     74.4521E+06    -1.09919E+06    -238.942E-03     470.625E-03    -231.683E-03     242.295E-03    -254.740E-03     486.319E-03    -231.356E-03     198.537E-03
            2025     10.7162E-03     35.3333E-03    -25.3488E+06     42.1668E+06     72.5410E+06    -1.88889E+06    -239.488E-03     470.790E-03    -231.303E-03     256.131E-03    -256.018E-03     487.170E-03    -230.964E-03     211.181E-03
            2026     10.0053E-03     34.9854E-03    -31.9017E+06     36.0847E+06     65.5912E+06    -1.20302E+06    -239.998E-03     470.901E-03    -230.904E-03     261.396E-03    -256.137E-03     486.865E-03    -230.582E-03     216.828E-03
            2027     9.29491E-03     34.6366E-03    -39.6033E+06     28.5986E+06     54.6842E+06    -336.926E+03    -240.070E-03     470.560E-03    -230.490E-03     255.835E-03    -254.752E-03     485.044E-03    -230.201E-03     213.252E-03
            2028     8.58191E-03     34.3046E-03    -47.1129E+06     17.9734E+06     43.9885E+06     367.924E+03    -239.570E-03     469.641E-03    -230.071E-03     241.314E-03    -252.133E-03     481.973E-03    -229.809E-03     201.975E-03
            2029     7.87100E-03     33.9906E-03    -54.5490E+06     7.16164E+06     33.6810E+06     834.985E+03    -238.617E-03     468.254E-03    -229.637E-03     222.233E-03    -248.919E-03     478.290E-03    -229.400E-03     186.809E-03
            2030     7.15778E-03     33.7068E-03    -62.2818E+06    -6.87791E+06     22.6659E+06     1.25370E+06    -237.360E-03     466.556E-03    -229.196E-03     201.877E-03    -245.570E-03     474.454E-03    -228.982E-03     170.587E-03
            2031     6.44549E-03     33.4467E-03    -70.2528E+06    -43.6089E+06     6.88918E+06     977.256E+03    -235.970E-03     464.738E-03    -228.768E-03     181.496E-03    -242.347E-03     470.691E-03    -228.569E-03     154.242E-03
            2032     5.73133E-03     33.2151E-03    -78.6555E+06    -93.2285E+06    -12.4521E+06     461.574E+03    -234.345E-03     462.711E-03    -228.367E-03     160.964E-03    -239.158E-03     466.950E-03    -228.180E-03     137.598E-03
            2033     5.01609E-03     33.0103E-03    -87.2976E+06    -134.936E+06    -30.8894E+06     226.698E+03    -232.919E-03     460.903E-03    -227.985E-03     140.415E-03    -236.451E-03     463.736E-03    -227.817E-03     120.690E-03
            2034     4.30097E-03     32.8325E-03    -95.5530E+06    -176.265E+06    -48.9086E+06     284.476E+03    -231.546E-03     459.165E-03    -227.619E-03     119.997E-03    -234.045E-03     460.841E-03    -227.469E-03     103.641E-03
            2035     3.58682E-03     32.6810E-03    -103.259E+06    -207.229E+06    -67.0623E+06     359.727E+03    -230.048E-03     457.319E-03    -227.271E-03     99.7769E-03    -231.738E-03     458.101E-03    -227.156E-03     86.5761E-03
            2036     2.86914E-03     32.5583E-03    -110.301E+06    -229.771E+06    -85.1478E+06     350.783E+03    -228.722E-03     455.699E-03    -226.976E-03     79.9229E-03    -229.797E-03     455.813E-03    -226.909E-03     69.6459E-03
            2037     2.15198E-03     32.4628E-03    -116.401E+06    -254.650E+06    -101.761E+06     625.903E+03    -227.585E-03     454.377E-03    -226.792E-03     60.2327E-03    -228.196E-03     453.965E-03    -226.762E-03     52.6922E-03
            2038     1.43472E-03     32.3930E-03    -120.776E+06    -276.909E+06    -113.863E+06     710.958E+03    -226.913E-03     453.665E-03    -226.753E-03     40.4636E-03    -227.199E-03     452.870E-03    -226.746E-03     35.4766E-03
            2039     716.817E-06     32.3511E-03    -122.603E+06    -290.524E+06    -120.843E+06    -186.126E+03    -227.233E-03     453.624E-03    -226.392E-03     22.5673E-03    -227.328E-03     452.607E-03    -226.397E-03     19.8350E-03
            2040     13.5559E-03     34.9686E-03    -4.85837E+06     65.0302E+06     78.2826E+06     1.16829E+06    -235.848E-03     468.340E-03    -232.492E-03     139.343E-03    -243.135E-03     475.614E-03    -232.188E-03     111.073E-03
            2041     12.8447E-03     34.7183E-03    -8.44914E+06     64.7602E+06     78.1417E+06     986.610E+03    -237.123E-03     469.327E-03    -232.204E-03     196.541E-03    -248.833E-03     481.010E-03    -231.895E-03     159.072E-03
            2042     12.1384E-03     34.4550E-03    -12.5904E+06     59.1756E+06     76.5716E+06    -654.927E+03    -238.049E-03     469.892E-03    -231.843E-03     215.360E-03    -251.563E-03     483.350E-03    -231.528E-03     174.978E-03
            2043     11.4290E-03     34.1504E-03    -18.1269E+06     51.6332E+06     75.6270E+06    -521.897E+03    -238.540E-03     470.006E-03    -231.465E-03     241.466E-03    -254.237E-03     485.602E-03    -231.136E-03     197.885E-03
            2044     10.7185E-03     33.8216E-03    -25.2078E+06     43.1516E+06     72.6291E+06    -227.370E+03    -239.311E-03     470.400E-03    -231.089E-03     256.296E-03    -255.769E-03     486.711E-03    -230.752E-03     211.543E-03
            2045     10.0081E-03     33.4743E-03    -33.4723E+06     35.4123E+06     63.9020E+06    -538.697E+03    -240.094E-03     470.775E-03    -230.680E-03     261.124E-03    -256.163E-03     486.665E-03    -230.363E-03     216.692E-03
            2046     9.29545E-03     33.1291E-03    -40.8500E+06     27.3770E+06     53.1019E+06    -416.726E+03    -240.384E-03     470.615E-03    -230.231E-03     254.543E-03    -254.983E-03     485.012E-03    -229.946E-03     212.029E-03
            2047     8.58581E-03     32.7941E-03    -47.7942E+06     17.4609E+06     42.7536E+06    -650.308E+03    -239.849E-03     469.600E-03    -229.752E-03     239.616E-03    -252.335E-03     481.855E-03    -229.494E-03     200.319E-03
            2048     7.87346E-03     32.4869E-03    -54.8872E+06     5.53004E+06     32.5189E+06    -556.436E+03    -238.587E-03     467.851E-03    -229.264E-03     220.773E-03    -248.814E-03     477.808E-03    -229.030E-03     185.453E-03
            2049     7.16133E-03     32.2018E-03    -62.4088E+06    -8.09811E+06     21.8995E+06    -35.4605E+03    -237.178E-03     465.964E-03    -228.785E-03     200.726E-03    -245.331E-03     473.803E-03    -228.574E-03     169.542E-03
            2050     6.44770E-03     31.9455E-03    -70.8748E+06    -42.6997E+06     6.74342E+06     703.021E+03    -235.626E-03     463.956E-03    -228.331E-03     180.080E-03    -241.954E-03     469.862E-03    -228.132E-03     152.969E-03
            2051     5.73357E-03     31.7162E-03    -79.7363E+06    -92.2128E+06    -12.8497E+06     935.950E+03    -234.131E-03     462.024E-03    -227.892E-03     159.461E-03    -238.901E-03     466.221E-03    -227.707E-03     136.235E-03
            2052     5.01950E-03     31.5129E-03    -88.0309E+06    -134.423E+06    -31.2672E+06     560.916E+03    -232.621E-03     460.085E-03    -227.465E-03     139.068E-03    -236.120E-03     462.886E-03    -227.298E-03     119.466E-03
            2053     4.30467E-03     31.3368E-03    -96.0090E+06    -176.122E+06    -48.7634E+06     520.383E+03    -230.891E-03     457.976E-03    -227.084E-03     119.143E-03    -233.369E-03     459.629E-03    -226.934E-03     102.921E-03
            2054     3.58679E-03     31.1885E-03    -103.715E+06    -207.071E+06    -66.8829E+06     691.263E+03    -229.330E-03     456.093E-03    -226.762E-03     99.4028E-03    -231.012E-03     456.864E-03    -226.646E-03     86.3095E-03
            2055     2.87065E-03     31.0667E-03    -110.866E+06    -229.444E+06    -85.0763E+06     968.036E+03    -228.154E-03     454.648E-03    -226.493E-03     79.2224E-03    -229.222E-03     454.754E-03    -226.425E-03     69.0357E-03
            2056     2.15373E-03     30.9719E-03    -116.930E+06    -254.686E+06    -101.432E+06     1.19976E+06    -227.256E-03     453.538E-03    -226.282E-03     59.4569E-03    -227.863E-03     453.119E-03    -226.250E-03     51.9745E-03
            2057     1.43580E-03     30.9043E-03    -121.609E+06    -274.234E+06    -115.237E+06     670.288E+03    -226.653E-03     452.748E-03    -226.096E-03     40.3028E-03    -226.943E-03     451.968E-03    -226.098E-03     35.3407E-03
            2058     718.605E-06     30.8599E-03    -124.704E+06    -290.400E+06    -123.002E+06    -247.156E+03    -225.997E-03     452.110E-03    -226.112E-03     21.7892E-03    -226.098E-03     451.099E-03    -226.126E-03     19.0972E-03
            2059     13.5585E-03     33.4548E-03    -5.02586E+06     64.9951E+06     78.8471E+06    -211.316E+03    -238.108E-03     470.523E-03    -232.414E-03     138.412E-03    -245.418E-03     477.817E-03    -232.107E-03     109.792E-03
            2060     12.8520E-03     33.1981E-03    -8.24363E+06     65.6624E+06     79.5217E+06    -859.717E+03    -238.008E-03     470.047E-03    -232.039E-03     197.562E-03    -249.755E-03     481.767E-03    -231.725E-03     159.873E-03
            2061     12.1413E-03     32.9408E-03    -12.5144E+06     58.4571E+06     76.7068E+06    -98.2924E+03    -237.430E-03     469.098E-03    -231.669E-03     216.623E-03    -250.890E-03     482.499E-03    -231.352E-03     176.496E-03
            2062     11.4298E-03     32.6380E-03    -19.2371E+06     50.2771E+06     74.2304E+06     1.22948E+06    -238.264E-03     469.582E-03    -231.319E-03     242.174E-03    -253.866E-03     485.079E-03    -230.992E-03     198.902E-03
            2063     10.7194E-03     32.3072E-03    -25.6688E+06     44.8712E+06     72.5208E+06     1.26556E+06    -239.708E-03     470.645E-03    -230.937E-03     255.553E-03    -256.076E-03     486.871E-03    -230.602E-03     210.904E-03
            2064     10.0085E-03     31.9645E-03    -31.6300E+06     36.7376E+06     65.5323E+06     570.386E+03    -240.759E-03     471.235E-03    -230.476E-03     259.495E-03    -256.748E-03     487.053E-03    -230.156E-03     215.029E-03
            2065     9.30013E-03     31.6172E-03    -38.1079E+06     27.6522E+06     54.8017E+06     204.519E+03    -240.763E-03     470.721E-03    -229.958E-03     253.110E-03    -255.283E-03     485.045E-03    -229.669E-03     210.619E-03
            2066     8.58806E-03     31.2884E-03    -45.3811E+06     18.0236E+06     43.6401E+06     290.121E+03    -239.763E-03     469.192E-03    -229.429E-03     238.391E-03    -252.164E-03     481.369E-03    -229.171E-03     199.238E-03
            2067     7.87656E-03     30.9800E-03    -53.7213E+06     5.76058E+06     32.3472E+06     372.036E+03    -238.544E-03     467.450E-03    -228.906E-03     219.716E-03    -248.704E-03     477.346E-03    -228.674E-03     184.518E-03
            2068     7.16399E-03     30.6996E-03    -63.0167E+06    -8.44880E+06     20.6675E+06     352.087E+03    -237.078E-03     465.465E-03    -228.387E-03     199.329E-03    -245.168E-03     473.241E-03    -228.180E-03     168.281E-03
            2069     6.45062E-03     30.4448E-03    -71.9244E+06    -43.6703E+06     5.20952E+06     514.995E+03    -235.404E-03     463.296E-03    -227.892E-03     178.362E-03    -241.664E-03     469.130E-03    -227.698E-03     151.419E-03
            2070     5.73692E-03     30.2176E-03    -80.0986E+06    -91.8073E+06    -13.1633E+06     709.239E+03    -233.762E-03     461.188E-03    -227.426E-03     158.215E-03    -238.487E-03     465.341E-03    -227.242E-03     135.136E-03
            2071     5.02181E-03     30.0165E-03    -88.1506E+06    -133.249E+06    -31.1130E+06     678.182E+03    -231.953E-03     458.952E-03    -226.998E-03     138.257E-03    -235.428E-03     461.731E-03    -226.833E-03     118.798E-03
            2072     4.30501E-03     29.8440E-03    -96.0728E+06    -176.015E+06    -48.7018E+06     682.680E+03    -230.368E-03     457.000E-03    -226.631E-03     118.140E-03    -232.824E-03     458.630E-03    -226.480E-03     102.038E-03
            2073     3.58964E-03     29.6967E-03    -103.980E+06    -207.294E+06    -67.1338E+06     960.532E+03    -228.990E-03     455.279E-03    -226.289E-03     97.9860E-03    -230.649E-03     456.027E-03    -226.173E-03     84.9903E-03
            2074     2.87206E-03     29.5760E-03    -111.212E+06    -229.060E+06    -85.4836E+06     1.35052E+06    -227.647E-03     453.639E-03    -225.992E-03     78.1003E-03    -228.699E-03     453.732E-03    -225.926E-03     68.0096E-03
            2075     2.15396E-03     29.4834E-03     -116.99E+06    -253.803E+06    -101.339E+06     1.37885E+06    -226.769E-03     452.540E-03    -225.771E-03     58.9558E-03    -227.370E-03     452.119E-03    -225.740E-03     51.5383E-03
            2076     1.43671E-03     29.4145E-03    -120.654E+06    -271.724E+06    -114.425E+06     1.15554E+06    -226.162E-03     451.731E-03    -225.569E-03     40.1680E-03    -226.451E-03     450.958E-03    -225.572E-03     35.2473E-03
            2077     718.093E-06     29.3741E-03    -122.752E+06    -288.904E+06    -122.323E+06     805.906E+03    -226.274E-03     451.043E-03    -224.769E-03     21.3660E-03    -226.367E-03     450.034E-03    -224.784E-03     18.7473E-03
            2078     13.5583E-03     31.9290E-03    -2.98723E+06     66.7273E+06     78.8349E+06    -464.880E+03    -237.828E-03     470.152E-03    -232.323E-03     138.313E-03    -245.099E-03     477.420E-03    -232.022E-03     109.749E-03
            2079     12.8492E-03     31.6811E-03    -8.76180E+06     64.4146E+06     75.8035E+06    -891.037E+03    -237.267E-03     469.233E-03    -231.966E-03     198.128E-03    -248.972E-03     480.916E-03    -231.667E-03     160.562E-03
            2080     12.1395E-03     31.4261E-03    -15.1658E+06     54.8850E+06     72.8923E+06     479.238E+03    -237.852E-03     469.466E-03    -231.614E-03     217.110E-03    -251.251E-03     482.795E-03    -231.307E-03     177.077E-03
            2081     11.4309E-03     31.1228E-03    -19.9414E+06     50.0442E+06     73.8263E+06     852.597E+03    -239.393E-03     470.615E-03    -231.222E-03     241.049E-03    -254.938E-03     486.053E-03    -230.897E-03     197.635E-03
            2082     10.7212E-03     30.7953E-03    -25.1828E+06     46.2702E+06     73.1068E+06     6.87921E+03    -240.381E-03     471.144E-03    -230.763E-03     253.782E-03    -256.671E-03     487.297E-03    -230.428E-03     209.043E-03
            2083     10.0130E-03     30.4504E-03    -31.3334E+06     36.7380E+06     65.6510E+06    -298.175E+03    -240.932E-03     471.180E-03    -230.248E-03     258.261E-03    -256.841E-03     486.918E-03    -229.927E-03     213.832E-03
            2084     9.30115E-03     30.1090E-03    -38.6327E+06     27.2384E+06     54.4201E+06     119.999E+03    -240.662E-03     470.363E-03    -229.701E-03     252.268E-03    -255.110E-03     484.613E-03    -229.412E-03     209.903E-03
            2085     8.59083E-03     29.7796E-03    -46.3897E+06     17.2027E+06     43.0253E+06     918.795E+03    -239.814E-03     468.962E-03    -229.147E-03     237.505E-03    -252.141E-03     481.060E-03    -228.890E-03     198.491E-03
            2086     7.87894E-03     29.4762E-03    -54.4236E+06     5.82903E+06     31.8197E+06     1.61038E+06    -238.664E-03     467.247E-03    -228.583E-03     218.507E-03    -248.755E-03     477.073E-03    -228.353E-03     183.440E-03
            2087     7.16654E-03     29.1956E-03    -62.5889E+06    -7.10421E+06     20.6108E+06     1.63400E+06    -236.996E-03     465.014E-03    -228.018E-03     197.745E-03    -245.012E-03     472.723E-03    -227.814E-03     166.865E-03
            2088     6.45373E-03     28.9455E-03    -70.9887E+06    -42.7653E+06     5.02251E+06     1.08477E+06    -235.127E-03     462.618E-03    -227.491E-03     177.246E-03    -241.333E-03     468.406E-03    -227.301E-03     150.457E-03
            2089     5.73892E-03     28.7201E-03    -79.4063E+06    -91.4511E+06    -13.5779E+06     744.107E+03    -233.293E-03     460.305E-03    -227.013E-03     157.074E-03    -237.977E-03     464.422E-03    -226.833E-03     134.136E-03
            2090     5.02334E-03     28.5229E-03    -87.7822E+06    -132.522E+06    -31.3757E+06     865.702E+03    -231.625E-03     458.195E-03    -226.570E-03     136.525E-03    -235.052E-03     460.931E-03    -226.407E-03     117.215E-03
            2091     4.30803E-03     28.3510E-03    -96.1972E+06    -175.895E+06    -48.6713E+06     873.223E+03    -230.133E-03     456.295E-03    -226.162E-03     116.390E-03    -232.555E-03     457.892E-03    -226.011E-03     100.390E-03
            2092     3.59084E-03     28.2054E-03    -103.829E+06    -207.423E+06    -66.1229E+06     1.32668E+06    -228.556E-03     454.336E-03    -225.781E-03     96.5768E-03    -230.191E-03     455.059E-03    -225.660E-03     83.6904E-03
            2093     2.87361E-03     28.0886E-03    -110.837E+06    -228.084E+06    -84.2390E+06     1.35029E+06    -227.289E-03     452.727E-03    -225.438E-03     77.0832E-03    -228.330E-03     452.809E-03    -225.367E-03     67.0607E-03
            2094     2.15599E-03     27.9946E-03    -116.589E+06    -252.390E+06    -100.382E+06     693.623E+03    -226.377E-03     451.512E-03    -225.135E-03     57.6517E-03    -226.970E-03     451.086E-03    -225.102E-03     50.2785E-03
            2095     1.43699E-03     27.9289E-03    -120.848E+06    -271.219E+06    -113.520E+06     703.992E+03    -225.537E-03     450.389E-03    -224.852E-03     38.4458E-03    -225.819E-03     449.608E-03    -224.851E-03     33.5918E-03
            2096     718.770E-06     27.8863E-03    -123.500E+06    -285.739E+06    -121.609E+06     1.14591E+06    -224.937E-03     449.512E-03    -224.575E-03     20.9203E-03    -225.037E-03     448.514E-03    -224.590E-03     18.3468E-03
            2097     13.5617E-03     30.4128E-03    -3.29651E+06     66.1479E+06     77.1059E+06     352.948E+03    -237.531E-03     469.850E-03    -232.319E-03     139.353E-03    -244.755E-03     477.074E-03    -232.025E-03     110.936E-03
            2098     12.8503E-03     30.1677E-03    -8.30269E+06     64.1155E+06     75.9248E+06     1.50581E+06    -237.961E-03     469.923E-03    -231.962E-03     197.218E-03    -249.554E-03     481.494E-03    -231.663E-03     159.749E-03
            2099     12.1408E-03     29.9074E-03    -14.1054E+06     56.1837E+06     73.3056E+06     868.030E+03    -239.102E-03     470.645E-03    -231.543E-03     214.424E-03    -252.390E-03     483.869E-03    -231.237E-03     174.250E-03
            2100     11.4322E-03     29.6067E-03    -19.1442E+06     51.5516E+06     73.8043E+06    -1.02975E+06    -239.782E-03     470.859E-03    -231.077E-03     238.986E-03    -255.240E-03     486.218E-03    -230.755E-03     195.477E-03
            2101     10.7245E-03     29.2796E-03    -25.2816E+06     45.6756E+06      72.642E+06    -972.040E+03    -240.445E-03     471.032E-03    -230.587E-03     253.315E-03    -256.672E-03     487.121E-03    -230.254E-03     208.618E-03
            2102     10.0132E-03     28.9405E-03    -32.5446E+06     35.9443E+06     64.4874E+06    -5.55742E+03    -240.921E-03     470.978E-03    -230.057E-03     257.920E-03    -256.751E-03     486.633E-03    -229.739E-03     213.641E-03
            2103     9.30398E-03     28.5978E-03    -39.8758E+06     26.3190E+06     53.1529E+06     553.554E+03    -240.725E-03     470.217E-03    -229.492E-03     251.153E-03    -255.067E-03     484.357E-03    -229.207E-03     208.957E-03
            2104     8.59242E-03     28.2739E-03    -47.4461E+06     15.9212E+06     41.7387E+06     1.15479E+06    -240.074E-03     468.976E-03    -228.902E-03     236.351E-03    -252.316E-03     480.985E-03    -228.647E-03     197.441E-03
            2105     7.88125E-03     27.9689E-03    -54.9105E+06     5.48681E+06     31.1485E+06     1.18441E+06    -238.733E-03     467.024E-03    -228.291E-03     216.925E-03    -248.741E-03     476.767E-03    -228.063E-03     181.982E-03
            2106     7.16940E-03     27.6948E-03    -62.5011E+06    -6.41130E+06     20.7414E+06     1.12306E+06    -236.723E-03     464.418E-03    -227.696E-03     196.190E-03    -244.667E-03     472.058E-03    -227.492E-03     165.466E-03
            2107     6.45503E-03     27.4456E-03    -70.7058E+06    -41.3389E+06     5.48584E+06     1.37770E+06    -234.963E-03     462.105E-03    -227.142E-03     175.604E-03    -241.113E-03     467.842E-03    -226.952E-03     148.943E-03
            2108     5.74104E-03     27.2243E-03    -79.3272E+06    -90.8020E+06    -13.9110E+06     1.32093E+06    -233.370E-03     459.972E-03    -226.603E-03     154.711E-03    -237.987E-03     464.026E-03    -226.425E-03     131.902E-03
            2109     5.02616E-03     27.0285E-03    -87.4320E+06    -132.107E+06    -31.7706E+06     1.21485E+06    -231.617E-03     457.689E-03    -226.072E-03     134.256E-03    -234.988E-03     460.373E-03    -225.912E-03     115.063E-03
            2110     4.30990E-03     26.8591E-03    -95.0342E+06    -175.142E+06    -47.8244E+06     1.24411E+06    -229.698E-03     455.299E-03    -225.602E-03     114.115E-03    -232.067E-03     456.849E-03    -225.449E-03     98.2813E-03
            2111     3.59306E-03     26.7176E-03    -102.774E+06    -207.344E+06    -64.2180E+06     974.851E+03    -228.087E-03     453.268E-03    -225.182E-03     94.6199E-03    -229.687E-03     453.954E-03    -225.053E-03     81.8529E-03
            2112     2.87528E-03     26.5995E-03    -109.612E+06    -227.114E+06    -81.8211E+06     804.668E+03    -226.980E-03     451.741E-03    -224.761E-03     75.4368E-03    -228.000E-03     451.803E-03    -224.681E-03     65.5002E-03
            2113     2.15738E-03     26.5092E-03    -115.400E+06    -250.626E+06    -98.4195E+06     863.209E+03    -225.874E-03     450.217E-03    -224.344E-03     56.3835E-03    -226.451E-03     449.781E-03    -224.305E-03     49.1170E-03
            2114     1.43970E-03     26.4434E-03    -120.622E+06    -271.171E+06    -112.252E+06     787.044E+03    -224.735E-03     448.720E-03    -223.985E-03     37.9371E-03    -225.014E-03     447.934E-03    -223.978E-03     33.1268E-03
            2115     720.257E-06     26.4046E-03    -124.984E+06    -283.059E+06    -121.809E+06     699.372E+03    -223.526E-03     447.700E-03    -224.175E-03     20.0472E-03    -223.636E-03     446.717E-03    -224.192E-03     17.4868E-03
            2116     13.5553E-03     28.8979E-03    -5.16844E+06     64.4591E+06     77.1035E+06     460.030E+03    -239.421E-03     471.793E-03    -232.372E-03     137.222E-03    -246.558E-03     478.916E-03    -232.072E-03     108.731E-03
            2117     12.8491E-03     28.6421E-03    -8.52585E+06     64.1260E+06     78.3142E+06     671.469E+03    -239.564E-03     471.484E-03    -231.921E-03     195.376E-03    -251.070E-03     482.962E-03    -231.610E-03     157.802E-03
            2118     12.1440E-03     28.3913E-03    -11.7522E+06     58.9092E+06     77.1918E+06     408.153E+03    -239.277E-03     470.720E-03    -231.443E-03     213.978E-03    -252.522E-03     483.909E-03    -231.125E-03     173.781E-03
            2119     11.4354E-03     28.0902E-03    -17.9249E+06     52.9446E+06     75.1486E+06     721.817E+03    -239.680E-03     470.644E-03    -230.964E-03     239.394E-03    -255.054E-03     485.925E-03    -230.639E-03     196.068E-03
            2120     10.7239E-03     27.7680E-03    -25.5659E+06     45.2378E+06     71.7542E+06     664.717E+03    -240.473E-03     470.944E-03    -230.470E-03     252.854E-03    -256.594E-03     486.926E-03    -230.140E-03     208.338E-03
            2121     10.0156E-03     27.4258E-03    -32.7428E+06     35.5242E+06     63.5038E+06     722.076E+03    -241.098E-03     471.021E-03    -229.923E-03     256.884E-03    -256.823E-03     486.572E-03    -229.610E-03     212.728E-03
            2122     9.30477E-03     27.0901E-03    -40.0274E+06     25.4874E+06     52.3026E+06     1.11519E+06    -241.236E-03     470.554E-03    -229.318E-03     250.088E-03    -255.493E-03     484.608E-03    -229.035E-03     207.930E-03
            2123     8.59461E-03     26.7642E-03    -47.2039E+06     16.4656E+06     41.8390E+06     978.987E+03    -240.401E-03     469.071E-03    -228.670E-03     234.655E-03    -252.549E-03     480.989E-03    -228.416E-03     195.813E-03
            2124     7.88372E-03     26.4647E-03    -54.5503E+06     6.16329E+06     31.4807E+06     652.862E+03    -238.583E-03     466.598E-03    -228.015E-03     214.767E-03    -248.479E-03     476.231E-03    -227.788E-03     180.002E-03
            2125     7.17045E-03     26.1928E-03    -62.6692E+06    -7.46169E+06     20.5812E+06     940.569E+03    -236.908E-03     464.278E-03    -227.370E-03     193.690E-03    -244.750E-03     471.811E-03    -227.165E-03     163.089E-03
            2126     6.45799E-03     25.9469E-03    -71.3158E+06    -41.2293E+06     5.59032E+06     1.34247E+06    -235.289E-03     462.012E-03    -226.723E-03     172.318E-03    -241.330E-03     467.637E-03    -226.532E-03     145.798E-03
            2127     5.74396E-03     25.7275E-03    -79.4762E+06    -89.1643E+06    -12.9634E+06     1.16875E+06    -233.407E-03     459.483E-03    -226.077E-03     151.445E-03    -237.928E-03     463.443E-03    -225.897E-03     128.817E-03
            2128     5.02917E-03     25.5353E-03    -87.6086E+06    -132.392E+06    -31.3506E+06     1.10583E+06    -231.394E-03     456.847E-03    -225.453E-03     131.247E-03    -234.690E-03     459.453E-03    -225.290E-03     112.236E-03
            2129     4.31317E-03     25.3696E-03    -95.5884E+06    -173.579E+06    -48.7242E+06     1.10699E+06    -229.513E-03     454.384E-03    -224.871E-03     111.063E-03    -231.821E-03     455.878E-03    -224.725E-03     95.4170E-03
            2130     3.59583E-03     25.2298E-03    -102.752E+06    -205.771E+06    -65.1932E+06    -58.5531E+03    -227.791E-03     452.112E-03    -224.320E-03     91.6911E-03    -229.340E-03     452.754E-03    -224.199E-03     79.0898E-03
            2131     2.87829E-03     25.1137E-03    -109.387E+06    -228.248E+06    -82.1977E+06    -23.3139E+03    -225.971E-03     449.806E-03    -223.835E-03     72.9876E-03    -226.951E-03     449.825E-03    -223.757E-03     63.2403E-03
            2132     2.15960E-03     25.0253E-03    -115.345E+06    -250.214E+06    -98.2839E+06     860.012E+03    -224.517E-03     448.014E-03    -223.496E-03     55.0499E-03    -225.078E-03     447.562E-03    -223.458E-03     47.9190E-03
            2133     1.43923E-03     24.9616E-03    -120.194E+06    -269.781E+06    -111.534E+06     1.01369E+06    -223.719E-03     447.014E-03    -223.295E-03     37.1961E-03    -223.994E-03     446.228E-03    -223.287E-03     32.4648E-03
            2134     719.089E-06     24.9244E-03    -122.831E+06    -280.667E+06    -121.018E+06     615.624E+03    -223.804E-03     446.474E-03    -222.671E-03     19.9585E-03    -223.905E-03     445.497E-03    -222.691E-03     17.4146E-03
            2135     13.5608E-03     27.3683E-03    -5.02020E+06     64.6387E+06     78.6068E+06    -352.758E+03    -240.554E-03     472.928E-03    -232.374E-03     135.006E-03    -247.660E-03     480.017E-03    -232.067E-03     106.383E-03
            2136     12.8546E-03     27.1274E-03    -8.50983E+06     63.8671E+06     77.8593E+06    -907.680E+03    -239.263E-03     471.153E-03    -231.890E-03     195.928E-03    -250.750E-03     482.611E-03    -231.581E-03     158.337E-03
            2137     12.1424E-03     26.8709E-03    -13.6199E+06     56.6426E+06     74.8850E+06    -160.183E+03    -239.262E-03     470.688E-03    -231.426E-03     215.005E-03    -252.431E-03     483.792E-03    -231.114E-03     174.963E-03
            2138     11.4330E-03     26.5757E-03    -19.2582E+06     51.2824E+06     74.2631E+06     1.41582E+06    -240.223E-03     471.167E-03    -230.943E-03     238.934E-03    -255.500E-03     486.342E-03    -230.619E-03     195.704E-03
            2139     10.7264E-03     26.2509E-03    -24.3788E+06     46.4522E+06     73.2525E+06     2.11440E+06    -240.926E-03     471.346E-03    -230.420E-03     252.169E-03    -256.963E-03     487.250E-03    -230.086E-03     207.718E-03
            2140     10.0157E-03     25.9164E-03    -31.3807E+06     36.0368E+06     64.8702E+06     2.11025E+06    -241.777E-03     471.604E-03    -229.827E-03     256.077E-03    -257.426E-03     487.081E-03    -229.509E-03     211.907E-03
            2141     9.30626E-03     25.5769E-03    -38.5338E+06     26.2931E+06     53.8209E+06     1.94361E+06    -241.970E-03     471.120E-03    -229.150E-03     248.354E-03    -256.122E-03     485.073E-03    -228.863E-03     206.178E-03
            2142     8.59715E-03     25.2559E-03    -45.8345E+06     18.0443E+06     42.8895E+06     1.50597E+06    -240.739E-03     469.161E-03    -228.422E-03     231.919E-03    -252.735E-03     480.934E-03    -228.167E-03     193.198E-03
            2143     7.88517E-03     24.9611E-03    -53.9337E+06     6.46167E+06     31.6858E+06     1.46390E+06    -239.231E-03     466.902E-03    -227.671E-03     211.420E-03    -248.963E-03     476.373E-03    -227.444E-03     176.778E-03
            2144     7.17428E-03     24.6897E-03    -62.2777E+06    -7.47302E+06     21.1889E+06     1.62039E+06    -237.630E-03     464.521E-03    -226.891E-03     189.339E-03    -245.286E-03     471.868E-03    -226.684E-03     158.928E-03
            2145     6.46182E-03     24.4479E-03    -70.3583E+06    -40.3121E+06     6.75696E+06     1.24198E+06    -235.556E-03     461.653E-03    -226.096E-03     167.726E-03    -241.424E-03     467.108E-03    -225.902E-03     141.461E-03
            2146     5.74827E-03     24.2325E-03    -78.6232E+06    -88.4792E+06    -11.9341E+06     1.12753E+06    -233.331E-03     458.649E-03    -225.318E-03     146.906E-03    -237.707E-03     462.466E-03    -225.135E-03     124.562E-03
            2147     5.03302E-03     24.0437E-03    -86.9387E+06    -132.480E+06    -30.1715E+06     1.57036E+06    -231.149E-03     455.715E-03    -224.566E-03     126.454E-03    -234.312E-03     458.187E-03    -224.399E-03     107.774E-03
            2148     4.31691E-03     23.8807E-03    -94.8365E+06    -170.154E+06    -48.6383E+06     816.231E+03    -229.147E-03     452.979E-03    -223.833E-03     106.904E-03    -231.359E-03     454.392E-03    -223.692E-03     91.5415E-03
            2149     3.60073E-03     23.7434E-03    -102.263E+06    -204.102E+06    -66.1746E+06    -220.034E+03    -227.006E-03     450.159E-03    -223.152E-03     88.0767E-03    -228.482E-03     450.739E-03    -223.039E-03     75.7727E-03
            2150     2.88188E-03     23.6326E-03    -109.294E+06    -230.321E+06    -83.1937E+06     17.0025E+03    -224.847E-03     447.440E-03    -222.593E-03     69.9062E-03    -225.773E-03     447.402E-03    -222.516E-03     60.4118E-03
            2151     2.16115E-03     23.5456E-03    -115.451E+06    -250.256E+06     -99.252E+06     485.447E+03    -223.294E-03     445.492E-03    -222.198E-03     51.9399E-03    -223.824E-03     445.011E-03    -222.164E-03     45.0085E-03
            2152     1.44117E-03     23.4824E-03    -119.597E+06    -268.470E+06    -111.958E+06     360.004E+03    -222.398E-03     444.348E-03    -221.950E-03     34.3304E-03    -222.651E-03     443.548E-03    -221.947E-03     29.7662E-03
            2153     721.527E-06     23.4437E-03    -123.115E+06    -279.016E+06    -120.552E+06     59.9392E+03    -222.073E-03     443.731E-03    -221.659E-03     18.6155E-03    -222.174E-03     442.756E-03    -221.678E-03     16.1335E-03
            2154     13.5580E-03     25.8500E-03    -2.92766E+06     65.8577E+06     77.5810E+06    -391.450E+03    -239.173E-03     471.609E-03    -232.436E-03     137.363E-03    -246.282E-03     478.717E-03    -232.139E-03     108.817E-03
            2155     12.8470E-03     25.6041E-03    -8.90259E+06     62.9001E+06     75.3268E+06     312.422E+03    -240.048E-03     472.031E-03    -231.983E-03     196.991E-03    -251.500E-03     483.456E-03    -231.684E-03     159.338E-03
            2156     12.1422E-03     25.3543E-03    -14.9714E+06     54.8869E+06     72.2285E+06     591.547E+03    -240.312E-03     471.786E-03    -231.473E-03     213.541E-03    -253.401E-03     484.806E-03    -231.170E-03     173.419E-03
            2157     11.4354E-03     25.0558E-03    -19.7190E+06     50.5360E+06     72.5215E+06     70.6712E+03    -240.504E-03     471.452E-03    -230.948E-03     237.525E-03    -255.686E-03     486.532E-03    -230.630E-03     194.292E-03
            2158     10.7246E-03     24.7382E-03    -25.8845E+06     44.5015E+06     71.4399E+06     670.002E+03    -241.753E-03     472.136E-03    -230.383E-03     251.070E-03    -257.700E-03     487.942E-03    -230.053E-03     206.512E-03
            2159     10.0165E-03     24.4001E-03    -32.0674E+06     35.6910E+06     65.1027E+06     1.54082E+06    -243.039E-03     472.747E-03    -229.707E-03     254.037E-03    -258.562E-03     488.093E-03    -229.387E-03     209.725E-03
            2160     9.30918E-03     24.0648E-03    -38.5152E+06     26.8256E+06     54.8884E+06     1.70189E+06    -242.817E-03     471.739E-03    -228.923E-03     245.231E-03    -256.767E-03     485.489E-03    -228.631E-03     203.113E-03
            2161     8.59847E-03     23.7485E-03    -45.4263E+06     18.0619E+06     43.8627E+06     1.95782E+06    -241.975E-03     470.032E-03    -228.058E-03     227.633E-03    -253.722E-03     481.555E-03    -227.799E-03     189.006E-03
            2162     7.88997E-03     23.4534E-03    -52.6634E+06     7.31038E+06     32.8272E+06     2.24600E+06    -240.640E-03     467.750E-03    -227.110E-03     205.851E-03    -250.092E-03     476.946E-03    -226.880E-03     171.376E-03
            2163     7.17965E-03     23.1880E-03    -60.3357E+06    -6.01299E+06     22.3237E+06     1.99008E+06    -238.368E-03     464.484E-03    -226.116E-03     183.287E-03    -245.744E-03     471.561E-03    -225.909E-03     153.210E-03
            2164     6.46766E-03     22.9498E-03    -68.7281E+06    -39.1705E+06     7.45431E+06     1.72365E+06    -235.859E-03     460.984E-03    -225.125E-03     161.266E-03    -241.471E-03     466.192E-03    -224.931E-03     135.415E-03
            2165     5.75441E-03     22.7385E-03    -77.3933E+06    -87.9539E+06    -11.5573E+06     1.94486E+06    -233.399E-03     457.543E-03    -224.144E-03     140.109E-03    -237.543E-03     461.134E-03    -223.962E-03     118.240E-03
            2166     5.04016E-03     22.5541E-03    -85.4203E+06    -131.178E+06    -29.2652E+06     1.76807E+06    -230.863E-03     454.046E-03    -223.183E-03     119.854E-03    -233.834E-03     456.333E-03    -223.015E-03     101.653E-03
            2167     4.32415E-03     22.3948E-03    -93.0447E+06    -167.090E+06    -47.0502E+06     1.02726E+06    -228.168E-03     450.437E-03    -222.270E-03     100.584E-03    -230.229E-03     451.712E-03    -222.128E-03     85.7189E-03
            2168     3.60522E-03     22.2615E-03    -100.854E+06    -203.194E+06    -64.8363E+06     726.137E+03    -225.659E-03     447.115E-03    -221.456E-03     81.9882E-03    -227.019E-03     447.584E-03    -221.339E-03     70.1567E-03
            2169     2.88606E-03     22.1541E-03    -107.957E+06    -230.902E+06    -82.4851E+06     829.635E+03    -223.664E-03     444.388E-03    -220.725E-03     64.5570E-03    -224.510E-03     444.271E-03    -220.646E-03     55.4323E-03
            2170     2.16704E-03     22.0690E-03    -114.138E+06     -249.35E+06    -99.0172E+06     843.510E+03    -221.888E-03     441.969E-03    -220.081E-03     48.0452E-03    -222.370E-03     441.447E-03    -220.049E-03     41.4113E-03
            2171     1.44558E-03     22.0088E-03    -119.567E+06    -267.633E+06    -111.843E+06     732.092E+03    -220.334E-03     439.957E-03    -219.624E-03     32.0973E-03    -220.568E-03     439.141E-03    -219.621E-03     27.7729E-03
            2172     721.759E-06     21.9715E-03    -122.177E+06    -277.429E+06    -120.602E+06     816.442E+03    -219.351E-03     438.915E-03    -219.564E-03     17.2091E-03    -219.444E-03     437.939E-03    -219.587E-03     14.9104E-03
            2173     13.5527E-03     24.3257E-03    -3.47540E+06     64.8219E+06     76.3409E+06     732.289E+03    -239.926E-03     472.457E-03    -232.531E-03     135.075E-03    -246.879E-03     479.406E-03    -232.238E-03     106.693E-03
            2174     12.8498E-03     24.0816E-03    -8.76416E+06     62.6401E+06     74.5661E+06     631.736E+03    -240.408E-03     472.445E-03    -232.037E-03     192.342E-03    -251.642E-03     483.654E-03    -231.742E-03     154.830E-03
            2175     12.1422E-03     23.8305E-03    -13.5637E+06     56.0099E+06     72.7536E+06     553.012E+03    -240.177E-03     471.690E-03    -231.512E-03     211.527E-03    -253.133E-03     484.585E-03    -231.210E-03     171.506E-03
            2176     11.4328E-03     23.5413E-03    -19.5224E+06     51.0110E+06     72.2799E+06     544.279E+03    -241.458E-03     472.414E-03    -230.956E-03     236.735E-03    -256.563E-03     487.420E-03    -230.640E-03     193.348E-03
            2177     10.7261E-03     23.2194E-03    -25.9821E+06     43.2911E+06     70.4377E+06     611.243E+03    -243.524E-03     473.816E-03    -230.291E-03     249.172E-03    -259.334E-03     489.483E-03    -229.964E-03     204.331E-03
            2178     10.0199E-03     22.8835E-03    -32.3592E+06     34.7754E+06     63.4794E+06     575.239E+03    -244.569E-03     474.039E-03    -229.469E-03     250.439E-03    -259.825E-03     489.119E-03    -229.156E-03     206.043E-03
            2179     9.31063E-03     22.5534E-03    -38.9018E+06     26.6155E+06     53.5459E+06     443.918E+03    -244.847E-03     473.344E-03    -228.498E-03     240.043E-03    -258.451E-03     486.750E-03    -228.212E-03     197.901E-03
            2180     8.60495E-03     22.2355E-03    -45.5867E+06     16.8713E+06     43.3480E+06     603.089E+03    -244.128E-03     471.509E-03    -227.381E-03     220.577E-03    -255.462E-03     482.615E-03    -227.123E-03     182.079E-03
            2181     7.89707E-03     21.9473E-03    -52.4479E+06     6.71441E+06     32.9632E+06     1.40213E+06    -242.082E-03     468.234E-03    -226.152E-03     197.693E-03    -251.093E-03     476.988E-03    -225.921E-03     163.628E-03
            2182     7.18765E-03     21.6857E-03    -60.1672E+06    -5.67797E+06     21.9333E+06     2.04489E+06    -239.418E-03     464.284E-03    -224.866E-03     174.137E-03    -246.371E-03     470.941E-03    -224.661E-03     144.611E-03
            2183     6.47731E-03     21.4530E-03    -68.5749E+06    -37.8887E+06     7.10481E+06     2.31462E+06    -236.450E-03     460.018E-03    -223.568E-03     151.435E-03    -241.673E-03     464.843E-03    -223.378E-03     126.262E-03
            2184     5.76485E-03     21.2472E-03    -76.6997E+06    -86.4232E+06    -11.6173E+06     2.17585E+06    -233.432E-03     455.706E-03    -222.274E-03     130.194E-03    -237.242E-03     458.971E-03    -222.095E-03     109.049E-03
            2185     5.05016E-03     21.0671E-03    -84.6509E+06    -129.277E+06    -29.4259E+06     1.95204E+06    -230.183E-03     451.190E-03    -221.008E-03     109.907E-03    -232.880E-03     453.214E-03    -220.845E-03     92.4520E-03
            2186     4.33354E-03     20.9138E-03    -92.6396E+06    -164.718E+06    -46.6148E+06     1.65023E+06    -226.763E-03     446.588E-03    -219.825E-03     91.0330E-03    -228.613E-03     447.660E-03    -219.685E-03     76.9094E-03
            2187     3.61569E-03     20.7856E-03    -100.084E+06    -201.854E+06    -63.3265E+06     1.13454E+06    -223.810E-03     442.584E-03    -218.774E-03     73.7995E-03    -225.022E-03     442.908E-03    -218.653E-03     62.6121E-03
            2188     2.89547E-03     20.6806E-03    -107.274E+06    -230.956E+06    -80.6353E+06     1.27845E+06    -221.293E-03     439.127E-03    -217.834E-03     57.8250E-03    -222.042E-03     438.909E-03    -217.747E-03     49.2563E-03
            2189     2.17234E-03     20.6002E-03    -113.723E+06    -248.198E+06    -97.1872E+06     1.63820E+06    -219.020E-03     436.063E-03    -217.043E-03     42.9900E-03    -219.451E-03     435.491E-03    -217.004E-03     36.7789E-03
            2190     1.44867E-03     20.5423E-03    -118.153E+06    -265.302E+06    -109.950E+06     1.31478E+06    -217.452E-03     433.893E-03    -216.441E-03     28.7526E-03    -217.663E-03     433.060E-03    -216.434E-03     24.7076E-03
            2191     725.813E-06     20.5068E-03    -121.021E+06    -275.762E+06    -118.653E+06     515.779E+03    -216.566E-03     432.345E-03    -215.778E-03     15.2083E-03    -216.649E-03     431.363E-03    -215.796E-03     13.0897E-03
            2192     13.5599E-03     22.8010E-03    -4.78023E+06     63.5732E+06     76.9795E+06     158.948E+03    -241.284E-03     473.885E-03    -232.601E-03     135.038E-03    -248.216E-03     480.803E-03    -232.302E-03     106.687E-03
            2193     12.8498E-03     22.5612E-03    -7.76810E+06     63.5185E+06     77.2905E+06     1.23259E+06    -240.073E-03     472.173E-03    -232.100E-03     194.464E-03    -251.288E-03     483.361E-03    -231.794E-03     157.178E-03
            2194     12.1403E-03     22.3129E-03    -12.3685E+06     57.0106E+06     74.5638E+06     1.94521E+06    -241.049E-03     472.618E-03    -231.569E-03     211.747E-03    -253.923E-03     485.434E-03    -231.261E-03     171.720E-03
            2195     11.4337E-03     22.0205E-03    -18.2693E+06     51.5982E+06     73.3929E+06     1.73139E+06    -243.704E-03     474.618E-03    -230.914E-03     235.037E-03    -258.666E-03     489.485E-03    -230.595E-03     191.300E-03
            2196     10.7286E-03     21.6971E-03    -24.3347E+06     44.0695E+06     71.6547E+06     1.38103E+06    -246.065E-03     476.139E-03    -230.074E-03     245.950E-03    -261.598E-03     491.534E-03    -229.744E-03     200.826E-03
            2197     10.0217E-03     21.3685E-03    -30.8534E+06     35.9704E+06     64.5435E+06     1.03234E+06    -247.867E-03     476.865E-03    -228.999E-03     244.518E-03    -262.670E-03     491.500E-03    -228.683E-03     199.943E-03
            2198     9.31918E-03     21.0340E-03    -37.8138E+06     27.3153E+06     53.6170E+06     532.372E+03    -248.164E-03     475.847E-03    -227.683E-03     231.320E-03    -261.179E-03     488.670E-03    -227.400E-03     189.252E-03
            2199     8.61439E-03     20.7248E-03    -45.2190E+06     16.2956E+06     42.0776E+06     518.262E+03    -246.600E-03     472.788E-03    -226.187E-03     210.309E-03    -257.287E-03     483.251E-03    -225.935E-03     172.263E-03
            2200     7.90847E-03     20.4396E-03    -53.0693E+06     5.04240E+06     31.3034E+06     903.567E+03    -244.175E-03     468.739E-03    -224.564E-03     185.807E-03    -252.551E-03     476.855E-03    -224.338E-03     152.383E-03
            2201     7.20213E-03     20.1846E-03    -60.6666E+06    -5.86697E+06     21.4343E+06     1.34665E+06    -240.796E-03     463.652E-03    -222.856E-03     160.868E-03    -247.146E-03     469.705E-03    -222.653E-03     132.201E-03
            2202     6.49261E-03     19.9588E-03    -68.2570E+06    -36.9189E+06     6.98869E+06     1.68424E+06    -237.063E-03     458.184E-03    -221.121E-03     138.064E-03    -241.770E-03     462.499E-03    -220.934E-03     113.839E-03
            2203     5.78107E-03     19.7590E-03    -76.0085E+06    -85.0556E+06    -11.7402E+06     2.09208E+06    -233.042E-03     452.444E-03    -219.402E-03     116.925E-03    -236.427E-03     455.292E-03    -219.228E-03     96.7837E-03
            2204     5.06732E-03     19.5863E-03    -83.7591E+06    -127.106E+06    -29.3545E+06     2.19409E+06    -228.665E-03     446.427E-03    -217.762E-03     97.6000E-03    -231.031E-03     448.130E-03    -217.603E-03     81.1663E-03
            2205     4.35013E-03     19.4402E-03    -90.9592E+06    -162.305E+06    -45.8012E+06     1.82133E+06    -224.607E-03     440.861E-03    -216.254E-03     80.3318E-03    -226.220E-03     441.708E-03    -216.116E-03     67.1135E-03
            2206     3.62926E-03     19.3172E-03    -98.2379E+06    -200.444E+06    -60.8395E+06     1.62386E+06    -220.960E-03     435.879E-03    -214.919E-03     64.7749E-03    -222.011E-03     436.045E-03    -214.790E-03     54.3775E-03
            2207     2.90646E-03     19.2177E-03    -105.434E+06    -230.438E+06    -76.9941E+06     1.55322E+06    -217.741E-03     431.495E-03    -213.754E-03     50.1655E-03    -218.385E-03     431.169E-03    -213.652E-03     42.2656E-03
            2208     2.18247E-03     19.1418E-03    -111.066E+06    -246.658E+06    -93.9439E+06     1.35810E+06    -215.144E-03     427.911E-03    -212.767E-03     36.5780E-03    -215.508E-03     427.276E-03    -212.718E-03     30.8849E-03
            2209     1.45627E-03     19.0862E-03    -115.468E+06    -262.515E+06    -107.959E+06     1.12523E+06    -213.116E-03     425.140E-03    -212.024E-03     24.3771E-03    -213.292E-03     424.285E-03    -212.015E-03     20.6671E-03
            2210     727.772E-06     19.0525E-03    -118.913E+06    -273.449E+06    -117.388E+06     591.090E+03    -212.166E-03     423.411E-03    -211.245E-03     13.1403E-03    -212.237E-03     422.429E-03    -211.263E-03     11.1704E-03
            2211     13.5501E-03     21.2782E-03    -4.31880E+06     63.3444E+06     76.0346E+06     357.659E+03    -240.652E-03     473.419E-03    -232.768E-03     135.827E-03    -247.573E-03     480.330E-03    -232.473E-03     107.530E-03
            2212     12.8441E-03     21.0372E-03    -9.64421E+06     61.2505E+06     74.9407E+06     153.604E+03    -241.564E-03     473.813E-03    -232.249E-03     193.874E-03    -252.778E-03     484.992E-03    -231.949E-03     156.247E-03
            2213     12.1397E-03     20.7901E-03    -13.9506E+06     55.2613E+06     73.6732E+06     254.466E+03    -244.034E-03     475.629E-03    -231.596E-03     211.032E-03    -256.879E-03     488.408E-03    -231.287E-03     170.338E-03
            2214     11.4360E-03     20.4939E-03    -17.9580E+06     51.3178E+06     74.1548E+06     1.15860E+06    -247.465E-03     478.192E-03    -230.727E-03     232.381E-03    -262.163E-03     492.793E-03    -230.405E-03     188.100E-03
            2215     10.7312E-03     20.1774E-03    -23.5483E+06     45.0272E+06     72.7131E+06     1.57156E+06    -250.791E-03     480.358E-03    -229.567E-03     239.283E-03    -265.786E-03     495.219E-03    -229.235E-03     193.753E-03
            2216     10.0321E-03     19.8407E-03    -29.8427E+06     37.1408E+06     65.8694E+06     1.19018E+06    -252.668E-03     480.735E-03    -228.067E-03     234.465E-03    -266.724E-03     494.627E-03    -227.749E-03     189.794E-03
            2217     9.33156E-03     19.5169E-03    -36.5692E+06     27.6473E+06     54.9347E+06     1.41628E+06    -252.090E-03     478.366E-03    -226.276E-03     218.924E-03    -264.233E-03     490.319E-03    -225.988E-03     177.269E-03
            2218     8.62984E-03     19.2111E-03    -43.7671E+06     16.7008E+06     43.0397E+06     1.83223E+06    -250.108E-03     474.372E-03    -224.264E-03     196.088E-03    -259.917E-03     483.962E-03    -224.009E-03     158.753E-03
            2219     7.92857E-03     18.9316E-03    -50.9663E+06     5.75933E+06     32.0993E+06     1.75221E+06    -246.545E-03     468.640E-03    -222.095E-03     169.781E-03    -254.081E-03     475.924E-03    -221.869E-03     137.386E-03
            2220     7.22341E-03     18.6867E-03    -58.7058E+06    -5.29906E+06     21.8539E+06     1.35235E+06    -241.971E-03     461.823E-03    -219.852E-03     145.017E-03    -247.615E-03     467.178E-03    -219.650E-03     117.511E-03
            2221     6.51596E-03     18.4678E-03    -66.8486E+06    -36.2620E+06     7.82324E+06     1.78854E+06    -237.085E-03     454.696E-03    -217.610E-03     122.794E-03    -241.225E-03     458.448E-03    -217.422E-03     99.7901E-03
            2222     5.80523E-03     18.2778E-03    -74.9477E+06    -83.1760E+06    -10.6944E+06     2.25357E+06    -231.620E-03     447.057E-03    -215.438E-03     102.638E-03    -234.559E-03     449.468E-03    -215.262E-03     83.7607E-03
            2223     5.08914E-03     18.1150E-03    -82.4249E+06    -124.344E+06    -28.2671E+06     1.68686E+06    -226.250E-03     439.659E-03    -213.409E-03     84.9439E-03    -228.293E-03     441.050E-03    -213.251E-03     69.6612E-03
            2224     4.36976E-03     17.9757E-03    -89.7434E+06    -161.511E+06    -45.3936E+06     1.75474E+06    -221.417E-03     432.975E-03    -211.558E-03     69.1678E-03    -222.796E-03     433.593E-03    -211.421E-03     56.9815E-03
            2225     3.64827E-03     17.8608E-03    -97.0147E+06    -197.684E+06    -61.3732E+06     1.91565E+06    -217.054E-03     426.963E-03    -209.910E-03     55.0186E-03    -217.945E-03     426.985E-03    -209.789E-03     45.5082E-03
            2226     2.92285E-03     17.7679E-03    -103.302E+06    -228.000E+06    -75.9169E+06     822.574E+03    -213.216E-03     421.707E-03    -208.491E-03     42.3527E-03    -213.757E-03     421.290E-03    -208.390E-03     35.1520E-03
            2227     2.19436E-03     17.6957E-03    -109.290E+06    -246.955E+06    -91.7612E+06     803.705E+03    -210.096E-03     417.403E-03    -207.307E-03     30.9277E-03    -210.401E-03     416.708E-03    -207.250E-03     25.7642E-03
            2228     1.46417E-03     17.6460E-03    -114.580E+06    -260.576E+06    -106.477E+06     1.40591E+06    -207.686E-03     414.096E-03    -206.411E-03     20.3665E-03    -207.838E-03     413.223E-03    -206.399E-03     17.0232E-03
            2229     732.486E-06     17.6147E-03    -117.423E+06    -270.171E+06    -115.333E+06     917.118E+03    -205.936E-03     412.041E-03    -206.104E-03     10.9549E-03    -206.001E-03     411.060E-03    -206.119E-03     9.17721E-03
            2230     13.5515E-03     19.7508E-03    -4.23478E+06     63.1376E+06     76.1442E+06     566.493E+03    -241.279E-03     474.199E-03    -232.919E-03     133.336E-03    -248.114E-03     481.021E-03    -232.624E-03     104.987E-03
            2231     12.8461E-03     19.5136E-03    -8.99225E+06     61.3974E+06     74.4735E+06     348.454E+03    -244.120E-03     476.426E-03    -232.306E-03     191.997E-03    -255.227E-03     487.503E-03    -232.010E-03     153.932E-03
            2232     12.1408E-03     19.2609E-03    -13.4370E+06     54.9636E+06     72.2872E+06     2.57287E+03    -248.578E-03     480.014E-03    -231.436E-03     208.731E-03    -261.205E-03     492.579E-03    -231.135E-03     167.274E-03
            2233     11.4385E-03     18.9653E-03    -19.2503E+06     49.4675E+06     71.7928E+06    -202.276E+03    -253.863E-03     484.057E-03    -230.195E-03     225.402E-03    -268.029E-03     498.123E-03    -229.879E-03     180.301E-03
            2234     10.7437E-03     18.6432E-03    -23.7786E+06     44.1762E+06     71.9030E+06    -71.3017E+03    -257.309E-03     485.838E-03    -228.530E-03     228.552E-03    -271.475E-03     499.870E-03    -228.200E-03     182.586E-03
            2235     10.0474E-03     18.3143E-03    -29.6562E+06     36.4078E+06     65.3443E+06     618.075E+03    -258.113E-03     484.578E-03    -226.465E-03     220.931E-03    -271.127E-03     497.428E-03    -226.148E-03     176.508E-03
            2236     9.35081E-03     17.9954E-03    -36.3327E+06     26.8478E+06     54.7462E+06     1.27897E+06    -257.128E-03     481.193E-03    -224.064E-03     202.816E-03    -268.171E-03     492.046E-03    -223.777E-03     161.805E-03
            2237     8.65577E-03     17.6942E-03    -42.5529E+06     16.8599E+06     44.0835E+06     1.58205E+06    -253.789E-03     475.195E-03    -221.406E-03     178.208E-03    -262.552E-03     483.742E-03    -221.148E-03     141.925E-03
            2238     7.95611E-03     17.4281E-03    -49.0173E+06     6.38002E+06     33.2389E+06     1.79640E+06    -248.456E-03     467.068E-03    -218.612E-03     151.773E-03    -255.078E-03     473.446E-03    -218.384E-03     120.764E-03
            2239     7.25324E-03     17.1915E-03    -56.2207E+06    -4.40933E+06     23.2218E+06     2.24743E+06    -242.500E-03     458.291E-03    -215.790E-03     127.521E-03    -247.399E-03     462.910E-03    -215.586E-03     101.503E-03
            2240     6.54633E-03     16.9842E-03    -64.0472E+06    -34.6539E+06     10.1910E+06     2.68111E+06    -235.877E-03     448.913E-03    -213.036E-03     105.902E-03    -239.415E-03     452.073E-03    -212.842E-03     84.4687E-03
            2241     5.83335E-03     16.8070E-03    -71.7071E+06    -79.8892E+06    -8.02258E+06     2.51151E+06    -229.215E-03     439.632E-03    -210.418E-03     86.9916E-03    -231.694E-03     441.598E-03    -210.238E-03     69.5963E-03
            2242     5.11719E-03     16.6537E-03    -79.3971E+06    -121.541E+06    -26.6974E+06     2.32230E+06    -222.954E-03     430.937E-03    -207.983E-03     70.7445E-03    -224.656E-03     432.003E-03    -207.825E-03     56.7918E-03
            2243     4.39628E-03     16.5257E-03     -87.119E+06    -160.837E+06    -44.9791E+06     2.86092E+06    -217.077E-03     422.859E-03    -205.782E-03     56.8580E-03    -218.211E-03     423.242E-03    -205.648E-03     45.8540E-03
            2244     3.66983E-03     16.4181E-03    -94.0876E+06    -193.224E+06    -62.2981E+06     2.40413E+06    -211.886E-03     415.738E-03    -203.852E-03     44.9696E-03    -212.616E-03     415.627E-03    -203.746E-03     36.4394E-03
            2245     2.94082E-03     16.3334E-03    -101.211E+06    -225.229E+06    -76.5719E+06     1.44530E+06    -207.482E-03     409.720E-03    -202.238E-03     34.4507E-03    -207.924E-03     409.223E-03    -202.148E-03     28.0322E-03
            2246     2.20858E-03     16.2680E-03    -108.132E+06    -247.628E+06    -89.7882E+06     1.39001E+06    -203.919E-03     404.860E-03    -200.941E-03     24.9755E-03    -204.171E-03     404.106E-03    -200.874E-03     20.3937E-03
            2247     1.47375E-03     16.2216E-03    -113.495E+06    -258.318E+06    -104.177E+06     1.11189E+06    -201.393E-03     401.325E-03    -199.932E-03     16.3165E-03    -201.525E-03     400.435E-03    -199.914E-03     13.3400E-03
            2248     737.875E-06     16.1936E-03    -117.054E+06    -267.827E+06    -114.605E+06     409.198E+03    -199.395E-03     398.931E-03    -199.536E-03     8.64997E-03    -199.455E-03     397.954E-03    -199.551E-03     7.06173E-03
            2249     13.5488E-03     18.2247E-03    -3.29009E+06     63.6625E+06     77.3755E+06     840.975E+03    -242.808E-03     475.769E-03    -232.961E-03     135.308E-03    -249.645E-03     482.595E-03    -232.661E-03     106.666E-03
            2250     12.8435E-03     17.9841E-03    -8.10847E+06     61.6266E+06     75.3421E+06     316.288E+03    -249.476E-03     481.639E-03    -232.162E-03     191.614E-03    -260.489E-03     492.623E-03    -231.863E-03     152.570E-03
            2251     12.1448E-03     17.7250E-03    -12.7913E+06     55.0903E+06     72.6221E+06     77.2905E+03    -256.271E-03     487.155E-03    -230.884E-03     202.153E-03    -268.468E-03     499.291E-03    -230.582E-03     159.605E-03
            2252     11.4533E-03     17.4244E-03    -16.9454E+06     50.8050E+06     72.3957E+06     25.0498E+03    -261.444E-03     490.538E-03    -229.094E-03     215.453E-03    -274.811E-03     503.816E-03    -228.781E-03     169.694E-03
            2253     10.7611E-03     17.1050E-03    -23.6039E+06     43.3284E+06     70.2177E+06    -266.276E+03    -264.503E-03     491.313E-03    -226.810E-03     215.294E-03    -277.597E-03     504.275E-03    -226.488E-03     169.235E-03
            2254     10.0706E-03     16.7838E-03    -30.0195E+06     35.0125E+06     64.1056E+06    -138.102E+03    -265.023E-03     489.076E-03    -224.053E-03     203.919E-03    -276.801E-03     500.689E-03    -223.740E-03     159.911E-03
            2255     9.38204E-03     16.4673E-03    -35.7455E+06     26.3850E+06     54.7431E+06    -26.4376E+03    -262.310E-03     483.224E-03    -220.913E-03     183.774E-03    -272.131E-03     492.856E-03    -220.626E-03     143.751E-03
            2256     8.68885E-03     16.1821E-03    -41.7907E+06     16.5543E+06     43.7088E+06     41.7858E+03    -256.828E-03     474.372E-03    -217.544E-03     158.083E-03    -264.472E-03     481.803E-03    -217.288E-03     123.279E-03
            2257     7.99206E-03     15.9261E-03    -47.8654E+06     5.01869E+06     32.9020E+06     694.804E+03    -249.989E-03     464.073E-03    -214.083E-03     131.454E-03    -255.661E-03     469.501E-03    -213.857E-03     102.112E-03
            2258     7.29100E-03     15.7036E-03    -54.4336E+06    -5.51691E+06     23.5805E+06     2.00923E+06    -242.044E-03     452.695E-03    -210.651E-03     107.161E-03    -246.149E-03     456.522E-03    -210.446E-03     82.9807E-03
            2259     6.58292E-03     15.5120E-03    -61.8886E+06    -31.6307E+06     11.0840E+06     2.78605E+06    -233.697E-03     441.060E-03    -207.363E-03     86.4344E-03    -236.614E-03     443.615E-03    -207.172E-03     66.8181E-03
            2260     5.87029E-03     15.3472E-03    -69.9847E+06    -76.6919E+06    -7.51524E+06     2.93332E+06    -225.731E-03     430.021E-03    -204.290E-03     69.2379E-03    -227.752E-03     431.544E-03    -204.115E-03     53.5008E-03
            2261     5.15066E-03     15.2076E-03    -78.1732E+06    -120.292E+06    -27.1598E+06     3.95490E+06    -218.225E-03     419.704E-03    -201.480E-03     55.2940E-03    -219.597E-03     420.450E-03    -201.328E-03     42.8424E-03
            2262     4.42552E-03     15.0905E-03    -85.7571E+06    -157.782E+06    -45.2324E+06     4.40966E+06    -211.450E-03     410.435E-03    -198.986E-03     43.8968E-03    -212.362E-03     410.613E-03    -198.859E-03     34.1624E-03
            2263     3.69655E-03     14.9945E-03    -93.3129E+06    -189.866E+06    -62.4595E+06     4.25655E+06    -205.441E-03     402.289E-03    -196.848E-03     34.1598E-03    -206.028E-03     402.050E-03    -196.750E-03     26.6881E-03
            2264     2.96206E-03     14.9171E-03    -100.445E+06    -221.264E+06    -78.0191E+06     3.77200E+06    -200.531E-03     395.638E-03    -195.107E-03     26.0424E-03    -200.887E-03     395.074E-03    -195.030E-03     20.4627E-03
            2265     2.22464E-03     14.8587E-03    -106.341E+06    -244.213E+06    -91.4519E+06     1.90323E+06    -196.835E-03     390.572E-03    -193.737E-03     18.9478E-03    -197.035E-03     389.789E-03    -193.686E-03     14.9505E-03
            2266     1.48467E-03     14.8170E-03    -111.103E+06    -256.527E+06    -103.266E+06     767.293E+03    -194.055E-03     386.800E-03    -192.745E-03     12.4366E-03    -194.159E-03     385.894E-03    -192.729E-03     9.82781E-03
            2267     742.128E-06     14.7927E-03    -114.074E+06    -265.468E+06    -111.909E+06     888.104E+03    -192.493E-03     384.628E-03    -192.135E-03     6.59112E-03    -192.540E-03     383.647E-03    -192.144E-03     5.22189E-03
            2268     13.5486E-03     16.7024E-03    -3.53520E+06     63.2143E+06     77.0672E+06     885.976E+03    -249.075E-03     481.859E-03    -232.783E-03     133.648E-03    -255.836E-03     488.607E-03    -232.484E-03     104.138E-03
            2269     12.8505E-03     16.4387E-03    -6.50874E+06     62.7414E+06     76.9268E+06     326.294E+03    -257.054E-03     488.632E-03    -231.578E-03     185.771E-03    -267.752E-03     499.306E-03    -231.275E-03     145.628E-03
            2270     12.1617E-03     16.1786E-03    -11.4951E+06     55.7059E+06     73.5695E+06     -871.99E+03    -264.437E-03     494.215E-03    -229.779E-03     195.139E-03    -276.065E-03     505.788E-03    -229.475E-03     151.619E-03
            2271     11.4716E-03     15.8778E-03    -17.5516E+06     49.5705E+06     71.7778E+06    -219.265E+03    -270.309E-03     497.672E-03    -227.362E-03     204.893E-03    -282.778E-03     510.047E-03    -227.050E-03     158.593E-03
            2272     10.7867E-03     15.5608E-03    -22.5104E+06     43.7231E+06     71.1269E+06     253.517E+03    -273.084E-03     497.424E-03    -224.340E-03     199.495E-03    -285.008E-03     509.220E-03    -224.015E-03     153.471E-03
            2273     10.1055E-03     15.2422E-03    -27.8166E+06     36.2410E+06     65.2424E+06    -164.054E+03    -272.019E-03     492.797E-03    -220.777E-03     184.929E-03    -282.531E-03     503.154E-03    -220.463E-03     141.594E-03
            2274     9.42001E-03     14.9436E-03    -34.0649E+06     26.7889E+06     54.9293E+06    -771.942E+03    -267.240E-03     484.078E-03    -216.838E-03     163.148E-03    -275.831E-03     492.490E-03    -216.553E-03     124.416E-03
            2275     8.73120E-03     14.6695E-03    -40.1838E+06     16.5581E+06     43.8706E+06    -898.185E+03    -260.079E-03     472.773E-03    -212.694E-03     135.890E-03    -266.611E-03     479.101E-03    -212.440E-03     102.718E-03
            2276     8.03796E-03     14.4308E-03    -46.5352E+06     3.20999E+06     32.1123E+06    -260.545E+03    -250.960E-03     459.460E-03    -208.500E-03     108.444E-03    -255.678E-03     463.937E-03    -208.276E-03     80.9980E-03
            2277     7.33656E-03     14.2259E-03    -53.7727E+06    -8.49254E+06     20.9025E+06     1.52442E+06    -240.767E-03     445.186E-03    -204.419E-03     84.7192E-03    -244.109E-03     448.251E-03    -204.224E-03     62.5182E-03
            2278     6.62896E-03     14.0516E-03    -61.6588E+06    -30.1531E+06     7.87298E+06     3.50129E+06    -230.573E-03     431.157E-03    -200.585E-03     65.6218E-03    -232.920E-03     433.158E-03    -200.412E-03     47.8908E-03
            2279     5.91256E-03     13.9033E-03    -70.2557E+06    -74.2169E+06    -9.25962E+06     5.07345E+06    -220.876E-03     417.967E-03    -197.091E-03     50.7346E-03    -222.490E-03     419.095E-03    -196.928E-03     36.7417E-03
            2280     5.18988E-03     13.7793E-03    -79.0760E+06    -118.209E+06    -27.5594E+06     5.75409E+06    -212.150E-03     406.124E-03    -193.974E-03     39.2142E-03    -213.242E-03     406.594E-03    -193.826E-03     28.2695E-03
            2281     4.46077E-03     13.6750E-03    -87.3616E+06    -153.977E+06    -46.2943E+06     5.94680E+06    -204.480E-03     395.732E-03    -191.252E-03     30.2234E-03    -205.210E-03     395.737E-03    -191.133E-03     21.7579E-03
            2282     3.72532E-03     13.5899E-03    -94.4351E+06    -186.513E+06    -63.6681E+06     6.04160E+06    -198.004E-03     386.963E-03    -188.959E-03     23.0465E-03    -198.476E-03     386.618E-03    -188.870E-03     16.6048E-03
            2283     2.98574E-03     13.5233E-03    -100.425E+06    -214.759E+06    -80.0829E+06     4.99012E+06    -192.727E-03     379.830E-03    -187.102E-03     17.2140E-03    -193.015E-03     379.226E-03    -187.046E-03     12.4305E-03
            2284     2.24221E-03     13.4696E-03    -105.666E+06    -238.820E+06    -94.3147E+06     2.96646E+06    -188.622E-03     374.335E-03    -185.712E-03     12.3089E-03    -188.782E-03     373.540E-03    -185.685E-03     8.90297E-03
            2285     1.49607E-03     13.4349E-03    -109.314E+06    -254.494E+06    -104.063E+06     1.42849E+06    -185.998E-03     370.770E-03    -184.772E-03     8.15089E-03    -186.078E-03     369.854E-03    -184.765E-03     5.92819E-03
            2286     748.931E-06     13.4110E-03    -111.291E+06    -263.244E+06    -110.064E+06     294.516E+03    -184.426E-03     368.730E-03    -184.304E-03     4.40092E-03    -184.459E-03     367.748E-03    -184.311E-03     3.21336E-03
            2287     13.5587E-03     15.1510E-03    -4.22057E+06     63.4849E+06     75.7485E+06    -1.51718E+06    -257.801E-03     490.131E-03    -232.330E-03     135.902E-03    -264.726E-03     497.046E-03    -232.037E-03     104.809E-03
            2288     12.8693E-03     14.8983E-03    -8.33546E+06     61.8594E+06     74.4564E+06    -1.05923E+06    -266.606E-03     497.220E-03    -230.614E-03     189.012E-03    -277.310E-03     507.898E-03    -230.320E-03     147.244E-03
            2289     12.1764E-03     14.6212E-03    -12.2471E+06     55.2141E+06     72.4103E+06     145.025E+03    -275.200E-03     503.390E-03    -228.191E-03     190.614E-03    -286.326E-03     514.461E-03    -227.891E-03     146.002E-03
            2290     11.4988E-03     14.3192E-03    -16.7183E+06     50.0621E+06     72.5082E+06    -488.483E+03    -280.915E-03     505.918E-03    -225.003E-03     192.546E-03    -292.552E-03     517.466E-03    -224.689E-03     145.420E-03
            2291     10.8242E-03     14.0058E-03    -21.5651E+06     44.0128E+06     72.0549E+06    -1.43662E+06    -281.837E-03     502.976E-03    -221.139E-03     183.513E-03    -292.703E-03     513.718E-03    -220.812E-03     137.499E-03
            2292     10.1460E-03     13.7011E-03    -26.9222E+06     36.4831E+06     65.9615E+06    -1.53515E+06    -278.753E-03     495.495E-03    -216.742E-03     166.431E-03    -288.129E-03     504.720E-03    -216.426E-03     123.881E-03
            2293     9.46656E-03     13.4159E-03    -32.5524E+06     27.1711E+06     55.4999E+06    -1.16279E+06    -273.002E-03     484.948E-03    -211.946E-03     141.863E-03    -280.498E-03     492.272E-03    -211.661E-03     104.255E-03
            2294     8.78314E-03     13.1598E-03    -39.0543E+06     15.7973E+06     42.8776E+06    -457.454E+03    -263.275E-03     470.219E-03    -206.944E-03     112.148E-03    -268.798E-03     475.543E-03    -206.695E-03     80.5789E-03
            2295     8.09078E-03     12.9433E-03    -46.5741E+06     1.76439E+06     29.4079E+06     1.03081E+06    -251.077E-03     453.077E-03    -202.000E-03     85.2786E-03    -254.986E-03     456.749E-03    -201.788E-03     59.7071E-03
            2296     7.39075E-03     12.7596E-03    -54.5812E+06    -11.3025E+06     16.5365E+06     2.81654E+06    -238.584E-03     435.892E-03    -197.308E-03     63.3046E-03    -241.318E-03     438.349E-03    -197.130E-03     42.9345E-03
            2297     6.68020E-03     12.6066E-03    -63.0018E+06    -31.7031E+06     2.54306E+06     5.62114E+06    -226.427E-03     419.411E-03    -192.985E-03     46.4724E-03    -228.336E-03     420.980E-03    -192.835E-03     30.4524E-03
            2298     5.96152E-03     12.4782E-03    -71.5843E+06    -70.6279E+06    -13.3015E+06     7.71204E+06    -215.401E-03     404.508E-03    -189.107E-03     33.7571E-03    -216.711E-03     405.353E-03    -188.967E-03     21.2818E-03
            2299     5.23375E-03     12.3707E-03    -79.7200E+06    -113.714E+06    -28.5055E+06     7.74683E+06    -205.548E-03     391.244E-03    -185.696E-03     24.1988E-03    -206.434E-03     391.526E-03    -185.558E-03     14.5352E-03
            2300     4.49902E-03     12.2811E-03    -87.6086E+06    -149.863E+06    -45.2772E+06     7.34917E+06    -196.936E-03     379.691E-03    -182.756E-03     17.0836E-03    -197.528E-03     379.570E-03    -182.638E-03     9.69279E-03
            2301     3.75808E-03     12.2094E-03    -94.5464E+06    -181.639E+06    -63.4229E+06     6.49570E+06    -189.845E-03     370.145E-03    -180.300E-03     12.0629E-03    -190.230E-03     369.729E-03    -180.217E-03     6.48186E-03
            2302     3.01266E-03     12.1490E-03    -100.326E+06    -208.813E+06    -79.9128E+06     5.44968E+06    -184.233E-03     362.565E-03    -178.332E-03     8.42050E-03    -184.473E-03     361.933E-03    -178.283E-03     4.30205E-03
            2303     2.26271E-03     12.1078E-03    -105.270E+06    -232.972E+06    -93.4967E+06     4.45472E+06    -180.006E-03     356.855E-03    -176.849E-03     5.73610E-03    -180.142E-03     356.055E-03    -176.826E-03     2.84174E-03
            2304     1.50957E-03     12.0723E-03    -109.317E+06    -249.847E+06    -104.806E+06     2.82889E+06    -177.136E-03     352.960E-03    -175.823E-03     3.56565E-03    -177.208E-03     352.053E-03    -175.827E-03     1.70011E-03
            2305     754.966E-06     12.0556E-03    -112.058E+06    -261.002E+06    -111.413E+06     1.04908E+06    -175.689E-03     350.767E-03    -175.078E-03     1.79811E-03    -175.724E-03     349.794E-03    -175.094E-03     801.637E-06
            2306     13.5634E-03     13.6091E-03    -3.20889E+06     64.9538E+06     75.9282E+06    -316.378E+03    -267.908E-03     499.723E-03    -231.815E-03     143.985E-03    -275.116E-03     506.929E-03    -231.524E-03     110.718E-03
            2307     12.8721E-03     13.3269E-03    -9.60233E+06     61.1788E+06     72.3830E+06    -1.51258E+06    -279.909E-03     509.338E-03    -229.429E-03     187.190E-03    -290.650E-03     520.053E-03    -229.142E-03     142.854E-03
            2308     12.2056E-03     13.0483E-03    -13.7788E+06     54.6123E+06     70.9497E+06    -2.67459E+06    -287.371E-03     513.561E-03    -226.190E-03     184.610E-03    -298.268E-03     524.398E-03    -225.895E-03     138.016E-03
            2309     11.5341E-03     12.7500E-03    -17.1208E+06     51.0139E+06     72.0164E+06    -3.07699E+06    -291.454E-03     513.624E-03    -222.170E-03     184.111E-03    -302.563E-03     524.648E-03    -221.859E-03     135.915E-03
            2310     10.8638E-03     12.4417E-03    -22.0162E+06     44.4647E+06     71.0070E+06    -2.89565E+06    -291.066E-03     508.525E-03    -217.459E-03     170.632E-03    -301.161E-03     518.500E-03    -217.137E-03     124.380E-03
            2311     10.1935E-03     12.1585E-03    -27.8337E+06     35.3102E+06     64.4317E+06    -2.92107E+06    -287.497E-03     499.642E-03    -212.145E-03     149.426E-03    -296.028E-03     508.022E-03    -211.834E-03     106.984E-03
            2312     9.52048E-03     11.8810E-03    -33.7901E+06     24.8782E+06     53.4870E+06    -2.09235E+06    -278.749E-03     485.161E-03    -206.411E-03     120.287E-03    -285.355E-03     491.591E-03    -206.131E-03     83.5276E-03
            2313     8.84052E-03     11.6563E-03    -40.4082E+06     12.5939E+06     39.6632E+06     286.476E+03    -264.978E-03     465.583E-03    -200.605E-03     89.8943E-03    -269.718E-03     470.119E-03    -200.366E-03     59.8209E-03
            2314     8.14993E-03     11.4638E-03    -47.7131E+06    -575.623E+03     25.6599E+06     3.19692E+06    -249.945E-03     444.987E-03    -195.042E-03     65.7183E-03    -253.289E-03     448.094E-03    -194.843E-03     41.7085E-03
            2315     7.44729E-03     11.3076E-03    -55.6977E+06    -14.2175E+06     12.3177E+06     6.13375E+06    -235.338E-03     425.216E-03    -189.878E-03     46.5180E-03    -237.685E-03     427.285E-03    -189.716E-03     27.6003E-03
            2316     6.73439E-03     11.1783E-03    -64.5507E+06    -32.5870E+06    -1.68904E+06     8.69953E+06    -222.016E-03     407.188E-03    -185.172E-03     31.9183E-03    -223.667E-03     408.503E-03    -185.040E-03     17.1486E-03
            2317     6.01101E-03     11.0712E-03    -72.8853E+06    -65.6307E+06    -17.5730E+06     9.49590E+06    -209.930E-03     390.883E-03    -180.953E-03     21.1663E-03    -211.075E-03     391.589E-03    -180.840E-03     9.71825E-03
            2318     5.27992E-03     10.9824E-03    -80.1043E+06    -107.597E+06    -32.2350E+06     8.82446E+06    -199.100E-03     376.359E-03    -177.259E-03     13.4576E-03    -199.878E-03     376.565E-03    -177.148E-03     4.64943E-03
            2319     4.53996E-03     10.9105E-03    -86.8952E+06    -144.519E+06    -44.8224E+06     7.85629E+06    -189.789E-03     363.885E-03    -174.096E-03     8.28824E-03    -190.316E-03     363.718E-03    -173.985E-03     1.56771E-03
            2320     3.79369E-03     10.8495E-03    -94.0309E+06    -176.233E+06    -60.3125E+06     7.01561E+06    -182.013E-03     353.457E-03    -171.444E-03     4.76850E-03    -182.365E-03     353.021E-03    -171.353E-03    -279.540E-06
            2321     3.04036E-03     10.8038E-03    -100.681E+06    -203.801E+06    -77.4027E+06     6.00962E+06    -175.870E-03     345.168E-03    -169.298E-03     2.46060E-03    -176.095E-03     344.532E-03    -169.244E-03    -1.23957E-03
            2322     2.28401E-03     10.7641E-03    -106.006E+06    -227.225E+06    -92.0120E+06     5.00670E+06    -171.415E-03     339.038E-03    -167.623E-03     1.15632E-03    -171.551E-03     338.253E-03    -167.600E-03    -1.43721E-03
            2323     1.52519E-03     10.7405E-03    -109.804E+06    -243.536E+06    -103.557E+06     3.77439E+06    -168.159E-03     334.530E-03    -166.370E-03     480.197E-06    -168.237E-03     333.647E-03    -166.376E-03    -1.16835E-03
            2324     762.991E-06     10.7208E-03    -112.087E+06    -255.745E+06    -110.937E+06     2.34307E+06    -166.359E-03     331.613E-03    -165.254E-03     10.1092E-06    -166.400E-03     330.663E-03    -165.275E-03    -847.869E-06
            2325     13.5658E-03     12.0204E-03    -3.45661E+06     65.4354E+06     78.5481E+06    -530.941E+03    -281.984E-03     513.078E-03    -231.094E-03     142.955E-03    -289.272E-03     520.360E-03    -230.791E-03     107.570E-03
            2326     12.9080E-03     11.7452E-03    -6.63746E+06     64.4688E+06     77.7668E+06    -743.120E+03    -291.151E-03     519.135E-03    -227.984E-03     186.659E-03    -302.028E-03     529.990E-03    -227.679E-03     140.149E-03
            2327     12.2303E-03     11.4680E-03    -10.8243E+06     58.2641E+06     74.0469E+06    -1.76740E+06    -298.748E-03     522.765E-03    -224.018E-03     185.838E-03    -309.753E-03     533.725E-03    -223.716E-03     137.250E-03
            2328     11.5676E-03     11.1590E-03    -17.2616E+06     51.3957E+06     70.9640E+06    -2.95398E+06    -302.699E-03     521.890E-03    -219.190E-03     178.536E-03    -313.557E-03     532.667E-03    -218.885E-03     128.948E-03
            2329     10.9060E-03     10.8784E-03    -23.1233E+06     43.8161E+06     68.9270E+06    -3.49580E+06    -302.910E-03     516.448E-03    -213.538E-03     159.285E-03    -312.596E-03     526.015E-03    -213.223E-03     111.696E-03
            2330     10.2444E-03     10.5911E-03    -28.9175E+06     34.2027E+06     61.6305E+06    -2.90354E+06    -296.538E-03     503.748E-03    -207.210E-03     131.572E-03    -304.464E-03     511.528E-03    -206.909E-03     88.6770E-03
            2331     9.57926E-03     10.3547E-03    -35.8915E+06     21.6063E+06     48.7263E+06    -1.20687E+06    -281.540E-03     482.192E-03    -200.651E-03     100.792E-03    -287.471E-03     487.944E-03    -200.387E-03     65.0114E-03
            2332     8.89871E-03     10.1543E-03    -43.3506E+06     8.08334E+06     34.5818E+06     1.35610E+06    -264.120E-03     458.440E-03    -194.320E-03     74.6236E-03    -268.400E-03     462.504E-03    -194.096E-03     45.8533E-03
            2333     8.20627E-03     9.99801E-03    -50.5707E+06    -5.18450E+06     21.5905E+06     4.51757E+06    -247.219E-03     435.633E-03    -188.414E-03     53.3982E-03    -250.271E-03     438.434E-03    -188.225E-03     30.5601E-03
            2334     7.50082E-03     9.86888E-03    -57.6322E+06    -18.5089E+06     8.91268E+06     8.21089E+06    -231.375E-03     414.376E-03    -183.001E-03     37.7371E-03    -233.563E-03     416.274E-03    -182.846E-03     19.7999E-03
            2335     6.78437E-03     9.76542E-03    -64.6999E+06    -32.4651E+06    -3.23484E+06     11.0028E+06    -217.265E-03     395.365E-03    -178.100E-03     25.8937E-03    -218.841E-03     396.610E-03    -177.976E-03     11.8678E-03
            2336     6.05824E-03     9.68166E-03    -71.9625E+06    -59.2844E+06    -17.1684E+06     11.3461E+06    -204.524E-03     378.246E-03    -173.722E-03     17.5161E-03    -205.655E-03     378.963E-03    -173.617E-03     6.59426E-03
            2337     5.32092E-03     9.61407E-03    -79.1345E+06    -99.5814E+06    -33.0890E+06     9.47041E+06    -193.353E-03     363.226E-03    -169.873E-03     11.6817E-03    -194.144E-03     363.480E-03    -169.779E-03     3.21812E-03
            2338     4.57644E-03     9.55812E-03    -85.4601E+06    -138.534E+06    -46.6842E+06     7.23430E+06    -183.732E-03     350.280E-03    -166.548E-03     7.60687E-03    -184.273E-03     350.161E-03    -166.457E-03     1.09502E-03
            2339     3.82400E-03     9.51359E-03    -90.7676E+06    -172.036E+06    -57.6225E+06     6.40465E+06    -175.657E-03     339.390E-03    -163.733E-03     4.73695E-03    -176.017E-03     338.983E-03    -163.640E-03    -181.456E-06
            2340     3.06750E-03     9.47642E-03    -96.5196E+06    -199.155E+06    -70.8403E+06     6.47769E+06    -169.105E-03     330.491E-03    -161.386E-03     2.78514E-03    -169.338E-03     329.877E-03    -161.311E-03    -817.094E-06
            2341     2.30480E-03     9.44915E-03    -102.659E+06    -221.210E+06    -86.3392E+06     5.53887E+06    -163.888E-03     323.396E-03    -159.509E-03     1.55918E-03    -164.031E-03     322.637E-03    -159.471E-03    -959.834E-06
            2342     1.53804E-03     9.42712E-03    -107.576E+06    -237.587E+06    -99.7030E+06     4.01888E+06    -160.158E-03     318.278E-03    -158.121E-03     918.811E-06    -160.242E-03     317.422E-03    -158.119E-03    -692.935E-06
            2343     770.471E-06     9.41665E-03    -110.817E+06    -248.111E+06    -108.555E+06     2.87711E+06    -157.931E-03     315.020E-03    -157.090E-03     681.960E-06    -157.980E-03     314.107E-03    -157.112E-03    -160.833E-06
            2344     13.5990E-03     10.4417E-03    -3.66069E+06     66.9869E+06     78.7113E+06    -2.24580E+06    -294.305E-03     524.810E-03    -230.505E-03     161.514E-03    -302.486E-03     532.986E-03    -230.204E-03     122.963E-03
            2345     12.9091E-03     10.1532E-03    -7.40645E+06     65.4076E+06     77.3112E+06    -2.28322E+06    -305.010E-03     531.754E-03    -226.744E-03     201.182E-03    -316.730E-03     543.452E-03    -226.441E-03     151.460E-03
            2346     12.2575E-03     9.85497E-03    -12.0444E+06     58.6159E+06     73.6485E+06    -1.57623E+06    -313.131E-03     535.107E-03    -221.976E-03     188.599E-03    -324.533E-03     546.463E-03    -221.676E-03     137.154E-03
            2347     11.6020E-03     9.57105E-03    -15.7947E+06     53.1520E+06     72.2079E+06    -1.29507E+06    -317.622E-03     533.787E-03    -216.165E-03     172.100E-03    -328.566E-03     544.660E-03    -215.858E-03     119.588E-03
            2348     10.9503E-03     9.27857E-03    -21.7773E+06     44.4417E+06     67.9196E+06    -1.20636E+06    -314.252E-03     523.713E-03    -209.461E-03     145.219E-03    -323.632E-03     532.990E-03    -209.155E-03     96.0070E-03
            2349     10.3007E-03     9.02679E-03    -29.0592E+06     32.4851E+06     57.8243E+06    -130.566E+03    -299.407E-03     501.772E-03    -202.365E-03     115.330E-03    -306.763E-03     508.988E-03    -202.081E-03     73.1588E-03
            2350     9.63087E-03     8.82811E-03    -36.7945E+06     18.7745E+06     44.3080E+06     2.12169E+06    -279.665E-03     475.124E-03    -195.459E-03     89.7196E-03    -285.165E-03     480.444E-03    -195.211E-03     55.4715E-03
            2351     8.94880E-03     8.66605E-03    -44.5783E+06     4.71003E+06     30.3994E+06     4.52436E+06    -260.228E-03     449.258E-03    -189.031E-03     68.8207E-03    -264.299E-03     453.111E-03    -188.821E-03     41.3916E-03
            2352     8.25190E-03     8.54099E-03    -52.3085E+06    -8.84923E+06     18.5415E+06     6.58845E+06    -242.226E-03     425.389E-03    -183.163E-03     52.1012E-03    -245.229E-03     428.129E-03    -182.982E-03     30.2889E-03
            2353     7.54296E-03     8.44461E-03    -59.3598E+06    -21.9121E+06     7.41707E+06     8.54270E+06    -226.153E-03     404.009E-03    -177.856E-03     40.6038E-03    -228.390E-03     405.943E-03    -177.701E-03     23.3134E-03
            2354     6.82146E-03     8.36666E-03    -65.5300E+06    -33.5627E+06    -2.29843E+06     10.4325E+06    -211.604E-03     384.715E-03    -173.111E-03     32.1322E-03    -213.284E-03     386.054E-03    -172.978E-03     18.4866E-03
            2355     6.08875E-03     8.30766E-03    -71.2071E+06    -53.0705E+06    -13.2135E+06     10.9818E+06    -199.132E-03     368.041E-03    -168.909E-03     25.9840E-03    -200.388E-03     368.898E-03    -168.795E-03     15.2335E-03
            2356     5.34873E-03     8.25959E-03    -76.9403E+06    -91.0484E+06    -28.6307E+06     9.06246E+06    -188.448E-03     353.655E-03    -165.206E-03     21.5643E-03    -189.354E-03     354.050E-03    -165.106E-03     13.1235E-03
            2357     4.59983E-03     8.22232E-03    -83.1704E+06    -132.726E+06    -44.3530E+06     6.92277E+06    -179.248E-03     341.220E-03    -161.973E-03     18.0059E-03    -179.878E-03     341.215E-03    -161.882E-03     11.4480E-03
            2358     3.84498E-03     8.19155E-03    -89.7938E+06    -168.214E+06    -57.5184E+06     5.53837E+06    -171.398E-03     330.595E-03    -159.197E-03     15.1062E-03    -171.826E-03     330.275E-03    -159.110E-03     10.1041E-03
            2359     3.08261E-03     8.16746E-03    -95.5982E+06    -196.187E+06    -69.2238E+06     4.74806E+06    -164.861E-03     321.729E-03    -156.868E-03     12.3720E-03    -165.141E-03     321.175E-03    -156.791E-03     8.66685E-03
            2360     2.31687E-03     8.14881E-03    -100.132E+06    -216.502E+06    -81.9558E+06     4.69548E+06    -159.611E-03     314.595E-03    -154.983E-03     9.48105E-03    -159.781E-03     313.878E-03    -154.934E-03     6.88207E-03
            2361     1.54728E-03     8.13609E-03    -104.472E+06    -231.998E+06    -95.3137E+06     3.99414E+06    -155.626E-03     309.224E-03    -153.597E-03     6.35281E-03    -155.721E-03     308.399E-03    -153.586E-03     4.69344E-03
            2362     773.195E-06     8.12726E-03    -107.413E+06    -240.326E+06    -104.816E+06     2.39793E+06    -153.121E-03     306.023E-03    -152.902E-03     3.61499E-03    -153.173E-03     305.144E-03    -152.922E-03     2.74670E-03
            2363     13.5619E-03     8.81459E-03    -3.50413E+06     70.0279E+06     75.5061E+06    -724.169E+03    -305.900E-03     536.101E-03    -230.201E-03     165.388E-03    -314.478E-03     544.693E-03    -229.920E-03     124.641E-03
            2364     12.9323E-03     8.52187E-03    -8.47992E+06     67.2555E+06     73.2557E+06    -2.29724E+06    -320.080E-03     545.786E-03    -225.706E-03     202.617E-03    -332.502E-03     558.196E-03    -225.425E-03     149.007E-03
            2365     12.2775E-03     8.23719E-03    -14.6009E+06     57.8496E+06     68.0779E+06    -3.60921E+06    -331.273E-03     551.214E-03    -219.940E-03     186.758E-03    -343.199E-03     563.097E-03    -219.663E-03     130.821E-03
            2366     11.6375E-03     7.93639E-03    -19.4634E+06     50.4063E+06     65.5599E+06    -3.27128E+06    -331.624E-03     544.678E-03    -213.054E-03     162.025E-03    -342.511E-03     555.497E-03    -212.772E-03     106.852E-03
            2367     11.0028E-03     7.67410E-03    -24.0663E+06     40.7261E+06     61.7718E+06    -555.931E+03    -317.022E-03     522.672E-03    -205.650E-03     132.706E-03    -325.840E-03     531.386E-03    -205.365E-03     84.4733E-03
            2368     10.3413E-03     7.47253E-03    -30.1675E+06     28.4593E+06     52.4219E+06     3.18877E+06    -294.908E-03     493.331E-03    -198.423E-03     106.812E-03    -301.664E-03     499.944E-03    -198.159E-03     67.3261E-03
            2369     9.66893E-03     7.30910E-03    -36.8200E+06     15.6702E+06     41.2775E+06     5.96409E+06    -272.680E-03     464.434E-03    -191.754E-03     86.8312E-03    -277.848E-03     469.420E-03    -191.517E-03     54.9289E-03
            2370     8.98037E-03     7.18934E-03    -43.4820E+06     2.82147E+06     29.8146E+06     7.83810E+06    -251.913E-03     437.667E-03    -185.755E-03     72.0550E-03    -255.866E-03     441.400E-03    -185.547E-03     46.4691E-03
            2371     8.27658E-03     7.09872E-03    -50.3319E+06    -9.50614E+06     19.5120E+06     9.01578E+06    -233.704E-03     414.149E-03    -180.445E-03     62.2481E-03    -236.754E-03     416.938E-03    -180.261E-03     41.7497E-03
            2372     7.56031E-03     7.03018E-03    -57.1305E+06    -21.1361E+06     10.4755E+06     9.18315E+06    -218.185E-03     393.959E-03    -175.775E-03     55.4897E-03    -220.553E-03     396.026E-03    -175.609E-03     39.0507E-03
            2373     6.83323E-03     6.98206E-03    -63.4635E+06    -32.7020E+06     3.13184E+06     8.50124E+06    -204.841E-03     376.530E-03    -171.689E-03     50.8143E-03    -206.685E-03     378.030E-03    -171.534E-03     37.6663E-03
            2374     6.09697E-03     6.94265E-03    -69.3634E+06    -49.8480E+06    -5.97501E+06     7.87522E+06    -193.581E-03     361.709E-03    -168.128E-03     46.9224E-03    -195.004E-03     362.731E-03    -167.985E-03     36.4434E-03
            2375     5.35141E-03     6.91542E-03    -75.6263E+06    -86.0433E+06    -20.7023E+06     7.61842E+06    -184.297E-03     349.331E-03    -165.033E-03     43.3237E-03    -185.356E-03     349.878E-03    -164.903E-03     35.0367E-03
            2376     4.59990E-03     6.89278E-03    -82.8160E+06    -129.120E+06    -37.0389E+06     7.18526E+06    -176.551E-03     338.905E-03    -162.354E-03     39.5926E-03    -177.308E-03     339.019E-03    -162.232E-03     33.1198E-03
            2377     3.84202E-03     6.87699E-03    -90.1437E+06    -162.250E+06    -52.3945E+06     5.37954E+06    -170.013E-03     330.063E-03    -160.051E-03     35.1749E-03    -170.542E-03     329.849E-03    -159.947E-03     30.2032E-03
            2378     3.08055E-03     6.86386E-03    -96.9794E+06    -193.178E+06    -66.9662E+06     2.58357E+06    -164.535E-03     322.671E-03    -158.137E-03     29.8698E-03    -164.884E-03     322.184E-03    -158.051E-03     26.1537E-03
            2379     2.31379E-03     6.85451E-03    -102.876E+06    -215.236E+06    -81.1793E+06     1.54292E+06    -160.217E-03     316.831E-03    -156.613E-03     23.6404E-03    -160.437E-03     316.154E-03    -156.558E-03     21.0048E-03
            2380     1.54408E-03     6.84817E-03    -107.250E+06    -227.487E+06    -94.0568E+06     1.03157E+06    -157.187E-03     312.647E-03    -155.460E-03     16.6663E-03    -157.320E-03     311.861E-03    -155.445E-03     14.9742E-03
            2381     773.820E-06     6.84464E-03    -109.998E+06    -236.391E+06    -105.624E+06     83.2858E+03    -154.946E-03     309.851E-03    -154.905E-03     9.21170E-03    -155.021E-03     308.999E-03    -154.931E-03     8.31712E-03
            2382     13.6148E-03     7.20063E-03    -5.50938E+06      71.663E+06     72.6106E+06    -370.168E+03    -321.317E-03     551.306E-03    -229.988E-03     181.377E-03    -330.926E-03     560.929E-03    -229.721E-03     137.128E-03
            2383     12.9348E-03     6.88751E-03    -9.63392E+06     69.8236E+06     69.1982E+06     143.871E+03    -341.242E-03     565.841E-03    -224.599E-03     212.744E-03    -354.682E-03     579.281E-03    -224.341E-03     153.942E-03
            2384     12.3063E-03     6.56336E-03    -12.1152E+06     61.6194E+06     64.5577E+06    -752.226E+03    -347.977E-03     565.748E-03    -217.771E-03     178.650E-03    -359.798E-03     577.567E-03    -217.520E-03     119.965E-03
            2385     11.6823E-03     6.29383E-03    -17.6130E+06     48.4109E+06     58.7369E+06     9.98938E+03    -334.320E-03     544.536E-03    -210.216E-03     148.130E-03    -344.206E-03     554.378E-03    -209.967E-03     95.2781E-03
            2386     11.0284E-03     6.08295E-03    -25.0347E+06     33.4228E+06     52.7326E+06     2.13584E+06    -309.635E-03     512.486E-03    -202.851E-03     120.925E-03    -317.322E-03     520.068E-03    -202.599E-03     77.3058E-03
            2387     10.3678E-03     5.92418E-03    -31.1201E+06     22.8875E+06     47.3592E+06     4.77838E+06    -283.072E-03     479.262E-03    -196.190E-03     102.419E-03    -289.036E-03     485.076E-03    -195.941E-03     67.2566E-03
            2388     9.68549E-03     5.80988E-03    -36.4383E+06     12.7111E+06     40.6307E+06     7.06144E+06    -258.726E-03     449.130E-03    -190.403E-03     91.9806E-03    -263.432E-03     453.646E-03    -190.166E-03     63.7728E-03
            2389     8.98500E-03     5.72868E-03    -41.8432E+06     1.53994E+06     32.4976E+06     8.60947E+06    -238.133E-03     423.619E-03    -185.486E-03     85.9907E-03    -241.848E-03     427.109E-03    -185.265E-03     63.4154E-03
            2390     8.27179E-03     5.67011E-03    -47.2130E+06    -8.44293E+06     25.4349E+06     9.10792E+06    -221.361E-03     402.715E-03    -181.355E-03     82.6249E-03    -224.317E-03     405.410E-03    -181.147E-03     64.4686E-03
            2391     7.54603E-03     5.63118E-03    -52.7734E+06    -17.6835E+06     18.3575E+06     8.29071E+06    -207.893E-03     385.782E-03    -177.889E-03     80.1625E-03    -210.244E-03     387.838E-03    -177.695E-03     65.5341E-03
            2392     6.81140E-03     5.60179E-03    -58.8147E+06    -28.8892E+06     12.2162E+06     6.46150E+06    -197.368E-03     372.349E-03    -174.981E-03     77.7515E-03    -199.238E-03     373.878E-03    -174.793E-03     65.9237E-03
            2393     6.06917E-03     5.58458E-03    -66.1037E+06    -49.5323E+06     4.45975E+06     5.55623E+06    -188.896E-03     361.432E-03    -172.536E-03     74.5407E-03    -190.367E-03     362.483E-03    -172.346E-03     65.0171E-03
            2394     5.32177E-03     5.56979E-03    -74.1279E+06    -86.1347E+06    -8.58006E+06     5.87222E+06    -182.197E-03     352.676E-03    -170.479E-03     70.0388E-03    -183.313E-03     353.249E-03    -170.290E-03     62.4546E-03
            2395     4.56929E-03     5.56197E-03    -81.4057E+06    -125.444E+06    -23.3547E+06     4.44026E+06    -176.962E-03     345.710E-03    -168.748E-03     63.9875E-03    -177.777E-03     345.856E-03    -168.565E-03     58.0010E-03
            2396     3.81344E-03     5.55464E-03    -87.5760E+06    -156.617E+06    -38.5051E+06     1.10582E+06    -172.738E-03     340.033E-03    -167.295E-03     56.6173E-03    -173.313E-03     339.848E-03    -167.133E-03     51.9557E-03
            2397     3.05375E-03     5.55128E-03    -93.3214E+06    -191.282E+06    -54.8123E+06    -1.18163E+06    -169.472E-03     335.588E-03    -166.116E-03     47.7436E-03    -169.846E-03     335.103E-03    -165.977E-03     44.2143E-03
            2398     2.29233E-03     5.54846E-03    -99.3471E+06    -214.964E+06    -73.1272E+06    -2.36108E+06    -166.958E-03     332.138E-03    -165.180E-03     37.3501E-03    -167.187E-03     331.453E-03    -165.090E-03     34.8162E-03
            2399     1.52923E-03     5.54651E-03    -104.821E+06    -227.801E+06    -91.2161E+06    -3.11886E+06    -165.181E-03     329.695E-03    -164.514E-03     26.0716E-03    -165.315E-03     328.901E-03    -164.488E-03     24.4124E-03
            2400     764.034E-06     5.54527E-03    -109.192E+06    -240.233E+06    -104.520E+06    -2.28765E+06    -164.241E-03     328.403E-03    -164.161E-03     14.5967E-03    -164.316E-03     327.527E-03    -164.177E-03     13.7093E-03
            2401     13.5537E-03     5.54420E-03    -3.90704E+06     73.5557E+06     72.8482E+06     655.988E+03    -347.206E-03     577.144E-03    -229.938E-03     196.888E-03    -357.267E-03     587.222E-03    -229.674E-03     148.726E-03
            2402     12.9568E-03     5.16542E-03    -6.20091E+06     70.5172E+06     66.5471E+06    -1.02968E+06    -365.116E-03     588.412E-03    -223.295E-03     203.762E-03    -378.098E-03     601.425E-03    -223.056E-03     141.905E-03
            2403     12.3426E-03     4.88878E-03    -10.0745E+06     57.9500E+06     58.6539E+06     2.12241E+06    -352.581E-03     568.221E-03    -215.640E-03     156.867E-03    -362.672E-03     578.332E-03    -215.416E-03     102.216E-03
            2404     11.6983E-03     4.65966E-03    -15.4657E+06     44.6914E+06     54.2142E+06     6.25177E+06    -323.062E-03     531.281E-03    -208.219E-03     127.653E-03    -330.870E-03     539.058E-03    -207.990E-03     82.6449E-03
            2405     11.0510E-03     4.50771E-03    -20.1961E+06     32.5848E+06     52.2454E+06     7.96838E+06    -290.276E-03     492.051E-03    -201.775E-03     111.367E-03    -296.246E-03     497.933E-03    -201.531E-03     75.6999E-03
            2406     10.3687E-03     4.40492E-03    -26.7660E+06     22.1386E+06     48.7316E+06     7.86628E+06    -261.635E-03     458.136E-03    -196.501E-03     107.831E-03    -266.400E-03     462.760E-03    -196.251E-03     79.6779E-03
            2407     9.66800E-03     4.33496E-03    -33.6897E+06     11.9381E+06     44.0264E+06     7.46519E+06    -239.062E-03     431.373E-03    -192.311E-03     107.152E-03    -242.883E-03     435.004E-03    -192.059E-03     84.8985E-03
            2408     8.95394E-03     4.28747E-03    -39.0844E+06     2.35720E+06     39.2887E+06     6.61456E+06    -221.801E-03     410.825E-03    -189.024E-03     106.644E-03    -224.866E-03     413.657E-03    -188.774E-03     88.8840E-03
            2409     8.22703E-03     4.25738E-03    -43.6622E+06    -7.36064E+06     33.2555E+06     5.77576E+06    -208.909E-03     395.365E-03    -186.455E-03     105.415E-03    -211.371E-03     397.558E-03    -186.215E-03     91.0912E-03
            2410     7.49320E-03     4.23719E-03    -48.6375E+06    -15.2506E+06     29.2866E+06     5.43488E+06    -199.499E-03     383.964E-03    -184.466E-03     102.953E-03    -201.479E-03     385.639E-03    -184.226E-03     91.3229E-03
            2411     6.75309E-03     4.22553E-03    -55.3654E+06    -24.3969E+06     26.7083E+06     3.92595E+06    -192.701E-03     375.628E-03    -182.928E-03     98.9290E-03    -194.303E-03     376.872E-03    -182.678E-03     89.4204E-03
            2412     6.00960E-03     4.21761E-03    -62.1441E+06    -48.8089E+06     18.6162E+06     1.01082E+06    -188.006E-03     369.721E-03    -181.715E-03     93.2822E-03    -189.272E-03     370.537E-03    -181.461E-03     85.4845E-03
            2413     5.26249E-03     4.21501E-03    -66.8728E+06    -87.1974E+06     4.89151E+06    -1.50566E+06    -184.670E-03     365.412E-03    -180.742E-03     86.1273E-03    -185.623E-03     365.799E-03    -180.494E-03     79.7587E-03
            2414     4.51358E-03     4.21181E-03    -70.3828E+06    -121.369E+06    -10.5162E+06    -4.18441E+06    -182.278E-03     362.234E-03    -179.956E-03     77.2187E-03    -182.964E-03     362.262E-03    -179.731E-03     72.0648E-03
            2415     3.76289E-03     4.21277E-03    -74.6970E+06    -156.564E+06    -27.0969E+06    -6.41135E+06    -180.654E-03     359.984E-03    -179.331E-03     66.7182E-03    -181.118E-03     359.694E-03    -179.131E-03     62.6094E-03
            2416     3.01142E-03     4.21199E-03    -80.2462E+06    -194.399E+06    -46.3211E+06    -6.55486E+06    -179.489E-03     358.325E-03    -178.837E-03     54.9417E-03    -179.769E-03     357.751E-03    -178.670E-03     51.7645E-03
            2417     2.25941E-03     4.21290E-03    -85.9951E+06    -218.101E+06    -65.6023E+06    -5.55605E+06    -178.720E-03     357.168E-03    -178.448E-03     42.4287E-03    -178.871E-03     356.413E-03    -178.335E-03     40.1121E-03
            2418     1.50632E-03     4.21365E-03    -91.4256E+06    -234.171E+06    -82.4258E+06    -3.55167E+06    -178.277E-03     356.436E-03    -178.160E-03     29.0890E-03    -178.341E-03     355.565E-03    -178.100E-03     27.5691E-03
            2419     753.464E-06     4.21365E-03    -95.1658E+06    -246.706E+06    -93.8404E+06    -1.71483E+06    -178.008E-03     355.978E-03    -177.970E-03     15.7021E-03    -178.017E-03     355.029E-03    -177.944E-03     14.8926E-03
            2420     13.6134E-03     3.81056E-03    -5.74712E+06     72.7121E+06     65.9753E+06    -2.68559E+06    -387.106E-03     616.820E-03    -229.714E-03     207.012E-03    -397.195E-03     626.942E-03    -229.481E-03     155.053E-03
            2421     12.9878E-03     3.45133E-03    -5.75157E+06     64.8003E+06     63.7395E+06    -328.986E+03    -380.433E-03     602.244E-03    -221.810E-03     174.159E-03    -390.813E-03     612.670E-03    -221.577E-03     117.814E-03
            2422     12.3589E-03     3.20635E-03    -10.2889E+06     50.5486E+06     57.1845E+06     4.80693E+06    -338.325E-03     552.465E-03    -214.140E-03     126.082E-03    -345.078E-03     559.228E-03    -213.913E-03     83.6870E-03
            2423     11.7226E-03     3.06347E-03    -13.1266E+06     41.1774E+06     55.5232E+06     6.57577E+06    -295.875E-03     503.803E-03    -207.928E-03     113.958E-03    -300.884E-03     508.775E-03    -207.691E-03     81.6711E-03
            2424     11.0314E-03     2.97745E-03    -16.7717E+06     31.5648E+06     54.6988E+06     8.73949E+06    -262.528E-03     465.797E-03    -203.268E-03     112.803E-03    -266.322E-03     469.500E-03    -203.016E-03     88.7156E-03
            2425     10.3286E-03     2.92085E-03    -20.9218E+06     23.6491E+06     54.5815E+06     9.88478E+06    -239.008E-03     438.887E-03    -199.879E-03     113.495E-03    -242.016E-03     441.760E-03    -199.610E-03     94.9658E-03
            2426     9.61192E-03     2.88397E-03    -26.0631E+06     15.9399E+06     52.5788E+06     8.49483E+06    -222.265E-03     419.699E-03    -197.434E-03     112.270E-03    -224.654E-03     421.910E-03    -197.157E-03     97.7082E-03
            2427     8.88431E-03     2.86179E-03    -32.8362E+06     6.89123E+06     46.8401E+06     5.45639E+06    -210.542E-03     406.238E-03    -195.697E-03     109.852E-03    -212.469E-03     407.944E-03    -195.425E-03     98.1323E-03
            2428     8.15233E-03     2.84778E-03    -39.4836E+06    -5.12409E+06     36.7030E+06     2.46199E+06    -202.759E-03     397.235E-03    -194.477E-03     106.047E-03    -204.316E-03     398.531E-03    -194.229E-03     96.4416E-03
            2429     7.41533E-03     2.84011E-03    -44.4855E+06    -13.7963E+06     29.7767E+06     498.814E+03    -197.693E-03     391.345E-03    -193.652E-03     100.794E-03    -198.958E-03     392.317E-03    -193.419E-03     92.8257E-03
            2430     6.67631E-03     2.83583E-03    -48.1273E+06    -18.5792E+06     23.9713E+06    -2.18009E+06    -194.497E-03     387.603E-03    -193.107E-03     94.2942E-03    -195.531E-03     388.328E-03    -192.890E-03     87.6128E-03
            2431     5.93485E-03     2.83435E-03    -51.3191E+06    -44.7764E+06     10.4596E+06    -7.42555E+06    -192.775E-03     385.523E-03    -192.748E-03     86.6859E-03    -193.579E-03     385.949E-03    -192.556E-03     81.0201E-03
            2432     5.19382E-03     2.83366E-03    -54.0832E+06    -87.9080E+06    -5.58593E+06    -12.0546E+06    -192.005E-03     384.526E-03    -192.521E-03     77.9936E-03    -192.585E-03     384.610E-03    -192.343E-03     73.1772E-03
            2433     4.45181E-03     2.83542E-03    -56.7380E+06    -124.847E+06    -20.9017E+06    -12.7302E+06    -191.615E-03     383.985E-03    -192.370E-03     68.4253E-03    -192.007E-03     383.784E-03    -192.212E-03     64.4207E-03
            2434     3.70998E-03     2.83543E-03    -60.6234E+06    -165.353E+06    -34.9460E+06    -10.1341E+06    -191.523E-03     383.820E-03    -192.297E-03     58.1910E-03    -191.756E-03     383.341E-03    -192.144E-03     54.9520E-03
            2435     2.96831E-03     2.83798E-03    -66.0948E+06    -202.531E+06    -48.1901E+06    -6.90046E+06    -191.659E-03     383.924E-03    -192.264E-03     47.4939E-03    -191.770E-03     383.207E-03    -192.116E-03     44.9670E-03
            2436     2.22548E-03     2.83934E-03    -72.4346E+06    -226.186E+06    -61.0392E+06    -3.86042E+06    -191.892E-03     384.116E-03    -192.224E-03     36.2051E-03    -191.923E-03     383.249E-03    -192.096E-03     34.3524E-03
            2437     1.48394E-03     2.83951E-03    -78.0350E+06    -240.951E+06    -72.1251E+06    -987.137E+03    -192.075E-03     384.232E-03    -192.157E-03     24.6640E-03    -192.054E-03     383.274E-03    -192.055E-03     23.4497E-03
            2438     742.423E-06     2.84059E-03    -81.7446E+06    -248.972E+06    -79.9599E+06     517.783E+03    -192.206E-03     384.142E-03    -191.936E-03     13.5945E-03    -192.157E-03     383.137E-03    -191.857E-03     12.9573E-03
            2439     13.5674E-03     1.94787E-03    -3.03704E+06     76.3110E+06     73.4484E+06     547.605E+03    -458.219E-03     689.150E-03    -230.931E-03     211.558E-03    -465.828E-03     696.793E-03    -230.670E-03     168.274E-03
            2440     13.0055E-03     1.69843E-03    -6.98988E+06     59.5183E+06     67.2566E+06     2.06981E+06    -383.935E-03     605.590E-03    -221.655E-03     134.635E-03    -389.193E-03     610.903E-03    -221.395E-03     100.372E-03
            2441     12.3789E-03     1.59380E-03    -9.82270E+06     47.3161E+06     62.9655E+06     2.38435E+06    -316.496E-03     531.139E-03    -214.643E-03     105.432E-03    -319.475E-03     534.102E-03    -214.382E-03     82.4755E-03
            2442     11.6771E-03     1.52378E-03    -11.4821E+06     38.1445E+06     60.4585E+06     4.78036E+06    -272.178E-03     482.042E-03    -209.865E-03     93.7544E-03    -274.287E-03     484.082E-03    -209.601E-03     78.0265E-03
            2443     10.9811E-03     1.48456E-03    -14.8948E+06     29.7043E+06     58.5517E+06     6.12231E+06    -244.823E-03     451.513E-03    -206.690E-03     85.0738E-03    -246.355E-03     452.937E-03    -206.419E-03     73.7469E-03
            2444     10.2658E-03     1.45771E-03    -17.1996E+06     24.5089E+06     58.7214E+06     6.09506E+06    -227.129E-03     431.722E-03    -204.592E-03     80.2791E-03    -228.320E-03     432.774E-03    -204.309E-03     71.5674E-03
            2445     9.54245E-03     1.44387E-03    -19.5138E+06     18.9976E+06     52.7887E+06     6.07538E+06    -215.558E-03     418.774E-03    -203.216E-03     75.9830E-03    -216.507E-03     419.571E-03    -202.951E-03     69.0534E-03
            2446     8.81471E-03     1.43459E-03    -23.2280E+06     11.9532E+06     40.7732E+06     5.24071E+06    -208.341E-03     410.684E-03    -202.343E-03     71.8534E-03    -209.111E-03     411.296E-03    -202.123E-03     66.1736E-03
            2447     8.08181E-03     1.43000E-03    -27.7502E+06     1.58142E+06     26.4376E+06     1.63659E+06    -203.995E-03     405.824E-03    -201.828E-03     67.2247E-03    -204.623E-03     406.281E-03    -201.658E-03     62.4471E-03
            2448     7.34789E-03     1.42693E-03    -32.2973E+06    -8.76215E+06     13.2131E+06    -3.48222E+06    -201.503E-03     403.072E-03    -201.569E-03     62.2185E-03    -202.020E-03     403.402E-03    -201.443E-03     58.1002E-03
            2449     6.61244E-03     1.42617E-03    -36.0785E+06    -14.2738E+06    -598.476E+03    -6.86521E+06    -200.221E-03     401.688E-03    -201.467E-03     56.8862E-03    -200.650E-03     401.937E-03    -201.397E-03     53.3156E-03
            2450     5.87749E-03     1.42542E-03    -40.6741E+06    -41.2471E+06    -17.7063E+06    -9.42836E+06    -199.760E-03     401.256E-03    -201.496E-03     51.3848E-03    -200.085E-03     401.338E-03    -201.465E-03     48.2822E-03
            2451     5.14135E-03     1.42601E-03    -46.7493E+06    -89.9869E+06    -31.5814E+06    -11.7930E+06    -199.877E-03     401.518E-03    -201.641E-03     45.6583E-03    -200.090E-03     401.334E-03    -201.601E-03     42.9630E-03
            2452     4.40638E-03     1.42639E-03    -53.3984E+06    -135.938E+06    -41.5750E+06    -10.7542E+06    -200.273E-03     402.106E-03    -201.834E-03     39.7711E-03    -200.396E-03     401.674E-03    -201.767E-03     37.4894E-03
            2453     3.67098E-03     1.42843E-03    -59.3445E+06    -177.907E+06    -49.4485E+06    -7.02805E+06    -200.747E-03     402.789E-03    -202.042E-03     33.4824E-03    -200.793E-03     402.131E-03    -201.945E-03     31.6373E-03
            2454     2.93530E-03     1.42898E-03    -63.9903E+06    -211.966E+06    -55.0420E+06    -3.40595E+06    -201.374E-03     403.608E-03    -202.234E-03     27.0424E-03    -201.359E-03     402.767E-03    -202.109E-03     25.6126E-03
            2455     2.20222E-03     1.42949E-03    -67.5583E+06    -233.407E+06    -60.2152E+06    -541.236E+03    -201.905E-03     404.270E-03    -202.365E-03     20.5795E-03    -201.848E-03     403.314E-03    -202.229E-03     19.5333E-03
            2456     1.46779E-03     1.43084E-03    -70.5333E+06    -243.463E+06    -66.4857E+06     934.591E+03    -202.148E-03     404.602E-03    -202.455E-03     13.9679E-03    -202.067E-03     403.594E-03    -202.332E-03     13.2838E-03
            2457     732.963E-06     1.43108E-03    -72.4126E+06    -247.111E+06    -71.2377E+06     897.331E+03    -202.522E-03     404.955E-03    -202.433E-03     7.63467E-03    -202.430E-03     403.929E-03    -202.325E-03     7.27104E-03


