********************************************************************************
Field Output Report, written Mon Aug 12 22:14:50 2024

Source 1
---------

   ODB: G:/Abaqus_calc_2019/1740/Vel_40/odb/zeides_2a_40_red_2000_cal_30_vel_40_fric_0100.odb
   Step: Step-1
   Frame: Increment   4240883: Step Time =   0.3734

Loc 1 : Nodal values from source 1

Output sorted by column "Nodal Label".

Field Output reported at nodes for region: DIE_2A_40_D0_36-1.Region_1
   Computation algorithm: EXTRAPOLATE_COMPUTE_AVERAGE
   Averaged at nodes
   Averaging regions: ODB_REGIONS

      Node Label     COORD.COOR1     COORD.COOR2
                          @Loc 1          @Loc 1
-------------------------------------------------
               1     19.3251E-03     174.239E-03


Field Output reported at nodes for region: DIE_2A_40_D0_36-1.Region_2
   Computation algorithm: EXTRAPOLATE_COMPUTE_AVERAGE
   Averaged at nodes
   Averaging regions: ODB_REGIONS

      Node Label     COORD.COOR1     COORD.COOR2
                          @Loc 1          @Loc 1
-------------------------------------------------
               1     19.3251E-03     174.239E-03


Field Output reported at nodes for part: WIRE-1
   Computation algorithm: EXTRAPOLATE_COMPUTE_AVERAGE
   Averaged at nodes
   Averaging regions: ODB_REGIONS

      Node Label     COORD.COOR1     COORD.COOR2           S.S11           S.S22           S.S33           S.S12         PE.PE11         PE.PE22         PE.PE33         PE.PE12         LE.LE11         LE.LE22         LE.LE33         LE.LE12
                          @Loc 1          @Loc 1          @Loc 1          @Loc 1          @Loc 1          @Loc 1          @Loc 1          @Loc 1          @Loc 1          @Loc 1          @Loc 1          @Loc 1          @Loc 1          @Loc 1
-------------------------------------------------------------------------------------------------------------------------------------------------------------------------------------------------------------------------------------------------
               1     3.48486E-06     85.3897E-03    -115.286E+06    -296.258E+06    -117.465E+06    -191.185E+03    -235.097E-03     470.327E-03    -235.231E-03     14.5093E-03    -235.097E-03     469.215E-03    -235.221E-03     12.7435E-03
               2     14.2279E-03     90.2495E-03    -1.31094E+06     31.9654E+06     74.9196E+06     215.921E+03    -235.271E-03     470.730E-03    -235.459E-03     150.536E-03    -239.993E-03     475.344E-03    -235.129E-03     129.153E-03
               3     13.5765E-03     178.819E-03     12.4979E+06    -40.6012E+06     78.3784E+06     31.7543E+06     148.108E-03     117.872E-03    -265.980E-03     1.13312E-03     147.712E-03     117.133E-03    -265.548E-03     1.54447E-03
               4    -19.3242E-06     170.402E-03    -34.5638E+06    -16.4615E+06    -52.3325E+06    -7.69164E+06    -210.103E-03     436.780E-03    -226.677E-03    -47.7939E-03    -210.514E-03     436.453E-03    -226.865E-03    -48.3661E-03
               5     314.135E-09    -1.20737E-15    -58.6267E+06    -219.417E+06    -58.4873E+06    -1.54012E+06    -200.787E-03     401.367E-03    -200.579E-03     1.96556E-03    -200.678E-03     400.440E-03    -200.469E-03     1.82333E-03
               6     13.9498E-03    -1.20737E-15     10.9027E+06     69.8849E+06     84.2747E+06     6.94526E+06    -667.292E-03     905.461E-03    -238.169E-03     272.700E-03    -673.318E-03     911.458E-03    -237.865E-03     227.452E-03
               7     711.722E-06     85.4109E-03    -115.554E+06    -295.579E+06    -114.731E+06    -26.2363E+03    -235.310E-03     470.537E-03    -235.227E-03     23.6851E-03    -235.380E-03     469.485E-03    -235.205E-03     20.7095E-03
               8     1.42231E-03     85.4539E-03    -114.302E+06    -276.085E+06    -108.687E+06     189.874E+03    -235.741E-03     470.992E-03    -235.251E-03     43.5871E-03    -236.037E-03     470.217E-03    -235.228E-03     38.0296E-03
               9     2.13426E-03     85.5291E-03    -110.395E+06    -247.168E+06    -97.6530E+06     226.352E+03    -236.158E-03     471.480E-03    -235.321E-03     64.8408E-03    -236.823E-03     471.159E-03    -235.291E-03     56.4958E-03
              10     2.84508E-03     85.6313E-03    -104.994E+06    -223.085E+06    -81.5384E+06     227.888E+03    -236.652E-03     472.046E-03    -235.393E-03     86.1776E-03    -237.832E-03     472.297E-03    -235.325E-03     74.8969E-03
              11     3.55612E-03     85.7639E-03    -98.6577E+06    -197.851E+06    -63.9923E+06     277.519E+03    -237.163E-03     472.605E-03    -235.441E-03     107.779E-03    -239.029E-03     473.603E-03    -235.331E-03     93.3893E-03
              12     4.26745E-03     85.9241E-03    -91.4486E+06    -163.856E+06    -45.6131E+06     459.195E+03    -237.602E-03     473.046E-03    -235.444E-03     129.255E-03    -240.352E-03     475.022E-03    -235.302E-03     111.602E-03
              13     4.97987E-03     86.1133E-03    -83.4041E+06    -119.562E+06    -26.5245E+06     468.509E+03    -238.272E-03     473.688E-03    -235.416E-03     150.921E-03    -242.146E-03     476.919E-03    -235.255E-03     129.759E-03
              14     5.69076E-03     86.3310E-03    -75.0498E+06    -74.8066E+06    -6.84350E+06     394.890E+03    -239.037E-03     474.433E-03    -235.396E-03     172.523E-03    -244.280E-03     479.164E-03    -235.213E-03     147.650E-03
              15     6.40244E-03     86.5779E-03    -66.4946E+06    -45.8361E+06     9.20992E+06     466.021E+03    -239.818E-03     475.208E-03    -235.389E-03     194.320E-03    -246.687E-03     481.651E-03    -235.180E-03     165.552E-03
              16     7.11489E-03     86.8536E-03    -58.2873E+06    -34.8166E+06     19.7285E+06     63.8886E+03    -240.794E-03     476.186E-03    -235.391E-03     216.786E-03    -249.581E-03     484.584E-03    -235.158E-03     183.934E-03
              17     7.82394E-03     87.1598E-03    -50.8472E+06    -22.9553E+06     31.5028E+06    -421.058E+03    -241.604E-03     477.010E-03    -235.406E-03     239.306E-03    -252.619E-03     487.672E-03    -235.142E-03     202.357E-03
              18     8.53841E-03     87.4955E-03    -43.7379E+06    -11.2236E+06     44.3033E+06    -229.109E+03    -242.272E-03     477.693E-03    -235.420E-03     260.781E-03    -255.721E-03     490.818E-03    -235.119E-03     219.956E-03
              19     9.24770E-03     87.8584E-03    -37.0274E+06    -1.57002E+06     53.9421E+06     34.1897E+03    -242.861E-03     478.283E-03    -235.422E-03     278.337E-03    -258.630E-03     493.759E-03    -235.096E-03     234.262E-03
              20     9.96152E-03     88.2413E-03    -30.0542E+06     7.49718E+06     61.5391E+06    -74.2318E+03    -242.830E-03     478.250E-03    -235.420E-03     288.336E-03    -260.328E-03     495.489E-03    -235.079E-03     242.244E-03
              21     10.6709E-03     88.6309E-03    -23.3614E+06     15.2260E+06     65.8948E+06    -253.194E+03    -241.945E-03     477.347E-03    -235.403E-03     288.435E-03    -260.132E-03     495.314E-03    -235.061E-03     242.018E-03
              22     11.3850E-03     89.0138E-03    -17.7528E+06     20.9945E+06     66.8868E+06    -143.523E+03    -240.963E-03     476.333E-03    -235.370E-03     280.281E-03    -258.672E-03     493.860E-03    -235.040E-03     235.188E-03
              23     12.0947E-03     89.3795E-03    -12.8483E+06     25.4916E+06     68.0232E+06     61.5263E+03    -240.687E-03     476.054E-03    -235.368E-03     260.618E-03    -256.358E-03     491.573E-03    -235.046E-03     218.782E-03
              24     12.8057E-03     89.7120E-03    -8.57692E+06     31.3155E+06     71.3552E+06     213.115E+03    -241.302E-03     476.729E-03    -235.427E-03     245.897E-03    -255.103E-03     490.405E-03    -235.104E-03     206.934E-03
              25     13.5174E-03     90.0413E-03    -3.91265E+06     33.5919E+06     74.1861E+06     280.725E+03    -238.560E-03     474.024E-03    -235.465E-03     197.905E-03    -247.646E-03     483.001E-03    -235.137E-03     168.058E-03
              26     14.2315E-03     91.7525E-03    -899.966E+03     32.5156E+06     75.0943E+06     38.4921E+03    -235.247E-03     470.638E-03    -235.392E-03     147.441E-03    -239.848E-03     475.134E-03    -235.062E-03     126.238E-03
              27     14.2295E-03     93.2696E-03    -2.47383E+06     31.4850E+06     74.8999E+06     81.5223E+03    -239.491E-03     474.780E-03    -235.289E-03     143.811E-03    -243.949E-03     479.125E-03    -234.957E-03     122.567E-03
              28     14.2294E-03     94.8023E-03    -2.90202E+06     31.2649E+06     74.8724E+06    -358.454E+03    -239.505E-03     474.852E-03    -235.347E-03     146.285E-03    -244.062E-03     479.293E-03    -235.014E-03     124.849E-03
              29     14.2286E-03     96.3227E-03    -1.93530E+06     32.4134E+06     75.0623E+06    -102.020E+03    -235.950E-03     471.385E-03    -235.434E-03     150.899E-03    -240.685E-03     476.010E-03    -235.103E-03     129.428E-03
              30     14.2308E-03     97.8253E-03     -505.61E+03     34.0279E+06     76.0656E+06     456.957E+03    -236.884E-03     472.292E-03    -235.408E-03     148.409E-03    -241.536E-03     476.842E-03    -235.076E-03     127.018E-03
              31     14.2272E-03     99.3546E-03    -2.36144E+06     32.4985E+06     74.7431E+06    -124.532E+03    -238.072E-03     473.450E-03    -235.378E-03     147.870E-03    -242.697E-03     477.965E-03    -235.048E-03     126.427E-03
              32     14.2320E-03     100.869E-03    -2.72637E+06     32.7541E+06     75.0634E+06    -424.585E+03    -237.154E-03     472.553E-03    -235.399E-03     150.819E-03    -241.922E-03     477.210E-03    -235.067E-03     129.195E-03
              33     14.2264E-03     102.393E-03    -1.95825E+06     33.7515E+06     75.8139E+06    -313.177E+03    -236.924E-03     472.358E-03    -235.435E-03     151.599E-03    -241.730E-03     477.058E-03    -235.102E-03     129.924E-03
              34     14.2313E-03     103.901E-03    -1.92773E+06     33.8502E+06     74.8797E+06     594.343E+03    -236.691E-03     472.105E-03    -235.414E-03     152.921E-03    -241.475E-03     476.786E-03    -235.086E-03     131.388E-03
              35     14.2286E-03     105.426E-03    -1.59714E+06     34.5844E+06     75.1131E+06    -99.3812E+03    -237.191E-03     472.568E-03    -235.377E-03     151.789E-03    -241.983E-03     477.259E-03    -235.049E-03     130.084E-03
              36     14.2302E-03     106.936E-03    -2.94755E+06     33.8521E+06     74.8868E+06    -797.332E+03    -238.160E-03     473.535E-03    -235.375E-03     150.817E-03    -242.953E-03     478.220E-03    -235.045E-03     129.022E-03
              37     14.2283E-03     108.461E-03    -1.45835E+06     35.4139E+06     75.4924E+06     250.267E+03    -237.594E-03     472.991E-03    -235.397E-03     151.660E-03    -242.379E-03     477.678E-03    -235.069E-03     130.001E-03
              38     14.2302E-03     109.980E-03    -1.89440E+06     35.2030E+06     73.9617E+06     442.653E+03    -237.114E-03     472.509E-03    -235.395E-03     153.664E-03    -241.917E-03     477.216E-03    -235.073E-03     132.066E-03
              39     14.2291E-03     111.488E-03    -1.88255E+06     35.5580E+06     74.4689E+06     633.202E+03    -238.048E-03     473.438E-03    -235.390E-03     151.994E-03    -242.803E-03     478.097E-03    -235.066E-03     130.425E-03
              40     14.2283E-03     113.023E-03    -1.62405E+06     35.9738E+06     74.3832E+06     224.715E+03    -236.955E-03     472.384E-03    -235.429E-03     152.548E-03    -241.737E-03     477.073E-03    -235.107E-03     130.974E-03
              41     14.2303E-03     114.518E-03    -2.62880E+06     35.2760E+06     75.1550E+06    -270.565E+03    -237.270E-03     472.686E-03    -235.415E-03     152.195E-03    -242.069E-03     477.382E-03    -235.087E-03     130.550E-03
              42     14.2277E-03     116.053E-03    -611.889E+03     36.8702E+06     79.5193E+06     882.516E+03    -236.792E-03     472.209E-03    -235.417E-03     148.947E-03    -241.472E-03     476.787E-03    -235.072E-03     127.567E-03
              43     14.2321E-03     117.555E-03    -3.25286E+06     39.6895E+06     77.6911E+06     941.473E+03    -236.873E-03     472.261E-03    -235.387E-03     153.116E-03    -241.697E-03     476.989E-03    -235.052E-03     131.509E-03
              44     14.2273E-03     119.086E-03    -1.75006E+06     46.3697E+06     78.5195E+06     1.06548E+06    -238.362E-03     473.705E-03    -235.343E-03     152.143E-03    -243.164E-03     478.439E-03    -235.016E-03     130.440E-03
              45     14.2323E-03     120.599E-03    -1.20588E+06     47.3011E+06     80.2926E+06    -221.055E+03    -236.259E-03     471.636E-03    -235.377E-03     151.449E-03    -241.044E-03     476.353E-03    -235.043E-03     129.914E-03
              46     14.2285E-03     122.109E-03    -3.16633E+06     46.4277E+06     82.3166E+06    -647.776E+03    -237.508E-03     472.888E-03    -235.380E-03     151.675E-03    -242.345E-03     477.640E-03    -235.031E-03     129.971E-03
              47     14.2299E-03     123.642E-03    -1.78159E+06     47.9573E+06     83.3757E+06     967.242E+03    -237.265E-03     472.661E-03    -235.396E-03     151.056E-03    -242.025E-03     477.344E-03    -235.046E-03     129.593E-03
              48     14.2304E-03     125.141E-03    -2.48156E+06     49.8428E+06     82.3400E+06     852.536E+03    -235.619E-03     471.027E-03    -235.407E-03     152.520E-03    -240.416E-03     475.753E-03    -235.064E-03     131.143E-03
              49     14.2295E-03     126.671E-03    -1.97437E+06     50.9098E+06     82.6562E+06    -673.406E+03    -236.104E-03     471.460E-03    -235.356E-03     151.252E-03    -240.905E-03     476.195E-03    -235.013E-03     129.703E-03
              50     14.2327E-03     128.168E-03    -1.78179E+06     49.2614E+06     83.4079E+06    -784.984E+03    -237.078E-03     472.396E-03    -235.318E-03     149.868E-03    -241.848E-03     477.093E-03    -234.970E-03     128.304E-03
              51     14.2282E-03     129.709E-03    -1.71074E+06     49.6855E+06     84.8685E+06     899.312E+03    -237.034E-03     472.409E-03    -235.375E-03     151.199E-03    -241.819E-03     477.119E-03    -235.021E-03     129.690E-03
              52     14.2315E-03     131.211E-03    -2.54213E+06     51.7192E+06     83.8155E+06     87.2949E+03    -234.872E-03     470.261E-03    -235.389E-03     152.412E-03    -239.715E-03     475.037E-03    -235.041E-03     130.910E-03
              53     14.2313E-03     132.719E-03    -2.15876E+06     52.9299E+06     84.8552E+06    -863.710E+03    -235.896E-03     471.210E-03    -235.314E-03     149.310E-03    -240.666E-03     475.914E-03    -234.963E-03     127.859E-03
              54     14.2308E-03     134.253E-03    -1.44519E+06      50.975E+06     86.0402E+06    -661.642E+03    -235.748E-03     471.063E-03    -235.314E-03     150.127E-03    -240.535E-03     475.776E-03    -234.956E-03     128.656E-03
              55     14.2327E-03     135.748E-03    -1.58051E+06     51.3488E+06     87.2164E+06     414.245E+03    -236.078E-03     471.369E-03    -235.291E-03     153.371E-03    -240.922E-03     476.137E-03    -234.927E-03     131.882E-03
              56     14.2310E-03     137.288E-03    -1.76588E+06     54.4619E+06     87.1405E+06     1.96708E+06    -236.647E-03     471.938E-03    -235.291E-03     153.584E-03    -241.466E-03     476.692E-03    -234.932E-03     132.173E-03
              57     14.2315E-03     138.789E-03    -3.18364E+06     57.6387E+06     86.7406E+06     1.04330E+06    -232.676E-03     467.958E-03    -235.282E-03     154.400E-03    -237.559E-03     472.784E-03    -234.927E-03     133.137E-03
              58     14.2381E-03     140.286E-03    -2.54086E+06     61.8312E+06     90.6660E+06     120.968E+03    -232.213E-03     467.321E-03    -235.108E-03     150.964E-03    -237.011E-03     472.067E-03    -234.740E-03     129.897E-03
              59     14.2351E-03     141.817E-03    -1.60749E+06     67.1499E+06     92.7942E+06     1.53527E+06    -233.093E-03     468.004E-03    -234.911E-03     153.450E-03    -237.940E-03     472.814E-03    -234.542E-03     132.266E-03
              60     14.2447E-03     143.314E-03    -3.08655E+06     70.6591E+06     93.0457E+06     1.83724E+06    -231.348E-03     465.994E-03    -234.647E-03     157.024E-03    -236.253E-03     470.870E-03    -234.279E-03     135.964E-03
              61     14.2461E-03     144.827E-03    -1.93060E+06     74.8671E+06     96.9513E+06     1.36517E+06    -228.565E-03     462.809E-03    -234.244E-03     156.330E-03    -233.449E-03     467.670E-03    -233.865E-03     135.532E-03
              62     14.2606E-03     146.321E-03    -1.36824E+06     78.9420E+06     99.9186E+06     1.17410E+06    -225.682E-03     459.258E-03    -233.576E-03     160.334E-03    -230.690E-03     464.253E-03    -233.189E-03     139.488E-03
              63     14.2721E-03     147.815E-03    -3.18000E+06     81.4053E+06     102.416E+06    -759.794E+03    -228.141E-03     460.758E-03    -232.617E-03     162.931E-03    -233.253E-03     465.851E-03    -232.218E-03     141.633E-03
              64     14.2852E-03     149.336E-03    -4.12544E+06     83.6738E+06     103.130E+06     1.16609E+06    -229.944E-03     461.418E-03    -231.474E-03     171.113E-03    -235.253E-03     466.710E-03    -231.074E-03     149.423E-03
              65     14.3096E-03     150.825E-03    -2.29306E+06     89.7947E+06     106.781E+06     2.97759E+06    -229.433E-03     459.474E-03    -230.041E-03     176.663E-03    -234.885E-03     464.928E-03    -229.634E-03     154.766E-03
              66     14.3292E-03     152.330E-03    -1.40549E+06     93.2714E+06     110.856E+06     1.60952E+06    -236.652E-03     464.995E-03    -228.344E-03     179.230E-03    -242.304E-03     470.654E-03    -227.922E-03     156.138E-03
              67     14.3509E-03     153.854E-03    -3.76686E+06     96.0486E+06     112.093E+06     3.73196E+06    -249.737E-03     476.277E-03    -226.540E-03     187.056E-03    -255.683E-03     482.229E-03    -226.113E-03     162.250E-03
              68     14.3716E-03     155.398E-03    -2.89761E+06     104.309E+06     117.319E+06     3.41152E+06    -264.835E-03     489.671E-03    -224.836E-03     192.303E-03    -271.044E-03     495.904E-03    -224.396E-03     165.479E-03
              69     14.3844E-03     156.963E-03    -3.13039E+06     108.413E+06     120.203E+06     993.408E+03    -284.635E-03     508.049E-03    -223.414E-03     196.486E-03    -291.128E-03     514.573E-03    -222.965E-03     167.010E-03
              70     14.3919E-03     158.563E-03    -3.35125E+06     112.709E+06     120.140E+06     2.10350E+06    -306.470E-03     528.798E-03    -222.328E-03     199.727E-03    -313.038E-03     535.413E-03    -221.886E-03     168.113E-03
              71     14.3963E-03     160.192E-03    -3.53970E+06     114.377E+06     118.253E+06     781.950E+03    -326.714E-03     548.276E-03    -221.562E-03     205.043E-03    -333.421E-03     555.041E-03    -221.132E-03     171.197E-03
              72     14.3969E-03     161.849E-03    -3.70425E+06     114.392E+06     119.059E+06    -1.19436E+06    -345.120E-03     566.171E-03    -221.051E-03     209.402E-03    -351.968E-03     573.072E-03    -220.616E-03     173.297E-03
              73     14.3974E-03     163.525E-03    -1.16665E+06     111.620E+06     118.597E+06     166.002E+03    -361.644E-03     582.315E-03    -220.671E-03     212.444E-03    -368.466E-03     589.191E-03    -220.238E-03     174.870E-03
              74     14.3970E-03     165.231E-03    -3.91761E+06     102.599E+06     112.307E+06    -1.17959E+06    -373.819E-03     594.257E-03    -220.438E-03     210.731E-03    -380.548E-03     601.013E-03    -220.020E-03     172.007E-03
              75     14.3941E-03     166.937E-03    -2.13560E+06     95.3096E+06     113.270E+06    -3.46391E+06    -381.501E-03     601.867E-03    -220.365E-03     209.617E-03    -388.226E-03     608.592E-03    -219.934E-03     169.640E-03
              76     14.3952E-03     168.658E-03     -2.1267E+06     78.5306E+06     115.263E+06    -3.99556E+06    -389.855E-03     610.163E-03    -220.308E-03     210.223E-03    -396.444E-03     616.695E-03    -219.843E-03     169.797E-03
              77     14.3912E-03     170.409E-03    -1.86134E+06     58.7254E+06     131.566E+06    -5.71663E+06    -383.896E-03     604.370E-03    -220.474E-03     207.828E-03    -390.145E-03     610.439E-03    -219.898E-03     169.257E-03
              78     14.4025E-03     172.096E-03    -1.98084E+06     47.6572E+06     159.861E+06    -626.849E+03    -362.543E-03     583.292E-03    -220.749E-03     215.361E-03    -369.198E-03     589.643E-03    -220.016E-03     178.170E-03
              79     14.4048E-03     173.768E-03    -3.23911E+06     59.2431E+06     199.645E+06     6.58227E+06    -328.750E-03     550.060E-03    -221.310E-03     231.582E-03    -336.326E-03     557.274E-03    -220.393E-03     195.396E-03
              80     14.4127E-03     175.407E-03    -5.00537E+06     67.2504E+06     185.146E+06    -4.45905E+06    -261.651E-03     484.309E-03    -222.658E-03     289.644E-03    -270.290E-03     492.657E-03    -221.822E-03     259.573E-03
              81     14.4201E-03     176.870E-03    -17.7405E+06     26.2709E+06     120.084E+06    -18.5961E+06    -82.0039E-03     311.468E-03    -229.464E-03     256.293E-03    -86.7409E-03     316.229E-03    -228.876E-03     243.499E-03
              82     14.2468E-03     177.805E-03    -6.24730E+06    -23.5723E+06     88.7013E+06     5.49439E+06     100.972E-03     149.723E-03    -250.695E-03     87.1505E-03     100.700E-03     149.561E-03    -250.209E-03     87.1486E-03
              83     12.7997E-03     178.235E-03     9.49785E+06     30.0357E+06     132.064E+06    -11.0807E+06     139.114E-03     134.892E-03    -274.007E-03     33.2615E-03     138.973E-03     134.966E-03    -273.404E-03     33.1528E-03
              84     11.7596E-03     177.677E-03    -13.9023E+06     8.84939E+06     160.584E+06    -24.5537E+06     107.317E-03     179.932E-03    -287.249E-03    -10.8022E-03     107.031E-03     180.081E-03    -286.439E-03    -11.3510E-03
              85     11.0885E-03     177.003E-03    -9.98947E+06    -35.1568E+06     155.388E+06    -25.5565E+06     89.0072E-03     207.202E-03    -296.209E-03    -45.9656E-03     88.4556E-03     207.027E-03    -295.366E-03    -46.8051E-03
              86     10.2888E-03     176.318E-03    -13.5374E+06    -26.6393E+06     155.090E+06    -26.0424E+06     88.6883E-03     215.104E-03    -303.792E-03    -40.2907E-03     88.2955E-03     215.149E-03    -302.958E-03    -41.3626E-03
              87     9.53596E-03     175.630E-03    -19.9943E+06    -31.5829E+06     139.192E+06    -16.5498E+06     79.6983E-03     229.413E-03    -309.111E-03    -122.418E-03     79.5254E-03     229.137E-03    -308.340E-03    -123.973E-03
              88     8.85398E-03     174.954E-03    -8.41971E+06    -18.5725E+06     128.636E+06    -22.3523E+06     70.5414E-03     239.501E-03    -310.042E-03    -207.478E-03     70.8185E-03     238.733E-03    -309.360E-03    -209.728E-03
              89     8.20593E-03     174.303E-03    -15.5856E+06    -21.1590E+06     107.563E+06    -19.4986E+06     57.9737E-03     249.330E-03    -307.304E-03    -282.342E-03     58.7219E-03     247.936E-03    -306.713E-03    -285.058E-03
              90     7.58901E-03     173.695E-03    -22.7502E+06    -17.3110E+06     84.9030E+06    -24.5757E+06     39.1413E-03     262.502E-03    -301.643E-03    -352.817E-03     40.3673E-03     260.471E-03    -301.161E-03    -356.153E-03
              91     6.98592E-03     173.137E-03    -33.7686E+06    -21.5036E+06     62.3669E+06    -26.8245E+06     13.6977E-03     280.014E-03    -293.712E-03    -414.577E-03     15.3521E-03     277.390E-03    -293.320E-03    -418.558E-03
              92     6.39301E-03     172.632E-03    -40.4805E+06    -20.9356E+06     44.9486E+06    -35.0292E+06    -17.3631E-03     301.556E-03    -284.193E-03    -458.842E-03    -15.5027E-03     298.523E-03    -283.879E-03    -463.500E-03
              93     5.80388E-03     172.184E-03    -48.3028E+06    -28.8993E+06     28.6826E+06    -37.7525E+06    -52.7526E-03     326.717E-03    -273.964E-03    -478.021E-03    -50.9445E-03     323.527E-03    -273.709E-03    -483.169E-03
              94     5.20757E-03     171.794E-03    -52.9591E+06    -30.7675E+06     17.2010E+06    -40.5773E+06    -89.8683E-03     353.701E-03    -263.833E-03    -470.749E-03    -88.3406E-03     350.664E-03    -263.626E-03    -476.183E-03
              95     4.60251E-03     171.458E-03    -55.6420E+06    -32.9016E+06     6.97000E+06    -39.8263E+06    -124.937E-03     379.309E-03    -254.371E-03    -439.813E-03    -123.809E-03     376.619E-03    -254.208E-03    -445.248E-03
              96     3.98204E-03     171.175E-03    -55.7859E+06    -31.5331E+06    -520.788E+03    -37.4469E+06    -155.006E-03     400.961E-03    -245.955E-03    -392.247E-03    -154.287E-03     398.745E-03    -245.831E-03    -397.405E-03
              97     3.34536E-03     170.942E-03    -55.0387E+06    -29.2400E+06    -8.26825E+06    -33.8782E+06    -179.061E-03     417.698E-03    -238.637E-03    -334.216E-03    -178.733E-03     415.958E-03    -238.556E-03    -338.866E-03
              98     2.69663E-03     170.752E-03    -53.0709E+06    -24.3115E+06    -16.1701E+06    -30.0141E+06    -196.288E-03     428.664E-03    -232.376E-03    -269.615E-03    -196.298E-03     427.369E-03    -232.345E-03    -273.568E-03
              99     2.03436E-03     170.605E-03    -51.0111E+06    -21.0219E+06    -26.1771E+06    -24.5525E+06    -207.595E-03     434.891E-03    -227.296E-03    -202.718E-03    -207.879E-03     433.959E-03    -227.322E-03    -205.783E-03
             100     1.36368E-03     170.503E-03    -49.6206E+06    -21.1167E+06    -37.1935E+06    -17.4964E+06    -215.064E-03     438.429E-03    -223.365E-03    -134.549E-03    -215.535E-03     437.751E-03    -223.449E-03    -136.678E-03
             101     686.745E-06     170.440E-03    -41.7250E+06    -19.4396E+06    -47.2794E+06    -10.5370E+06    -214.044E-03     438.211E-03    -224.167E-03    -73.9112E-03    -214.516E-03     437.759E-03    -224.315E-03    -75.0325E-03
             102     8.82847E-06     168.944E-03    -86.2288E+06    -44.2400E+06    -82.6174E+06    -9.17997E+06    -178.474E-03     360.385E-03    -181.910E-03    -28.3830E-03    -178.952E-03     360.158E-03    -182.134E-03    -28.9487E-03
             103    -661.200E-09     167.682E-03    -161.997E+06    -99.4608E+06    -155.398E+06    -13.1529E+06    -123.700E-03     243.182E-03    -119.482E-03    -563.511E-06    -124.218E-03     243.067E-03    -119.880E-03    -993.836E-06
             104    -306.473E-09     166.523E-03    -230.146E+06    -155.882E+06    -233.576E+06    -12.7945E+06    -92.7139E-03     185.385E-03    -92.6715E-03     12.6725E-03    -93.3164E-03     185.265E-03    -93.2797E-03     12.4429E-03
             105     1.38983E-06     165.402E-03    -307.456E+06    -207.293E+06    -306.506E+06    -11.4718E+06    -84.7277E-03     167.543E-03    -82.8157E-03     21.1656E-03    -85.5215E-03     167.396E-03    -83.6018E-03     21.0127E-03
             106     499.727E-09     164.285E-03    -293.679E+06    -237.017E+06    -293.349E+06    -3.19763E+06    -90.2221E-03     178.795E-03    -88.5727E-03     26.1356E-03    -90.9269E-03     178.454E-03    -89.2699E-03     26.1152E-03
             107     61.9637E-09     163.140E-03    -200.495E+06    -231.191E+06    -200.048E+06     6.02843E+06    -106.050E-03     211.561E-03    -105.511E-03     27.6349E-03    -106.445E-03     210.968E-03    -105.885E-03     27.7165E-03
             108     38.9286E-09     161.947E-03    -147.198E+06    -213.141E+06    -146.400E+06     2.44218E+06    -128.410E-03     256.347E-03    -127.938E-03     27.1319E-03    -128.652E-03     255.687E-03    -128.147E-03     27.0529E-03
             109     456.553E-09     160.691E-03    -129.098E+06    -213.810E+06    -129.224E+06    -2.29510E+06    -151.021E-03     302.169E-03    -151.147E-03     25.1779E-03    -151.197E-03     301.463E-03    -151.296E-03     24.8722E-03
             110    -1.27079E-06     159.382E-03    -117.460E+06    -225.854E+06    -119.181E+06    -2.53386E+06    -171.562E-03     343.928E-03    -172.366E-03     23.5061E-03    -171.679E-03     343.139E-03    -172.464E-03     22.9853E-03
             111     721.794E-09     158.018E-03    -116.393E+06    -238.331E+06    -116.859E+06    -1.65976E+06    -191.310E-03     381.398E-03    -190.088E-03     21.4741E-03    -191.406E-03     380.547E-03    -190.158E-03     20.7549E-03
             112     1.49813E-06     156.604E-03    -115.750E+06    -250.993E+06    -117.875E+06    -2.36176E+06    -205.929E-03     411.067E-03    -205.138E-03     20.7776E-03    -205.999E-03     410.165E-03    -205.196E-03     19.8131E-03
             113    -2.69456E-06     155.157E-03    -124.758E+06    -265.399E+06    -124.018E+06    -1.98817E+06    -216.219E-03     433.336E-03    -217.117E-03     18.7293E-03    -216.303E-03     432.390E-03    -217.172E-03     17.5130E-03
             114     2.47501E-06     153.683E-03    -132.259E+06    -276.883E+06    -133.662E+06    -1.74456E+06    -225.622E-03     450.356E-03    -224.734E-03     16.5861E-03    -225.713E-03     449.381E-03    -224.809E-03     15.1565E-03
             115    -1.08637E-06     152.184E-03    -137.756E+06    -288.303E+06    -136.289E+06    -1.67382E+06    -231.430E-03     461.764E-03    -230.335E-03     16.5078E-03    -231.528E-03     460.746E-03    -230.399E-03     14.9648E-03
             116     1.18876E-06     150.674E-03    -137.699E+06    -300.774E+06    -138.757E+06    -2.23514E+06    -234.045E-03     468.721E-03    -234.676E-03     15.9332E-03    -234.123E-03     467.646E-03    -234.734E-03     14.2594E-03
             117    -2.28078E-06     149.157E-03    -141.550E+06    -311.833E+06    -141.714E+06    -1.14821E+06    -236.230E-03     472.951E-03    -236.720E-03     14.8565E-03    -236.307E-03     471.831E-03    -236.772E-03     13.0887E-03
             118     2.60850E-06     147.634E-03    -141.191E+06    -315.120E+06    -141.325E+06     135.184E+03    -238.349E-03     475.199E-03    -236.850E-03     14.4023E-03    -238.420E-03     474.063E-03    -236.895E-03     12.5977E-03
             119    -868.146E-09     146.110E-03    -138.216E+06    -318.178E+06    -137.381E+06    -944.125E+03    -238.191E-03     475.521E-03    -237.329E-03     15.0501E-03    -238.250E-03     474.359E-03    -237.354E-03     13.2233E-03
             120     293.060E-09     144.585E-03    -133.460E+06    -319.985E+06    -134.285E+06     391.488E+03    -237.296E-03     475.120E-03    -237.824E-03     14.6806E-03    -237.333E-03     473.937E-03    -237.838E-03     12.8618E-03
             121    -534.340E-09     143.064E-03    -132.676E+06    -317.917E+06    -131.057E+06     389.823E+03    -237.467E-03     475.196E-03    -237.729E-03     15.1028E-03    -237.510E-03     474.020E-03    -237.731E-03     13.2110E-03
             122     356.890E-09     141.538E-03    -128.907E+06    -318.985E+06    -130.102E+06    -314.987E+03    -237.965E-03     474.664E-03    -236.699E-03     13.4957E-03    -237.984E-03     473.472E-03    -236.700E-03     11.7222E-03
             123     1.56169E-06     140.022E-03    -129.140E+06    -322.007E+06    -130.306E+06    -494.495E+03    -236.603E-03     473.362E-03    -236.759E-03     14.2248E-03    -236.620E-03     472.160E-03    -236.757E-03     12.3823E-03
             124    -3.76630E-06     138.498E-03    -126.918E+06    -323.784E+06    -123.866E+06     379.308E+03    -236.018E-03     473.289E-03    -237.270E-03     13.4791E-03    -236.027E-03     472.066E-03    -237.236E-03     11.7078E-03
             125     4.17450E-06     136.980E-03    -122.479E+06    -319.645E+06    -125.501E+06     1.48921E+06    -237.608E-03     473.321E-03    -235.713E-03     13.5198E-03    -237.599E-03     472.113E-03    -235.699E-03     11.7594E-03
             126    -1.96461E-06     135.457E-03    -126.754E+06    -311.990E+06    -124.579E+06     966.186E+03    -236.838E-03     472.508E-03    -235.670E-03     15.0368E-03    -236.868E-03     471.345E-03    -235.657E-03     13.1870E-03
             127     1.37265E-06     133.940E-03    -122.973E+06    -311.632E+06    -124.480E+06    -1.32008E+06    -235.644E-03     471.678E-03    -236.033E-03     14.4354E-03    -235.653E-03     470.507E-03    -236.026E-03     12.6743E-03
             128    -1.40588E-06     132.423E-03    -124.040E+06    -317.395E+06    -124.361E+06    -165.497E+03    -235.372E-03     471.767E-03    -236.395E-03     15.1021E-03    -235.381E-03     470.570E-03    -236.377E-03     13.2836E-03
             129    -83.4703E-09     130.904E-03    -121.442E+06    -317.553E+06    -119.508E+06     56.8294E+03    -235.999E-03     472.271E-03    -236.272E-03     13.6293E-03    -236.001E-03     471.061E-03    -236.233E-03     11.7871E-03
             130     1.15941E-06     129.386E-03    -123.494E+06    -316.143E+06    -124.513E+06     278.661E+03    -237.132E-03     472.143E-03    -235.011E-03     14.1540E-03    -237.140E-03     470.951E-03    -234.996E-03     12.3087E-03
             131     721.163E-09     127.866E-03    -124.192E+06    -309.119E+06    -125.368E+06     1.72006E+06    -236.017E-03     471.409E-03    -235.392E-03     14.8968E-03    -236.037E-03     470.255E-03    -235.391E-03     13.0798E-03
             132    -1.78631E-06     126.351E-03    -127.230E+06    -306.829E+06    -125.793E+06    -643.895E+03    -235.032E-03     470.817E-03    -235.785E-03     13.9470E-03    -235.069E-03     469.679E-03    -235.784E-03     12.0875E-03
             133     1.74593E-06     124.834E-03    -125.963E+06    -308.941E+06    -127.355E+06     62.2955E+03    -235.967E-03     471.663E-03    -235.696E-03     14.3418E-03    -235.994E-03     470.517E-03    -235.702E-03     12.4646E-03
             134    -1.38486E-06     123.314E-03    -125.408E+06    -308.178E+06    -124.001E+06     216.037E+03    -236.377E-03     471.675E-03    -235.297E-03     13.4889E-03    -236.403E-03     470.523E-03    -235.289E-03     11.7239E-03
             135     2.52583E-06     121.799E-03    -125.664E+06    -305.192E+06    -128.236E+06     962.033E+03    -236.657E-03     471.432E-03    -234.775E-03     14.2301E-03    -236.683E-03     470.303E-03    -234.792E-03     12.4948E-03
             136    -1.07094E-06     120.278E-03    -124.235E+06    -299.768E+06    -123.181E+06     556.709E+03    -235.810E-03     471.572E-03    -235.762E-03     14.6184E-03    -235.846E-03     470.459E-03    -235.763E-03     12.8470E-03
             137    -364.277E-09     118.763E-03    -123.511E+06    -303.652E+06    -122.141E+06    -1.33664E+06    -235.251E-03     471.306E-03    -236.055E-03     13.9305E-03    -235.280E-03     470.172E-03    -236.046E-03     12.1136E-03
             138     621.526E-09     117.244E-03    -115.166E+06    -303.469E+06    -117.989E+06     1.50777E+06    -236.314E-03     471.475E-03    -235.161E-03     14.2095E-03    -236.307E-03     470.324E-03    -235.144E-03     12.4210E-03
             139     683.563E-09     115.726E-03    -114.668E+06    -300.712E+06    -113.764E+06    -94.2895E+03    -234.969E-03     470.398E-03    -235.429E-03     14.3696E-03    -234.970E-03     469.254E-03    -235.395E-03     12.5727E-03
             140    -2.68817E-06     114.215E-03    -116.057E+06    -302.529E+06    -115.315E+06    -381.271E+03    -234.733E-03     470.759E-03    -236.026E-03     14.1676E-03    -234.734E-03     469.611E-03    -235.995E-03     12.3584E-03
             141     2.80577E-06     112.692E-03    -111.541E+06    -298.693E+06    -112.851E+06     826.908E+03    -235.920E-03     471.466E-03    -235.546E-03     13.7246E-03    -235.905E-03     470.327E-03    -235.515E-03     11.9906E-03
             142    -2.45537E-06     111.178E-03    -116.124E+06    -297.352E+06    -115.884E+06    -62.4646E+03    -235.162E-03     470.551E-03    -235.389E-03     13.8279E-03    -235.170E-03     469.430E-03    -235.369E-03     12.0260E-03
             143     1.73384E-06     109.664E-03    -116.391E+06    -294.461E+06    -115.730E+06     1.20042E+06    -235.490E-03     471.093E-03    -235.603E-03     13.5082E-03    -235.505E-03     469.986E-03    -235.586E-03     11.6899E-03
             144    -1.21096E-06     108.141E-03    -116.469E+06    -294.022E+06    -115.568E+06    -657.815E+03    -236.364E-03     471.703E-03    -235.340E-03     14.2494E-03    -236.379E-03     470.598E-03    -235.322E-03     12.4810E-03
             145     2.09615E-06     106.626E-03    -114.000E+06    -296.681E+06    -115.720E+06    -299.867E+03    -235.528E-03     471.367E-03    -235.840E-03     15.0926E-03    -235.525E-03     470.247E-03    -235.823E-03     13.3475E-03
             146    -3.51181E-06     105.105E-03    -117.311E+06    -297.122E+06    -116.531E+06      18.746E+03    -234.702E-03     470.838E-03    -236.136E-03     14.6875E-03    -234.713E-03     469.722E-03    -236.118E-03     12.9385E-03
             147     2.82963E-06     103.593E-03    -116.843E+06    -297.607E+06    -116.891E+06     275.298E+03    -235.908E-03     470.911E-03    -235.003E-03     14.1020E-03    -235.917E-03     469.792E-03    -234.986E-03     12.2986E-03
             148    -913.411E-09     102.074E-03    -116.758E+06    -295.155E+06    -115.891E+06     490.164E+03    -236.331E-03     471.322E-03    -234.991E-03     14.7967E-03    -236.349E-03     470.216E-03    -234.973E-03     12.9041E-03
             149     854.238E-09     100.556E-03    -118.025E+06    -296.386E+06    -118.005E+06    -783.329E+03    -236.617E-03     471.295E-03    -234.679E-03     14.2462E-03    -236.634E-03     470.184E-03    -234.668E-03     12.4252E-03
             150     1.90918E-06     99.0387E-03    -115.391E+06    -298.367E+06    -118.133E+06    -132.704E+03    -236.044E-03     470.779E-03    -234.735E-03     15.0050E-03    -236.045E-03     469.655E-03    -234.726E-03     13.2440E-03
             151    -2.90054E-06     97.5250E-03    -116.300E+06    -299.354E+06    -114.067E+06     138.479E+03    -234.820E-03     470.643E-03    -235.822E-03     13.9493E-03    -234.829E-03     469.511E-03    -235.790E-03     12.1166E-03
             152     2.43673E-06     96.0064E-03    -117.925E+06    -295.738E+06    -119.841E+06     1.29739E+06    -236.166E-03     470.829E-03    -234.663E-03     13.2879E-03    -236.178E-03     469.723E-03    -234.662E-03     11.5157E-03
             153     104.477E-09     94.4906E-03    -119.907E+06    -293.296E+06    -118.456E+06    -562.766E+03    -236.326E-03     470.856E-03    -234.530E-03     14.7719E-03    -236.355E-03     469.763E-03    -234.523E-03     13.0248E-03
             154    -141.615E-09     92.9726E-03    -115.946E+06    -297.891E+06    -115.439E+06    -776.857E+03    -234.644E-03     470.691E-03    -236.047E-03     14.2875E-03    -234.652E-03     469.565E-03    -236.024E-03     12.4929E-03
             155    -1.86672E-06     91.4587E-03    -117.554E+06    -298.886E+06    -117.562E+06     473.644E+03    -234.794E-03     470.870E-03    -236.076E-03     13.5553E-03    -234.805E-03     469.745E-03    -236.060E-03     11.7511E-03
             156     2.00510E-06     89.9394E-03    -116.510E+06    -298.596E+06    -118.336E+06    -397.468E+03    -236.533E-03     471.289E-03    -234.755E-03     13.8997E-03    -236.538E-03     470.164E-03    -234.745E-03     12.1160E-03
             157     316.842E-09     88.4208E-03    -118.317E+06    -299.113E+06    -116.167E+06     54.8656E+03    -235.551E-03     470.753E-03    -235.203E-03     15.1809E-03    -235.570E-03     469.627E-03    -235.178E-03     13.3762E-03
             158    -2.19054E-06     86.9087E-03    -116.540E+06    -296.826E+06    -116.540E+06     716.275E+03    -234.920E-03     470.218E-03    -235.298E-03     13.2453E-03    -234.929E-03     469.100E-03    -235.281E-03     11.4623E-03
             159    -5.05081E-06     83.8765E-03    -117.240E+06    -299.202E+06    -116.128E+06    -431.593E+03    -234.976E-03     471.046E-03    -236.070E-03     13.8465E-03    -234.980E-03     469.923E-03    -236.047E-03     12.0774E-03
             160     5.01438E-06     82.3561E-03    -117.181E+06    -297.189E+06    -117.441E+06     336.629E+03    -236.031E-03     471.382E-03    -235.351E-03     13.5203E-03    -236.035E-03     470.271E-03    -235.337E-03     11.7456E-03
             161    -4.06619E-06     80.8407E-03    -119.145E+06    -296.614E+06    -118.689E+06    -271.110E+03    -235.589E-03     471.059E-03    -235.471E-03     14.4302E-03    -235.604E-03     469.955E-03    -235.461E-03     12.6510E-03
             162     3.22717E-06     79.3216E-03    -116.098E+06    -298.029E+06    -117.109E+06     69.7066E+03    -235.397E-03     471.067E-03    -235.670E-03     14.1086E-03    -235.399E-03     469.947E-03    -235.655E-03     12.3253E-03
             163    -2.84370E-06     77.8060E-03    -114.950E+06    -296.947E+06    -114.608E+06     323.466E+03    -235.686E-03     471.004E-03    -235.318E-03     14.5821E-03    -235.691E-03     469.885E-03    -235.294E-03     12.7586E-03
             164     2.92769E-06     76.2873E-03    -117.971E+06    -296.870E+06    -118.443E+06    -464.016E+03    -236.403E-03     471.090E-03    -234.687E-03     14.0280E-03    -236.416E-03     469.979E-03    -234.678E-03     12.2144E-03
             165    -627.782E-09     74.7733E-03    -118.965E+06    -296.123E+06    -117.826E+06     854.857E+03    -236.502E-03     471.236E-03    -234.734E-03     14.4172E-03    -236.523E-03     470.127E-03    -234.721E-03     12.6661E-03
             166     794.272E-09     73.2521E-03    -115.108E+06    -295.122E+06    -116.523E+06    -416.657E+03    -234.468E-03     470.646E-03    -236.178E-03     14.6540E-03    -234.474E-03     469.534E-03    -236.166E-03     12.8909E-03
             167    -3.46884E-06     71.7397E-03    -117.268E+06    -299.372E+06    -117.617E+06    -744.638E+03    -234.530E-03     470.561E-03    -236.031E-03     13.8156E-03    -234.536E-03     469.433E-03    -236.014E-03     12.0469E-03
             168     3.95178E-06     70.2209E-03    -117.802E+06    -300.508E+06    -117.029E+06     603.372E+03    -235.907E-03     471.143E-03    -235.236E-03     14.2516E-03    -235.913E-03     470.014E-03    -235.215E-03     12.4684E-03
             169    -3.53456E-06     68.7043E-03    -115.169E+06    -297.593E+06    -114.626E+06     267.867E+03    -235.546E-03     470.810E-03    -235.263E-03     14.1458E-03    -235.548E-03     469.688E-03    -235.238E-03     12.3364E-03
             170     3.46831E-06     67.1880E-03    -115.337E+06    -297.195E+06    -115.738E+06    -222.250E+03    -235.783E-03     470.440E-03    -234.657E-03     13.7458E-03    -235.786E-03     469.321E-03    -234.637E-03     11.9089E-03
             171    -1.85081E-06     65.6731E-03    -120.208E+06    -298.931E+06    -119.243E+06    -235.022E+03    -235.713E-03     470.684E-03    -234.971E-03     14.5600E-03    -235.735E-03     469.569E-03    -234.960E-03     12.7057E-03
             172     1.24101E-06     64.1540E-03    -117.201E+06    -295.197E+06    -117.702E+06     1.85164E+06    -235.255E-03     470.559E-03    -235.305E-03     13.9854E-03    -235.268E-03     469.452E-03    -235.295E-03     12.2428E-03
             173    -759.169E-09     62.6398E-03    -117.005E+06    -286.040E+06    -117.070E+06     1.15179E+06    -235.560E-03     469.964E-03    -234.405E-03     13.7362E-03    -235.586E-03     468.901E-03    -234.405E-03     12.0026E-03
             174     1.87057E-06     61.1251E-03    -116.948E+06    -286.584E+06    -117.267E+06    -1.66787E+06    -235.841E-03     470.255E-03    -234.414E-03     14.2355E-03    -235.867E-03     469.190E-03    -234.415E-03     12.4225E-03
             175    -1.00833E-06     59.6071E-03    -113.244E+06    -292.073E+06    -113.128E+06    -441.100E+03    -235.127E-03     470.673E-03    -235.546E-03     14.5830E-03    -235.133E-03     469.569E-03    -235.524E-03     12.8011E-03
             176    -507.461E-09     58.0911E-03    -115.662E+06    -289.906E+06    -115.142E+06     1.20728E+06    -234.963E-03     470.522E-03    -235.559E-03     13.9658E-03    -234.982E-03     469.435E-03    -235.547E-03     12.2088E-03
             177     1.12968E-06     56.5750E-03    -112.012E+06    -286.378E+06    -113.726E+06     207.408E+03    -235.971E-03     470.476E-03    -234.505E-03     14.1252E-03    -235.979E-03     469.399E-03    -234.496E-03     12.3378E-03
             178     266.128E-09     55.0582E-03    -112.461E+06    -287.002E+06    -111.033E+06    -432.536E+03    -234.883E-03     469.375E-03    -234.492E-03     13.7748E-03    -234.895E-03     468.291E-03    -234.468E-03     12.0202E-03
             179    -1.14221E-06     53.5485E-03    -114.674E+06    -286.835E+06    -115.349E+06     446.026E+03    -234.239E-03     469.069E-03    -234.830E-03     13.7096E-03    -234.256E-03     467.995E-03    -234.824E-03     11.9471E-03
             180     1.12373E-06     52.0290E-03    -111.710E+06    -281.603E+06    -112.290E+06     1.31483E+06    -235.210E-03     469.449E-03    -234.239E-03     13.5678E-03    -235.223E-03     468.393E-03    -234.230E-03     11.8079E-03
             181     224.906E-09     50.5178E-03    -114.095E+06    -280.696E+06    -113.312E+06    -1.09945E+06    -234.712E-03     468.936E-03    -234.224E-03     14.4718E-03    -234.738E-03     467.891E-03    -234.219E-03     12.6774E-03
             182    -930.488E-09     49.0018E-03    -112.782E+06    -284.085E+06    -112.722E+06    -106.734E+03    -233.930E-03     468.684E-03    -234.754E-03     14.1919E-03    -233.946E-03     467.618E-03    -234.742E-03     12.4077E-03
             183     409.994E-09     47.4897E-03    -110.134E+06    -284.642E+06    -109.842E+06     185.377E+03    -234.226E-03     468.214E-03    -233.988E-03     13.6609E-03    -234.231E-03     467.136E-03    -233.965E-03     11.9195E-03
             184     404.950E-09     45.9775E-03    -111.659E+06    -282.968E+06    -112.073E+06     568.584E+03    -234.044E-03     467.451E-03    -233.407E-03     13.9664E-03    -234.057E-03     466.388E-03    -233.395E-03     12.2318E-03
             185    -366.887E-09     44.4660E-03    -112.716E+06    -279.797E+06    -112.763E+06     573.341E+03    -233.101E-03     466.612E-03    -233.511E-03     13.9496E-03    -233.123E-03     465.567E-03    -233.505E-03     12.1851E-03
             186    -306.286E-09     42.9567E-03    -112.615E+06    -282.510E+06    -112.342E+06    -1.48026E+06    -232.502E-03     465.618E-03    -233.116E-03     13.3313E-03    -232.518E-03     464.558E-03    -233.105E-03     11.5818E-03
             187     61.8661E-09     41.4498E-03    -112.936E+06    -287.542E+06    -114.134E+06    -379.355E+03    -232.903E-03     465.679E-03    -232.776E-03     13.7987E-03    -232.912E-03     464.598E-03    -232.766E-03     12.0547E-03
             188     303.061E-09     39.9374E-03    -110.525E+06    -284.206E+06    -110.291E+06     1.78119E+06    -232.770E-03     465.382E-03    -232.612E-03     13.4505E-03    -232.777E-03     464.307E-03    -232.592E-03     11.7422E-03
             189    -486.149E-09     38.4330E-03    -112.196E+06    -274.374E+06    -113.199E+06     1.37713E+06    -230.548E-03     463.317E-03    -232.769E-03     13.2552E-03    -230.572E-03     462.297E-03    -232.774E-03     11.5935E-03
             190    -2.55619E-06     36.9281E-03    -115.214E+06    -268.236E+06    -115.128E+06     523.232E+03    -230.303E-03     462.247E-03    -231.945E-03     12.8792E-03    -230.346E-03     461.267E-03    -231.964E-03     11.2143E-03
             191     3.21391E-06     35.4228E-03    -113.900E+06    -274.971E+06    -112.206E+06    -2.51905E+06    -231.576E-03     461.500E-03    -229.925E-03     12.9179E-03    -231.605E-03     460.480E-03    -229.922E-03     11.2323E-03
             192    -1.53808E-06     33.9245E-03    -112.837E+06    -286.876E+06    -114.552E+06    -1.34816E+06    -229.806E-03     460.027E-03    -230.221E-03     13.6203E-03    -229.812E-03     458.950E-03    -230.214E-03     11.9207E-03
             193    -798.941E-09     32.4222E-03    -112.960E+06    -281.729E+06    -114.027E+06     2.85823E+06    -229.705E-03     459.423E-03    -229.719E-03     11.8129E-03    -229.717E-03     458.368E-03    -229.716E-03     10.2395E-03
             194     3.07416E-06     30.9260E-03    -115.037E+06    -269.655E+06    -114.332E+06     1.07036E+06    -229.177E-03     458.502E-03    -229.324E-03     13.0760E-03    -229.215E-03     457.515E-03    -229.338E-03     11.4945E-03
             195    -5.60600E-06     29.4255E-03    -114.245E+06    -265.046E+06    -114.901E+06     254.265E+03    -227.602E-03     457.322E-03    -229.720E-03     12.5673E-03    -227.639E-03     456.362E-03    -229.744E-03     10.9095E-03
             196     5.05600E-06     27.9311E-03    -116.813E+06    -264.129E+06    -117.017E+06     237.403E+03    -228.646E-03     455.764E-03    -227.118E-03     11.6103E-03    -228.693E-03     454.811E-03    -227.150E-03     10.0395E-03
             197    -2.34991E-06     26.4388E-03    -117.381E+06    -263.289E+06    -116.719E+06     290.917E+03    -227.613E-03     453.678E-03    -226.065E-03     12.6877E-03    -227.670E-03     452.727E-03    -226.097E-03     11.0867E-03
             198     1.82613E-06     24.9492E-03    -116.231E+06    -261.289E+06    -114.428E+06     356.593E+03    -226.551E-03     452.041E-03    -225.490E-03     11.2593E-03    -226.608E-03     451.092E-03    -225.515E-03     9.68321E-03
             199     213.498E-09     23.4619E-03    -114.014E+06    -259.781E+06    -113.281E+06     118.616E+03    -225.503E-03     448.797E-03    -223.294E-03     10.6407E-03    -225.551E-03     447.847E-03    -223.318E-03     9.18767E-03
             200     908.949E-09     21.9819E-03    -110.291E+06    -256.543E+06    -111.842E+06     686.692E+03    -221.888E-03     443.353E-03    -221.465E-03     10.3620E-03    -221.925E-03     442.411E-03    -221.492E-03     8.92963E-03
             201    -1.45536E-06     20.5102E-03    -111.182E+06    -254.982E+06    -109.550E+06     294.259E+03    -217.671E-03     436.039E-03    -218.367E-03     8.24352E-03    -217.714E-03     435.098E-03    -218.384E-03     6.95546E-03
             202     1.00740E-06     19.0553E-03    -109.820E+06    -251.201E+06    -110.468E+06     1.23074E+06    -213.410E-03     427.033E-03    -213.623E-03     6.91021E-03    -213.446E-03     426.108E-03    -213.652E-03     5.77531E-03
             203    -869.919E-09     17.6062E-03    -106.372E+06    -244.589E+06    -106.915E+06     1.06824E+06    -207.854E-03     415.949E-03    -208.095E-03     5.88064E-03    -207.888E-03     415.044E-03    -208.121E-03     4.83349E-03
             204     387.595E-09     16.1842E-03    -105.085E+06    -242.893E+06    -104.972E+06    -501.164E+03    -201.397E-03     402.856E-03    -201.460E-03     4.75758E-03    -201.428E-03     401.953E-03    -201.480E-03     3.78451E-03
             205     27.4628E-09     14.7730E-03    -100.476E+06    -239.723E+06    -101.814E+06     1.32343E+06    -194.607E-03     388.972E-03    -194.365E-03     4.11316E-03    -194.623E-03     388.072E-03    -194.381E-03     3.30846E-03
             206    -76.6956E-09     13.3890E-03    -100.614E+06    -232.526E+06    -99.5011E+06     1.08964E+06    -186.788E-03     373.507E-03    -186.718E-03     2.80695E-03    -186.817E-03     372.636E-03    -186.733E-03     2.12401E-03
             207     271.575E-09     12.0213E-03    -99.8971E+06    -232.371E+06    -100.014E+06    -1.09088E+06    -178.215E-03     355.972E-03    -177.756E-03     1.40864E-03    -178.240E-03     355.100E-03    -177.774E-03     762.446E-06
             208     262.479E-09     10.6856E-03    -96.5501E+06    -233.135E+06    -97.5679E+06     808.436E+03    -168.701E-03     337.008E-03    -168.307E-03     4.28851E-06    -168.711E-03     336.123E-03    -168.317E-03    -524.699E-06
             209    -171.592E-09     9.36990E-03    -89.8761E+06    -220.529E+06    -90.8646E+06     4.21068E+06    -159.657E-03     319.202E-03    -159.544E-03    -281.186E-06    -159.661E-03     318.361E-03    -159.549E-03    -754.254E-06
             210     272.942E-09     8.07924E-03    -87.8788E+06    -204.204E+06    -85.9130E+06     2.12911E+06    -153.796E-03     307.846E-03    -154.050E-03     1.70645E-03    -153.820E-03     307.081E-03    -154.056E-03     1.18874E-03
             211    -734.511E-09     6.79447E-03    -92.2442E+06    -200.165E+06    -92.4960E+06    -784.341E+03    -154.284E-03     309.233E-03    -154.949E-03     4.68330E-03    -154.328E-03     308.504E-03    -154.988E-03     4.13822E-03
             212     179.138E-09     5.50045E-03    -98.1255E+06    -206.470E+06    -97.4060E+06    -757.965E+03    -162.423E-03     325.129E-03    -162.706E-03     7.59230E-03    -162.484E-03     324.381E-03    -162.752E-03     7.08125E-03
             213    -25.8576E-09     4.17087E-03    -92.1790E+06    -213.996E+06    -91.4435E+06    -1.99965E+06    -175.018E-03     349.761E-03    -174.743E-03     8.71735E-03    -175.048E-03     348.955E-03    -174.756E-03     8.24865E-03
             214     329.185E-09     2.81222E-03    -70.7628E+06    -219.419E+06    -71.2146E+06    -353.497E+03    -187.698E-03     375.096E-03    -187.399E-03     7.04189E-03    -187.639E-03     374.203E-03    -187.334E-03     6.67008E-03
             215    -159.421E-09     1.41544E-03    -58.5680E+06    -220.032E+06    -58.5803E+06     134.797E+03    -197.210E-03     394.211E-03    -197.001E-03     3.93584E-03    -197.102E-03     393.279E-03    -196.890E-03     3.71187E-03
             216     735.140E-06    -1.20737E-15    -58.2713E+06    -216.356E+06    -57.7937E+06    -284.108E+03    -200.494E-03     401.047E-03    -200.553E-03     3.51616E-03    -200.390E-03     400.134E-03    -200.443E-03     3.29591E-03
             217     1.47035E-03    -1.20737E-15    -57.4778E+06    -207.364E+06    -56.6879E+06    -275.044E+03    -199.991E-03     400.407E-03    -200.417E-03     6.40233E-03    -199.898E-03     399.538E-03    -200.316E-03     6.02612E-03
             218     2.20707E-03    -1.20737E-15    -55.3891E+06    -190.818E+06    -54.5747E+06    -2.83965E+06    -199.632E-03     399.838E-03    -200.207E-03     9.36311E-03    -199.558E-03     399.048E-03    -200.122E-03     8.80976E-03
             219     2.94215E-03    -1.20737E-15    -51.4435E+06    -161.102E+06    -49.1774E+06    -3.75627E+06    -199.083E-03     399.071E-03    -199.988E-03     13.0875E-03    -199.046E-03     398.420E-03    -199.925E-03     12.3437E-03
             220     3.67852E-03    -1.20737E-15    -46.3784E+06    -120.926E+06    -41.8587E+06    -4.50065E+06    -198.255E-03     397.972E-03    -199.716E-03     16.6974E-03    -198.267E-03     397.510E-03    -199.683E-03     15.7666E-03
             221     4.41612E-03    -1.20737E-15    -40.7805E+06    -82.5335E+06    -31.9921E+06    -3.94007E+06    -197.497E-03     396.915E-03    -199.417E-03     19.0743E-03    -197.557E-03     396.629E-03    -199.398E-03     17.9624E-03
             222     5.15443E-03    -1.20737E-15    -34.3134E+06    -60.0567E+06    -18.2454E+06    -4.84947E+06    -196.942E-03     396.095E-03    -199.153E-03     21.5975E-03    -197.031E-03     395.901E-03    -199.107E-03     20.2765E-03
             223     5.89173E-03    -1.20737E-15    -26.2267E+06    -49.3500E+06    -4.09886E+06    -5.47360E+06    -196.672E-03     395.602E-03    -198.930E-03     24.5873E-03    -196.766E-03     395.439E-03    -198.841E-03     23.0489E-03
             224     6.63088E-03    -1.20737E-15    -20.1341E+06    -41.6298E+06     5.46858E+06    -692.417E+03    -196.832E-03     395.578E-03    -198.746E-03     27.3624E-03    -196.932E-03     395.442E-03    -198.629E-03     25.6947E-03
             225     7.36778E-03    -1.20737E-15    -18.3819E+06    -37.6759E+06     12.2794E+06     2.74625E+06    -197.742E-03     396.399E-03    -198.657E-03     30.1031E-03    -197.862E-03     396.284E-03    -198.514E-03     28.2430E-03
             226     8.10634E-03    -1.20737E-15    -18.5588E+06    -34.3262E+06     20.6010E+06     3.36324E+06    -199.803E-03     398.538E-03    -198.736E-03     33.0012E-03    -199.957E-03     398.445E-03    -198.556E-03     30.8660E-03
             227     8.83960E-03    -1.20737E-15    -18.0523E+06    -29.9201E+06     30.9583E+06     2.77313E+06    -203.515E-03     402.571E-03    -199.056E-03     35.7725E-03    -203.711E-03     402.507E-03    -198.832E-03     33.2486E-03
             228     9.57427E-03    -1.20737E-15    -16.3632E+06    -24.8137E+06     39.3268E+06     1.19969E+06    -209.987E-03     409.695E-03    -199.708E-03     37.7598E-03    -210.221E-03     409.670E-03    -199.452E-03     34.7239E-03
             229     10.2993E-03    -1.20737E-15    -13.5058E+06    -18.9854E+06     43.6908E+06     72.5668E+03    -221.200E-03     422.065E-03    -200.865E-03     40.5253E-03    -221.473E-03     422.099E-03    -200.600E-03     36.7965E-03
             230     11.0179E-03    -1.20737E-15    -11.1855E+06    -12.5034E+06     46.5941E+06     2.72295E+06    -240.433E-03     443.274E-03    -202.841E-03     42.3615E-03    -240.760E-03     443.389E-03    -202.574E-03     37.6004E-03
             231     11.7210E-03    -1.20737E-15    -10.8749E+06    -5.84809E+06     48.2100E+06     5.98465E+06    -271.811E-03     477.875E-03    -206.064E-03     59.4458E-03    -272.277E-03     478.150E-03    -205.799E-03     53.3868E-03
             232     12.3717E-03    -1.20737E-15    -8.87633E+06     3.89427E+06     52.0510E+06     1.75749E+06    -321.476E-03     532.575E-03    -211.099E-03     92.1089E-03    -322.365E-03     533.330E-03    -210.832E-03     81.9226E-03
             233     13.0196E-03    -1.20737E-15    -5.41988E+06     18.3401E+06     58.8362E+06     536.359E+03    -409.773E-03     628.704E-03    -218.931E-03     85.0167E-03    -410.776E-03     629.690E-03    -218.656E-03     70.1706E-03
             234     13.6269E-03    -1.20737E-15     3.44481E+06     48.3307E+06     73.3433E+06     5.49347E+06    -567.470E-03     798.410E-03    -230.940E-03     167.580E-03    -570.885E-03     801.836E-03    -230.649E-03     136.908E-03
             235     14.1932E-03     2.65934E-03    -2.99840E+06     50.8519E+06     60.4928E+06    -4.99697E+06    -558.030E-03     794.611E-03    -236.581E-03     274.795E-03    -566.379E-03     802.882E-03    -236.348E-03     225.069E-03
             236     14.1466E-03     4.38075E-03    -5.32456E+06     31.9608E+06     52.8898E+06    -2.37200E+06    -407.220E-03     642.640E-03    -235.420E-03     240.131E-03    -415.120E-03     650.428E-03    -235.194E-03     198.001E-03
             237     14.2181E-03     6.04513E-03    -1.06441E+06     26.9517E+06     60.6324E+06     2.19109E+06    -340.346E-03     575.785E-03    -235.439E-03     210.719E-03    -346.645E-03     581.991E-03    -235.173E-03     178.206E-03
             238     14.1987E-03     7.62615E-03    -5.01097E+06      24.003E+06     63.1012E+06    -3.23156E+06    -323.332E-03     558.241E-03    -234.909E-03     178.697E-03    -329.125E-03     563.945E-03    -234.621E-03     146.812E-03
             239     14.2124E-03     9.34919E-03    -1.32029E+06     24.9939E+06     67.4698E+06    -56.2902E+03    -314.258E-03     549.254E-03    -234.995E-03     167.715E-03    -319.369E-03     554.266E-03    -234.692E-03     138.096E-03
             240     14.2118E-03     10.9027E-03    -1.46949E+06     22.6917E+06     62.4744E+06    -71.4664E+03    -294.516E-03     529.693E-03    -235.177E-03     174.572E-03    -299.780E-03     534.848E-03    -234.895E-03     146.259E-03
             241     14.2152E-03     12.5249E-03    -30.7238E+03     23.0446E+06     67.9910E+06     969.880E+03    -283.700E-03     519.089E-03    -235.389E-03     152.907E-03    -288.130E-03     523.404E-03    -235.083E-03     127.353E-03
             242     14.2107E-03     14.0659E-03    -695.360E+03     20.9139E+06     68.5566E+06    -301.499E+03    -269.753E-03     505.495E-03    -235.742E-03     145.740E-03    -273.969E-03     509.581E-03    -235.428E-03     121.867E-03
             243     14.2154E-03     15.6298E-03    -3.37204E+06     17.4176E+06     64.3813E+06    -636.903E+03    -259.947E-03     495.853E-03    -235.905E-03     139.626E-03    -263.963E-03     499.732E-03    -235.604E-03     117.184E-03
             244     14.2138E-03     17.1726E-03    -545.996E+03     20.4397E+06     67.1843E+06     42.8945E+03    -252.724E-03     488.767E-03    -236.043E-03     137.082E-03    -256.704E-03     492.622E-03    -235.736E-03     115.362E-03
             245     14.2148E-03     18.7069E-03    -1.02128E+06     20.5361E+06     68.9130E+06    -470.212E+03    -249.231E-03     485.356E-03    -236.125E-03     137.136E-03    -253.241E-03     489.236E-03    -235.809E-03     115.712E-03
             246     14.2153E-03     20.2461E-03    -3.06160E+06     18.9017E+06     66.6457E+06    -143.729E+03    -248.161E-03     484.181E-03    -236.019E-03     141.505E-03    -252.274E-03     488.157E-03    -235.709E-03     120.083E-03
             247     14.2209E-03     21.7845E-03    -885.604E+03     21.5500E+06     68.3222E+06     367.649E+03    -247.910E-03     483.781E-03    -235.871E-03     143.089E-03    -252.087E-03     487.833E-03    -235.559E-03     121.552E-03
             248     14.2180E-03     23.3196E-03    -2.23814E+06     21.0256E+06     69.0796E+06    -284.062E+03    -248.666E-03     484.468E-03    -235.802E-03     144.823E-03    -252.939E-03     488.608E-03    -235.484E-03     123.041E-03
             249     14.2213E-03     24.8614E-03    -934.888E+03     21.8362E+06     67.4543E+06     810.000E+03    -245.398E-03     481.099E-03    -235.700E-03     147.408E-03    -249.739E-03     485.317E-03    -235.393E-03     125.784E-03
             250     14.2274E-03     26.3769E-03    -580.012E+03     22.4555E+06     68.4596E+06    -305.125E+03    -244.669E-03     480.237E-03    -235.568E-03     144.140E-03    -248.986E-03     484.434E-03    -235.258E-03     122.465E-03
             251     14.2200E-03     27.9152E-03    -2.03256E+06     21.6619E+06     70.1212E+06    -447.406E+03    -246.969E-03     482.456E-03    -235.487E-03     140.751E-03    -251.190E-03     486.543E-03    -235.165E-03     119.110E-03
             252     14.2304E-03     29.4440E-03    -2.39677E+06     20.9621E+06     67.4125E+06    -155.371E+03    -246.214E-03     481.626E-03    -235.412E-03     142.626E-03    -250.501E-03     485.783E-03    -235.102E-03     120.901E-03
             253     14.2218E-03     30.9829E-03    -2.47479E+06     21.4663E+06     68.3422E+06     547.185E+03    -245.913E-03     481.300E-03    -235.387E-03     146.014E-03    -250.345E-03     485.602E-03    -235.073E-03     124.132E-03
             254     14.2309E-03     32.5162E-03    -1.37005E+06     23.1135E+06     70.9980E+06     1.13304E+06    -243.860E-03     479.264E-03    -235.404E-03     150.021E-03    -248.419E-03     483.695E-03    -235.081E-03     128.169E-03
             255     14.2242E-03     34.0375E-03    -2.28285E+06     22.0808E+06     69.4874E+06    -366.469E+03    -242.915E-03     478.315E-03    -235.400E-03     150.927E-03    -247.556E-03     482.825E-03    -235.081E-03     128.863E-03
             256     14.2297E-03     35.5696E-03    -1.86247E+06     22.1830E+06     69.1574E+06    -1.04450E+06    -241.500E-03     476.913E-03    -235.413E-03     149.569E-03    -246.117E-03     481.401E-03    -235.096E-03     127.632E-03
             257     14.2263E-03     37.0803E-03    -559.648E+03     23.0078E+06     69.5507E+06     352.754E+03    -238.999E-03     474.379E-03    -235.380E-03     145.974E-03    -243.479E-03     478.737E-03    -235.065E-03     124.552E-03
             258     14.2326E-03     38.5984E-03    -1.45399E+06     22.2134E+06     69.0318E+06     120.389E+03    -241.464E-03     476.737E-03    -235.274E-03     142.136E-03    -245.827E-03     480.974E-03    -234.958E-03     120.704E-03
             259     14.2254E-03     40.1308E-03    -2.61032E+06     21.6828E+06     69.7483E+06    -467.124E+03    -243.713E-03     479.005E-03    -235.292E-03     142.890E-03    -248.129E-03     483.287E-03    -234.971E-03     121.184E-03
             260     14.2296E-03     41.6689E-03    -1.49433E+06     22.7003E+06     69.8672E+06     179.486E+03    -239.741E-03     475.165E-03    -235.424E-03     150.264E-03    -244.405E-03     479.702E-03    -235.105E-03     128.516E-03
             261     14.2273E-03     43.1758E-03    -1.18062E+06     22.6434E+06     68.7576E+06     22.2831E+03    -236.960E-03     472.390E-03    -235.430E-03     152.711E-03    -241.704E-03     477.010E-03    -235.117E-03     131.039E-03
             262     14.2312E-03     44.6939E-03    -1.46853E+06     22.2980E+06     68.2601E+06     184.769E+03    -237.955E-03     473.251E-03    -235.296E-03     148.368E-03    -242.512E-03     477.684E-03    -234.985E-03     126.973E-03
             263     14.2312E-03     46.2080E-03    -2.09366E+06     22.1204E+06     69.4654E+06    -957.645E+03    -240.488E-03     475.718E-03    -235.230E-03     143.667E-03    -244.944E-03     480.044E-03    -234.911E-03     122.157E-03
             264     14.2273E-03     47.7412E-03    -2.01915E+06     22.1481E+06     73.4601E+06     17.2793E+03    -242.185E-03     477.557E-03    -235.372E-03     145.268E-03    -246.737E-03     481.967E-03    -235.034E-03     123.510E-03
             265     14.2261E-03     49.2719E-03    -2.54050E+06     20.8315E+06     71.3589E+06    -39.1999E+03    -238.041E-03     473.560E-03    -235.519E-03     151.113E-03    -242.748E-03     478.125E-03    -235.188E-03     129.482E-03
             266     14.2304E-03     50.7714E-03    -719.568E+03     22.9717E+06     70.2293E+06     843.194E+03    -234.634E-03     470.067E-03    -235.434E-03     150.212E-03    -239.245E-03     474.554E-03    -235.115E-03     129.067E-03
             267     14.2319E-03     52.2877E-03    -1.99211E+06     23.2788E+06     69.5504E+06    -107.374E+03    -239.346E-03     474.651E-03    -235.304E-03     144.299E-03    -243.815E-03     478.993E-03    -234.988E-03     122.928E-03
             268     14.2242E-03     53.8207E-03    -2.26311E+06     23.4787E+06     70.1954E+06     356.819E+03    -240.827E-03     476.222E-03    -235.395E-03     146.124E-03    -245.380E-03     480.646E-03    -235.074E-03     124.525E-03
             269     14.2313E-03     55.3435E-03    -1.23299E+06     22.9057E+06     70.1164E+06     328.603E+03    -234.889E-03     470.353E-03    -235.465E-03     151.870E-03    -239.600E-03     474.939E-03    -235.145E-03     130.501E-03
             270     14.2299E-03     56.8392E-03    -2.46481E+06     21.7012E+06     68.7884E+06    -860.922E+03    -236.190E-03     471.509E-03    -235.319E-03     150.398E-03    -240.867E-03     476.055E-03    -235.003E-03     128.916E-03
             271     14.2315E-03     58.3732E-03    -1.61635E+06     24.4597E+06     73.0484E+06     613.375E+03    -240.285E-03     475.563E-03    -235.278E-03     145.478E-03    -244.780E-03     479.928E-03    -234.946E-03     124.086E-03
             272     14.2267E-03     59.8914E-03    -1.34074E+06     24.8554E+06     72.8534E+06     223.587E+03    -237.466E-03     472.884E-03    -235.418E-03     145.545E-03    -241.988E-03     477.278E-03    -235.087E-03     124.276E-03
             273     14.2309E-03     61.4021E-03    -2.18344E+06     24.3952E+06     70.6043E+06    -171.888E+03    -235.784E-03     471.197E-03    -235.414E-03     147.333E-03    -240.338E-03     475.626E-03    -235.093E-03     126.147E-03
             274     14.2296E-03     62.9173E-03    -2.60431E+06     22.7481E+06     72.1385E+06    -108.184E+03    -238.221E-03     473.563E-03    -235.342E-03     143.203E-03    -242.607E-03     477.812E-03    -235.010E-03     122.181E-03
             275     14.2288E-03     64.4444E-03    -673.091E+03     23.9332E+06     75.1607E+06     1.36840E+06    -238.332E-03     473.706E-03    -235.374E-03     143.655E-03    -242.746E-03     477.985E-03    -235.032E-03     122.563E-03
             276     14.2303E-03     65.9569E-03    -2.62049E+06     25.6029E+06     72.7992E+06    -554.256E+03    -236.210E-03     471.597E-03    -235.387E-03     143.548E-03    -240.675E-03     475.932E-03    -235.057E-03     122.455E-03
             277     14.2296E-03     67.4726E-03    -1.26924E+06     27.0655E+06     71.7584E+06    -847.438E+03    -236.128E-03     471.468E-03    -235.340E-03     145.634E-03    -240.656E-03     475.880E-03    -235.019E-03     124.454E-03
             278     14.2319E-03     68.9971E-03    -1.09529E+06     27.2771E+06     74.4920E+06    -242.036E+03    -237.121E-03     472.424E-03    -235.303E-03     148.130E-03    -241.724E-03     476.903E-03    -234.968E-03     126.750E-03
             279     14.2296E-03     70.5103E-03    -2.61018E+06     27.8907E+06     75.5084E+06     252.924E+03    -238.586E-03     473.927E-03    -235.341E-03     146.126E-03    -243.152E-03     478.364E-03    -235.000E-03     124.776E-03
             280     14.2278E-03     72.0341E-03    -1.63475E+06     29.4982E+06     75.0343E+06     1.92180E+06    -239.073E-03     474.504E-03    -235.431E-03     147.824E-03    -243.671E-03     478.984E-03    -235.096E-03     126.467E-03
             281     14.2279E-03     73.5586E-03    -2.47173E+06     28.5976E+06     71.6590E+06     363.420E+03    -235.929E-03     471.375E-03    -235.446E-03     151.653E-03    -240.660E-03     475.991E-03    -235.125E-03     130.193E-03
             282     14.2328E-03     75.0591E-03    -2.37541E+06     29.6723E+06     74.0776E+06    -1.33955E+06    -236.170E-03     471.551E-03    -235.381E-03     151.757E-03    -240.964E-03     476.228E-03    -235.051E-03     130.125E-03
             283     14.2266E-03     76.5939E-03    -1.75772E+06     30.9683E+06     76.7036E+06    -494.427E+03    -238.474E-03     473.874E-03    -235.399E-03     150.040E-03    -243.230E-03     478.510E-03    -235.058E-03     128.331E-03
             284     14.2301E-03     78.1015E-03    -1.09453E+06     30.8197E+06     73.5176E+06     860.843E+03    -236.955E-03     472.392E-03    -235.438E-03     151.818E-03    -241.738E-03     477.068E-03    -235.113E-03     130.181E-03
             285     14.2286E-03     79.6216E-03    -2.14203E+06     30.4766E+06     73.8367E+06    -172.826E+03    -236.725E-03     472.123E-03    -235.398E-03     152.392E-03    -241.518E-03     476.802E-03    -235.070E-03     130.774E-03
             286     14.2310E-03     81.1397E-03    -3.81187E+06     29.5256E+06     74.7487E+06    -1.04113E+06    -239.034E-03     474.429E-03    -235.395E-03     152.878E-03    -243.846E-03     479.116E-03    -235.059E-03     131.051E-03
             287     14.2251E-03     82.6657E-03    -1.04242E+06     31.7115E+06     76.0338E+06     704.690E+03    -238.074E-03     473.551E-03    -235.477E-03     153.596E-03    -242.862E-03     478.227E-03    -235.141E-03     131.920E-03
             288     14.2314E-03     84.1757E-03    -983.212E+03     31.3660E+06     74.3200E+06     646.494E+03    -234.023E-03     469.507E-03    -235.484E-03     150.324E-03    -238.704E-03     474.081E-03    -235.156E-03     129.117E-03
             289     14.2293E-03     85.6708E-03    -2.84211E+06     30.2549E+06     74.1071E+06    -867.708E+03    -236.913E-03     472.275E-03    -235.362E-03     145.578E-03    -241.491E-03     476.736E-03    -235.032E-03     124.258E-03
             290     14.2295E-03     87.2144E-03    -2.14589E+06     31.3861E+06      75.664E+06     151.100E+03    -240.363E-03     475.675E-03    -235.313E-03     147.293E-03    -244.947E-03     480.144E-03    -234.977E-03     125.760E-03
             291     14.2296E-03     88.7312E-03    -2.52535E+06     30.9485E+06     74.4875E+06     160.305E+03    -238.170E-03     473.564E-03    -235.394E-03     151.654E-03    -242.911E-03     478.190E-03    -235.063E-03     130.011E-03
             292     711.214E-06     86.9250E-03    -116.085E+06    -295.825E+06    -113.932E+06     452.589E+03    -235.296E-03     470.566E-03    -235.270E-03     23.2326E-03    -235.371E-03     469.510E-03    -235.242E-03     20.2483E-03
             293     1.42322E-03     86.9720E-03    -114.020E+06    -276.096E+06    -108.399E+06    -79.0134E+03    -235.831E-03     471.112E-03    -235.281E-03     43.6734E-03    -236.126E-03     470.336E-03    -235.257E-03     38.1161E-03
             294     2.13342E-03     87.0453E-03    -110.177E+06    -247.251E+06    -97.6508E+06    -177.363E+03    -236.158E-03     471.516E-03    -235.359E-03     64.8622E-03    -236.823E-03     471.196E-03    -235.329E-03     56.5058E-03
             295     2.84507E-03     87.1488E-03    -105.154E+06    -223.398E+06    -81.7535E+06     90.4014E+03    -236.564E-03     471.973E-03    -235.409E-03     86.4051E-03    -237.746E-03     472.227E-03    -235.342E-03     75.1154E-03
             296     3.55653E-03     87.2806E-03    -98.6899E+06    -198.046E+06    -64.0485E+06     234.281E+03    -236.996E-03     472.424E-03    -235.428E-03     107.727E-03    -238.859E-03     473.419E-03    -235.318E-03     93.3568E-03
             297     4.26829E-03     87.4408E-03    -91.2459E+06    -163.970E+06    -45.5660E+06     270.928E+03    -237.580E-03     472.997E-03    -235.417E-03     129.115E-03    -240.327E-03     474.970E-03    -235.275E-03     111.460E-03
             298     4.97907E-03     87.6297E-03    -83.4710E+06    -119.737E+06    -26.7134E+06     342.761E+03    -238.374E-03     473.772E-03    -235.399E-03     150.834E-03    -242.246E-03     477.001E-03    -235.238E-03     129.658E-03
             299     5.69104E-03     87.8487E-03    -75.0716E+06    -74.6350E+06    -6.90686E+06     399.434E+03    -239.061E-03     474.452E-03    -235.391E-03     172.373E-03    -244.302E-03     479.181E-03    -235.208E-03     147.501E-03
             300     6.40255E-03     88.0943E-03    -66.4070E+06    -45.5358E+06     9.14244E+06     123.856E+03    -239.866E-03     475.254E-03    -235.388E-03     194.523E-03    -246.744E-03     481.707E-03    -235.180E-03     165.730E-03
             301     7.11302E-03     88.3712E-03    -58.3099E+06    -34.3030E+06     20.0364E+06     44.0547E+03    -240.728E-03     476.116E-03    -235.388E-03     217.095E-03    -249.520E-03     484.521E-03    -235.154E-03     184.260E-03
             302     7.82708E-03     88.6772E-03    -50.8178E+06    -22.4687E+06     31.9143E+06     361.206E+03    -241.483E-03     476.875E-03    -235.392E-03     239.458E-03    -252.501E-03     487.540E-03    -235.126E-03     202.552E-03
             303     8.53614E-03     89.0122E-03    -43.7003E+06    -11.0785E+06     44.1852E+06     423.489E+03    -242.309E-03     477.709E-03    -235.400E-03     260.767E-03    -255.755E-03     490.833E-03    -235.100E-03     219.941E-03
             304     9.25016E-03     89.3760E-03    -36.5094E+06    -932.689E+03     54.4677E+06     215.803E+03    -242.900E-03     478.309E-03    -235.409E-03     278.238E-03    -258.674E-03     493.793E-03    -235.083E-03     234.138E-03
             305     9.95945E-03     89.7586E-03    -29.6602E+06     8.14391E+06     62.6603E+06    -196.064E+03    -242.742E-03     478.154E-03    -235.413E-03     288.178E-03    -260.257E-03     495.412E-03    -235.068E-03     242.069E-03
             306     10.6731E-03     90.1486E-03    -23.6870E+06     15.1932E+06     66.4436E+06    -313.385E+03    -242.011E-03     477.408E-03    -235.397E-03     288.314E-03    -260.199E-03     495.373E-03    -235.053E-03     241.910E-03
             307     11.3829E-03     90.5294E-03    -18.3325E+06     20.5930E+06     66.4396E+06    -25.3781E+03    -241.478E-03     476.858E-03    -235.380E-03     280.199E-03    -259.191E-03     494.387E-03    -235.051E-03     235.021E-03
             308     12.0956E-03     90.8995E-03    -13.2769E+06     25.1285E+06     67.1418E+06     81.2836E+03    -240.735E-03     476.123E-03    -235.388E-03     261.755E-03    -256.446E-03     491.682E-03    -235.069E-03     219.848E-03
             309     12.8055E-03     91.2319E-03    -8.59654E+06     31.3583E+06     70.8251E+06    -136.928E+03    -240.601E-03     476.014E-03    -235.414E-03     249.188E-03    -254.548E-03     489.837E-03    -235.092E-03     210.230E-03
             310     13.5136E-03     91.5625E-03    -3.69004E+06     33.9329E+06     74.0327E+06    -152.724E+03    -238.158E-03     473.566E-03    -235.409E-03     198.392E-03    -247.298E-03     482.599E-03    -235.082E-03     168.617E-03
             311     711.685E-06     88.4427E-03    -116.052E+06    -296.447E+06    -113.342E+06    -86.0405E+03    -235.620E-03     470.930E-03    -235.310E-03     24.2716E-03    -235.698E-03     469.873E-03    -235.279E-03     21.2450E-03
             312     1.42185E-03     88.4881E-03    -112.994E+06    -275.415E+06    -107.838E+06    -34.5193E+03    -235.735E-03     471.137E-03    -235.402E-03     43.7409E-03    -236.027E-03     470.363E-03    -235.378E-03     38.1725E-03
             313     2.13416E-03     88.5626E-03    -110.174E+06     -247.24E+06    -97.6819E+06     88.6135E+03    -236.022E-03     471.417E-03    -235.394E-03     64.9395E-03    -236.687E-03     471.096E-03    -235.365E-03     56.6014E-03
             314     2.84505E-03     88.6654E-03    -105.127E+06    -223.454E+06    -81.7579E+06     57.3689E+03    -236.453E-03     471.856E-03    -235.403E-03     86.3790E-03    -237.634E-03     472.108E-03    -235.336E-03     75.0927E-03
             315     3.55641E-03     88.7974E-03    -98.7275E+06    -198.043E+06    -64.0624E+06     101.910E+03    -236.959E-03     472.367E-03    -235.408E-03     107.577E-03    -238.821E-03     473.361E-03    -235.298E-03     93.2047E-03
             316     4.26766E-03     88.9570E-03    -91.5762E+06    -164.297E+06    -45.8977E+06     227.492E+03    -237.694E-03     473.100E-03    -235.406E-03     129.200E-03    -240.444E-03     475.075E-03    -235.265E-03     111.528E-03
             317     4.97968E-03     89.1476E-03    -83.7066E+06    -119.855E+06    -27.0596E+06     358.240E+03    -238.368E-03     473.765E-03    -235.396E-03     150.937E-03    -242.242E-03     476.994E-03    -235.236E-03     129.767E-03
             318     5.69075E-03     89.3649E-03    -75.3112E+06    -74.2599E+06    -6.71297E+06     233.129E+03    -239.025E-03     474.411E-03    -235.386E-03     172.569E-03    -244.272E-03     479.147E-03    -235.203E-03     147.695E-03
             319     6.40246E-03     89.6119E-03    -66.7419E+06    -45.0654E+06     9.43786E+06    -60.6403E+03    -239.835E-03     475.213E-03    -235.378E-03     194.702E-03    -246.718E-03     481.672E-03    -235.169E-03     165.910E-03
             320     7.11513E-03     89.8885E-03    -58.6905E+06    -34.3902E+06     19.6052E+06     114.729E+03    -240.631E-03     476.002E-03    -235.371E-03     216.967E-03    -249.421E-03     484.404E-03    -235.138E-03     184.149E-03
             321     7.82456E-03     90.1932E-03    -51.2249E+06    -22.9551E+06     31.0254E+06     364.831E+03    -241.528E-03     476.902E-03    -235.374E-03     239.330E-03    -252.547E-03     487.568E-03    -235.111E-03     202.400E-03
             322     8.53863E-03     90.5304E-03    -43.5357E+06    -10.8549E+06     43.9639E+06     247.868E+03    -242.390E-03     477.782E-03    -235.392E-03     260.631E-03    -255.837E-03     490.908E-03    -235.094E-03     219.780E-03
             323     9.24771E-03     90.8923E-03    -36.1952E+06    -503.122E+03     54.7545E+06     165.097E+03    -242.826E-03     478.231E-03    -235.405E-03     278.303E-03    -258.616E-03     493.733E-03    -235.078E-03     234.195E-03
             324     9.96149E-03     91.2768E-03    -29.4759E+06      8.4262E+06     62.7017E+06     347.179E+03    -242.698E-03     478.102E-03    -235.404E-03     288.140E-03    -260.207E-03     495.355E-03    -235.060E-03     242.069E-03
             325     10.6716E-03     91.6641E-03    -23.4205E+06     15.5891E+06     66.7165E+06     624.115E+03    -242.230E-03     477.624E-03    -235.394E-03     288.349E-03    -260.398E-03     495.571E-03    -235.049E-03     241.966E-03
             326     11.3843E-03     92.0500E-03    -18.0404E+06     21.1699E+06     67.2741E+06     220.173E+03    -241.638E-03     477.024E-03    -235.387E-03     281.160E-03    -259.407E-03     494.610E-03    -235.055E-03     235.895E-03
             327     12.0935E-03     92.4160E-03    -13.2031E+06     25.3624E+06     67.5730E+06    -162.686E+03    -239.818E-03     475.183E-03    -235.365E-03     262.314E-03    -255.540E-03     490.752E-03    -235.045E-03     220.551E-03
             328     12.8075E-03     92.7488E-03     -7.9678E+06     31.9989E+06     71.5484E+06    -392.577E+03    -238.669E-03     473.975E-03    -235.306E-03     250.341E-03    -252.626E-03     487.810E-03    -234.983E-03     211.731E-03
             329     13.5244E-03     93.0828E-03    -3.66768E+06     34.2663E+06     74.8910E+06    -304.404E+03    -239.247E-03     474.525E-03    -235.277E-03     197.900E-03    -248.368E-03     483.537E-03    -234.947E-03     168.243E-03
             330     710.517E-06     89.9593E-03    -115.977E+06    -296.182E+06    -114.899E+06    -121.473E+03    -235.971E-03     471.102E-03    -235.131E-03     23.7260E-03    -236.046E-03     470.048E-03    -235.107E-03     20.7180E-03
             331     1.42292E-03     90.0052E-03    -114.082E+06    -275.534E+06    -108.102E+06     251.833E+03    -235.587E-03     471.032E-03    -235.445E-03     44.0371E-03    -235.886E-03     470.261E-03    -235.420E-03     38.4588E-03
             332     2.13336E-03     90.0789E-03    -110.539E+06    -247.177E+06    -97.2204E+06     258.869E+03    -235.967E-03     471.351E-03    -235.383E-03     65.1790E-03    -236.637E-03     471.032E-03    -235.351E-03     56.8318E-03
             333     2.84513E-03     90.1825E-03    -105.374E+06    -223.471E+06    -81.5437E+06     126.736E+03    -236.381E-03     471.758E-03    -235.377E-03     86.4065E-03    -237.563E-03     472.009E-03    -235.308E-03     75.1410E-03
             334     3.55668E-03     90.3136E-03    -98.8271E+06    -198.146E+06    -63.9175E+06     223.109E+03    -237.022E-03     472.405E-03    -235.383E-03     107.807E-03    -238.888E-03     473.402E-03    -235.272E-03     93.4303E-03
             335     4.26827E-03     90.4747E-03    -91.6275E+06    -164.175E+06     -45.681E+06     219.712E+03    -237.745E-03     473.138E-03    -235.393E-03     129.402E-03    -240.501E-03     475.118E-03    -235.250E-03     111.716E-03
             336     4.97910E-03     90.6638E-03    -83.6473E+06    -119.833E+06    -26.8121E+06     82.0281E+03    -238.338E-03     473.725E-03    -235.387E-03     150.907E-03    -242.212E-03     476.954E-03    -235.226E-03     129.737E-03
             337     5.69132E-03     90.8819E-03    -75.2034E+06    -74.0972E+06    -6.63433E+06     58.5618E+03    -239.065E-03     474.443E-03    -235.377E-03     172.643E-03    -244.318E-03     479.185E-03    -235.194E-03     147.745E-03
             338     6.40268E-03     91.1292E-03    -67.0594E+06    -44.9860E+06     9.23549E+06     288.236E+03    -239.817E-03     475.190E-03    -235.373E-03     194.433E-03    -246.694E-03     481.643E-03    -235.164E-03     165.654E-03
             339     7.11332E-03     91.4044E-03    -59.0514E+06    -34.3861E+06     19.2785E+06     309.980E+03    -240.647E-03     476.015E-03    -235.368E-03     216.784E-03    -249.438E-03     484.419E-03    -235.136E-03     183.962E-03
             340     7.82706E-03     91.7117E-03    -51.1382E+06    -22.6123E+06     31.1054E+06    -42.4068E+03    -241.570E-03     476.946E-03    -235.376E-03     239.355E-03    -252.592E-03     487.616E-03    -235.114E-03     202.408E-03
             341     8.53606E-03     92.0464E-03    -43.6906E+06    -10.8622E+06     43.9558E+06    -137.834E+03    -242.289E-03     477.681E-03    -235.392E-03     260.705E-03    -255.741E-03     490.812E-03    -235.093E-03     219.871E-03
             342     9.25012E-03     92.4108E-03    -36.5987E+06    -796.670E+03     54.2552E+06     20.5566E+03    -242.755E-03     478.151E-03    -235.396E-03     278.345E-03    -258.540E-03     493.646E-03    -235.071E-03     234.268E-03
             343     9.96001E-03     92.7924E-03    -29.9931E+06     8.01700E+06     61.9620E+06     265.393E+03    -242.807E-03     478.201E-03    -235.394E-03     288.203E-03    -260.299E-03     495.435E-03    -235.052E-03     242.148E-03
             344     10.6727E-03     93.1837E-03    -23.4631E+06     15.6412E+06     66.0188E+06     256.256E+03    -242.191E-03     477.574E-03    -235.383E-03     288.805E-03    -260.395E-03     495.559E-03    -235.042E-03     242.360E-03
             345     11.3831E-03     93.5652E-03    -17.3180E+06     21.8441E+06     66.9379E+06     360.140E+03    -240.962E-03     476.311E-03    -235.349E-03     281.815E-03    -258.743E-03     493.914E-03    -235.021E-03     236.658E-03
             346     12.0968E-03     93.9371E-03    -11.8004E+06     26.9574E+06     68.9171E+06     377.125E+03    -239.564E-03     474.871E-03    -235.308E-03     261.617E-03    -255.276E-03     490.438E-03    -234.985E-03     219.906E-03
             347     12.8090E-03     94.2582E-03    -7.62227E+06     32.8701E+06     73.1582E+06     56.0628E+03    -239.493E-03     474.781E-03    -235.289E-03     246.342E-03    -253.317E-03     488.483E-03    -234.959E-03     207.698E-03
             348     13.5187E-03     94.5986E-03    -4.61875E+06     33.6739E+06     74.9160E+06    -209.676E+03    -239.801E-03     475.117E-03    -235.316E-03     196.258E-03    -248.826E-03     484.028E-03    -234.983E-03     166.569E-03
             349     711.601E-06     91.4759E-03    -116.697E+06    -296.443E+06    -114.795E+06     223.686E+03    -235.176E-03     470.922E-03    -235.746E-03     23.5200E-03    -235.254E-03     469.867E-03    -235.721E-03     20.5147E-03
             350     1.42215E-03     91.5213E-03    -113.946E+06    -275.369E+06    -108.438E+06    -108.075E+03    -235.646E-03     471.030E-03    -235.384E-03     43.9947E-03    -235.945E-03     470.261E-03    -235.362E-03     38.4136E-03
             351     2.13429E-03     91.5962E-03    -110.005E+06    -247.180E+06    -97.3208E+06    -99.1613E+03    -235.911E-03     471.261E-03    -235.350E-03     65.0745E-03    -236.577E-03     470.941E-03    -235.318E-03     56.7204E-03
             352     2.84534E-03     91.6986E-03    -105.123E+06    -223.673E+06    -81.3947E+06     249.801E+03    -236.394E-03     471.742E-03    -235.348E-03     86.2838E-03    -237.573E-03     471.990E-03    -235.278E-03     75.0254E-03
             353     3.55675E-03     91.8305E-03    -98.9797E+06    -198.245E+06    -63.9280E+06     322.343E+03    -237.074E-03     472.441E-03    -235.367E-03     107.803E-03    -238.943E-03     473.440E-03    -235.255E-03     93.4159E-03
             354     4.26777E-03     91.9916E-03    -91.5817E+06    -163.873E+06    -45.4912E+06     283.584E+03    -237.734E-03     473.119E-03    -235.385E-03     129.241E-03    -240.487E-03     475.097E-03    -235.242E-03     111.563E-03
             355     4.97992E-03     92.1806E-03    -83.8452E+06    -119.470E+06    -26.7317E+06     212.995E+03    -238.409E-03     473.794E-03    -235.385E-03     150.768E-03    -242.285E-03     477.026E-03    -235.224E-03     129.587E-03
             356     5.69071E-03     92.3991E-03    -75.7578E+06    -74.3187E+06    -7.24855E+06     190.312E+03    -239.062E-03     474.442E-03    -235.380E-03     172.590E-03    -244.315E-03     479.184E-03    -235.199E-03     147.698E-03
             357     6.40236E-03     92.6461E-03    -67.0399E+06    -45.0870E+06     8.89686E+06     365.091E+03    -239.792E-03     475.166E-03    -235.374E-03     194.506E-03    -246.672E-03     481.622E-03    -235.167E-03     165.732E-03
             358     7.11498E-03     92.9219E-03    -58.7706E+06    -33.7744E+06     19.5833E+06     55.4943E+03    -240.704E-03     476.075E-03    -235.371E-03     216.984E-03    -249.502E-03     484.488E-03    -235.139E-03     184.141E-03
             359     7.82439E-03     93.2280E-03    -51.1596E+06    -22.0907E+06     31.3274E+06    -70.6411E+03    -241.474E-03     476.849E-03    -235.375E-03     239.543E-03    -252.502E-03     487.526E-03    -235.112E-03     202.613E-03
             360     8.53862E-03     93.5643E-03    -43.8247E+06    -10.8139E+06     43.9636E+06     18.6473E+03    -242.275E-03     477.659E-03    -235.384E-03     260.864E-03    -255.732E-03     490.795E-03    -235.085E-03     220.035E-03
             361     9.24819E-03     93.9267E-03    -36.7880E+06    -802.428E+03      54.153E+06     39.3082E+03    -242.850E-03     478.241E-03    -235.391E-03     278.201E-03    -258.620E-03     493.720E-03    -235.065E-03     234.125E-03
             362     9.96132E-03     94.3110E-03    -29.7918E+06     8.39376E+06     62.1508E+06     28.7619E+03    -242.705E-03     478.094E-03    -235.390E-03     288.256E-03    -260.204E-03     495.338E-03    -235.048E-03     242.189E-03
             363     10.6720E-03     94.6997E-03    -23.3476E+06     15.9587E+06     66.3336E+06    -344.262E+03    -241.858E-03     477.224E-03    -235.366E-03     288.929E-03    -260.081E-03     495.228E-03    -235.023E-03     242.500E-03
             364     11.3850E-03     95.0843E-03    -17.7622E+06     21.6467E+06     66.7743E+06    -477.586E+03    -240.817E-03     476.139E-03    -235.323E-03     280.646E-03    -258.551E-03     493.693E-03    -234.994E-03     235.539E-03
             365     12.0968E-03     95.4483E-03    -12.8445E+06     26.1584E+06     67.7394E+06    -440.726E+03    -240.423E-03     475.734E-03    -235.311E-03     260.389E-03    -256.112E-03     491.275E-03    -234.992E-03     218.523E-03
             366     12.8057E-03     95.7844E-03    -8.15015E+06     32.4558E+06     71.8709E+06     440.813E+03    -241.377E-03     476.749E-03    -235.373E-03     246.132E-03    -255.199E-03     490.449E-03    -235.048E-03     207.164E-03
             367     13.5159E-03     96.1117E-03    -3.74715E+06     34.6387E+06     74.8457E+06     658.931E+03    -239.117E-03     474.545E-03    -235.427E-03     198.485E-03    -248.207E-03     483.527E-03    -235.098E-03     168.626E-03
             368     711.189E-06     92.9930E-03    -114.993E+06    -295.522E+06    -113.234E+06    -660.341E+03    -235.137E-03     470.848E-03    -235.711E-03     23.7517E-03    -235.210E-03     469.792E-03    -235.682E-03     20.7487E-03
             369     1.42277E-03     93.0383E-03    -112.964E+06    -275.635E+06    -108.373E+06    -206.159E+03    -235.695E-03     471.054E-03    -235.359E-03     43.8486E-03    -235.986E-03     470.280E-03    -235.337E-03     38.2815E-03
             370     2.13347E-03     93.1121E-03    -110.135E+06    -247.765E+06    -97.8839E+06     445.966E+03    -235.958E-03     471.307E-03    -235.349E-03     64.9237E-03    -236.621E-03     470.983E-03    -235.320E-03     56.5878E-03
             371     2.84531E-03     93.2153E-03    -105.538E+06    -223.814E+06    -81.6990E+06     536.690E+03    -236.477E-03     471.843E-03    -235.366E-03     86.1791E-03    -237.659E-03     472.093E-03    -235.297E-03     74.9045E-03
             372     3.55649E-03     93.3474E-03    -99.0220E+06    -198.056E+06    -63.9016E+06     383.219E+03    -237.075E-03     472.467E-03    -235.393E-03     107.669E-03    -238.940E-03     473.463E-03    -235.282E-03     93.2906E-03
             373     4.26830E-03     93.5083E-03    -91.6506E+06    -163.988E+06    -45.7484E+06     359.519E+03    -237.702E-03     473.106E-03    -235.404E-03     129.128E-03    -240.453E-03     475.082E-03    -235.262E-03     111.461E-03
             374     4.97899E-03     93.6977E-03    -83.5937E+06    -119.664E+06    -26.8175E+06     535.799E+03    -238.376E-03     473.773E-03    -235.398E-03     150.824E-03    -242.251E-03     477.005E-03    -235.237E-03     129.649E-03
             375     5.69101E-03     93.9162E-03    -75.2569E+06    -73.8039E+06    -6.53951E+06     649.163E+03    -238.982E-03     474.368E-03    -235.386E-03     172.594E-03    -244.231E-03     479.106E-03    -235.202E-03     147.734E-03
             376     6.40290E-03     94.1624E-03    -66.8874E+06    -44.4005E+06     9.47575E+06     117.071E+03    -239.758E-03     475.129E-03    -235.371E-03     194.696E-03    -246.645E-03     481.593E-03    -235.162E-03     165.914E-03
             377     7.11333E-03     94.4395E-03    -58.7299E+06    -33.4017E+06     19.7950E+06    -13.5715E+03    -240.639E-03     475.999E-03    -235.360E-03     217.087E-03    -249.437E-03     484.412E-03    -235.127E-03     184.259E-03
             378     7.82715E-03     94.7450E-03    -51.1508E+06    -21.9559E+06     31.9966E+06     152.244E+03    -241.556E-03     476.924E-03    -235.368E-03     239.506E-03    -252.585E-03     487.600E-03    -235.102E-03     202.570E-03
             379     8.53663E-03     95.0808E-03    -43.8022E+06    -10.4675E+06     44.9398E+06     152.067E+03    -242.384E-03     477.773E-03    -235.389E-03     260.641E-03    -255.835E-03     490.901E-03    -235.085E-03     219.793E-03
             380     9.24978E-03     95.4453E-03    -36.5085E+06    -252.888E+03     54.9632E+06     20.4715E+03    -242.767E-03     478.164E-03    -235.398E-03     278.084E-03    -258.545E-03     493.653E-03    -235.070E-03     233.995E-03
             381     9.96013E-03     95.8264E-03    -29.7224E+06     8.71002E+06     62.5320E+06    -267.058E+03    -242.560E-03     477.949E-03    -235.390E-03     288.213E-03    -260.081E-03     495.215E-03    -235.047E-03     242.122E-03
             382     10.6730E-03     96.2179E-03    -23.4226E+06     16.1557E+06     66.6582E+06    -260.696E+03    -241.945E-03     477.313E-03    -235.368E-03     288.317E-03    -260.140E-03     495.289E-03    -235.024E-03     241.908E-03
             383     11.3842E-03     96.5985E-03    -17.7572E+06     22.1028E+06     67.7505E+06    -261.449E+03    -241.578E-03     476.938E-03    -235.360E-03     279.923E-03    -259.300E-03     494.480E-03    -235.028E-03     234.692E-03
             384     12.0940E-03     96.9701E-03    -13.4238E+06     25.9178E+06     67.9779E+06    -307.892E+03    -240.856E-03     476.237E-03    -235.381E-03     261.078E-03    -256.546E-03     491.774E-03    -235.059E-03     219.165E-03
             385     12.8065E-03     97.3003E-03    -9.34745E+06     31.3386E+06     70.4846E+06    -376.862E+03    -240.379E-03     475.784E-03    -235.405E-03     248.784E-03    -254.290E-03     489.569E-03    -235.084E-03     209.897E-03
             386     13.5167E-03     97.6377E-03    -3.85826E+06     34.6526E+06     74.2204E+06    -13.4531E+03    -238.733E-03     474.142E-03    -235.409E-03     198.896E-03    -247.886E-03     483.189E-03    -235.083E-03     169.071E-03
             387     711.209E-06     94.5093E-03    -118.304E+06    -294.420E+06    -115.243E+06    -137.011E+03    -235.925E-03     470.896E-03    -234.971E-03     23.9464E-03    -236.013E-03     469.853E-03    -234.948E-03     20.9656E-03
             388     1.42238E-03     94.5547E-03    -115.332E+06    -276.925E+06    -108.449E+06     483.986E+03    -235.668E-03     471.056E-03    -235.388E-03     43.7498E-03    -235.969E-03     470.280E-03    -235.362E-03     38.1882E-03
             389     2.13421E-03     94.6292E-03    -111.509E+06    -248.118E+06     -97.608E+06     470.484E+03    -236.079E-03     471.463E-03    -235.384E-03     64.9312E-03    -236.749E-03     471.140E-03    -235.351E-03     56.5870E-03
             390     2.84495E-03     94.7319E-03    -105.768E+06    -223.773E+06    -81.6773E+06     301.262E+03    -236.556E-03     471.973E-03    -235.417E-03     86.2206E-03    -237.740E-03     472.224E-03    -235.347E-03     74.9361E-03
             391     3.55644E-03     94.8644E-03    -99.0078E+06    -198.044E+06    -63.8307E+06     346.497E+03    -237.038E-03     472.477E-03    -235.439E-03     107.617E-03    -238.902E-03     473.472E-03    -235.328E-03     93.2454E-03
             392     4.26747E-03     95.0247E-03    -91.4451E+06    -163.799E+06    -45.4955E+06     219.757E+03    -237.606E-03     473.038E-03    -235.432E-03     129.257E-03    -240.360E-03     475.018E-03    -235.289E-03     111.588E-03
             393     4.97967E-03     95.2150E-03    -83.5714E+06    -119.895E+06    -26.8005E+06     110.363E+03    -238.231E-03     473.633E-03    -235.402E-03     150.968E-03    -242.105E-03     476.863E-03    -235.241E-03     129.804E-03
             394     5.69099E-03     95.4323E-03    -75.0485E+06    -74.0144E+06    -6.75111E+06     329.612E+03    -238.984E-03     474.361E-03    -235.377E-03     172.688E-03    -244.235E-03     479.103E-03    -235.195E-03     147.811E-03
             395     6.40229E-03     95.6800E-03    -66.4003E+06    -43.6859E+06     9.63418E+06     651.849E+03    -239.781E-03     475.145E-03    -235.364E-03     194.678E-03    -246.665E-03     481.611E-03    -235.156E-03     165.901E-03
             396     7.11524E-03     95.9560E-03    -58.6638E+06    -32.8437E+06     20.2148E+06     509.152E+03    -240.687E-03     476.048E-03    -235.361E-03     216.833E-03    -249.479E-03     484.457E-03    -235.127E-03     184.012E-03
             397     7.82490E-03     96.2618E-03    -51.0718E+06    -21.5365E+06     32.1534E+06     239.730E+03    -241.680E-03     477.058E-03    -235.379E-03     239.276E-03    -252.707E-03     487.734E-03    -235.113E-03     202.311E-03
             398     8.53783E-03     96.5994E-03    -43.4932E+06    -10.0570E+06     44.5726E+06     152.642E+03    -242.288E-03     477.688E-03    -235.400E-03     260.513E-03    -255.744E-03     490.825E-03    -235.100E-03     219.657E-03
             399     9.24830E-03     96.9601E-03    -36.3499E+06     44.3648E+03     54.5422E+06     41.2388E+03    -242.669E-03     478.072E-03    -235.403E-03     278.157E-03    -258.466E-03     493.582E-03    -235.077E-03     234.051E-03
             400     9.96126E-03     97.3457E-03    -29.5603E+06     9.12320E+06     62.7119E+06    -24.5150E+03    -242.780E-03     478.183E-03    -235.403E-03     287.842E-03    -260.291E-03     495.440E-03    -235.060E-03     241.725E-03
             401     10.6721E-03     97.7322E-03    -23.3766E+06     16.4729E+06     66.9331E+06    -90.5803E+03    -242.344E-03     477.750E-03    -235.406E-03     288.039E-03    -260.535E-03     495.722E-03    -235.061E-03     241.557E-03
             402     11.3829E-03     98.1201E-03    -18.0728E+06     21.8928E+06     66.9079E+06     48.3968E+03    -241.680E-03     477.083E-03    -235.404E-03     281.007E-03    -259.444E-03     494.667E-03    -235.075E-03     235.730E-03
             403     12.0950E-03     98.4860E-03    -12.9583E+06     26.5101E+06     67.7779E+06     241.662E+03    -240.357E-03     475.760E-03    -235.403E-03     262.112E-03    -256.103E-03     491.357E-03    -235.083E-03     220.218E-03
             404     12.8055E-03     98.8197E-03    -8.15255E+06     32.8759E+06     72.1321E+06    -175.055E+03    -239.485E-03     474.877E-03    -235.392E-03     248.207E-03    -253.378E-03     488.648E-03    -235.067E-03     209.501E-03
             405     13.5209E-03     99.1495E-03    -4.12150E+06     34.7541E+06     74.7517E+06    -372.644E+03    -238.829E-03     474.208E-03    -235.378E-03     197.914E-03    -247.921E-03     483.191E-03    -235.049E-03     168.236E-03
             406     711.303E-06     96.0264E-03    -117.057E+06    -295.778E+06    -115.437E+06     991.797E+03    -235.889E-03     470.939E-03    -235.049E-03     23.2718E-03    -235.968E-03     469.888E-03    -235.028E-03     20.2807E-03
             407     1.42254E-03     96.0713E-03    -114.414E+06    -276.700E+06    -108.070E+06     277.294E+03    -235.769E-03     471.193E-03    -235.424E-03     43.8593E-03    -236.068E-03     470.417E-03    -235.397E-03     38.2847E-03
             408     2.13335E-03     96.1459E-03    -110.546E+06    -247.570E+06    -97.5675E+06    -102.736E+03    -236.109E-03     471.538E-03    -235.429E-03     65.0299E-03    -236.777E-03     471.217E-03    -235.397E-03     56.6670E-03
             409     2.84496E-03     96.2494E-03    -105.449E+06    -223.773E+06    -81.7822E+06    -100.349E+03    -236.508E-03     471.956E-03    -235.448E-03     86.3125E-03    -237.690E-03     472.207E-03    -235.379E-03     75.0255E-03
             410     3.55616E-03     96.3808E-03     -98.682E+06    -198.048E+06    -63.8927E+06    -77.5844E+03    -237.004E-03     472.458E-03    -235.453E-03     107.842E-03    -238.873E-03     473.459E-03    -235.343E-03     93.4431E-03
             411     4.26806E-03     96.5419E-03    -91.2553E+06    -163.848E+06    -45.5084E+06     183.943E+03    -237.554E-03     472.990E-03    -235.435E-03     129.351E-03    -240.308E-03     474.969E-03    -235.293E-03     111.681E-03
             412     4.97920E-03     96.7309E-03    -83.4869E+06    -119.700E+06    -26.7837E+06     373.807E+03    -238.242E-03     473.643E-03    -235.401E-03     150.946E-03    -242.116E-03     476.874E-03    -235.241E-03     129.789E-03
             413     5.69110E-03     96.9498E-03    -75.6112E+06    -74.1231E+06    -7.10743E+06     227.005E+03    -239.054E-03     474.435E-03    -235.381E-03     172.641E-03    -244.308E-03     479.178E-03    -235.200E-03     147.748E-03
             414     6.40295E-03     97.1967E-03    -67.3116E+06    -44.1468E+06     8.86690E+06     201.808E+03    -239.877E-03     475.256E-03    -235.379E-03     194.332E-03    -246.760E-03     481.717E-03    -235.173E-03     165.535E-03
             415     7.11329E-03     97.4726E-03    -58.7121E+06    -32.5443E+06     19.7368E+06     244.240E+03    -240.792E-03     476.179E-03    -235.387E-03     216.780E-03    -249.593E-03     484.599E-03    -235.156E-03     183.912E-03
             416     7.82617E-03     97.7804E-03    -50.7492E+06    -21.1028E+06     31.3830E+06     238.863E+03    -241.503E-03     476.900E-03    -235.398E-03     239.378E-03    -252.534E-03     487.586E-03    -235.136E-03     202.427E-03
             417     8.53672E-03     98.1146E-03    -43.3254E+06    -9.79637E+06     43.8517E+06     216.406E+03    -242.198E-03     477.604E-03    -235.406E-03     260.616E-03    -255.665E-03     490.755E-03    -235.110E-03     219.761E-03
             418     9.24956E-03     98.4791E-03    -36.2164E+06     419.184E+03     54.5257E+06     127.709E+03    -242.938E-03     478.356E-03    -235.418E-03     278.017E-03    -258.733E-03     493.866E-03    -235.093E-03     233.863E-03
             419     9.95999E-03     98.8608E-03    -29.4990E+06     9.38567E+06     62.5330E+06     271.174E+03    -242.991E-03     478.426E-03    -235.435E-03     287.820E-03    -260.494E-03     495.676E-03    -235.093E-03     241.681E-03
             420     10.6712E-03     99.2531E-03    -23.3250E+06     16.6322E+06     66.2147E+06     294.371E+03    -242.375E-03     477.813E-03    -235.438E-03     288.633E-03    -260.593E-03     495.815E-03    -235.097E-03     242.119E-03
             421     11.3836E-03     99.6340E-03    -17.6839E+06     22.4322E+06     66.8175E+06     327.829E+03    -241.280E-03     476.701E-03    -235.420E-03     281.282E-03    -259.060E-03     494.304E-03    -235.093E-03     236.048E-03
             422     12.0946E-03     100.007E-03    -12.9114E+06     26.8131E+06     67.6478E+06     27.9938E+03    -240.136E-03     475.538E-03    -235.401E-03     261.753E-03    -255.888E-03     491.143E-03    -235.083E-03     219.882E-03
             423     12.8076E-03     100.333E-03    -7.82404E+06     33.2639E+06     71.8451E+06    -64.5419E+03    -239.951E-03     475.353E-03    -235.401E-03     246.816E-03    -253.750E-03     489.033E-03    -235.079E-03     208.126E-03
             424     13.5150E-03     100.670E-03    -3.81429E+06     35.2868E+06     74.9700E+06    -56.6223E+03    -238.686E-03     474.088E-03    -235.402E-03     198.328E-03    -247.744E-03     483.041E-03    -235.073E-03     168.617E-03
             425     711.126E-06     97.5423E-03    -115.046E+06    -297.139E+06    -113.097E+06     188.285E+03    -235.304E-03     470.916E-03    -235.612E-03     23.8511E-03    -235.375E-03     469.854E-03    -235.580E-03     20.8292E-03
             426     1.42241E-03     97.5887E-03    -112.880E+06    -275.806E+06    -108.979E+06     174.006E+03    -235.867E-03     471.280E-03    -235.413E-03     44.0713E-03    -236.158E-03     470.507E-03    -235.394E-03     38.5014E-03
             427     2.13381E-03     97.6630E-03    -109.972E+06    -247.115E+06    -98.1301E+06     49.3694E+03    -236.037E-03     471.465E-03    -235.429E-03     65.1344E-03    -236.702E-03     471.148E-03    -235.402E-03     56.7802E-03
             428     2.84496E-03     97.7659E-03    -105.057E+06    -223.288E+06    -81.9594E+06    -44.3354E+03    -236.405E-03     471.830E-03    -235.424E-03     86.5557E-03    -237.590E-03     472.086E-03    -235.358E-03     75.2632E-03
             429     3.55658E-03     97.8979E-03    -99.0197E+06    -198.064E+06    -64.3915E+06    -11.1084E+03    -237.027E-03     472.450E-03    -235.423E-03     107.946E-03    -238.898E-03     473.453E-03    -235.314E-03     93.5492E-03
             430     4.26764E-03     98.0583E-03    -91.9127E+06    -164.267E+06    -46.1515E+06     127.274E+03    -237.734E-03     473.160E-03    -235.426E-03     129.284E-03    -240.490E-03     475.140E-03    -235.285E-03     111.595E-03
             431     4.97960E-03     98.2479E-03    -83.9588E+06    -119.888E+06    -27.2634E+06     219.823E+03    -238.447E-03     473.870E-03    -235.423E-03     150.775E-03    -242.324E-03     477.103E-03    -235.264E-03     129.581E-03
             432     5.69076E-03     98.4667E-03    -75.3257E+06    -73.8026E+06    -7.01177E+06     382.806E+03    -239.111E-03     474.533E-03    -235.422E-03     172.407E-03    -244.362E-03     479.275E-03    -235.240E-03     147.505E-03
             433     6.40191E-03     98.7137E-03    -66.6550E+06    -43.4736E+06     9.31861E+06     238.413E+03    -239.868E-03     475.287E-03    -235.420E-03     194.363E-03    -246.753E-03     481.755E-03    -235.214E-03     165.553E-03
             434     7.11431E-03     98.9906E-03    -58.7224E+06    -32.3685E+06     19.4835E+06    -14.9908E+03    -240.677E-03     476.092E-03    -235.415E-03     216.976E-03    -249.482E-03     484.517E-03    -235.185E-03     184.120E-03
             435     7.82484E-03     99.2961E-03    -51.1492E+06    -21.1583E+06     31.1141E+06    -68.5315E+03    -241.454E-03     476.869E-03    -235.416E-03     239.233E-03    -252.482E-03     487.550E-03    -235.155E-03     202.288E-03
             436     8.53782E-03     99.6325E-03    -43.6418E+06    -9.76131E+06     44.1295E+06    -161.634E+03    -242.385E-03     477.817E-03    -235.433E-03     260.368E-03    -255.842E-03     490.957E-03    -235.135E-03     219.483E-03
             437     9.24804E-03     99.9958E-03    -36.4540E+06     448.067E+03     54.5923E+06     101.366E+03    -242.976E-03     478.427E-03    -235.452E-03     277.947E-03    -258.756E-03     493.921E-03    -235.126E-03     233.810E-03
             438     9.95980E-03     100.380E-03    -29.7471E+06     9.35939E+06     62.2917E+06     135.647E+03    -242.846E-03     478.304E-03    -235.459E-03     288.199E-03    -260.363E-03     495.569E-03    -235.118E-03     242.068E-03
             439     10.6723E-03     100.768E-03    -23.4194E+06     16.8266E+06     66.2313E+06     59.6178E+03    -242.255E-03     477.703E-03    -235.448E-03     289.087E-03    -260.496E-03     495.728E-03    -235.107E-03     242.569E-03
             440     11.3823E-03     101.155E-03    -17.7556E+06     22.6610E+06     66.8007E+06     154.621E+03    -241.395E-03     476.823E-03    -235.429E-03     280.997E-03    -259.172E-03     494.424E-03    -235.102E-03     235.737E-03
             441     12.0953E-03     101.519E-03    -12.3145E+06     27.6718E+06     68.4037E+06     336.245E+03    -240.428E-03     475.852E-03    -235.424E-03     261.840E-03    -256.174E-03     491.455E-03    -235.104E-03     219.936E-03
             442     12.8041E-03     101.858E-03    -8.17427E+06     33.3387E+06     72.1512E+06     101.247E+03    -240.095E-03     475.531E-03    -235.435E-03     246.658E-03    -253.897E-03     489.213E-03    -235.111E-03     207.929E-03
             443     13.5201E-03     102.180E-03    -4.35696E+06     35.1563E+06     74.8498E+06    -346.189E+03    -238.592E-03     474.030E-03    -235.438E-03     198.112E-03    -247.676E-03     483.006E-03    -235.108E-03     168.327E-03
             444     711.707E-06     99.0595E-03    -115.405E+06    -296.878E+06    -114.635E+06    -95.2954E+03    -235.887E-03     470.974E-03    -235.088E-03     24.3521E-03    -235.959E-03     469.916E-03    -235.063E-03     21.3534E-03
             445     1.42239E-03     99.1060E-03    -113.952E+06    -276.147E+06    -108.600E+06     63.3561E+03    -235.771E-03     471.195E-03    -235.424E-03     43.9685E-03    -236.067E-03     470.421E-03    -235.401E-03     38.3963E-03
             446     2.13359E-03     99.1794E-03    -110.348E+06    -246.899E+06    -98.1209E+06     139.254E+03    -236.009E-03     471.422E-03    -235.413E-03     64.8830E-03    -236.675E-03     471.104E-03    -235.386E-03     56.5331E-03
             447     2.84530E-03     99.2826E-03    -105.499E+06    -223.049E+06    -82.0315E+06     209.732E+03    -236.453E-03     471.871E-03    -235.418E-03     86.1899E-03    -237.637E-03     472.126E-03    -235.352E-03     74.9025E-03
             448     3.55652E-03     99.4146E-03    -99.2759E+06    -197.807E+06    -64.3106E+06     256.183E+03    -237.084E-03     472.517E-03    -235.434E-03     107.578E-03    -238.951E-03     473.516E-03    -235.324E-03     93.1909E-03
             449     4.26815E-03     99.5756E-03    -92.1086E+06    -163.950E+06    -46.0365E+06     69.5643E+03    -237.862E-03     473.316E-03    -235.454E-03     129.132E-03    -240.621E-03     475.299E-03    -235.312E-03     111.421E-03
             450     4.97870E-03     99.7653E-03    -84.2457E+06    -119.555E+06    -27.4811E+06    -82.3456E+03    -238.552E-03     474.015E-03    -235.464E-03     150.783E-03    -242.433E-03     477.253E-03    -235.306E-03     129.565E-03
             451     5.69028E-03     99.9835E-03    -75.9051E+06    -73.8505E+06    -7.81234E+06    -292.410E+03    -239.115E-03     474.577E-03    -235.461E-03     172.626E-03    -244.374E-03     479.327E-03    -235.283E-03     147.708E-03
             452     6.40227E-03     100.231E-03    -67.0626E+06    -43.6057E+06     8.47151E+06    -214.137E+03    -239.796E-03     475.245E-03    -235.449E-03     194.614E-03    -246.690E-03     481.722E-03    -235.246E-03     165.791E-03
             453     7.11325E-03     100.507E-03    -58.6103E+06    -31.8325E+06     19.6429E+06     10.5254E+03    -240.651E-03     476.089E-03    -235.439E-03     216.792E-03    -249.452E-03     484.513E-03    -235.209E-03     183.937E-03
             454     7.82596E-03     100.814E-03    -51.0553E+06    -20.6185E+06     31.5790E+06    -141.982E+03    -241.633E-03     477.080E-03    -235.447E-03     239.169E-03    -252.665E-03     487.766E-03    -235.185E-03     202.186E-03
             455     8.53590E-03     101.149E-03    -43.7519E+06    -9.61928E+06     44.0787E+06    -100.043E+03    -242.389E-03     477.856E-03    -235.467E-03     260.611E-03    -255.849E-03     490.999E-03    -235.169E-03     219.731E-03
             456     9.24829E-03     101.514E-03    -36.7091E+06     419.537E+03     54.1336E+06    -78.6587E+03    -242.779E-03     478.249E-03    -235.470E-03     278.474E-03    -258.584E-03     493.768E-03    -235.147E-03     234.345E-03
             457     9.96043E-03     101.895E-03    -29.7974E+06     9.60341E+06     62.1464E+06    -152.870E+03    -242.825E-03     478.290E-03    -235.465E-03     288.446E-03    -260.368E-03     495.582E-03    -235.125E-03     242.278E-03
             458     10.6706E-03     102.288E-03    -23.5877E+06     16.9969E+06     66.4814E+06     63.7010E+03    -242.251E-03     477.707E-03    -235.455E-03     288.973E-03    -260.492E-03     495.731E-03    -235.113E-03     242.453E-03
             459     11.3842E-03     102.670E-03    -17.9138E+06     22.8407E+06     67.3400E+06    -86.1371E+03    -241.564E-03     477.006E-03    -235.442E-03     281.212E-03    -259.343E-03     494.606E-03    -235.112E-03     235.931E-03
             460     12.0929E-03     103.042E-03    -13.0666E+06     27.3364E+06     68.1707E+06    -401.164E+03    -240.640E-03     476.084E-03    -235.444E-03     262.131E-03    -256.420E-03     491.717E-03    -235.123E-03     220.139E-03
             461     12.8075E-03     103.370E-03    -8.30759E+06     33.5394E+06     71.9965E+06    -220.050E+03    -239.835E-03     475.286E-03    -235.452E-03     246.836E-03    -253.675E-03     489.008E-03    -235.128E-03     208.097E-03
             462     13.5136E-03     103.705E-03    -3.74843E+06     35.8878E+06     74.8091E+06     286.932E+03    -238.202E-03     473.635E-03    -235.433E-03     198.818E-03    -247.276E-03     482.606E-03    -235.105E-03     169.162E-03
             463     710.525E-06     100.577E-03    -116.709E+06    -296.188E+06    -114.502E+06    -471.700E+03    -236.090E-03     471.213E-03    -235.123E-03     23.7798E-03    -236.169E-03     470.159E-03    -235.097E-03     20.7603E-03
             464     1.42249E-03     100.622E-03    -114.115E+06    -276.306E+06    -108.209E+06    -45.8198E+03    -235.683E-03     471.194E-03    -235.512E-03     43.7363E-03    -235.979E-03     470.419E-03    -235.486E-03     38.1593E-03
             465     2.13387E-03     100.697E-03    -110.654E+06    -246.807E+06    -97.7629E+06     97.6821E+03    -236.058E-03     471.519E-03    -235.461E-03     64.7383E-03    -236.726E-03     471.201E-03    -235.431E-03     56.3788E-03
             466     2.84463E-03     100.799E-03    -105.454E+06    -223.102E+06    -81.8285E+06     122.520E+03    -236.580E-03     472.056E-03    -235.476E-03     86.0985E-03    -237.763E-03     472.310E-03    -235.409E-03     74.8003E-03
             467     3.55612E-03     100.931E-03    -98.8908E+06    -197.484E+06    -64.1976E+06     138.699E+03    -237.171E-03     472.673E-03    -235.501E-03     107.619E-03    -239.040E-03     473.675E-03    -235.393E-03     93.2095E-03
             468     4.26710E-03     101.093E-03    -91.5945E+06    -163.450E+06    -45.9459E+06     223.207E+03    -237.786E-03     473.297E-03    -235.511E-03     129.214E-03    -240.543E-03     475.281E-03    -235.370E-03     111.514E-03
             469     4.97918E-03     101.283E-03    -83.8957E+06    -119.041E+06    -27.1477E+06     240.367E+03    -238.411E-03     473.907E-03    -235.497E-03     150.895E-03    -242.291E-03     477.146E-03    -235.338E-03     129.698E-03
             470     5.69051E-03     101.501E-03    -75.6041E+06    -72.5867E+06    -7.09456E+06    -125.615E+03    -239.099E-03     474.579E-03    -235.480E-03     172.679E-03    -244.361E-03     479.336E-03    -235.300E-03     147.758E-03
             471     6.40176E-03     101.748E-03    -67.2983E+06    -43.4252E+06     8.85095E+06    -736.498E+03    -239.889E-03     475.358E-03    -235.469E-03     194.646E-03    -246.785E-03     481.835E-03    -235.265E-03     165.809E-03
             472     7.11382E-03     102.025E-03    -58.8860E+06    -32.4912E+06     19.5073E+06    -741.827E+03    -240.777E-03     476.244E-03    -235.467E-03     216.881E-03    -249.584E-03     484.670E-03    -235.237E-03     183.990E-03
             473     7.82422E-03     102.330E-03    -50.9128E+06    -20.5470E+06     31.1968E+06    -94.3157E+03    -241.512E-03     476.980E-03    -235.468E-03     239.563E-03    -252.553E-03     487.677E-03    -235.208E-03     202.594E-03
             474     8.53702E-03     102.668E-03    -43.7255E+06    -9.41228E+06     43.5844E+06     188.171E+03    -242.223E-03     477.691E-03    -235.468E-03     261.039E-03    -255.699E-03     490.852E-03    -235.173E-03     220.178E-03
             475     9.24870E-03     103.029E-03    -36.4637E+06     978.149E+03     54.4448E+06     35.4110E+03    -242.903E-03     478.372E-03    -235.469E-03     278.593E-03    -258.723E-03     493.908E-03    -235.145E-03     234.422E-03
             476     9.95928E-03     103.416E-03    -29.8262E+06     9.89719E+06     62.4862E+06    -23.1730E+03    -242.910E-03     478.382E-03    -235.472E-03     288.463E-03    -260.456E-03     495.677E-03    -235.131E-03     242.283E-03
             477     10.6724E-03     103.802E-03    -23.5494E+06     17.2712E+06     66.4608E+06    -99.4423E+03    -242.435E-03     477.904E-03    -235.469E-03     289.029E-03    -260.687E-03     495.941E-03    -235.128E-03     242.458E-03
             478     11.3814E-03     104.191E-03    -17.8746E+06     23.1585E+06     67.2412E+06    -51.2296E+03    -241.532E-03     476.992E-03    -235.460E-03     281.110E-03    -259.326E-03     494.610E-03    -235.132E-03     235.801E-03
             479     12.0958E-03     104.556E-03    -12.6686E+06     27.9476E+06      68.567E+06     265.165E+03    -240.050E-03     475.494E-03    -235.444E-03     262.363E-03    -255.815E-03     491.114E-03    -235.124E-03     220.531E-03
             480     12.8028E-03     104.893E-03    -8.29920E+06     33.6237E+06     71.6199E+06     27.1548E+03    -239.430E-03     474.845E-03    -235.415E-03     247.758E-03    -253.262E-03     488.560E-03    -235.094E-03     209.167E-03
             481     13.5218E-03     105.214E-03    -4.14728E+06     35.7259E+06     74.0052E+06    -243.335E+03    -238.404E-03     473.790E-03    -235.386E-03     198.772E-03    -247.494E-03     482.778E-03    -235.062E-03     169.045E-03
             482     711.541E-06     102.094E-03    -116.123E+06    -295.625E+06    -113.724E+06     247.636E+03    -236.008E-03     471.308E-03    -235.300E-03     24.0907E-03    -236.086E-03     470.255E-03    -235.272E-03     21.0582E-03
             483     1.42200E-03     102.139E-03    -113.774E+06    -276.258E+06    -108.220E+06     14.5842E+03    -235.778E-03     471.342E-03    -235.564E-03     43.8812E-03    -236.073E-03     470.566E-03    -235.539E-03     38.3213E-03
             484     2.13322E-03     102.214E-03    -109.973E+06    -246.569E+06    -97.4137E+06     31.7162E+03    -236.104E-03     471.623E-03    -235.519E-03     64.9581E-03    -236.771E-03     471.306E-03    -235.489E-03     56.5922E-03
             485     2.84498E-03     102.317E-03    -104.962E+06    -222.877E+06    -81.6485E+06     3.46314E+03    -236.623E-03     472.150E-03    -235.527E-03     86.2918E-03    -237.806E-03     472.406E-03    -235.460E-03     74.9869E-03
             486     3.55592E-03     102.449E-03    -98.5872E+06    -197.313E+06    -64.1885E+06     39.4411E+03    -237.203E-03     472.749E-03    -235.546E-03     107.881E-03    -239.074E-03     473.756E-03    -235.438E-03     93.4611E-03
             487     4.26755E-03     102.610E-03    -91.1242E+06    -163.208E+06    -45.6391E+06         249.797    -237.764E-03     473.311E-03    -235.547E-03     129.385E-03    -240.521E-03     475.298E-03    -235.407E-03     111.679E-03
             488     4.97855E-03     102.799E-03    -82.8653E+06    -119.077E+06    -26.4898E+06     56.5427E+03    -238.361E-03     473.885E-03    -235.524E-03     150.884E-03    -242.239E-03     477.123E-03    -235.363E-03     129.681E-03
             489     5.69028E-03     103.018E-03    -74.2560E+06    -71.7388E+06    -5.98169E+06     198.967E+03    -239.075E-03     474.574E-03    -235.499E-03     172.658E-03    -244.331E-03     479.329E-03    -235.317E-03     147.749E-03
             490     6.40197E-03     103.265E-03    -65.8484E+06    -41.4802E+06     10.4731E+06     103.453E+03    -239.868E-03     475.351E-03    -235.483E-03     194.747E-03    -246.760E-03     481.832E-03    -235.275E-03     165.938E-03
             491     7.11298E-03     103.542E-03    -58.3938E+06    -32.6694E+06     20.2427E+06    -90.0247E+03    -240.655E-03     476.124E-03    -235.468E-03     217.339E-03    -249.468E-03     484.554E-03    -235.235E-03     184.485E-03
             492     7.82544E-03     103.849E-03    -51.1174E+06    -21.3688E+06     31.4105E+06     2.86605E+03    -241.465E-03     476.921E-03    -235.456E-03     239.815E-03    -252.511E-03     487.619E-03    -235.194E-03     202.858E-03
             493     8.53697E-03     104.182E-03    -43.5763E+06    -8.89323E+06     43.9672E+06     142.975E+03    -242.431E-03     477.892E-03    -235.461E-03     261.056E-03    -255.917E-03     491.063E-03    -235.165E-03     220.145E-03
             494     9.24778E-03     104.550E-03    -36.4460E+06     1.20939E+06     54.3722E+06     30.0280E+03    -242.997E-03     478.471E-03    -235.474E-03     278.411E-03    -258.808E-03     493.999E-03    -235.151E-03     234.234E-03
             495     9.96055E-03     104.930E-03    -29.4813E+06     10.4281E+06     62.6874E+06     15.3195E+03    -243.032E-03     478.518E-03    -235.486E-03     288.488E-03    -260.587E-03     495.823E-03    -235.145E-03     242.271E-03
             496     10.6702E-03     105.324E-03    -23.2828E+06     17.8699E+06     66.9333E+06     139.147E+03    -242.454E-03     477.942E-03    -235.488E-03     289.131E-03    -260.722E-03     495.996E-03    -235.146E-03     242.541E-03
             497     11.3836E-03     105.706E-03    -17.7761E+06     23.4522E+06     67.1449E+06     158.753E+03    -241.101E-03     476.562E-03    -235.461E-03     281.523E-03    -258.897E-03     494.183E-03    -235.133E-03     236.328E-03
             498     12.0921E-03     106.077E-03    -12.6176E+06     28.0025E+06     67.6722E+06     430.288E+03    -239.430E-03     474.835E-03    -235.406E-03     262.703E-03    -255.191E-03     490.455E-03    -235.090E-03     221.005E-03
             499     12.8110E-03     106.404E-03    -7.68940E+06     34.5048E+06     72.0585E+06     550.322E+03    -239.446E-03     474.809E-03    -235.363E-03     247.591E-03    -253.244E-03     488.494E-03    -235.042E-03     209.053E-03
             500     13.5148E-03     106.739E-03    -4.02468E+06     36.4403E+06     75.0645E+06    -240.094E+03    -239.261E-03     474.624E-03    -235.363E-03     198.400E-03    -248.332E-03     483.593E-03    -235.035E-03     168.612E-03
             501     710.669E-06     103.611E-03    -115.783E+06    -296.157E+06    -113.967E+06     245.941E+03    -235.875E-03     471.138E-03    -235.263E-03     23.7867E-03    -235.949E-03     470.083E-03    -235.236E-03     20.7783E-03
             502     1.42253E-03     103.657E-03    -113.421E+06    -275.531E+06    -108.098E+06     68.3619E+03    -235.895E-03     471.413E-03    -235.518E-03     43.9297E-03    -236.190E-03     470.640E-03    -235.494E-03     38.3581E-03
             503     2.13372E-03     103.731E-03    -109.970E+06    -246.318E+06    -97.4308E+06    -46.7828E+03    -236.172E-03     471.695E-03    -235.523E-03     65.1162E-03    -236.840E-03     471.381E-03    -235.494E-03     56.7504E-03
             504     2.84440E-03     103.834E-03    -104.859E+06    -222.390E+06    -81.3427E+06     2.79606E+03    -236.633E-03     472.173E-03    -235.540E-03     86.4585E-03    -237.818E-03     472.432E-03    -235.473E-03     75.1527E-03
             505     3.55602E-03     103.966E-03    -98.4264E+06    -196.947E+06    -63.6552E+06    -139.241E+03    -237.166E-03     472.720E-03    -235.555E-03     107.931E-03    -239.037E-03     473.728E-03    -235.445E-03     93.5162E-03
             506     4.26708E-03     104.127E-03    -91.0453E+06    -162.890E+06    -45.3879E+06    -260.468E+03    -237.777E-03     473.327E-03    -235.550E-03     129.501E-03    -240.538E-03     475.319E-03    -235.409E-03     111.783E-03
             507     4.97883E-03     104.317E-03    -83.2155E+06    -118.933E+06    -26.6376E+06    -346.336E+03    -238.425E-03     473.953E-03    -235.528E-03     151.122E-03    -242.308E-03     477.195E-03    -235.368E-03     129.910E-03
             508     5.69017E-03     104.535E-03    -75.1061E+06    -72.2145E+06    -6.71353E+06    -130.409E+03    -239.048E-03     474.549E-03    -235.501E-03     172.948E-03    -244.310E-03     479.308E-03    -235.321E-03     148.043E-03
             509     6.40174E-03     104.782E-03    -67.0069E+06    -41.5132E+06     9.47113E+06     491.281E+03    -239.720E-03     475.191E-03    -235.472E-03     194.952E-03    -246.622E-03     481.681E-03    -235.267E-03     166.155E-03
             510     7.11400E-03     105.059E-03    -58.9151E+06    -31.5522E+06     20.4707E+06     613.959E+03    -240.565E-03     476.014E-03    -235.449E-03     217.161E-03    -249.377E-03     484.446E-03    -235.216E-03     184.321E-03
             511     7.82550E-03     105.364E-03    -51.1098E+06    -20.5796E+06     31.7984E+06     33.1460E+03    -241.677E-03     477.124E-03    -235.447E-03     239.558E-03    -252.721E-03     487.821E-03    -235.184E-03     202.560E-03
             512     8.53632E-03     105.703E-03    -43.7069E+06    -8.80974E+06     43.8205E+06    -365.125E+03    -242.551E-03     478.020E-03    -235.468E-03     260.946E-03    -256.040E-03     491.194E-03    -235.173E-03     220.000E-03
             513     9.24875E-03     106.064E-03    -36.4321E+06     1.45023E+06     54.4698E+06    -236.063E+03    -243.022E-03     478.511E-03    -235.489E-03     278.428E-03    -258.840E-03     494.046E-03    -235.166E-03     234.230E-03
             514     9.95885E-03     106.450E-03    -29.7712E+06     10.4589E+06     62.3339E+06    -38.2765E+03    -243.054E-03     478.553E-03    -235.499E-03     288.782E-03    -260.627E-03     495.876E-03    -235.159E-03     242.548E-03
             515     10.6717E-03     106.840E-03    -23.3531E+06     17.9200E+06     66.2278E+06     113.327E+03    -241.983E-03     477.462E-03    -235.479E-03     289.498E-03    -260.246E-03     495.514E-03    -235.140E-03     243.025E-03
             516     11.3817E-03     107.225E-03    -17.5875E+06     23.7645E+06     66.9059E+06     285.154E+03    -240.636E-03     476.057E-03    -235.421E-03     281.616E-03    -258.418E-03     493.667E-03    -235.095E-03     236.535E-03
             517     12.0984E-03     107.591E-03    -12.7336E+06     28.4226E+06     68.0834E+06    -49.6159E+03    -240.142E-03     475.523E-03    -235.381E-03     262.001E-03    -255.920E-03     491.159E-03    -235.063E-03     220.111E-03
             518     12.8029E-03     107.923E-03    -8.43353E+06     34.1932E+06     71.5378E+06    -69.3662E+03    -240.026E-03     475.411E-03    -235.385E-03     245.853E-03    -253.793E-03     489.062E-03    -235.065E-03     207.171E-03
             519     13.5223E-03     108.255E-03    -3.96560E+06     36.5882E+06     74.4673E+06     303.753E+03    -238.756E-03     474.151E-03    -235.395E-03     197.683E-03    -247.777E-03     483.072E-03    -235.070E-03     168.025E-03
             520     711.983E-06     105.129E-03    -116.296E+06    -295.710E+06    -114.253E+06    -125.988E+03    -235.247E-03     471.054E-03    -235.807E-03     24.0566E-03    -235.323E-03     470.002E-03    -235.781E-03     21.0769E-03
             521     1.42210E-03     105.173E-03    -113.649E+06    -274.982E+06    -108.483E+06    -221.736E+03    -235.926E-03     471.415E-03    -235.489E-03     43.8497E-03    -236.222E-03     470.646E-03    -235.468E-03     38.2725E-03
             522     2.13330E-03     105.248E-03    -109.989E+06    -245.997E+06    -97.3971E+06    -118.967E+03    -236.191E-03     471.708E-03    -235.517E-03     65.0200E-03    -236.860E-03     471.395E-03    -235.488E-03     56.6508E-03
             523     2.84501E-03     105.351E-03    -105.034E+06    -222.148E+06    -81.3689E+06    -17.9227E+03    -236.572E-03     472.104E-03    -235.532E-03     86.4793E-03    -237.759E-03     472.366E-03    -235.465E-03     75.1741E-03
             524     3.55594E-03     105.483E-03    -98.6832E+06    -196.429E+06    -63.7267E+06     15.8537E+03    -237.130E-03     472.668E-03    -235.537E-03     108.024E-03    -239.004E-03     473.678E-03    -235.428E-03     93.6140E-03
             525     4.26761E-03     105.644E-03    -91.6568E+06    -162.696E+06    -45.6575E+06     6.30945E+03    -237.733E-03     473.261E-03    -235.528E-03     129.612E-03    -240.496E-03     475.253E-03    -235.387E-03     111.913E-03
             526     4.97877E-03     105.834E-03    -84.3103E+06    -118.357E+06    -27.0291E+06     177.817E+03    -238.387E-03     473.888E-03    -235.501E-03     151.259E-03    -242.277E-03     477.137E-03    -235.342E-03     130.061E-03
             527     5.69041E-03     106.052E-03    -76.6608E+06    -72.2250E+06    -7.38009E+06     228.451E+03    -239.062E-03     474.537E-03    -235.475E-03     173.030E-03    -244.335E-03     479.303E-03    -235.296E-03     148.118E-03
             528     6.40219E-03     106.300E-03    -68.0467E+06    -42.1075E+06     8.95342E+06     142.685E+03    -239.794E-03     475.249E-03    -235.455E-03     194.815E-03    -246.699E-03     481.737E-03    -235.251E-03     166.000E-03
             529     7.11352E-03     106.575E-03    -59.1881E+06    -30.9368E+06     20.6610E+06    -89.6528E+03    -240.817E-03     476.270E-03    -235.453E-03     217.052E-03    -249.635E-03     484.708E-03    -235.219E-03     184.154E-03
             530     7.82470E-03     106.883E-03    -50.9516E+06    -19.5855E+06     32.4122E+06    -275.053E+03    -241.765E-03     477.234E-03    -235.469E-03     239.609E-03    -252.818E-03     487.943E-03    -235.205E-03     202.581E-03
             531     8.53696E-03     107.219E-03    -43.5018E+06    -8.27758E+06     44.1956E+06    -190.821E+03    -242.410E-03     477.897E-03    -235.487E-03     260.834E-03    -255.888E-03     491.063E-03    -235.191E-03     219.926E-03
             532     9.24744E-03     107.583E-03    -36.7142E+06     1.56892E+06     54.3895E+06    -111.997E+03    -242.983E-03     478.479E-03    -235.496E-03     278.825E-03    -258.820E-03     494.033E-03    -235.173E-03     234.623E-03
             533     9.96010E-03     107.967E-03    -29.8986E+06     10.5338E+06     62.1577E+06    -118.510E+03    -242.717E-03     478.204E-03    -235.487E-03     289.140E-03    -260.295E-03     495.533E-03    -235.148E-03     242.977E-03
             534     10.6707E-03     108.358E-03    -23.6266E+06     17.8600E+06     66.0072E+06    -225.757E+03    -241.693E-03     477.138E-03    -235.446E-03     289.218E-03    -259.931E-03     495.165E-03    -235.107E-03     242.828E-03
             535     11.3856E-03     108.740E-03    -17.9048E+06     23.8814E+06     66.7112E+06    -265.809E+03    -241.308E-03     476.714E-03    -235.406E-03     280.890E-03    -259.088E-03     494.322E-03    -235.081E-03     235.646E-03
             536     12.0921E-03     109.109E-03    -12.9498E+06     28.4952E+06     67.6519E+06    -168.813E+03    -240.496E-03     475.898E-03    -235.402E-03     261.778E-03    -256.270E-03     491.531E-03    -235.086E-03     219.813E-03
             537     12.8083E-03     109.445E-03    -8.12838E+06     34.7508E+06     71.4530E+06     179.063E+03    -239.956E-03     475.366E-03    -235.410E-03     247.309E-03    -253.788E-03     489.085E-03    -235.091E-03     208.602E-03
             538     13.5121E-03     109.766E-03    -3.65780E+06     37.2027E+06     73.9961E+06     430.292E+03    -238.722E-03     474.125E-03    -235.403E-03     199.766E-03    -247.819E-03     483.126E-03    -235.081E-03     170.037E-03
             539     710.339E-06     106.644E-03    -113.738E+06    -294.610E+06    -112.726E+06    -272.976E+03    -235.605E-03     471.333E-03    -235.728E-03     24.1922E-03    -235.672E-03     470.280E-03    -235.700E-03     21.2211E-03
             540     1.42267E-03     106.692E-03    -112.501E+06    -274.698E+06    -107.223E+06    -42.4041E+03    -235.781E-03     471.351E-03    -235.571E-03     43.7383E-03    -236.072E-03     470.580E-03    -235.545E-03     38.1737E-03
             541     2.13355E-03     106.765E-03    -109.443E+06    -246.329E+06    -96.9034E+06     299.343E+03    -236.067E-03     471.587E-03    -235.519E-03     64.9953E-03    -236.733E-03     471.271E-03    -235.488E-03     56.6374E-03
             542     2.84448E-03     106.868E-03    -104.515E+06    -221.988E+06    -80.9924E+06     423.479E+03    -236.522E-03     472.030E-03    -235.509E-03     86.5797E-03    -237.708E-03     472.292E-03    -235.440E-03     75.2795E-03
             543     3.55626E-03     107.000E-03    -98.3237E+06    -196.538E+06    -63.4384E+06     577.836E+03    -237.101E-03     472.611E-03    -235.509E-03     108.016E-03    -238.973E-03     473.620E-03    -235.399E-03     93.6143E-03
             544     4.26736E-03     107.161E-03    -91.4298E+06    -162.485E+06    -45.0988E+06     938.527E+03    -237.726E-03     473.229E-03    -235.503E-03     129.504E-03    -240.488E-03     475.220E-03    -235.360E-03     111.819E-03
             545     4.97917E-03     107.351E-03    -83.8710E+06    -118.376E+06    -26.4618E+06     1.10785E+06    -238.393E-03     473.875E-03    -235.482E-03     151.125E-03    -242.282E-03     477.122E-03    -235.321E-03     129.929E-03
             546     5.69065E-03     107.570E-03    -75.3702E+06    -71.3407E+06    -6.12776E+06     1.17156E+06    -239.094E-03     474.558E-03    -235.464E-03     172.733E-03    -244.357E-03     479.319E-03    -235.282E-03     147.836E-03
             547     6.40199E-03     107.816E-03    -66.7385E+06    -40.3722E+06     10.7226E+06     370.002E+03    -239.955E-03     475.414E-03    -235.459E-03     194.731E-03    -246.856E-03     481.904E-03    -235.251E-03     165.904E-03
             548     7.11350E-03     108.093E-03    -58.5229E+06    -30.3119E+06     21.1859E+06    -490.475E+03    -240.964E-03     476.432E-03    -235.468E-03     217.341E-03    -249.792E-03     484.883E-03    -235.233E-03     184.410E-03
             549     7.82516E-03     108.400E-03    -51.0395E+06    -19.6384E+06     32.4989E+06    -233.100E+03    -241.687E-03     477.171E-03    -235.484E-03     239.685E-03    -252.742E-03     487.880E-03    -235.219E-03     202.674E-03
             550     8.53587E-03     108.737E-03    -43.8647E+06    -8.15191E+06     44.9399E+06     109.226E+03    -242.307E-03     477.801E-03    -235.494E-03     261.149E-03    -255.798E-03     490.977E-03    -235.194E-03     220.261E-03
             551     9.24876E-03     109.100E-03    -36.4470E+06     2.04609E+06     55.0028E+06     62.6725E+03    -242.766E-03     478.250E-03    -235.484E-03     279.193E-03    -258.609E-03     493.811E-03    -235.159E-03     235.042E-03
             552     9.95941E-03     109.485E-03     -29.745E+06     10.9580E+06     62.5610E+06    -72.8007E+03    -242.549E-03     478.010E-03    -235.461E-03     288.775E-03    -260.106E-03     495.318E-03    -235.121E-03     242.670E-03
             553     10.6732E-03     109.873E-03    -23.5232E+06     18.4604E+06     66.6856E+06    -34.8294E+03    -242.278E-03     477.719E-03    -235.441E-03     288.672E-03    -260.518E-03     495.748E-03    -235.100E-03     242.151E-03
             554     11.3812E-03     110.259E-03    -17.8858E+06     24.3671E+06     67.2446E+06    -201.083E+03    -241.589E-03     477.021E-03    -235.432E-03     281.172E-03    -259.390E-03     494.649E-03    -235.105E-03     235.860E-03
             555     12.0956E-03     110.630E-03    -13.1749E+06     28.6097E+06     67.2224E+06    -281.779E+03    -240.102E-03     475.518E-03    -235.416E-03     262.248E-03    -255.882E-03     491.158E-03    -235.102E-03     220.384E-03
             556     12.8049E-03     110.955E-03    -8.21301E+06     34.8157E+06     70.5609E+06    -176.415E+03    -239.483E-03     474.878E-03    -235.396E-03     246.910E-03    -253.304E-03     488.589E-03    -235.081E-03     208.253E-03
             557     13.5238E-03     111.296E-03    -3.68922E+06     37.3498E+06     73.8223E+06     231.256E+03    -238.848E-03     474.236E-03    -235.388E-03     198.587E-03    -247.912E-03     483.205E-03    -235.067E-03     168.890E-03
             558     711.585E-06     108.164E-03    -115.015E+06    -293.982E+06    -112.626E+06    -217.337E+03    -235.958E-03     471.476E-03    -235.519E-03     23.7268E-03    -236.033E-03     470.427E-03    -235.489E-03     20.7439E-03
             559     1.42155E-03     108.207E-03    -112.444E+06    -275.308E+06    -106.354E+06     337.604E+03    -235.604E-03     471.206E-03    -235.602E-03     43.9062E-03    -235.897E-03     470.431E-03    -235.571E-03     38.3440E-03
             560     2.13357E-03     108.282E-03    -108.835E+06    -246.701E+06    -95.6841E+06     538.208E+03    -235.983E-03     471.472E-03    -235.489E-03     65.2065E-03    -236.648E-03     471.152E-03    -235.452E-03     56.8527E-03
             561     2.84523E-03     108.385E-03    -103.505E+06    -222.763E+06    -79.8855E+06     996.502E+03    -236.582E-03     472.062E-03    -235.480E-03     86.5537E-03    -237.764E-03     472.317E-03    -235.406E-03     75.2545E-03
             562     3.55612E-03     108.518E-03    -97.3999E+06    -196.968E+06    -62.1665E+06     1.48593E+06    -237.152E-03     472.652E-03    -235.500E-03     107.891E-03    -239.020E-03     473.655E-03    -235.384E-03     93.4948E-03
             563     4.26780E-03     108.678E-03    -90.2865E+06    -162.813E+06    -43.8644E+06     1.68751E+06    -237.774E-03     473.279E-03    -235.505E-03     129.326E-03    -240.531E-03     475.265E-03    -235.357E-03     111.640E-03
             564     4.97886E-03     108.868E-03    -82.3563E+06    -118.339E+06    -24.8596E+06     1.79782E+06    -238.441E-03     473.934E-03    -235.493E-03     150.987E-03    -242.321E-03     477.174E-03    -235.326E-03     129.804E-03
             565     5.69029E-03     109.086E-03    -73.8829E+06    -70.5719E+06    -4.54679E+06     1.35274E+06    -239.163E-03     474.644E-03    -235.481E-03     172.720E-03    -244.424E-03     479.405E-03    -235.294E-03     147.812E-03
             566     6.40204E-03     109.334E-03    -65.3109E+06    -38.8458E+06     12.3091E+06     1.25001E+06    -239.977E-03     475.456E-03    -235.479E-03     194.732E-03    -246.875E-03     481.948E-03    -235.266E-03     165.913E-03
             567     7.11344E-03     109.611E-03    -57.9509E+06    -28.5663E+06     22.6453E+06     1.26821E+06    -240.776E-03     476.253E-03    -235.477E-03     217.391E-03    -249.599E-03     484.703E-03    -235.239E-03     184.534E-03
             568     7.82452E-03     109.918E-03    -50.9538E+06    -18.6537E+06     33.0832E+06      859.08E+03    -241.493E-03     476.963E-03    -235.470E-03     239.915E-03    -252.555E-03     487.682E-03    -235.204E-03     202.950E-03
             569     8.53733E-03     110.253E-03    -43.5039E+06    -7.71118E+06     44.9054E+06     358.338E+03    -242.334E-03     477.802E-03    -235.468E-03     261.461E-03    -255.845E-03     491.002E-03    -235.169E-03     220.542E-03
             570     9.24777E-03     110.618E-03    -36.5129E+06     2.24722E+06     55.1090E+06     41.8180E+03    -242.791E-03     478.256E-03    -235.465E-03     278.811E-03    -258.620E-03     493.804E-03    -235.140E-03     234.668E-03
             571     9.96107E-03     111.000E-03    -29.6002E+06     11.5646E+06     63.2798E+06     159.253E+03    -242.938E-03     478.403E-03    -235.465E-03     288.352E-03    -260.489E-03     495.706E-03    -235.122E-03     242.178E-03
             572     10.6702E-03     111.392E-03    -23.3986E+06     19.1031E+06     66.9109E+06     14.0215E+03    -242.447E-03     477.910E-03    -235.463E-03     288.967E-03    -260.714E-03     495.968E-03    -235.123E-03     242.384E-03
             573     11.3836E-03     111.778E-03    -18.0010E+06     24.6377E+06     66.8121E+06     111.271E+03    -241.105E-03     476.545E-03    -235.439E-03     281.222E-03    -258.903E-03     494.172E-03    -235.115E-03     236.014E-03
             574     12.0945E-03     112.142E-03    -12.5385E+06     29.5967E+06     68.1999E+06     197.083E+03    -240.159E-03     475.573E-03    -235.414E-03     262.329E-03    -255.951E-03     491.228E-03    -235.098E-03     220.434E-03
             575     12.8066E-03     112.482E-03    -8.56315E+06     34.9939E+06     71.2589E+06    -413.250E+03    -240.205E-03     475.625E-03    -235.420E-03     246.273E-03    -254.023E-03     489.330E-03    -235.102E-03     207.486E-03
             576     13.5125E-03     112.797E-03    -4.46271E+06     36.9805E+06     73.3828E+06    -325.000E+03    -238.741E-03     474.171E-03    -235.429E-03     198.039E-03    -247.799E-03     483.131E-03    -235.109E-03     168.289E-03
             577     710.221E-06     109.679E-03    -115.278E+06    -294.313E+06    -112.338E+06     809.969E+03    -235.539E-03     471.097E-03    -235.558E-03     23.4738E-03    -235.616E-03     470.046E-03    -235.526E-03     20.4627E-03
             578     1.42308E-03     109.725E-03    -111.932E+06    -276.124E+06    -105.431E+06     492.430E+03    -235.764E-03     471.252E-03    -235.487E-03     43.8767E-03    -236.054E-03     470.470E-03    -235.452E-03     38.3166E-03
             579     2.13381E-03     109.798E-03    -108.007E+06    -247.894E+06    -94.5241E+06     1.02301E+06    -236.104E-03     471.574E-03    -235.471E-03     65.0269E-03    -236.764E-03     471.245E-03    -235.427E-03     56.6758E-03
             580     2.84465E-03     109.903E-03    -103.411E+06    -223.852E+06    -78.8646E+06     1.54649E+06    -236.558E-03     472.041E-03    -235.484E-03     86.4566E-03    -237.737E-03     472.288E-03    -235.403E-03     75.1730E-03
             581     3.55627E-03     110.034E-03    -96.7127E+06    -197.817E+06    -61.1506E+06     1.73430E+06    -237.172E-03     472.673E-03    -235.501E-03     107.913E-03    -239.036E-03     473.669E-03    -235.380E-03     93.5286E-03
             582     4.26723E-03     110.196E-03    -89.0850E+06    -163.276E+06    -42.5029E+06     1.93940E+06    -237.826E-03     473.338E-03    -235.512E-03     129.496E-03    -240.580E-03     475.319E-03    -235.358E-03     111.811E-03
             583     4.97894E-03     110.385E-03    -80.8273E+06    -118.521E+06    -23.3204E+06     1.94601E+06    -238.537E-03     474.044E-03    -235.507E-03     151.151E-03    -242.416E-03     477.283E-03    -235.335E-03     129.953E-03
             584     5.69054E-03     110.604E-03    -72.2323E+06    -70.0692E+06    -2.66710E+06     2.01496E+06    -239.226E-03     474.729E-03    -235.503E-03     172.810E-03    -244.485E-03     479.491E-03    -235.310E-03     147.898E-03
             585     6.40161E-03     110.851E-03    -64.0792E+06    -39.1961E+06     13.3459E+06     2.35839E+06    -239.882E-03     475.376E-03    -235.494E-03     194.876E-03    -246.782E-03     481.870E-03    -235.277E-03     166.073E-03
             586     7.11325E-03     111.128E-03    -55.6857E+06    -28.4704E+06     23.9475E+06     3.25599E+06    -240.528E-03     476.000E-03    -235.471E-03     217.376E-03    -249.336E-03     484.439E-03    -235.230E-03     184.591E-03
             587     7.82600E-03     111.434E-03    -47.9067E+06    -16.2658E+06     35.9129E+06     3.40410E+06    -241.450E-03     476.903E-03    -235.453E-03     239.894E-03    -252.497E-03     487.618E-03    -235.180E-03     202.988E-03
             588     8.53647E-03     111.771E-03    -41.3784E+06    -5.40271E+06     47.7222E+06     2.50414E+06    -242.469E-03     477.927E-03    -235.458E-03     261.131E-03    -255.962E-03     491.116E-03    -235.152E-03     220.241E-03
             589     9.24912E-03     112.135E-03    -34.9141E+06     4.06854E+06     57.4518E+06     1.77654E+06    -243.123E-03     478.601E-03    -235.478E-03     278.294E-03    -258.940E-03     494.142E-03    -235.146E-03     234.116E-03
             590     9.95890E-03     112.518E-03    -28.8290E+06     12.8847E+06     64.3814E+06     1.20608E+06    -243.025E-03     478.515E-03    -235.490E-03     288.620E-03    -260.596E-03     495.842E-03    -235.145E-03     242.420E-03
             591     10.6716E-03     112.912E-03    -22.9990E+06     20.0551E+06     67.7409E+06     1.00522E+06    -242.006E-03     477.478E-03    -235.472E-03     289.188E-03    -260.262E-03     495.527E-03    -235.129E-03     242.741E-03
             592     11.3829E-03     113.290E-03    -17.4404E+06     25.6946E+06     68.3376E+06     598.367E+03    -241.305E-03     476.745E-03    -235.440E-03     281.290E-03    -259.112E-03     494.383E-03    -235.111E-03     236.047E-03
             593     12.0942E-03     113.665E-03    -12.5137E+06     30.1355E+06     69.1238E+06     30.2620E+03    -240.297E-03     475.721E-03    -235.425E-03     262.232E-03    -256.094E-03     491.381E-03    -235.105E-03     220.289E-03
             594     12.8059E-03     113.991E-03    -7.78112E+06     36.1466E+06     72.8018E+06     298.622E+03    -239.972E-03     475.393E-03    -235.422E-03     247.994E-03    -253.820E-03     489.131E-03    -235.099E-03     209.288E-03
             595     13.5195E-03     114.333E-03    -4.04737E+06     37.6864E+06     75.1952E+06     233.583E+03    -238.945E-03     474.363E-03    -235.418E-03     199.851E-03    -248.064E-03     483.383E-03    -235.090E-03     170.078E-03
             596     712.560E-06     111.196E-03    -114.401E+06    -295.710E+06    -112.716E+06     421.592E+03    -235.546E-03     470.959E-03    -235.413E-03     23.4063E-03    -235.615E-03     469.900E-03    -235.382E-03     20.4204E-03
             597     1.42190E-03     111.242E-03    -111.619E+06    -277.200E+06    -105.668E+06     1.10883E+06    -235.950E-03     471.418E-03    -235.469E-03     43.5229E-03    -236.236E-03     470.631E-03    -235.433E-03     37.9622E-03
             598     2.13326E-03     111.316E-03    -108.011E+06    -249.731E+06    -94.0296E+06     1.38094E+06    -236.122E-03     471.631E-03    -235.508E-03     64.8848E-03    -236.780E-03     471.291E-03    -235.460E-03     56.5329E-03
             599     2.84512E-03     111.419E-03    -102.352E+06    -224.747E+06    -77.8309E+06     1.66254E+06    -236.503E-03     472.012E-03    -235.509E-03     86.4553E-03    -237.676E-03     472.249E-03    -235.424E-03     75.1898E-03
             600     3.55619E-03     111.552E-03    -95.8856E+06    -198.622E+06    -60.0573E+06     1.93843E+06    -237.093E-03     472.601E-03    -235.508E-03     107.936E-03    -238.952E-03     473.589E-03    -235.382E-03     93.5681E-03
             601     4.26792E-03     111.712E-03    -88.5004E+06    -163.852E+06    -41.6971E+06     1.97563E+06    -237.849E-03     473.359E-03    -235.510E-03     129.524E-03    -240.601E-03     475.336E-03    -235.353E-03     111.842E-03
             602     4.97899E-03     111.903E-03    -80.6331E+06    -118.519E+06    -22.8336E+06     1.91245E+06    -238.586E-03     474.095E-03    -235.509E-03     151.226E-03    -242.467E-03     477.335E-03    -235.334E-03     130.018E-03
             603     5.68995E-03     112.121E-03    -72.5451E+06    -71.4958E+06    -3.02251E+06     2.43814E+06    -239.167E-03     474.668E-03    -235.502E-03     172.951E-03    -244.427E-03     479.427E-03    -235.308E-03     148.054E-03
             604     6.40203E-03     112.369E-03    -63.6715E+06    -39.7681E+06     13.7524E+06     3.00204E+06    -239.772E-03     475.255E-03    -235.483E-03     194.950E-03    -246.671E-03     481.747E-03    -235.264E-03     166.171E-03
             605     7.11388E-03     112.645E-03    -55.4292E+06    -29.9757E+06     23.8844E+06     3.14488E+06    -240.659E-03     476.122E-03    -235.463E-03     217.099E-03    -249.462E-03     484.553E-03    -235.220E-03     184.278E-03
             606     7.82478E-03     112.951E-03    -48.1483E+06    -18.2909E+06     34.6892E+06     4.12301E+06    -241.660E-03     477.121E-03    -235.461E-03     239.584E-03    -252.700E-03     487.824E-03    -235.191E-03     202.645E-03
             607     8.53729E-03     113.289E-03    -41.1023E+06    -2.50041E+06     48.2069E+06     4.61538E+06    -242.527E-03     478.009E-03    -235.481E-03     260.712E-03    -256.003E-03     491.190E-03    -235.177E-03     219.859E-03
             608     9.24752E-03     113.652E-03    -34.6209E+06     7.30818E+06     58.6284E+06     3.48187E+06    -243.032E-03     478.534E-03    -235.502E-03     278.418E-03    -258.859E-03     494.094E-03    -235.169E-03     234.275E-03
             609     9.95978E-03     114.038E-03    -28.1316E+06     14.3424E+06     66.0243E+06     2.58485E+06    -242.669E-03     478.168E-03    -235.500E-03     288.661E-03    -260.226E-03     495.486E-03    -235.150E-03     242.573E-03
             610     10.6716E-03     114.424E-03    -21.9576E+06     21.6103E+06     70.0487E+06     2.21984E+06    -242.074E-03     477.547E-03    -235.472E-03     289.204E-03    -260.318E-03     495.586E-03    -235.122E-03     242.779E-03
             611     11.3830E-03     114.814E-03    -16.5732E+06     27.5864E+06     70.6876E+06     1.78766E+06    -241.439E-03     476.884E-03    -235.445E-03     281.630E-03    -259.255E-03     494.534E-03    -235.107E-03     236.382E-03
             612     12.0946E-03     115.178E-03    -12.2295E+06     31.9544E+06     71.1455E+06     1.10706E+06    -240.326E-03     475.757E-03    -235.431E-03     262.341E-03    -256.135E-03     491.430E-03    -235.104E-03     220.416E-03
             613     12.8058E-03     115.515E-03    -8.44905E+06     36.6985E+06     74.0345E+06     638.817E+03    -239.775E-03     475.203E-03    -235.428E-03     246.642E-03    -253.599E-03     488.913E-03    -235.099E-03     207.970E-03
             614     13.5184E-03     115.838E-03    -3.51117E+06     38.3838E+06     77.8093E+06     779.523E+03    -238.303E-03     473.725E-03    -235.422E-03     196.635E-03    -247.310E-03     482.630E-03    -235.083E-03     167.081E-03
             615     710.036E-06     112.714E-03    -112.087E+06    -297.339E+06    -110.831E+06     805.260E+03    -235.710E-03     471.281E-03    -235.571E-03     23.3100E-03    -235.768E-03     470.208E-03    -235.531E-03     20.3326E-03
             616     1.42254E-03     112.759E-03    -110.734E+06    -278.595E+06    -105.224E+06     931.520E+03    -235.687E-03     471.226E-03    -235.538E-03     43.7926E-03    -235.970E-03     470.431E-03    -235.500E-03     38.2123E-03
             617     2.13381E-03     112.833E-03    -106.798E+06    -251.004E+06    -94.0140E+06     1.28543E+06    -236.147E-03     471.639E-03    -235.492E-03     65.2179E-03    -236.797E-03     471.292E-03    -235.444E-03     56.8680E-03
             618     2.84445E-03     112.936E-03    -101.824E+06    -226.676E+06    -77.9283E+06     1.85564E+06    -236.627E-03     472.140E-03    -235.512E-03     86.4649E-03    -237.794E-03     472.367E-03    -235.426E-03     75.1999E-03
             619     3.55625E-03     113.068E-03    -95.3858E+06    -199.752E+06    -59.9165E+06     2.53140E+06    -237.158E-03     472.689E-03    -235.531E-03     107.847E-03    -239.012E-03     473.669E-03    -235.402E-03     93.4806E-03
             620     4.26730E-03     113.230E-03    -88.4531E+06    -164.593E+06    -41.5200E+06     2.91731E+06    -237.831E-03     473.365E-03    -235.534E-03     129.421E-03    -240.579E-03     475.335E-03    -235.375E-03     111.755E-03
             621     4.97876E-03     113.420E-03    -81.4678E+06    -119.393E+06    -22.9231E+06     3.50227E+06    -238.426E-03     473.945E-03    -235.519E-03     151.093E-03    -242.305E-03     477.177E-03    -235.342E-03     129.933E-03
             622     5.69082E-03     113.639E-03    -74.2307E+06    -71.6251E+06    -2.97454E+06     3.55992E+06    -239.018E-03     474.512E-03    -235.494E-03     172.804E-03    -244.282E-03     479.267E-03    -235.297E-03     147.946E-03
             623     6.40200E-03     113.885E-03    -66.8817E+06    -40.1873E+06     12.6024E+06     3.00056E+06    -239.900E-03     475.374E-03    -235.474E-03     194.729E-03    -246.808E-03     481.866E-03    -235.256E-03     165.933E-03
             624     7.11344E-03     114.162E-03    -59.8179E+06    -31.1379E+06     22.3659E+06     2.91096E+06    -240.949E-03     476.430E-03    -235.481E-03     216.909E-03    -249.775E-03     484.868E-03    -235.238E-03     184.022E-03
             625     7.82513E-03     114.469E-03    -52.7728E+06    -20.9521E+06     32.3654E+06     2.97469E+06    -241.844E-03     477.347E-03    -235.502E-03     239.437E-03    -252.902E-03     488.049E-03    -235.234E-03     202.438E-03
             626     8.53570E-03     114.806E-03    -45.0223E+06    -2.21439E+06     44.4816E+06     2.87089E+06    -242.358E-03     477.868E-03    -235.510E-03     260.899E-03    -255.857E-03     491.071E-03    -235.220E-03     220.030E-03
             627     9.24812E-03     115.171E-03    -36.9253E+06     9.24993E+06     55.6852E+06     2.24880E+06    -242.578E-03     478.080E-03    -235.502E-03     278.626E-03    -258.409E-03     493.651E-03    -235.183E-03     234.550E-03
             628     9.96003E-03     115.552E-03    -29.4710E+06     13.8772E+06     63.9319E+06     1.79629E+06    -242.752E-03     478.242E-03    -235.491E-03     288.523E-03    -260.307E-03     495.557E-03    -235.149E-03     242.395E-03
             629     10.6712E-03     115.945E-03    -22.9246E+06     22.0602E+06     68.8495E+06     1.92192E+06    -242.297E-03     477.778E-03    -235.480E-03     288.828E-03    -260.552E-03     495.830E-03    -235.135E-03     242.307E-03
             630     11.3831E-03     116.328E-03    -17.0183E+06     28.3226E+06     69.8586E+06     1.86759E+06    -241.104E-03     476.559E-03    -235.455E-03     281.022E-03    -258.883E-03     494.176E-03    -235.122E-03     235.861E-03
             631     12.0946E-03     116.699E-03    -11.5546E+06     32.5134E+06     71.7409E+06     2.35549E+06    -240.147E-03     475.580E-03    -235.432E-03     262.306E-03    -255.916E-03     491.215E-03    -235.104E-03     220.511E-03
             632     12.8062E-03     117.029E-03    -7.05279E+06     38.2601E+06     76.5604E+06     2.68666E+06    -239.857E-03     475.286E-03    -235.428E-03     247.868E-03    -253.729E-03     489.045E-03    -235.091E-03     209.193E-03
             633     13.5140E-03     117.362E-03    -4.22366E+06     40.9219E+06     78.4125E+06     1.65514E+06    -238.373E-03     473.780E-03    -235.407E-03     199.729E-03    -247.507E-03     482.817E-03    -235.068E-03     170.011E-03
             634     711.489E-06     114.231E-03    -113.433E+06    -299.298E+06    -111.433E+06     9.67573E+03    -235.202E-03     470.924E-03    -235.721E-03     23.8993E-03    -235.265E-03     469.846E-03    -235.680E-03     20.8849E-03
             635     1.42239E-03     114.275E-03    -110.046E+06    -279.655E+06    -104.749E+06     776.504E+03    -235.839E-03     471.262E-03    -235.423E-03     44.1105E-03    -236.118E-03     470.461E-03    -235.382E-03     38.5361E-03
             636     2.13358E-03     114.351E-03    -107.248E+06    -252.857E+06    -94.4212E+06     1.52506E+06    -236.216E-03     471.674E-03    -235.458E-03     65.1017E-03    -236.865E-03     471.318E-03    -235.408E-03     56.7623E-03
             637     2.84525E-03     114.453E-03    -102.185E+06    -228.605E+06    -78.5620E+06     2.09111E+06    -236.727E-03     472.236E-03    -235.508E-03     86.4266E-03    -237.893E-03     472.455E-03    -235.421E-03     75.1548E-03
             638     3.55586E-03     114.586E-03    -95.9283E+06    -202.289E+06    -61.1169E+06     2.86228E+06    -237.310E-03     472.860E-03    -235.550E-03     107.964E-03    -239.165E-03     473.833E-03    -235.423E-03     93.5836E-03
             639     4.26740E-03     114.746E-03    -88.9262E+06    -166.953E+06    -42.3632E+06     4.14793E+06    -237.833E-03     473.397E-03    -235.564E-03     129.512E-03    -240.581E-03     475.360E-03    -235.405E-03     111.856E-03
             640     4.97890E-03     114.937E-03    -80.9975E+06    -121.667E+06    -22.7135E+06     5.16297E+06    -238.350E-03     473.894E-03    -235.544E-03     150.890E-03    -242.220E-03     477.110E-03    -235.363E-03     129.765E-03
             641     5.69007E-03     115.155E-03    -72.6370E+06    -72.6483E+06    -2.17664E+06     6.33375E+06    -239.113E-03     474.630E-03    -235.518E-03     172.523E-03    -244.365E-03     479.373E-03    -235.318E-03     147.689E-03
             642     6.40210E-03     115.403E-03    -64.9491E+06    -39.1036E+06     14.4858E+06     7.01101E+06    -240.039E-03     475.551E-03    -235.513E-03     194.433E-03    -246.931E-03     482.033E-03    -235.289E-03     165.690E-03
             643     7.11314E-03     115.680E-03    -57.8011E+06    -28.9844E+06     25.0260E+06     6.21207E+06    -240.955E-03     476.481E-03    -235.526E-03     216.920E-03    -249.772E-03     484.917E-03    -235.275E-03     184.100E-03
             644     7.82416E-03     115.987E-03    -50.1526E+06    -17.9023E+06     35.8701E+06     4.34676E+06    -241.709E-03     477.245E-03    -235.536E-03     239.808E-03    -252.772E-03     487.963E-03    -235.258E-03     202.850E-03
             645     8.53618E-03     116.324E-03    -41.9713E+06    -1.37147E+06     48.3066E+06     2.76624E+06    -242.264E-03     477.795E-03    -235.531E-03     261.233E-03    -255.764E-03     491.002E-03    -235.227E-03     220.383E-03
             646     9.24804E-03     116.686E-03    -34.3752E+06     8.97696E+06     58.4144E+06     3.06628E+06    -242.812E-03     478.334E-03    -235.522E-03     278.419E-03    -258.625E-03     493.887E-03    -235.193E-03     234.320E-03
             647     9.95953E-03     117.072E-03    -28.2500E+06     15.4006E+06     65.2168E+06     3.32982E+06    -242.951E-03     478.471E-03    -235.520E-03     288.377E-03    -260.506E-03     495.791E-03    -235.175E-03     242.225E-03
             648     10.6709E-03     117.462E-03    -22.5610E+06     23.2136E+06     68.7829E+06     2.45458E+06    -242.126E-03     477.630E-03    -235.505E-03     288.785E-03    -260.372E-03     495.680E-03    -235.162E-03     242.320E-03
             649     11.3819E-03     117.846E-03    -17.4043E+06     28.0678E+06     69.2553E+06     2.30337E+06    -241.118E-03     476.590E-03    -235.473E-03     281.270E-03    -258.927E-03     494.236E-03    -235.142E-03     236.079E-03
             650     12.0946E-03     118.213E-03    -13.4300E+06     30.8524E+06     69.9764E+06     2.92938E+06    -239.816E-03     475.253E-03    -235.437E-03     262.556E-03    -255.615E-03     490.911E-03    -235.113E-03     220.762E-03
             651     12.8058E-03     118.551E-03    -9.30809E+06     37.7876E+06     73.2634E+06     2.80902E+06    -238.736E-03     474.123E-03    -235.387E-03     246.636E-03    -252.542E-03     487.817E-03    -235.062E-03     208.192E-03
             652     13.5247E-03     118.873E-03    -4.35837E+06     45.0325E+06     76.9751E+06     1.74391E+06    -238.502E-03     473.850E-03    -235.349E-03     198.308E-03    -247.587E-03     482.857E-03    -235.023E-03     168.678E-03
             653     712.095E-06     115.747E-03    -114.373E+06    -299.955E+06    -112.181E+06     279.440E+03    -235.430E-03     470.829E-03    -235.399E-03     23.6463E-03    -235.495E-03     469.748E-03    -235.359E-03     20.6502E-03
             654     1.42261E-03     115.793E-03    -112.575E+06    -281.917E+06    -106.794E+06     835.814E+03    -235.947E-03     471.359E-03    -235.411E-03     43.6108E-03    -236.229E-03     470.549E-03    -235.373E-03     38.0644E-03
             655     2.13368E-03     115.867E-03    -108.662E+06    -254.610E+06    -95.4988E+06     1.27270E+06    -236.240E-03     471.723E-03    -235.482E-03     65.0905E-03    -236.892E-03     471.362E-03    -235.433E-03     56.7493E-03
             656     2.84447E-03     115.971E-03    -103.469E+06    -230.810E+06    -79.7683E+06     1.97986E+06    -236.775E-03     472.311E-03    -235.535E-03     86.4156E-03    -237.944E-03     472.524E-03    -235.450E-03     75.1276E-03
             657     3.55620E-03     116.103E-03    -97.1137E+06    -205.042E+06    -62.2166E+06     2.80726E+06    -237.331E-03     472.913E-03    -235.583E-03     107.697E-03    -239.184E-03     473.874E-03    -235.456E-03     93.3122E-03
             658     4.26715E-03     116.264E-03    -89.4957E+06    -170.458E+06    -43.7286E+06     3.67762E+06    -237.802E-03     473.395E-03    -235.593E-03     129.233E-03    -240.542E-03     475.339E-03    -235.435E-03     111.576E-03
             659     4.97851E-03     116.454E-03    -81.1914E+06    -125.536E+06    -24.4302E+06     5.02829E+06    -238.483E-03     474.057E-03    -235.574E-03     150.866E-03    -242.346E-03     477.257E-03    -235.396E-03     129.722E-03
             660     5.69040E-03     116.673E-03    -72.6909E+06    -77.8358E+06    -4.25795E+06     6.44684E+06    -239.311E-03     474.873E-03    -235.562E-03     172.655E-03    -244.557E-03     479.597E-03    -235.365E-03     147.794E-03
             661     6.40095E-03     116.921E-03    -63.7708E+06    -42.3252E+06     13.0610E+06     8.69372E+06    -239.991E-03     475.548E-03    -235.557E-03     194.571E-03    -246.873E-03     482.016E-03    -235.338E-03     165.856E-03
             662     7.11301E-03     117.197E-03    -55.1913E+06    -25.3114E+06     25.9193E+06     8.98613E+06    -240.719E-03     476.266E-03    -235.547E-03     217.161E-03    -249.533E-03     484.720E-03    -235.301E-03     184.406E-03
             663     7.82487E-03     117.505E-03    -47.9389E+06    -11.2926E+06     38.0183E+06     6.15888E+06    -241.468E-03     477.002E-03    -235.534E-03     239.669E-03    -252.522E-03     487.736E-03    -235.258E-03     202.778E-03
             664     8.53675E-03     117.839E-03    -41.9018E+06    -196.208E+03     49.9523E+06     4.47403E+06    -242.428E-03     477.964E-03    -235.536E-03     260.899E-03    -255.919E-03     491.161E-03    -235.226E-03     220.048E-03
             665     9.24762E-03     118.206E-03    -36.2127E+06     8.45164E+06     60.2004E+06     3.91957E+06    -243.108E-03     478.662E-03    -235.554E-03     278.381E-03    -258.947E-03     494.228E-03    -235.213E-03     234.217E-03
             666     9.95876E-03     118.587E-03    -29.5076E+06     16.9379E+06     67.9912E+06     3.30469E+06    -242.793E-03     478.350E-03    -235.556E-03     288.778E-03    -260.384E-03     495.699E-03    -235.198E-03     242.645E-03
             667     10.6707E-03     118.981E-03    -23.1644E+06     23.0259E+06     71.7786E+06     3.65520E+06    -241.902E-03     477.428E-03    -235.526E-03     289.118E-03    -260.159E-03     495.476E-03    -235.167E-03     242.739E-03
             668     11.3837E-03     119.361E-03    -18.7106E+06     27.7003E+06     71.5388E+06     4.79312E+06    -241.043E-03     476.520E-03    -235.477E-03     281.724E-03    -258.869E-03     494.170E-03    -235.132E-03     236.600E-03
             669     12.0934E-03     119.735E-03    -14.6324E+06     32.5969E+06     71.2012E+06     4.61131E+06    -239.661E-03     475.085E-03    -235.424E-03     262.665E-03    -255.476E-03     490.757E-03    -235.094E-03     220.936E-03
             670     12.8076E-03     120.059E-03    -9.86822E+06     41.6284E+06     74.2681E+06     2.42934E+06    -239.697E-03     475.088E-03    -235.391E-03     246.703E-03    -253.518E-03     488.806E-03    -235.066E-03     208.114E-03
             671     13.5120E-03     120.394E-03    -4.28813E+06     47.7195E+06     78.4521E+06     343.400E+03    -238.514E-03     473.895E-03    -235.380E-03     198.384E-03    -247.608E-03     482.915E-03    -235.051E-03     168.658E-03
             672     709.950E-06     117.264E-03    -115.749E+06    -301.354E+06    -114.936E+06     1.07426E+06    -235.956E-03     471.352E-03    -235.396E-03     23.8291E-03    -236.023E-03     470.271E-03    -235.366E-03     20.8269E-03
             673     1.42216E-03     117.310E-03    -114.456E+06    -282.997E+06    -108.537E+06     675.089E+03    -235.838E-03     471.437E-03    -235.598E-03     43.7364E-03    -236.125E-03     470.627E-03    -235.565E-03     38.1806E-03
             674     2.13352E-03     117.384E-03    -110.762E+06    -256.792E+06    -97.7402E+06     1.14726E+06    -236.281E-03     471.867E-03    -235.586E-03     64.7855E-03    -236.935E-03     471.500E-03    -235.542E-03     56.4457E-03
             675     2.84492E-03     117.488E-03    -105.978E+06    -232.941E+06    -81.9743E+06     1.89129E+06    -236.694E-03     472.306E-03    -235.613E-03     86.2663E-03    -237.867E-03     472.514E-03    -235.531E-03     74.9831E-03
             676     3.55542E-03     117.621E-03    -99.4505E+06    -207.310E+06    -64.3087E+06     2.43579E+06    -237.198E-03     472.821E-03    -235.624E-03     107.789E-03    -239.057E-03     473.778E-03    -235.500E-03     93.4097E-03
             677     4.26701E-03     117.781E-03    -92.2729E+06    -173.372E+06    -46.3975E+06     3.14279E+06    -237.851E-03     473.468E-03    -235.616E-03     129.299E-03    -240.596E-03     475.404E-03    -235.463E-03     111.639E-03
             678     4.97872E-03     117.971E-03    -85.0534E+06    -129.664E+06    -28.3331E+06     4.01904E+06    -238.647E-03     474.252E-03    -235.604E-03     151.088E-03    -242.524E-03     477.448E-03    -235.435E-03     129.901E-03
             679     5.68923E-03     118.191E-03    -77.2713E+06     -82.549E+06    -8.39505E+06     5.46453E+06    -239.258E-03     474.854E-03    -235.596E-03     172.714E-03    -244.510E-03     479.563E-03    -235.406E-03     147.860E-03
             680     6.40173E-03     118.437E-03    -69.3903E+06    -48.3213E+06     7.64025E+06     6.69062E+06    -239.881E-03     475.455E-03    -235.574E-03     194.756E-03    -246.784E-03     481.918E-03    -235.365E-03     166.010E-03
             681     7.11277E-03     118.715E-03    -61.6736E+06    -25.1301E+06     20.6908E+06     6.97999E+06    -240.665E-03     476.213E-03    -235.549E-03     217.038E-03    -249.504E-03     484.685E-03    -235.320E-03     184.235E-03
             682     7.82458E-03     119.020E-03    -54.4639E+06    -7.44653E+06     33.6321E+06     6.35256E+06    -241.580E-03     477.123E-03    -235.543E-03     239.222E-03    -252.659E-03     487.884E-03    -235.285E-03     202.295E-03
             683     8.53563E-03     119.359E-03    -47.9793E+06     1.42166E+06     45.5341E+06     4.91258E+06    -242.423E-03     477.980E-03    -235.557E-03     260.669E-03    -255.938E-03     491.198E-03    -235.262E-03     219.799E-03
             684     9.24751E-03     119.722E-03    -40.5686E+06     11.3955E+06     57.7339E+06     2.77127E+06    -242.724E-03     478.289E-03    -235.566E-03     278.435E-03    -258.575E-03     493.870E-03    -235.235E-03     234.330E-03
             685     9.95942E-03     120.107E-03    -33.5960E+06     15.5863E+06     65.9303E+06     2.03088E+06    -242.551E-03     478.103E-03    -235.553E-03     288.677E-03    -260.139E-03     495.437E-03    -235.197E-03     242.580E-03
             686     10.6715E-03     120.495E-03    -27.9861E+06     19.0578E+06     69.5946E+06     3.72855E+06    -241.885E-03     477.405E-03    -235.519E-03     289.121E-03    -260.165E-03     495.451E-03    -235.158E-03     242.719E-03
             687     11.3816E-03     120.881E-03    -22.1793E+06     27.4500E+06     70.6157E+06     4.02954E+06    -240.777E-03     476.242E-03    -235.465E-03     281.283E-03    -258.606E-03     493.884E-03    -235.119E-03     236.180E-03
             688     12.0968E-03     121.247E-03    -15.3565E+06     35.2127E+06     72.5101E+06     2.48817E+06    -239.805E-03     475.224E-03    -235.419E-03     261.704E-03    -255.577E-03     490.856E-03    -235.085E-03     219.960E-03
             689     12.8056E-03     121.583E-03    -9.04656E+06     45.6821E+06     78.1779E+06     1.39734E+06    -239.620E-03     475.018E-03    -235.397E-03     247.582E-03    -253.465E-03     488.766E-03    -235.060E-03     208.989E-03
             690     13.5223E-03     121.914E-03    -4.83913E+06     49.8530E+06     82.0157E+06     246.497E+03    -238.630E-03     474.014E-03    -235.384E-03     199.478E-03    -247.778E-03     483.084E-03    -235.039E-03     169.746E-03
             691     712.087E-06     118.781E-03    -120.961E+06    -301.807E+06    -119.065E+06    -820.726E+03    -235.617E-03     471.496E-03    -235.879E-03     23.7001E-03    -235.702E-03     470.425E-03    -235.861E-03     20.6867E-03
             692     1.42214E-03     118.827E-03    -117.539E+06    -284.390E+06    -111.828E+06     404.310E+03    -236.063E-03     471.767E-03    -235.704E-03     43.9756E-03    -236.362E-03     470.963E-03    -235.680E-03     38.3930E-03
             693     2.13278E-03     118.902E-03    -114.419E+06    -258.806E+06    -100.385E+06     1.32160E+06    -236.254E-03     471.955E-03    -235.701E-03     65.0330E-03    -236.921E-03     471.589E-03    -235.662E-03     56.6821E-03
             694     2.84376E-03     119.005E-03    -109.101E+06    -234.906E+06    -84.7912E+06     1.81132E+06    -236.547E-03     472.222E-03    -235.675E-03     86.4164E-03    -237.729E-03     472.429E-03    -235.600E-03     75.1459E-03
             695     3.55608E-03     119.138E-03    -102.853E+06    -209.387E+06    -67.4798E+06     2.52974E+06    -237.122E-03     472.769E-03    -235.647E-03     107.825E-03    -238.989E-03     473.723E-03    -235.532E-03     93.4530E-03
             696     4.26728E-03     119.299E-03    -96.2034E+06    -176.085E+06    -49.8058E+06     3.33622E+06    -237.959E-03     473.597E-03    -235.638E-03     129.308E-03    -240.716E-03     475.532E-03    -235.492E-03     111.633E-03
             697     4.97785E-03     119.489E-03    -88.9596E+06    -132.630E+06    -31.6672E+06     4.42944E+06    -238.636E-03     474.267E-03    -235.631E-03     151.130E-03    -242.521E-03     477.458E-03    -235.468E-03     129.957E-03
             698     5.69009E-03     119.708E-03    -81.3878E+06    -86.7097E+06    -12.3771E+06     5.94197E+06    -239.191E-03     474.805E-03    -235.614E-03     172.703E-03    -244.453E-03     479.506E-03    -235.432E-03     147.857E-03
             699     6.40078E-03     119.955E-03    -73.2172E+06    -50.4374E+06     4.64011E+06     6.43354E+06    -239.946E-03     475.538E-03    -235.592E-03     194.622E-03    -246.856E-03     481.995E-03    -235.389E-03     165.867E-03
             700     7.11286E-03     120.232E-03    -64.8339E+06    -25.6060E+06     19.0380E+06     6.02314E+06    -240.809E-03     476.390E-03    -235.581E-03     216.870E-03    -249.657E-03     484.862E-03    -235.355E-03     184.040E-03
             701     7.82389E-03     120.539E-03    -56.0453E+06    -8.73013E+06     32.4724E+06     6.01885E+06    -241.650E-03     477.233E-03    -235.583E-03     239.494E-03    -252.742E-03     488.001E-03    -235.327E-03     202.546E-03
             702     8.53558E-03     120.876E-03    -46.6132E+06     5.40745E+06     46.0053E+06     5.08531E+06    -242.241E-03     477.823E-03    -235.582E-03     261.065E-03    -255.764E-03     491.066E-03    -235.292E-03     220.233E-03
             703     9.24720E-03     121.239E-03    -39.1677E+06     13.8104E+06     57.6897E+06     4.74045E+06    -242.595E-03     478.167E-03    -235.572E-03     278.474E-03    -258.441E-03     493.756E-03    -235.247E-03     234.418E-03
             704     9.95934E-03     121.623E-03    -33.9170E+06     15.0238E+06     64.9990E+06     5.85626E+06    -242.561E-03     478.119E-03    -235.557E-03     288.332E-03    -260.135E-03     495.436E-03    -235.205E-03     242.285E-03
             705     10.6703E-03     122.013E-03    -28.1814E+06     20.6320E+06     68.7441E+06     4.65832E+06    -241.759E-03     477.280E-03    -235.521E-03     288.623E-03    -260.019E-03     495.314E-03    -235.166E-03     242.251E-03
             706     11.3844E-03     122.397E-03    -20.9584E+06     30.3663E+06     70.4505E+06     1.99851E+06    -240.975E-03     476.447E-03    -235.472E-03     280.895E-03    -258.787E-03     494.088E-03    -235.133E-03     235.726E-03
             707     12.0924E-03     122.766E-03    -14.6532E+06     37.2730E+06     72.8969E+06     280.567E+03    -239.880E-03     475.321E-03    -235.441E-03     261.851E-03    -255.702E-03     491.012E-03    -235.110E-03     219.951E-03
             708     12.8065E-03     123.098E-03    -9.26393E+06     45.5503E+06     78.2008E+06     12.3655E+03    -239.228E-03     474.649E-03    -235.421E-03     246.152E-03    -253.055E-03     488.378E-03    -235.083E-03     207.559E-03
             709     13.5169E-03     123.423E-03    -4.00619E+06     50.8868E+06     82.6619E+06     692.937E+03    -238.374E-03     473.776E-03    -235.402E-03     197.460E-03    -247.418E-03     482.746E-03    -235.056E-03     167.911E-03
             710     710.134E-06     120.299E-03    -123.441E+06    -301.117E+06    -120.067E+06     491.696E+03    -235.849E-03     471.615E-03    -235.767E-03     24.0780E-03    -235.946E-03     470.554E-03    -235.751E-03     21.0826E-03
             711     1.42171E-03     120.345E-03    -120.955E+06    -286.451E+06    -113.860E+06     632.226E+03    -235.973E-03     471.710E-03    -235.737E-03     44.1418E-03    -236.283E-03     470.904E-03    -235.715E-03     38.5585E-03
             712     2.13330E-03     120.420E-03    -116.965E+06    -260.469E+06    -103.051E+06     1.26422E+06    -236.221E-03     471.915E-03    -235.694E-03     65.2022E-03    -236.896E-03     471.549E-03    -235.662E-03     56.8444E-03
             713     2.84484E-03     120.522E-03    -111.908E+06    -236.813E+06    -87.3667E+06     1.99976E+06    -236.660E-03     472.337E-03    -235.677E-03     86.3998E-03    -237.849E-03     472.542E-03    -235.608E-03     75.1278E-03
             714     3.55526E-03     120.655E-03    -105.598E+06    -211.883E+06    -70.2464E+06     2.65565E+06    -237.288E-03     472.965E-03    -235.677E-03     107.864E-03    -239.162E-03     473.916E-03    -235.568E-03     93.4770E-03
             715     4.26649E-03     120.816E-03    -98.2602E+06    -178.870E+06    -52.3474E+06     3.54975E+06    -237.945E-03     473.622E-03    -235.676E-03     129.432E-03    -240.708E-03     475.552E-03    -235.536E-03     111.754E-03
             716     4.97843E-03     121.006E-03    -90.2818E+06    -136.528E+06    -34.1011E+06     4.76908E+06    -238.566E-03     474.224E-03    -235.659E-03     150.967E-03    -242.443E-03     477.395E-03    -235.500E-03     129.820E-03
             717     5.68918E-03     121.225E-03    -81.4833E+06    -90.7495E+06    -14.1614E+06     5.90861E+06    -239.277E-03     474.917E-03    -235.640E-03     172.614E-03    -244.532E-03     479.601E-03    -235.461E-03     147.752E-03
             718     6.40127E-03     121.473E-03    -72.2822E+06    -51.2001E+06     4.24806E+06     6.25554E+06    -240.044E-03     475.669E-03    -235.626E-03     194.560E-03    -246.944E-03     482.119E-03    -235.425E-03     165.793E-03
             719     7.11205E-03     121.749E-03    -63.3350E+06    -26.3139E+06     19.1879E+06     6.17435E+06    -240.759E-03     476.373E-03    -235.614E-03     217.096E-03    -249.606E-03     484.846E-03    -235.388E-03     184.270E-03
             720     7.82392E-03     122.057E-03    -54.8732E+06    -7.53552E+06     32.6472E+06     5.03133E+06    -241.489E-03     477.087E-03    -235.598E-03     239.744E-03    -252.583E-03     487.864E-03    -235.344E-03     202.801E-03
             721     8.53573E-03     122.392E-03    -47.7824E+06     5.50933E+06     45.3142E+06     4.57706E+06    -242.207E-03     477.794E-03    -235.587E-03     260.862E-03    -255.723E-03     491.029E-03    -235.299E-03     220.039E-03
             722     9.24770E-03     122.757E-03    -41.6586E+06     10.0912E+06     56.2596E+06     6.66823E+06    -242.708E-03     478.295E-03    -235.587E-03     278.226E-03    -258.560E-03     493.872E-03    -235.260E-03     234.158E-03
             723     9.95861E-03     123.140E-03    -34.3791E+06     16.7359E+06     65.1618E+06     6.61029E+06    -242.589E-03     478.166E-03    -235.576E-03     288.292E-03    -260.181E-03     495.506E-03    -235.225E-03     242.220E-03
             724     10.6713E-03     123.531E-03    -25.9471E+06     26.6939E+06     71.0021E+06     3.63064E+06    -241.940E-03     477.489E-03    -235.549E-03     288.395E-03    -260.204E-03     495.549E-03    -235.195E-03     241.954E-03
             725     11.3809E-03     123.913E-03    -19.0627E+06     33.9998E+06     72.4297E+06     1.44554E+06    -240.905E-03     476.412E-03    -235.507E-03     280.827E-03    -258.725E-03     494.075E-03    -235.167E-03     235.642E-03
             726     12.0957E-03     124.286E-03    -13.5636E+06     39.5794E+06     73.8178E+06     499.953E+03    -239.900E-03     475.371E-03    -235.471E-03     261.826E-03    -255.711E-03     491.061E-03    -235.140E-03     219.985E-03
             727     12.8061E-03     124.612E-03    -8.86029E+06     45.7495E+06     77.6011E+06     166.786E+03    -239.784E-03     475.244E-03    -235.459E-03     246.555E-03    -253.641E-03     489.007E-03    -235.125E-03     207.832E-03
             728     13.5162E-03     124.950E-03    -4.77453E+06     50.2020E+06     81.0291E+06     502.644E+03    -237.811E-03     473.243E-03    -235.432E-03     198.927E-03    -246.929E-03     482.288E-03    -235.093E-03     169.275E-03
             729     711.513E-06     121.817E-03    -125.078E+06    -303.324E+06    -124.448E+06     1.05075E+06    -236.278E-03     471.523E-03    -235.245E-03     24.0154E-03    -236.374E-03     470.460E-03    -235.246E-03     21.0464E-03
             730     1.42242E-03     121.863E-03    -123.171E+06    -287.164E+06    -116.698E+06     1.10427E+06    -235.955E-03     471.649E-03    -235.694E-03     44.0263E-03    -236.271E-03     470.846E-03    -235.682E-03     38.4548E-03
             731     2.13310E-03     121.937E-03    -119.437E+06    -262.470E+06    -105.228E+06     1.34352E+06    -236.236E-03     471.907E-03    -235.671E-03     64.9339E-03    -236.916E-03     471.536E-03    -235.644E-03     56.5783E-03
             732     2.84386E-03     122.040E-03    -113.835E+06    -238.602E+06    -89.5123E+06     1.83616E+06    -236.777E-03     472.454E-03    -235.677E-03     86.4032E-03    -237.971E-03     472.656E-03    -235.613E-03     75.1178E-03
             733     3.55564E-03     122.172E-03    -107.219E+06    -213.987E+06    -72.2469E+06     2.31075E+06    -237.374E-03     473.071E-03    -235.697E-03     108.018E-03    -239.252E-03     474.019E-03    -235.592E-03     93.6207E-03
             734     4.26685E-03     122.334E-03    -99.7939E+06    -181.458E+06    -54.4509E+06     2.80315E+06    -237.968E-03     473.668E-03    -235.700E-03     129.580E-03    -240.732E-03     475.592E-03    -235.565E-03     111.893E-03
             735     4.97766E-03     122.524E-03    -91.3609E+06    -139.583E+06    -35.9014E+06     3.15308E+06    -238.663E-03     474.350E-03    -235.687E-03     151.038E-03    -242.541E-03     477.512E-03    -235.532E-03     129.854E-03
             736     5.68953E-03     122.743E-03    -82.2439E+06    -94.4421E+06    -15.9874E+06     3.64471E+06    -239.347E-03     475.022E-03    -235.674E-03     172.720E-03    -244.600E-03     479.693E-03    -235.498E-03     147.815E-03
             737     6.40026E-03     122.990E-03    -73.3697E+06    -54.7393E+06     2.32251E+06     5.25012E+06    -239.948E-03     475.602E-03    -235.654E-03     194.677E-03    -246.851E-03     482.044E-03    -235.456E-03     165.896E-03
             738     7.11242E-03     123.267E-03    -65.5762E+06    -26.0585E+06     17.5038E+06     5.72902E+06    -240.685E-03     476.313E-03    -235.628E-03     217.112E-03    -249.542E-03     484.794E-03    -235.407E-03     184.278E-03
             739     7.82407E-03     123.573E-03    -58.8125E+06    -5.01476E+06     30.9548E+06     4.78855E+06    -241.516E-03     477.126E-03    -235.611E-03     239.420E-03    -252.624E-03     487.918E-03    -235.363E-03     202.456E-03
             740     8.53543E-03     123.911E-03    -52.1423E+06     2.13569E+06     43.1786E+06     5.50038E+06    -242.237E-03     477.851E-03    -235.614E-03     260.458E-03    -255.763E-03     491.074E-03    -235.326E-03     219.622E-03
             741     9.24656E-03     124.273E-03    -43.9455E+06     7.76669E+06     55.2754E+06     5.25746E+06    -242.695E-03     478.313E-03    -235.619E-03     278.073E-03    -258.550E-03     493.880E-03    -235.290E-03     233.980E-03
             742     9.95915E-03     124.658E-03    -34.5203E+06     20.1930E+06     66.0386E+06     2.84753E+06    -242.628E-03     478.236E-03    -235.608E-03     287.968E-03    -260.213E-03     495.579E-03    -235.257E-03     241.839E-03
             743     10.6698E-03     125.047E-03    -26.8055E+06     29.0863E+06     71.2315E+06     1.28027E+06    -241.879E-03     477.458E-03    -235.580E-03     288.580E-03    -260.167E-03     495.548E-03    -235.227E-03     242.101E-03
             744     11.3827E-03     125.433E-03    -20.7210E+06     35.6022E+06     71.9430E+06     694.689E+03    -240.979E-03     476.515E-03    -235.536E-03     280.823E-03    -258.827E-03     494.207E-03    -235.198E-03     235.584E-03
             745     12.0930E-03     125.796E-03    -15.3041E+06     40.6542E+06     73.1461E+06     252.475E+03    -239.646E-03     475.138E-03    -235.493E-03     262.108E-03    -255.463E-03     490.834E-03    -235.164E-03     220.290E-03
             746     12.8038E-03     126.139E-03    -10.5608E+06     45.7013E+06     76.9237E+06    -140.089E+03    -238.931E-03     474.375E-03    -235.444E-03     247.903E-03    -252.811E-03     488.157E-03    -235.111E-03     209.360E-03
             747     13.5195E-03     126.454E-03    -5.05198E+06     50.3771E+06     81.0430E+06    -522.859E+03    -237.654E-03     473.039E-03    -235.385E-03     198.871E-03    -246.785E-03     482.096E-03    -235.046E-03     169.239E-03
             748     710.893E-06     123.334E-03    -125.050E+06    -305.638E+06    -123.568E+06     543.458E+03    -236.109E-03     471.640E-03    -235.531E-03     23.2894E-03    -236.201E-03     470.562E-03    -235.524E-03     20.3065E-03
             749     1.42158E-03     123.381E-03    -123.584E+06    -288.437E+06    -118.572E+06     1.02568E+06    -235.890E-03     471.612E-03    -235.722E-03     43.6630E-03    -236.201E-03     470.804E-03    -235.717E-03     38.1048E-03
             750     2.13320E-03     123.454E-03    -120.041E+06    -263.842E+06    -106.720E+06     1.26000E+06    -236.225E-03     471.899E-03    -235.673E-03     65.1094E-03    -236.906E-03     471.525E-03    -235.650E-03     56.7531E-03
             751     2.84472E-03     123.558E-03    -114.795E+06    -240.504E+06    -91.0604E+06     1.72281E+06    -236.816E-03     472.494E-03    -235.678E-03     86.6095E-03    -238.012E-03     472.693E-03    -235.618E-03     75.3125E-03
             752     3.55522E-03     123.690E-03    -108.449E+06    -215.451E+06    -73.5216E+06     2.22733E+06    -237.433E-03     473.141E-03    -235.708E-03     107.926E-03    -239.312E-03     474.084E-03    -235.606E-03     93.5290E-03
             753     4.26646E-03     123.851E-03    -101.386E+06    -182.614E+06    -55.4570E+06     2.38453E+06    -238.061E-03     473.787E-03    -235.725E-03     129.417E-03    -240.828E-03     475.706E-03    -235.591E-03     111.721E-03
             754     4.97808E-03     124.042E-03    -94.2773E+06    -140.534E+06    -37.2453E+06     2.32012E+06    -238.681E-03     474.400E-03    -235.719E-03     151.032E-03    -242.573E-03     477.566E-03    -235.565E-03     129.821E-03
             755     5.68875E-03     124.260E-03    -87.0921E+06    -96.4826E+06    -18.3367E+06     2.43930E+06    -239.257E-03     474.956E-03    -235.699E-03     172.777E-03    -244.529E-03     479.630E-03    -235.525E-03     147.860E-03
             756     6.40091E-03     124.508E-03    -79.1689E+06    -59.1776E+06    -1.59612E+06     2.87437E+06    -239.985E-03     475.657E-03    -235.672E-03     194.691E-03    -246.909E-03     482.095E-03    -235.479E-03     165.855E-03
             757     7.11210E-03     124.784E-03    -69.5721E+06    -27.7399E+06     14.2293E+06     3.56099E+06    -240.820E-03     476.473E-03    -235.653E-03     216.853E-03    -249.690E-03     484.956E-03    -235.441E-03     183.944E-03
             758     7.82321E-03     125.092E-03    -59.8949E+06    -6.80980E+06     30.0107E+06     5.17186E+06    -241.525E-03     477.176E-03    -235.651E-03     239.199E-03    -252.629E-03     487.957E-03    -235.405E-03     202.237E-03
             759     8.53492E-03     125.427E-03    -50.6709E+06     451.824E+03     43.6690E+06     5.77792E+06    -242.216E-03     477.871E-03    -235.655E-03     260.488E-03    -255.732E-03     491.082E-03    -235.364E-03     219.663E-03
             760     9.24716E-03     125.792E-03    -41.4877E+06     12.4183E+06     57.0956E+06     3.61292E+06    -242.823E-03     478.478E-03    -235.656E-03     278.134E-03    -258.682E-03     494.069E-03    -235.328E-03     233.986E-03
             761     9.95769E-03     126.174E-03    -33.7507E+06     23.6377E+06     67.1424E+06     1.27913E+06    -242.560E-03     478.205E-03    -235.646E-03     287.994E-03    -260.150E-03     495.565E-03    -235.295E-03     241.848E-03
             762     10.6701E-03     126.566E-03    -26.7004E+06     29.5337E+06     71.6544E+06     647.123E+03    -241.663E-03     477.270E-03    -235.607E-03     288.577E-03    -259.944E-03     495.353E-03    -235.253E-03     242.148E-03
             763     11.3818E-03     126.947E-03    -19.9313E+06     36.0434E+06     72.6339E+06     738.906E+03    -240.764E-03     476.307E-03    -235.543E-03     281.529E-03    -258.607E-03     493.997E-03    -235.204E-03     236.369E-03
             764     12.0927E-03     127.322E-03    -14.1369E+06     41.3994E+06     74.1161E+06     699.320E+03    -239.133E-03     474.605E-03    -235.472E-03     262.522E-03    -254.959E-03     490.314E-03    -235.141E-03     220.795E-03
             765     12.8097E-03     127.641E-03    -8.20595E+06     48.2784E+06     79.3971E+06     459.416E+03    -238.478E-03     473.876E-03    -235.398E-03     247.946E-03    -252.333E-03     487.643E-03    -235.059E-03     209.508E-03
             766     13.5173E-03     127.987E-03    -3.37605E+06     51.2768E+06     83.1230E+06    -252.305E+03    -238.013E-03     473.351E-03    -235.338E-03     198.474E-03    -247.092E-03     482.360E-03    -234.992E-03     168.913E-03
             767     710.433E-06     124.853E-03    -125.439E+06    -306.888E+06    -123.982E+06     245.276E+03    -235.843E-03     471.559E-03    -235.716E-03     23.9023E-03    -235.937E-03     470.478E-03    -235.709E-03     20.8692E-03
             768     1.42237E-03     124.897E-03    -122.806E+06    -290.229E+06    -116.985E+06     806.043E+03    -235.910E-03     471.608E-03    -235.697E-03     43.9976E-03    -236.219E-03     470.789E-03    -235.684E-03     38.4317E-03
             769     2.13322E-03     124.972E-03    -119.067E+06    -265.795E+06    -106.140E+06     1.66904E+06    -236.370E-03     472.047E-03    -235.677E-03     65.1280E-03    -237.043E-03     471.661E-03    -235.650E-03     56.7771E-03
             770     2.84392E-03     125.075E-03    -114.602E+06    -242.446E+06    -90.7063E+06     2.43894E+06    -236.886E-03     472.596E-03    -235.711E-03     86.4062E-03    -238.075E-03     472.782E-03    -235.647E-03     75.1272E-03
             771     3.55553E-03     125.208E-03    -108.634E+06    -217.192E+06    -73.2683E+06     3.08541E+06    -237.485E-03     473.233E-03    -235.748E-03     107.838E-03    -239.362E-03     474.166E-03    -235.642E-03     93.4478E-03
             772     4.26642E-03     125.369E-03    -101.788E+06    -183.577E+06    -54.9549E+06     3.53665E+06    -238.105E-03     473.874E-03    -235.768E-03     129.389E-03    -240.874E-03     475.789E-03    -235.629E-03     111.697E-03
             773     4.97723E-03     125.559E-03    -94.2487E+06    -141.045E+06    -36.2593E+06     3.93179E+06    -238.617E-03     474.374E-03    -235.758E-03     150.968E-03    -242.508E-03     477.535E-03    -235.598E-03     129.784E-03
             774     5.68931E-03     125.778E-03    -85.7827E+06    -96.2888E+06    -16.4532E+06     3.95109E+06    -239.291E-03     475.025E-03    -235.734E-03     172.640E-03    -244.557E-03     479.692E-03    -235.552E-03     147.739E-03
             775     6.40027E-03     126.025E-03    -76.0653E+06    -57.1613E+06     1.88035E+06     2.07875E+06    -240.123E-03     475.838E-03    -235.716E-03     194.616E-03    -247.036E-03     482.273E-03    -235.513E-03     165.755E-03
             776     7.11137E-03     126.303E-03    -66.0727E+06    -31.8570E+06     16.9911E+06     1.66534E+06    -240.853E-03     476.558E-03    -235.705E-03     217.018E-03    -249.704E-03     485.011E-03    -235.478E-03     184.101E-03
             777     7.82331E-03     126.608E-03    -56.2216E+06    -13.0051E+06     31.5900E+06     3.96996E+06    -241.597E-03     477.294E-03    -235.697E-03     239.375E-03    -252.679E-03     488.039E-03    -235.439E-03     202.399E-03
             778     8.53500E-03     126.946E-03    -47.0434E+06     1.44309E+06     45.6172E+06     4.65131E+06    -242.382E-03     478.079E-03    -235.697E-03     260.358E-03    -255.876E-03     491.279E-03    -235.403E-03     219.501E-03
             779     9.24585E-03     127.308E-03    -39.1860E+06     16.8110E+06     58.7136E+06     3.68996E+06    -242.638E-03     478.327E-03    -235.689E-03     278.105E-03    -258.480E-03     493.920E-03    -235.363E-03     234.018E-03
             780     9.95813E-03     127.694E-03    -31.5292E+06     27.6319E+06     68.7901E+06     2.19635E+06    -242.298E-03     477.956E-03    -235.658E-03     288.240E-03    -259.874E-03     495.319E-03    -235.309E-03     242.194E-03
             781     10.6701E-03     128.079E-03    -24.2784E+06     30.6247E+06     73.2628E+06     1.14725E+06    -241.647E-03     477.253E-03    -235.606E-03     289.229E-03    -259.939E-03     495.355E-03    -235.249E-03     242.804E-03
             782     11.3811E-03     128.469E-03    -17.9999E+06     35.8733E+06     74.4618E+06     1.14204E+06    -240.230E-03     475.756E-03    -235.526E-03     281.439E-03    -258.060E-03     493.433E-03    -235.180E-03     236.388E-03
             783     12.0972E-03     128.829E-03    -12.4519E+06     42.3153E+06     76.2434E+06     1.09768E+06    -239.316E-03     474.765E-03    -235.449E-03     261.753E-03    -255.108E-03     490.441E-03    -235.111E-03     220.029E-03
             784     12.8029E-03     129.169E-03    -8.01993E+06     50.2254E+06     80.3090E+06     852.634E+03    -239.153E-03     474.562E-03    -235.409E-03     245.421E-03    -252.966E-03     488.291E-03    -235.068E-03     206.820E-03
             785     13.5224E-03     129.486E-03    -3.88848E+06     52.4833E+06     83.7862E+06     806.084E+03    -237.974E-03     473.359E-03    -235.385E-03     196.764E-03    -247.020E-03     482.335E-03    -235.037E-03     167.194E-03
             786     711.977E-06     126.369E-03    -125.401E+06    -307.596E+06    -122.888E+06    -156.118E+03    -235.532E-03     471.207E-03    -235.675E-03     23.5464E-03    -235.626E-03     470.121E-03    -235.662E-03     20.5103E-03
             787     1.42201E-03     126.415E-03    -122.339E+06    -293.529E+06    -115.764E+06     1.23828E+06    -236.184E-03     471.805E-03    -235.621E-03     43.8140E-03    -236.486E-03     470.966E-03    -235.597E-03     38.2519E-03
             788     2.13305E-03     126.489E-03    -118.698E+06    -268.686E+06    -104.222E+06     2.48954E+06    -236.546E-03     472.263E-03    -235.717E-03     65.1661E-03    -237.215E-03     471.859E-03    -235.676E-03     56.8261E-03
             789     2.84425E-03     126.593E-03    -113.464E+06    -245.054E+06    -88.7297E+06     3.27290E+06    -236.993E-03     472.771E-03    -235.779E-03     86.4417E-03    -238.176E-03     472.939E-03    -235.702E-03     75.1684E-03
             790     3.55487E-03     126.725E-03    -106.758E+06    -219.243E+06    -70.9682E+06     3.82048E+06    -237.490E-03     473.306E-03    -235.816E-03     107.813E-03    -239.360E-03     474.225E-03    -235.698E-03     93.4210E-03
             791     4.26616E-03     126.887E-03    -98.7502E+06    -185.235E+06    -52.2243E+06     4.21821E+06    -238.009E-03     473.827E-03    -235.818E-03     129.311E-03    -240.763E-03     475.725E-03    -235.668E-03     111.632E-03
             792     4.97777E-03     127.077E-03    -89.7890E+06    -142.230E+06    -32.9010E+06     4.37137E+06    -238.692E-03     474.490E-03    -235.798E-03     150.904E-03    -242.561E-03     477.631E-03    -235.626E-03     129.726E-03
             793     5.68859E-03     127.295E-03    -79.8838E+06    -95.0468E+06    -11.7182E+06     3.32663E+06    -239.465E-03     475.250E-03    -235.785E-03     172.713E-03    -244.713E-03     479.911E-03    -235.590E-03     147.774E-03
             794     6.39991E-03     127.544E-03    -70.2095E+06    -53.3899E+06     7.59809E+06     2.36714E+06    -240.058E-03     475.826E-03    -235.768E-03     194.636E-03    -246.953E-03     482.260E-03    -235.551E-03     165.799E-03
             795     7.11199E-03     127.819E-03    -61.9722E+06    -34.2366E+06     20.4911E+06     2.79060E+06    -240.828E-03     476.575E-03    -235.747E-03     216.923E-03    -249.649E-03     484.995E-03    -235.505E-03     184.051E-03
             796     7.82307E-03     128.127E-03    -54.8292E+06    -17.2175E+06     33.1345E+06     3.38757E+06    -241.725E-03     477.462E-03    -235.737E-03     239.191E-03    -252.779E-03     488.164E-03    -235.467E-03     202.222E-03
             797     8.53406E-03     128.462E-03    -47.1638E+06     1.99615E+06     47.0624E+06     3.21281E+06    -242.291E-03     478.020E-03    -235.729E-03     260.654E-03    -255.794E-03     491.226E-03    -235.428E-03     219.804E-03
             798     9.24600E-03     128.827E-03    -38.4153E+06     18.0021E+06     60.1914E+06     2.52912E+06    -242.409E-03     478.111E-03    -235.702E-03     278.272E-03    -258.243E-03     493.698E-03    -235.371E-03     234.230E-03
             799     9.95858E-03     129.207E-03    -30.4281E+06     28.8547E+06     70.3197E+06     2.55120E+06    -242.264E-03     477.922E-03    -235.658E-03     288.323E-03    -259.835E-03     495.284E-03    -235.304E-03     242.289E-03
             800     10.6698E-03     129.602E-03    -24.5541E+06     32.1274E+06     74.2699E+06     2.74137E+06    -241.398E-03     476.997E-03    -235.599E-03     288.413E-03    -259.650E-03     495.061E-03    -235.239E-03     242.085E-03
             801     11.3841E-03     129.979E-03    -20.0058E+06     38.0016E+06     74.7175E+06     1.83638E+06    -240.521E-03     476.050E-03    -235.529E-03     280.100E-03    -258.309E-03     493.685E-03    -235.181E-03     235.028E-03
             802     12.0916E-03     130.352E-03    -15.4838E+06     43.5926E+06     75.8413E+06     713.074E+03    -239.556E-03     475.032E-03    -235.476E-03     261.281E-03    -255.352E-03     490.708E-03    -235.138E-03     219.497E-03
             803     12.8096E-03     130.681E-03    -10.2935E+06     50.1127E+06     80.1100E+06     301.144E+03    -239.560E-03     475.013E-03    -235.453E-03     246.404E-03    -253.421E-03     488.783E-03    -235.110E-03     207.752E-03
             804     13.5113E-03     131.011E-03    -5.04786E+06     52.9494E+06     83.2197E+06     206.304E+03    -237.660E-03     473.078E-03    -235.418E-03     198.638E-03    -246.797E-03     482.145E-03    -235.072E-03     168.932E-03
             805     710.541E-06     127.887E-03    -123.935E+06    -310.269E+06    -121.571E+06     1.72670E+06    -236.002E-03     471.576E-03    -235.574E-03     23.9241E-03    -236.086E-03     470.471E-03    -235.552E-03     20.9234E-03
             806     1.42225E-03     127.933E-03    -121.545E+06    -296.615E+06    -113.891E+06     1.82450E+06    -236.191E-03     471.965E-03    -235.774E-03     43.6588E-03    -236.487E-03     471.106E-03    -235.737E-03     38.1072E-03
             807     2.13302E-03     128.008E-03    -117.069E+06    -271.953E+06    -102.511E+06     2.40389E+06    -236.569E-03     472.391E-03    -235.822E-03     64.9298E-03    -237.226E-03     471.964E-03    -235.771E-03     56.5874E-03
             808     2.84373E-03     128.111E-03    -111.052E+06    -247.640E+06    -86.3178E+06     3.02159E+06    -236.949E-03     472.808E-03    -235.859E-03     86.3134E-03    -238.121E-03     472.957E-03    -235.770E-03     75.0235E-03
             809     3.55497E-03     128.244E-03    -103.638E+06    -221.348E+06    -68.3103E+06     3.38791E+06    -237.411E-03     473.278E-03    -235.867E-03     107.914E-03    -239.267E-03     474.179E-03    -235.737E-03     93.5187E-03
             810     4.26606E-03     128.404E-03    -95.4610E+06    -187.281E+06    -49.4056E+06     3.75909E+06    -238.059E-03     473.915E-03    -235.856E-03     129.433E-03    -240.797E-03     475.793E-03    -235.693E-03     111.755E-03
             811     4.97722E-03     128.595E-03    -87.1745E+06    -142.744E+06    -29.9032E+06      3.6267E+06    -238.850E-03     474.692E-03    -235.843E-03     151.007E-03    -242.712E-03     477.826E-03    -235.659E-03     129.796E-03
             812     5.68849E-03     128.814E-03    -79.5612E+06    -93.0688E+06    -9.13617E+06     3.12364E+06    -239.444E-03     475.275E-03    -235.832E-03     172.667E-03    -244.693E-03     479.938E-03    -235.627E-03     147.739E-03
             813     6.40010E-03     129.061E-03    -72.2875E+06    -53.2079E+06     8.28528E+06     2.97188E+06    -240.093E-03     475.902E-03    -235.810E-03     194.459E-03    -246.994E-03     482.334E-03    -235.586E-03     165.627E-03
             814     7.11099E-03     129.338E-03    -64.9359E+06    -36.4334E+06     18.8663E+06     3.34834E+06    -240.933E-03     476.721E-03    -235.788E-03     216.674E-03    -249.753E-03     485.127E-03    -235.547E-03     183.796E-03
             815     7.82255E-03     129.644E-03    -56.6500E+06    -16.4992E+06     31.6730E+06     2.87822E+06    -241.503E-03     477.270E-03    -235.767E-03     239.111E-03    -252.559E-03     487.975E-03    -235.503E-03     202.168E-03
             816     8.53464E-03     129.981E-03    -47.7573E+06      3.3788E+06     46.9518E+06     1.30156E+06    -241.976E-03     477.717E-03    -235.741E-03     260.359E-03    -255.461E-03     490.907E-03    -235.442E-03     219.548E-03
             817     9.24691E-03     130.343E-03    -39.9337E+06     16.5099E+06     60.1374E+06     1.25175E+06    -242.494E-03     478.208E-03    -235.715E-03     277.638E-03    -258.307E-03     493.764E-03    -235.380E-03     233.562E-03
             818     9.95754E-03     130.727E-03    -33.9576E+06     26.5044E+06     69.6261E+06     2.82779E+06    -242.274E-03     477.959E-03    -235.685E-03     287.479E-03    -259.836E-03     495.293E-03    -235.326E-03     241.431E-03
             819     10.6706E-03     131.114E-03    -28.1382E+06      33.329E+06     74.2865E+06     3.41728E+06    -241.461E-03     477.097E-03    -235.636E-03     287.591E-03    -259.700E-03     495.138E-03    -235.272E-03     241.269E-03
             820     11.3799E-03     131.499E-03    -21.8793E+06     41.4970E+06     75.4477E+06     2.44276E+06    -240.696E-03     476.269E-03    -235.573E-03     280.191E-03    -258.507E-03     493.932E-03    -235.225E-03     235.078E-03
             821     12.0956E-03     131.867E-03    -16.1024E+06     46.6000E+06     76.4508E+06     817.198E+03    -239.480E-03     475.000E-03    -235.520E-03     261.218E-03    -255.287E-03     490.694E-03    -235.182E-03     219.456E-03
             822     12.8021E-03     132.196E-03    -10.5976E+06     50.3831E+06     80.0485E+06    -684.821E+03    -238.256E-03     473.710E-03    -235.455E-03     246.940E-03    -252.097E-03     487.460E-03    -235.112E-03     208.520E-03
             823     13.5241E-03     132.532E-03    -4.99389E+06     52.2131E+06     83.3971E+06    -1.08890E+06    -236.873E-03     472.235E-03    -235.362E-03     198.026E-03    -245.965E-03     481.253E-03    -235.014E-03     168.560E-03
             824     711.069E-06     129.405E-03    -121.932E+06    -314.189E+06    -121.396E+06     706.596E+03    -236.625E-03     472.142E-03    -235.517E-03     23.7144E-03    -236.695E-03     471.015E-03    -235.491E-03     20.6863E-03
             825     1.42144E-03     129.451E-03    -119.261E+06    -298.595E+06    -113.740E+06     1.39529E+06    -236.212E-03     472.206E-03    -235.994E-03     43.8382E-03    -236.495E-03     471.335E-03    -235.957E-03     38.2592E-03
             826     2.13241E-03     129.526E-03    -115.112E+06    -274.252E+06    -101.123E+06     1.70672E+06    -236.450E-03     472.403E-03    -235.953E-03     65.0380E-03    -237.098E-03     471.962E-03    -235.894E-03     56.6760E-03
             827     2.84363E-03     129.629E-03    -108.972E+06    -249.958E+06    -84.9154E+06     2.09128E+06    -236.798E-03     472.718E-03    -235.919E-03     86.4620E-03    -237.960E-03     472.851E-03    -235.823E-03     75.1658E-03
             828     3.55487E-03     129.761E-03    -102.068E+06    -223.569E+06    -67.0171E+06     2.70250E+06    -237.418E-03     473.315E-03    -235.897E-03     107.889E-03    -239.261E-03     474.196E-03    -235.760E-03     93.5006E-03
             829     4.26628E-03     129.922E-03    -94.7448E+06    -189.213E+06    -48.3663E+06     3.23697E+06    -238.247E-03     474.142E-03    -235.896E-03     129.366E-03    -240.979E-03     476.007E-03    -235.726E-03     111.667E-03
             830     4.97709E-03     130.114E-03    -87.0227E+06    -144.311E+06    -29.0772E+06     4.24512E+06    -238.853E-03     474.746E-03    -235.892E-03     150.878E-03    -242.711E-03     477.867E-03    -235.702E-03     129.679E-03
             831     5.68837E-03     130.331E-03    -79.0888E+06    -94.4135E+06    -8.29075E+06     6.00210E+06    -239.446E-03     475.322E-03    -235.876E-03     172.493E-03    -244.686E-03     479.970E-03    -235.666E-03     147.616E-03
             832     6.39948E-03     130.579E-03    -71.5148E+06    -52.7623E+06     9.59875E+06     6.69862E+06    -240.228E-03     476.084E-03    -235.856E-03     194.454E-03    -247.126E-03     482.514E-03    -235.628E-03     165.655E-03
             833     7.11096E-03     130.856E-03    -63.8092E+06    -33.7683E+06     21.2825E+06     4.92894E+06    -240.870E-03     476.705E-03    -235.836E-03     216.692E-03    -249.691E-03     485.119E-03    -235.588E-03     183.848E-03
             834     7.82243E-03     131.162E-03    -55.8104E+06    -13.1065E+06     33.8988E+06     2.48561E+06    -241.492E-03     477.299E-03    -235.807E-03     238.935E-03    -252.551E-03     488.015E-03    -235.538E-03     201.974E-03
             835     8.53418E-03     131.497E-03    -48.6109E+06     4.66261E+06     47.5562E+06     2.03486E+06    -242.162E-03     477.951E-03    -235.789E-03     259.598E-03    -255.634E-03     491.129E-03    -235.487E-03     218.746E-03
             836     9.24508E-03     131.861E-03    -42.8069E+06     14.6448E+06     59.5512E+06     3.11721E+06    -242.416E-03     478.191E-03    -235.775E-03     277.000E-03    -258.220E-03     493.722E-03    -235.436E-03     232.962E-03
             837     9.95783E-03     132.243E-03    -35.8955E+06     25.5547E+06     69.7381E+06     3.35749E+06    -242.225E-03     477.968E-03    -235.743E-03     287.144E-03    -259.781E-03     495.285E-03    -235.380E-03     241.120E-03
             838     10.6685E-03     132.632E-03    -27.6169E+06     34.2711E+06     75.2899E+06     2.60603E+06    -241.612E-03     477.306E-03    -235.694E-03     287.657E-03    -259.868E-03     495.367E-03    -235.328E-03     241.260E-03
             839     11.3827E-03     133.016E-03    -19.7649E+06     42.7274E+06     77.1024E+06     2.32597E+06    -240.433E-03     476.061E-03    -235.628E-03     279.934E-03    -258.231E-03     493.717E-03    -235.275E-03     234.857E-03
             840     12.0913E-03     133.382E-03    -13.4088E+06     49.7518E+06     78.7293E+06     1.96088E+06    -238.647E-03     474.187E-03    -235.539E-03     261.473E-03    -254.452E-03     489.892E-03    -235.198E-03     219.839E-03
             841     12.8082E-03     133.717E-03    -8.21793E+06     54.6023E+06     82.6091E+06     373.303E+03    -237.897E-03     473.339E-03    -235.442E-03     246.275E-03    -251.722E-03     487.089E-03    -235.096E-03     207.925E-03
             842     13.5158E-03     134.032E-03    -3.54148E+06     52.5376E+06     85.2852E+06    -674.600E+03    -236.988E-03     472.342E-03    -235.354E-03     196.905E-03    -246.035E-03     481.316E-03    -234.999E-03     167.457E-03
             843     710.433E-06     130.923E-03    -120.683E+06    -316.076E+06    -118.154E+06     338.290E+03    -236.105E-03     472.289E-03    -236.184E-03     23.6011E-03    -236.171E-03     471.147E-03    -236.141E-03     20.5508E-03
             844     1.42150E-03     130.970E-03    -118.122E+06    -300.164E+06    -112.959E+06     606.527E+03    -236.212E-03     472.258E-03    -236.046E-03     44.1440E-03    -236.489E-03     471.378E-03    -236.004E-03     38.5468E-03
             845     2.13262E-03     131.043E-03    -114.348E+06    -275.961E+06    -101.578E+06     1.08313E+06    -236.384E-03     472.352E-03    -235.968E-03     65.3040E-03    -237.027E-03     471.904E-03    -235.909E-03     56.9322E-03
             846     2.84379E-03     131.147E-03    -109.311E+06    -251.965E+06    -85.2597E+06     1.78800E+06    -236.930E-03     472.864E-03    -235.934E-03     86.4656E-03    -238.087E-03     472.986E-03    -235.837E-03     75.1715E-03
             847     3.55490E-03     131.279E-03    -102.952E+06    -225.898E+06    -67.4965E+06     2.35562E+06    -237.688E-03     473.638E-03    -235.949E-03     107.795E-03    -239.532E-03     474.509E-03    -235.810E-03     93.3816E-03
             848     4.26540E-03     131.441E-03    -95.7393E+06    -191.544E+06    -49.0655E+06     3.29934E+06    -238.253E-03     474.219E-03    -235.966E-03     129.208E-03    -240.984E-03     476.073E-03    -235.795E-03     111.503E-03
             849     4.97676E-03     131.631E-03    -87.8656E+06    -148.003E+06    -30.2387E+06     4.49635E+06    -238.821E-03     474.774E-03    -235.953E-03     150.674E-03    -242.669E-03     477.872E-03    -235.762E-03     129.493E-03
             850     5.68810E-03     131.850E-03    -79.3613E+06    -100.683E+06    -10.2389E+06     6.38387E+06    -239.583E-03     475.517E-03    -235.935E-03     172.373E-03    -244.811E-03     480.136E-03    -235.725E-03     147.472E-03
             851     6.39935E-03     132.098E-03    -70.4362E+06    -55.3001E+06     8.89637E+06     8.83752E+06    -240.147E-03     476.059E-03    -235.913E-03     194.071E-03    -247.024E-03     482.464E-03    -235.686E-03     165.321E-03
             852     7.11069E-03     132.374E-03    -62.6939E+06    -26.7105E+06     22.8463E+06     8.15249E+06    -240.834E-03     476.718E-03    -235.883E-03     216.112E-03    -249.652E-03     485.151E-03    -235.639E-03     183.300E-03
             853     7.82240E-03     132.680E-03    -56.6627E+06    -7.43591E+06     35.6142E+06     5.19931E+06    -241.676E-03     477.546E-03    -235.870E-03     238.287E-03    -252.733E-03     488.273E-03    -235.599E-03     201.318E-03
             854     8.53305E-03     133.016E-03    -50.3936E+06     3.48464E+06     48.7429E+06     4.47405E+06    -242.199E-03     478.070E-03    -235.871E-03     259.364E-03    -255.675E-03     491.238E-03    -235.559E-03     218.543E-03
             855     9.24522E-03     133.377E-03    -42.0447E+06     15.3331E+06     62.0958E+06     4.28950E+06    -242.423E-03     478.279E-03    -235.856E-03     276.866E-03    -258.226E-03     493.807E-03    -235.507E-03     232.836E-03
             856     9.95664E-03     133.760E-03    -32.8778E+06     26.8551E+06     72.6189E+06     3.20020E+06    -242.278E-03     478.099E-03    -235.820E-03     286.944E-03    -259.811E-03     495.400E-03    -235.449E-03     240.912E-03
             857     10.6693E-03     134.150E-03    -24.9063E+06     35.7266E+06     77.8812E+06     2.31113E+06    -241.405E-03     477.167E-03    -235.762E-03     287.348E-03    -259.630E-03     495.205E-03    -235.389E-03     241.003E-03
             858     11.3787E-03     134.531E-03    -18.6228E+06     42.5540E+06     78.2920E+06     1.81489E+06    -239.791E-03     475.455E-03    -235.664E-03     279.975E-03    -257.583E-03     493.105E-03    -235.307E-03     234.998E-03
             859     12.0945E-03     134.900E-03    -12.2291E+06     50.6075E+06     80.1314E+06     2.12299E+06    -238.176E-03     473.718E-03    -235.542E-03     261.001E-03    -253.961E-03     489.407E-03    -235.197E-03     219.458E-03
             860     12.8059E-03     135.224E-03    -7.23771E+06     58.7134E+06     84.8956E+06     2.14947E+06    -237.735E-03     473.164E-03    -235.429E-03     246.069E-03    -251.558E-03     486.924E-03    -235.079E-03     207.752E-03
             861     13.5197E-03     135.564E-03    -3.74385E+06     54.4449E+06     86.5756E+06     1.07054E+06    -237.028E-03     472.362E-03    -235.334E-03     199.208E-03    -246.140E-03     481.403E-03    -234.974E-03     169.738E-03
             862     711.029E-06     132.443E-03    -122.579E+06    -316.661E+06    -120.233E+06    -86.1748E+03    -235.789E-03     471.956E-03    -236.167E-03     24.3626E-03    -235.860E-03     470.817E-03    -236.131E-03     21.3373E-03
             863     1.42180E-03     132.487E-03    -119.424E+06    -301.692E+06    -112.648E+06     602.582E+03    -236.288E-03     472.226E-03    -235.937E-03     43.9802E-03    -236.569E-03     471.338E-03    -235.890E-03     38.3950E-03
             864     2.13276E-03     132.562E-03    -115.521E+06    -277.781E+06    -101.614E+06     1.36997E+06    -236.637E-03     472.592E-03    -235.955E-03     64.9670E-03    -237.279E-03     472.133E-03    -235.893E-03     56.6076E-03
             865     2.84365E-03     132.665E-03    -110.643E+06    -253.936E+06    -86.1242E+06     2.02157E+06    -237.228E-03     473.224E-03    -235.996E-03     86.2801E-03    -238.387E-03     473.339E-03    -235.898E-03     74.9644E-03
             866     3.55415E-03     132.798E-03    -104.714E+06    -228.458E+06    -68.7773E+06     3.05751E+06    -237.740E-03     473.779E-03    -236.040E-03     107.675E-03    -239.586E-03     474.643E-03    -235.901E-03     93.2564E-03
             867     4.26544E-03     132.959E-03    -98.1257E+06    -194.626E+06    -50.9061E+06     4.08620E+06    -238.227E-03     474.271E-03    -236.045E-03     129.092E-03    -240.960E-03     476.113E-03    -235.875E-03     111.409E-03
             868     4.97664E-03     133.149E-03    -91.1366E+06    -151.015E+06    -32.5976E+06     4.85586E+06    -238.996E-03     475.025E-03    -236.029E-03     150.669E-03    -242.856E-03     478.120E-03    -235.841E-03     129.459E-03
             869     5.68738E-03     133.369E-03    -83.6093E+06    -106.473E+06    -13.6813E+06     5.85622E+06    -239.664E-03     475.685E-03    -236.021E-03     172.097E-03    -244.894E-03     480.280E-03    -235.814E-03     147.183E-03
             870     6.39852E-03     133.616E-03    -75.3816E+06    -60.9585E+06     4.18807E+06     7.05767E+06    -240.212E-03     476.210E-03    -235.998E-03     193.577E-03    -247.087E-03     482.589E-03    -235.779E-03     164.793E-03
             871     7.11018E-03     133.892E-03    -66.0946E+06    -25.8664E+06     20.6652E+06     7.91236E+06    -241.017E-03     476.996E-03    -235.979E-03     215.739E-03    -249.841E-03     485.434E-03    -235.742E-03     182.877E-03
             872     7.82060E-03     134.199E-03    -56.9170E+06    -3.52716E+06     36.2128E+06     8.24267E+06    -241.542E-03     477.513E-03    -235.971E-03     237.700E-03    -252.586E-03     488.238E-03    -235.703E-03     200.792E-03
             873     8.53305E-03     134.532E-03    -48.4457E+06     6.96325E+06     50.3528E+06     6.12354E+06    -242.029E-03     477.989E-03    -235.960E-03     258.797E-03    -255.478E-03     491.144E-03    -235.648E-03     218.028E-03
             874     9.24438E-03     134.896E-03    -40.0959E+06     16.9178E+06     63.5849E+06     3.47190E+06    -242.548E-03     478.492E-03    -235.944E-03     276.196E-03    -258.317E-03     493.995E-03    -235.593E-03     232.125E-03
             875     9.95583E-03     135.277E-03    -32.5081E+06     28.1639E+06     73.7793E+06     2.76567E+06    -242.113E-03     478.023E-03    -235.910E-03     286.339E-03    -259.618E-03     495.298E-03    -235.535E-03     240.330E-03
             876     10.6670E-03     135.666E-03    -25.6408E+06     36.9597E+06     79.0481E+06     2.16718E+06    -240.690E-03     476.512E-03    -235.822E-03     287.346E-03    -258.910E-03     494.543E-03    -235.444E-03     241.132E-03
             877     11.3821E-03     136.049E-03    -19.1127E+06     43.0920E+06     79.9838E+06     1.55878E+06    -239.264E-03     474.951E-03    -235.687E-03     279.287E-03    -257.020E-03     492.561E-03    -235.322E-03     234.434E-03
             878     12.0932E-03     136.411E-03    -14.3784E+06     49.5571E+06     80.2896E+06     1.74106E+06    -238.322E-03     473.875E-03    -235.554E-03     260.849E-03    -254.109E-03     489.555E-03    -235.203E-03     219.273E-03
             879     12.8049E-03     136.748E-03    -10.1503E+06     59.0143E+06     83.7886E+06     1.90499E+06    -237.394E-03     472.830E-03    -235.436E-03     244.681E-03    -251.208E-03     486.574E-03    -235.088E-03     206.382E-03
             880     13.5218E-03     137.060E-03    -4.65132E+06     58.1396E+06     86.4979E+06     1.85506E+06    -236.758E-03     472.092E-03    -235.335E-03     197.293E-03    -245.806E-03     481.080E-03    -234.980E-03     167.956E-03
             881     711.171E-06     133.960E-03    -123.151E+06    -315.906E+06    -121.508E+06    -641.185E+03    -235.936E-03     471.914E-03    -235.978E-03     23.8083E-03    -236.007E-03     470.780E-03    -235.949E-03     20.8182E-03
             882     1.42184E-03     134.006E-03    -121.444E+06    -305.122E+06    -114.116E+06     966.569E+03    -236.473E-03     472.441E-03    -235.967E-03     43.6101E-03    -236.756E-03     471.540E-03    -235.919E-03     38.0220E-03
             883     2.13247E-03     134.080E-03    -117.381E+06    -280.135E+06    -102.438E+06     1.97429E+06    -236.935E-03     472.998E-03    -236.063E-03     64.7181E-03    -237.582E-03     472.531E-03    -235.999E-03     56.3382E-03
             884     2.84296E-03     134.185E-03    -112.171E+06    -256.813E+06    -86.9930E+06     2.77326E+06    -237.272E-03     473.402E-03    -236.130E-03     86.1468E-03    -238.433E-03     473.505E-03    -236.030E-03     74.8381E-03
             885     3.55405E-03     134.316E-03    -105.701E+06    -231.657E+06    -69.5129E+06     4.09440E+06    -237.698E-03     473.848E-03    -236.150E-03     107.482E-03    -239.540E-03     474.694E-03    -236.008E-03     93.0869E-03
             886     4.26507E-03     134.478E-03    -98.6231E+06    -198.140E+06    -51.5934E+06     5.39831E+06    -238.428E-03     474.579E-03    -236.150E-03     128.813E-03    -241.155E-03     476.401E-03    -235.978E-03     111.125E-03
             887     4.97573E-03     134.668E-03    -91.4316E+06    -154.708E+06    -33.5506E+06     7.04627E+06    -239.157E-03     475.305E-03    -236.148E-03     150.392E-03    -243.008E-03     478.379E-03    -235.959E-03     129.193E-03
             888     5.68684E-03     134.888E-03    -84.0560E+06    -109.110E+06    -14.0328E+06     8.20048E+06    -239.731E-03     475.876E-03    -236.145E-03     171.657E-03    -244.946E-03     480.445E-03    -235.935E-03     146.787E-03
             889     6.39816E-03     135.134E-03    -75.5220E+06    -60.4189E+06     5.49937E+06     6.73537E+06    -240.466E-03     476.598E-03    -236.132E-03     193.413E-03    -247.345E-03     482.978E-03    -235.907E-03     164.575E-03
             890     7.10847E-03     135.411E-03    -65.9297E+06    -29.5827E+06     21.5716E+06     5.72991E+06    -241.031E-03     477.152E-03    -236.120E-03     215.505E-03    -249.838E-03     485.557E-03    -235.874E-03     182.628E-03
             891     7.82064E-03     135.716E-03    -56.1120E+06    -6.72615E+06     37.1359E+06     6.99315E+06    -241.511E-03     477.612E-03    -236.101E-03     237.327E-03    -252.529E-03     488.298E-03    -235.824E-03     200.434E-03
             892     8.53147E-03     136.051E-03    -47.0869E+06     13.1054E+06     52.0255E+06     6.64447E+06    -242.237E-03     478.317E-03    -236.080E-03     258.331E-03    -255.680E-03     491.488E-03    -235.771E-03     217.505E-03
             893     9.24290E-03     136.413E-03    -39.7252E+06     19.7065E+06     63.8085E+06     5.08570E+06    -242.310E-03     478.370E-03    -236.060E-03     275.673E-03    -258.052E-03     493.856E-03    -235.712E-03     231.670E-03
             894     9.95463E-03     136.795E-03    -32.9971E+06     29.9787E+06     74.2743E+06     3.98236E+06    -241.582E-03     477.581E-03    -235.998E-03     285.972E-03    -259.075E-03     494.848E-03    -235.623E-03     240.062E-03
             895     10.6681E-03     137.182E-03    -26.3999E+06     39.9362E+06     80.3585E+06     2.66491E+06    -240.305E-03     476.191E-03    -235.886E-03     286.182E-03    -258.493E-03     494.193E-03    -235.504E-03     240.035E-03
             896     11.3794E-03     137.562E-03    -20.7522E+06     42.7215E+06     80.3052E+06     2.26350E+06    -239.207E-03     474.954E-03    -235.746E-03     278.228E-03    -256.930E-03     492.521E-03    -235.377E-03     233.392E-03
             897     12.0924E-03     137.930E-03    -15.5556E+06     49.1510E+06     80.8447E+06     2.34776E+06    -237.716E-03     473.317E-03    -235.601E-03     259.616E-03    -253.457E-03     488.943E-03    -235.246E-03     218.174E-03
             898     12.8082E-03     138.257E-03    -10.2385E+06     60.3698E+06     84.8326E+06     2.16532E+06    -237.826E-03     473.304E-03    -235.478E-03     244.519E-03    -251.600E-03     487.010E-03    -235.126E-03     206.252E-03
             899     13.5141E-03     138.585E-03    -5.39738E+06     61.1680E+06     86.7669E+06     1.68514E+06    -235.915E-03     471.269E-03    -235.355E-03     198.588E-03    -245.007E-03     480.308E-03    -235.002E-03     169.192E-03
             900     710.391E-06     135.479E-03    -124.853E+06    -317.484E+06    -120.771E+06     1.29015E+06    -236.612E-03     472.579E-03    -235.967E-03     24.0305E-03    -236.690E-03     471.439E-03    -235.930E-03     21.0308E-03
             901     1.42147E-03     135.524E-03    -121.303E+06    -308.464E+06    -113.396E+06     1.76513E+06    -236.547E-03     472.801E-03    -236.254E-03     43.5362E-03    -236.824E-03     471.881E-03    -236.197E-03     37.9811E-03
             902     2.13187E-03     135.600E-03    -117.458E+06    -283.495E+06    -102.458E+06     2.83315E+06    -236.877E-03     473.130E-03    -236.252E-03     64.7588E-03    -237.520E-03     472.646E-03    -236.183E-03     56.3940E-03
             903     2.84270E-03     135.702E-03    -112.132E+06    -259.570E+06    -86.6377E+06     3.64950E+06    -237.315E-03     473.581E-03    -236.267E-03     86.0988E-03    -238.471E-03     473.669E-03    -236.161E-03     74.8020E-03
             904     3.55368E-03     135.835E-03    -105.294E+06    -235.206E+06    -69.6365E+06     4.09511E+06    -237.961E-03     474.248E-03    -236.287E-03     107.294E-03    -239.795E-03     475.075E-03    -236.142E-03     92.8712E-03
             905     4.26417E-03     135.997E-03    -97.4990E+06    -203.748E+06    -51.9085E+06     5.73934E+06    -238.677E-03     474.987E-03    -236.310E-03     128.672E-03    -241.390E-03     476.781E-03    -236.133E-03     110.955E-03
             906     4.97510E-03     136.187E-03    -89.1964E+06    -161.417E+06    -33.2067E+06     8.26846E+06    -239.271E-03     475.587E-03    -236.316E-03     150.040E-03    -243.090E-03     478.613E-03    -236.119E-03     128.867E-03
             907     5.68601E-03     136.406E-03    -80.0672E+06    -111.155E+06    -11.8022E+06     9.56330E+06    -239.946E-03     476.260E-03    -236.314E-03     171.337E-03    -245.137E-03     480.807E-03    -236.096E-03     146.448E-03
             908     6.39656E-03     136.653E-03    -71.0437E+06    -57.2548E+06     10.2251E+06     8.89039E+06    -240.531E-03     476.836E-03    -236.306E-03     193.003E-03    -247.386E-03     483.207E-03    -236.069E-03     164.187E-03
             909     7.10819E-03     136.930E-03    -63.7658E+06    -28.6660E+06     24.8302E+06     7.96231E+06    -240.935E-03     477.217E-03    -236.282E-03     214.703E-03    -249.705E-03     485.586E-03    -236.023E-03     181.904E-03
             910     7.81899E-03     137.234E-03    -57.1058E+06    -8.65997E+06     37.1873E+06     6.70135E+06    -241.684E-03     477.933E-03    -236.250E-03     236.984E-03    -252.691E-03     488.599E-03    -235.968E-03     200.051E-03
             911     8.53041E-03     137.571E-03    -49.6465E+06     13.7911E+06     51.8420E+06     6.11371E+06    -242.137E-03     478.359E-03    -236.222E-03     258.038E-03    -255.574E-03     491.518E-03    -235.911E-03     217.232E-03
             912     9.24167E-03     137.930E-03    -41.6416E+06     22.2452E+06     64.6452E+06     5.81240E+06    -241.982E-03     478.164E-03    -236.181E-03     275.215E-03    -257.727E-03     493.652E-03    -235.830E-03     231.264E-03
             913     9.95458E-03     138.311E-03    -33.8524E+06     32.0739E+06     75.7130E+06     4.67107E+06    -241.344E-03     477.446E-03    -236.102E-03     284.999E-03    -258.806E-03     494.683E-03    -235.721E-03     239.148E-03
             914     10.6658E-03     138.698E-03    -27.3473E+06     41.8418E+06     81.8369E+06     4.55293E+06    -240.187E-03     476.168E-03    -235.982E-03     285.258E-03    -258.333E-03     494.129E-03    -235.594E-03     239.188E-03
             915     11.3791E-03     139.077E-03    -21.6714E+06     44.8471E+06     81.4659E+06     4.15402E+06    -238.753E-03     474.573E-03    -235.820E-03     278.441E-03    -256.478E-03     492.144E-03    -235.446E-03     233.733E-03
             916     12.0923E-03     139.443E-03    -15.6938E+06     50.8875E+06     81.8686E+06     2.84212E+06    -237.394E-03     473.036E-03    -235.642E-03     260.148E-03    -253.146E-03     488.676E-03    -235.284E-03     218.783E-03
             917     12.8028E-03     139.769E-03    -9.53540E+06     60.9740E+06     86.8336E+06     2.55917E+06    -236.306E-03     471.764E-03    -235.458E-03     247.297E-03    -250.149E-03     485.538E-03    -235.099E-03     209.203E-03
             918     13.5220E-03     140.105E-03    -4.48718E+06     63.5473E+06     90.2932E+06     1.43506E+06    -233.987E-03     469.221E-03    -235.234E-03     199.392E-03    -243.095E-03     478.277E-03    -234.868E-03     170.311E-03
             919     710.616E-06     136.997E-03    -121.754E+06    -322.781E+06    -120.953E+06     1.89539E+06    -237.072E-03     473.217E-03    -236.145E-03     23.3896E-03    -237.126E-03     472.048E-03    -236.105E-03     20.3899E-03
             920     1.42055E-03     137.045E-03    -120.023E+06    -311.363E+06    -112.791E+06     2.49435E+06    -236.555E-03     473.059E-03    -236.504E-03     43.8204E-03    -236.825E-03     472.125E-03    -236.443E-03     38.2415E-03
             921     2.13178E-03     137.118E-03    -115.916E+06    -286.939E+06    -101.407E+06     3.01684E+06    -236.902E-03     473.319E-03    -236.417E-03     64.8961E-03    -237.532E-03     472.813E-03    -236.340E-03     56.5450E-03
             922     2.84266E-03     137.223E-03    -109.883E+06    -263.014E+06    -85.5910E+06     4.06130E+06    -237.574E-03     473.992E-03    -236.419E-03     85.9621E-03    -238.713E-03     474.057E-03    -236.306E-03     74.6584E-03
             923     3.55271E-03     137.354E-03    -103.509E+06    -237.409E+06    -67.9771E+06     4.60418E+06    -238.283E-03     474.752E-03    -236.469E-03     107.242E-03    -240.108E-03     475.563E-03    -236.314E-03     92.7986E-03
             924     4.26355E-03     137.516E-03    -96.1883E+06    -210.516E+06    -49.9075E+06     5.65026E+06    -238.937E-03     475.458E-03    -236.521E-03     128.461E-03    -241.634E-03     477.211E-03    -236.326E-03     110.712E-03
             925     4.97404E-03     137.706E-03    -87.8850E+06    -168.435E+06    -31.8848E+06     7.57010E+06    -239.528E-03     476.064E-03    -236.536E-03     149.542E-03    -243.326E-03     479.044E-03    -236.324E-03     128.324E-03
             926     5.68475E-03     137.925E-03    -79.3615E+06    -114.587E+06    -11.9322E+06     8.73950E+06    -240.098E-03     476.624E-03    -236.527E-03     171.058E-03    -245.278E-03     481.151E-03    -236.305E-03     146.122E-03
             927     6.39559E-03     138.174E-03    -71.5175E+06    -60.6687E+06     8.70581E+06     10.9352E+06    -240.466E-03     476.965E-03    -236.500E-03     192.388E-03    -247.294E-03     483.300E-03    -236.264E-03     163.626E-03
             928     7.10645E-03     138.448E-03    -64.3429E+06    -27.4177E+06     24.0965E+06     12.3321E+06    -241.052E-03     477.514E-03    -236.461E-03     214.141E-03    -249.815E-03     485.880E-03    -236.208E-03     181.361E-03
             929     7.81784E-03     138.754E-03    -57.6628E+06    -3.30650E+06     38.0414E+06     10.5892E+06    -241.623E-03     478.047E-03    -236.424E-03     236.494E-03    -252.625E-03     488.722E-03    -236.145E-03     199.604E-03
             930     8.52886E-03     139.088E-03    -50.8921E+06     16.5012E+06     52.9675E+06     7.53161E+06    -241.762E-03     478.140E-03    -236.378E-03     257.199E-03    -255.165E-03     491.267E-03    -236.063E-03     216.501E-03
             931     9.24149E-03     139.448E-03    -43.4120E+06     23.6824E+06     65.8990E+06     5.51724E+06    -241.775E-03     478.090E-03    -236.316E-03     274.325E-03    -257.486E-03     493.541E-03    -235.958E-03     230.429E-03
             932     9.95197E-03     139.828E-03    -36.0513E+06     32.8795E+06     76.8348E+06     5.24406E+06    -241.047E-03     477.265E-03    -236.218E-03     284.400E-03    -258.475E-03     494.459E-03    -235.829E-03     238.663E-03
             933     10.6657E-03     140.212E-03    -28.8653E+06     41.2081E+06     83.0952E+06     5.30468E+06    -239.553E-03     475.614E-03    -236.061E-03     285.546E-03    -257.679E-03     493.543E-03    -235.663E-03     239.666E-03
             934     11.3784E-03     140.593E-03    -21.4631E+06     48.4233E+06     84.4105E+06     4.48076E+06    -237.973E-03     473.817E-03    -235.845E-03     278.686E-03    -255.672E-03     491.368E-03    -235.462E-03     234.170E-03
             935     12.0924E-03     140.955E-03    -14.7365E+06     53.8298E+06     84.6907E+06     3.06897E+06    -236.131E-03     471.727E-03    -235.595E-03     261.760E-03    -251.900E-03     487.389E-03    -235.229E-03     220.611E-03
             936     12.8085E-03     141.289E-03    -9.02346E+06     60.7301E+06     88.6352E+06     2.49844E+06    -234.487E-03     469.809E-03    -235.322E-03     247.213E-03    -248.324E-03     483.572E-03    -234.954E-03     209.414E-03
             937     13.5240E-03     141.599E-03    -4.01418E+06     66.2086E+06     92.1589E+06     2.04284E+06    -233.503E-03     468.547E-03    -235.044E-03     198.843E-03    -242.593E-03     477.590E-03    -234.673E-03     169.863E-03
             938     709.826E-06     138.519E-03    -124.897E+06    -327.082E+06    -121.556E+06     670.590E+03    -236.336E-03     473.271E-03    -236.936E-03     23.3834E-03    -236.399E-03     472.087E-03    -236.888E-03     20.3620E-03
             939     1.42125E-03     138.562E-03    -120.668E+06    -314.728E+06    -114.976E+06     1.46471E+06    -236.894E-03     473.483E-03    -236.589E-03     43.7721E-03    -237.159E-03     472.535E-03    -236.533E-03     38.1673E-03
             940     2.13149E-03     138.639E-03    -116.292E+06    -290.739E+06    -102.914E+06     2.53229E+06    -237.346E-03     473.956E-03    -236.610E-03     64.6116E-03    -237.969E-03     473.433E-03    -236.534E-03     56.2326E-03
             941     2.84145E-03     138.742E-03    -110.987E+06    -267.689E+06    -86.5383E+06     3.78093E+06    -237.817E-03     474.479E-03    -236.662E-03     85.6046E-03    -238.951E-03     474.519E-03    -236.546E-03     74.2841E-03
             942     3.55252E-03     138.875E-03    -104.478E+06    -239.597E+06    -68.1511E+06     4.83015E+06    -238.468E-03     475.180E-03    -236.711E-03     106.934E-03    -240.291E-03     475.978E-03    -236.553E-03     92.4805E-03
             943     4.26234E-03     139.037E-03    -97.1351E+06    -215.298E+06    -49.3004E+06     5.61909E+06    -239.187E-03     475.959E-03    -236.772E-03     128.077E-03    -241.877E-03     477.683E-03    -236.565E-03     110.303E-03
             944     4.97277E-03     139.227E-03     -89.398E+06    -173.938E+06    -32.3500E+06     6.79003E+06    -239.792E-03     476.582E-03    -236.790E-03     149.358E-03    -243.593E-03     479.541E-03    -236.569E-03     128.071E-03
             945     5.68311E-03     139.446E-03    -81.9506E+06    -120.483E+06    -15.1737E+06     9.12012E+06    -240.173E-03     476.936E-03    -236.764E-03     170.641E-03    -245.340E-03     481.429E-03    -236.546E-03     145.710E-03
             946     6.39411E-03     139.692E-03    -74.4672E+06    -68.7504E+06     4.08383E+06     12.1252E+06    -240.543E-03     477.263E-03    -236.720E-03     191.818E-03    -247.353E-03     483.553E-03    -236.492E-03     163.061E-03
             947     7.10527E-03     139.968E-03    -66.1698E+06    -30.6993E+06     20.8877E+06     13.7642E+06    -241.144E-03     477.815E-03    -236.671E-03     213.771E-03    -249.892E-03     486.158E-03    -236.426E-03     180.986E-03
             948     7.81572E-03     140.273E-03    -57.7030E+06     556.563E+03     37.8197E+06     13.5433E+06    -241.430E-03     478.048E-03    -236.618E-03     235.619E-03    -252.396E-03     488.701E-03    -236.346E-03     198.828E-03
             949     8.52800E-03     140.605E-03    -50.1173E+06     24.2787E+06     54.9462E+06     11.3965E+06    -241.460E-03     478.006E-03    -236.546E-03     256.447E-03    -254.828E-03     491.123E-03    -236.234E-03     215.881E-03
             950     9.23850E-03     140.966E-03    -43.3475E+06     27.6575E+06     68.0128E+06     8.45064E+06    -241.190E-03     477.636E-03    -236.446E-03     274.128E-03    -256.850E-03     493.044E-03    -236.083E-03     230.466E-03
             951     9.95261E-03     141.343E-03    -36.0757E+06     34.1941E+06     79.1841E+06     6.74166E+06    -240.232E-03     476.523E-03    -236.290E-03     284.538E-03    -257.614E-03     493.668E-03    -235.892E-03     239.058E-03
             952     10.6649E-03     141.728E-03    -27.7007E+06     43.1010E+06     86.8358E+06     5.23371E+06    -238.664E-03     474.734E-03    -236.070E-03     285.821E-03    -256.750E-03     492.623E-03    -235.658E-03     240.174E-03
             953     11.3796E-03     142.105E-03    -20.0061E+06     50.0364E+06     88.7428E+06     3.94879E+06    -236.984E-03     472.773E-03    -235.789E-03     279.665E-03    -254.689E-03     490.327E-03    -235.389E-03     235.345E-03
             954     12.0939E-03     142.470E-03    -14.2375E+06     54.8389E+06     88.2126E+06     4.12164E+06    -234.771E-03     470.239E-03    -235.468E-03     261.220E-03    -250.488E-03     485.844E-03    -235.086E-03     220.389E-03
             955     12.8107E-03     142.790E-03    -9.87548E+06     63.2116E+06     90.5433E+06     3.81985E+06    -233.635E-03     468.768E-03    -235.133E-03     246.674E-03    -247.397E-03     482.456E-03    -234.757E-03     209.162E-03
             956     13.5240E-03     143.121E-03    -5.46603E+06     70.2152E+06     92.9112E+06     2.46652E+06    -232.669E-03     467.474E-03    -234.805E-03     201.547E-03    -241.796E-03     476.561E-03    -234.434E-03     172.669E-03
             957     711.227E-06     140.037E-03    -127.475E+06    -326.905E+06    -125.296E+06    -597.702E+03    -236.928E-03     473.730E-03    -236.802E-03     23.3480E-03    -236.997E-03     472.551E-03    -236.769E-03     20.3301E-03
             958     1.42048E-03     140.085E-03    -124.007E+06    -317.588E+06    -117.560E+06    -28.7984E+03    -237.362E-03     474.240E-03    -236.877E-03     43.1420E-03    -237.632E-03     473.283E-03    -236.825E-03     37.5386E-03
             959     2.13029E-03     140.159E-03    -120.128E+06    -294.748E+06    -106.719E+06     1.50931E+06    -237.614E-03     474.551E-03    -236.937E-03     64.2783E-03    -238.243E-03     474.017E-03    -236.869E-03     55.8638E-03
             960     2.84105E-03     140.263E-03    -114.813E+06    -271.528E+06    -90.2130E+06     2.74620E+06    -238.108E-03     475.088E-03    -236.980E-03     85.5361E-03    -239.252E-03     475.121E-03    -236.871E-03     74.1700E-03
             961     3.55052E-03     140.396E-03    -107.699E+06    -243.440E+06    -72.7331E+06     3.68099E+06    -238.703E-03     475.718E-03    -237.015E-03     106.718E-03    -240.525E-03     476.505E-03    -236.869E-03     92.2296E-03
             962     4.26134E-03     140.558E-03    -100.017E+06    -218.886E+06    -54.3083E+06     4.82684E+06    -239.286E-03     476.337E-03    -237.051E-03     127.789E-03    -241.973E-03     478.050E-03    -236.861E-03     109.999E-03
             963     4.97145E-03     140.748E-03    -92.3319E+06    -179.474E+06    -36.5889E+06     6.44553E+06    -239.840E-03     476.887E-03    -237.047E-03     149.085E-03    -243.630E-03     479.818E-03    -236.836E-03     127.804E-03
             964     5.68198E-03     140.967E-03    -84.1032E+06    -129.425E+06    -18.7450E+06     9.18667E+06    -240.289E-03     477.296E-03    -237.007E-03     170.292E-03    -245.432E-03     481.735E-03    -236.791E-03     145.377E-03
             965     6.39246E-03     141.212E-03    -75.1394E+06    -77.9604E+06     1.35947E+06     12.3929E+06    -240.779E-03     477.736E-03    -236.957E-03     191.760E-03    -247.566E-03     483.976E-03    -236.729E-03     162.989E-03
             966     7.10294E-03     141.488E-03    -66.8211E+06    -34.4957E+06     19.2264E+06     14.3878E+06    -241.112E-03     478.004E-03    -236.892E-03     213.478E-03    -249.830E-03     486.306E-03    -236.649E-03     180.750E-03
             967     7.81478E-03     141.791E-03    -58.9367E+06     650.577E+03     36.1837E+06     14.2152E+06    -241.141E-03     477.941E-03    -236.800E-03     235.290E-03    -252.069E-03     488.557E-03    -236.535E-03     198.615E-03
             968     8.52534E-03     142.124E-03    -50.6536E+06     27.1974E+06     54.2442E+06     13.5257E+06    -240.842E-03     477.514E-03    -236.672E-03     256.457E-03    -254.162E-03     490.593E-03    -236.367E-03     216.121E-03
             969     9.23957E-03     142.481E-03    -42.6437E+06     33.7030E+06     69.7949E+06     12.1602E+06    -240.286E-03     476.788E-03    -236.502E-03     274.345E-03    -255.896E-03     492.164E-03    -236.140E-03     231.001E-03
             970     9.95157E-03     142.859E-03    -34.9868E+06     40.5590E+06     83.0334E+06     8.39468E+06    -239.181E-03     475.452E-03    -236.271E-03     284.889E-03    -256.505E-03     492.556E-03    -235.864E-03     239.745E-03
             971     10.6666E-03     143.241E-03    -27.7360E+06     45.8324E+06     90.4128E+06     5.50308E+06    -237.596E-03     473.573E-03    -235.976E-03     286.530E-03    -255.657E-03     491.436E-03    -235.551E-03     241.170E-03
             972     11.3812E-03     143.617E-03    -22.0852E+06     50.3361E+06     91.6029E+06     5.71134E+06    -235.767E-03     471.389E-03    -235.623E-03     280.272E-03    -253.438E-03     488.895E-03    -235.206E-03     236.323E-03
             973     12.0977E-03     143.979E-03    -17.7551E+06     55.6618E+06     89.8152E+06     5.21500E+06    -233.794E-03     469.025E-03    -235.231E-03     262.449E-03    -249.509E-03     484.614E-03    -234.836E-03     221.909E-03
             974     12.8117E-03     144.302E-03    -11.8798E+06     65.6569E+06     92.3572E+06     3.47019E+06    -232.853E-03     467.694E-03    -234.841E-03     249.313E-03    -246.713E-03     481.477E-03    -234.457E-03     211.826E-03
             975     13.5337E-03     144.622E-03    -5.05751E+06     74.9357E+06     96.7318E+06     2.13145E+06    -230.704E-03     465.152E-03    -234.448E-03     202.644E-03    -239.879E-03     474.294E-03    -234.066E-03     173.895E-03
             976     709.068E-06     141.561E-03    -127.904E+06    -323.054E+06    -125.909E+06    -914.110E+03    -237.793E-03     474.841E-03    -237.048E-03     23.1412E-03    -237.872E-03     473.684E-03    -237.023E-03     20.0900E-03
             977     1.41940E-03     141.606E-03    -125.501E+06    -318.906E+06    -118.552E+06    -889.239E+03    -237.577E-03     474.949E-03    -237.373E-03     43.1820E-03    -237.853E-03     473.992E-03    -237.321E-03     37.5016E-03
             978     2.13004E-03     141.681E-03    -121.436E+06    -298.559E+06    -109.237E+06     373.854E+03    -237.820E-03     475.149E-03    -237.328E-03     64.2572E-03    -238.448E-03     474.602E-03    -237.265E-03     55.8065E-03
             979     2.83950E-03     141.784E-03    -115.891E+06    -273.917E+06    -95.1892E+06     1.28412E+06    -238.394E-03     475.709E-03    -237.315E-03     85.5834E-03    -239.531E-03     475.738E-03    -237.225E-03     74.1819E-03
             980     3.55002E-03     141.918E-03    -109.755E+06    -247.531E+06    -78.5998E+06     2.44503E+06    -238.902E-03     476.228E-03    -237.326E-03     106.668E-03    -240.716E-03     477.002E-03    -237.201E-03     92.1635E-03
             981     4.25955E-03     142.079E-03    -102.761E+06    -222.379E+06    -60.4559E+06     3.57586E+06    -239.395E-03     476.725E-03    -237.330E-03     127.859E-03    -242.076E-03     478.428E-03    -237.161E-03     110.063E-03
             982     4.97000E-03     142.270E-03    -94.6471E+06    -185.080E+06    -41.6403E+06     4.67800E+06    -239.883E-03     477.183E-03    -237.300E-03     148.957E-03    -243.652E-03     480.080E-03    -237.103E-03     127.698E-03
             983     5.68050E-03     142.487E-03    -85.6978E+06    -138.403E+06    -22.4955E+06     6.71362E+06    -240.406E-03     477.651E-03    -237.245E-03     170.087E-03    -245.521E-03     482.036E-03    -237.033E-03     145.166E-03
             984     6.39113E-03     142.734E-03    -76.7444E+06    -90.0131E+06    -2.84940E+06     10.6730E+06    -240.720E-03     477.893E-03    -237.173E-03     191.536E-03    -247.459E-03     484.048E-03    -236.946E-03     162.826E-03
             985     7.10217E-03     143.008E-03    -68.1024E+06    -40.5958E+06     15.7806E+06     14.7348E+06    -240.699E-03     477.751E-03    -237.052E-03     213.585E-03    -249.368E-03     485.989E-03    -236.816E-03     181.023E-03
             986     7.81281E-03     143.311E-03    -60.0249E+06     1.27353E+06     33.9182E+06     15.4532E+06    -240.496E-03     477.378E-03    -236.882E-03     235.857E-03    -251.384E-03     487.960E-03    -236.628E-03     199.416E-03
             987     8.52655E-03     143.641E-03    -52.5493E+06     26.0232E+06     51.1200E+06     14.4645E+06    -240.052E-03     476.725E-03    -236.673E-03     256.847E-03    -253.312E-03     489.743E-03    -236.379E-03     216.808E-03
             988     9.23838E-03     143.997E-03    -44.9286E+06     37.7409E+06     68.7260E+06     12.9226E+06    -239.278E-03     475.700E-03    -236.422E-03     275.026E-03    -254.832E-03     491.029E-03    -236.068E-03     232.043E-03
             989     9.95390E-03     144.373E-03    -37.8568E+06     48.8891E+06     85.0290E+06     10.2245E+06    -237.985E-03     474.094E-03    -236.110E-03     285.926E-03    -255.272E-03     491.174E-03    -235.700E-03     241.207E-03
             990     10.6688E-03     144.752E-03    -32.7322E+06     48.9264E+06     92.1855E+06     8.10421E+06    -236.341E-03     472.073E-03    -235.732E-03     287.921E-03    -254.371E-03     489.893E-03    -235.295E-03     243.037E-03
             991     11.3849E-03     145.129E-03    -26.8108E+06     51.3907E+06     93.3695E+06     6.40792E+06    -234.217E-03     469.502E-03    -235.285E-03     282.056E-03    -251.851E-03     486.953E-03    -234.854E-03     238.617E-03
             992     12.1014E-03     145.485E-03    -18.4381E+06     59.2603E+06     92.7606E+06     4.23827E+06    -232.170E-03     466.958E-03    -234.789E-03     265.569E-03    -247.905E-03     482.570E-03    -234.384E-03     225.421E-03
             993     12.8224E-03     145.810E-03    -11.2445E+06     68.1556E+06     95.3495E+06     2.58409E+06    -231.533E-03     465.842E-03    -234.309E-03     253.588E-03    -245.473E-03     479.707E-03    -233.915E-03     216.352E-03
             994     13.5335E-03     146.130E-03    -4.94199E+06     77.2727E+06     99.5102E+06     1.55569E+06    -228.677E-03     462.507E-03    -233.830E-03     206.694E-03    -237.956E-03     471.754E-03    -233.437E-03     178.025E-03
             995     710.119E-06     143.083E-03    -131.772E+06    -319.235E+06    -128.963E+06    -353.174E+03    -237.596E-03     475.253E-03    -237.657E-03     24.2076E-03    -237.698E-03     474.128E-03    -237.648E-03     21.0957E-03
             996     1.41939E-03     143.129E-03    -128.486E+06    -317.093E+06    -121.992E+06    -1.52908E+06    -237.925E-03     475.526E-03    -237.601E-03     43.6324E-03    -238.214E-03     474.587E-03    -237.565E-03     37.9507E-03
             997     2.12861E-03     143.202E-03    -123.879E+06    -300.910E+06    -112.111E+06    -1.41577E+06    -238.336E-03     475.959E-03    -237.623E-03     64.6947E-03    -238.971E-03     475.411E-03    -237.568E-03     56.2006E-03
             998     2.83889E-03     143.308E-03    -119.177E+06    -276.459E+06    -99.7311E+06     25.2237E+03    -238.634E-03     476.260E-03    -237.626E-03     85.6702E-03    -239.775E-03     476.286E-03    -237.551E-03     74.2499E-03
             999     3.54831E-03     143.440E-03    -113.504E+06    -250.395E+06    -83.6829E+06     993.058E+03    -238.954E-03     476.555E-03    -237.600E-03     106.687E-03    -240.770E-03     477.321E-03    -237.491E-03     92.1951E-03
            1000     4.25893E-03     143.602E-03    -106.368E+06    -223.285E+06    -65.5716E+06     785.463E+03    -239.474E-03     477.036E-03    -237.562E-03     127.970E-03    -242.152E-03     478.733E-03    -237.411E-03     110.186E-03
            1001     4.96896E-03     143.791E-03    -98.0243E+06    -189.204E+06    -47.1689E+06     886.635E+03    -239.978E-03     477.484E-03    -237.507E-03     149.082E-03    -243.735E-03     480.359E-03    -237.326E-03     127.821E-03
            1002     5.67919E-03     144.009E-03    -89.7283E+06    -148.041E+06    -28.8926E+06     3.59175E+06    -240.232E-03     477.649E-03    -237.417E-03     170.511E-03    -245.321E-03     481.978E-03    -237.217E-03     145.659E-03
            1003     6.38956E-03     144.254E-03    -81.5353E+06    -102.580E+06    -9.76605E+06     7.82317E+06    -240.176E-03     477.451E-03    -237.275E-03     192.312E-03    -246.879E-03     483.528E-03    -237.057E-03     163.770E-03
            1004     7.10110E-03     144.527E-03    -72.5110E+06    -51.1267E+06     9.69272E+06     11.4733E+06    -239.959E-03     477.021E-03    -237.061E-03     214.528E-03    -248.582E-03     485.177E-03    -236.834E-03     182.188E-03
            1005     7.81466E-03     144.829E-03    -63.4538E+06    -3.35937E+06     28.2939E+06     14.6422E+06    -239.517E-03     476.301E-03    -236.784E-03     236.670E-03    -250.337E-03     486.801E-03    -236.545E-03     200.586E-03
            1006     8.52644E-03     145.157E-03    -55.4083E+06     26.2299E+06     46.1828E+06     15.6107E+06    -238.965E-03     475.431E-03    -236.466E-03     258.199E-03    -252.160E-03     488.389E-03    -236.193E-03     218.596E-03
            1007     9.24205E-03     145.511E-03    -48.0604E+06     42.2606E+06     66.0019E+06     13.5736E+06    -238.085E-03     474.202E-03    -236.116E-03     276.686E-03    -253.575E-03     489.479E-03    -235.778E-03     234.199E-03
            1008     9.95691E-03     145.884E-03    -40.2575E+06     51.2117E+06     83.3973E+06     12.3518E+06    -236.624E-03     472.329E-03    -235.705E-03     288.272E-03    -253.845E-03     489.347E-03    -235.304E-03     244.149E-03
            1009     10.6735E-03     146.264E-03    -31.1977E+06     53.4132E+06     94.3692E+06     11.6762E+06    -234.522E-03     469.735E-03    -235.213E-03     291.161E-03    -252.475E-03     487.494E-03    -234.774E-03     247.023E-03
            1010     11.3917E-03     146.635E-03    -22.5159E+06     58.4158E+06     99.6938E+06     8.42001E+06    -232.282E-03     466.924E-03    -234.643E-03     286.205E-03    -249.874E-03     484.355E-03    -234.196E-03     243.475E-03
            1011     12.1122E-03     146.992E-03    -16.1531E+06     64.6450E+06     98.0449E+06     5.39373E+06    -230.679E-03     464.708E-03    -234.030E-03     270.921E-03    -246.454E-03     480.371E-03    -233.610E-03     231.278E-03
            1012     12.8280E-03     147.314E-03    -11.3209E+06     72.1751E+06     98.7814E+06     3.77140E+06    -228.966E-03     462.394E-03    -233.427E-03     258.997E-03    -242.970E-03     476.326E-03    -233.022E-03     222.339E-03
            1013     13.5573E-03     147.634E-03    -6.12175E+06     79.1367E+06     102.222E+06     1.09590E+06    -228.023E-03     460.898E-03    -232.875E-03     210.580E-03    -237.382E-03     470.221E-03    -232.470E-03     182.046E-03
            1014     709.407E-06     144.607E-03    -132.982E+06    -316.980E+06    -131.533E+06    -156.507E+03    -237.617E-03     475.340E-03    -237.723E-03     23.9133E-03    -237.723E-03     474.230E-03    -237.729E-03     20.8549E-03
            1015     1.41941E-03     144.652E-03    -130.612E+06    -311.601E+06    -123.348E+06    -1.72581E+06    -238.244E-03     475.944E-03    -237.700E-03     43.6585E-03    -238.550E-03     475.037E-03    -237.675E-03     37.9728E-03
            1016     2.12898E-03     144.727E-03    -126.628E+06    -301.691E+06    -111.786E+06    -1.99256E+06    -238.599E-03     476.410E-03    -237.811E-03     64.7998E-03    -239.244E-03     475.858E-03    -237.748E-03     56.3139E-03
            1017     2.83772E-03     144.831E-03    -121.425E+06    -278.286E+06    -99.6796E+06    -1.10107E+06    -238.718E-03     476.530E-03    -237.812E-03     86.0086E-03    -239.863E-03     476.545E-03    -237.731E-03     74.6229E-03
            1018     3.54813E-03     144.963E-03    -114.817E+06    -250.073E+06    -85.5560E+06    -1.21129E+06    -239.071E-03     476.819E-03    -237.748E-03     107.366E-03    -240.886E-03     477.587E-03    -237.647E-03     92.8967E-03
            1019     4.25775E-03     145.124E-03    -107.464E+06    -222.833E+06    -68.4747E+06    -1.47325E+06    -239.461E-03     477.138E-03    -237.676E-03     128.575E-03    -242.129E-03     478.832E-03    -237.540E-03     110.849E-03
            1020     4.96802E-03     145.314E-03    -100.424E+06    -192.211E+06    -51.1252E+06    -759.977E+03    -239.581E-03     477.143E-03    -237.562E-03     150.064E-03    -243.321E-03     479.993E-03    -237.393E-03     128.949E-03
            1021     5.67871E-03     145.530E-03    -93.1573E+06    -156.383E+06    -33.7690E+06     1.43784E+06    -239.535E-03     476.913E-03    -237.378E-03     171.974E-03    -244.595E-03     481.186E-03    -237.185E-03     147.346E-03
            1022     6.39105E-03     145.774E-03    -84.7133E+06    -112.551E+06    -15.2954E+06     4.62764E+06    -239.366E-03     476.492E-03    -237.126E-03     193.875E-03    -246.022E-03     482.492E-03    -236.916E-03     165.607E-03
            1023     7.10343E-03     146.046E-03    -75.6161E+06    -61.4397E+06     4.86915E+06     7.78539E+06    -238.902E-03     475.707E-03    -236.804E-03     216.303E-03    -247.460E-03     483.763E-03    -236.581E-03     184.337E-03
            1024     7.81534E-03     146.345E-03    -66.1448E+06    -14.5808E+06     24.0685E+06     11.5212E+06    -238.213E-03     474.619E-03    -236.406E-03     239.107E-03    -248.952E-03     485.001E-03    -236.169E-03     203.518E-03
            1025     8.53180E-03     146.671E-03    -56.5671E+06     23.0199E+06     42.7214E+06     14.8278E+06    -237.519E-03     473.464E-03    -235.944E-03     261.202E-03    -250.623E-03     486.324E-03    -235.682E-03     222.226E-03
            1026     9.24651E-03     147.024E-03    -47.6229E+06     45.6898E+06     62.9367E+06     15.3939E+06    -236.454E-03     471.902E-03    -235.448E-03     280.098E-03    -251.837E-03     487.095E-03    -235.130E-03     238.375E-03
            1027     9.96412E-03     147.393E-03    -39.3085E+06     52.2324E+06     80.9414E+06     13.8988E+06    -234.599E-03     469.489E-03    -234.891E-03     292.893E-03    -251.719E-03     486.421E-03    -234.505E-03     249.661E-03
            1028     10.6837E-03     147.770E-03    -30.8134E+06     57.3831E+06     95.1453E+06     10.9274E+06    -232.304E-03     466.552E-03    -234.248E-03     296.673E-03    -250.208E-03     484.275E-03    -233.811E-03     253.406E-03
            1029     11.4047E-03     148.138E-03    -23.0649E+06     63.7053E+06     103.435E+06     9.06541E+06    -230.530E-03     464.083E-03    -233.554E-03     292.246E-03    -248.144E-03     481.542E-03    -233.095E-03     250.214E-03
            1030     12.1247E-03     148.495E-03    -16.8291E+06     69.5614E+06     102.173E+06     7.25317E+06    -228.841E-03     461.678E-03    -232.837E-03     277.099E-03    -244.665E-03     477.393E-03    -232.403E-03     238.088E-03
            1031     12.8503E-03     148.816E-03    -9.95770E+06     77.8562E+06     104.250E+06     4.57896E+06    -228.314E-03     460.502E-03    -232.188E-03     263.027E-03    -242.380E-03     474.507E-03    -231.765E-03     226.604E-03
            1032     13.5672E-03     149.124E-03    -4.99026E+06     83.5689E+06     106.341E+06     2.46993E+06    -229.397E-03     461.085E-03    -231.687E-03     215.788E-03    -238.898E-03     470.556E-03    -231.270E-03     186.967E-03
            1033     709.874E-06     146.130E-03    -136.636E+06    -314.723E+06    -134.777E+06    -822.409E+03    -238.099E-03     475.650E-03    -237.550E-03     24.3172E-03    -238.221E-03     474.561E-03    -237.570E-03     21.2789E-03
            1034     1.41882E-03     146.177E-03    -133.626E+06    -307.485E+06    -125.678E+06    -797.934E+03    -238.128E-03     475.923E-03    -237.795E-03     44.1588E-03    -238.450E-03     475.044E-03    -237.784E-03     38.5316E-03
            1035     2.12787E-03     146.251E-03    -129.210E+06    -298.832E+06    -112.372E+06    -1.90527E+06    -238.277E-03     476.081E-03    -237.804E-03     65.2201E-03    -238.932E-03     475.543E-03    -237.745E-03     56.8245E-03
            1036     2.83860E-03     146.354E-03    -122.926E+06    -276.845E+06    -99.8937E+06    -3.27605E+06    -238.516E-03     476.247E-03    -237.731E-03     86.7378E-03    -239.664E-03     476.266E-03    -237.651E-03     75.4276E-03
            1037     3.54806E-03     146.486E-03    -116.230E+06    -248.706E+06    -86.5538E+06    -3.49180E+06    -238.836E-03     476.456E-03    -237.620E-03     108.556E-03    -240.650E-03     477.225E-03    -237.524E-03     94.1904E-03
            1038     4.25831E-03     146.647E-03    -109.558E+06    -223.173E+06    -70.7536E+06    -2.89789E+06    -238.848E-03     476.322E-03    -237.474E-03     130.278E-03    -241.509E-03     478.007E-03    -237.345E-03     112.754E-03
            1039     4.96928E-03     146.834E-03    -101.947E+06    -193.750E+06    -53.5962E+06    -2.12212E+06    -238.718E-03     475.969E-03    -237.251E-03     152.199E-03    -242.440E-03     478.797E-03    -237.090E-03     131.362E-03
            1040     5.68162E-03     147.050E-03    -93.4043E+06    -161.385E+06    -35.7679E+06    -948.135E+03    -238.551E-03     475.508E-03    -236.957E-03     174.163E-03    -243.565E-03     479.721E-03    -236.766E-03     149.881E-03
            1041     6.39323E-03     147.293E-03    -84.4428E+06    -119.995E+06    -17.7027E+06     1.08998E+06    -238.012E-03     474.589E-03    -236.578E-03     196.562E-03    -244.594E-03     480.497E-03    -236.370E-03     168.764E-03
            1042     7.10671E-03     147.562E-03    -75.0112E+06    -71.5369E+06     2.12446E+06     4.91765E+06    -237.166E-03     473.268E-03    -236.102E-03     219.773E-03    -245.622E-03     481.198E-03    -235.879E-03     188.458E-03
            1043     7.82381E-03     147.859E-03    -66.1974E+06    -25.9489E+06     21.6186E+06     9.67416E+06    -236.456E-03     471.998E-03    -235.542E-03     243.439E-03    -247.083E-03     482.235E-03    -235.300E-03     208.616E-03
            1044     8.53848E-03     148.183E-03    -57.9228E+06     15.9256E+06     39.5600E+06     12.8255E+06    -235.481E-03     470.385E-03    -234.904E-03     266.376E-03    -248.467E-03     483.107E-03    -234.646E-03     228.316E-03
            1045     9.25774E-03     148.532E-03    -49.2572E+06     42.9031E+06     58.1521E+06     14.4781E+06    -233.977E-03     468.181E-03    -234.204E-03     286.570E-03    -249.246E-03     483.258E-03    -233.904E-03     245.952E-03
            1046     9.97796E-03     148.899E-03    -41.0222E+06     55.6493E+06     77.9607E+06     13.8070E+06    -232.236E-03     465.692E-03    -233.457E-03     299.993E-03    -249.276E-03     482.558E-03    -233.088E-03     257.871E-03
            1047     10.7001E-03     149.271E-03    -33.8318E+06     62.0280E+06     94.9555E+06     11.7247E+06    -230.516E-03     463.197E-03    -232.681E-03     304.173E-03    -248.393E-03     480.898E-03    -232.247E-03     261.882E-03
            1048     11.4226E-03     149.641E-03    -26.9163E+06     68.1197E+06     105.598E+06     8.73512E+06    -229.199E-03     461.104E-03    -231.905E-03     300.309E-03    -246.858E-03     478.603E-03    -231.437E-03     259.053E-03
            1049     12.1470E-03     149.994E-03    -19.2143E+06     73.9527E+06     104.562E+06     5.95708E+06    -228.578E-03     459.738E-03    -231.160E-03     283.833E-03    -244.472E-03     475.523E-03    -230.716E-03     245.240E-03
            1050     12.8675E-03     150.310E-03    -10.9979E+06     79.7612E+06     105.486E+06     4.31266E+06    -230.196E-03     460.779E-03    -230.582E-03     270.568E-03    -244.431E-03     474.952E-03    -230.155E-03     233.942E-03
            1051     13.5889E-03     150.637E-03    -4.67279E+06     87.9101E+06     109.051E+06     3.11231E+06    -230.665E-03     460.868E-03    -230.203E-03     223.342E-03    -240.381E-03     470.563E-03    -229.778E-03     194.118E-03
            1052     709.043E-06     147.654E-03    -140.814E+06    -312.112E+06    -138.884E+06    -447.078E+03    -237.946E-03     475.123E-03    -237.177E-03     24.5164E-03    -238.086E-03     474.059E-03    -237.215E-03     21.5218E-03
            1053     1.41917E-03     147.700E-03    -138.243E+06    -303.998E+06    -131.624E+06    -1.69411E+06    -237.482E-03     474.916E-03    -237.434E-03     45.1312E-03    -237.821E-03     474.067E-03    -237.451E-03     39.6051E-03
            1054     2.12979E-03     147.775E-03    -133.145E+06    -291.594E+06    -119.202E+06    -3.73449E+06    -237.577E-03     474.879E-03    -237.302E-03     66.4963E-03    -238.249E-03     474.388E-03    -237.282E-03     58.2228E-03
            1055     2.83911E-03     147.876E-03    -126.989E+06    -272.657E+06    -103.538E+06    -5.50448E+06    -237.855E-03     475.028E-03    -237.173E-03     88.6218E-03    -239.019E-03     475.073E-03    -237.111E-03     77.4633E-03
            1056     3.54988E-03     148.009E-03    -120.052E+06    -247.872E+06    -87.8909E+06    -5.66928E+06    -237.810E-03     474.802E-03    -236.992E-03     110.700E-03    -239.628E-03     475.568E-03    -236.898E-03     96.5852E-03
            1057     4.26138E-03     148.167E-03    -112.150E+06    -221.694E+06    -72.3082E+06    -5.77502E+06    -237.555E-03     474.273E-03    -236.718E-03     132.691E-03    -240.203E-03     475.946E-03    -236.596E-03     115.504E-03
            1058     4.97371E-03     148.354E-03    -103.946E+06    -194.047E+06    -56.0692E+06    -5.70539E+06    -237.310E-03     473.671E-03    -236.361E-03     155.199E-03    -240.997E-03     476.463E-03    -236.210E-03     134.796E-03
            1059     5.68571E-03     148.567E-03    -95.3688E+06    -164.052E+06    -39.1082E+06    -5.04659E+06    -236.706E-03     472.622E-03    -235.916E-03     178.196E-03    -241.669E-03     476.777E-03    -235.735E-03     154.500E-03
            1060     6.40091E-03     148.808E-03    -86.3778E+06    -125.445E+06    -20.8637E+06    -3.32619E+06    -235.758E-03     471.112E-03    -235.354E-03     201.622E-03    -242.269E-03     476.931E-03    -235.151E-03     174.578E-03
            1061     7.11764E-03     149.074E-03    -77.8456E+06     -84.003E+06    -2.29182E+06     957.808E+03    -234.916E-03     469.605E-03    -234.689E-03     225.648E-03    -243.269E-03     477.389E-03    -234.466E-03     195.229E-03
            1062     7.83341E-03     149.368E-03    -68.5317E+06    -37.9054E+06     16.8140E+06     6.38337E+06    -233.895E-03     467.825E-03    -233.930E-03     250.350E-03    -244.391E-03     477.894E-03    -233.692E-03     216.622E-03
            1063     8.55463E-03     149.691E-03    -58.9649E+06     7.48702E+06     35.6217E+06     11.3295E+06    -232.489E-03     465.561E-03    -233.072E-03     274.336E-03    -245.327E-03     478.113E-03    -232.819E-03     237.587E-03
            1064     9.27595E-03     150.035E-03    -51.2290E+06     39.7849E+06     52.9399E+06     13.7648E+06    -231.160E-03     463.304E-03    -232.144E-03     295.296E-03    -246.288E-03     478.237E-03    -231.862E-03     256.061E-03
            1065     10.0001E-03     150.400E-03    -43.5024E+06     57.7505E+06      72.319E+06     13.2884E+06    -230.080E-03     461.298E-03    -231.218E-03     309.473E-03    -247.008E-03     478.066E-03    -230.877E-03     268.663E-03
            1066     10.7243E-03     150.771E-03    -34.7028E+06     64.6843E+06     92.8517E+06     12.0325E+06    -229.262E-03     459.616E-03    -230.355E-03     314.390E-03    -247.088E-03     477.279E-03    -229.934E-03     273.208E-03
            1067     11.4500E-03     151.138E-03    -25.9760E+06     74.7757E+06     108.713E+06     9.97755E+06    -229.017E-03     458.586E-03    -229.570E-03     310.541E-03    -246.687E-03     476.114E-03    -229.097E-03     270.113E-03
            1068     12.1736E-03     151.491E-03    -18.3769E+06     79.7827E+06     109.696E+06     7.60805E+06    -230.267E-03     459.170E-03    -228.904E-03     295.234E-03    -246.313E-03     475.116E-03    -228.444E-03     256.910E-03
            1069     12.8950E-03     151.816E-03    -12.7201E+06     83.6828E+06     107.633E+06     4.66665E+06    -233.024E-03     461.494E-03    -228.470E-03     283.145E-03    -247.640E-03     476.050E-03    -228.034E-03     246.093E-03
            1070     13.6147E-03     152.135E-03    -5.88221E+06     91.0914E+06     110.791E+06     2.16579E+06    -235.640E-03     463.978E-03    -228.338E-03     230.793E-03    -245.696E-03     474.016E-03    -227.907E-03     200.621E-03
            1071     710.640E-06     149.176E-03    -140.327E+06    -306.816E+06    -139.288E+06    -1.87286E+06    -236.312E-03     472.849E-03    -236.536E-03     25.1930E-03    -236.455E-03     471.810E-03    -236.585E-03     22.2695E-03
            1072     1.42079E-03     149.222E-03    -137.295E+06    -297.030E+06    -132.474E+06    -3.63528E+06    -236.383E-03     472.666E-03    -236.282E-03     46.1594E-03    -236.722E-03     471.847E-03    -236.315E-03     40.7617E-03
            1073     2.13123E-03     149.294E-03    -133.311E+06    -283.677E+06    -121.305E+06    -5.45623E+06    -236.379E-03     472.504E-03    -236.125E-03     68.1212E-03    -237.055E-03     472.051E-03    -236.126E-03     60.0255E-03
            1074     2.84320E-03     149.398E-03    -128.085E+06    -266.113E+06    -106.071E+06    -7.05346E+06    -236.192E-03     472.098E-03    -235.906E-03     90.7554E-03    -237.351E-03     472.165E-03    -235.865E-03     79.9050E-03
            1075     3.55485E-03     149.527E-03    -121.245E+06    -243.968E+06    -89.7469E+06    -8.44773E+06    -235.783E-03     471.358E-03    -235.575E-03     113.517E-03    -237.580E-03     472.119E-03    -235.494E-03     99.8441E-03
            1076     4.26748E-03     149.685E-03    -113.715E+06    -218.416E+06    -73.9474E+06    -8.99464E+06    -235.353E-03     470.482E-03    -235.130E-03     136.876E-03    -237.975E-03     472.139E-03    -235.018E-03     120.247E-03
            1077     4.98092E-03     149.869E-03    -105.792E+06    -192.743E+06    -57.8108E+06    -9.00640E+06    -234.694E-03     469.276E-03    -234.583E-03     160.661E-03    -238.340E-03     472.030E-03    -234.439E-03     140.990E-03
            1078     5.69757E-03     150.080E-03    -97.7687E+06    -163.591E+06    -41.5006E+06    -8.59563E+06    -233.674E-03     467.588E-03    -233.914E-03     184.472E-03    -238.569E-03     471.674E-03    -233.742E-03     161.711E-03
            1079     6.41444E-03     150.316E-03    -89.8588E+06    -130.177E+06    -24.6410E+06    -6.86749E+06    -232.697E-03     465.826E-03    -233.129E-03     208.980E-03    -239.113E-03     471.532E-03    -232.934E-03     183.031E-03
            1080     7.13278E-03     150.581E-03    -80.6926E+06    -94.6589E+06    -6.49177E+06    -3.76544E+06    -231.672E-03     463.922E-03    -232.251E-03     234.432E-03    -239.898E-03     471.543E-03    -232.029E-03     205.274E-03
            1081     7.85547E-03     150.872E-03    -70.9187E+06    -50.4442E+06     12.5628E+06     1.36989E+06    -230.339E-03     461.600E-03    -231.261E-03     260.348E-03    -240.676E-03     471.468E-03    -231.022E-03     228.097E-03
            1082     8.57803E-03     151.189E-03    -61.9371E+06    -5.53271E+06     31.2252E+06     8.02412E+06    -229.272E-03     459.453E-03    -230.181E-03     285.353E-03    -241.939E-03     471.788E-03    -229.927E-03     250.186E-03
            1083     9.30432E-03     151.533E-03    -52.9232E+06     36.2619E+06     49.5135E+06     12.7592E+06    -228.670E-03     457.743E-03    -229.073E-03     306.958E-03    -243.635E-03     472.504E-03    -228.801E-03     269.294E-03
            1084     10.0309E-03     151.894E-03    -44.3147E+06     60.4806E+06     67.4228E+06     12.7355E+06    -228.375E-03     456.399E-03    -228.024E-03     321.872E-03    -245.171E-03     473.056E-03    -227.710E-03     282.526E-03
            1085     10.7594E-03     152.266E-03    -36.0534E+06     67.1710E+06     87.0426E+06     9.74546E+06    -228.793E-03     455.916E-03    -227.123E-03     327.323E-03    -246.542E-03     473.523E-03    -226.733E-03     287.321E-03
            1086     11.4854E-03     152.633E-03    -27.0319E+06     75.8367E+06     105.792E+06     8.88356E+06    -230.447E-03     456.871E-03    -226.424E-03     323.791E-03    -248.175E-03     474.465E-03    -225.966E-03     283.996E-03
            1087     12.2103E-03     152.991E-03    -18.2348E+06     84.8020E+06     115.081E+06     7.71600E+06    -233.560E-03     459.537E-03    -225.977E-03     308.459E-03    -249.853E-03     475.733E-03    -225.498E-03     270.078E-03
            1088     12.9321E-03     153.319E-03    -10.6232E+06     91.6026E+06     115.045E+06     4.90501E+06    -239.143E-03     465.008E-03    -225.865E-03     293.450E-03    -254.099E-03     479.920E-03    -225.407E-03     255.523E-03
            1089     13.6473E-03     153.649E-03    -5.45692E+06     94.2773E+06     112.780E+06     3.85577E+06    -246.268E-03     472.493E-03    -226.224E-03     238.557E-03    -256.644E-03     482.859E-03    -225.789E-03     206.849E-03
            1090     711.459E-06     150.694E-03    -137.379E+06    -296.846E+06    -136.435E+06    -3.23248E+06    -234.145E-03     468.593E-03    -234.447E-03     26.1048E-03    -234.290E-03     467.592E-03    -234.500E-03     23.3066E-03
            1091     1.42371E-03     150.738E-03    -135.044E+06    -288.862E+06    -129.161E+06    -4.78372E+06    -234.211E-03     468.343E-03    -234.132E-03     47.8696E-03    -234.552E-03     467.552E-03    -234.163E-03     42.6740E-03
            1092     2.13605E-03     150.812E-03    -131.110E+06    -275.405E+06    -118.956E+06    -6.28622E+06    -233.981E-03     467.876E-03    -233.896E-03     71.1297E-03    -234.651E-03     467.448E-03    -233.901E-03     63.3768E-03
            1093     2.84827E-03     150.911E-03    -126.036E+06    -257.289E+06    -106.113E+06    -8.33671E+06    -233.353E-03     466.875E-03    -233.522E-03     94.5273E-03    -234.493E-03     466.960E-03    -233.497E-03     84.1834E-03
            1094     3.56299E-03     151.040E-03    -119.871E+06    -237.274E+06    -90.4385E+06    -9.92095E+06    -232.499E-03     465.490E-03    -232.991E-03     118.395E-03    -234.262E-03     466.246E-03    -232.925E-03     105.405E-03
            1095     4.27894E-03     151.194E-03    -113.329E+06    -213.879E+06    -74.1239E+06    -10.6741E+06    -231.646E-03     463.961E-03    -232.315E-03     142.989E-03    -234.214E-03     465.582E-03    -232.212E-03     127.253E-03
            1096     4.99695E-03     151.376E-03    -106.152E+06    -189.571E+06    -57.9716E+06    -10.9818E+06    -230.620E-03     462.136E-03    -231.516E-03     167.771E-03    -234.187E-03     464.820E-03    -231.378E-03     149.205E-03
            1097     5.71501E-03     151.583E-03    -98.7084E+06    -162.159E+06    -41.6967E+06    -10.1324E+06    -229.467E-03     460.064E-03    -230.597E-03     192.972E-03    -234.253E-03     464.043E-03    -230.427E-03     171.529E-03
            1098     6.43663E-03     151.817E-03    -90.7065E+06    -132.002E+06    -25.1046E+06    -9.06617E+06    -228.376E-03     457.943E-03    -229.567E-03     219.445E-03    -234.655E-03     463.503E-03    -229.370E-03     195.018E-03
            1099     7.16059E-03     152.079E-03    -82.7416E+06    -99.0381E+06    -8.02055E+06    -7.01781E+06    -227.195E-03     455.634E-03    -228.439E-03     246.226E-03    -235.251E-03     463.065E-03    -228.216E-03     218.797E-03
            1100     7.88546E-03     152.364E-03    -74.9826E+06    -61.0465E+06     9.09284E+06    -3.02886E+06    -226.333E-03     453.561E-03    -227.228E-03     273.245E-03    -236.468E-03     463.185E-03    -226.985E-03     242.820E-03
            1101     8.61471E-03     152.681E-03    -65.0720E+06    -19.1453E+06     27.4675E+06     1.78327E+06    -226.161E-03     452.150E-03    -225.988E-03     299.499E-03    -238.605E-03     464.213E-03    -225.729E-03     266.143E-03
            1102     9.34367E-03     153.022E-03    -53.3320E+06     25.4929E+06     46.2609E+06     7.80270E+06    -226.615E-03     451.399E-03    -224.784E-03     322.110E-03    -241.373E-03     465.921E-03    -224.512E-03     286.170E-03
            1103     10.0746E-03     153.384E-03    -43.0629E+06     61.6141E+06     63.9009E+06     11.6751E+06    -227.912E-03     451.623E-03    -223.711E-03     337.507E-03    -244.579E-03     468.170E-03    -223.419E-03     299.610E-03
            1104     10.8039E-03     153.755E-03    -34.8732E+06     73.1289E+06     81.3198E+06     10.5115E+06    -230.328E-03     453.235E-03    -222.907E-03     342.751E-03    -248.051E-03     470.858E-03    -222.556E-03     303.724E-03
            1105     11.5324E-03     154.129E-03    -27.3282E+06     75.8504E+06     102.184E+06     8.09087E+06    -234.576E-03     457.058E-03    -222.482E-03     338.189E-03    -252.430E-03     474.789E-03    -222.041E-03     298.602E-03
            1106     12.2552E-03     154.491E-03    -19.6665E+06     89.5766E+06     120.024E+06     6.75909E+06    -241.362E-03     463.867E-03    -222.504E-03     320.352E-03    -257.931E-03     480.338E-03    -222.006E-03     281.183E-03
            1107     12.9693E-03     154.831E-03    -12.7013E+06     94.8980E+06     118.987E+06     5.33973E+06    -250.847E-03     473.862E-03    -223.015E-03     302.406E-03    -266.167E-03     489.133E-03    -222.539E-03     262.649E-03
            1108     13.6751E-03     155.175E-03    -6.24905E+06     97.7045E+06     114.915E+06     3.97552E+06    -260.548E-03     484.664E-03    -224.117E-03     244.999E-03    -271.258E-03     495.371E-03    -223.675E-03     211.102E-03
            1109     714.247E-06     152.203E-03    -135.688E+06    -285.701E+06    -133.485E+06    -2.67785E+06    -230.959E-03     461.445E-03    -230.486E-03     27.3843E-03    -231.114E-03     460.490E-03    -230.543E-03     24.7710E-03
            1110     1.42844E-03     152.247E-03    -132.746E+06    -279.138E+06    -126.467E+06    -5.00881E+06    -230.260E-03     460.718E-03    -230.458E-03     50.5778E-03    -230.601E-03     459.961E-03    -230.493E-03     45.7171E-03
            1111     2.14370E-03     152.319E-03    -129.021E+06    -265.793E+06    -116.485E+06    -7.35980E+06    -229.645E-03     459.667E-03    -230.022E-03     75.1179E-03    -230.302E-03     459.258E-03    -230.032E-03     67.9236E-03
            1112     2.86072E-03     152.417E-03    -123.831E+06    -248.259E+06    -103.488E+06    -9.02439E+06    -228.786E-03     458.224E-03    -229.438E-03     99.9522E-03    -229.899E-03     458.313E-03    -229.416E-03     90.3657E-03
            1113     3.57807E-03     152.541E-03    -118.193E+06    -229.849E+06    -88.3391E+06    -10.2587E+06    -227.780E-03     456.488E-03    -228.708E-03     125.364E-03    -229.500E-03     457.226E-03    -228.645E-03     113.313E-03
            1114     4.29765E-03     152.693E-03    -111.526E+06    -208.332E+06    -72.2637E+06    -11.2050E+06    -226.474E-03     454.294E-03    -227.820E-03     151.144E-03    -228.962E-03     455.853E-03    -227.718E-03     136.611E-03
            1115     5.01864E-03     152.871E-03    -104.535E+06    -184.981E+06    -55.5629E+06    -11.2013E+06    -224.943E-03     451.711E-03    -226.767E-03     177.494E-03    -228.389E-03     454.286E-03    -226.625E-03     160.433E-03
            1116     5.74394E-03     153.075E-03    -96.6722E+06    -159.662E+06    -39.0052E+06    -11.1917E+06    -223.740E-03     449.318E-03    -225.578E-03     204.863E-03    -228.374E-03     453.152E-03    -225.401E-03     185.134E-03
            1117     6.47006E-03     153.306E-03    -88.4948E+06    -131.777E+06    -22.6980E+06     -9.8912E+06    -222.709E-03     447.004E-03    -224.295E-03     232.681E-03    -228.780E-03     452.355E-03    -224.090E-03     210.221E-03
            1118     7.19889E-03     153.562E-03    -80.2376E+06    -100.215E+06    -5.67697E+06    -7.18189E+06    -222.018E-03     444.970E-03    -222.952E-03     260.895E-03    -229.820E-03     452.144E-03    -222.719E-03     235.612E-03
            1119     7.93110E-03     153.848E-03    -70.6312E+06    -66.0512E+06     12.0143E+06    -4.71068E+06    -222.315E-03     443.917E-03    -221.602E-03     289.522E-03    -232.169E-03     453.247E-03    -221.343E-03     261.228E-03
            1120     8.66282E-03     154.161E-03    -61.1897E+06    -27.0319E+06     29.4585E+06    -1.14311E+06    -223.448E-03     443.754E-03    -220.306E-03     316.700E-03    -235.608E-03     455.513E-03    -220.031E-03     285.383E-03
            1121     9.39744E-03     154.503E-03    -52.9899E+06     13.4221E+06     44.8827E+06     3.95527E+06    -225.790E-03     444.933E-03    -219.143E-03     339.874E-03    -240.321E-03     459.192E-03    -218.861E-03     305.663E-03
            1122     10.1305E-03     154.867E-03    -44.8782E+06     56.6561E+06     61.3534E+06     8.91427E+06    -229.698E-03     447.942E-03    -218.244E-03     354.874E-03    -246.261E-03     464.369E-03    -217.954E-03     318.150E-03
            1123     10.8615E-03     155.246E-03    -37.1103E+06     77.7315E+06     78.9448E+06     9.53500E+06    -235.342E-03     453.131E-03    -217.789E-03     358.573E-03    -253.137E-03     470.844E-03    -217.453E-03     319.894E-03
            1124     11.5860E-03     155.624E-03    -29.6393E+06     79.2232E+06     100.479E+06     7.17246E+06    -243.649E-03     461.578E-03    -217.929E-03     352.038E-03    -261.717E-03     479.535E-03    -217.499E-03     311.779E-03
            1125     12.3028E-03     156.004E-03    -22.0534E+06     91.0729E+06     121.292E+06     6.51218E+06    -254.323E-03     473.039E-03    -218.716E-03     332.115E-03    -271.247E-03     489.863E-03    -218.210E-03     291.208E-03
            1126     13.0086E-03     156.360E-03    -13.9545E+06     98.6654E+06     122.967E+06     5.67761E+06    -267.288E-03     487.410E-03    -220.123E-03     312.654E-03    -283.149E-03     503.223E-03    -219.631E-03     270.003E-03
            1127     13.7034E-03     156.724E-03    -6.40089E+06     103.888E+06     118.750E+06     2.76622E+06    -279.586E-03     501.780E-03    -222.194E-03     252.070E-03    -290.759E-03     512.962E-03    -221.742E-03     215.088E-03
            1128     717.748E-06     153.699E-03    -131.626E+06    -274.959E+06    -130.993E+06    -2.85228E+06    -225.158E-03     449.966E-03    -224.808E-03     28.7237E-03    -225.309E-03     449.050E-03    -224.873E-03     26.3522E-03
            1129     1.43681E-03     153.742E-03    -129.164E+06    -267.785E+06    -123.541E+06    -5.30234E+06    -224.253E-03     448.883E-03    -224.631E-03     53.8315E-03    -224.582E-03     448.158E-03    -224.673E-03     49.4676E-03
            1130     2.15652E-03     153.811E-03    -125.278E+06    -255.404E+06    -112.107E+06    -7.93101E+06    -223.229E-03     447.257E-03    -224.028E-03     79.8829E-03    -223.860E-03     446.857E-03    -224.036E-03     73.4094E-03
            1131     2.87736E-03     153.906E-03    -119.789E+06    -239.897E+06    -97.9098E+06    -9.68096E+06    -222.121E-03     445.366E-03    -223.245E-03     106.388E-03    -223.181E-03     445.428E-03    -223.213E-03     97.7842E-03
            1132     3.60078E-03     154.028E-03    -112.966E+06    -222.087E+06    -82.4650E+06    -10.8357E+06    -220.832E-03     443.131E-03    -222.299E-03     133.649E-03    -222.459E-03     443.802E-03    -222.226E-03     122.878E-03
            1133     4.32546E-03     154.176E-03    -105.547E+06    -202.592E+06    -66.1570E+06    -11.1984E+06    -219.158E-03     440.331E-03    -221.172E-03     161.648E-03    -221.512E-03     441.776E-03    -221.056E-03     148.690E-03
            1134     5.05421E-03     154.349E-03    -97.4115E+06    -180.578E+06    -49.5303E+06    -11.0147E+06    -217.665E-03     437.538E-03    -219.873E-03     190.318E-03    -220.932E-03     439.955E-03    -219.717E-03     175.089E-03
            1135     5.78398E-03     154.549E-03    -89.7523E+06    -156.184E+06    -33.4253E+06    -10.5747E+06    -216.643E-03     435.104E-03    -218.462E-03     219.552E-03    -221.043E-03     438.722E-03    -218.272E-03     201.931E-03
            1136     6.51733E-03     154.777E-03    -82.0095E+06    -130.320E+06    -17.5351E+06    -9.09681E+06    -216.163E-03     433.164E-03    -217.001E-03     248.944E-03    -221.944E-03     438.236E-03    -216.781E-03     228.800E-03
            1137     7.25299E-03     155.031E-03    -73.4596E+06    -100.403E+06    -1.11733E+06    -7.39426E+06    -216.764E-03     432.320E-03    -215.556E-03     278.927E-03    -224.241E-03     439.177E-03    -215.309E-03     256.000E-03
            1138     7.98913E-03     155.316E-03    -66.0436E+06    -68.6393E+06     15.7997E+06    -4.24549E+06    -218.703E-03     432.914E-03    -214.211E-03     308.642E-03    -228.222E-03     441.905E-03    -213.937E-03     282.666E-03
            1139     8.72766E-03     155.631E-03    -60.1573E+06    -31.5829E+06     32.8487E+06     504.017E+03    -222.267E-03     435.323E-03    -213.056E-03     336.125E-03    -234.142E-03     446.774E-03    -212.759E-03     306.837E-03
            1140     9.46398E-03     155.976E-03    -54.1474E+06     7.19830E+06     49.4543E+06     4.82537E+06    -227.796E-03     440.004E-03    -212.208E-03     358.788E-03    -242.144E-03     454.043E-03    -211.893E-03     326.007E-03
            1141     10.1980E-03     156.348E-03    -47.4018E+06     53.2607E+06     66.9652E+06     7.98357E+06    -235.204E-03     447.007E-03    -211.803E-03     372.234E-03    -251.738E-03     463.370E-03    -211.477E-03     336.109E-03
            1142     10.9256E-03     156.736E-03    -39.9909E+06     81.6935E+06     82.4483E+06     7.91040E+06    -245.139E-03     457.153E-03    -212.014E-03     374.196E-03    -263.083E-03     475.012E-03    -211.663E-03     335.046E-03
            1143     11.6447E-03     157.132E-03    -31.9941E+06     82.7535E+06     99.2121E+06     5.84834E+06    -257.946E-03     470.958E-03    -213.012E-03     366.167E-03    -276.354E-03     489.266E-03    -212.589E-03     324.207E-03
            1144     12.3514E-03     157.530E-03    -23.1608E+06     92.2494E+06     119.311E+06     3.93010E+06    -272.116E-03     486.941E-03    -214.825E-03     344.033E-03    -289.593E-03     504.328E-03    -214.329E-03     300.145E-03
            1145     13.0459E-03     157.908E-03    -13.6712E+06     101.065E+06     122.916E+06     2.27913E+06    -287.945E-03     505.298E-03    -217.353E-03     321.711E-03    -304.438E-03     521.755E-03    -216.865E-03     275.056E-03
            1146     13.7258E-03     158.302E-03    -6.10752E+06     107.394E+06     118.647E+06     1.95395E+06    -301.547E-03     522.099E-03    -220.552E-03     257.564E-03    -313.060E-03     533.636E-03    -220.106E-03     217.324E-03
            1147     724.308E-06     155.175E-03    -123.579E+06    -262.645E+06    -121.571E+06    -3.52386E+06    -216.320E-03     433.092E-03    -216.773E-03     31.3147E-03    -216.457E-03     432.204E-03    -216.820E-03     29.2805E-03
            1148     1.44846E-03     155.215E-03    -120.565E+06    -256.283E+06    -114.439E+06    -6.18902E+06    -215.800E-03     431.960E-03    -216.160E-03     57.7376E-03    -216.098E-03     431.244E-03    -216.186E-03     53.9740E-03
            1149     2.17462E-03     155.282E-03    -115.985E+06    -245.289E+06    -103.359E+06    -7.91945E+06    -214.488E-03     429.958E-03    -215.470E-03     85.7669E-03    -215.059E-03     429.538E-03    -215.463E-03     80.2029E-03
            1150     2.90282E-03     155.374E-03    -110.621E+06    -231.052E+06    -89.8520E+06    -9.75579E+06    -212.980E-03     427.492E-03    -214.512E-03     114.743E-03    -213.946E-03     427.496E-03    -214.466E-03     107.369E-03
            1151     3.63221E-03     155.492E-03    -104.611E+06    -214.997E+06    -75.0208E+06    -10.7402E+06    -211.216E-03     424.547E-03    -213.331E-03     144.208E-03    -212.704E-03     425.108E-03    -213.243E-03     135.012E-03
            1152     4.36589E-03     155.634E-03    -97.9816E+06    -197.061E+06    -59.9680E+06    -11.0511E+06    -209.678E-03     421.643E-03    -211.965E-03     174.280E-03    -211.840E-03     422.922E-03    -211.837E-03     163.196E-03
            1153     5.10083E-03     155.805E-03    -91.4472E+06    -176.532E+06    -45.2760E+06    -10.8627E+06    -208.750E-03     419.240E-03    -210.490E-03     205.256E-03    -211.770E-03     421.431E-03    -210.328E-03     192.168E-03
            1154     5.83938E-03     156.002E-03    -84.6756E+06    -153.271E+06    -29.8876E+06    -9.24233E+06    -208.456E-03     417.433E-03    -208.977E-03     236.547E-03    -212.546E-03     420.756E-03    -208.782E-03     221.327E-03
            1155     6.57997E-03     156.226E-03    -78.1967E+06    -127.978E+06    -13.9608E+06    -7.83095E+06    -209.464E-03     416.969E-03    -207.505E-03     267.843E-03    -214.899E-03     421.705E-03    -207.276E-03     250.186E-03
            1156     7.32152E-03     156.481E-03    -73.2052E+06    -100.520E+06     1.42848E+06    -5.41291E+06    -212.244E-03     418.423E-03    -206.179E-03     298.832E-03    -219.356E-03     424.908E-03    -205.920E-03     278.361E-03
            1157     8.06445E-03     156.768E-03    -68.6420E+06    -71.5687E+06     17.6217E+06    -1.27254E+06    -216.937E-03     422.047E-03    -205.110E-03     328.739E-03    -226.107E-03     430.665E-03    -204.819E-03     304.991E-03
            1158     8.80479E-03     157.089E-03    -62.7804E+06    -35.4967E+06     35.4561E+06     3.17343E+06    -224.051E-03     428.458E-03    -204.407E-03     355.803E-03    -235.638E-03     439.593E-03    -204.087E-03     328.227E-03
            1159     9.54220E-03     157.444E-03    -56.1160E+06     5.21795E+06     54.8312E+06     6.82086E+06    -233.572E-03     437.778E-03    -204.207E-03     377.403E-03    -247.769E-03     451.640E-03    -203.859E-03     345.546E-03
            1160     10.2729E-03     157.828E-03    -48.4747E+06     55.7951E+06     74.8301E+06     8.55565E+06    -245.549E-03     450.189E-03    -204.639E-03     389.679E-03    -262.147E-03     466.602E-03    -204.276E-03     353.357E-03
            1161     10.9952E-03     158.235E-03    -39.8445E+06     86.9967E+06     88.4895E+06     7.27716E+06    -260.227E-03     466.086E-03    -205.859E-03     389.966E-03    -278.462E-03     484.243E-03    -205.485E-03     349.295E-03
            1162     11.7042E-03     158.654E-03    -30.4061E+06     87.1982E+06     100.329E+06     3.98451E+06    -276.937E-03     484.939E-03    -208.003E-03     379.405E-03    -295.827E-03     503.754E-03    -207.584E-03     334.616E-03
            1163     12.3998E-03     159.079E-03    -21.0128E+06     95.8604E+06     117.379E+06     1.30936E+06    -294.536E-03     505.603E-03    -211.068E-03     354.865E-03    -312.612E-03     523.619E-03    -210.589E-03     306.997E-03
            1164     13.0774E-03     159.487E-03    -13.3591E+06     102.752E+06     119.851E+06     371.535E+03    -311.805E-03     526.685E-03    -214.880E-03     330.214E-03    -328.925E-03     543.787E-03    -214.410E-03     278.876E-03
            1165     13.7418E-03     159.909E-03    -6.78238E+06     107.484E+06     115.731E+06     573.197E+03    -323.456E-03     542.706E-03    -219.250E-03     263.764E-03    -335.343E-03     554.624E-03    -218.817E-03     219.979E-03
            1166     732.334E-06     156.622E-03    -115.990E+06    -249.351E+06    -115.650E+06    -3.71334E+06    -205.276E-03     410.370E-03    -205.094E-03     33.7991E-03    -205.397E-03     409.517E-03    -205.143E-03     32.1558E-03
            1167     1.46554E-03     156.661E-03    -114.672E+06    -244.499E+06    -109.000E+06    -6.34258E+06    -204.048E-03     408.737E-03    -204.689E-03     62.1655E-03    -204.316E-03     408.031E-03    -204.713E-03     59.1225E-03
            1168     2.19978E-03     156.724E-03    -111.183E+06    -235.371E+06    -99.5903E+06    -8.60156E+06    -202.699E-03     406.535E-03    -203.835E-03     93.1720E-03    -203.210E-03     406.088E-03    -203.831E-03     88.6792E-03
            1169     2.93607E-03     156.812E-03    -106.698E+06    -222.708E+06    -87.6833E+06    -9.72829E+06    -200.961E-03     403.687E-03    -202.726E-03     124.592E-03    -201.822E-03     403.617E-03    -202.687E-03     118.642E-03
            1170     3.67654E-03     156.925E-03    -101.553E+06    -208.584E+06    -73.9500E+06    -10.5356E+06    -199.406E-03     400.810E-03    -201.403E-03     156.416E-03    -200.735E-03     401.237E-03    -201.324E-03     148.968E-03
            1171     4.41801E-03     157.065E-03    -96.0986E+06    -191.603E+06    -59.6557E+06    -10.5991E+06    -198.587E-03     398.553E-03    -199.966E-03     188.994E-03    -200.528E-03     399.631E-03    -199.847E-03     179.960E-03
            1172     5.16310E-03     157.232E-03    -90.5796E+06    -172.532E+06    -44.5732E+06    -9.37620E+06    -198.646E-03     397.154E-03    -198.509E-03     222.028E-03    -201.373E-03     399.064E-03    -198.350E-03     211.266E-03
            1173     5.90982E-03     157.427E-03    -85.3461E+06    -152.136E+06    -29.2488E+06    -7.49001E+06    -200.206E-03     397.331E-03    -197.125E-03     254.861E-03    -203.941E-03     400.297E-03    -196.927E-03     242.103E-03
            1174     6.65768E-03     157.653E-03    -80.9782E+06    -127.896E+06    -13.5278E+06    -4.05180E+06    -203.811E-03     399.745E-03    -195.934E-03     287.338E-03    -208.848E-03     404.073E-03    -195.699E-03     272.176E-03
            1175     7.40555E-03     157.912E-03    -76.8935E+06    -101.664E+06     3.02873E+06    -51.4867E+03    -209.748E-03     404.812E-03    -195.064E-03     318.748E-03    -216.454E-03     410.871E-03    -194.790E-03     300.618E-03
            1176     8.15044E-03     158.206E-03    -71.9419E+06    -72.2854E+06     20.2003E+06     2.83362E+06    -218.390E-03     413.018E-03    -194.629E-03     348.491E-03    -227.200E-03     421.258E-03    -194.319E-03     326.624E-03
            1177     8.89216E-03     158.539E-03    -65.8514E+06    -37.4026E+06     38.1308E+06     5.30945E+06    -229.671E-03     424.411E-03    -194.740E-03     375.052E-03    -241.007E-03     435.274E-03    -194.399E-03     348.662E-03
            1178     9.62704E-03     158.909E-03    -58.3356E+06     6.04330E+06     57.6487E+06     7.44547E+06    -243.811E-03     439.330E-03    -195.519E-03     395.541E-03    -257.937E-03     453.111E-03    -195.155E-03     363.862E-03
            1179     10.3532E-03     159.314E-03    -49.1631E+06     62.5696E+06     77.6176E+06     7.09178E+06    -260.962E-03     458.064E-03    -197.103E-03     406.249E-03    -277.721E-03     474.659E-03    -196.734E-03     368.746E-03
            1180     11.0652E-03     159.748E-03    -38.7260E+06     93.1430E+06     90.2038E+06     3.66311E+06    -280.142E-03     479.777E-03    -199.635E-03     404.305E-03    -298.788E-03     498.372E-03    -199.263E-03     360.970E-03
            1181     11.7620E-03     160.196E-03    -28.3215E+06     91.4116E+06     99.4453E+06    -120.993E+03    -300.505E-03     503.690E-03    -203.185E-03     391.201E-03    -319.967E-03     523.107E-03    -202.780E-03     342.417E-03
            1182     12.4412E-03     160.655E-03    -19.8343E+06     95.6272E+06     113.920E+06    -1.11103E+06    -319.532E-03     527.197E-03    -207.665E-03     364.647E-03    -338.211E-03     545.833E-03    -207.205E-03     312.062E-03
            1183     13.1045E-03     161.100E-03    -12.1442E+06     102.638E+06     118.659E+06     796.650E+03    -335.498E-03     548.284E-03    -212.786E-03     337.888E-03    -353.120E-03     565.897E-03    -212.324E-03     281.969E-03
            1184     13.7554E-03     161.544E-03    -5.79342E+06     109.512E+06     117.205E+06     534.697E+03    -344.000E-03     562.253E-03    -218.253E-03     269.103E-03    -356.159E-03     574.450E-03    -217.818E-03     222.030E-03
            1185     742.234E-06     158.032E-03    -115.830E+06    -236.612E+06    -114.913E+06    -3.26706E+06    -190.507E-03     380.641E-03    -190.134E-03     36.4513E-03    -190.641E-03     379.833E-03    -190.197E-03     35.2213E-03
            1186     1.48682E-03     158.068E-03    -114.209E+06    -232.484E+06    -109.543E+06    -6.41692E+06    -189.120E-03     378.905E-03    -189.785E-03     67.8732E-03    -189.372E-03     378.221E-03    -189.830E-03     65.5968E-03
            1187     2.23316E-03     158.129E-03    -111.215E+06    -225.160E+06    -100.732E+06    -8.78860E+06    -187.802E-03     376.680E-03    -188.878E-03     101.065E-03    -188.254E-03     376.208E-03    -188.894E-03     97.7037E-03
            1188     2.98166E-03     158.213E-03    -107.145E+06    -215.304E+06    -89.4314E+06    -10.0589E+06    -186.548E-03     374.312E-03    -187.765E-03     134.886E-03    -187.291E-03     374.148E-03    -187.744E-03     130.412E-03
            1189     3.73130E-03     158.323E-03    -102.655E+06    -202.912E+06    -76.3141E+06    -10.0650E+06    -185.967E-03     372.499E-03    -186.533E-03     169.405E-03    -187.109E-03     372.758E-03    -186.471E-03     163.759E-03
            1190     4.48455E-03     158.461E-03    -98.5830E+06    -188.284E+06    -61.7545E+06    -8.48500E+06    -186.490E-03     371.784E-03    -185.294E-03     204.132E-03    -188.168E-03     372.604E-03    -185.186E-03     197.197E-03
            1191     5.23866E-03     158.626E-03    -95.3697E+06    -171.903E+06    -46.5957E+06    -5.72159E+06    -188.741E-03     372.904E-03    -184.164E-03     238.827E-03    -191.135E-03     374.471E-03    -184.009E-03     230.358E-03
            1192     5.99370E-03     158.824E-03    -92.7574E+06    -151.912E+06    -31.1083E+06    -2.60024E+06    -193.289E-03     376.562E-03    -183.273E-03     273.065E-03    -196.645E-03     379.130E-03    -183.074E-03     262.660E-03
            1193     6.74763E-03     159.055E-03    -89.4010E+06    -129.507E+06    -15.2650E+06     412.603E+03    -200.411E-03     383.162E-03    -182.751E-03     306.184E-03    -205.039E-03     387.052E-03    -182.510E-03     293.280E-03
            1194     7.49891E-03     159.324E-03    -83.9006E+06    -103.052E+06     1.79623E+06     3.16996E+06    -210.476E-03     393.193E-03    -182.717E-03     337.837E-03    -216.782E-03     398.830E-03    -182.437E-03     321.644E-03
            1195     8.24596E-03     159.632E-03    -77.5277E+06    -69.5794E+06     19.7458E+06     4.84681E+06    -223.502E-03     406.780E-03    -183.277E-03     367.193E-03    -231.979E-03     414.682E-03    -182.965E-03     346.734E-03
            1196     8.98526E-03     159.983E-03    -69.5977E+06    -34.6241E+06     37.4968E+06     4.51432E+06    -239.596E-03     424.136E-03    -184.540E-03     392.752E-03    -250.732E-03     434.804E-03    -184.202E-03     366.886E-03
            1197     9.71561E-03     160.376E-03    -58.5591E+06     8.18231E+06     56.2920E+06     3.46384E+06    -259.106E-03     445.735E-03    -186.629E-03     411.953E-03    -273.231E-03     459.534E-03    -186.274E-03     379.510E-03
            1198     10.4315E-03     160.812E-03    -46.0931E+06     69.2057E+06     77.0493E+06     2.94183E+06    -280.907E-03     470.566E-03    -189.659E-03     420.774E-03    -297.897E-03     487.436E-03    -189.307E-03     381.097E-03
            1199     11.1321E-03     161.278E-03    -35.2832E+06     101.240E+06     90.4725E+06     956.179E+03    -303.752E-03     497.471E-03    -193.719E-03     417.069E-03    -322.847E-03     516.560E-03    -193.362E-03     370.185E-03
            1200     11.8138E-03     161.765E-03    -27.6877E+06     94.7955E+06     98.5778E+06    -1.69266E+06    -326.371E-03     525.166E-03    -198.795E-03     403.040E-03    -346.457E-03     545.228E-03    -198.400E-03     349.588E-03
            1201     12.4770E-03     162.264E-03    -20.5970E+06     94.7128E+06     111.534E+06    -2.32140E+06    -344.601E-03     549.290E-03    -204.689E-03     375.141E-03    -363.992E-03     568.640E-03    -204.238E-03     317.386E-03
            1202     13.1262E-03     162.735E-03    -13.3248E+06     100.559E+06     116.339E+06    -3.14117E+06    -357.764E-03     568.781E-03    -211.017E-03     346.524E-03    -375.958E-03     586.963E-03    -210.562E-03     285.906E-03
            1203     13.7642E-03     163.214E-03    -5.64092E+06     107.084E+06     116.067E+06    -2.03143E+06    -362.649E-03     580.101E-03    -217.452E-03     274.554E-03    -375.011E-03     592.495E-03    -217.019E-03     224.662E-03
            1204     758.198E-06     159.396E-03    -117.461E+06    -224.794E+06    -117.157E+06    -3.54287E+06    -171.721E-03     343.771E-03    -172.050E-03     39.5168E-03    -171.868E-03     343.011E-03    -172.140E-03     38.6782E-03
            1205     1.51518E-03     159.431E-03    -116.685E+06    -221.008E+06    -111.964E+06    -5.90441E+06    -171.417E-03     342.891E-03    -171.474E-03     73.2798E-03    -171.658E-03     342.225E-03    -171.544E-03     71.7533E-03
            1206     2.27390E-03     159.488E-03    -114.989E+06    -215.747E+06    -104.842E+06    -8.11998E+06    -170.641E-03     341.458E-03    -170.816E-03     109.014E-03    -171.035E-03     340.952E-03    -170.861E-03     106.743E-03
            1207     3.03481E-03     159.570E-03    -113.285E+06    -210.009E+06    -95.3832E+06    -8.31508E+06    -170.579E-03     340.572E-03    -169.993E-03     145.334E-03    -171.202E-03     340.297E-03    -170.001E-03     142.286E-03
            1208     3.79820E-03     159.679E-03    -112.549E+06    -200.310E+06    -83.4334E+06    -6.06079E+06    -171.782E-03     340.957E-03    -169.175E-03     182.041E-03    -172.739E-03     341.022E-03    -169.138E-03     178.132E-03
            1209     4.56143E-03     159.817E-03    -112.221E+06    -188.355E+06    -69.4767E+06    -3.26017E+06    -174.840E-03     343.342E-03    -168.502E-03     218.609E-03    -176.266E-03     343.885E-03    -168.413E-03     213.627E-03
            1210     5.32522E-03     159.987E-03    -110.584E+06    -172.622E+06    -53.8886E+06    -696.823E+03    -180.408E-03     348.518E-03    -168.110E-03     254.761E-03    -182.490E-03     349.739E-03    -167.969E-03     248.340E-03
            1211     6.08705E-03     160.192E-03    -106.739E+06    -151.243E+06    -37.1500E+06     1.33923E+06    -188.788E-03     356.916E-03    -168.128E-03     289.778E-03    -191.779E-03     359.093E-03    -167.940E-03     281.397E-03
            1212     6.84559E-03     160.436E-03    -100.478E+06    -128.118E+06    -20.0952E+06     1.61378E+06    -200.239E-03     368.913E-03    -168.674E-03     323.095E-03    -204.474E-03     372.395E-03    -168.443E-03     312.010E-03
            1213     7.59854E-03     160.720E-03    -92.1508E+06    -102.152E+06    -3.51332E+06     990.051E+03    -214.852E-03     384.695E-03    -169.844E-03     354.540E-03    -220.771E-03     389.941E-03    -169.579E-03     339.786E-03
            1214     8.34329E-03     161.049E-03    -80.3966E+06    -67.4289E+06     14.7973E+06     716.457E+03    -232.621E-03     404.350E-03    -171.729E-03     382.871E-03    -240.749E-03     411.923E-03    -171.441E-03     363.253E-03
            1215     9.07884E-03     161.424E-03    -66.7772E+06    -28.8852E+06     33.8855E+06    -464.572E+03    -254.054E-03     428.499E-03    -174.445E-03     407.330E-03    -264.964E-03     438.989E-03    -174.136E-03     381.322E-03
            1216     9.79969E-03     161.851E-03    -54.2198E+06     13.2052E+06     53.0501E+06    -2.61833E+06    -278.440E-03     456.543E-03    -178.104E-03     425.417E-03    -292.540E-03     470.367E-03    -177.779E-03     391.535E-03
            1217     10.5050E-03     162.323E-03    -43.2457E+06     70.9089E+06     73.9177E+06    -2.09016E+06    -303.927E-03     486.688E-03    -182.760E-03     432.944E-03    -321.127E-03     503.798E-03    -182.431E-03     390.422E-03
            1218     11.1915E-03     162.831E-03    -34.6559E+06     104.122E+06     88.9363E+06    -710.280E+03    -329.090E-03     517.513E-03    -188.423E-03     428.462E-03    -348.625E-03     537.064E-03    -188.079E-03     377.460E-03
            1219     11.8587E-03     163.363E-03    -27.5135E+06     99.9895E+06     99.0025E+06    -1.63492E+06    -351.470E-03     546.454E-03    -194.985E-03     413.259E-03    -372.126E-03     567.107E-03    -194.595E-03     354.987E-03
            1220     12.5097E-03     163.899E-03    -19.6989E+06     99.5592E+06     112.441E+06    -4.63672E+06    -367.722E-03     569.893E-03    -202.171E-03     383.355E-03    -387.656E-03     589.806E-03    -201.725E-03     320.739E-03
            1221     13.1454E-03     164.406E-03    -12.0161E+06     99.2853E+06     116.373E+06    -6.20856E+06    -377.992E-03     587.582E-03    -209.590E-03     351.308E-03    -396.584E-03     606.161E-03    -209.135E-03     286.339E-03
            1222     13.7744E-03     164.902E-03     -6.2897E+06     99.0367E+06     112.447E+06    -3.34978E+06    -377.946E-03     594.816E-03    -216.870E-03     274.968E-03    -390.414E-03     607.294E-03    -216.442E-03     222.525E-03
            1223     772.602E-06     160.706E-03    -129.044E+06    -213.540E+06    -128.592E+06    -3.73210E+06    -150.988E-03     301.969E-03    -150.982E-03     42.1706E-03    -151.182E-03     301.281E-03    -151.128E-03     41.6758E-03
            1224     1.54710E-03     160.741E-03    -129.141E+06    -213.059E+06    -125.982E+06    -4.83210E+06    -151.156E-03     301.822E-03    -150.666E-03     78.0543E-03    -151.408E-03     301.186E-03    -150.799E-03     77.1835E-03
            1225     2.32217E-03     160.797E-03    -130.622E+06    -211.184E+06    -120.088E+06    -3.57260E+06    -152.084E-03     302.473E-03    -150.389E-03     116.456E-03    -152.448E-03     301.939E-03    -150.494E-03     115.178E-03
            1226     3.09737E-03     160.880E-03    -133.413E+06    -209.380E+06    -110.529E+06    -1.20927E+06    -154.324E-03     304.539E-03    -150.215E-03     155.200E-03    -154.868E-03     304.159E-03    -150.271E-03     153.437E-03
            1227     3.87182E-03     160.992E-03    -134.549E+06    -200.856E+06    -96.9512E+06     1.22212E+06    -158.463E-03     308.704E-03    -150.241E-03     193.531E-03    -159.278E-03     308.588E-03    -150.239E-03     191.114E-03
            1228     4.64621E-03     161.136E-03    -131.942E+06    -187.142E+06    -80.5302E+06     1.93186E+06    -165.173E-03     315.760E-03    -150.587E-03     231.365E-03    -166.385E-03     316.059E-03    -150.527E-03     227.974E-03
            1229     5.41721E-03     161.315E-03    -125.533E+06    -170.353E+06    -62.5266E+06     977.433E+03    -174.830E-03     326.205E-03    -151.375E-03     268.121E-03    -176.617E-03     327.117E-03    -151.259E-03     263.313E-03
            1230     6.18400E-03     161.535E-03    -115.476E+06    -148.188E+06    -43.8361E+06    -936.494E+03    -187.547E-03     340.248E-03    -152.701E-03     303.256E-03    -190.172E-03     342.065E-03    -152.537E-03     296.406E-03
            1231     6.94420E-03     161.796E-03    -102.616E+06    -124.086E+06    -25.7130E+06    -2.95928E+06    -203.576E-03     358.229E-03    -154.653E-03     336.471E-03    -207.396E-03     361.326E-03    -154.453E-03     326.728E-03
            1232     7.69591E-03     162.103E-03    -88.0921E+06    -96.9145E+06    -7.70972E+06    -5.29624E+06    -222.888E-03     380.209E-03    -157.320E-03     367.041E-03    -228.366E-03     385.066E-03    -157.091E-03     353.287E-03
            1233     8.43759E-03     162.459E-03    -73.4304E+06    -65.2384E+06     10.4496E+06    -7.42840E+06    -245.726E-03     406.522E-03    -160.796E-03     394.363E-03    -253.445E-03     413.738E-03    -160.542E-03     375.101E-03
            1234     9.16449E-03     162.869E-03    -60.5850E+06    -26.7229E+06     29.0803E+06    -7.31682E+06    -271.936E-03     437.109E-03    -165.173E-03     417.769E-03    -282.528E-03     447.332E-03    -164.901E-03     391.236E-03
            1235     9.87596E-03     163.335E-03    -50.8919E+06     18.0186E+06     49.0350E+06    -5.69041E+06    -299.982E-03     470.504E-03    -170.521E-03     434.377E-03    -313.899E-03     484.190E-03    -170.228E-03     398.892E-03
            1236     10.5686E-03     163.850E-03    -44.0913E+06     73.0272E+06     70.4437E+06    -4.74011E+06    -327.954E-03     504.790E-03    -176.836E-03     440.846E-03    -345.174E-03     521.940E-03    -176.526E-03     395.366E-03
            1237     11.2413E-03     164.406E-03    -36.1112E+06     103.653E+06     85.9066E+06    -5.60307E+06    -353.535E-03     537.579E-03    -184.044E-03     435.611E-03    -373.301E-03     557.367E-03    -183.712E-03     380.428E-03
            1238     11.8955E-03     164.981E-03    -24.7463E+06     99.6970E+06     97.9940E+06    -6.81708E+06    -374.387E-03     566.360E-03    -191.973E-03     418.828E-03    -395.413E-03     587.396E-03    -191.592E-03     355.676E-03
            1239     12.5324E-03     165.559E-03    -13.8989E+06     97.9638E+06     113.198E+06    -4.29304E+06    -387.546E-03     587.858E-03    -200.312E-03     386.381E-03    -407.791E-03     608.095E-03    -199.868E-03     319.356E-03
            1240     13.1580E-03     166.098E-03    -8.46352E+06     101.243E+06     117.768E+06     7.37781E+03    -393.726E-03     602.355E-03    -208.629E-03     353.199E-03    -412.554E-03     621.184E-03    -208.175E-03     284.748E-03
            1241     13.7729E-03     166.614E-03    -4.87028E+06     98.9298E+06     114.004E+06    -1.00905E+06    -388.625E-03     605.169E-03    -216.544E-03     275.474E-03    -401.223E-03     617.775E-03    -216.111E-03     220.782E-03
            1242     791.648E-06     161.960E-03    -151.147E+06    -210.289E+06    -149.092E+06     2.70231E+06    -128.817E-03     256.912E-03    -128.095E-03     45.2863E-03    -129.085E-03     256.285E-03    -128.317E-03     45.1498E-03
            1243     1.58286E-03     161.995E-03    -158.443E+06    -211.243E+06    -150.821E+06     3.09379E+06    -130.518E-03     258.976E-03    -128.458E-03     83.1847E-03    -130.841E-03     258.386E-03    -128.676E-03     82.9005E-03
            1244     2.37328E-03     162.055E-03    -162.752E+06    -213.379E+06    -144.469E+06     4.64259E+06    -133.992E-03     263.015E-03    -129.023E-03     122.806E-03    -134.391E-03     262.467E-03    -129.200E-03     122.323E-03
            1245     3.16237E-03     162.143E-03    -161.485E+06    -209.690E+06    -130.115E+06     5.03257E+06    -139.481E-03     269.406E-03    -129.926E-03     162.548E-03    -139.994E-03     268.956E-03    -130.038E-03     161.733E-03
            1246     3.94919E-03     162.263E-03    -154.223E+06    -198.955E+06    -110.757E+06     2.71807E+06    -147.503E-03     278.722E-03    -131.220E-03     201.903E-03    -148.199E-03     278.472E-03    -131.261E-03     200.506E-03
            1247     4.73089E-03     162.419E-03    -142.574E+06    -181.844E+06    -89.9038E+06    -922.206E+03    -158.473E-03     291.453E-03    -132.979E-03     240.413E-03    -159.473E-03     291.555E-03    -132.959E-03     238.099E-03
            1248     5.50738E-03     162.615E-03    -127.998E+06    -163.794E+06    -69.2210E+06    -5.72559E+06    -172.433E-03     307.714E-03    -135.281E-03     277.313E-03    -173.918E-03     308.365E-03    -135.204E-03     273.596E-03
            1249     6.27635E-03     162.854E-03    -112.116E+06    -142.361E+06    -49.4191E+06    -9.81793E+06    -189.535E-03     327.718E-03    -138.183E-03     312.298E-03    -191.781E-03     329.211E-03    -138.061E-03     306.509E-03
            1250     7.03648E-03     163.140E-03    -96.4847E+06    -118.441E+06    -30.8086E+06    -13.4131E+06    -210.121E-03     351.883E-03    -141.762E-03     344.966E-03    -213.505E-03     354.608E-03    -141.604E-03     336.164E-03
            1251     7.78518E-03     163.477E-03    -81.8580E+06    -91.5601E+06    -12.9299E+06    -16.4551E+06    -234.188E-03     380.304E-03    -146.115E-03     373.939E-03    -239.187E-03     384.745E-03    -145.929E-03     360.846E-03
            1252     8.51929E-03     163.867E-03    -69.4001E+06    -64.6342E+06     4.15312E+06    -17.1853E+06    -261.616E-03     412.950E-03    -151.334E-03     399.549E-03    -268.828E-03     419.700E-03    -151.119E-03     380.475E-03
            1253     9.23768E-03     164.318E-03    -59.6086E+06    -31.2753E+06     22.0392E+06    -14.0648E+06    -291.460E-03     448.928E-03    -157.468E-03     420.682E-03    -301.507E-03     458.620E-03    -157.227E-03     393.697E-03
            1254     9.93717E-03     164.827E-03    -51.1147E+06     15.0167E+06     42.7958E+06    -9.19087E+06    -321.853E-03     486.372E-03    -164.519E-03     434.794E-03    -335.177E-03     499.477E-03    -164.253E-03     398.094E-03
            1255     10.6168E-03     165.393E-03    -41.4418E+06     74.2686E+06     68.0531E+06    -5.72391E+06    -350.305E-03     522.725E-03    -172.420E-03     439.903E-03    -366.941E-03     539.313E-03    -172.127E-03     392.380E-03
            1256     11.2768E-03     165.996E-03    -32.4410E+06     111.923E+06     87.6947E+06    -6.05111E+06    -374.395E-03     555.407E-03    -181.012E-03     434.506E-03    -393.745E-03     574.816E-03    -180.689E-03     376.446E-03
            1257     11.9181E-03     166.620E-03    -28.1742E+06     104.313E+06     99.7136E+06    -10.7064E+06    -392.244E-03     582.320E-03    -190.076E-03     419.673E-03    -413.237E-03     603.320E-03    -189.688E-03     352.889E-03
            1258     12.5446E-03     167.237E-03    -26.0346E+06     81.8832E+06     109.331E+06    -13.1788E+06    -401.047E-03     600.298E-03    -199.251E-03     390.747E-03    -421.661E-03     620.811E-03    -198.785E-03     319.956E-03
            1259     13.1612E-03     167.803E-03    -17.5390E+06     86.1457E+06     115.814E+06    -12.1063E+06    -402.667E-03     610.753E-03    -208.086E-03     360.344E-03    -421.902E-03     629.905E-03    -207.606E-03     289.342E-03
            1260     13.7803E-03     168.340E-03    -6.30523E+06     90.1169E+06     117.235E+06    -7.76521E+06    -396.228E-03     612.564E-03    -216.336E-03     279.791E-03    -408.901E-03     625.202E-03    -215.872E-03     224.111E-03
            1261     810.738E-06     163.157E-03    -199.574E+06    -222.531E+06    -196.947E+06     8.13966E+06    -107.509E-03     213.529E-03    -106.020E-03     46.0648E-03    -107.916E-03     212.975E-03    -106.392E-03     46.1644E-03
            1262     1.61898E-03     163.196E-03    -196.535E+06    -215.682E+06    -184.770E+06     10.2917E+06    -111.657E-03     218.935E-03    -107.278E-03     84.9849E-03    -112.078E-03     218.400E-03    -107.604E-03     85.0787E-03
            1263     2.42408E-03     163.264E-03    -189.664E+06    -213.851E+06    -166.172E+06     7.53687E+06    -118.303E-03     227.322E-03    -109.020E-03     125.786E-03    -118.736E-03     226.784E-03    -109.266E-03     125.748E-03
            1264     3.22458E-03     163.363E-03    -177.888E+06    -203.594E+06    -145.365E+06     931.572E+03    -127.574E-03     238.844E-03    -111.270E-03     166.137E-03    -128.051E-03     238.376E-03    -111.444E-03     165.783E-03
            1265     4.01929E-03     163.497E-03    -162.203E+06    -189.823E+06    -122.730E+06    -7.13152E+06    -139.660E-03     253.714E-03    -114.055E-03     205.672E-03    -140.242E-03     253.397E-03    -114.158E-03     204.780E-03
            1266     4.80768E-03     163.672E-03    -144.255E+06    -172.144E+06    -99.6635E+06    -14.6704E+06    -154.589E-03     271.975E-03    -117.386E-03     244.126E-03    -155.395E-03     271.948E-03    -117.426E-03     242.380E-03
            1267     5.58711E-03     163.890E-03    -126.466E+06    -155.388E+06    -78.2655E+06    -20.3884E+06    -172.620E-03     293.917E-03    -121.297E-03     280.838E-03    -173.836E-03     294.367E-03    -121.279E-03     277.771E-03
            1268     6.35669E-03     164.154E-03    -110.019E+06    -134.655E+06    -58.1888E+06    -25.2983E+06    -194.211E-03     320.069E-03    -125.858E-03     314.978E-03    -196.112E-03     321.285E-03    -125.794E-03     309.885E-03
            1269     7.11391E-03     164.471E-03    -94.2994E+06    -113.155E+06    -39.2838E+06    -28.9271E+06    -219.288E-03     350.455E-03    -131.167E-03     345.529E-03    -222.232E-03     352.798E-03    -131.062E-03     337.402E-03
            1270     7.85644E-03     164.843E-03    -80.4923E+06    -90.8752E+06    -20.9864E+06     -28.925E+06    -247.626E-03     384.933E-03    -137.307E-03     371.706E-03    -252.063E-03     388.850E-03    -137.164E-03     359.205E-03
            1271     8.58216E-03     165.274E-03    -70.0246E+06    -67.2295E+06    -2.88862E+06    -26.1851E+06    -278.585E-03     422.920E-03    -144.335E-03     393.595E-03    -285.050E-03     428.938E-03    -144.151E-03     374.978E-03
            1272     9.28873E-03     165.769E-03    -60.4306E+06    -42.3638E+06     15.1892E+06    -21.8143E+06    -310.625E-03     462.869E-03    -152.244E-03     410.544E-03    -319.642E-03     471.510E-03    -152.019E-03     383.852E-03
            1273     9.97501E-03     166.328E-03    -48.6251E+06     4.22111E+06     37.9931E+06    -17.2355E+06    -341.408E-03     502.352E-03    -160.944E-03     421.083E-03    -353.382E-03     514.092E-03    -160.690E-03     384.512E-03
            1274     10.6417E-03     166.940E-03    -37.1162E+06     57.9029E+06     62.6471E+06    -9.80270E+06    -368.004E-03     538.290E-03    -170.286E-03     423.568E-03    -382.996E-03     553.205E-03    -170.003E-03     376.179E-03
            1275     11.2902E-03     167.594E-03    -31.8246E+06     111.206E+06     85.3674E+06    -67.3796E+03    -387.494E-03     567.499E-03    -180.005E-03     418.365E-03    -405.245E-03     585.310E-03    -179.693E-03     360.431E-03
            1276     11.9238E-03     168.261E-03    -29.1022E+06     136.223E+06     110.385E+06    -451.276E+03    -398.824E-03     588.634E-03    -189.810E-03     407.927E-03    -418.724E-03     608.613E-03    -189.413E-03     340.932E-03
            1277     12.5482E-03     168.919E-03    -20.8373E+06     101.452E+06     129.762E+06    -9.63926E+06    -401.911E-03     601.278E-03    -199.367E-03     384.503E-03    -422.140E-03     621.431E-03    -198.835E-03     312.671E-03
            1278     13.1688E-03     169.513E-03    -11.2077E+06     78.8176E+06     136.745E+06    -12.9093E+06    -401.355E-03     609.693E-03    -208.337E-03     354.090E-03    -420.442E-03     628.634E-03    -207.752E-03     282.328E-03
            1279     13.7820E-03     170.063E-03    -4.70619E+06     72.4955E+06     134.916E+06    -8.59439E+06    -392.662E-03     609.221E-03    -216.559E-03     274.357E-03    -405.018E-03     621.431E-03    -215.983E-03     219.654E-03
            1280     824.688E-06     164.305E-03    -284.493E+06    -228.437E+06    -281.495E+06    -3.57238E+06    -91.8039E-03     181.298E-03    -89.4936E-03     43.4090E-03    -92.4902E-03     180.966E-03    -90.1574E-03     43.3987E-03
            1281     1.64691E-03     164.353E-03    -262.431E+06    -214.882E+06    -251.384E+06    -7.05415E+06    -97.0077E-03     188.451E-03    -91.4435E-03     80.2594E-03    -97.6430E-03     188.110E-03    -92.0083E-03     80.2168E-03
            1282     2.46389E-03     164.433E-03    -234.949E+06    -203.503E+06    -215.728E+06    -14.9212E+06    -105.937E-03     199.830E-03    -93.8927E-03     120.072E-03    -106.507E-03     199.461E-03    -94.3356E-03     119.888E-03
            1283     3.27402E-03     164.548E-03    -206.012E+06    -189.918E+06    -179.044E+06    -24.3869E+06    -118.287E-03     215.418E-03    -97.1317E-03     160.613E-03    -118.819E-03     215.061E-03    -97.4528E-03     160.163E-03
            1284     4.07547E-03     164.702E-03    -178.349E+06    -174.913E+06    -144.570E+06    -33.6194E+06    -133.830E-03     234.941E-03    -101.111E-03     200.576E-03    -134.390E-03     234.669E-03    -101.322E-03     199.678E-03
            1285     4.86659E-03     164.899E-03    -153.342E+06    -162.428E+06    -117.282E+06    -39.9570E+06    -152.478E-03     258.251E-03    -105.773E-03     238.818E-03    -153.176E-03     258.176E-03    -105.902E-03     237.197E-03
            1286     5.64760E-03     165.143E-03    -131.879E+06    -149.446E+06    -94.4972E+06    -42.4615E+06    -174.678E-03     285.824E-03    -111.146E-03     274.215E-03    -175.690E-03     286.126E-03    -111.211E-03     271.445E-03
            1287     6.41497E-03     165.440E-03    -114.459E+06    -126.557E+06    -71.0895E+06    -44.4776E+06    -200.484E-03     317.800E-03    -117.316E-03     305.677E-03    -202.077E-03     318.764E-03    -117.322E-03     301.045E-03
            1288     7.16635E-03     165.792E-03    -101.296E+06    -109.122E+06    -49.5864E+06    -47.0322E+06    -229.469E-03     353.826E-03    -124.357E-03     332.288E-03    -231.949E-03     355.729E-03    -124.300E-03     324.779E-03
            1289     7.90001E-03     166.204E-03    -90.5426E+06    -98.4391E+06    -30.8190E+06    -46.2038E+06    -261.066E-03     393.364E-03    -132.299E-03     353.572E-03    -264.782E-03     396.529E-03    -132.179E-03     341.892E-03
            1290     8.61374E-03     166.679E-03    -80.0292E+06    -79.0353E+06    -10.3610E+06    -42.0382E+06    -294.035E-03     435.169E-03    -141.134E-03     369.198E-03    -299.382E-03     440.014E-03    -140.956E-03     351.761E-03
            1291     9.30629E-03     167.221E-03    -68.9399E+06    -58.1313E+06     8.97814E+06    -39.5233E+06    -326.159E-03     476.938E-03    -150.779E-03     379.198E-03    -333.505E-03     483.838E-03    -150.550E-03     354.230E-03
            1292     9.97886E-03     167.826E-03    -59.1903E+06    -19.2522E+06     28.2384E+06    -37.4466E+06    -354.725E-03     515.772E-03    -161.046E-03     383.279E-03    -364.398E-03     525.113E-03    -160.791E-03     349.151E-03
            1293     10.6315E-03     168.486E-03    -52.1765E+06     16.3078E+06     46.2439E+06    -31.3306E+06    -375.931E-03     547.603E-03    -171.672E-03     381.220E-03    -388.039E-03     559.472E-03    -171.389E-03     337.179E-03
            1294     11.2685E-03     169.178E-03    -39.5198E+06     58.2512E+06     69.3879E+06    -17.7965E+06    -386.941E-03     569.163E-03    -182.222E-03     376.381E-03    -401.446E-03     583.549E-03    -181.902E-03     322.924E-03
            1295     11.8979E-03     169.879E-03    -19.7009E+06     126.958E+06     107.996E+06    -2.73104E+06    -389.445E-03     581.701E-03    -192.256E-03     371.638E-03    -406.199E-03     598.536E-03    -191.872E-03     310.263E-03
            1296     12.5233E-03     170.566E-03    -8.63625E+06     131.073E+06     139.939E+06     3.19905E+06    -386.167E-03     587.698E-03    -201.531E-03     359.855E-03    -404.115E-03     605.689E-03    -201.009E-03     293.625E-03
            1297     13.1431E-03     171.192E-03    -6.62020E+06     95.1170E+06     160.854E+06     165.904E+03    -383.443E-03     593.364E-03    -209.921E-03     350.857E-03    -402.112E-03     611.894E-03    -209.245E-03     281.999E-03
            1298     13.7606E-03     171.773E-03    -3.71209E+06     67.7317E+06     166.381E+06    -1.72173E+06    -373.096E-03     590.415E-03    -217.319E-03     283.328E-03    -386.044E-03     603.111E-03    -216.580E-03     229.678E-03
            1299     830.055E-06     165.426E-03    -301.278E+06    -202.685E+06    -296.695E+06    -18.3507E+06    -86.0759E-03     169.872E-03    -83.7965E-03     35.6602E-03    -86.8599E-03     169.725E-03    -84.5492E-03     35.4161E-03
            1300     1.65736E-03     165.481E-03    -284.492E+06    -189.540E+06    -271.706E+06    -32.8235E+06    -90.9076E-03     176.696E-03    -85.7889E-03     66.7519E-03    -91.6651E-03     176.557E-03    -86.4601E-03     66.3032E-03
            1301     2.48020E-03     165.574E-03    -260.438E+06    -175.717E+06    -240.208E+06    -47.6667E+06    -99.7236E-03     187.998E-03    -88.2749E-03     101.026E-03    -100.436E-03     187.858E-03    -88.8435E-03     100.333E-03
            1302     3.29585E-03     165.706E-03    -232.635E+06    -165.794E+06    -206.887E+06    -60.6017E+06    -112.239E-03     203.917E-03    -91.6784E-03     137.371E-03    -112.902E-03     203.768E-03    -92.1351E-03     136.397E-03
            1303     4.10173E-03     165.883E-03    -206.049E+06    -155.939E+06    -177.030E+06    -69.6459E+06    -128.769E-03     224.758E-03    -95.9894E-03     174.573E-03    -129.427E-03     224.650E-03    -96.3497E-03     173.225E-03
            1304     4.89619E-03     166.106E-03    -183.404E+06    -152.306E+06    -156.048E+06    -74.9784E+06    -149.896E-03     251.161E-03    -101.265E-03     210.744E-03    -150.623E-03     251.159E-03    -101.559E-03     208.826E-03
            1305     5.67465E-03     166.382E-03    -164.320E+06    -145.463E+06    -138.426E+06    -78.2784E+06    -175.388E-03     282.986E-03    -107.597E-03     243.706E-03    -176.320E-03     283.235E-03    -107.840E-03     240.836E-03
            1306     6.43595E-03     166.712E-03    -146.750E+06    -127.183E+06    -109.207E+06    -79.5464E+06    -204.354E-03     319.421E-03    -115.068E-03     271.373E-03    -205.698E-03     320.129E-03    -115.216E-03     266.948E-03
            1307     7.17859E-03     167.104E-03    -129.369E+06    -114.140E+06    -71.0205E+06    -78.3035E+06    -236.028E-03     359.702E-03    -123.674E-03     292.342E-03    -237.993E-03     361.031E-03    -123.676E-03     285.511E-03
            1308     7.89972E-03     167.558E-03    -112.309E+06    -113.801E+06    -39.6965E+06    -74.7126E+06    -269.310E-03     402.630E-03    -133.320E-03     306.085E-03    -272.094E-03     404.750E-03    -133.190E-03     295.732E-03
            1309     8.59823E-03     168.079E-03    -94.8200E+06    -103.410E+06    -16.9950E+06    -68.6649E+06    -301.962E-03     445.831E-03    -143.869E-03     312.545E-03    -305.779E-03     449.016E-03    -143.667E-03     297.401E-03
            1310     9.27424E-03     168.665E-03    -80.2843E+06    -79.1965E+06     3.00120E+06    -61.0447E+06    -331.414E-03     486.579E-03    -155.165E-03     312.364E-03    -336.495E-03     491.104E-03    -154.918E-03     291.065E-03
            1311     9.92781E-03     169.311E-03    -71.3229E+06    -42.9927E+06     24.4614E+06    -53.1780E+06    -354.025E-03     520.927E-03    -166.902E-03     308.295E-03    -360.585E-03     527.024E-03    -166.614E-03     279.761E-03
            1312     10.5638E-03     170.006E-03    -61.4972E+06    -9.85381E+06     45.0631E+06    -48.6884E+06    -365.448E-03     543.970E-03    -178.522E-03     304.075E-03    -373.572E-03     551.719E-03    -178.193E-03     268.202E-03
            1313     11.1921E-03     170.722E-03    -50.7162E+06     1.59340E+06     62.4845E+06    -46.2624E+06    -366.637E-03     556.027E-03    -189.390E-03     304.270E-03    -376.426E-03     565.470E-03    -189.006E-03     261.648E-03
            1314     11.8205E-03     171.441E-03    -43.8476E+06     52.9951E+06     86.5714E+06    -43.9079E+06    -360.103E-03     559.067E-03    -198.964E-03     310.949E-03    -371.864E-03     570.622E-03    -198.544E-03     262.443E-03
            1315     12.4551E-03     172.150E-03    -31.7975E+06     78.7431E+06     116.435E+06    -31.4673E+06    -347.139E-03     554.126E-03    -206.986E-03     321.065E-03    -360.992E-03     567.826E-03    -206.472E-03     267.977E-03
            1316     13.1053E-03     172.808E-03    -16.8203E+06     68.8184E+06     160.542E+06    -7.57602E+06    -336.317E-03     549.820E-03    -213.502E-03     342.329E-03    -353.415E-03     566.654E-03    -212.775E-03     283.641E-03
            1317     13.7675E-03     173.432E-03    -7.27524E+06     70.1248E+06     195.197E+06     5.49328E+06    -330.979E-03     549.834E-03    -218.856E-03     294.934E-03    -344.432E-03     562.960E-03    -217.971E-03     245.653E-03
            1318     823.500E-06     166.549E-03    -228.635E+06    -152.338E+06    -226.282E+06    -22.3051E+06    -94.0700E-03     187.258E-03    -93.1882E-03     21.5346E-03    -94.6843E-03     187.146E-03    -93.7672E-03     21.1246E-03
            1319     1.64509E-03     166.610E-03    -221.635E+06    -142.238E+06    -209.380E+06    -40.5599E+06    -97.9596E-03     192.589E-03    -94.6299E-03     40.6912E-03    -98.5890E-03     192.504E-03    -95.1492E-03     39.9174E-03
            1320     2.46219E-03     166.711E-03    -210.858E+06    -131.508E+06    -190.441E+06    -57.2745E+06    -104.455E-03     201.358E-03    -96.9028E-03     62.6508E-03    -105.095E-03     201.307E-03    -97.3586E-03     61.5020E-03
            1321     3.27280E-03     166.857E-03    -200.720E+06    -126.203E+06    -174.662E+06    -71.9575E+06    -114.093E-03     214.152E-03    -100.059E-03     86.9058E-03    -114.751E-03     214.130E-03    -100.458E-03     85.3526E-03
            1322     4.07553E-03     167.050E-03    -190.122E+06    -125.576E+06    -161.948E+06    -82.8327E+06    -127.826E-03     232.067E-03    -104.240E-03     112.606E-03    -128.512E-03     232.078E-03    -104.592E-03     110.605E-03
            1323     4.86502E-03     167.298E-03    -178.486E+06    -128.037E+06    -151.217E+06    -90.3156E+06    -146.339E-03     255.973E-03    -109.634E-03     138.248E-03    -147.075E-03     256.041E-03    -109.945E-03     135.688E-03
            1324     5.63856E-03     167.603E-03    -165.545E+06    -125.976E+06    -140.238E+06    -96.7918E+06    -169.264E-03     285.618E-03    -116.355E-03     161.879E-03    -170.105E-03     285.817E-03    -116.633E-03     158.508E-03
            1325     6.39202E-03     167.971E-03    -150.674E+06    -117.021E+06    -118.571E+06    -101.152E+06    -196.059E-03     320.543E-03    -124.485E-03     181.353E-03    -197.090E-03     320.961E-03    -124.689E-03     176.817E-03
            1326     7.12185E-03     168.401E-03    -134.014E+06    -114.816E+06    -89.7831E+06    -100.733E+06    -225.788E-03     359.817E-03    -134.029E-03     194.026E-03    -227.087E-03     360.489E-03    -134.117E-03     187.825E-03
            1327     7.82673E-03     168.898E-03    -118.186E+06    -121.567E+06    -66.5196E+06    -97.6228E+06    -256.093E-03     400.949E-03    -144.856E-03     198.554E-03    -257.726E-03     401.921E-03    -144.841E-03     190.003E-03
            1328     8.50539E-03     169.460E-03    -105.990E+06    -122.249E+06    -51.9777E+06    -95.4490E+06    -284.163E-03     440.892E-03    -156.729E-03     195.716E-03    -286.221E-03     442.285E-03    -156.658E-03     183.958E-03
            1329     9.15890E-03     170.084E-03    -97.6395E+06    -114.838E+06    -40.1072E+06    -89.1183E+06    -306.499E-03     475.780E-03    -169.280E-03     189.133E-03    -309.085E-03     477.721E-03    -169.173E-03     173.446E-03
            1330     9.79116E-03     170.763E-03    -87.5955E+06    -86.7110E+06    -11.0875E+06    -81.5867E+06    -318.897E-03     500.789E-03    -181.893E-03     185.723E-03    -322.122E-03     503.427E-03    -181.695E-03     166.034E-03
            1331     10.4141E-03     171.473E-03    -75.3406E+06    -50.5304E+06     34.1912E+06    -74.7105E+06    -320.524E-03     514.243E-03    -193.719E-03     188.881E-03    -324.488E-03     517.667E-03    -193.366E-03     165.641E-03
            1332     11.0407E-03     172.197E-03    -67.0756E+06    -30.9866E+06     70.7140E+06    -65.4399E+06    -314.091E-03     518.079E-03    -203.988E-03     199.745E-03    -318.992E-03     522.440E-03    -203.493E-03     173.094E-03
            1333     11.6756E-03     172.925E-03    -55.8724E+06     23.5685E+06     104.527E+06    -62.4347E+06    -299.164E-03     511.300E-03    -212.136E-03     219.702E-03    -305.459E-03     517.201E-03    -211.566E-03     189.541E-03
            1334     12.3324E-03     173.627E-03    -44.0168E+06     28.8348E+06     117.755E+06    -57.5952E+06    -274.979E-03     492.695E-03    -217.715E-03     249.781E-03    -283.238E-03     500.601E-03    -217.105E-03     216.561E-03
            1335     13.0145E-03     174.291E-03    -37.1208E+06    -11.7055E+06     126.655E+06    -35.2603E+06    -257.742E-03     478.504E-03    -220.762E-03     304.137E-03    -269.225E-03     489.503E-03    -220.058E-03     267.200E-03
            1336     13.7088E-03     174.938E-03    -19.3969E+06     28.4372E+06     163.989E+06    -11.7502E+06    -258.122E-03     480.308E-03    -222.186E-03     315.102E-03    -269.234E-03     491.019E-03    -221.379E-03     280.401E-03
            1337     802.343E-06     167.710E-03    -157.594E+06    -95.8888E+06    -151.969E+06    -21.0780E+06    -122.873E-03     243.881E-03    -121.008E-03    -2.43041E-03    -123.376E-03     243.773E-03    -121.401E-03    -3.10815E-03
            1338     1.60197E-03     167.774E-03    -150.270E+06    -89.5249E+06    -142.071E+06    -36.7847E+06    -123.163E-03     246.541E-03    -123.379E-03    -4.53608E-03    -123.649E-03     246.438E-03    -123.741E-03    -5.75095E-03
            1339     2.39813E-03     167.879E-03    -144.301E+06    -84.4147E+06    -128.522E+06    -50.1646E+06    -126.142E-03     251.729E-03    -125.587E-03    -4.77312E-03    -126.625E-03     251.617E-03    -125.898E-03    -6.56907E-03
            1340     3.18879E-03     168.031E-03    -137.560E+06    -81.6342E+06    -113.423E+06    -60.7574E+06    -130.725E-03     259.610E-03    -128.885E-03    -4.36534E-03    -131.202E-03     259.475E-03    -129.134E-03    -6.77628E-03
            1341     3.96902E-03     168.234E-03    -130.363E+06    -85.0111E+06    -99.3260E+06    -69.6536E+06    -137.159E-03     270.522E-03    -133.363E-03    -2.46658E-03    -137.618E-03     270.339E-03    -133.547E-03    -5.53883E-03
            1342     4.73685E-03     168.494E-03    -122.783E+06    -90.3846E+06    -88.0481E+06    -76.6962E+06    -145.543E-03     284.637E-03    -139.094E-03     906.244E-06    -145.984E-03     284.413E-03    -139.225E-03    -2.86644E-03
            1343     5.48817E-03     168.817E-03    -114.429E+06    -89.5684E+06    -78.8086E+06    -82.9706E+06    -156.237E-03     302.396E-03    -146.159E-03     4.40375E-03    -156.672E-03     302.174E-03    -146.257E-03    -161.218E-06
            1344     6.22026E-03     169.205E-03    -107.579E+06    -86.4904E+06    -71.7069E+06    -86.8802E+06    -169.396E-03     324.082E-03    -154.686E-03     6.07577E-03    -169.833E-03     323.877E-03    -154.763E-03     599.416E-06
            1345     6.92938E-03     169.663E-03    -103.873E+06    -87.4646E+06    -66.0112E+06    -89.4800E+06    -183.798E-03     348.540E-03    -164.742E-03     4.28055E-03    -184.237E-03     348.336E-03    -164.795E-03    -2.29004E-03
            1346     7.61095E-03     170.189E-03    -101.626E+06    -95.8070E+06    -61.9404E+06    -91.5726E+06    -197.415E-03     373.589E-03    -176.174E-03    -701.999E-06    -197.851E-03     373.362E-03    -176.197E-03    -8.58165E-03
            1347     8.26611E-03     170.778E-03    -98.6889E+06    -100.853E+06    -53.6504E+06    -93.0648E+06    -208.355E-03     396.933E-03    -188.578E-03    -4.97778E-03    -208.833E-03     396.744E-03    -188.557E-03    -14.2732E-03
            1348     8.89630E-03     171.427E-03    -93.0735E+06    -110.104E+06    -42.8644E+06    -91.3624E+06    -214.033E-03     415.234E-03    -201.201E-03    -2.78949E-03    -214.608E-03     415.142E-03    -201.121E-03    -13.3898E-03
            1349     9.51592E-03     172.114E-03    -83.7282E+06    -101.789E+06    -17.3492E+06    -89.7504E+06    -212.622E-03     425.686E-03    -213.064E-03     8.66674E-03    -213.389E-03     425.809E-03    -212.882E-03    -2.79110E-03
            1350     10.1397E-03     172.830E-03    -71.6280E+06    -79.4637E+06     32.0114E+06    -82.5598E+06    -205.853E-03     429.176E-03    -223.323E-03     28.9823E-03    -206.930E-03     429.626E-03    -222.944E-03     17.0935E-03
            1351     10.7700E-03     173.556E-03    -52.1587E+06    -57.2732E+06     78.0259E+06    -65.7576E+06    -195.684E-03     426.944E-03    -231.260E-03     57.1753E-03    -197.161E-03     427.854E-03    -230.711E-03     44.7661E-03
            1352     11.4214E-03     174.273E-03    -32.6522E+06     2.15159E+06     124.171E+06    -48.7499E+06    -178.282E-03     414.514E-03    -236.232E-03     95.3176E-03    -180.398E-03     416.258E-03    -235.567E-03     82.5261E-03
            1353     12.1043E-03     174.963E-03    -27.6599E+06     35.6293E+06     156.118E+06    -30.6380E+06    -153.647E-03     391.302E-03    -237.654E-03     145.214E-03    -156.692E-03     394.047E-03    -236.885E-03     132.552E-03
            1354     12.8438E-03     175.599E-03    -19.1986E+06    -12.9133E+06     149.115E+06    -25.4909E+06    -144.469E-03     380.677E-03    -236.209E-03     201.767E-03    -149.208E-03     384.895E-03    -235.416E-03     187.484E-03
            1355     13.6331E-03     176.289E-03    -13.4439E+06    -14.1319E+06     129.077E+06    -24.1709E+06    -115.215E-03     347.455E-03    -232.241E-03     243.428E-03    -120.540E-03     352.441E-03    -231.555E-03     229.004E-03
            1356     758.402E-06     168.968E-03    -84.7270E+06    -43.6723E+06    -80.8918E+06    -14.9413E+06    -178.908E-03     360.981E-03    -182.074E-03    -45.7837E-03    -179.387E-03     360.694E-03    -182.292E-03    -46.7768E-03
            1357     1.51713E-03     169.031E-03    -83.1764E+06    -42.1985E+06    -74.1664E+06    -25.6187E+06    -178.047E-03     361.533E-03    -183.486E-03    -83.7322E-03    -178.494E-03     361.125E-03    -183.675E-03    -85.5513E-03
            1358     2.27053E-03     169.137E-03    -82.1186E+06    -41.6002E+06    -62.8273E+06    -34.8949E+06    -174.858E-03     361.430E-03    -186.572E-03    -125.006E-03    -175.199E-03     360.866E-03    -186.707E-03    -127.656E-03
            1359     3.01448E-03     169.289E-03    -79.6850E+06    -42.5287E+06    -49.7994E+06     -42.083E+06    -169.968E-03     360.853E-03    -190.885E-03    -166.022E-03    -170.146E-03     360.067E-03    -190.957E-03    -169.501E-03
            1360     3.74851E-03     169.491E-03    -77.0507E+06    -46.6623E+06    -37.9386E+06    -47.1068E+06    -162.087E-03     358.505E-03    -196.418E-03    -204.976E-03    -162.060E-03     357.441E-03    -196.428E-03    -209.201E-03
            1361     4.46922E-03     169.748E-03    -74.5267E+06    -51.1082E+06    -28.5148E+06    -52.2117E+06    -150.753E-03     353.841E-03    -203.088E-03    -239.283E-03    -150.490E-03     352.479E-03    -203.048E-03    -244.163E-03
            1362     5.17513E-03     170.065E-03    -72.9422E+06    -51.6683E+06    -21.2804E+06    -56.4681E+06    -136.777E-03     347.728E-03    -210.951E-03    -267.449E-03    -136.276E-03     346.093E-03    -210.876E-03    -272.874E-03
            1363     5.86051E-03     170.448E-03    -71.8376E+06    -50.5463E+06    -14.7301E+06    -58.5944E+06    -120.715E-03     340.790E-03    -220.075E-03    -287.775E-03    -119.982E-03     338.937E-03    -219.971E-03    -293.637E-03
            1364     6.52105E-03     170.896E-03    -69.8513E+06    -47.9428E+06    -5.99310E+06    -57.8877E+06    -103.176E-03     333.488E-03    -230.311E-03    -296.992E-03    -102.261E-03     331.516E-03    -230.170E-03    -303.180E-03
            1365     7.15948E-03     171.410E-03    -64.3092E+06    -45.9813E+06     5.93593E+06    -56.8879E+06    -85.5948E-03     326.854E-03    -241.259E-03    -292.284E-03    -84.5901E-03     324.899E-03    -241.069E-03    -298.699E-03
            1366     7.77699E-03     171.985E-03    -58.5252E+06    -47.9048E+06     20.6680E+06    -52.3174E+06    -68.8302E-03     321.066E-03    -252.236E-03    -271.157E-03    -67.8918E-03     319.291E-03    -251.978E-03    -277.512E-03
            1367     8.38746E-03     172.611E-03    -48.5257E+06    -49.7985E+06     39.8953E+06    -49.2685E+06    -53.1232E-03     315.442E-03    -262.319E-03    -234.459E-03    -52.4054E-03     313.992E-03    -261.977E-03    -240.496E-03
            1368     9.00193E-03     173.281E-03    -39.1784E+06    -50.7151E+06     61.9659E+06    -44.9374E+06    -39.1448E-03     309.766E-03    -270.621E-03    -188.234E-03    -38.7307E-03     308.719E-03    -270.181E-03    -193.774E-03
            1369     9.62504E-03     173.975E-03    -28.0881E+06    -43.0313E+06     90.0055E+06    -43.0972E+06    -27.2377E-03     303.665E-03    -276.427E-03    -135.470E-03    -27.1610E-03     303.062E-03    -275.874E-03    -140.395E-03
            1370     10.2756E-03     174.687E-03    -23.3348E+06    -46.9446E+06     110.499E+06    -35.4505E+06    -17.1398E-03     296.191E-03    -279.052E-03    -73.2676E-03    -17.3810E-03     295.970E-03    -278.397E-03    -77.4447E-03
            1371     10.9572E-03     175.404E-03    -19.3556E+06    -28.4698E+06     135.275E+06    -35.5480E+06    -4.61467E-03     282.402E-03    -277.787E-03    -6.85045E-03    -5.12022E-03     282.546E-03    -277.041E-03    -10.1615E-03
            1372     11.7091E-03     176.078E-03    -11.2496E+06     2.61173E+06     169.317E+06    -17.7053E+06     5.72777E-03     267.678E-03    -273.406E-03     20.8383E-03     4.95500E-03     267.965E-03    -272.547E-03     18.4894E-03
            1373     12.5072E-03     176.723E-03     3.78670E+06     21.9110E+06     182.416E+06    -8.06621E+06     15.3307E-03     251.711E-03    -267.042E-03     55.1851E-03     14.1400E-03     252.616E-03    -266.167E-03     51.9433E-03
            1374     13.2054E-03     177.394E-03     7.02182E+06     8.84092E+06     135.840E+06    -11.5089E+06     61.7197E-03     195.312E-03    -257.032E-03     90.7202E-03     60.8572E-03     196.028E-03    -256.376E-03     88.3694E-03
            1375     13.5166E-03     88.5256E-03    -4.04225E+06     33.3180E+06     74.5023E+06     377.908E+03    -239.471E-03     474.848E-03    -235.376E-03     198.016E-03    -248.494E-03     483.758E-03    -235.046E-03     168.264E-03
            1376     12.8069E-03     88.1888E-03    -7.67492E+06     31.8755E+06     72.2952E+06     501.941E+03    -239.859E-03     475.211E-03    -235.351E-03     245.204E-03    -253.589E-03     488.817E-03    -235.025E-03     206.602E-03
            1377     12.0968E-03     87.8649E-03    -12.3996E+06     25.7094E+06     68.1747E+06    -50.3053E+03    -239.673E-03     475.028E-03    -235.355E-03     260.752E-03    -255.378E-03     490.583E-03    -235.033E-03     218.993E-03
            1378     11.3823E-03     87.4956E-03    -17.6600E+06     20.8563E+06     66.6633E+06    -236.468E+03    -240.962E-03     476.351E-03    -235.388E-03     280.959E-03    -258.699E-03     493.905E-03    -235.060E-03     235.822E-03
            1379     10.6731E-03     87.1142E-03    -23.7579E+06     14.6964E+06     65.6106E+06     305.789E+03    -242.156E-03     477.579E-03    -235.423E-03     288.774E-03    -260.330E-03     495.531E-03    -235.082E-03     242.385E-03
            1380     9.95906E-03     86.7237E-03    -30.0072E+06     7.42738E+06     61.7386E+06     437.268E+03    -242.863E-03     478.301E-03    -235.437E-03     288.255E-03    -260.352E-03     495.530E-03    -235.096E-03     242.190E-03
            1381     9.24972E-03     86.3410E-03    -36.4376E+06    -1.17308E+06     54.2031E+06     2.93284E+03    -242.811E-03     478.250E-03    -235.438E-03     278.093E-03    -258.577E-03     493.725E-03    -235.113E-03     234.019E-03
            1382     8.53562E-03     85.9784E-03    -43.4916E+06    -11.2050E+06     43.6912E+06    -593.284E+03    -242.383E-03     477.812E-03    -235.428E-03     260.586E-03    -255.831E-03     490.938E-03    -235.131E-03     219.716E-03
            1383     7.82704E-03     85.6424E-03    -50.9181E+06    -23.4380E+06     30.9111E+06    -477.042E+03    -241.679E-03     477.085E-03    -235.406E-03     239.322E-03    -252.698E-03     487.750E-03    -235.144E-03     202.346E-03
            1384     7.11336E-03     85.3365E-03    -58.9332E+06    -35.7451E+06     19.1853E+06     26.6635E+03    -240.731E-03     476.125E-03    -235.393E-03     216.835E-03    -249.518E-03     484.519E-03    -235.160E-03     183.999E-03
            1385     6.40251E-03     85.0606E-03    -67.0393E+06    -46.3554E+06     8.87519E+06     197.249E+03    -239.761E-03     475.161E-03    -235.400E-03     194.499E-03    -246.633E-03     481.605E-03    -235.191E-03     165.737E-03
            1386     5.69098E-03     84.8145E-03    -75.3683E+06    -74.6848E+06    -7.03151E+06     341.747E+03    -238.984E-03     474.401E-03    -235.417E-03     172.619E-03    -244.232E-03     479.136E-03    -235.234E-03     147.747E-03
            1387     4.97860E-03     84.5961E-03    -83.7508E+06    -119.562E+06    -26.9255E+06     329.518E+03    -238.309E-03     473.747E-03    -235.438E-03     150.663E-03    -242.179E-03     476.974E-03    -235.278E-03     129.502E-03
            1388     4.26782E-03     84.4078E-03    -91.5178E+06    -163.870E+06    -45.6907E+06     305.749E+03    -237.770E-03     473.220E-03    -235.450E-03     129.058E-03    -240.518E-03     475.194E-03    -235.308E-03     111.385E-03
            1389     3.55662E-03     84.2460E-03    -98.7823E+06    -197.759E+06    -64.1085E+06     354.233E+03    -237.204E-03     472.629E-03    -235.425E-03     107.637E-03    -239.068E-03     473.627E-03    -235.316E-03     93.2458E-03
            1390     2.84528E-03     84.1149E-03    -105.293E+06    -223.087E+06    -82.0185E+06     432.850E+03    -236.545E-03     471.927E-03    -235.382E-03     86.2118E-03    -237.725E-03     472.179E-03    -235.316E-03     74.9417E-03
            1391     2.13367E-03     84.0114E-03    -110.057E+06    -246.822E+06    -97.9069E+06     473.039E+03    -235.959E-03     471.324E-03    -235.364E-03     65.1040E-03    -236.625E-03     471.007E-03    -235.336E-03     56.7595E-03
            1392     1.42301E-03     83.9385E-03    -113.145E+06    -275.000E+06    -108.509E+06     350.270E+03    -235.610E-03     471.023E-03    -235.413E-03     43.9274E-03    -235.905E-03     470.255E-03    -235.393E-03     38.3544E-03
            1393     711.039E-06     83.8932E-03    -115.789E+06    -296.174E+06    -113.833E+06    -82.2272E+03    -235.258E-03     471.025E-03    -235.767E-03     23.5455E-03    -235.330E-03     469.971E-03    -235.738E-03     20.5513E-03
            1394     13.5220E-03     87.0034E-03    -3.93734E+06     33.3791E+06     75.1708E+06     195.085E+03    -239.335E-03     474.629E-03    -235.294E-03     196.765E-03    -248.325E-03     483.506E-03    -234.961E-03     167.260E-03
            1395     12.8089E-03     86.6791E-03    -8.14917E+06     31.1417E+06     71.7613E+06    -220.401E+03    -238.299E-03     473.616E-03    -235.317E-03     247.533E-03    -252.112E-03     487.303E-03    -234.992E-03     209.117E-03
            1396     12.0931E-03     86.3448E-03    -12.7093E+06     25.0920E+06     67.4700E+06    -3.06675E+03    -239.440E-03     474.824E-03    -235.385E-03     262.082E-03    -255.158E-03     490.391E-03    -235.065E-03     220.359E-03
            1397     11.3844E-03     85.9801E-03    -17.9033E+06     20.4683E+06     66.2820E+06     718.625E+03    -241.304E-03     476.729E-03    -235.426E-03     281.067E-03    -259.040E-03     494.282E-03    -235.098E-03     235.911E-03
            1398     10.6700E-03     85.5953E-03    -23.6297E+06     14.7768E+06     65.9837E+06     472.371E+03    -242.399E-03     477.842E-03    -235.444E-03     288.515E-03    -260.591E-03     495.812E-03    -235.101E-03     242.047E-03
            1399     9.96143E-03     85.2063E-03    -29.6005E+06     7.77040E+06     62.4521E+06    -109.477E+03    -242.804E-03     478.252E-03    -235.448E-03     287.741E-03    -260.292E-03     495.481E-03    -235.104E-03     241.649E-03
            1400     9.24739E-03     84.8242E-03    -36.0514E+06    -905.362E+03     54.5215E+06    -319.950E+03    -242.784E-03     478.230E-03    -235.446E-03     278.133E-03    -258.557E-03     493.714E-03    -235.120E-03     234.037E-03
            1401     8.53844E-03     84.4605E-03    -43.2111E+06    -11.0639E+06     43.7931E+06     35.3654E+03    -242.444E-03     477.880E-03    -235.436E-03     260.809E-03    -255.894E-03     491.010E-03    -235.139E-03     219.939E-03
            1402     7.82410E-03     84.1253E-03    -51.1565E+06    -23.8095E+06     30.6988E+06     211.437E+03    -241.664E-03     477.080E-03    -235.415E-03     239.371E-03    -252.683E-03     487.743E-03    -235.153E-03     202.411E-03
            1403     7.11451E-03     83.8189E-03    -58.8940E+06    -36.0163E+06     19.0831E+06     184.833E+03    -240.662E-03     476.070E-03    -235.408E-03     216.647E-03    -249.440E-03     484.455E-03    -235.175E-03     183.834E-03
            1404     6.40218E-03     83.5445E-03    -66.8887E+06    -46.7506E+06     8.83120E+06     146.457E+03    -239.773E-03     475.190E-03    -235.417E-03     194.351E-03    -246.643E-03     481.631E-03    -235.208E-03     165.576E-03
            1405     5.69035E-03     83.2966E-03    -75.3562E+06    -75.0813E+06    -7.17053E+06     195.121E+03    -239.017E-03     474.446E-03    -235.430E-03     172.363E-03    -244.261E-03     479.177E-03    -235.247E-03     147.479E-03
            1406     4.97969E-03     83.0800E-03    -83.5337E+06    -119.658E+06    -26.7640E+06     319.974E+03    -238.374E-03     473.818E-03    -235.445E-03     150.643E-03    -242.241E-03     477.041E-03    -235.284E-03     129.478E-03
            1407     4.26780E-03     82.8897E-03     -91.621E+06    -163.914E+06    -45.5409E+06     385.015E+03    -237.809E-03     473.260E-03    -235.451E-03     129.361E-03    -240.564E-03     475.240E-03    -235.308E-03     111.676E-03
            1408     3.55643E-03     82.7298E-03    -99.1452E+06    -197.503E+06    -64.0069E+06     430.292E+03    -237.097E-03     472.534E-03    -235.437E-03     107.864E-03    -238.965E-03     473.535E-03    -235.327E-03     93.4816E-03
            1409     2.84501E-03     82.5975E-03    -105.456E+06    -222.879E+06    -81.6255E+06     231.498E+03    -236.415E-03     471.846E-03    -235.432E-03     86.3834E-03    -237.599E-03     472.101E-03    -235.364E-03     75.1054E-03
            1410     2.13380E-03     82.4958E-03    -110.237E+06    -246.823E+06    -97.6131E+06     149.986E+03    -235.925E-03     471.382E-03    -235.457E-03     64.9462E-03    -236.592E-03     471.064E-03    -235.427E-03     56.5975E-03
            1411     1.42148E-03     82.4211E-03    -113.630E+06    -274.976E+06    -108.204E+06     261.586E+03    -235.661E-03     471.202E-03    -235.541E-03     43.6122E-03    -235.956E-03     470.432E-03    -235.519E-03     38.0508E-03
            1412     710.878E-06     82.3766E-03    -116.197E+06    -295.251E+06    -114.350E+06     323.445E+03    -235.821E-03     471.300E-03    -235.479E-03     23.2514E-03    -235.893E-03     470.252E-03    -235.455E-03     20.2662E-03
            1413     13.5203E-03     85.4979E-03    -4.36100E+06     32.6681E+06     73.9293E+06    -635.730E+03    -238.320E-03     473.699E-03    -235.379E-03     198.669E-03    -247.447E-03     482.713E-03    -235.051E-03     168.985E-03
            1414     12.8043E-03     85.1594E-03    -8.05550E+06     31.0746E+06     71.3848E+06     352.504E+03    -239.702E-03     475.118E-03    -235.416E-03     250.549E-03    -253.622E-03     488.913E-03    -235.093E-03     211.858E-03
            1415     12.0961E-03     84.8307E-03    -13.0609E+06     24.7690E+06     67.6970E+06     835.247E+03    -240.437E-03     475.875E-03    -235.438E-03     262.186E-03    -256.133E-03     491.415E-03    -235.116E-03     220.428E-03
            1416     11.3809E-03     84.4603E-03    -17.8824E+06     20.6406E+06     67.5194E+06     311.963E+03    -241.597E-03     477.040E-03    -235.444E-03     280.495E-03    -259.338E-03     494.596E-03    -235.110E-03     235.264E-03
            1417     10.6734E-03     84.0774E-03    -22.9005E+06     15.4773E+06     67.2352E+06     15.2447E+03    -242.198E-03     477.650E-03    -235.452E-03     288.123E-03    -260.388E-03     495.618E-03    -235.105E-03     241.653E-03
            1418     9.95899E-03     83.6895E-03    -29.1139E+06     8.12436E+06     62.6551E+06    -65.3060E+03    -242.705E-03     478.165E-03    -235.460E-03     287.985E-03    -260.202E-03     495.406E-03    -235.117E-03     241.894E-03
            1419     9.24970E-03     83.3066E-03    -36.2254E+06    -1.20051E+06     54.2252E+06     113.697E+03    -242.950E-03     478.409E-03    -235.459E-03     278.337E-03    -258.725E-03     493.895E-03    -235.134E-03     234.221E-03
            1420     8.53531E-03     82.9435E-03    -43.8600E+06    -11.7087E+06     43.6629E+06     364.476E+03    -242.494E-03     477.938E-03    -235.444E-03     260.641E-03    -255.937E-03     491.057E-03    -235.146E-03     219.776E-03
            1421     7.82666E-03     82.6072E-03    -50.8753E+06    -23.7027E+06     31.0792E+06     394.242E+03    -241.550E-03     476.974E-03    -235.424E-03     238.948E-03    -252.552E-03     487.621E-03    -235.160E-03     202.021E-03
            1422     7.11330E-03     82.3028E-03    -58.1679E+06    -35.9536E+06     19.3827E+06     272.619E+03    -240.618E-03     476.039E-03    -235.420E-03     216.612E-03    -249.396E-03     484.426E-03    -235.187E-03     183.787E-03
            1423     6.40227E-03     82.0263E-03    -66.5280E+06    -46.9401E+06     9.09629E+06     422.697E+03    -239.821E-03     475.253E-03    -235.431E-03     194.450E-03    -246.696E-03     481.698E-03    -235.221E-03     165.657E-03
            1424     5.69113E-03     81.7805E-03    -75.2644E+06    -75.2925E+06    -6.85787E+06     643.407E+03    -239.029E-03     474.473E-03    -235.444E-03     172.466E-03    -244.269E-03     479.199E-03    -235.260E-03     147.600E-03
            1425     4.97863E-03     81.5623E-03    -83.9219E+06    -119.626E+06    -26.7483E+06     590.367E+03    -238.393E-03     473.854E-03    -235.461E-03     150.935E-03    -242.268E-03     477.083E-03    -235.299E-03     129.764E-03
            1426     4.26760E-03     81.3732E-03    -91.8113E+06    -163.402E+06    -45.2284E+06     286.304E+03    -237.750E-03     473.225E-03    -235.475E-03     129.280E-03    -240.504E-03     475.205E-03    -235.332E-03     111.604E-03
            1427     3.55625E-03     81.2123E-03    -98.8726E+06    -197.234E+06    -63.0738E+06    -73.7299E+03    -237.025E-03     472.506E-03    -235.481E-03     107.638E-03    -238.890E-03     473.503E-03    -235.367E-03     93.2602E-03
            1428     2.84478E-03     81.0815E-03    -105.390E+06    -222.743E+06    -80.5447E+06    -172.816E+03    -236.467E-03     471.952E-03    -235.484E-03     86.1943E-03    -237.651E-03     472.204E-03    -235.411E-03     74.9115E-03
            1429     2.13329E-03     80.9779E-03    -111.134E+06    -247.437E+06    -96.6768E+06    -6.56610E+03    -236.074E-03     471.560E-03    -235.486E-03     64.7373E-03    -236.743E-03     471.237E-03    -235.449E-03     56.3911E-03
            1430     1.42313E-03     80.9050E-03    -115.211E+06    -275.132E+06    -108.306E+06     232.565E+03    -235.782E-03     471.282E-03    -235.499E-03     43.6219E-03    -236.084E-03     470.511E-03    -235.475E-03     38.0735E-03
            1431     711.388E-06     80.8584E-03    -117.869E+06    -294.346E+06    -115.386E+06         836.430    -235.627E-03     471.121E-03    -235.494E-03     23.8256E-03    -235.709E-03     470.080E-03    -235.473E-03     20.8423E-03
            1432     13.5106E-03     83.9697E-03    -4.03247E+06     32.5197E+06     73.0601E+06    -8.23541E+03    -238.129E-03     473.631E-03    -235.501E-03     197.834E-03    -247.193E-03     482.584E-03    -235.177E-03     168.067E-03
            1433     12.8060E-03     83.6429E-03    -8.80824E+06     30.3009E+06     70.5747E+06     328.225E+03    -241.219E-03     476.704E-03    -235.484E-03     246.142E-03    -255.018E-03     490.374E-03    -235.162E-03     207.252E-03
            1434     12.0918E-03     83.3093E-03    -12.8775E+06     24.8949E+06     67.9910E+06    -181.886E+03    -240.614E-03     476.050E-03    -235.436E-03     260.734E-03    -256.319E-03     491.601E-03    -235.114E-03     218.837E-03
            1435     11.3856E-03     82.9429E-03    -17.9673E+06     20.2527E+06      66.748E+06    -987.928E+03    -241.235E-03     476.670E-03    -235.435E-03     280.474E-03    -258.975E-03     494.225E-03    -235.105E-03     235.251E-03
            1436     10.6699E-03     82.5607E-03    -23.5406E+06     14.5870E+06     66.0075E+06    -173.165E+03    -241.957E-03     477.422E-03    -235.465E-03     288.532E-03    -260.123E-03     495.365E-03    -235.122E-03     242.166E-03
            1437     9.96066E-03     82.1714E-03    -29.8411E+06     7.29578E+06     62.0818E+06     169.727E+03    -242.916E-03     478.401E-03    -235.485E-03     288.109E-03    -260.408E-03     495.633E-03    -235.142E-03     242.004E-03
            1438     9.24688E-03     81.7890E-03    -36.6290E+06    -1.57527E+06     54.3396E+06     425.402E+03    -243.237E-03     478.705E-03    -235.467E-03     277.930E-03    -259.009E-03     494.182E-03    -235.140E-03     233.753E-03
            1439     8.53862E-03     81.4256E-03    -43.3758E+06    -11.3004E+06     44.1929E+06     135.040E+03    -242.389E-03     477.828E-03    -235.439E-03     260.161E-03    -255.820E-03     490.937E-03    -235.138E-03     219.299E-03
            1440     7.82435E-03     81.0906E-03    -50.5341E+06    -23.8513E+06     31.4460E+06     61.9621E+03    -241.297E-03     476.729E-03    -235.432E-03     239.097E-03    -252.297E-03     487.374E-03    -235.167E-03     202.208E-03
            1441     7.11409E-03     80.7854E-03    -58.5578E+06    -36.5434E+06     19.4651E+06     401.989E+03    -240.622E-03     476.067E-03    -235.445E-03     216.948E-03    -249.405E-03     484.456E-03    -235.210E-03     184.125E-03
            1442     6.40211E-03     80.5094E-03    -67.0673E+06    -47.3411E+06     9.00098E+06     659.043E+03    -239.846E-03     475.305E-03    -235.459E-03     194.491E-03    -246.718E-03     481.745E-03    -235.248E-03     165.714E-03
            1443     5.68993E-03     80.2632E-03    -75.6614E+06    -74.9212E+06    -6.56798E+06     700.495E+03    -239.113E-03     474.583E-03    -235.469E-03     172.400E-03    -244.354E-03     479.307E-03    -235.284E-03     147.533E-03
            1444     4.97933E-03     80.0454E-03    -83.6660E+06    -118.527E+06    -26.1346E+06     52.6724E+03    -238.459E-03     473.935E-03    -235.476E-03     150.705E-03    -242.330E-03     477.164E-03    -235.313E-03     129.527E-03
            1445     4.26772E-03     79.8557E-03    -90.9712E+06    -163.173E+06    -44.5083E+06    -506.796E+03    -237.703E-03     473.193E-03    -235.490E-03     129.063E-03    -240.450E-03     475.167E-03    -235.344E-03     111.386E-03
            1446     3.55616E-03     79.6961E-03    -98.1053E+06    -197.691E+06    -62.6443E+06    -358.464E+03    -237.069E-03     472.564E-03    -235.496E-03     107.538E-03    -238.930E-03     473.557E-03    -235.380E-03     93.1481E-03
            1447     2.84489E-03     79.5637E-03    -104.663E+06    -223.312E+06    -80.4683E+06    -76.6346E+03    -236.549E-03     472.032E-03    -235.483E-03     86.0837E-03    -237.727E-03     472.279E-03    -235.410E-03     74.8047E-03
            1448     2.13390E-03     79.4616E-03    -109.861E+06    -247.780E+06    -96.2082E+06     91.9026E+03    -236.087E-03     471.558E-03    -235.471E-03     64.7337E-03    -236.750E-03     471.230E-03    -235.434E-03     56.3925E-03
            1449     1.42165E-03     79.3871E-03    -113.228E+06    -274.719E+06    -107.240E+06    -78.3833E+03    -235.761E-03     471.247E-03    -235.486E-03     43.7244E-03    -236.055E-03     470.475E-03    -235.460E-03     38.1696E-03
            1450     710.980E-06     79.3426E-03    -115.301E+06    -294.688E+06    -113.975E+06    -125.397E+03    -235.523E-03     471.112E-03    -235.589E-03     23.7260E-03    -235.595E-03     470.063E-03    -235.565E-03     20.7330E-03
            1451     13.5201E-03     82.4508E-03    -4.14147E+06     32.7180E+06     74.9467E+06     846.433E+03    -239.405E-03     474.863E-03    -235.458E-03     197.560E-03    -248.428E-03     483.770E-03    -235.125E-03     167.808E-03
            1452     12.8053E-03     82.1226E-03    -8.62954E+06     30.5298E+06     72.1161E+06    -472.817E+03    -240.054E-03     475.478E-03    -235.424E-03     244.332E-03    -253.792E-03     489.085E-03    -235.095E-03     205.630E-03
            1453     12.0982E-03     81.7935E-03    -12.5191E+06     24.8960E+06     68.0461E+06    -516.034E+03    -239.904E-03     475.319E-03    -235.416E-03     261.389E-03    -255.615E-03     490.878E-03    -235.093E-03     219.574E-03
            1454     11.3805E-03     81.4259E-03    -17.8292E+06     19.9487E+06     65.9660E+06     478.159E+03    -241.018E-03     476.464E-03    -235.445E-03     280.762E-03    -258.712E-03     493.974E-03    -235.119E-03     235.688E-03
            1455     10.6723E-03     81.0428E-03    -23.9233E+06     13.9801E+06     64.9724E+06    -122.518E+03    -242.206E-03     477.682E-03    -235.476E-03     288.009E-03    -260.357E-03     495.609E-03    -235.137E-03     241.589E-03
            1456     9.95847E-03     80.6543E-03    -29.9426E+06     7.03054E+06     61.4791E+06    -431.866E+03    -243.122E-03     478.596E-03    -235.474E-03     287.553E-03    -260.605E-03     495.819E-03    -235.133E-03     241.367E-03
            1457     9.24999E-03     80.2699E-03    -36.2341E+06    -1.90058E+06     54.0887E+06    -641.059E+03    -242.955E-03     478.409E-03    -235.454E-03     277.636E-03    -258.708E-03     493.870E-03    -235.128E-03     233.489E-03
            1458     8.53591E-03     79.9085E-03    -43.3136E+06    -11.9272E+06     43.7923E+06    -35.5264E+03    -242.064E-03     477.514E-03    -235.450E-03     260.337E-03    -255.486E-03     490.614E-03    -235.151E-03     219.551E-03
            1459     7.82605E-03     79.5748E-03    -51.1834E+06    -24.3970E+06     30.8171E+06     461.507E+03    -241.437E-03     476.893E-03    -235.456E-03     239.399E-03    -252.442E-03     487.541E-03    -235.192E-03     202.499E-03
            1460     7.11293E-03     79.2674E-03    -59.0030E+06    -37.0311E+06     19.2381E+06     543.170E+03    -240.746E-03     476.208E-03    -235.462E-03     216.687E-03    -249.513E-03     484.578E-03    -235.227E-03     183.892E-03
            1461     6.40172E-03     78.9925E-03    -66.7072E+06    -47.3399E+06     9.68640E+06     497.912E+03    -239.876E-03     475.344E-03    -235.469E-03     193.983E-03    -246.727E-03     481.762E-03    -235.255E-03     165.234E-03
            1462     5.69082E-03     78.7458E-03    -74.4952E+06    -73.8560E+06    -5.45211E+06    -266.085E+03    -239.142E-03     474.613E-03    -235.471E-03     172.160E-03    -244.376E-03     479.336E-03    -235.283E-03     147.278E-03
            1463     4.97889E-03     78.5278E-03    -82.0553E+06    -118.085E+06    -24.8647E+06    -695.350E+03    -238.396E-03     473.875E-03    -235.479E-03     150.579E-03    -242.258E-03     477.099E-03    -235.314E-03     129.404E-03
            1464     4.26744E-03     78.3394E-03    -89.9351E+06    -163.927E+06    -44.3503E+06    -353.021E+03    -237.684E-03     473.181E-03    -235.497E-03     129.076E-03    -240.427E-03     475.151E-03    -235.351E-03     111.397E-03
            1465     3.55624E-03     78.1784E-03    -97.4525E+06    -198.256E+06    -63.1767E+06    -89.7256E+03    -237.114E-03     472.613E-03    -235.499E-03     107.665E-03    -238.973E-03     473.606E-03    -235.387E-03     93.2679E-03
            1466     2.84495E-03     78.0473E-03    -103.964E+06    -223.794E+06    -80.9192E+06     155.524E+03    -236.571E-03     472.054E-03    -235.483E-03     86.2014E-03    -237.747E-03     472.301E-03    -235.412E-03     74.9126E-03
            1467     2.13338E-03     77.9441E-03    -108.711E+06    -247.279E+06    -96.7878E+06    -81.2125E+03    -236.092E-03     471.560E-03    -235.469E-03     64.8169E-03    -236.749E-03     471.234E-03    -235.436E-03     56.4729E-03
            1468     1.42305E-03     77.8710E-03    -112.245E+06    -275.244E+06    -107.358E+06    -442.352E+03    -235.791E-03     471.272E-03    -235.481E-03     43.6791E-03    -236.080E-03     470.497E-03    -235.456E-03     38.1063E-03
            1469     711.298E-06     77.8246E-03    -114.426E+06    -295.226E+06    -112.503E+06     29.3115E+03    -235.689E-03     471.099E-03    -235.410E-03     23.8391E-03    -235.759E-03     470.044E-03    -235.379E-03     20.8235E-03
            1470     13.5170E-03     80.9337E-03    -4.19544E+06     32.5903E+06     75.1779E+06     -281.21E+03    -238.983E-03     474.376E-03    -235.393E-03     198.898E-03    -248.027E-03     483.303E-03    -235.058E-03     169.231E-03
            1471     12.8082E-03     80.6054E-03    -7.90435E+06     30.6438E+06     71.7705E+06     444.393E+03    -239.064E-03     474.475E-03    -235.411E-03     247.277E-03    -252.837E-03     488.121E-03    -235.085E-03     208.780E-03
            1472     12.0908E-03     80.2767E-03    -12.8242E+06     24.4143E+06     67.6569E+06     808.862E+03    -240.219E-03     475.659E-03    -235.440E-03     261.984E-03    -255.925E-03     491.210E-03    -235.119E-03     220.188E-03
            1473     11.3847E-03     79.9073E-03    -17.2188E+06     20.7137E+06     67.7236E+06     646.831E+03    -241.480E-03     476.934E-03    -235.453E-03     279.835E-03    -259.157E-03     494.426E-03    -235.120E-03     234.686E-03
            1474     10.6703E-03     79.5263E-03    -22.7684E+06     15.2487E+06     67.2113E+06    -146.870E+03    -242.326E-03     477.784E-03    -235.458E-03     287.795E-03    -260.492E-03     495.728E-03    -235.111E-03     241.300E-03
            1475     9.96171E-03     79.1349E-03    -29.2822E+06     7.58068E+06     62.4405E+06    -371.766E+03    -242.825E-03     478.282E-03    -235.456E-03     287.837E-03    -260.297E-03     495.495E-03    -235.113E-03     241.736E-03
            1476     9.24762E-03     78.7539E-03    -36.7321E+06    -2.60374E+06     53.3672E+06    -80.9916E+03    -242.504E-03     477.970E-03    -235.466E-03     278.007E-03    -258.239E-03     493.411E-03    -235.142E-03     234.013E-03
            1477     8.53721E-03     78.3923E-03    -44.3479E+06    -13.0890E+06     42.6065E+06     87.0377E+03    -242.232E-03     477.710E-03    -235.479E-03     260.349E-03    -255.645E-03     490.797E-03    -235.182E-03     219.562E-03
            1478     7.82389E-03     78.0560E-03    -51.2776E+06    -24.8542E+06     30.3125E+06     61.7393E+03    -241.771E-03     477.233E-03    -235.463E-03     238.885E-03    -252.760E-03     487.864E-03    -235.201E-03     201.945E-03
            1479     7.11417E-03     77.7508E-03    -58.0666E+06    -36.8034E+06     19.5603E+06     18.4753E+03    -240.846E-03     476.289E-03    -235.443E-03     216.238E-03    -249.601E-03     484.650E-03    -235.208E-03     183.421E-03
            1480     6.40238E-03     77.4751E-03    -65.3652E+06    -46.2279E+06     10.5103E+06    -745.186E+03    -239.853E-03     475.293E-03    -235.440E-03     193.835E-03    -246.698E-03     481.712E-03    -235.226E-03     165.072E-03
            1481     5.69038E-03     77.2285E-03    -73.1338E+06    -73.8962E+06    -5.11595E+06    -1.10828E+06    -238.989E-03     474.437E-03    -235.448E-03     172.089E-03    -244.215E-03     479.156E-03    -235.261E-03     147.213E-03
            1482     4.97910E-03     77.0112E-03    -81.6525E+06    -119.822E+06    -25.6779E+06    -191.950E+03    -238.295E-03     473.764E-03    -235.469E-03     150.430E-03    -242.150E-03     476.978E-03    -235.305E-03     129.267E-03
            1483     4.26769E-03     76.8219E-03    -90.1045E+06    -164.526E+06    -44.9669E+06     527.895E+03    -237.709E-03     473.199E-03    -235.489E-03     128.884E-03    -240.447E-03     475.163E-03    -235.345E-03     111.223E-03
            1484     3.55606E-03     76.6619E-03    -97.9184E+06    -198.176E+06    -63.6679E+06     661.338E+03    -237.054E-03     472.546E-03    -235.492E-03     107.462E-03    -238.911E-03     473.537E-03    -235.381E-03     93.0907E-03
            1485     2.84473E-03     76.5295E-03    -104.738E+06    -223.251E+06    -81.3736E+06     540.712E+03    -236.415E-03     471.916E-03    -235.501E-03     86.1157E-03    -237.592E-03     472.165E-03    -235.432E-03     74.8503E-03
            1486     2.13377E-03     76.4279E-03    -110.545E+06    -246.930E+06    -97.5931E+06     378.093E+03    -236.034E-03     471.561E-03    -235.528E-03     65.1016E-03    -236.701E-03     471.243E-03    -235.497E-03     56.7616E-03
            1487     1.42172E-03     76.3528E-03    -114.364E+06    -275.584E+06    -108.852E+06     316.590E+03    -235.875E-03     471.434E-03    -235.559E-03     44.0587E-03    -236.173E-03     470.664E-03    -235.538E-03     38.4979E-03
            1488     711.175E-06     76.3089E-03    -116.773E+06    -295.523E+06    -115.351E+06    -114.516E+03    -236.115E-03     471.248E-03    -235.133E-03     23.7384E-03    -236.193E-03     470.199E-03    -235.112E-03     20.7330E-03
            1489     13.5198E-03     79.4163E-03    -4.65975E+06     31.4971E+06     72.2651E+06    -228.457E+03    -238.265E-03     473.677E-03    -235.411E-03     198.901E-03    -247.294E-03     482.591E-03    -235.089E-03     169.274E-03
            1490     12.8024E-03     79.0929E-03    -8.06246E+06     30.1321E+06     70.1828E+06     725.929E+03    -240.002E-03     475.429E-03    -235.427E-03     246.261E-03    -253.716E-03     489.018E-03    -235.108E-03     207.683E-03
            1491     12.0968E-03     78.7539E-03    -12.3716E+06     24.7649E+06     67.5598E+06    -196.182E+03    -240.346E-03     475.766E-03    -235.420E-03     260.110E-03    -256.013E-03     491.281E-03    -235.100E-03     218.257E-03
            1492     11.3819E-03     78.3923E-03    -17.8123E+06     20.0230E+06     66.5701E+06    -1.28618E+06    -241.156E-03     476.581E-03    -235.425E-03     279.918E-03    -258.870E-03     494.110E-03    -235.095E-03     234.707E-03
            1493     10.6731E-03     78.0062E-03    -22.9297E+06     14.8049E+06     66.2574E+06     58.3492E+03    -242.099E-03     477.552E-03    -235.452E-03     288.809E-03    -260.273E-03     495.504E-03    -235.109E-03     242.405E-03
            1494     9.95892E-03     77.6193E-03    -29.6000E+06     7.08415E+06     61.8774E+06     994.702E+03    -242.576E-03     478.058E-03    -235.481E-03     288.199E-03    -260.034E-03     495.256E-03    -235.139E-03     242.227E-03
            1495     9.24834E-03     77.2368E-03    -36.5629E+06    -1.92549E+06     54.2726E+06     917.367E+03    -242.840E-03     478.337E-03    -235.496E-03     277.699E-03    -258.564E-03     493.766E-03    -235.169E-03     233.685E-03
            1496     8.53566E-03     76.8740E-03    -43.2452E+06    -11.4746E+06     44.5580E+06    -136.046E+03    -242.597E-03     478.076E-03    -235.479E-03     259.878E-03    -256.001E-03     491.157E-03    -235.177E-03     219.033E-03
            1497     7.82646E-03     76.5389E-03    -50.0310E+06    -25.0672E+06     32.0828E+06    -886.263E+03    -241.815E-03     477.255E-03    -235.440E-03     238.567E-03    -252.797E-03     487.878E-03    -235.171E-03     201.603E-03
            1498     7.11347E-03     76.2333E-03    -56.9904E+06    -37.1847E+06     20.5633E+06    -1.39111E+06    -240.769E-03     476.182E-03    -235.412E-03     216.110E-03    -249.524E-03     484.542E-03    -235.173E-03     183.259E-03
            1499     6.40233E-03     75.9577E-03    -64.7868E+06    -45.9870E+06     10.0952E+06    -981.595E+03    -239.743E-03     475.150E-03    -235.408E-03     193.894E-03    -246.591E-03     481.576E-03    -235.196E-03     165.123E-03
            1500     5.69097E-03     75.7123E-03    -74.4042E+06    -75.9372E+06    -7.36414E+06     136.943E+03    -238.951E-03     474.368E-03    -235.418E-03     172.010E-03    -244.173E-03     479.078E-03    -235.236E-03     147.163E-03
            1501     4.97914E-03     75.4938E-03    -84.1202E+06    -121.312E+06    -28.2392E+06     820.884E+03    -238.266E-03     473.704E-03    -235.438E-03     150.367E-03    -242.122E-03     476.913E-03    -235.282E-03     129.241E-03
            1502     4.26755E-03     75.3054E-03    -92.3280E+06    -164.473E+06    -46.6339E+06     984.253E+03    -237.628E-03     473.094E-03    -235.466E-03     128.960E-03    -240.373E-03     475.062E-03    -235.327E-03     111.321E-03
            1503     3.55657E-03     75.1442E-03    -99.7632E+06    -197.648E+06    -64.8443E+06     1.08484E+06    -236.988E-03     472.469E-03    -235.481E-03     107.538E-03    -238.854E-03     473.467E-03    -235.374E-03     93.1793E-03
            1504     2.84492E-03     75.0140E-03    -106.509E+06    -222.776E+06    -82.7780E+06     902.186E+03    -236.428E-03     471.920E-03    -235.491E-03     86.0532E-03    -237.610E-03     472.173E-03    -235.428E-03     74.8081E-03
            1505     2.13289E-03     74.9098E-03    -111.606E+06    -246.489E+06     -98.618E+06     521.360E+03    -236.048E-03     471.556E-03    -235.508E-03     64.6554E-03    -236.716E-03     471.239E-03    -235.482E-03     56.3308E-03
            1506     1.42244E-03     74.8365E-03    -114.962E+06    -274.923E+06    -109.061E+06     384.947E+03    -235.784E-03     471.334E-03    -235.550E-03     43.4337E-03    -236.082E-03     470.564E-03    -235.530E-03     37.8950E-03
            1507     710.941E-06     74.7897E-03    -117.636E+06    -294.991E+06    -114.911E+06     546.341E+03    -236.096E-03     471.257E-03    -235.161E-03     23.6862E-03    -236.179E-03     470.209E-03    -235.137E-03     20.7193E-03
            1508     13.5135E-03     77.9047E-03    -4.15117E+06     31.8995E+06     72.9801E+06     382.399E+03    -239.231E-03     474.660E-03    -235.429E-03     198.191E-03    -248.280E-03     483.596E-03    -235.104E-03     168.395E-03
            1509     12.8095E-03     77.5657E-03    -8.68448E+06     29.8700E+06     70.9091E+06    -944.060E+03    -240.329E-03     475.735E-03    -235.405E-03     246.002E-03    -254.109E-03     489.384E-03    -235.082E-03     207.245E-03
            1510     12.0943E-03     77.2435E-03    -12.0277E+06     25.0450E+06     67.8071E+06    -685.637E+03    -239.769E-03     475.172E-03    -235.403E-03     261.741E-03    -255.511E-03     490.764E-03    -235.083E-03     219.905E-03
            1511     11.3842E-03     76.8717E-03    -17.5536E+06     19.8021E+06     65.4213E+06     444.984E+03    -241.018E-03     476.457E-03    -235.439E-03     281.399E-03    -258.745E-03     494.003E-03    -235.116E-03     236.283E-03
            1512     10.6699E-03     76.4911E-03    -24.4690E+06     12.9733E+06     63.6772E+06     529.089E+03    -242.138E-03     477.615E-03    -235.477E-03     288.526E-03    -260.294E-03     495.546E-03    -235.142E-03     242.140E-03
            1513     9.95967E-03     76.1010E-03    -30.2658E+06     6.36804E+06     60.5038E+06     125.219E+03    -242.964E-03     478.451E-03    -235.487E-03     287.201E-03    -260.407E-03     495.634E-03    -235.150E-03     241.113E-03
            1514     9.24776E-03     75.7188E-03    -35.6998E+06    -1.21322E+06     53.9095E+06    -439.790E+03    -243.129E-03     478.593E-03    -235.463E-03     276.875E-03    -258.846E-03     494.023E-03    -235.140E-03     232.740E-03
            1515     8.53801E-03     75.3567E-03    -42.2633E+06    -10.7893E+06     44.4796E+06    -462.353E+03    -242.513E-03     477.940E-03    -235.427E-03     259.532E-03    -255.913E-03     491.023E-03    -235.128E-03     218.669E-03
            1516     7.82450E-03     75.0208E-03    -49.9808E+06    -23.8939E+06     32.6672E+06    -864.796E+03    -241.532E-03     476.933E-03    -235.401E-03     238.443E-03    -252.510E-03     487.554E-03    -235.131E-03     201.516E-03
            1517     7.11472E-03     74.7161E-03    -58.9975E+06    -36.8031E+06     19.9284E+06    -1.11202E+06    -240.545E-03     475.937E-03    -235.392E-03     216.208E-03    -249.306E-03     484.301E-03    -235.154E-03     183.403E-03
            1518     6.40253E-03     74.4416E-03    -68.8058E+06    -49.3534E+06     6.71342E+06    -299.365E+03    -239.712E-03     475.107E-03    -235.395E-03     194.095E-03    -246.569E-03     481.525E-03    -235.191E-03     165.349E-03
            1519     5.69069E-03     74.1943E-03    -77.9359E+06    -77.7797E+06    -9.83850E+06      980.91E+03    -238.972E-03     474.381E-03    -235.409E-03     172.228E-03    -244.205E-03     479.090E-03    -235.233E-03     147.407E-03
            1520     4.97940E-03     73.9780E-03    -86.2760E+06    -120.507E+06    -29.3707E+06     1.13500E+06    -238.296E-03     473.725E-03    -235.429E-03     150.625E-03    -242.166E-03     476.946E-03    -235.276E-03     129.502E-03
            1521     4.26790E-03     73.7879E-03    -94.0262E+06    -164.512E+06    -48.2841E+06     637.572E+03    -237.662E-03     473.111E-03    -235.449E-03     129.031E-03    -240.415E-03     475.087E-03    -235.316E-03     111.378E-03
            1522     3.55581E-03     73.6284E-03    -100.987E+06    -197.617E+06    -66.0622E+06     537.910E+03    -237.076E-03     472.524E-03    -235.448E-03     107.213E-03    -238.939E-03     473.519E-03    -235.346E-03     92.8608E-03
            1523     2.84472E-03     73.4958E-03    -106.803E+06    -222.200E+06    -83.3169E+06     313.510E+03    -236.611E-03     472.023E-03    -235.411E-03     85.7286E-03    -237.792E-03     472.277E-03    -235.351E-03     74.4728E-03
            1524     2.13446E-03     73.3938E-03    -111.365E+06    -245.507E+06    -99.0184E+06     19.8767E+03    -236.140E-03     471.489E-03    -235.349E-03     64.4766E-03    -236.807E-03     471.177E-03    -235.327E-03     56.1393E-03
            1525     1.42247E-03     73.3187E-03    -114.961E+06    -274.766E+06    -109.843E+06    -200.059E+03    -235.685E-03     471.000E-03    -235.315E-03     43.3327E-03    -235.982E-03     470.232E-03    -235.299E-03     37.7920E-03
            1526     711.326E-06     73.2745E-03    -115.830E+06    -294.787E+06    -114.846E+06    -308.890E+03    -234.986E-03     470.734E-03    -235.748E-03     23.7123E-03    -235.059E-03     469.683E-03    -235.727E-03     20.7518E-03
            1527     13.5212E-03     76.3756E-03    -3.34371E+06     32.9601E+06     75.7974E+06    -40.8945E+03    -238.711E-03     474.107E-03    -235.396E-03     197.500E-03    -247.768E-03     483.049E-03    -235.060E-03     167.807E-03
            1528     12.8045E-03     76.0560E-03    -7.85947E+06     30.1336E+06     71.1068E+06    -92.7826E+03    -238.861E-03     474.277E-03    -235.416E-03     247.086E-03    -252.659E-03     487.949E-03    -235.093E-03     208.528E-03
            1529     12.0939E-03     75.7213E-03    -13.6471E+06     22.9689E+06     65.6886E+06     137.588E+03    -239.962E-03     475.417E-03    -235.456E-03     262.345E-03    -255.677E-03     490.976E-03    -235.141E-03     220.557E-03
            1530     11.3812E-03     75.3563E-03    -18.7101E+06     18.8245E+06     65.4218E+06     996.197E+03    -241.701E-03     477.177E-03    -235.476E-03     280.640E-03    -259.412E-03     494.699E-03    -235.149E-03     235.426E-03
            1531     10.6716E-03     74.9720E-03    -23.2465E+06     14.4224E+06     66.3449E+06     361.106E+03    -242.675E-03     478.144E-03    -235.469E-03     287.236E-03    -260.820E-03     496.065E-03    -235.124E-03     240.699E-03
            1532     9.96021E-03     74.5832E-03    -28.8284E+06     7.79738E+06     62.8491E+06    -919.346E+03    -243.109E-03     478.546E-03    -235.436E-03     286.391E-03    -260.542E-03     495.722E-03    -235.091E-03     240.229E-03
            1533     9.24970E-03     74.2017E-03    -36.2045E+06    -2.58842E+06     54.0472E+06    -829.480E+03    -242.945E-03     478.344E-03    -235.399E-03     276.839E-03    -258.661E-03     493.766E-03    -235.073E-03     232.724E-03
            1534     8.53674E-03     73.8385E-03    -44.3716E+06    -11.7832E+06     42.6942E+06     37.0563E+03    -242.208E-03     477.578E-03    -235.370E-03     259.495E-03    -255.600E-03     490.646E-03    -235.075E-03     218.706E-03
            1535     7.82725E-03     73.5051E-03    -53.2420E+06    -22.6941E+06     29.9894E+06     428.628E+03    -241.222E-03     476.584E-03    -235.362E-03     238.520E-03    -252.204E-03     487.209E-03    -235.102E-03     201.673E-03
            1536     7.11332E-03     73.1993E-03    -62.3794E+06    -36.8639E+06     16.6208E+06     598.146E+03    -240.418E-03     475.789E-03    -235.371E-03     216.182E-03    -249.179E-03     484.150E-03    -235.144E-03     183.439E-03
            1537     6.40224E-03     72.9240E-03    -70.8683E+06    -50.4184E+06     4.40006E+06     156.514E+03    -239.624E-03     475.013E-03    -235.389E-03     193.902E-03    -246.474E-03     481.420E-03    -235.191E-03     165.196E-03
            1538     5.69076E-03     72.6783E-03    -78.6670E+06    -78.6405E+06    -10.4479E+06    -411.427E+03    -238.934E-03     474.350E-03    -235.415E-03     172.182E-03    -244.169E-03     479.056E-03    -235.239E-03     147.341E-03
            1539     4.97890E-03     72.4602E-03    -85.9427E+06    -120.721E+06    -28.9821E+06    -86.8192E+03    -238.422E-03     473.851E-03    -235.429E-03     150.477E-03    -242.290E-03     477.070E-03    -235.274E-03     129.316E-03
            1540     4.26752E-03     72.2715E-03    -93.2086E+06    -164.047E+06    -47.6048E+06     111.476E+03    -237.816E-03     473.238E-03    -235.422E-03     128.720E-03    -240.562E-03     475.209E-03    -235.287E-03     111.056E-03
            1541     3.55708E-03     72.1108E-03    -100.089E+06    -197.607E+06    -65.5593E+06    -369.069E+03    -237.152E-03     472.542E-03    -235.390E-03     107.292E-03    -239.012E-03     473.535E-03    -235.286E-03     92.9245E-03
            1542     2.84574E-03     71.9796E-03    -106.155E+06    -222.192E+06    -82.4953E+06    -308.546E+03    -236.569E-03     471.910E-03    -235.341E-03     86.0911E-03    -237.750E-03     472.165E-03    -235.277E-03     74.8303E-03
            1543     2.13361E-03     71.8761E-03    -110.793E+06    -245.240E+06    -98.1513E+06     40.0166E+03    -236.009E-03     471.302E-03    -235.293E-03     64.8629E-03    -236.677E-03     470.990E-03    -235.267E-03     56.5343E-03
            1544     1.42308E-03     71.8033E-03    -113.873E+06    -274.405E+06    -109.244E+06    -241.324E+03    -235.630E-03     470.911E-03    -235.280E-03     43.9550E-03    -235.927E-03     470.146E-03    -235.264E-03     38.3896E-03
            1545     711.654E-06     71.7572E-03    -116.189E+06    -296.460E+06    -115.131E+06    -647.673E+03    -235.028E-03     470.689E-03    -235.661E-03     23.6956E-03    -235.101E-03     469.634E-03    -235.639E-03     20.7036E-03
            1546     13.5175E-03     74.8713E-03    -3.40570E+06     32.2832E+06     74.2818E+06    -266.027E+03    -237.724E-03     473.140E-03    -235.416E-03     199.655E-03    -246.809E-03     482.112E-03    -235.087E-03     170.029E-03
            1547     12.8056E-03     74.5357E-03    -8.11737E+06     29.7427E+06     71.0213E+06     1.20727E+06    -239.661E-03     475.123E-03    -235.462E-03     247.615E-03    -253.416E-03     488.749E-03    -235.138E-03     209.100E-03
            1548     12.0933E-03     74.2061E-03    -13.6104E+06     23.3228E+06     67.2378E+06     1.13499E+06    -240.854E-03     476.311E-03    -235.457E-03     260.503E-03    -256.510E-03     491.807E-03    -235.135E-03     218.630E-03
            1549     11.3833E-03     73.8364E-03    -17.4873E+06     20.0379E+06     67.9704E+06    -459.699E+03    -241.930E-03     477.355E-03    -235.425E-03     278.703E-03    -259.595E-03     494.832E-03    -235.089E-03     233.396E-03
            1550     10.6722E-03     73.4529E-03    -22.4506E+06     14.9357E+06     67.8743E+06    -1.42038E+06    -242.344E-03     477.744E-03    -235.400E-03     286.681E-03    -260.454E-03     495.631E-03    -235.050E-03     240.214E-03
            1551     9.96137E-03     73.0667E-03    -29.2401E+06     6.95926E+06     63.2842E+06    -150.662E+03    -242.806E-03     478.191E-03    -235.385E-03     287.023E-03    -260.251E-03     495.374E-03    -235.036E-03     240.947E-03
            1552     9.24895E-03     72.6834E-03    -36.8380E+06    -3.42533E+06     54.6931E+06     1.13030E+06    -242.736E-03     478.110E-03    -235.374E-03     277.347E-03    -258.447E-03     493.520E-03    -235.042E-03     233.347E-03
            1553     8.53892E-03     72.3230E-03    -44.5321E+06    -11.6179E+06     43.7607E+06     1.22738E+06    -242.057E-03     477.424E-03    -235.367E-03     260.088E-03    -255.447E-03     490.488E-03    -235.067E-03     219.393E-03
            1554     7.82450E-03     71.9876E-03    -51.3387E+06    -23.4090E+06     31.3374E+06     1.52812E+06    -241.418E-03     476.782E-03    -235.364E-03     238.784E-03    -252.394E-03     487.402E-03    -235.099E-03     201.943E-03
            1555     7.11503E-03     71.6828E-03    -57.4405E+06    -37.2119E+06     19.8577E+06     2.25848E+06    -240.536E-03     475.901E-03    -235.365E-03     216.012E-03    -249.268E-03     484.239E-03    -235.129E-03     183.301E-03
            1556     6.40265E-03     71.4078E-03    -64.9316E+06    -47.1604E+06     8.78624E+06     2.29058E+06    -239.627E-03     475.002E-03    -235.374E-03     193.680E-03    -246.451E-03     481.402E-03    -235.168E-03     165.023E-03
            1557     5.69065E-03     71.1613E-03    -73.9062E+06    -76.7023E+06    -7.80249E+06     1.13276E+06    -239.040E-03     474.425E-03    -235.385E-03     171.892E-03    -244.251E-03     479.124E-03    -235.206E-03     147.068E-03
            1558     4.97952E-03     70.9433E-03    -82.6216E+06    -121.119E+06    -27.1561E+06     158.658E+03    -238.412E-03     473.800E-03    -235.388E-03     150.141E-03    -242.257E-03     477.000E-03    -235.228E-03     129.005E-03
            1559     4.26848E-03     70.7540E-03    -90.4570E+06    -163.484E+06    -45.1518E+06     72.8685E+03    -237.651E-03     473.042E-03    -235.391E-03     128.714E-03    -240.383E-03     475.004E-03    -235.249E-03     111.085E-03
            1560     3.55619E-03     70.5944E-03    -97.9326E+06    -197.228E+06    -63.7861E+06     209.713E+03    -237.012E-03     472.398E-03    -235.385E-03     107.657E-03    -238.870E-03     473.392E-03    -235.276E-03     93.2985E-03
            1561     2.84485E-03     70.4621E-03    -104.708E+06    -222.557E+06    -81.7366E+06     38.5928E+03    -236.424E-03     471.798E-03    -235.374E-03     86.3393E-03    -237.601E-03     472.050E-03    -235.308E-03     75.0831E-03
            1562     2.13426E-03     70.3605E-03    -109.915E+06    -245.869E+06    -97.4583E+06    -143.475E+03    -235.917E-03     471.299E-03    -235.382E-03     64.9735E-03    -236.582E-03     470.983E-03    -235.353E-03     56.6421E-03
            1563     1.42194E-03     70.2860E-03    -113.358E+06    -274.220E+06    -107.629E+06     196.497E+03    -235.626E-03     471.071E-03    -235.445E-03     43.9279E-03    -235.922E-03     470.304E-03    -235.421E-03     38.3716E-03
            1564     710.727E-06     70.2413E-03    -116.291E+06    -296.802E+06    -113.711E+06     532.933E+03    -235.724E-03     471.093E-03    -235.368E-03     23.8964E-03    -235.799E-03     470.035E-03    -235.338E-03     20.9083E-03
            1565     13.5142E-03     73.3464E-03    -4.50115E+06     30.9380E+06     72.3950E+06     477.501E+03    -238.597E-03     474.056E-03    -235.459E-03     198.494E-03    -247.656E-03     482.999E-03    -235.135E-03     168.792E-03
            1566     12.8050E-03     73.0190E-03    -8.68170E+06     29.5622E+06     71.7087E+06    -78.6459E+03    -241.009E-03     476.449E-03    -235.441E-03     245.993E-03    -254.819E-03     490.126E-03    -235.112E-03     207.122E-03
            1567     12.0954E-03     72.6856E-03    -12.0127E+06     24.7739E+06     70.0695E+06    -989.431E+03    -241.086E-03     476.465E-03    -235.379E-03     260.156E-03    -256.794E-03     492.015E-03    -235.047E-03     218.097E-03
            1568     11.3853E-03     72.3176E-03    -16.0638E+06     21.1433E+06     69.4495E+06    -1.05175E+06    -241.342E-03     476.689E-03    -235.348E-03     279.387E-03    -259.011E-03     494.176E-03    -235.008E-03     234.211E-03
            1569     10.6732E-03     71.9388E-03    -22.7007E+06     13.4334E+06     67.1386E+06     -6.5605E+03    -241.874E-03     477.234E-03    -235.360E-03     287.761E-03    -259.988E-03     495.120E-03    -235.010E-03     241.452E-03
            1570     9.96031E-03     71.5473E-03    -29.8308E+06     4.33052E+06     62.0523E+06     1.29035E+06    -242.536E-03     477.917E-03    -235.381E-03     287.536E-03    -259.952E-03     495.063E-03    -235.034E-03     241.610E-03
            1571     9.24994E-03     71.1676E-03    -36.4248E+06    -2.90943E+06     54.0309E+06     1.22440E+06    -242.573E-03     477.964E-03    -235.392E-03     277.595E-03    -258.274E-03     493.369E-03    -235.065E-03     233.659E-03
            1572     8.53574E-03     70.8055E-03    -42.3469E+06    -10.8521E+06     44.3113E+06     518.851E+03    -242.334E-03     477.721E-03    -235.387E-03     260.074E-03    -255.725E-03     490.795E-03    -235.088E-03     219.304E-03
            1573     7.82713E-03     70.4703E-03    -48.5748E+06    -24.9317E+06     32.0292E+06     515.092E+03    -241.539E-03     476.908E-03    -235.369E-03     238.429E-03    -252.488E-03     487.503E-03    -235.102E-03     201.574E-03
            1574     7.11369E-03     70.1660E-03    -55.9942E+06    -38.9473E+06     20.6760E+06     1.18234E+06    -240.613E-03     475.976E-03    -235.363E-03     216.124E-03    -249.340E-03     484.306E-03    -235.122E-03     183.399E-03
            1575     6.40261E-03     69.8907E-03    -63.6313E+06    -48.0096E+06     11.0195E+06     2.57935E+06    -239.913E-03     475.272E-03    -235.359E-03     193.887E-03    -246.739E-03     481.670E-03    -235.142E-03     165.201E-03
            1576     5.69149E-03     69.6445E-03    -71.6178E+06    -73.6834E+06    -4.68198E+06     3.37611E+06    -239.110E-03     474.456E-03    -235.346E-03     172.004E-03    -244.317E-03     479.161E-03    -235.158E-03     147.218E-03
            1577     4.97993E-03     69.4260E-03    -80.3823E+06    -117.815E+06    -24.9337E+06     2.34377E+06    -238.228E-03     473.578E-03    -235.350E-03     150.359E-03    -242.069E-03     476.788E-03    -235.188E-03     129.288E-03
            1578     4.26762E-03     69.2384E-03    -89.3653E+06    -163.243E+06    -44.5658E+06     1.54180E+06    -237.562E-03     472.933E-03    -235.371E-03     128.794E-03    -240.289E-03     474.893E-03    -235.228E-03     111.200E-03
            1579     3.55683E-03     69.0770E-03    -97.2783E+06    -196.727E+06    -63.4069E+06     1.41933E+06    -236.946E-03     472.321E-03    -235.375E-03     107.250E-03    -238.796E-03     473.311E-03    -235.266E-03     92.9242E-03
            1580     2.84532E-03     68.9464E-03    -103.712E+06    -221.514E+06    -81.4103E+06     1.11057E+06    -236.313E-03     471.689E-03    -235.377E-03     85.7956E-03    -237.482E-03     471.940E-03    -235.312E-03     74.5621E-03
            1581     2.13302E-03     68.8428E-03    -109.216E+06    -245.366E+06    -97.6331E+06     840.440E+03    -235.933E-03     471.324E-03    -235.392E-03     64.5187E-03    -236.592E-03     471.008E-03    -235.366E-03     56.2044E-03
            1582     1.42274E-03     68.7700E-03    -113.041E+06    -274.458E+06    -108.726E+06     463.340E+03    -235.742E-03     471.151E-03    -235.410E-03     43.4422E-03    -236.032E-03     470.382E-03    -235.392E-03     37.8947E-03
            1583     711.434E-06     68.7234E-03    -114.751E+06    -295.546E+06    -113.378E+06     264.726E+03    -235.609E-03     470.952E-03    -235.343E-03     23.5984E-03    -235.678E-03     469.898E-03    -235.315E-03     20.5930E-03
            1584     13.5200E-03     71.8340E-03    -4.56807E+06     30.8759E+06     74.2092E+06    -14.1795E+03    -240.036E-03     475.431E-03    -235.395E-03     196.930E-03    -249.116E-03     484.389E-03    -235.062E-03     167.095E-03
            1585     12.8073E-03     71.4973E-03    -7.48033E+06     30.2967E+06     72.4691E+06    -1.65912E+06    -240.431E-03     475.766E-03    -235.335E-03     245.907E-03    -254.275E-03     489.481E-03    -235.005E-03     206.967E-03
            1586     12.0970E-03     71.1673E-03    -11.1754E+06     25.1016E+06     68.3647E+06    -1.27657E+06    -239.903E-03     475.213E-03    -235.310E-03     260.468E-03    -255.558E-03     490.719E-03    -234.988E-03     218.701E-03
            1587     11.3835E-03     70.8023E-03    -18.2351E+06     18.2958E+06     65.5093E+06    -380.399E+03    -240.778E-03     476.117E-03    -235.338E-03     280.650E-03    -258.467E-03     493.615E-03    -235.011E-03     235.614E-03
            1588     10.6717E-03     70.4191E-03    -24.2211E+06     11.3145E+06     64.9900E+06     778.939E+03    -242.015E-03     477.397E-03    -235.382E-03     288.222E-03    -260.139E-03     495.287E-03    -235.038E-03     241.907E-03
            1589     9.96162E-03     70.0320E-03    -29.8912E+06     4.53538E+06     61.0328E+06     250.336E+03    -242.614E-03     478.015E-03    -235.401E-03     287.526E-03    -260.025E-03     495.159E-03    -235.059E-03     241.586E-03
            1590     9.24737E-03     69.6507E-03    -35.6282E+06    -2.61657E+06     53.5203E+06    -885.789E+03    -242.850E-03     478.248E-03    -235.398E-03     277.174E-03    -258.537E-03     493.644E-03    -235.075E-03     233.155E-03
            1591     8.53898E-03     69.2870E-03    -42.1676E+06    -11.8041E+06     43.6012E+06    -462.163E+03    -242.301E-03     477.680E-03    -235.379E-03     259.529E-03    -255.675E-03     490.736E-03    -235.083E-03     218.750E-03
            1592     7.82488E-03     68.9539E-03    -50.1332E+06    -26.0247E+06     30.0171E+06     535.127E+03    -241.408E-03     476.768E-03    -235.360E-03     238.419E-03    -252.356E-03     487.359E-03    -235.100E-03     201.600E-03
            1593     7.11460E-03     68.6489E-03    -58.2144E+06    -40.3794E+06     17.5780E+06     790.423E+03    -240.767E-03     476.115E-03    -235.348E-03     216.076E-03    -249.495E-03     484.442E-03    -235.117E-03     183.328E-03
            1594     6.40287E-03     68.3735E-03    -66.3591E+06    -50.9054E+06     8.37083E+06     1.13333E+06    -239.973E-03     475.309E-03    -235.336E-03     193.820E-03    -246.803E-03     481.699E-03    -235.124E-03     165.101E-03
            1595     5.69133E-03     68.1269E-03    -74.7252E+06    -74.1794E+06    -5.86186E+06     2.10336E+06    -239.030E-03     474.354E-03    -235.324E-03     171.906E-03    -244.247E-03     479.060E-03    -235.137E-03     147.119E-03
            1596     4.97936E-03     67.9106E-03    -83.1164E+06    -115.755E+06    -25.9916E+06     2.99272E+06    -238.229E-03     473.551E-03    -235.323E-03     150.119E-03    -242.082E-03     476.774E-03    -235.164E-03     129.056E-03
            1597     4.26856E-03     67.7206E-03    -91.0517E+06    -161.417E+06    -45.6379E+06     2.71574E+06    -237.618E-03     472.946E-03    -235.328E-03     128.604E-03    -240.354E-03     474.918E-03    -235.190E-03     111.013E-03
            1598     3.55669E-03     67.5611E-03    -98.4310E+06    -195.246E+06    -64.0710E+06     1.92692E+06    -236.972E-03     472.285E-03    -235.313E-03     107.077E-03    -238.827E-03     473.283E-03    -235.208E-03     92.7623E-03
            1599     2.84519E-03     67.4293E-03    -105.010E+06    -220.423E+06    -82.2357E+06     1.53014E+06    -236.359E-03     471.646E-03    -235.286E-03     85.6641E-03    -237.533E-03     471.903E-03    -235.226E-03     74.4421E-03
            1600     2.13463E-03     67.3271E-03    -109.732E+06    -244.092E+06    -98.4523E+06     1.42986E+06    -235.910E-03     471.174E-03    -235.265E-03     64.4457E-03    -236.571E-03     470.865E-03    -235.244E-03     56.1486E-03
            1601     1.42238E-03     67.2522E-03    -112.593E+06    -272.698E+06    -108.491E+06     1.20623E+06    -235.636E-03     470.894E-03    -235.258E-03     43.5168E-03    -235.927E-03     470.132E-03    -235.242E-03     37.9863E-03
            1602     711.431E-06     67.2077E-03    -114.489E+06    -294.275E+06    -113.345E+06      323.95E+03    -235.667E-03     470.628E-03    -234.961E-03     23.4884E-03    -235.738E-03     469.580E-03    -234.935E-03     20.4674E-03
            1603     13.5182E-03     70.3145E-03    -3.73794E+06     33.2432E+06     75.2905E+06    -763.261E+03    -239.533E-03     474.847E-03    -235.313E-03     197.317E-03    -248.623E-03     483.823E-03    -234.980E-03     167.530E-03
            1604     12.8093E-03     69.9787E-03    -8.26994E+06     31.5245E+06     70.7863E+06    -1.35023E+06    -239.489E-03     474.783E-03    -235.294E-03     248.304E-03    -253.369E-03     488.540E-03    -234.974E-03     209.585E-03
            1605     12.0952E-03     69.6540E-03    -14.3945E+06     21.3610E+06     64.5970E+06    -231.030E+03    -239.599E-03     474.921E-03    -235.321E-03     261.544E-03    -255.267E-03     490.425E-03    -235.008E-03     219.871E-03
            1606     11.3836E-03     69.2843E-03    -19.3624E+06     18.2585E+06     64.0430E+06     668.291E+03    -241.036E-03     476.395E-03    -235.359E-03     280.306E-03    -258.695E-03     493.865E-03    -235.038E-03     235.267E-03
            1607     10.6727E-03     68.9020E-03    -24.6784E+06     12.5889E+06     63.6651E+06    -728.380E+03    -241.934E-03     477.327E-03    -235.392E-03     287.500E-03    -260.017E-03     495.182E-03    -235.056E-03     241.219E-03
            1608     9.95884E-03     68.5151E-03    -30.2711E+06     4.65331E+06     59.6369E+06    -2.13899E+06    -242.905E-03     478.303E-03    -235.398E-03     286.943E-03    -260.314E-03     495.448E-03    -235.062E-03     240.883E-03
            1609     9.25094E-03     68.1313E-03    -36.6671E+06    -3.92623E+06     52.0730E+06    -1.45310E+06    -242.896E-03     478.275E-03    -235.379E-03     277.116E-03    -258.588E-03     493.672E-03    -235.060E-03     233.075E-03
            1610     8.53647E-03     67.7719E-03    -44.3250E+06    -15.0508E+06     41.3251E+06    -671.025E+03    -242.145E-03     477.510E-03    -235.365E-03     259.643E-03    -255.510E-03     490.545E-03    -235.072E-03     218.928E-03
            1611     7.82648E-03     67.4364E-03    -51.2970E+06    -28.2274E+06     28.7107E+06     412.625E+03    -241.556E-03     476.904E-03    -235.349E-03     238.329E-03    -252.496E-03     487.479E-03    -235.090E-03     201.504E-03
            1612     7.11415E-03     67.1315E-03    -58.5018E+06    -41.0549E+06     17.3881E+06     1.88962E+06    -240.838E-03     476.163E-03    -235.325E-03     215.870E-03    -249.561E-03     484.482E-03    -235.094E-03     183.130E-03
            1613     6.40303E-03     66.8562E-03    -67.4031E+06    -50.0387E+06     7.03312E+06     2.18828E+06    -239.886E-03     475.188E-03    -235.302E-03     193.581E-03    -246.717E-03     481.581E-03    -235.096E-03     164.888E-03
            1614     5.69129E-03     66.6108E-03    -77.0050E+06    -75.1199E+06    -8.86977E+06     1.84597E+06    -239.038E-03     474.319E-03    -235.281E-03     171.475E-03    -244.258E-03     479.024E-03    -235.105E-03     146.673E-03
            1615     4.98041E-03     66.3931E-03    -85.4731E+06    -116.286E+06    -27.9691E+06     1.88507E+06    -238.326E-03     473.591E-03    -235.265E-03     149.876E-03    -242.187E-03     476.817E-03    -235.112E-03     128.772E-03
            1616     4.26825E-03     66.2049E-03    -92.9341E+06    -159.720E+06    -46.3291E+06     1.90600E+06    -237.586E-03     472.840E-03    -235.253E-03     128.427E-03    -240.332E-03     474.823E-03    -235.119E-03     110.824E-03
            1617     3.55712E-03     66.0440E-03    -100.057E+06    -193.708E+06    -64.5737E+06     1.75734E+06    -236.855E-03     472.091E-03    -235.236E-03     106.912E-03    -238.716E-03     473.097E-03    -235.133E-03     92.6041E-03
            1618     2.84593E-03     65.9135E-03    -106.795E+06    -218.944E+06    -82.4685E+06     1.40459E+06    -236.277E-03     471.491E-03    -235.214E-03     85.8440E-03    -237.464E-03     471.760E-03    -235.154E-03     74.6231E-03
            1619     2.13377E-03     65.8101E-03    -112.360E+06    -243.766E+06    -98.5618E+06     1.25150E+06    -235.809E-03     471.012E-03    -235.203E-03     64.8719E-03    -236.486E-03     470.711E-03    -235.179E-03     56.5706E-03
            1620     1.42316E-03     65.7370E-03    -116.145E+06    -269.957E+06    -110.367E+06     1.36815E+06    -235.453E-03     470.684E-03    -235.231E-03     43.8763E-03    -235.765E-03     469.946E-03    -235.223E-03     38.3505E-03
            1621     711.241E-06     65.6906E-03    -118.951E+06    -292.171E+06    -116.987E+06     612.280E+03    -235.522E-03     470.639E-03    -235.117E-03     23.9826E-03    -235.614E-03     469.613E-03    -235.106E-03     20.9708E-03
            1622     13.5209E-03     68.7930E-03    -2.96603E+06     35.1687E+06     74.2895E+06    -77.7713E+03    -238.064E-03     473.377E-03    -235.312E-03     197.933E-03    -247.154E-03     482.365E-03    -234.988E-03     168.305E-03
            1623     12.8053E-03     68.4677E-03    -8.41337E+06     31.1974E+06     69.9165E+06        -333.313    -239.270E-03     474.616E-03    -235.346E-03     248.371E-03    -253.165E-03     488.389E-03    -235.029E-03     209.683E-03
            1624     12.0944E-03     68.1318E-03    -13.5932E+06     18.7394E+06     65.5080E+06     640.638E+03    -240.353E-03     475.723E-03    -235.370E-03     261.385E-03    -256.002E-03     491.200E-03    -235.050E-03     219.599E-03
            1625     11.3847E-03     67.7682E-03    -17.4921E+06     19.8385E+06     66.1156E+06     439.192E+03    -241.462E-03     476.831E-03    -235.368E-03     279.688E-03    -259.104E-03     494.289E-03    -235.041E-03     234.584E-03
            1626     10.6710E-03     67.3859E-03    -22.0656E+06     15.8061E+06     65.6198E+06    -439.000E+03    -242.158E-03     477.529E-03    -235.371E-03     287.274E-03    -260.251E-03     495.409E-03    -235.033E-03     240.930E-03
            1627     9.96274E-03     66.9958E-03    -28.5231E+06     5.10299E+06     60.5892E+06    -235.063E+03    -242.659E-03     478.034E-03    -235.375E-03     286.901E-03    -260.039E-03     495.155E-03    -235.038E-03     240.948E-03
            1628     9.24764E-03     66.6161E-03    -36.4538E+06    -5.31483E+06     51.6383E+06     396.379E+03    -242.681E-03     478.054E-03    -235.373E-03     277.123E-03    -258.350E-03     493.424E-03    -235.054E-03     233.188E-03
            1629     8.53827E-03     66.2535E-03    -44.1518E+06    -15.4581E+06     40.8887E+06     857.286E+03    -242.411E-03     477.765E-03    -235.354E-03     259.357E-03    -255.762E-03     490.786E-03    -235.063E-03     218.633E-03
            1630     7.82571E-03     65.9197E-03    -52.8591E+06    -30.5754E+06     27.3682E+06     1.09316E+06    -241.770E-03     477.082E-03    -235.312E-03     238.076E-03    -252.716E-03     487.652E-03    -235.054E-03     201.208E-03
            1631     7.11501E-03     65.6140E-03    -61.5716E+06    -42.7112E+06     15.8087E+06     1.54333E+06    -240.774E-03     476.046E-03    -235.272E-03     215.418E-03    -249.499E-03     484.354E-03    -235.042E-03     182.681E-03
            1632     6.40318E-03     65.3398E-03    -69.5533E+06    -49.1438E+06     6.16806E+06     1.89921E+06    -239.766E-03     475.009E-03    -235.244E-03     193.144E-03    -246.599E-03     481.404E-03    -235.041E-03     164.458E-03
            1633     5.69208E-03     65.0932E-03    -77.2551E+06    -74.1852E+06    -9.14798E+06     1.75808E+06    -238.943E-03     474.168E-03    -235.225E-03     171.431E-03    -244.162E-03     478.876E-03    -235.051E-03     146.639E-03
            1634     4.97997E-03     64.8772E-03    -85.1260E+06    -115.822E+06    -27.9115E+06     1.29662E+06    -238.226E-03     473.444E-03    -235.218E-03     150.061E-03    -242.087E-03     476.672E-03    -235.066E-03     128.964E-03
            1635     4.26927E-03     64.6875E-03    -93.1748E+06    -159.446E+06    -46.4031E+06     1.24666E+06    -237.489E-03     472.709E-03    -235.220E-03     128.799E-03    -240.243E-03     474.700E-03    -235.085E-03     111.188E-03
            1636     3.55748E-03     64.5289E-03    -100.608E+06    -193.036E+06    -64.6316E+06     1.31959E+06    -236.793E-03     472.010E-03    -235.217E-03     107.485E-03    -238.666E-03     473.028E-03    -235.114E-03     93.1678E-03
            1637     2.84538E-03     64.3967E-03    -106.968E+06    -218.053E+06    -81.9487E+06     1.44315E+06    -236.242E-03     471.452E-03    -235.210E-03     86.1301E-03    -237.434E-03     471.728E-03    -235.149E-03     74.9143E-03
            1638     2.13449E-03     64.2948E-03    -112.020E+06    -242.801E+06    -97.8728E+06     1.24399E+06    -235.806E-03     471.011E-03    -235.205E-03     64.7584E-03    -236.483E-03     470.712E-03    -235.180E-03     56.4551E-03
            1639     1.42216E-03     64.2200E-03    -115.261E+06    -268.640E+06    -110.075E+06     701.458E+03    -235.492E-03     470.707E-03    -235.215E-03     43.6232E-03    -235.801E-03     469.972E-03    -235.209E-03     38.0817E-03
            1640     711.250E-06     64.1753E-03    -116.715E+06    -289.336E+06    -116.037E+06     1.18575E+06    -235.311E-03     470.579E-03    -235.268E-03     23.5359E-03    -235.396E-03     469.560E-03    -235.259E-03     20.5730E-03
            1641     13.5167E-03     67.2826E-03    -3.69361E+06     34.4067E+06     72.3391E+06     26.9935E+03    -237.994E-03     473.353E-03    -235.360E-03     197.731E-03    -247.101E-03     482.360E-03    -235.042E-03     168.065E-03
            1642     12.8067E-03     66.9466E-03    -8.37037E+06     30.3445E+06     70.0627E+06     947.083E+03    -240.197E-03     475.581E-03    -235.383E-03     248.825E-03    -254.121E-03     489.379E-03    -235.065E-03     209.962E-03
            1643     12.0961E-03     66.6161E-03    -12.6090E+06     20.1871E+06     66.0960E+06     334.773E+03    -240.711E-03     476.078E-03    -235.367E-03     260.407E-03    -256.327E-03     491.529E-03    -235.047E-03     218.605E-03
            1644     11.3822E-03     66.2494E-03    -17.2994E+06     20.8087E+06     65.5293E+06    -696.406E+03    -241.293E-03     476.641E-03    -235.348E-03     279.086E-03    -258.924E-03     494.094E-03    -235.025E-03     233.984E-03
            1645     10.6746E-03     65.8667E-03    -23.7661E+06     14.5723E+06     64.2061E+06    -419.486E+03    -242.080E-03     477.437E-03    -235.357E-03     287.702E-03    -260.199E-03     495.337E-03    -235.023E-03     241.347E-03
            1646     9.95923E-03     65.4815E-03    -30.6070E+06     4.00339E+06     59.1134E+06     578.152E+03    -242.784E-03     478.147E-03    -235.363E-03     287.208E-03    -260.177E-03     495.274E-03    -235.029E-03     241.262E-03
            1647     9.25034E-03     65.0972E-03    -37.4076E+06    -6.34810E+06     50.6521E+06     1.30006E+06    -242.968E-03     478.311E-03    -235.343E-03     276.476E-03    -258.615E-03     493.655E-03    -235.026E-03     232.519E-03
            1648     8.53724E-03     64.7373E-03    -45.1242E+06    -16.8093E+06     40.0019E+06     2.57942E+06    -242.508E-03     477.807E-03    -235.299E-03     258.767E-03    -255.853E-03     490.815E-03    -235.009E-03     218.027E-03
            1649     7.82702E-03     64.4012E-03    -53.0324E+06    -29.3162E+06     27.9726E+06     3.38632E+06    -241.632E-03     476.880E-03    -235.248E-03     237.528E-03    -252.571E-03     487.445E-03    -234.988E-03     200.696E-03
            1650     7.11532E-03     64.0979E-03    -60.8591E+06    -40.1024E+06     16.7398E+06     2.10716E+06    -240.597E-03     475.807E-03    -235.211E-03     215.423E-03    -249.323E-03     484.127E-03    -234.981E-03     182.707E-03
            1651     6.40415E-03     63.8226E-03    -68.4869E+06    -49.2116E+06     6.83860E+06     688.289E+03    -239.642E-03     474.839E-03    -235.197E-03     193.496E-03    -246.475E-03     481.234E-03    -234.992E-03     164.816E-03
            1652     5.69182E-03     63.5778E-03    -76.3385E+06    -74.3863E+06    -7.97440E+06     797.186E+03    -238.773E-03     473.972E-03    -235.199E-03     171.688E-03    -243.986E-03     478.674E-03    -235.021E-03     146.923E-03
            1653     4.98071E-03     63.3598E-03    -84.4855E+06    -115.312E+06    -27.3281E+06     1.20317E+06    -238.034E-03     473.249E-03    -235.215E-03     150.272E-03    -241.893E-03     476.478E-03    -235.062E-03     129.203E-03
            1654     4.26813E-03     63.1724E-03    -92.1182E+06    -159.031E+06    -45.6469E+06     1.03445E+06    -237.384E-03     472.627E-03    -235.244E-03     128.815E-03    -240.132E-03     474.616E-03    -235.108E-03     111.218E-03
            1655     3.55656E-03     63.0116E-03    -99.2171E+06    -192.604E+06    -63.5869E+06     792.925E+03    -236.825E-03     472.079E-03    -235.254E-03     107.389E-03    -238.690E-03     473.092E-03    -235.149E-03     93.0725E-03
            1656     2.84580E-03     62.8810E-03    -105.252E+06    -217.987E+06    -81.0985E+06     653.153E+03    -236.348E-03     471.585E-03    -235.237E-03     86.1052E-03    -237.532E-03     471.857E-03    -235.174E-03     74.8683E-03
            1657     2.13384E-03     62.7777E-03    -109.579E+06    -241.261E+06    -96.5799E+06     397.603E+03    -235.948E-03     471.145E-03    -235.197E-03     64.8262E-03    -236.618E-03     470.850E-03    -235.172E-03     56.5076E-03
            1658     1.42344E-03     62.7045E-03    -113.015E+06    -269.058E+06    -106.505E+06     470.275E+03    -235.638E-03     470.780E-03    -235.142E-03     43.5564E-03    -235.939E-03     470.033E-03    -235.120E-03     38.0363E-03
            1659     711.603E-06     62.6584E-03    -115.843E+06    -286.818E+06    -113.043E+06     912.003E+03    -235.533E-03     470.293E-03    -234.760E-03     23.3300E-03    -235.620E-03     469.280E-03    -234.742E-03     20.3852E-03
            1660     13.5184E-03     65.7676E-03    -4.78470E+06     33.3724E+06     73.0688E+06     340.349E+03    -238.936E-03     474.315E-03    -235.378E-03     196.803E-03    -248.016E-03     483.284E-03    -235.054E-03     167.089E-03
            1661     12.8056E-03     65.4258E-03    -8.61021E+06     31.1369E+06     69.9242E+06     516.273E+03    -240.708E-03     476.057E-03    -235.348E-03     247.489E-03    -254.586E-03     489.811E-03    -235.031E-03     208.618E-03
            1662     12.0945E-03     65.0977E-03    -12.6781E+06     21.4614E+06     65.0136E+06    -429.146E+03    -240.008E-03     475.329E-03    -235.321E-03     259.351E-03    -255.590E-03     490.754E-03    -235.009E-03     217.663E-03
            1663     11.3867E-03     64.7316E-03    -18.2135E+06     20.2135E+06     64.0294E+06     178.947E+03    -240.903E-03     476.240E-03    -235.337E-03     279.969E-03    -258.544E-03     493.702E-03    -235.019E-03     234.970E-03
            1664     10.6698E-03     64.3523E-03    -24.2658E+06     13.7747E+06     63.1170E+06     1.01661E+06    -242.335E-03     477.692E-03    -235.357E-03     287.570E-03    -260.431E-03     495.567E-03    -235.026E-03     241.224E-03
            1665     9.96216E-03     63.9602E-03    -30.8957E+06     2.92363E+06     58.2407E+06     1.43607E+06    -243.220E-03     478.552E-03    -235.332E-03     286.155E-03    -260.598E-03     495.661E-03    -235.000E-03     240.116E-03
            1666     9.24933E-03     63.5821E-03    -38.4906E+06    -8.04634E+06     49.8798E+06      2.2988E+06    -243.103E-03     478.383E-03    -235.280E-03     276.146E-03    -258.765E-03     493.735E-03    -234.963E-03     232.137E-03
            1667     8.53953E-03     63.2184E-03    -45.6857E+06    -17.9592E+06     40.1795E+06     2.69718E+06    -242.352E-03     477.585E-03    -235.232E-03     258.946E-03    -255.700E-03     490.589E-03    -234.939E-03     218.245E-03
            1668     7.82740E-03     62.8857E-03    -51.5547E+06    -28.1638E+06     29.8659E+06     2.35211E+06    -241.321E-03     476.525E-03    -235.204E-03     238.002E-03    -252.251E-03     487.086E-03    -234.939E-03     201.242E-03
            1669     7.11558E-03     62.5809E-03    -57.4054E+06    -37.3040E+06     19.7616E+06     2.11224E+06    -240.429E-03     475.625E-03    -235.196E-03     215.924E-03    -249.150E-03     483.952E-03    -234.959E-03     183.249E-03
            1670     6.40333E-03     62.3065E-03    -65.2130E+06    -47.7006E+06      8.8282E+06     1.98939E+06    -239.581E-03     474.777E-03    -235.196E-03     193.634E-03    -246.397E-03     481.166E-03    -234.988E-03     165.004E-03
            1671     5.69231E-03     62.0608E-03    -74.1043E+06    -74.1481E+06    -6.75495E+06     1.52420E+06    -238.761E-03     473.966E-03    -235.206E-03     171.748E-03    -243.965E-03     478.664E-03    -235.024E-03     146.997E-03
            1672     4.97975E-03     61.8446E-03    -82.3958E+06    -114.826E+06    -25.5792E+06     1.10368E+06    -238.062E-03     473.285E-03    -235.223E-03     150.111E-03    -241.911E-03     476.508E-03    -235.065E-03     129.046E-03
            1673     4.26889E-03     61.6553E-03    -90.0052E+06    -158.358E+06    -43.9716E+06     824.427E+03    -237.441E-03     472.684E-03    -235.243E-03     128.461E-03    -240.173E-03     474.662E-03    -235.103E-03     110.879E-03
            1674     3.55748E-03     61.4962E-03    -97.0624E+06    -192.246E+06    -62.0711E+06     609.467E+03    -236.864E-03     472.103E-03    -235.240E-03     107.104E-03    -238.716E-03     473.109E-03    -235.130E-03     92.7903E-03
            1675     2.84518E-03     61.3639E-03    -103.577E+06    -217.170E+06    -79.6402E+06     285.910E+03    -236.327E-03     471.541E-03    -235.214E-03     85.7859E-03    -237.502E-03     471.808E-03    -235.147E-03     74.5613E-03
            1676     2.13444E-03     61.2618E-03    -109.364E+06    -241.280E+06    -95.2223E+06     262.889E+03    -235.877E-03     471.059E-03    -235.182E-03     64.6231E-03    -236.544E-03     470.758E-03    -235.150E-03     56.3214E-03
            1677     1.42231E-03     61.1873E-03    -113.975E+06    -268.609E+06    -106.757E+06     400.452E+03    -235.522E-03     470.680E-03    -235.159E-03     43.6369E-03    -235.828E-03     469.938E-03    -235.138E-03     38.1117E-03
            1678     711.698E-06     61.1433E-03    -116.448E+06    -286.111E+06    -114.123E+06    -679.515E+03    -235.603E-03     470.388E-03    -234.785E-03     23.6615E-03    -235.695E-03     469.382E-03    -234.772E-03     20.6692E-03
            1679     13.5174E-03     64.2445E-03    -3.34883E+06     32.9618E+06     74.6304E+06     529.321E+03    -239.681E-03     475.018E-03    -235.338E-03     196.541E-03    -248.779E-03     484.005E-03    -235.007E-03     166.772E-03
            1680     12.8097E-03     63.9098E-03    -7.28048E+06     32.1818E+06     71.1075E+06     47.0790E+03    -239.784E-03     475.091E-03    -235.307E-03     248.085E-03    -253.689E-03     488.878E-03    -234.988E-03     209.315E-03
            1681     12.0981E-03     63.5816E-03    -12.0521E+06     21.4071E+06     65.8946E+06     837.411E+03    -239.631E-03     474.958E-03    -235.327E-03     260.949E-03    -255.220E-03     490.389E-03    -235.011E-03     219.394E-03
            1682     11.3803E-03     63.2170E-03    -17.8396E+06     18.4793E+06     64.0373E+06     1.37952E+06    -241.671E-03     477.007E-03    -235.336E-03     279.816E-03    -259.309E-03     494.462E-03    -235.017E-03     234.694E-03
            1683     10.6747E-03     62.8298E-03    -23.3513E+06     13.0813E+06     63.3139E+06     2.29749E+06    -242.716E-03     478.024E-03    -235.308E-03     286.252E-03    -260.775E-03     495.862E-03    -234.976E-03     239.850E-03
            1684     9.96127E-03     62.4461E-03    -30.0362E+06     2.72852E+06     58.9373E+06     3.36545E+06    -242.908E-03     478.178E-03    -235.270E-03     285.897E-03    -260.272E-03     495.274E-03    -234.936E-03     239.942E-03
            1685     9.25122E-03     62.0621E-03    -36.0914E+06    -7.79518E+06     51.8552E+06     3.38679E+06    -242.752E-03     477.997E-03    -235.245E-03     276.675E-03    -258.408E-03     493.347E-03    -234.922E-03     232.762E-03
            1686     8.53873E-03     61.7033E-03    -41.7102E+06    -15.3835E+06     43.1597E+06     2.56940E+06    -242.099E-03     477.329E-03    -235.230E-03     259.673E-03    -255.439E-03     490.341E-03    -234.931E-03     219.048E-03
            1687     7.82683E-03     61.3684E-03    -48.1640E+06    -27.3401E+06     31.2489E+06     1.23952E+06    -241.374E-03     476.591E-03    -235.217E-03     238.490E-03    -252.291E-03     487.149E-03    -234.951E-03     201.743E-03
            1688     7.11521E-03     61.0647E-03    -55.2260E+06    -39.4531E+06     20.2548E+06     1.52625E+06    -240.545E-03     475.753E-03    -235.208E-03     215.824E-03    -249.241E-03     484.054E-03    -234.969E-03     183.163E-03
            1689     6.40405E-03     60.7898E-03    -62.6332E+06    -47.5885E+06     11.2087E+06     3.17557E+06    -239.567E-03     474.777E-03    -235.210E-03     193.396E-03    -246.364E-03     481.150E-03    -234.994E-03     164.807E-03
            1690     5.69146E-03     60.5449E-03    -70.9010E+06    -71.3888E+06    -3.69485E+06     3.26448E+06    -238.800E-03     474.016E-03    -235.216E-03     171.540E-03    -243.990E-03     478.712E-03    -235.028E-03     146.828E-03
            1691     4.98081E-03     60.3275E-03    -79.6466E+06    -112.786E+06    -23.2996E+06     2.25705E+06    -238.164E-03     473.386E-03    -235.222E-03     150.063E-03    -242.002E-03     476.609E-03    -235.059E-03     129.013E-03
            1692     4.26857E-03     60.1396E-03    -87.9936E+06    -157.311E+06    -42.4200E+06     1.60600E+06    -237.543E-03     472.768E-03    -235.225E-03     128.638E-03    -240.271E-03     474.748E-03    -235.081E-03     111.063E-03
            1693     3.55686E-03     59.9792E-03    -95.6570E+06    -191.277E+06    -60.8455E+06     1.19323E+06    -236.958E-03     472.158E-03    -235.200E-03     107.188E-03    -238.806E-03     473.164E-03    -235.088E-03     92.8893E-03
            1694     2.84633E-03     59.8482E-03    -102.349E+06    -216.219E+06    -78.2412E+06     920.268E+03    -236.330E-03     471.485E-03    -235.155E-03     85.7514E-03    -237.500E-03     471.751E-03    -235.084E-03     74.5499E-03
            1695     2.13413E-03     59.7454E-03    -107.820E+06    -240.998E+06    -94.3736E+06     607.393E+03    -235.734E-03     470.863E-03    -235.129E-03     64.5291E-03    -236.395E-03     470.559E-03    -235.095E-03     56.2335E-03
            1696     1.42327E-03     59.6718E-03    -110.476E+06    -267.109E+06    -105.623E+06    -174.413E+03    -235.330E-03     470.499E-03    -235.170E-03     43.3514E-03    -235.622E-03     469.758E-03    -235.150E-03     37.8201E-03
            1697     710.747E-06     59.6270E-03    -112.006E+06    -287.210E+06    -111.100E+06    -556.076E+03    -235.163E-03     470.545E-03    -235.382E-03     23.6113E-03    -235.234E-03     469.521E-03    -235.358E-03     20.6403E-03
            1698     13.5219E-03     62.7295E-03    -3.50827E+06     32.8553E+06     73.0339E+06     193.772E+03    -238.839E-03     474.174E-03    -235.334E-03     197.337E-03    -247.939E-03     483.165E-03    -235.012E-03     167.720E-03
            1699     12.8058E-03     62.3919E-03    -8.68790E+06     31.3735E+06     69.1281E+06     814.953E+03    -239.583E-03     474.926E-03    -235.344E-03     249.609E-03    -253.536E-03     488.760E-03    -235.031E-03     210.855E-03
            1700     12.0911E-03     62.0662E-03    -14.2052E+06     20.5537E+06     64.2918E+06     860.325E+03    -241.024E-03     476.359E-03    -235.334E-03     260.312E-03    -256.636E-03     491.806E-03    -235.022E-03     218.473E-03
            1701     11.3878E-03     61.6934E-03    -18.3644E+06     17.4850E+06     64.3505E+06     996.503E+03    -242.123E-03     477.404E-03    -235.281E-03     278.511E-03    -259.748E-03     494.839E-03    -234.958E-03     233.269E-03
            1702     10.6729E-03     61.3164E-03    -23.9370E+06     9.79457E+06     63.7328E+06     2.06573E+06    -242.099E-03     477.353E-03    -235.254E-03     286.679E-03    -260.161E-03     495.181E-03    -234.915E-03     240.400E-03
            1703     9.96289E-03     60.9259E-03    -28.8679E+06     2.28022E+06     60.7269E+06     2.71990E+06    -242.464E-03     477.726E-03    -235.261E-03     286.947E-03    -259.834E-03     494.824E-03    -234.919E-03     241.105E-03
            1704     9.25004E-03     60.5479E-03    -34.2012E+06    -5.90899E+06     53.6088E+06     2.19437E+06    -242.562E-03     477.830E-03    -235.268E-03     277.312E-03    -258.207E-03     493.177E-03    -234.942E-03     233.469E-03
            1705     8.53815E-03     60.1852E-03    -40.3874E+06    -14.5045E+06     43.3224E+06     1.32810E+06    -242.245E-03     477.500E-03    -235.256E-03     259.483E-03    -255.564E-03     490.499E-03    -234.959E-03     218.835E-03
            1706     7.82691E-03     59.8522E-03    -47.2745E+06    -26.9879E+06     30.3403E+06     1.77477E+06    -241.514E-03     476.738E-03    -235.224E-03     237.885E-03    -252.409E-03     487.281E-03    -234.964E-03     201.129E-03
            1707     7.11551E-03     59.5472E-03    -55.5143E+06    -40.2048E+06     18.6842E+06     2.30855E+06    -240.513E-03     475.718E-03    -235.206E-03     215.507E-03    -249.194E-03     484.006E-03    -234.973E-03     182.881E-03
            1708     6.40331E-03     59.2740E-03    -64.1356E+06    -49.2785E+06     10.0839E+06     2.14140E+06    -239.599E-03     474.810E-03    -235.211E-03     193.397E-03    -246.399E-03     481.178E-03    -234.996E-03     164.790E-03
            1709     5.69246E-03     59.0279E-03    -72.0876E+06    -70.5489E+06    -3.60868E+06     2.70762E+06    -238.852E-03     474.066E-03    -235.214E-03     171.623E-03    -244.049E-03     478.767E-03    -235.025E-03     146.907E-03
            1710     4.97979E-03     58.8116E-03    -80.1350E+06    -110.327E+06    -23.0735E+06     2.73167E+06    -238.235E-03     473.442E-03    -235.207E-03     149.932E-03    -242.074E-03     476.672E-03    -235.047E-03     128.900E-03
            1711     4.26879E-03     58.6227E-03    -87.9817E+06    -155.791E+06    -41.9567E+06     1.97482E+06    -237.647E-03     472.838E-03    -235.192E-03     128.305E-03    -240.373E-03     474.821E-03    -235.048E-03     110.729E-03
            1712     3.55778E-03     58.4631E-03    -95.0810E+06    -189.878E+06    -60.0322E+06     1.56037E+06    -236.919E-03     472.069E-03    -235.150E-03     106.838E-03    -238.763E-03     473.076E-03    -235.037E-03     92.5508E-03
            1713     2.84545E-03     58.3316E-03    -101.529E+06    -215.172E+06    -77.8425E+06     1.21404E+06    -236.221E-03     471.328E-03    -235.107E-03     85.6500E-03    -237.388E-03     471.597E-03    -235.037E-03     74.4563E-03
            1714     2.13475E-03     58.2297E-03    -106.254E+06    -238.802E+06    -93.7555E+06     339.336E+03    -235.665E-03     470.758E-03    -235.093E-03     64.5260E-03    -236.322E-03     470.462E-03    -235.062E-03     56.2305E-03
            1715     1.42245E-03     58.1560E-03    -109.907E+06    -267.226E+06    -104.134E+06    -189.369E+03    -235.318E-03     470.465E-03    -235.147E-03     43.6317E-03    -235.610E-03     469.720E-03    -235.121E-03     38.1036E-03
            1716     712.026E-06     58.1109E-03    -113.728E+06    -287.908E+06    -111.061E+06     562.914E+03    -235.101E-03     470.482E-03    -235.381E-03     23.6333E-03    -235.181E-03     469.458E-03    -235.354E-03     20.6737E-03
            1717     13.5150E-03     61.2091E-03    -4.51609E+06     29.9226E+06     70.9129E+06     493.689E+03    -238.977E-03     474.387E-03    -235.410E-03     198.245E-03    -248.105E-03     483.399E-03    -235.092E-03     168.397E-03
            1718     12.8051E-03     60.8795E-03    -8.20211E+06     29.9323E+06     68.9273E+06     1.19450E+06    -241.763E-03     477.115E-03    -235.352E-03     247.000E-03    -255.646E-03     490.875E-03    -235.039E-03     207.910E-03
            1719     12.1002E-03     60.5401E-03    -11.8957E+06     22.1070E+06     65.3937E+06     1.60312E+06    -241.060E-03     476.321E-03    -235.261E-03     258.794E-03    -256.625E-03     491.732E-03    -234.949E-03     216.961E-03
            1720     11.3837E-03     60.1805E-03    -16.4668E+06     16.4318E+06     65.4219E+06     2.24620E+06    -240.948E-03     476.192E-03    -235.244E-03     279.296E-03    -258.555E-03     493.609E-03    -234.917E-03     234.333E-03
            1721     10.6744E-03     59.7960E-03    -21.3956E+06     9.49450E+06     65.9247E+06     2.21888E+06    -241.672E-03     476.958E-03    -235.286E-03     287.964E-03    -259.737E-03     494.789E-03    -234.939E-03     241.814E-03
            1722     9.96111E-03     59.4122E-03    -27.0806E+06     2.52973E+06     62.1812E+06     1.55858E+06    -242.626E-03     477.940E-03    -235.314E-03     287.434E-03    -259.984E-03     495.030E-03    -234.967E-03     241.587E-03
            1723     9.24948E-03     59.0290E-03    -33.3118E+06    -4.82209E+06     54.1524E+06     1.22719E+06    -242.996E-03     478.295E-03    -235.298E-03     276.916E-03    -258.630E-03     493.635E-03    -234.972E-03     232.981E-03
            1724     8.53877E-03     58.6688E-03    -40.7864E+06    -14.5557E+06     43.2974E+06     1.81899E+06    -242.433E-03     477.690E-03    -235.257E-03     258.938E-03    -255.736E-03     490.671E-03    -234.960E-03     218.285E-03
            1725     7.82719E-03     58.3345E-03    -48.9360E+06    -28.6692E+06     30.2880E+06     2.70716E+06    -241.399E-03     476.621E-03    -235.222E-03     237.731E-03    -252.288E-03     487.147E-03    -234.958E-03     201.037E-03
            1726     7.11519E-03     58.0317E-03    -56.5591E+06    -39.2452E+06     19.4355E+06     3.06522E+06    -240.482E-03     475.691E-03    -235.209E-03     215.485E-03    -249.168E-03     483.980E-03    -234.973E-03     182.882E-03
            1727     6.40392E-03     57.7567E-03    -64.5443E+06    -47.3168E+06     9.95232E+06     2.30015E+06    -239.701E-03     474.903E-03    -235.202E-03     193.205E-03    -246.502E-03     481.278E-03    -234.990E-03     164.589E-03
            1728     5.69144E-03     57.5119E-03    -73.2029E+06    -70.9577E+06    -5.02164E+06     1.31120E+06    -239.013E-03     474.193E-03    -235.180E-03     171.199E-03    -244.205E-03     478.888E-03    -234.996E-03     146.446E-03
            1729     4.98090E-03     57.2946E-03    -80.9125E+06    -109.880E+06    -23.4899E+06     1.34182E+06    -238.349E-03     473.495E-03    -235.146E-03     149.444E-03    -242.182E-03     476.719E-03    -234.987E-03     128.399E-03
            1730     4.26927E-03     57.1063E-03    -88.0762E+06    -154.693E+06    -42.0199E+06     1.48418E+06    -237.557E-03     472.670E-03    -235.113E-03     127.946E-03    -240.277E-03     474.650E-03    -234.971E-03     110.388E-03
            1731     3.55743E-03     56.9467E-03    -95.1580E+06    -189.060E+06    -60.5297E+06     1.37561E+06    -236.762E-03     471.838E-03    -235.076E-03     106.691E-03    -238.605E-03     472.848E-03    -234.967E-03     92.4140E-03
            1732     2.84657E-03     56.8163E-03    -101.275E+06    -213.543E+06    -78.1807E+06     982.255E+03    -236.112E-03     471.156E-03    -235.044E-03     85.4792E-03    -237.280E-03     471.433E-03    -234.979E-03     74.2836E-03
            1733     2.13410E-03     56.7135E-03    -106.563E+06    -237.315E+06    -93.9499E+06     667.964E+03    -235.568E-03     470.611E-03    -235.042E-03     64.2007E-03    -236.227E-03     470.321E-03    -235.014E-03     55.9243E-03
            1734     1.42322E-03     56.6407E-03    -110.631E+06    -267.439E+06    -104.324E+06     696.259E+03    -235.256E-03     470.365E-03    -235.109E-03     43.5511E-03    -235.550E-03     469.620E-03    -235.083E-03     38.0303E-03
            1735     710.594E-06     56.5942E-03    -112.145E+06    -286.991E+06    -110.498E+06     439.542E+03    -235.583E-03     470.421E-03    -234.838E-03     23.8661E-03    -235.659E-03     469.400E-03    -234.812E-03     20.8704E-03
            1736     13.5160E-03     59.6909E-03    -4.96731E+06     29.2725E+06     71.2227E+06     328.693E+03    -240.183E-03     475.550E-03    -235.367E-03     195.721E-03    -249.230E-03     484.477E-03    -235.046E-03     165.816E-03
            1737     12.8104E-03     59.3488E-03    -8.95593E+06     28.3696E+06     68.8965E+06     558.376E+03    -241.175E-03     476.452E-03    -235.277E-03     245.792E-03    -255.007E-03     490.153E-03    -234.961E-03     206.813E-03
            1738     12.0952E-03     59.0301E-03    -11.7867E+06     20.1775E+06     66.6996E+06     837.251E+03    -239.621E-03     474.873E-03    -235.252E-03     260.523E-03    -255.236E-03     490.324E-03    -234.931E-03     218.885E-03
            1739     11.3860E-03     58.6603E-03    -16.5889E+06     14.6559E+06     65.3066E+06     1.40867E+06    -240.550E-03     475.850E-03    -235.300E-03     280.691E-03    -258.172E-03     493.276E-03    -234.971E-03     235.819E-03
            1740     10.6717E-03     58.2825E-03    -21.6896E+06     10.3566E+06     64.3300E+06     1.42525E+06    -242.109E-03     477.450E-03    -235.341E-03     287.890E-03    -260.159E-03     495.274E-03    -235.003E-03     241.666E-03
            1741     9.96065E-03     57.8920E-03    -27.6878E+06     3.28317E+06     59.9751E+06     821.324E+03    -243.205E-03     478.533E-03    -235.328E-03     286.580E-03    -260.550E-03     495.618E-03    -234.993E-03     240.586E-03
            1742     9.25048E-03     57.5121E-03    -34.7050E+06    -6.25086E+06     51.9141E+06     1.35657E+06    -243.082E-03     478.364E-03    -235.283E-03     276.170E-03    -258.694E-03     493.681E-03    -234.964E-03     232.224E-03
            1743     8.53855E-03     57.1509E-03    -42.0756E+06    -15.9581E+06     42.2404E+06     2.77227E+06    -242.212E-03     477.459E-03    -235.247E-03     258.838E-03    -255.510E-03     490.429E-03    -234.951E-03     218.243E-03
            1744     7.82679E-03     56.8185E-03    -49.4963E+06    -28.1110E+06     31.2655E+06     3.11719E+06    -241.406E-03     476.632E-03    -235.225E-03     237.590E-03    -252.293E-03     487.152E-03    -234.956E-03     200.906E-03
            1745     7.11539E-03     56.5144E-03    -56.6468E+06    -37.8925E+06     21.1912E+06     1.99756E+06    -240.709E-03     475.907E-03    -235.198E-03     215.182E-03    -249.394E-03     484.195E-03    -234.955E-03     182.530E-03
            1746     6.40353E-03     56.2402E-03    -63.5769E+06    -46.3269E+06     11.5382E+06     1.54016E+06    -239.950E-03     475.105E-03    -235.154E-03     192.617E-03    -246.736E-03     481.466E-03    -234.937E-03     163.978E-03
            1747     5.69306E-03     55.9950E-03    -71.2079E+06    -69.7774E+06    -3.59936E+06     1.62989E+06    -239.113E-03     474.208E-03    -235.095E-03     170.645E-03    -244.284E-03     478.889E-03    -234.909E-03     145.909E-03
            1748     4.98101E-03     55.7779E-03    -79.6203E+06    -109.957E+06    -23.2511E+06     1.40585E+06    -238.212E-03     473.257E-03    -235.044E-03     149.199E-03    -242.036E-03     476.475E-03    -234.886E-03     128.168E-03
            1749     4.26960E-03     55.5904E-03    -87.7626E+06    -154.236E+06    -42.2925E+06     1.49783E+06    -237.375E-03     472.392E-03    -235.017E-03     127.745E-03    -240.090E-03     474.370E-03    -234.877E-03     110.218E-03
            1750     3.55816E-03     55.4311E-03    -95.1592E+06    -187.825E+06    -60.7928E+06     1.18162E+06    -236.666E-03     471.650E-03    -234.985E-03     106.430E-03    -238.507E-03     472.664E-03    -234.878E-03     92.1612E-03
            1751     2.84589E-03     55.3002E-03    -101.646E+06    -212.737E+06    -78.5502E+06     911.594E+03    -236.022E-03     470.972E-03    -234.950E-03     85.2677E-03    -237.191E-03     471.253E-03    -234.887E-03     74.0680E-03
            1752     2.13517E-03     55.1984E-03    -106.234E+06    -236.454E+06    -94.3899E+06     956.884E+03    -235.575E-03     470.499E-03    -234.923E-03     64.1021E-03    -236.233E-03     470.214E-03    -234.899E-03     55.8231E-03
            1753     1.42271E-03     55.1250E-03    -108.782E+06    -266.243E+06    -104.663E+06     338.168E+03    -235.390E-03     470.268E-03    -234.878E-03     43.2767E-03    -235.675E-03     469.525E-03    -234.857E-03     37.7550E-03
            1754     712.257E-06     55.0787E-03    -111.018E+06    -286.490E+06    -109.122E+06    -318.264E+03    -235.121E-03     469.792E-03    -234.671E-03     23.4338E-03    -235.192E-03     468.768E-03    -234.640E-03     20.4630E-03
            1755     13.5239E-03     58.1675E-03    -2.76336E+06     29.6169E+06     73.8185E+06     482.570E+03    -239.479E-03     474.734E-03    -235.255E-03     196.696E-03    -248.513E-03     483.649E-03    -234.925E-03     167.059E-03
            1756     12.8068E-03     57.8387E-03    -6.27851E+06     27.0449E+06     71.6364E+06     631.095E+03    -238.286E-03     473.565E-03    -235.279E-03     247.807E-03    -252.098E-03     487.243E-03    -234.951E-03     209.344E-03
            1757     12.0967E-03     57.5095E-03    -11.1539E+06     18.0794E+06     67.2564E+06     1.14723E+06    -239.462E-03     474.812E-03    -235.350E-03     261.345E-03    -255.053E-03     490.232E-03    -235.024E-03     219.790E-03
            1758     11.3821E-03     57.1463E-03    -16.2576E+06     14.5991E+06     65.7493E+06     1.33007E+06    -241.693E-03     477.062E-03    -235.370E-03     280.022E-03    -259.308E-03     494.481E-03    -235.039E-03     234.925E-03
            1759     10.6724E-03     56.7620E-03    -21.3792E+06     10.7456E+06     64.4700E+06     1.17031E+06    -242.807E-03     478.147E-03    -235.340E-03     286.641E-03    -260.838E-03     495.953E-03    -235.002E-03     240.243E-03
            1760     9.96235E-03     56.3747E-03    -27.6485E+06     2.90118E+06     59.4620E+06     1.88984E+06    -243.033E-03     478.327E-03    -235.294E-03     285.762E-03    -260.346E-03     495.380E-03    -234.961E-03     239.821E-03
            1761     9.25003E-03     55.9946E-03    -35.0574E+06    -7.04595E+06     51.3432E+06     2.93289E+06    -242.725E-03     477.988E-03    -235.264E-03     276.202E-03    -258.321E-03     493.286E-03    -234.946E-03     232.372E-03
            1762     8.53859E-03     55.6347E-03    -42.2373E+06    -16.2131E+06     42.2295E+06     2.74555E+06    -242.330E-03     477.567E-03    -235.237E-03     258.565E-03    -255.613E-03     490.520E-03    -234.941E-03     217.970E-03
            1763     7.82712E-03     55.3013E-03    -48.7750E+06    -26.1451E+06     33.0641E+06     2.02825E+06    -241.710E-03     476.904E-03    -235.194E-03     236.962E-03    -252.580E-03     487.412E-03    -234.920E-03     200.221E-03
            1764     7.11569E-03     54.9974E-03    -55.6742E+06    -35.8421E+06     22.7376E+06     1.23175E+06    -240.951E-03     476.076E-03    -235.125E-03     214.455E-03    -249.619E-03     484.353E-03    -234.878E-03     181.764E-03
            1765     6.40507E-03     54.7231E-03    -63.8295E+06    -46.8762E+06     10.6885E+06     685.158E+03    -239.967E-03     475.010E-03    -235.043E-03     192.066E-03    -246.733E-03     481.352E-03    -234.829E-03     163.439E-03
            1766     5.69300E-03     54.4782E-03    -72.3644E+06    -70.4723E+06    -4.77027E+06     1.11996E+06    -238.945E-03     473.920E-03    -234.975E-03     170.380E-03    -244.111E-03     478.593E-03    -234.792E-03     145.675E-03
            1767     4.98189E-03     54.2625E-03    -80.4445E+06    -109.456E+06    -23.8169E+06     1.66229E+06    -238.021E-03     472.951E-03    -234.930E-03     148.873E-03    -241.842E-03     476.168E-03    -234.774E-03     127.872E-03
            1768     4.26996E-03     54.0745E-03    -88.0798E+06    -153.308E+06    -42.2785E+06     1.36056E+06    -237.240E-03     472.148E-03    -234.908E-03     127.507E-03    -239.955E-03     474.129E-03    -234.769E-03     109.986E-03
            1769     3.55829E-03     53.9155E-03    -95.3098E+06    -186.836E+06    -60.4377E+06     1.22786E+06    -236.553E-03     471.430E-03    -234.877E-03     106.318E-03    -238.396E-03     472.446E-03    -234.770E-03     92.0627E-03
            1770     2.84719E-03     53.7852E-03    -101.736E+06    -211.852E+06    -78.5996E+06     919.073E+03    -235.956E-03     470.790E-03    -234.833E-03     85.1484E-03    -237.124E-03     471.072E-03    -234.771E-03     73.9737E-03
            1771     2.13450E-03     53.6830E-03    -106.764E+06    -235.932E+06    -94.8413E+06     251.539E+03    -235.594E-03     470.364E-03    -234.770E-03     64.1255E-03    -236.253E-03     470.082E-03    -234.747E-03     55.8410E-03
            1772     1.42408E-03     53.6092E-03    -110.012E+06    -265.312E+06    -104.607E+06     463.087E+03    -235.247E-03     469.932E-03    -234.685E-03     43.4015E-03    -235.541E-03     469.196E-03    -234.664E-03     37.8885E-03
            1773     711.940E-06     53.5638E-03    -112.957E+06    -285.793E+06    -111.136E+06     632.588E+03    -234.625E-03     469.362E-03    -234.737E-03     23.4137E-03    -234.703E-03     468.347E-03    -234.714E-03     20.4647E-03
            1774     13.5189E-03     56.6558E-03    -3.01287E+06     28.2238E+06     71.2056E+06    -489.237E+03    -238.003E-03     473.356E-03    -235.353E-03     200.721E-03    -247.162E-03     482.399E-03    -235.034E-03     170.944E-03
            1775     12.8076E-03     56.3248E-03    -6.91770E+06     26.1338E+06     69.9013E+06     394.128E+03    -239.955E-03     475.356E-03    -235.401E-03     250.091E-03    -253.824E-03     489.090E-03    -235.079E-03     211.392E-03
            1776     12.0920E-03     55.9920E-03    -12.0672E+06     17.5740E+06     64.9531E+06     1.01470E+06    -240.966E-03     476.354E-03    -235.388E-03     260.363E-03    -256.524E-03     491.743E-03    -235.072E-03     218.597E-03
            1777     11.3845E-03     55.6255E-03    -16.4689E+06     15.8497E+06     63.9032E+06     683.186E+03    -242.213E-03     477.544E-03    -235.331E-03     277.922E-03    -259.772E-03     494.915E-03    -235.010E-03     232.689E-03
            1778     10.6741E-03     55.2437E-03    -22.5847E+06     9.54280E+06     62.6945E+06     998.764E+03    -242.440E-03     477.727E-03    -235.287E-03     286.275E-03    -260.444E-03     495.502E-03    -234.954E-03     239.962E-03
            1779     9.96165E-03     54.8580E-03    -28.9333E+06     579.556E+03     59.1197E+06     2.31730E+06    -242.658E-03     477.933E-03    -235.275E-03     286.175E-03    -259.953E-03     494.956E-03    -234.939E-03     240.379E-03
            1780     9.25014E-03     54.4781E-03    -34.5796E+06    -7.11124E+06     53.0522E+06     2.68077E+06    -243.027E-03     478.280E-03    -235.254E-03     276.049E-03    -258.609E-03     493.561E-03    -234.928E-03     232.191E-03
            1781     8.53877E-03     54.1166E-03    -40.3071E+06    -14.6433E+06     44.6073E+06     2.24456E+06    -242.685E-03     477.877E-03    -235.192E-03     257.766E-03    -255.932E-03     490.800E-03    -234.889E-03     217.135E-03
            1782     7.82791E-03     53.7843E-03    -47.0107E+06    -24.5709E+06     34.9357E+06     1.55529E+06    -241.973E-03     477.078E-03    -235.106E-03     236.479E-03    -252.826E-03     487.576E-03    -234.827E-03     199.698E-03
            1783     7.11719E-03     53.4799E-03    -54.5503E+06    -35.1900E+06     23.9816E+06     1.52461E+06    -240.964E-03     475.972E-03    -235.008E-03     214.050E-03    -249.616E-03     484.236E-03    -234.758E-03     181.383E-03
            1784     6.40536E-03     53.2068E-03    -62.7404E+06    -46.3256E+06     11.2959E+06     2.02900E+06    -239.769E-03     474.686E-03    -234.917E-03     191.769E-03    -246.521E-03     481.018E-03    -234.702E-03     163.203E-03
            1785     5.69424E-03     52.9625E-03    -71.5943E+06    -70.1081E+06    -4.67972E+06     1.82333E+06    -238.768E-03     473.619E-03    -234.851E-03     170.051E-03    -243.925E-03     478.286E-03    -234.669E-03     145.379E-03
            1786     4.98218E-03     52.7464E-03    -80.2343E+06    -108.757E+06    -23.4949E+06     1.27967E+06    -237.866E-03     472.675E-03    -234.810E-03     148.570E-03    -241.678E-03     475.885E-03    -234.653E-03     127.601E-03
            1787     4.27075E-03     52.5596E-03    -88.2523E+06    -152.504E+06    -42.0978E+06     1.22566E+06    -237.065E-03     471.858E-03    -234.792E-03     127.471E-03    -239.779E-03     473.839E-03    -234.654E-03     109.976E-03
            1788     3.55883E-03     52.4003E-03    -95.5277E+06    -186.163E+06    -60.3193E+06     991.212E+03    -236.466E-03     471.230E-03    -234.763E-03     106.272E-03    -238.307E-03     472.245E-03    -234.657E-03     92.0489E-03
            1789     2.84653E-03     52.2699E-03    -101.783E+06    -210.787E+06    -77.8227E+06     586.773E+03    -235.971E-03     470.671E-03    -234.700E-03     84.9880E-03    -237.137E-03     470.953E-03    -234.636E-03     73.8371E-03
            1790     2.13596E-03     52.1679E-03    -106.765E+06    -235.220E+06    -93.9243E+06     406.352E+03    -235.400E-03     470.025E-03    -234.625E-03     64.0438E-03    -236.059E-03     469.743E-03    -234.599E-03     55.7878E-03
            1791     1.42322E-03     52.0942E-03    -110.894E+06    -265.918E+06    -104.642E+06     392.298E+03    -234.864E-03     469.487E-03    -234.623E-03     43.1285E-03    -235.159E-03     468.748E-03    -234.600E-03     37.6231E-03
            1792     711.312E-06     52.0509E-03    -112.265E+06    -283.731E+06    -109.878E+06     952.281E+03    -234.935E-03     469.385E-03    -234.449E-03     23.0831E-03    -235.014E-03     468.377E-03    -234.425E-03     20.1214E-03
            1793     13.5116E-03     55.1308E-03    -4.64723E+06     28.1547E+06     68.3090E+06     185.857E+03    -238.677E-03     474.136E-03    -235.459E-03     197.893E-03    -247.683E-03     483.028E-03    -235.152E-03     168.127E-03
            1794     12.8021E-03     54.8032E-03    -9.69572E+06     25.3739E+06     64.1325E+06    -395.965E+03    -241.785E-03     477.179E-03    -235.395E-03     243.848E-03    -255.457E-03     490.721E-03    -235.097E-03     204.916E-03
            1795     12.0979E-03     54.4717E-03    -13.3112E+06     16.8474E+06     60.9974E+06    -804.196E+03    -241.056E-03     476.354E-03    -235.298E-03     258.230E-03    -256.594E-03     491.727E-03    -234.998E-03     216.337E-03
            1796     11.3855E-03     54.1076E-03    -18.1893E+06     13.7721E+06     60.8258E+06     95.0481E+03    -241.302E-03     476.567E-03    -235.265E-03     278.870E-03    -258.848E-03     493.921E-03    -234.954E-03     233.856E-03
            1797     10.6730E-03     53.7267E-03    -23.7595E+06     7.64191E+06     60.9880E+06     1.44513E+06    -242.114E-03     477.389E-03    -235.275E-03     286.785E-03    -260.092E-03     495.133E-03    -234.947E-03     240.626E-03
            1798     9.96145E-03     53.3419E-03    -29.2992E+06     332.893E+03     58.5037E+06     1.22853E+06    -243.236E-03     478.494E-03    -235.259E-03     285.880E-03    -260.518E-03     495.504E-03    -234.924E-03     239.979E-03
            1799     9.25068E-03     52.9585E-03    -35.0010E+06    -7.37379E+06     52.5622E+06     126.387E+03    -243.523E-03     478.710E-03    -235.187E-03     275.129E-03    -259.084E-03     493.968E-03    -234.862E-03     231.144E-03
            1800     8.54023E-03     52.6005E-03    -40.9394E+06    -15.6711E+06     43.6961E+06    -169.637E+03    -242.856E-03     477.936E-03    -235.080E-03     257.126E-03    -256.093E-03     490.845E-03    -234.779E-03     216.419E-03
            1801     7.82896E-03     52.2659E-03    -47.3419E+06    -25.0093E+06     33.7468E+06     672.347E+03    -241.882E-03     476.851E-03    -234.969E-03     235.955E-03    -252.719E-03     487.333E-03    -234.695E-03     199.186E-03
            1802     7.11762E-03     51.9634E-03    -54.8408E+06    -35.9764E+06     22.6744E+06     1.59584E+06    -240.645E-03     475.517E-03    -234.872E-03     213.545E-03    -249.273E-03     483.757E-03    -234.627E-03     180.953E-03
            1803     6.40653E-03     51.6907E-03    -62.8725E+06    -47.0712E+06     11.4260E+06     2.16675E+06    -239.555E-03     474.354E-03    -234.799E-03     191.595E-03    -246.297E-03     480.673E-03    -234.583E-03     163.081E-03
            1804     5.69457E-03     51.4465E-03    -70.9577E+06    -68.6415E+06    -3.24655E+06     2.54414E+06    -238.586E-03     473.332E-03    -234.745E-03     170.035E-03    -243.735E-03     477.994E-03    -234.559E-03     145.424E-03
            1805     4.98317E-03     51.2316E-03    -79.3667E+06    -106.720E+06    -22.4925E+06     2.15978E+06    -237.767E-03     472.474E-03    -234.707E-03     148.625E-03    -241.573E-03     475.684E-03    -234.549E-03     127.714E-03
            1806     4.27080E-03     51.0446E-03    -87.3746E+06    -151.345E+06    -41.2811E+06     1.14403E+06    -237.150E-03     471.823E-03    -234.673E-03     127.264E-03    -239.854E-03     473.799E-03    -234.533E-03     109.799E-03
            1807     3.55909E-03     50.8854E-03    -94.3674E+06    -185.424E+06    -59.3871E+06     423.882E+03    -236.491E-03     471.098E-03    -234.607E-03     105.848E-03    -238.321E-03     472.107E-03    -234.498E-03     91.6390E-03
            1808     2.84804E-03     50.7549E-03    -100.465E+06    -210.379E+06    -76.4312E+06     433.719E+03    -235.770E-03     470.297E-03    -234.527E-03     84.6169E-03    -236.927E-03     470.572E-03    -234.458E-03     73.4876E-03
            1809     2.13531E-03     50.6533E-03    -105.731E+06    -234.435E+06    -92.1814E+06     596.131E+03    -235.124E-03     469.596E-03    -234.472E-03     63.6475E-03    -235.779E-03     469.310E-03    -234.439E-03     55.4266E-03
            1810     1.42398E-03     50.5810E-03    -109.447E+06    -265.289E+06    -103.276E+06     146.240E+03    -234.753E-03     469.226E-03    -234.473E-03     42.8587E-03    -235.041E-03     468.484E-03    -234.446E-03     37.3642E-03
            1811     712.352E-06     50.5350E-03    -112.475E+06    -283.331E+06    -109.969E+06    -735.547E+03    -234.694E-03     469.054E-03    -234.360E-03     23.5067E-03    -234.775E-03     468.050E-03    -234.336E-03     20.5073E-03
            1812     13.5213E-03     53.6182E-03    -3.94755E+06     27.3472E+06     69.6032E+06     426.985E+03    -240.707E-03     476.038E-03    -235.331E-03     194.775E-03    -249.647E-03     484.859E-03    -235.017E-03     165.019E-03
            1813     12.8124E-03     53.2796E-03    -6.75146E+06     26.2933E+06     66.6395E+06     1.02821E+06    -239.773E-03     475.029E-03    -235.257E-03     244.276E-03    -253.441E-03     488.574E-03    -234.952E-03     205.681E-03
            1814     12.0964E-03     52.9585E-03    -11.4989E+06     17.8163E+06     62.1134E+06     1.81020E+06    -239.794E-03     475.050E-03    -235.256E-03     260.363E-03    -255.331E-03     490.429E-03    -234.955E-03     218.792E-03
            1815     11.3839E-03     52.5888E-03    -17.4455E+06     12.2536E+06     61.6441E+06     2.08192E+06    -241.341E-03     476.622E-03    -235.281E-03     279.863E-03    -258.882E-03     493.966E-03    -234.966E-03     234.951E-03
            1816     10.6728E-03     52.2108E-03    -22.2090E+06     7.87613E+06     63.1068E+06     1.44967E+06    -242.930E-03     478.197E-03    -235.267E-03     285.818E-03    -260.886E-03     495.919E-03    -234.931E-03     239.499E-03
            1817     9.96260E-03     51.8210E-03    -27.3620E+06     2.02856E+06     60.2978E+06     431.136E+03    -243.808E-03     478.989E-03    -235.181E-03     284.665E-03    -261.067E-03     495.983E-03    -234.842E-03     238.607E-03
            1818     9.25232E-03     51.4424E-03    -33.5643E+06    -6.13926E+06     52.6228E+06    -87.2584E+03    -243.530E-03     478.590E-03    -235.059E-03     274.344E-03    -259.063E-03     493.829E-03    -234.739E-03     230.348E-03
            1819     8.54096E-03     51.0815E-03    -40.7119E+06    -15.9956E+06     42.2449E+06    -309.718E+03    -242.769E-03     477.704E-03    -234.935E-03     256.831E-03    -255.988E-03     490.599E-03    -234.642E-03     216.152E-03
            1820     7.83056E-03     50.7498E-03    -48.0744E+06    -27.6178E+06     31.1535E+06     30.9844E+03    -241.568E-03     476.396E-03    -234.827E-03     235.712E-03    -252.376E-03     486.845E-03    -234.562E-03     199.038E-03
            1821     7.11899E-03     50.4477E-03    -55.2951E+06    -38.0470E+06     21.0924E+06     1.33693E+06    -240.364E-03     475.116E-03    -234.752E-03     213.614E-03    -248.968E-03     483.328E-03    -234.512E-03     181.125E-03
            1822     6.40688E-03     50.1749E-03    -63.1157E+06    -47.7324E+06     10.8855E+06     2.17749E+06    -239.407E-03     474.103E-03    -234.697E-03     191.595E-03    -246.131E-03     480.403E-03    -234.482E-03     163.155E-03
            1823     5.69526E-03     49.9316E-03    -71.3558E+06    -67.9655E+06    -3.25289E+06     1.85185E+06    -238.544E-03     473.187E-03    -234.643E-03     169.650E-03    -243.673E-03     477.831E-03    -234.457E-03     145.100E-03
            1824     4.98280E-03     49.7165E-03    -78.8507E+06    -104.533E+06    -21.4018E+06     1.09525E+06    -237.865E-03     472.447E-03    -234.582E-03     148.044E-03    -241.656E-03     475.649E-03    -234.423E-03     127.148E-03
            1825     4.27183E-03     49.5292E-03    -85.7949E+06    -150.329E+06    -40.1062E+06     630.614E+03    -237.176E-03     471.687E-03    -234.511E-03     126.713E-03    -239.864E-03     473.653E-03    -234.369E-03     109.266E-03
            1826     3.56043E-03     49.3708E-03    -92.8557E+06    -185.037E+06    -58.4586E+06     733.646E+03    -236.327E-03     470.750E-03    -234.423E-03     105.679E-03    -238.146E-03     471.752E-03    -234.312E-03     91.4994E-03
            1827     2.84786E-03     49.2408E-03    -99.5442E+06    -209.975E+06    -76.4115E+06     765.564E+03    -235.519E-03     469.865E-03    -234.346E-03     84.5961E-03    -236.671E-03     470.140E-03    -234.280E-03     73.4973E-03
            1828     2.13649E-03     49.1399E-03    -104.535E+06    -233.725E+06    -92.0158E+06     473.159E+03    -234.934E-03     469.241E-03    -234.307E-03     63.6221E-03    -235.582E-03     468.954E-03    -234.276E-03     55.4236E-03
            1829     1.42402E-03     49.0664E-03    -107.895E+06    -263.785E+06    -102.000E+06     92.1580E+03    -234.599E-03     468.917E-03    -234.319E-03     43.0616E-03    -234.885E-03     468.180E-03    -234.290E-03     37.5720E-03
            1830     711.621E-06     49.0227E-03    -111.028E+06    -284.081E+06    -108.724E+06    -76.4118E+03    -234.208E-03     468.758E-03    -234.550E-03     23.4747E-03    -234.283E-03     467.746E-03    -234.521E-03     20.4954E-03
            1831     13.5221E-03     52.0968E-03    -3.59838E+06     26.0834E+06     69.7113E+06    -245.918E+03    -239.336E-03     474.629E-03    -235.294E-03     198.173E-03    -248.431E-03     483.602E-03    -234.978E-03     168.431E-03
            1832     12.8052E-03     51.7694E-03    -8.31126E+06     23.7277E+06     67.2652E+06     1.24832E+06    -239.402E-03     474.712E-03    -235.310E-03     250.298E-03    -253.266E-03     488.436E-03    -234.996E-03     211.706E-03
            1833     12.0946E-03     51.4375E-03    -12.9748E+06     16.8407E+06     64.5832E+06     2.30198E+06    -240.835E-03     476.162E-03    -235.327E-03     260.975E-03    -256.374E-03     491.527E-03    -235.009E-03     219.319E-03
            1834     11.3845E-03     51.0734E-03    -16.4820E+06     13.8132E+06     65.2114E+06     1.37808E+06    -242.667E-03     477.937E-03    -235.271E-03     278.096E-03    -260.201E-03     495.273E-03    -234.941E-03     232.858E-03
            1835     10.6744E-03     50.6889E-03    -21.0468E+06     9.66178E+06     64.8218E+06     422.694E+03    -243.413E-03     478.579E-03    -235.166E-03     284.671E-03    -261.343E-03     496.280E-03    -234.826E-03     238.212E-03
            1836     9.96454E-03     50.3042E-03    -26.8597E+06     2.19869E+06     60.4336E+06    -45.1955E+03    -243.634E-03     478.680E-03    -235.046E-03     284.015E-03    -260.862E-03     495.645E-03    -234.708E-03     237.989E-03
            1837     9.25317E-03     49.9240E-03    -33.0235E+06    -6.33177E+06     52.4028E+06     422.259E+03    -243.298E-03     478.223E-03    -234.926E-03     274.286E-03    -258.802E-03     493.436E-03    -234.607E-03     230.384E-03
            1838     8.54290E-03     49.5649E-03    -39.7210E+06    -15.6093E+06     41.9871E+06     1.20655E+06    -242.365E-03     477.184E-03    -234.820E-03     256.959E-03    -255.546E-03     490.048E-03    -234.529E-03     216.444E-03
            1839     7.83068E-03     49.2337E-03    -47.3942E+06    -27.8579E+06     29.3631E+06     1.53226E+06    -241.297E-03     476.030E-03    -234.733E-03     235.937E-03    -252.074E-03     486.455E-03    -234.477E-03     199.402E-03
            1840     7.11895E-03     48.9320E-03    -55.1256E+06    -39.3237E+06     19.2827E+06     1.21436E+06    -240.482E-03     475.147E-03    -234.665E-03     213.710E-03    -249.064E-03     483.338E-03    -234.432E-03     181.271E-03
            1841     6.40756E-03     48.6597E-03    -62.2323E+06    -47.8596E+06     11.6175E+06     1.15134E+06    -239.592E-03     474.186E-03    -234.594E-03     191.064E-03    -246.286E-03     480.456E-03    -234.376E-03     162.654E-03
            1842     5.69569E-03     48.4163E-03    -69.1563E+06    -66.6415E+06    -1.62408E+06     791.505E+03    -238.719E-03     473.218E-03    -234.499E-03     169.005E-03    -243.823E-03     477.845E-03    -234.310E-03     144.456E-03
            1843     4.98498E-03     48.2014E-03    -76.8703E+06    -104.129E+06    -20.5246E+06     562.661E+03    -237.887E-03     472.282E-03    -234.395E-03     147.585E-03    -241.659E-03     475.471E-03    -234.235E-03     126.703E-03
            1844     4.27269E-03     48.0146E-03    -85.3338E+06    -150.388E+06    -39.9970E+06     1.13690E+06    -236.959E-03     471.263E-03    -234.305E-03     126.276E-03    -239.633E-03     473.217E-03    -234.163E-03     108.889E-03
            1845     3.56026E-03     47.8570E-03    -93.1739E+06    -184.441E+06    -58.7606E+06     1.28906E+06    -236.040E-03     470.259E-03    -234.220E-03     105.086E-03    -237.850E-03     471.254E-03    -234.111E-03     90.9676E-03
            1846     2.84877E-03     47.7271E-03    -99.5408E+06    -208.788E+06    -76.6701E+06     950.777E+03    -235.240E-03     469.395E-03    -234.155E-03     84.0663E-03    -236.386E-03     469.668E-03    -234.091E-03     73.0181E-03
            1847     2.13609E-03     47.6265E-03    -104.337E+06    -232.695E+06    -92.9684E+06     443.839E+03    -234.720E-03     468.845E-03    -234.125E-03     63.4519E-03    -235.365E-03     468.563E-03    -234.101E-03     55.2571E-03
            1848     1.42412E-03     47.5536E-03    -107.440E+06    -263.282E+06    -103.028E+06     128.663E+03    -234.466E-03     468.595E-03    -234.129E-03     42.7723E-03    -234.748E-03     467.860E-03    -234.107E-03     37.2940E-03
            1849     712.422E-06     47.5085E-03    -109.383E+06    -284.245E+06    -107.531E+06     168.791E+03    -234.303E-03     468.369E-03    -234.067E-03     22.9478E-03    -234.369E-03     467.350E-03    -234.034E-03     20.0202E-03
            1850     13.5136E-03     50.5830E-03    -2.93593E+06     24.7631E+06     70.6188E+06     1.54825E+06    -238.364E-03     473.820E-03    -235.456E-03     198.993E-03    -247.399E-03     482.728E-03    -235.135E-03     169.306E-03
            1851     12.8055E-03     50.2481E-03    -7.76631E+06     22.9374E+06     69.4301E+06     1.32802E+06    -241.990E-03     477.415E-03    -235.426E-03     246.655E-03    -255.728E-03     491.006E-03    -235.101E-03     207.706E-03
            1852     12.0955E-03     49.9188E-03    -11.9543E+06     16.9557E+06     66.9889E+06     8.82753E+03    -242.394E-03     477.691E-03    -235.297E-03     258.176E-03    -257.903E-03     493.023E-03    -234.969E-03     216.115E-03
            1853     11.3863E-03     49.5506E-03    -15.6233E+06     14.0147E+06     66.5421E+06    -483.865E+03    -242.889E-03     478.043E-03    -235.154E-03     276.614E-03    -260.373E-03     495.329E-03    -234.819E-03     231.280E-03
            1854     10.6767E-03     49.1724E-03    -20.6647E+06     9.84822E+06     65.1739E+06    -111.198E+03    -243.025E-03     478.062E-03    -235.037E-03     284.737E-03    -260.929E-03     495.738E-03    -234.695E-03     238.372E-03
            1855     9.96503E-03     48.7854E-03    -26.8390E+06     1.94902E+06     60.0467E+06     513.587E+03    -243.237E-03     478.177E-03    -234.940E-03     284.509E-03    -260.437E-03     495.115E-03    -234.603E-03     238.647E-03
            1856     9.25483E-03     48.4074E-03    -33.7640E+06    -7.26188E+06     51.6154E+06     897.918E+03    -242.968E-03     477.819E-03    -234.851E-03     274.872E-03    -258.448E-03     493.004E-03    -234.533E-03     231.129E-03
            1857     8.54236E-03     48.0486E-03    -40.8644E+06    -17.1193E+06     41.5668E+06     1.36287E+06    -242.280E-03     477.049E-03    -234.769E-03     257.323E-03    -255.443E-03     489.886E-03    -234.478E-03     216.906E-03
            1858     7.83110E-03     47.7182E-03    -47.6567E+06    -26.9358E+06     29.9230E+06     1.87895E+06    -241.631E-03     476.301E-03    -234.669E-03     235.494E-03    -252.380E-03     486.697E-03    -234.411E-03     198.979E-03
            1859     7.11973E-03     47.4158E-03    -54.2724E+06    -37.2748E+06     19.6291E+06     943.897E+03    -240.823E-03     475.371E-03    -234.548E-03     212.604E-03    -249.369E-03     483.535E-03    -234.317E-03     180.152E-03
            1860     6.40850E-03     47.1437E-03    -61.5645E+06    -47.2780E+06     11.2448E+06    -625.408E+03    -239.729E-03     474.152E-03    -234.423E-03     190.003E-03    -246.393E-03     480.397E-03    -234.209E-03     161.581E-03
            1861     5.69745E-03     46.9014E-03    -70.0528E+06    -67.8333E+06    -2.94597E+06    -151.606E+03    -238.671E-03     472.962E-03    -234.291E-03     168.401E-03    -243.759E-03     477.569E-03    -234.106E-03     143.874E-03
            1862     4.98496E-03     46.6863E-03    -78.9841E+06    -105.188E+06    -22.2346E+06     1.17358E+06    -237.688E-03     471.857E-03    -234.168E-03     146.980E-03    -241.449E-03     475.028E-03    -234.012E-03     126.176E-03
            1863     4.27356E-03     46.5012E-03    -87.0307E+06    -149.746E+06    -40.8961E+06     1.31266E+06    -236.737E-03     470.806E-03    -234.069E-03     125.678E-03    -239.404E-03     472.751E-03    -233.930E-03     108.349E-03
            1864     3.56213E-03     46.3433E-03    -94.0441E+06    -183.508E+06    -59.2102E+06     941.248E+03    -235.807E-03     469.782E-03    -233.975E-03     104.629E-03    -237.615E-03     470.777E-03    -233.869E-03     90.5486E-03
            1865     2.84930E-03     46.2150E-03    -100.225E+06    -207.761E+06    -76.9624E+06     796.526E+03    -235.062E-03     468.956E-03    -233.894E-03     83.7239E-03    -236.205E-03     469.229E-03    -233.832E-03     72.7116E-03
            1866     2.13714E-03     46.1138E-03    -105.137E+06    -231.695E+06    -93.3574E+06     607.588E+03    -234.600E-03     468.417E-03    -233.817E-03     62.9380E-03    -235.246E-03     468.137E-03    -233.795E-03     54.7817E-03
            1867     1.42486E-03     46.0405E-03    -108.613E+06    -263.025E+06    -103.953E+06     526.442E+03    -234.179E-03     467.941E-03    -233.762E-03     42.2338E-03    -234.462E-03     467.206E-03    -233.743E-03     36.8004E-03
            1868     712.245E-06     45.9965E-03    -110.771E+06    -283.557E+06    -109.227E+06     534.673E+03    -233.999E-03     467.579E-03    -233.580E-03     23.0077E-03    -234.070E-03     466.567E-03    -233.554E-03     20.0861E-03
            1869     13.5154E-03     49.0553E-03    -4.77948E+06     23.4807E+06     71.6185E+06     484.888E+03    -240.895E-03     476.359E-03    -235.463E-03     196.430E-03    -249.829E-03     485.151E-03    -235.132E-03     166.548E-03
            1870     12.8069E-03     48.7280E-03    -7.05318E+06     24.4907E+06     70.9160E+06     630.699E+03    -242.822E-03     478.132E-03    -235.309E-03     242.429E-03    -256.393E-03     491.558E-03    -234.980E-03     203.467E-03
            1871     12.0986E-03     48.3959E-03    -10.0744E+06     18.5461E+06     67.0139E+06    -416.861E+03    -241.805E-03     476.942E-03    -235.137E-03     257.090E-03    -257.263E-03     492.236E-03    -234.815E-03     215.103E-03
            1872     11.3885E-03     48.0340E-03    -16.0617E+06     12.7572E+06     63.7554E+06    -686.745E+03    -241.968E-03     476.995E-03    -235.027E-03     277.122E-03    -259.410E-03     494.241E-03    -234.704E-03     232.022E-03
            1873     10.6764E-03     47.6536E-03    -21.8515E+06     8.12011E+06     62.5019E+06     50.4360E+03    -242.551E-03     477.513E-03    -234.962E-03     285.458E-03    -260.428E-03     495.160E-03    -234.629E-03     239.274E-03
            1874     9.96616E-03     47.2687E-03    -27.9614E+06     820.269E+03     58.6168E+06     694.194E+03    -242.992E-03     477.895E-03    -234.903E-03     285.091E-03    -260.161E-03     494.798E-03    -234.571E-03     239.380E-03
            1875     9.25347E-03     46.8906E-03    -34.3811E+06    -7.71297E+06     51.5343E+06     1.05159E+06    -243.134E-03     477.960E-03    -234.826E-03     274.705E-03    -258.579E-03     493.107E-03    -234.508E-03     231.006E-03
            1876     8.54278E-03     46.5323E-03    -40.9845E+06    -17.0745E+06     42.8207E+06     901.787E+03    -242.852E-03     477.562E-03    -234.710E-03     256.156E-03    -255.971E-03     490.350E-03    -234.412E-03     215.689E-03
            1877     7.83189E-03     46.2007E-03    -47.3195E+06    -26.6336E+06     32.3104E+06     34.9092E+03    -242.092E-03     476.638E-03    -234.546E-03     234.234E-03    -252.804E-03     486.994E-03    -234.277E-03     197.659E-03
            1878     7.12157E-03     45.8995E-03    -53.9416E+06    -36.2698E+06     21.5714E+06    -165.388E+03    -240.943E-03     475.308E-03    -234.365E-03     211.630E-03    -249.462E-03     483.444E-03    -234.126E-03     179.185E-03
            1879     6.41035E-03     45.6287E-03    -62.2633E+06    -47.2258E+06     10.5268E+06     688.706E+03    -239.654E-03     473.850E-03    -234.196E-03     189.299E-03    -246.294E-03     480.070E-03    -233.985E-03     160.953E-03
            1880     5.69832E-03     45.3866E-03    -71.5948E+06    -68.7971E+06    -4.49317E+06     1.09350E+06    -238.495E-03     472.538E-03    -234.042E-03     167.669E-03    -243.562E-03     477.119E-03    -233.861E-03     143.237E-03
            1881     4.98730E-03     45.1730E-03    -79.9722E+06    -105.013E+06    -22.7030E+06     638.399E+03    -237.397E-03     471.311E-03    -233.913E-03     146.354E-03    -241.143E-03     474.466E-03    -233.759E-03     125.617E-03
            1882     4.27492E-03     44.9877E-03    -87.2635E+06    -149.194E+06    -40.9388E+06     324.613E+03    -236.445E-03     470.259E-03    -233.815E-03     125.304E-03    -239.104E-03     472.198E-03    -233.676E-03     108.023E-03
            1883     3.56206E-03     44.8311E-03    -94.2997E+06    -183.061E+06    -59.0005E+06     417.138E+03    -235.642E-03     469.353E-03    -233.711E-03     104.233E-03    -237.443E-03     470.341E-03    -233.604E-03     90.1937E-03
            1884     2.85014E-03     44.7027E-03    -100.625E+06    -207.465E+06    -77.0542E+06     368.026E+03    -235.031E-03     468.611E-03    -233.579E-03     83.4277E-03    -236.173E-03     468.883E-03    -233.518E-03     72.4264E-03
            1885     2.13803E-03     44.6013E-03    -105.388E+06    -231.502E+06    -93.0862E+06     620.141E+03    -234.391E-03     467.827E-03    -233.436E-03     62.6825E-03    -235.034E-03     467.544E-03    -233.413E-03     54.5662E-03
            1886     1.42554E-03     44.5298E-03    -108.638E+06    -262.286E+06    -102.645E+06     944.766E+03    -233.760E-03     467.115E-03    -233.355E-03     42.0771E-03    -234.044E-03     466.379E-03    -233.330E-03     36.6915E-03
            1887     712.862E-06     44.4854E-03    -111.422E+06    -281.500E+06    -108.869E+06     803.173E+03    -233.318E-03     466.747E-03    -233.429E-03     22.9512E-03    -233.396E-03     465.746E-03    -233.404E-03     20.0333E-03
            1888     13.5210E-03     47.5394E-03    -4.36560E+06     24.1972E+06     71.6876E+06    -426.340E+03    -242.003E-03     477.275E-03    -235.271E-03     194.856E-03    -250.937E-03     486.071E-03    -234.941E-03     164.923E-03
            1889     12.8113E-03     47.2034E-03    -7.99753E+06     23.0115E+06     67.7760E+06    -1.47504E+06    -241.039E-03     476.159E-03    -235.120E-03     244.065E-03    -254.662E-03     489.639E-03    -234.803E-03     205.274E-03
            1890     12.1002E-03     46.8811E-03    -11.5695E+06     17.2016E+06     63.8041E+06    -617.784E+03    -240.639E-03     475.678E-03    -235.039E-03     258.471E-03    -256.078E-03     490.953E-03    -234.729E-03     216.776E-03
            1891     11.3873E-03     46.5149E-03    -16.2641E+06     12.7143E+06     62.5410E+06     785.836E+03    -241.609E-03     476.605E-03    -234.996E-03     278.549E-03    -259.041E-03     493.843E-03    -234.678E-03     233.651E-03
            1892     10.6774E-03     46.1367E-03    -22.1272E+06     7.45317E+06     61.5379E+06     854.596E+03    -242.594E-03     477.548E-03    -234.955E-03     285.587E-03    -260.429E-03     495.153E-03    -234.626E-03     239.502E-03
            1893     9.96463E-03     45.7518E-03    -28.1349E+06     730.716E+03     58.1761E+06     566.040E+03    -243.502E-03     478.379E-03    -234.877E-03     284.373E-03    -260.628E-03     495.238E-03    -234.546E-03     238.611E-03
            1894     9.25477E-03     45.3730E-03    -34.1088E+06    -7.58047E+06     52.0468E+06    -48.1115E+03    -243.918E-03     478.656E-03    -234.738E-03     273.103E-03    -259.307E-03     493.746E-03    -234.417E-03     229.278E-03
            1895     8.54455E-03     45.0142E-03    -40.3187E+06    -16.8405E+06     43.2651E+06    -308.822E+03    -243.256E-03     477.799E-03    -234.544E-03     254.556E-03    -256.313E-03     490.528E-03    -234.244E-03     214.050E-03
            1896     7.83431E-03     44.6846E-03    -47.0228E+06    -26.8153E+06     31.9709E+06    -311.570E+03    -242.024E-03     476.355E-03    -234.331E-03     233.263E-03    -252.695E-03     486.671E-03    -234.064E-03     196.735E-03
            1897     7.12281E-03     44.3833E-03    -55.0050E+06    -37.7269E+06     20.3568E+06     312.349E+03    -240.681E-03     474.816E-03    -234.135E-03     210.844E-03    -249.164E-03     482.911E-03    -233.899E-03     178.500E-03
            1898     6.41151E-03     44.1141E-03    -63.0872E+06    -48.2297E+06     10.6900E+06     1.17264E+06    -239.477E-03     473.442E-03    -233.965E-03     188.844E-03    -246.094E-03     479.633E-03    -233.750E-03     160.588E-03
            1899     5.70049E-03     43.8723E-03    -70.7282E+06    -67.4248E+06    -2.74676E+06     1.15832E+06    -238.341E-03     472.141E-03    -233.801E-03     167.276E-03    -243.390E-03     476.708E-03    -233.614E-03     142.915E-03
            1900     4.98776E-03     43.6603E-03    -78.5841E+06    -103.666E+06    -21.3808E+06     628.252E+03    -237.250E-03     470.901E-03    -233.651E-03     145.921E-03    -240.976E-03     474.043E-03    -233.494E-03     125.247E-03
            1901     4.27564E-03     43.4752E-03    -86.7722E+06    -149.189E+06    -40.4507E+06     344.261E+03    -236.310E-03     469.835E-03    -233.525E-03     124.562E-03    -238.951E-03     471.755E-03    -233.385E-03     107.342E-03
            1902     3.56394E-03     43.3194E-03    -94.3336E+06    -183.052E+06    -58.7220E+06     169.025E+03    -235.473E-03     468.857E-03    -233.385E-03     103.499E-03    -237.259E-03     469.829E-03    -233.276E-03     89.5153E-03
            1903     2.85142E-03     43.1905E-03    -100.903E+06    -207.420E+06    -76.4063E+06     134.192E+03    -234.679E-03     467.912E-03    -233.232E-03     83.0285E-03    -235.818E-03     468.177E-03    -233.167E-03     72.0689E-03
            1904     2.13873E-03     43.0909E-03    -105.908E+06    -232.198E+06    -92.2685E+06     438.952E+03    -233.955E-03     467.058E-03    -233.103E-03     62.4213E-03    -234.599E-03     466.769E-03    -233.074E-03     54.3262E-03
            1905     1.42579E-03     43.0193E-03    -109.667E+06    -260.773E+06    -103.584E+06     413.639E+03    -233.510E-03     466.506E-03    -232.996E-03     41.9064E-03    -233.798E-03     465.780E-03    -232.977E-03     36.5277E-03
            1906     712.978E-06     42.9756E-03    -112.001E+06    -280.410E+06    -109.879E+06    -660.375E+03    -232.938E-03     465.971E-03    -233.032E-03     22.4928E-03    -233.017E-03     464.975E-03    -233.013E-03     19.5947E-03
            1907     13.5230E-03     46.0212E-03    -2.75762E+06     25.2069E+06     69.7483E+06    -430.852E+03    -240.756E-03     475.928E-03    -235.172E-03     196.128E-03    -249.720E-03     484.770E-03    -234.856E-03     166.323E-03
            1908     12.8099E-03     45.6872E-03    -7.17849E+06     22.7355E+06     65.8545E+06    -228.345E+03    -240.205E-03     475.303E-03    -235.098E-03     247.404E-03    -253.907E-03     488.869E-03    -234.792E-03     208.743E-03
            1909     12.0978E-03     45.3621E-03    -12.6737E+06     15.8423E+06     61.4773E+06    -136.457E+03    -240.626E-03     475.691E-03    -235.065E-03     259.735E-03    -256.052E-03     490.951E-03    -234.763E-03     218.122E-03
            1910     11.3881E-03     44.9979E-03    -17.2719E+06     11.9752E+06     61.7032E+06     313.296E+03    -242.215E-03     477.234E-03    -235.019E-03     278.252E-03    -259.606E-03     494.427E-03    -234.703E-03     233.311E-03
            1911     10.6756E-03     44.6181E-03    -21.9555E+06     7.56813E+06     62.5159E+06     69.8600E+03    -243.395E-03     478.327E-03    -234.932E-03     284.547E-03    -261.186E-03     495.886E-03    -234.599E-03     238.331E-03
            1912     9.96683E-03     44.2339E-03    -26.9968E+06     1.58747E+06     60.0550E+06    -135.097E+03    -244.528E-03     479.301E-03    -234.773E-03     282.848E-03    -261.609E-03     496.118E-03    -234.436E-03     236.891E-03
            1913     9.25688E-03     43.8534E-03    -33.2189E+06    -7.13998E+06     52.8261E+06    -40.8276E+03    -244.218E-03     478.772E-03    -234.554E-03     271.848E-03    -259.544E-03     493.801E-03    -234.232E-03     228.038E-03
            1914     8.54677E-03     43.4980E-03    -39.9428E+06    -17.1405E+06     42.6101E+06    -127.022E+03    -243.128E-03     477.453E-03    -234.325E-03     254.151E-03    -256.142E-03     490.141E-03    -234.029E-03     213.744E-03
            1915     7.83567E-03     43.1674E-03    -47.1705E+06    -28.6734E+06     30.7675E+06     281.083E+03    -241.909E-03     476.011E-03    -234.102E-03     232.783E-03    -252.535E-03     486.278E-03    -233.838E-03     196.366E-03
            1916     7.12497E-03     42.8695E-03    -54.2866E+06    -38.1963E+06     21.1205E+06     1.12255E+06    -240.488E-03     474.390E-03    -233.902E-03     210.179E-03    -248.921E-03     482.434E-03    -233.663E-03     177.968E-03
            1917     6.41330E-03     42.5993E-03    -62.0470E+06    -47.1742E+06     11.9169E+06      850.44E+03    -239.261E-03     472.984E-03    -233.723E-03     188.246E-03    -245.846E-03     479.148E-03    -233.506E-03     160.080E-03
            1918     5.70095E-03     42.3592E-03    -70.5976E+06    -67.1417E+06    -2.71770E+06     372.879E+03    -238.214E-03     471.753E-03    -233.539E-03     166.366E-03    -243.231E-03     476.289E-03    -233.353E-03     142.075E-03
            1919     4.98971E-03     42.1474E-03    -78.8168E+06    -103.245E+06    -21.4544E+06     539.468E+03    -237.184E-03     470.538E-03    -233.355E-03     144.908E-03    -240.886E-03     473.657E-03    -233.198E-03     124.298E-03
            1920     4.27781E-03     41.9635E-03    -86.5042E+06    -148.640E+06    -40.1500E+06     549.041E+03    -236.124E-03     469.315E-03    -233.191E-03     123.949E-03    -238.749E-03     471.222E-03    -233.051E-03     106.792E-03
            1921     3.56494E-03     41.8082E-03    -93.9932E+06    -182.876E+06    -58.9073E+06     553.713E+03    -235.163E-03     468.192E-03    -233.028E-03     103.364E-03    -236.942E-03     469.159E-03    -232.922E-03     89.4350E-03
            1922     2.85227E-03     41.6805E-03    -100.775E+06    -207.463E+06    -76.6304E+06     521.536E+03    -234.253E-03     467.133E-03    -232.880E-03     82.6295E-03    -235.382E-03     467.391E-03    -232.816E-03     71.7396E-03
            1923     2.13923E-03     41.5813E-03    -106.221E+06    -232.051E+06    -91.8529E+06     484.012E+03    -233.479E-03     466.265E-03    -232.786E-03     62.1104E-03    -234.120E-03     465.972E-03    -232.755E-03     54.0638E-03
            1924     1.42644E-03     41.5096E-03    -110.251E+06    -259.044E+06    -104.097E+06     118.693E+03    -233.012E-03     465.776E-03    -232.764E-03     42.0105E-03    -233.305E-03     465.060E-03    -232.749E-03     36.6417E-03
            1925     713.553E-06     41.4667E-03    -112.466E+06    -281.497E+06    -111.623E+06    -331.405E+03    -232.872E-03     465.648E-03    -232.776E-03     22.8539E-03    -232.950E-03     464.651E-03    -232.763E-03     19.9555E-03
            1926     13.5179E-03     44.4959E-03    -3.01965E+06     24.6475E+06     68.0860E+06    -632.771E+03    -239.681E-03     474.951E-03    -235.270E-03     197.296E-03    -248.658E-03     483.807E-03    -234.961E-03     167.462E-03
            1927     12.8089E-03     44.1733E-03    -7.19638E+06     22.6060E+06     65.3822E+06     115.382E+03    -241.180E-03     476.387E-03    -235.207E-03     247.132E-03    -254.860E-03     489.932E-03    -234.903E-03     208.309E-03
            1928     12.0979E-03     43.8414E-03    -12.6052E+06     16.0828E+06     61.6281E+06     468.462E+03    -241.867E-03     476.984E-03    -235.117E-03     259.583E-03    -257.280E-03     492.231E-03    -234.814E-03     217.792E-03
            1929     11.3869E-03     43.4789E-03    -17.0643E+06     12.5253E+06     62.0894E+06    -667.476E+03    -243.304E-03     478.294E-03    -234.990E-03     276.329E-03    -260.640E-03     495.434E-03    -234.673E-03     231.155E-03
            1930     10.6785E-03     43.0995E-03    -21.7592E+06     7.79989E+06     62.6711E+06    -800.277E+03    -244.396E-03     479.209E-03    -234.813E-03     283.290E-03    -262.146E-03     496.728E-03    -234.479E-03     236.870E-03
            1931     9.96858E-03     42.7125E-03    -27.8247E+06     669.055E+03     58.9069E+06    -745.785E+03    -244.662E-03     479.252E-03    -234.590E-03     281.912E-03    -261.684E-03     496.007E-03    -234.256E-03     235.984E-03
            1932     9.25904E-03     42.3371E-03    -34.2188E+06    -8.23934E+06     51.1176E+06    -309.901E+03    -243.997E-03     478.352E-03    -234.354E-03     271.499E-03    -259.270E-03     493.326E-03    -234.037E-03     227.816E-03
            1933     8.54787E-03     41.9808E-03    -40.7875E+06    -17.6491E+06     41.4213E+06    -129.037E+03    -243.060E-03     477.181E-03    -234.121E-03     253.764E-03    -256.029E-03     489.822E-03    -233.829E-03     213.451E-03
            1934     7.83762E-03     41.6517E-03    -47.7348E+06    -28.7517E+06     31.2110E+06    -9.23447E+03    -241.765E-03     475.659E-03    -233.894E-03     232.022E-03    -252.337E-03     485.869E-03    -233.627E-03     195.730E-03
            1935     7.12619E-03     41.3547E-03    -55.0183E+06    -39.0619E+06     21.0947E+06    -266.987E+03    -240.561E-03     474.231E-03    -233.670E-03     209.609E-03    -248.963E-03     482.238E-03    -233.428E-03     177.447E-03
            1936     6.41480E-03     41.0859E-03    -62.3890E+06    -47.7803E+06     11.1177E+06     200.556E+03    -239.347E-03     472.790E-03    -233.443E-03     187.223E-03    -245.891E-03     478.911E-03    -233.228E-03     159.123E-03
            1937     5.70363E-03     40.8465E-03    -70.2841E+06    -66.8401E+06    -3.12035E+06     838.543E+03    -238.005E-03     471.227E-03    -233.222E-03     165.411E-03    -242.983E-03     475.728E-03    -233.039E-03     141.235E-03
            1938     4.99130E-03     40.6349E-03    -78.5881E+06    -102.775E+06    -21.9065E+06     526.086E+03    -236.825E-03     469.852E-03    -233.026E-03     144.359E-03    -240.506E-03     472.952E-03    -232.873E-03     123.847E-03
            1939     4.27860E-03     40.4533E-03    -86.6144E+06    -148.796E+06    -40.9511E+06     566.759E+03    -235.806E-03     468.667E-03    -232.861E-03     123.564E-03    -238.416E-03     470.560E-03    -232.724E-03     106.485E-03
            1940     3.56617E-03     40.2978E-03    -93.8767E+06    -182.579E+06    -59.6178E+06     836.002E+03    -234.841E-03     467.533E-03    -232.692E-03     102.852E-03    -236.609E-03     468.492E-03    -232.589E-03     88.9914E-03
            1941     2.85339E-03     40.1713E-03    -100.183E+06    -206.595E+06    -77.6193E+06     919.477E+03    -233.917E-03     466.452E-03    -232.535E-03     82.1216E-03    -235.034E-03     466.705E-03    -232.478E-03     71.2969E-03
            1942     2.14028E-03     40.0728E-03    -105.221E+06    -230.816E+06    -93.7123E+06     266.584E+03    -233.079E-03     465.523E-03    -232.444E-03     61.7122E-03    -233.710E-03     465.232E-03    -232.425E-03     53.7093E-03
            1943     1.42634E-03     40.0017E-03    -107.930E+06    -259.338E+06    -103.314E+06    -73.0975E+03    -232.562E-03     465.052E-03    -232.490E-03     41.6266E-03    -232.840E-03     464.326E-03    -232.474E-03     36.2991E-03
            1944     712.215E-06     39.9583E-03    -109.486E+06    -281.022E+06    -107.721E+06     995.249E+03    -232.618E-03     465.206E-03    -232.588E-03     22.5418E-03    -232.686E-03     464.200E-03    -232.560E-03     19.6789E-03
            1945     13.5179E-03     42.9770E-03    -3.51481E+06     24.4372E+06     68.7102E+06    -25.3146E+03    -240.056E-03     475.455E-03    -235.400E-03     198.095E-03    -249.032E-03     484.307E-03    -235.086E-03     168.101E-03
            1946     12.8062E-03     42.6509E-03    -8.18484E+06     22.2269E+06     66.6596E+06     57.7015E+03    -243.018E-03     478.294E-03    -235.275E-03     244.337E-03    -256.591E-03     491.723E-03    -234.962E-03     205.304E-03
            1947     12.0975E-03     42.3206E-03    -11.9617E+06     17.3291E+06     64.1786E+06     53.9436E+03    -243.065E-03     478.143E-03    -235.079E-03     256.958E-03    -258.399E-03     493.310E-03    -234.766E-03     214.988E-03
            1948     11.3896E-03     41.9578E-03    -16.3565E+06     13.7271E+06     63.4100E+06    -434.041E+03    -243.934E-03     478.800E-03    -234.866E-03     274.795E-03    -261.202E-03     495.875E-03    -234.545E-03     229.521E-03
            1949     10.6801E-03     41.5788E-03    -22.2778E+06     7.36484E+06     61.6145E+06    -614.084E+03    -244.505E-03     479.143E-03    -234.638E-03     282.610E-03    -262.203E-03     496.610E-03    -234.309E-03     236.207E-03
            1950     9.97090E-03     41.1944E-03    -28.4567E+06    -13.4046E+03     56.8345E+06    -431.635E+03    -244.251E-03     478.659E-03    -234.408E-03     281.502E-03    -261.191E-03     495.333E-03    -234.083E-03     235.776E-03
            1951     9.25961E-03     40.8204E-03    -34.6219E+06        -9.2E+06     49.5403E+06    -686.221E+03    -244.010E-03     478.187E-03    -234.177E-03     271.157E-03    -259.227E-03     493.104E-03    -233.866E-03     227.549E-03
            1952     8.55026E-03     40.4627E-03    -41.1746E+06    -18.3344E+06     41.3392E+06    -490.769E+03    -243.104E-03     477.035E-03    -233.931E-03     252.911E-03    -256.012E-03     489.612E-03    -233.638E-03     212.687E-03
            1953     7.83901E-03     40.1383E-03    -48.5097E+06    -27.7996E+06     31.7032E+06    -441.448E+03    -241.835E-03     475.509E-03    -233.674E-03     231.149E-03    -252.362E-03     485.673E-03    -233.405E-03     194.925E-03
            1954     7.12795E-03     39.8390E-03    -55.9974E+06    -39.0755E+06     20.1788E+06    -722.019E+03    -240.669E-03     474.072E-03    -233.403E-03     208.495E-03    -249.028E-03     482.034E-03    -233.164E-03     176.391E-03
            1955     6.41735E-03     39.5727E-03    -63.8794E+06    -49.7311E+06     8.91230E+06    -746.440E+03    -239.244E-03     472.377E-03    -233.133E-03     186.245E-03    -245.746E-03     478.450E-03    -232.924E-03     158.237E-03
            1956     5.70516E-03     39.3342E-03    -71.8557E+06    -67.8359E+06    -4.63024E+06    -428.272E+03    -237.767E-03     470.656E-03    -232.890E-03     164.760E-03    -242.722E-03     475.129E-03    -232.710E-03     140.671E-03
            1957     4.99272E-03     39.1251E-03    -79.6535E+06    -102.841E+06    -23.1799E+06     302.437E+03    -236.469E-03     469.151E-03    -232.681E-03     143.458E-03    -240.122E-03     472.223E-03    -232.533E-03     123.062E-03
            1958     4.28034E-03     38.9425E-03     -87.557E+06    -149.143E+06    -42.3105E+06     661.335E+03    -235.465E-03     467.972E-03    -232.507E-03     122.658E-03    -238.054E-03     469.844E-03    -232.375E-03     105.682E-03
            1959     3.56754E-03     38.7892E-03    -94.7758E+06    -182.478E+06    -60.6408E+06     825.954E+03    -234.494E-03     466.823E-03    -232.328E-03     102.057E-03    -236.248E-03     467.768E-03    -232.229E-03     88.2809E-03
            1960     2.85409E-03     38.6630E-03    -101.036E+06    -205.452E+06    -78.7597E+06     726.087E+03    -233.618E-03     465.767E-03    -232.149E-03     81.4299E-03    -234.731E-03     466.021E-03    -232.098E-03     70.6519E-03
            1961     2.14070E-03     38.5650E-03    -105.806E+06    -229.013E+06    -95.1698E+06     317.921E+03    -232.935E-03     464.917E-03    -231.982E-03     60.6602E-03    -233.559E-03     464.629E-03    -231.973E-03     52.7202E-03
            1962     1.42744E-03     38.4953E-03    -109.001E+06    -260.912E+06    -104.829E+06     264.704E+03    -232.405E-03     464.256E-03    -231.851E-03     40.7804E-03    -232.678E-03     463.520E-03    -231.838E-03     35.5047E-03
            1963     714.753E-06     38.4496E-03    -111.307E+06    -278.746E+06    -109.996E+06     916.050E+03    -231.373E-03     463.660E-03    -232.287E-03     22.2614E-03    -231.449E-03     462.671E-03    -232.271E-03     19.4342E-03
            1964     13.5139E-03     41.4521E-03    -4.11287E+06     23.9454E+06     69.2929E+06     179.879E+03    -241.510E-03     476.855E-03    -235.345E-03     194.895E-03    -250.319E-03     485.533E-03    -235.027E-03     165.027E-03
            1965     12.8092E-03     41.1259E-03    -7.75132E+06     22.6946E+06     67.7717E+06    -342.769E+03    -242.999E-03     478.157E-03    -235.158E-03     240.469E-03    -256.383E-03     491.397E-03    -234.840E-03     201.597E-03
            1966     12.1016E-03     40.8001E-03    -11.4214E+06     17.9218E+06     64.7080E+06    -258.996E+03    -243.106E-03     478.036E-03    -234.930E-03     255.252E-03    -258.353E-03     493.118E-03    -234.616E-03     213.304E-03
            1967     11.3910E-03     40.4378E-03    -16.5477E+06     13.2334E+06     62.8025E+06     388.967E+03    -243.761E-03     478.468E-03    -234.707E-03     275.038E-03    -260.968E-03     495.481E-03    -234.388E-03     229.916E-03
            1968     10.6823E-03     40.0576E-03    -21.7907E+06     7.82921E+06     61.7315E+06     215.536E+03    -244.086E-03     478.582E-03    -234.496E-03     282.355E-03    -261.702E-03     495.970E-03    -234.167E-03     236.174E-03
            1969     9.97125E-03     39.6792E-03    -27.2959E+06     446.418E+03     57.9959E+06    -141.487E+03    -244.503E-03     478.771E-03    -234.268E-03     281.233E-03    -261.380E-03     495.385E-03    -233.939E-03     235.567E-03
            1970     9.26221E-03     39.3001E-03    -33.7383E+06    -9.02280E+06     51.0018E+06    -101.216E+03    -244.235E-03     478.242E-03    -234.007E-03     270.265E-03    -259.381E-03     493.089E-03    -233.690E-03     226.730E-03
            1971     8.55120E-03     38.9488E-03    -40.8885E+06    -18.0959E+06     41.3332E+06    -54.7726E+03    -243.180E-03     476.899E-03    -233.719E-03     251.701E-03    -256.013E-03     489.403E-03    -233.426E-03     211.580E-03
            1972     7.84088E-03     38.6208E-03    -47.7360E+06    -27.4457E+06     31.2850E+06    -243.745E+03    -242.095E-03     475.508E-03    -233.413E-03     230.016E-03    -252.561E-03     485.616E-03    -233.147E-03     193.846E-03
            1973     7.13095E-03     38.3258E-03    -55.4315E+06    -38.6736E+06     20.5474E+06    -4.27019E+03    -240.536E-03     473.639E-03    -233.103E-03     207.300E-03    -248.831E-03     481.541E-03    -232.864E-03     175.341E-03
            1974     6.41860E-03     38.0598E-03    -63.5640E+06    -49.4662E+06     9.01458E+06    -112.818E+03    -238.926E-03     471.741E-03    -232.815E-03     185.225E-03    -245.381E-03     477.769E-03    -232.606E-03     157.368E-03
            1975     5.70708E-03     37.8231E-03    -71.9757E+06    -68.9676E+06    -5.76561E+06    -409.358E+03    -237.584E-03     470.133E-03    -232.549E-03     163.592E-03    -242.499E-03     474.564E-03    -232.373E-03     139.607E-03
            1976     4.99506E-03     37.6150E-03    -80.7742E+06    -104.095E+06    -24.4417E+06    -56.1247E+03    -236.385E-03     468.685E-03    -232.300E-03     142.534E-03    -240.015E-03     471.729E-03    -232.154E-03     122.210E-03
            1977     4.28204E-03     37.4342E-03    -88.6412E+06    -149.072E+06    -42.7477E+06     350.378E+03    -235.229E-03     467.309E-03    -232.080E-03     121.592E-03    -237.801E-03     469.161E-03    -231.949E-03     104.694E-03
            1978     3.56872E-03     37.2810E-03    -95.8627E+06    -182.448E+06    -61.1700E+06     435.587E+03    -234.137E-03     465.997E-03    -231.860E-03     100.772E-03    -235.876E-03     466.925E-03    -231.762E-03     87.0689E-03
            1979     2.85581E-03     37.1558E-03    -101.885E+06    -205.012E+06    -79.2549E+06     340.904E+03    -233.185E-03     464.831E-03    -231.646E-03     80.3746E-03    -234.288E-03     465.074E-03    -231.597E-03     69.6705E-03
            1980     2.14246E-03     37.0584E-03    -106.462E+06    -228.657E+06    -94.9769E+06     720.144E+03    -232.466E-03     463.921E-03    -231.455E-03     60.3979E-03    -233.090E-03     463.630E-03    -231.444E-03     52.5113E-03
            1981     1.42897E-03     36.9889E-03    -110.286E+06    -260.811E+06    -103.583E+06     1.35619E+06    -231.883E-03     463.194E-03    -231.311E-03     41.1373E-03    -232.167E-03     462.461E-03    -231.291E-03     35.8756E-03
            1982     713.901E-06     36.9465E-03    -113.595E+06    -275.587E+06    -109.976E+06     1.05689E+06    -230.935E-03     462.539E-03    -231.604E-03     22.2965E-03    -231.027E-03     461.570E-03    -231.589E-03     19.4723E-03
            1983     13.5268E-03     39.9392E-03    -3.68597E+06     24.5418E+06     70.0966E+06    -52.7185E+03    -242.893E-03     478.065E-03    -235.173E-03     193.171E-03    -251.654E-03     486.697E-03    -234.852E-03     163.407E-03
            1984     12.8122E-03     39.6036E-03    -7.35472E+06     22.6763E+06     67.0457E+06    -43.7066E+03    -241.854E-03     476.831E-03    -234.977E-03     243.152E-03    -255.291E-03     490.128E-03    -234.663E-03     204.504E-03
            1985     12.1012E-03     39.2804E-03    -11.7444E+06     16.7469E+06     62.3283E+06     8.89206E+03    -242.647E-03     477.448E-03    -234.800E-03     256.815E-03    -257.891E-03     492.529E-03    -234.496E-03     214.976E-03
            1986     11.3932E-03     38.9157E-03    -16.0520E+06     13.0845E+06      61.544E+06     260.643E+03    -243.740E-03     478.341E-03    -234.601E-03     275.516E-03    -260.912E-03     495.324E-03    -234.289E-03     230.462E-03
            1987     10.6820E-03     38.5418E-03    -21.0669E+06     8.46059E+06     61.9768E+06     185.097E+03    -244.417E-03     478.800E-03    -234.383E-03     281.867E-03    -261.952E-03     496.111E-03    -234.055E-03     235.746E-03
            1988     9.97330E-03     38.1570E-03    -26.9985E+06     868.674E+03     59.1162E+06     246.034E+03    -244.941E-03     479.061E-03    -234.120E-03     280.180E-03    -261.745E-03     495.602E-03    -233.787E-03     234.527E-03
            1989     9.26345E-03     37.7845E-03    -33.7153E+06    -8.51205E+06     51.7356E+06     299.807E+03    -244.431E-03     478.243E-03    -233.811E-03     268.930E-03    -259.499E-03     493.010E-03    -233.491E-03     225.476E-03
            1990     8.55374E-03     37.4316E-03    -40.5654E+06    -17.4210E+06     41.5456E+06     267.442E+03    -243.471E-03     476.942E-03    -233.471E-03     250.666E-03    -256.237E-03     489.382E-03    -233.179E-03     210.611E-03
            1991     7.84398E-03     37.1057E-03    -47.9323E+06    -27.7443E+06     30.9267E+06     565.103E+03    -241.961E-03     475.087E-03    -233.126E-03     228.846E-03    -252.357E-03     485.125E-03    -232.862E-03     192.835E-03
            1992     7.13210E-03     36.8125E-03    -55.5342E+06    -38.5754E+06     20.2537E+06     542.112E+03    -240.327E-03     473.122E-03    -232.796E-03     206.299E-03    -248.573E-03     480.976E-03    -232.558E-03     174.475E-03
            1993     6.42161E-03     36.5478E-03    -63.4837E+06    -49.3843E+06     8.92432E+06     466.114E+03    -238.868E-03     471.345E-03    -232.478E-03     184.090E-03    -245.285E-03     477.336E-03    -232.269E-03     156.321E-03
            1994     5.70925E-03     36.3130E-03    -72.0900E+06    -68.5334E+06    -5.57916E+06     856.711E+03    -237.459E-03     469.628E-03    -232.169E-03     162.435E-03    -242.341E-03     474.027E-03    -231.993E-03     138.557E-03
            1995     4.99651E-03     36.1052E-03    -80.6758E+06    -103.356E+06    -23.8295E+06     412.507E+03    -236.280E-03     468.149E-03    -231.869E-03     141.277E-03    -239.885E-03     471.170E-03    -231.722E-03     121.028E-03
            1996     4.28435E-03     35.9261E-03    -88.6112E+06    -149.273E+06    -42.0376E+06    -150.836E+03    -235.068E-03     466.653E-03    -231.585E-03     120.383E-03    -237.621E-03     468.483E-03    -231.450E-03     103.531E-03
            1997     3.57162E-03     35.7745E-03    -95.7066E+06    -182.728E+06    -60.3940E+06    -65.3551E+03    -233.737E-03     465.046E-03    -231.309E-03     99.9419E-03    -235.464E-03     465.960E-03    -231.208E-03     86.2960E-03
            1998     2.85753E-03     35.6504E-03    -101.801E+06    -205.227E+06    -78.4340E+06     310.219E+03    -232.493E-03     463.581E-03    -231.089E-03     79.8511E-03    -233.587E-03     463.813E-03    -231.036E-03     69.2252E-03
            1999     2.14298E-03     35.5540E-03    -107.097E+06    -230.522E+06    -94.5345E+06     1.28579E+06    -231.674E-03     462.634E-03    -230.960E-03     60.1447E-03    -232.298E-03     462.333E-03    -230.943E-03     52.2967E-03
            2000     1.42807E-03     35.4846E-03    -110.845E+06    -257.224E+06    -105.345E+06     1.34614E+06    -231.290E-03     462.172E-03    -230.882E-03     40.3009E-03    -231.576E-03     461.457E-03    -230.875E-03     35.0751E-03
            2001     714.540E-06     35.4428E-03    -112.999E+06    -273.771E+06    -110.349E+06    -963.562E+03    -231.378E-03     461.766E-03    -230.388E-03     21.6043E-03    -231.466E-03     460.804E-03    -230.379E-03     18.7911E-03
            2002     13.5189E-03     38.4139E-03    -3.59696E+06     24.2679E+06     68.0950E+06    -515.204E+03    -242.557E-03     477.723E-03    -235.165E-03     195.078E-03    -251.446E-03     486.487E-03    -234.855E-03     165.080E-03
            2003     12.8121E-03     38.0876E-03    -7.77140E+06     21.9133E+06     64.7583E+06    -316.597E+03    -243.050E-03     478.012E-03    -234.962E-03     246.539E-03    -256.624E-03     491.449E-03    -234.659E-03     207.532E-03
            2004     12.1028E-03     37.7575E-03    -11.9593E+06     16.2877E+06     61.7169E+06     97.5943E+03    -243.145E-03     477.908E-03    -234.763E-03     257.714E-03    -258.353E-03     492.953E-03    -234.461E-03     215.903E-03
            2005     11.3920E-03     37.3967E-03    -16.2490E+06     13.3457E+06     62.1875E+06    -388.983E+03    -244.373E-03     478.909E-03    -234.535E-03     274.682E-03    -261.479E-03     495.824E-03    -234.220E-03     229.583E-03
            2006     10.6845E-03     37.0201E-03    -21.6656E+06     8.01655E+06     62.0662E+06    -222.503E+03    -245.180E-03     479.438E-03    -234.257E-03     280.852E-03    -262.652E-03     496.681E-03    -233.927E-03     234.642E-03
            2007     9.97531E-03     36.6388E-03    -27.7264E+06     383.577E+03     58.0316E+06     199.178E+03    -245.176E-03     479.111E-03    -233.935E-03     278.966E-03    -261.906E-03     495.575E-03    -233.605E-03     233.355E-03
            2008     9.26558E-03     36.2672E-03    -33.7841E+06    -8.29541E+06     50.7233E+06     498.345E+03    -244.640E-03     478.223E-03    -233.583E-03     267.898E-03    -259.623E-03     492.910E-03    -233.268E-03     224.529E-03
            2009     8.55622E-03     35.9136E-03    -40.6816E+06    -17.6925E+06     41.6643E+06     1.03137E+06    -243.477E-03     476.691E-03    -233.215E-03     249.736E-03    -256.174E-03     489.061E-03    -232.922E-03     209.813E-03
            2010     7.84536E-03     35.5925E-03    -47.8760E+06    -27.7405E+06     31.8148E+06     1.21625E+06    -241.832E-03     474.679E-03    -232.847E-03     227.797E-03    -252.171E-03     484.658E-03    -232.579E-03     191.921E-03
            2011     7.13515E-03     35.2988E-03    -55.1590E+06    -38.2345E+06     20.7617E+06     975.194E+03    -240.345E-03     472.825E-03    -232.480E-03     205.189E-03    -248.550E-03     480.638E-03    -232.241E-03     173.444E-03
            2012     6.42311E-03     35.0365E-03    -63.3574E+06    -49.3786E+06     9.35514E+06     1.22423E+06    -238.874E-03     470.986E-03    -232.112E-03     182.690E-03    -245.249E-03     476.934E-03    -231.902E-03     155.008E-03
            2013     5.71160E-03     34.8029E-03    -71.7978E+06    -67.3624E+06    -4.16716E+06     1.07344E+06    -237.455E-03     469.199E-03    -231.744E-03     161.124E-03    -242.307E-03     473.569E-03    -231.563E-03     137.311E-03
            2014     4.99988E-03     34.5969E-03    -79.4970E+06    -101.472E+06    -22.0265E+06     349.826E+03    -236.018E-03     467.405E-03    -231.387E-03     140.108E-03    -239.597E-03     470.405E-03    -231.235E-03     119.935E-03
            2015     4.28660E-03     34.4192E-03    -87.2666E+06    -148.996E+06    -40.8761E+06     60.6058E+03    -234.540E-03     465.617E-03    -231.077E-03     119.482E-03    -237.066E-03     467.423E-03    -230.939E-03     102.741E-03
            2016     3.57285E-03     34.2691E-03    -95.0878E+06    -183.429E+06    -59.4496E+06     350.662E+03    -233.127E-03     463.936E-03    -230.809E-03     99.4216E-03    -234.838E-03     464.830E-03    -230.702E-03     85.8755E-03
            2017     2.85894E-03     34.1472E-03    -102.386E+06    -206.144E+06    -77.7877E+06     1.03002E+06    -232.097E-03     462.677E-03    -230.580E-03     79.5289E-03    -233.190E-03     462.900E-03    -230.522E-03     68.9478E-03
            2018     2.14456E-03     34.0512E-03    -107.805E+06    -231.562E+06    -93.5482E+06     1.61078E+06    -231.415E-03     461.792E-03    -230.377E-03     59.4057E-03    -232.034E-03     461.477E-03    -230.353E-03     51.6226E-03
            2019     1.43046E-03     33.9820E-03    -111.287E+06    -251.997E+06    -107.187E+06     1.25307E+06    -230.760E-03     460.929E-03    -230.169E-03     39.4336E-03    -231.046E-03     460.235E-03    -230.178E-03     34.2963E-03
            2020     715.231E-06     33.9399E-03    -112.842E+06    -273.808E+06    -114.121E+06    -306.577E+03    -230.119E-03     460.261E-03    -230.143E-03     21.5965E-03    -230.199E-03     459.301E-03    -230.153E-03     18.8211E-03
            2021     13.5193E-03     36.8902E-03    -3.06901E+06     24.7172E+06     68.3690E+06      32.034E+03    -242.326E-03     477.604E-03    -235.278E-03     194.848E-03    -251.143E-03     486.299E-03    -234.967E-03     164.794E-03
            2022     12.8101E-03     36.5610E-03    -7.41823E+06     22.6426E+06     65.6367E+06     132.188E+03    -244.780E-03     479.809E-03    -235.028E-03     243.597E-03    -258.210E-03     493.102E-03    -234.722E-03     204.405E-03
            2023     12.1018E-03     36.2375E-03    -11.8259E+06     16.8863E+06     62.9673E+06    -13.7978E+03    -244.294E-03     479.029E-03    -234.735E-03     256.205E-03    -259.449E-03     494.019E-03    -234.427E-03     214.216E-03
            2024     11.3946E-03     35.8738E-03    -17.2503E+06     12.4725E+06     62.1140E+06    -480.549E+03    -245.012E-03     479.448E-03    -234.436E-03     273.667E-03    -262.048E-03     496.287E-03    -234.118E-03     228.504E-03
            2025     10.6857E-03     35.4992E-03    -22.5719E+06     6.83586E+06     61.4000E+06    -294.433E+03    -245.448E-03     479.560E-03    -234.111E-03     279.917E-03    -262.843E-03     496.720E-03    -233.782E-03     233.744E-03
            2026     9.97672E-03     35.1199E-03    -28.3725E+06    -486.176E+03     57.4165E+06    -83.7995E+03    -245.495E-03     479.246E-03    -233.751E-03     278.150E-03    -262.148E-03     495.630E-03    -233.422E-03     232.596E-03
            2027     9.26819E-03     34.7485E-03    -35.0472E+06    -9.28246E+06     50.0178E+06     289.099E+03    -244.868E-03     478.227E-03    -233.359E-03     267.061E-03    -259.786E-03     492.843E-03    -233.045E-03     223.768E-03
            2028     8.55795E-03     34.3989E-03    -41.4566E+06    -18.6770E+06     40.5419E+06     343.436E+03    -243.464E-03     476.415E-03    -232.951E-03     248.334E-03    -256.093E-03     488.713E-03    -232.661E-03     208.501E-03
            2029     7.84805E-03     34.0773E-03    -47.7685E+06    -28.1711E+06     30.3851E+06     444.470E+03    -241.941E-03     474.476E-03    -232.535E-03     226.203E-03    -252.214E-03     484.392E-03    -232.273E-03     190.378E-03
            2030     7.13700E-03     33.7863E-03    -54.8330E+06    -38.2873E+06     20.1345E+06     1.08527E+06    -240.387E-03     472.502E-03    -232.114E-03     203.441E-03    -248.525E-03     480.250E-03    -231.879E-03     171.790E-03
            2031     6.42640E-03     33.5256E-03    -62.2234E+06    -48.6999E+06     10.2993E+06     1.12396E+06    -238.730E-03     470.430E-03    -231.700E-03     181.165E-03    -245.046E-03     476.323E-03    -231.488E-03     153.602E-03
            2032     5.71464E-03     33.2933E-03    -69.7363E+06    -66.4574E+06    -2.89197E+06     810.953E+03    -237.118E-03     468.417E-03    -231.299E-03     160.042E-03    -241.925E-03     472.749E-03    -231.116E-03     136.348E-03
            2033     5.00165E-03     33.0898E-03    -78.1174E+06    -100.739E+06    -21.1876E+06     973.243E+03    -235.471E-03     466.405E-03    -230.934E-03     139.422E-03    -239.018E-03     469.378E-03    -230.780E-03     119.391E-03
            2034     4.28873E-03     32.9137E-03    -86.8481E+06    -148.365E+06    -39.8388E+06     1.25908E+06    -233.967E-03     464.606E-03    -230.639E-03     118.904E-03    -236.474E-03     466.394E-03    -230.497E-03     102.303E-03
            2035     3.57470E-03     32.7665E-03    -95.0629E+06    -183.739E+06    -58.3351E+06     1.49426E+06    -232.814E-03     463.179E-03    -230.365E-03     98.6380E-03    -234.509E-03     464.053E-03    -230.252E-03     85.1979E-03
            2036     2.85997E-03     32.6439E-03    -101.881E+06    -205.931E+06    -76.3209E+06     1.39880E+06    -231.882E-03     461.961E-03    -230.079E-03     78.7241E-03    -232.963E-03     462.170E-03    -230.014E-03     68.2175E-03
            2037     2.14592E-03     32.5491E-03    -107.342E+06    -230.599E+06    -92.1109E+06     1.03062E+06    -230.877E-03     460.708E-03    -229.831E-03     59.1356E-03    -231.490E-03     460.388E-03    -229.802E-03     51.4266E-03
            2038     1.43082E-03     32.4814E-03    -111.439E+06    -250.508E+06    -105.140E+06     1.40266E+06    -230.028E-03     459.713E-03    -229.685E-03     40.0462E-03    -230.320E-03     459.025E-03    -229.686E-03     34.9364E-03
            2039     715.368E-06     32.4417E-03    -112.968E+06    -270.166E+06    -112.391E+06     2.39408E+06    -229.717E-03     459.400E-03    -229.683E-03     21.2033E-03    -229.807E-03     458.457E-03    -229.689E-03     18.4780E-03
            2040     13.5166E-03     35.3593E-03    -3.73694E+06     24.3765E+06     69.6600E+06    -76.4780E+03    -243.371E-03     478.659E-03    -235.288E-03     194.323E-03    -252.082E-03     487.241E-03    -234.969E-03     164.276E-03
            2041     12.8114E-03     35.0379E-03    -7.42470E+06     23.1443E+06     68.4213E+06     413.470E+03    -244.868E-03     479.870E-03    -235.002E-03     240.588E-03    -258.103E-03     492.963E-03    -234.683E-03     201.609E-03
            2042     12.1043E-03     34.7124E-03    -11.6662E+06     17.4140E+06     64.6716E+06     256.207E+03    -244.943E-03     479.608E-03    -234.665E-03     254.808E-03    -260.009E-03     494.507E-03    -234.350E-03     212.782E-03
            2043     11.3956E-03     34.3529E-03    -16.5139E+06     12.9180E+06     62.5226E+06     755.844E+03    -245.436E-03     479.751E-03    -234.315E-03     272.804E-03    -262.377E-03     496.498E-03    -233.997E-03     227.691E-03
            2044     10.6872E-03     33.9780E-03    -22.0354E+06     6.98536E+06     61.2403E+06     676.753E+03    -245.630E-03     479.586E-03    -233.956E-03     278.853E-03    -262.917E-03     496.642E-03    -233.628E-03     232.800E-03
            2045     9.97895E-03     33.6003E-03    -28.2753E+06    -543.998E+03     57.6729E+06     547.642E+03    -245.692E-03     479.258E-03    -233.567E-03     276.848E-03    -262.239E-03     495.536E-03    -233.236E-03     231.406E-03
            2046     9.26942E-03     33.2304E-03    -34.5239E+06    -8.67768E+06     50.8801E+06     157.506E+03    -245.050E-03     478.186E-03    -233.136E-03     265.658E-03    -259.898E-03     492.733E-03    -232.819E-03     222.411E-03
            2047     8.56079E-03     32.8826E-03    -40.7969E+06    -18.1314E+06     41.4478E+06    -620.697E+03    -243.732E-03     476.406E-03    -232.674E-03     246.827E-03    -256.292E-03     488.637E-03    -232.381E-03     207.022E-03
            2048     7.85077E-03     32.5634E-03    -47.2612E+06    -30.3306E+06     30.2349E+06    -477.010E+03    -242.113E-03     474.310E-03    -232.197E-03     224.892E-03    -252.314E-03     484.148E-03    -231.933E-03     189.151E-03
            2049     7.14073E-03     32.2741E-03    -53.7020E+06    -39.8909E+06     19.9953E+06     452.808E+03    -240.265E-03     471.993E-03    -231.728E-03     202.159E-03    -248.325E-03     479.663E-03    -231.492E-03     170.662E-03
            2050     6.42907E-03     32.0154E-03    -61.0900E+06    -48.0120E+06     10.4320E+06     1.04924E+06    -238.344E-03     469.635E-03    -231.291E-03     180.318E-03    -244.606E-03     475.479E-03    -231.080E-03     152.927E-03
            2051     5.71664E-03     31.7857E-03    -69.9944E+06    -66.7395E+06    -3.96436E+06     1.47199E+06    -236.552E-03     467.442E-03    -230.890E-03     159.230E-03    -241.317E-03     471.734E-03    -230.712E-03     135.718E-03
            2052     5.00400E-03     31.5837E-03    -78.7448E+06    -100.399E+06    -22.1300E+06     2.04909E+06    -234.931E-03     465.470E-03    -230.540E-03     138.349E-03    -238.441E-03     468.409E-03    -230.391E-03     118.501E-03
            2053     4.28971E-03     31.4103E-03    -86.6328E+06    -147.536E+06    -39.3047E+06     1.95760E+06    -233.696E-03     463.938E-03    -230.242E-03     117.881E-03    -236.177E-03     465.702E-03    -230.099E-03     101.395E-03
            2054     3.57588E-03     31.2626E-03    -93.7392E+06    -182.727E+06    -56.1190E+06     1.40044E+06    -232.661E-03     462.587E-03    -229.925E-03     97.8056E-03    -234.340E-03     463.447E-03    -229.805E-03     84.4254E-03
            2055     2.86239E-03     31.1427E-03    -100.709E+06    -204.733E+06    -74.2793E+06     1.03876E+06    -231.345E-03     460.955E-03    -229.610E-03     78.0379E-03    -232.412E-03     461.153E-03    -229.538E-03     67.6194E-03
            2056     2.14668E-03     31.0493E-03    -107.278E+06    -229.961E+06    -91.1440E+06     1.10499E+06    -230.167E-03     459.574E-03    -229.407E-03     58.5192E-03    -230.777E-03     459.251E-03    -229.374E-03     50.8554E-03
            2057     1.43057E-03     30.9835E-03    -111.727E+06    -250.541E+06    -103.993E+06     1.37628E+06    -229.609E-03     458.919E-03    -229.310E-03     39.1961E-03    -229.901E-03     458.227E-03    -229.305E-03     34.1061E-03
            2058     715.230E-06     30.9404E-03    -114.151E+06    -264.457E+06    -111.795E+06     1.26588E+06    -229.324E-03     458.626E-03    -229.302E-03     21.3688E-03    -229.426E-03     457.712E-03    -229.312E-03     18.6618E-03
            2059     13.5231E-03     33.8377E-03    -3.93755E+06     24.2003E+06     69.6729E+06    -41.9366E+03    -244.213E-03     479.468E-03    -235.255E-03     195.777E-03    -252.944E-03     488.069E-03    -234.936E-03     165.639E-03
            2060     12.8122E-03     33.5137E-03    -8.17905E+06     22.1016E+06     66.7661E+06    -237.520E+03    -245.191E-03     480.130E-03    -234.939E-03     241.540E-03    -258.427E-03     493.222E-03    -234.626E-03     202.490E-03
            2061     12.1040E-03     33.1871E-03    -12.5657E+06     16.2558E+06     62.5387E+06    -264.920E+03    -245.380E-03     479.959E-03    -234.579E-03     254.537E-03    -260.392E-03     494.803E-03    -234.272E-03     212.473E-03
            2062     11.3970E-03     32.8306E-03    -16.6692E+06     12.7018E+06     62.3253E+06     376.322E+03    -246.018E-03     480.213E-03    -234.195E-03     271.468E-03    -262.846E-03     496.846E-03    -233.878E-03     226.383E-03
            2063     10.6893E-03     32.4562E-03    -21.6132E+06     7.37192E+06     62.3329E+06     894.250E+03    -246.063E-03     479.854E-03    -233.791E-03     277.397E-03    -263.241E-03     496.801E-03    -233.458E-03     231.405E-03
            2064     9.98055E-03     32.0815E-03    -26.9711E+06     549.034E+03     58.7650E+06     857.023E+03    -245.872E-03     479.224E-03    -233.353E-03     275.348E-03    -262.324E-03     495.413E-03    -233.020E-03     229.977E-03
            2065     9.27255E-03     31.7116E-03    -32.8063E+06    -7.25057E+06     51.3722E+06     306.122E+03    -245.096E-03     477.973E-03    -232.878E-03     264.027E-03    -259.839E-03     492.426E-03    -232.563E-03     220.887E-03
            2066     8.56294E-03     31.3670E-03     -39.627E+06    -17.1594E+06     41.6542E+06     217.937E+03    -243.697E-03     476.079E-03    -232.382E-03     245.519E-03    -256.159E-03     488.219E-03    -232.091E-03     205.873E-03
            2067     7.85349E-03     31.0485E-03    -47.3435E+06    -30.4513E+06     30.1312E+06    -57.1058E+03    -241.938E-03     473.820E-03    -231.883E-03     223.905E-03    -252.064E-03     483.583E-03    -231.619E-03     188.345E-03
            2068     7.14267E-03     30.7628E-03    -55.3642E+06    -41.6627E+06     18.8230E+06    -163.541E+03    -239.975E-03     471.376E-03    -231.401E-03     201.514E-03    -247.983E-03     478.984E-03    -231.166E-03     170.187E-03
            2069     6.43113E-03     30.5064E-03    -63.3211E+06    -50.3810E+06     8.78584E+06     1.03925E+06    -238.093E-03     469.044E-03    -230.952E-03     179.425E-03    -244.309E-03     474.831E-03    -230.743E-03     152.193E-03
            2070     5.71890E-03     30.2788E-03    -71.4692E+06    -66.4221E+06    -4.56191E+06     1.97572E+06    -236.268E-03     466.802E-03    -230.534E-03     157.947E-03    -240.993E-03     471.051E-03    -230.357E-03     134.591E-03
            2071     5.00521E-03     30.0792E-03    -79.6826E+06    -100.029E+06    -22.4065E+06     1.78881E+06    -234.784E-03     464.934E-03    -230.149E-03     136.979E-03    -238.264E-03     467.840E-03    -230.001E-03     117.234E-03
            2072     4.29217E-03     29.9068E-03    -87.4448E+06    -145.608E+06    -40.7176E+06     1.27040E+06    -233.534E-03     463.322E-03    -229.788E-03     116.501E-03    -235.994E-03     465.072E-03    -229.654E-03     100.089E-03
            2073     3.57814E-03     29.7607E-03    -95.0018E+06    -181.078E+06    -57.8490E+06     384.195E+03    -232.070E-03     461.513E-03    -229.444E-03     96.4435E-03    -233.732E-03     462.364E-03    -229.333E-03     83.1524E-03
            2074     2.86242E-03     29.6427E-03    -101.797E+06    -205.758E+06    -75.4902E+06     634.588E+03    -230.732E-03     459.883E-03    -229.151E-03     76.7599E-03    -231.787E-03     460.065E-03    -229.082E-03     66.4155E-03
            2075     2.14734E-03     29.5515E-03    -107.043E+06    -228.990E+06    -91.5358E+06     1.15559E+06    -229.883E-03     458.804E-03    -228.921E-03     57.6063E-03    -230.485E-03     458.479E-03    -228.892E-03     49.9860E-03
            2076     1.43267E-03     29.4840E-03    -111.405E+06    -249.053E+06    -104.108E+06     812.700E+03    -229.193E-03     457.942E-03    -228.748E-03     38.8075E-03    -229.482E-03     457.253E-03    -228.746E-03     33.7584E-03
            2077     716.646E-06     29.4450E-03    -113.876E+06    -261.441E+06    -112.293E+06     483.260E+03    -228.221E-03     457.419E-03    -229.199E-03     21.0545E-03    -228.322E-03     456.522E-03    -229.216E-03     18.3351E-03
            2078     13.5155E-03     32.3093E-03    -3.49606E+06     24.4378E+06     69.3036E+06     379.891E+03    -244.964E-03     480.193E-03    -235.229E-03     194.197E-03    -253.579E-03     488.681E-03    -234.913E-03     164.168E-03
            2079     12.8120E-03     31.9853E-03    -7.75808E+06     21.9101E+06     64.9104E+06     52.4314E+03    -245.637E-03     480.500E-03    -234.863E-03     239.300E-03    -258.704E-03     493.429E-03    -234.559E-03     200.326E-03
            2080     12.1057E-03     31.6649E-03    -12.3058E+06     15.9704E+06     61.3150E+06     48.0151E+03    -245.750E-03     480.218E-03    -234.469E-03     252.699E-03    -260.615E-03     494.919E-03    -234.167E-03     210.724E-03
            2081     11.3984E-03     31.3036E-03    -17.1327E+06     11.9051E+06     61.1196E+06    -417.048E+03    -246.278E-03     480.327E-03    -234.049E-03     269.724E-03    -262.991E-03     496.844E-03    -233.736E-03     224.680E-03
            2082     10.6911E-03     30.9372E-03    -22.0249E+06     6.70499E+06     61.0807E+06    -568.858E+03    -246.266E-03     479.872E-03    -233.606E-03     276.100E-03    -263.360E-03     496.735E-03    -233.278E-03     230.121E-03
            2083     9.98366E-03     30.5594E-03    -27.3589E+06     142.249E+03     57.7327E+06    -487.314E+03    -246.039E-03     479.174E-03    -233.136E-03     274.771E-03    -262.426E-03     495.298E-03    -232.808E-03     229.450E-03
            2084     9.27475E-03     30.1958E-03    -33.3774E+06    -8.06191E+06     50.6909E+06     179.267E+03    -245.182E-03     477.819E-03    -232.637E-03     263.404E-03    -259.834E-03     492.177E-03    -232.323E-03     220.422E-03
            2085     8.56570E-03     29.8499E-03    -40.1049E+06    -17.9236E+06     40.9931E+06     1.10746E+06    -243.525E-03     475.648E-03    -232.124E-03     244.661E-03    -255.889E-03     487.688E-03    -231.835E-03     205.252E-03
            2086     7.85548E-03     29.5363E-03    -47.7436E+06    -28.8929E+06     29.9727E+06     1.77406E+06    -241.613E-03     473.231E-03    -231.619E-03     222.797E-03    -251.659E-03     482.918E-03    -231.358E-03     187.468E-03
            2087     7.14431E-03     29.2516E-03    -56.0248E+06    -40.5829E+06     18.4829E+06     1.63780E+06    -239.864E-03     470.985E-03    -231.122E-03     200.015E-03    -247.809E-03     478.534E-03    -230.889E-03     168.839E-03
            2088     6.43298E-03     28.9974E-03    -64.2228E+06    -51.5371E+06     8.05875E+06     993.533E+03    -238.077E-03     468.710E-03    -230.633E-03     177.531E-03    -244.234E-03     474.433E-03    -230.425E-03     150.405E-03
            2089     5.72051E-03     28.7728E-03    -72.1142E+06    -66.6685E+06    -4.46709E+06      750.88E+03    -236.351E-03     466.502E-03    -230.151E-03     155.887E-03    -241.024E-03     470.696E-03    -229.973E-03     132.611E-03
            2090     5.00799E-03     28.5749E-03    -80.0726E+06    -100.485E+06    -22.3077E+06     1.24902E+06    -234.785E-03     464.468E-03    -229.683E-03     134.982E-03    -238.221E-03     467.328E-03    -229.533E-03     115.319E-03
            2091     4.29412E-03     28.4039E-03    -88.1520E+06    -142.828E+06    -42.0308E+06     1.12504E+06    -233.090E-03     462.339E-03    -229.249E-03     114.556E-03    -235.515E-03     464.066E-03    -229.124E-03     98.2788E-03
            2092     3.57960E-03     28.2611E-03    -95.7210E+06    -179.375E+06    -60.0668E+06     403.606E+03    -231.412E-03     460.299E-03    -228.887E-03     94.6907E-03    -233.045E-03     461.130E-03    -228.789E-03     81.5543E-03
            2093     2.86485E-03     28.1449E-03    -102.603E+06    -207.350E+06    -77.1392E+06     325.486E+03    -230.263E-03     458.850E-03    -228.587E-03     75.5295E-03    -231.300E-03     459.011E-03    -228.523E-03     65.2676E-03
            2094     2.14926E-03     28.0530E-03    -108.451E+06    -228.210E+06    -92.9990E+06     673.463E+03    -229.397E-03     457.710E-03    -228.312E-03     56.5623E-03    -229.995E-03     457.382E-03    -228.289E-03     49.0088E-03
            2095     1.43218E-03     27.9892E-03    -112.834E+06    -247.851E+06    -105.539E+06     645.699E+03    -228.620E-03     456.706E-03    -228.086E-03     37.8204E-03    -228.908E-03     456.020E-03    -228.090E-03     32.8273E-03
            2096     715.615E-06     27.9480E-03    -115.759E+06    -260.305E+06    -113.995E+06     293.653E+03    -228.473E-03     456.026E-03    -227.553E-03     20.1188E-03    -228.581E-03     455.136E-03    -227.578E-03     17.4459E-03
            2097     13.5255E-03     30.7831E-03    -3.95102E+06     23.7922E+06     68.3182E+06     68.1056E+03    -246.208E-03     481.391E-03    -235.183E-03     192.593E-03    -254.748E-03     489.803E-03    -234.870E-03     162.558E-03
            2098     12.8151E-03     30.4638E-03    -7.10194E+06     22.7838E+06     66.9105E+06     574.123E+03    -246.357E-03     481.132E-03    -234.774E-03     239.341E-03    -259.347E-03     493.982E-03    -234.463E-03     200.453E-03
            2099     12.1076E-03     30.1363E-03    -11.3189E+06     17.0824E+06     63.6363E+06     740.630E+03    -246.168E-03     480.513E-03    -234.345E-03     251.826E-03    -260.918E-03     495.099E-03    -234.035E-03     209.987E-03
            2100     11.4008E-03     29.7838E-03    -16.0971E+06     12.7101E+06     61.9202E+06     26.7591E+03    -246.037E-03     479.941E-03    -233.904E-03     269.054E-03    -262.653E-03     496.365E-03    -233.589E-03     224.172E-03
            2101     10.6931E-03     29.4121E-03    -21.1734E+06     7.19166E+06     60.7294E+06    -15.2212E+03    -246.123E-03     479.585E-03    -233.461E-03     275.974E-03    -263.130E-03     496.366E-03    -233.137E-03     230.165E-03
            2102     9.98453E-03     29.0426E-03    -27.5280E+06    -534.852E+03     56.5715E+06     80.3075E+03    -246.209E-03     479.194E-03    -232.985E-03     274.686E-03    -262.517E-03     495.238E-03    -232.661E-03     229.493E-03
            2103     9.27606E-03     28.6747E-03    -34.4909E+06    -9.73855E+06     49.4268E+06     509.625E+03    -245.343E-03     477.810E-03    -232.467E-03     262.765E-03    -259.912E-03     492.079E-03    -232.156E-03     219.915E-03
            2104     8.56720E-03     28.3363E-03    -41.3816E+06    -19.3953E+06     40.2029E+06     1.00794E+06    -243.681E-03     475.606E-03    -231.925E-03     243.426E-03    -255.962E-03     487.555E-03    -231.635E-03     204.132E-03
            2105     7.85674E-03     28.0226E-03    -47.8243E+06    -29.1272E+06     30.9159E+06     1.70240E+06    -241.939E-03     473.310E-03    -231.371E-03     220.976E-03    -251.897E-03     482.906E-03    -231.105E-03     185.740E-03
            2106     7.14682E-03     27.7407E-03    -54.3803E+06    -39.3070E+06     20.7615E+06     2.13643E+06    -240.101E-03     470.903E-03    -230.802E-03     197.463E-03    -247.946E-03     478.355E-03    -230.562E-03     166.414E-03
            2107     6.43532E-03     27.4894E-03    -61.9930E+06    -49.7576E+06     9.61136E+06     1.78749E+06    -238.210E-03     468.434E-03    -230.224E-03     174.673E-03    -244.268E-03     474.067E-03    -230.014E-03     147.695E-03
            2108     5.72366E-03     27.2663E-03    -70.5482E+06    -66.9482E+06    -4.21913E+06     1.72844E+06    -236.443E-03     466.089E-03    -229.645E-03     153.106E-03    -241.029E-03     470.198E-03    -229.467E-03     129.983E-03
            2109     5.01078E-03     27.0713E-03    -79.5085E+06    -100.472E+06    -22.5749E+06     2.04156E+06    -234.528E-03     463.617E-03    -229.089E-03     132.336E-03    -237.892E-03     466.408E-03    -228.941E-03     112.860E-03
            2110     4.29725E-03     26.9034E-03    -87.6376E+06    -139.962E+06    -41.8372E+06     1.55827E+06    -232.477E-03     461.080E-03    -228.602E-03     112.030E-03    -234.847E-03     462.763E-03    -228.482E-03     95.9627E-03
            2111     3.58214E-03     26.7633E-03    -95.1435E+06    -178.264E+06    -59.5379E+06     900.891E+03    -230.911E-03     459.113E-03    -228.202E-03     92.6274E-03    -232.506E-03     459.910E-03    -228.103E-03     79.6494E-03
            2112     2.86620E-03     26.6474E-03    -102.486E+06    -207.648E+06    -76.7583E+06     1.03660E+06    -229.756E-03     457.593E-03    -227.836E-03     73.7429E-03    -230.768E-03     457.726E-03    -227.770E-03     63.6167E-03
            2113     2.15008E-03     26.5583E-03    -108.548E+06    -227.550E+06    -93.2039E+06     1.05970E+06    -228.713E-03     456.199E-03    -227.487E-03     54.8042E-03    -229.293E-03     455.857E-03    -227.465E-03     47.3783E-03
            2114     1.43474E-03     26.4939E-03    -112.691E+06    -246.604E+06    -105.590E+06     643.282E+03    -227.881E-03     455.060E-03    -227.179E-03     36.5870E-03    -228.163E-03     454.373E-03    -227.186E-03     31.6617E-03
            2115     718.456E-06     26.4555E-03    -115.828E+06    -258.973E+06    -113.548E+06     416.018E+03    -227.563E-03     454.113E-03    -226.550E-03     20.2142E-03    -227.674E-03     453.226E-03    -226.574E-03     17.5512E-03
            2116     13.5168E-03     29.2586E-03    -4.06306E+06     23.5955E+06     68.2102E+06     346.987E+03    -247.057E-03     482.245E-03    -235.188E-03     191.545E-03    -255.575E-03     490.634E-03    -234.875E-03     161.451E-03
            2117     12.8136E-03     28.9291E-03    -7.91715E+06     22.1080E+06     66.6802E+06    -309.307E+03    -247.071E-03     481.809E-03    -234.738E-03     239.951E-03    -260.113E-03     494.708E-03    -234.425E-03     200.862E-03
            2118     12.1092E-03     28.6146E-03    -11.3167E+06     16.7286E+06     63.2796E+06    -249.212E+03    -246.250E-03     480.536E-03    -234.286E-03     252.208E-03    -260.966E-03     495.088E-03    -233.977E-03     210.380E-03
            2119     11.4015E-03     28.2573E-03    -15.3058E+06     13.0252E+06     62.2050E+06     862.122E+03    -246.212E-03     480.056E-03    -233.845E-03     269.675E-03    -262.751E-03     496.408E-03    -233.530E-03     224.935E-03
            2120     10.6932E-03     27.8944E-03    -21.0868E+06     7.07731E+06     61.2420E+06     1.18553E+06    -246.532E-03     479.925E-03    -233.393E-03     275.889E-03    -263.450E-03     496.615E-03    -233.066E-03     230.184E-03
            2121     9.98528E-03     27.5183E-03    -27.0939E+06    -406.015E+03     57.6409E+06     1.64482E+06    -246.536E-03     479.422E-03    -232.886E-03     273.328E-03    -262.724E-03     495.346E-03    -232.558E-03     228.249E-03
            2122     9.27754E-03     27.1591E-03    -33.6904E+06    -9.26806E+06     50.1965E+06     1.61998E+06    -245.574E-03     477.898E-03    -232.324E-03     260.828E-03    -260.018E-03     492.044E-03    -232.011E-03     218.090E-03
            2123     8.56798E-03     26.8183E-03    -40.6887E+06    -18.9127E+06     40.6504E+06     1.34653E+06    -244.380E-03     476.088E-03    -231.708E-03     241.044E-03    -256.544E-03     487.922E-03    -231.418E-03     201.768E-03
            2124     7.86002E-03     26.5095E-03    -47.7932E+06    -29.3616E+06     30.6625E+06     827.442E+03    -242.724E-03     473.761E-03    -231.037E-03     217.764E-03    -252.548E-03     483.223E-03    -230.772E-03     182.556E-03
            2125     7.14959E-03     26.2295E-03    -54.9485E+06    -40.3215E+06     19.6558E+06     767.803E+03    -240.569E-03     470.906E-03    -230.336E-03     193.941E-03    -248.270E-03     478.212E-03    -230.100E-03     163.027E-03
            2126     6.43932E-03     25.9813E-03    -62.4579E+06    -50.8770E+06     8.69347E+06     2.10410E+06    -238.426E-03     468.063E-03    -229.636E-03     171.051E-03    -244.345E-03     473.553E-03    -229.429E-03     144.300E-03
            2127     5.72734E-03     25.7611E-03    -70.9890E+06    -66.3029E+06    -4.73755E+06     3.36227E+06    -236.233E-03     465.184E-03    -228.951E-03     149.543E-03    -240.703E-03     469.180E-03    -228.776E-03     126.705E-03
            2128     5.01468E-03     25.5690E-03    -79.5014E+06    -97.7950E+06    -22.2249E+06     2.81808E+06    -233.966E-03     462.285E-03    -228.318E-03     128.716E-03    -237.236E-03     464.990E-03    -228.173E-03     109.532E-03
            2129     4.30016E-03     25.4052E-03    -87.3210E+06    -137.415E+06    -40.8957E+06     1.73167E+06    -232.021E-03     459.777E-03    -227.756E-03     108.766E-03    -234.320E-03     461.397E-03    -227.634E-03     92.9386E-03
            2130     3.58517E-03     25.2666E-03    -94.9273E+06    -177.482E+06    -59.0409E+06     1.27527E+06    -230.503E-03     457.741E-03    -227.239E-03     89.6591E-03    -232.046E-03     458.489E-03    -227.139E-03     76.8782E-03
            2131     2.86990E-03     25.1530E-03    -101.534E+06    -207.394E+06    -76.0851E+06     1.29556E+06    -228.945E-03     455.702E-03    -226.757E-03     70.8471E-03    -229.913E-03     455.793E-03    -226.689E-03     60.9316E-03
            2132     2.15358E-03     25.0652E-03    -106.915E+06    -226.053E+06    -91.7443E+06     1.20844E+06    -227.472E-03     453.846E-03    -226.374E-03     52.9857E-03    -228.027E-03     453.485E-03    -226.350E-03     45.7197E-03
            2133     1.43532E-03     25.0028E-03    -111.225E+06    -244.861E+06    -104.319E+06     917.660E+03    -226.557E-03     452.706E-03    -226.148E-03     35.8070E-03    -226.829E-03     452.016E-03    -226.154E-03     30.9836E-03
            2134     716.799E-06     24.9654E-03    -114.585E+06    -257.208E+06    -111.987E+06     583.110E+03    -226.402E-03     452.184E-03    -225.781E-03     19.1997E-03    -226.510E-03     451.297E-03    -225.802E-03     16.6011E-03
            2135     13.5234E-03     27.7232E-03    -3.82691E+06     23.8012E+06     69.1150E+06    -33.1100E+03    -247.512E-03     482.752E-03    -235.240E-03     189.528E-03    -255.933E-03     491.043E-03    -234.923E-03     159.483E-03
            2136     12.8163E-03     27.4075E-03    -7.53767E+06     21.7374E+06     65.0864E+06    -65.0969E+03    -247.005E-03     481.771E-03    -234.766E-03     239.398E-03    -259.940E-03     494.567E-03    -234.461E-03     200.395E-03
            2137     12.1070E-03     27.0840E-03    -11.7171E+06     15.5077E+06     61.0070E+06    -84.3687E+03    -246.320E-03     480.637E-03    -234.318E-03     252.121E-03    -260.928E-03     495.083E-03    -234.018E-03     210.414E-03
            2138     11.4003E-03     26.7365E-03    -16.4253E+06     11.5121E+06     60.7079E+06     569.634E+03    -247.043E-03     480.899E-03    -233.856E-03     268.599E-03    -263.483E-03     497.146E-03    -233.546E-03     223.809E-03
            2139     10.6936E-03     26.3677E-03    -21.6307E+06     6.29300E+06     60.5570E+06     954.855E+03    -247.455E-03     480.795E-03    -233.340E-03     274.430E-03    -264.281E-03     497.391E-03    -233.015E-03     228.612E-03
            2140     9.98720E-03     25.9997E-03    -27.3101E+06    -888.919E+03     57.1795E+06     1.35980E+06    -247.198E-03     479.956E-03    -232.758E-03     271.208E-03    -263.251E-03     495.743E-03    -232.431E-03     226.126E-03
            2141     9.27841E-03     25.6390E-03    -33.1194E+06    -8.86249E+06     50.8835E+06     1.84109E+06    -246.540E-03     478.645E-03    -232.104E-03     258.026E-03    -260.812E-03     492.620E-03    -231.789E-03     215.306E-03
            2142     8.57176E-03     25.3019E-03    -39.3365E+06    -17.9192E+06     41.9230E+06     2.11438E+06    -245.371E-03     476.732E-03    -231.360E-03     237.474E-03    -257.336E-03     488.372E-03    -231.068E-03     198.281E-03
            2143     7.86287E-03     24.9937E-03    -46.2369E+06    -28.5403E+06     31.2296E+06     2.16272E+06    -243.513E-03     474.051E-03    -230.539E-03     213.495E-03    -253.118E-03     483.301E-03    -230.274E-03     178.482E-03
            2144     7.15485E-03     24.7193E-03    -54.3170E+06    -40.6261E+06     19.0411E+06     2.43926E+06    -241.219E-03     470.893E-03    -229.674E-03     189.328E-03    -248.709E-03     477.991E-03    -229.441E-03     158.676E-03
            2145     6.44419E-03     24.4736E-03    -62.9304E+06    -52.2073E+06     7.56923E+06     2.88056E+06    -238.635E-03     467.448E-03    -228.813E-03     166.321E-03    -244.367E-03     472.750E-03    -228.608E-03     139.889E-03
            2146     5.73302E-03     24.2577E-03    -70.9374E+06    -64.9356E+06    -4.40946E+06     2.78748E+06    -235.927E-03     463.918E-03    -227.991E-03     144.574E-03    -240.235E-03     467.757E-03    -227.816E-03     122.096E-03
            2147     5.01956E-03     24.0695E-03    -78.3898E+06    -94.7348E+06    -20.6050E+06     2.30868E+06    -233.485E-03     460.720E-03    -227.234E-03     123.806E-03    -236.620E-03     463.300E-03    -227.086E-03     104.986E-03
            2148     4.30552E-03     23.9086E-03    -85.8589E+06    -135.523E+06    -39.4367E+06     1.83962E+06    -231.559E-03     458.082E-03    -226.523E-03     104.166E-03    -233.750E-03     459.601E-03    -226.399E-03     88.6701E-03
            2149     3.59048E-03     23.7719E-03    -92.7703E+06    -176.242E+06    -57.3203E+06     1.44957E+06    -229.574E-03     455.433E-03    -225.860E-03     85.4978E-03    -231.030E-03     456.101E-03    -225.756E-03     73.0544E-03
            2150     2.87393E-03     23.6619E-03    -99.2777E+06    -206.780E+06    -74.5308E+06     1.42049E+06    -227.547E-03     452.841E-03    -225.295E-03     67.7144E-03    -228.455E-03     452.879E-03    -225.224E-03     58.0948E-03
            2151     2.15564E-03     23.5773E-03    -105.369E+06    -224.994E+06    -90.7996E+06     1.54210E+06    -226.062E-03     450.924E-03    -224.861E-03     50.4488E-03    -226.584E-03     450.536E-03    -224.836E-03     43.4071E-03
            2152     1.43755E-03     23.5156E-03    -109.245E+06    -242.448E+06    -102.602E+06     1.18608E+06    -225.072E-03     449.649E-03    -224.577E-03     33.3556E-03    -225.323E-03     448.948E-03    -224.580E-03     28.7137E-03
            2153     719.611E-06     23.4777E-03    -112.278E+06    -254.952E+06    -110.258E+06     465.145E+03    -225.081E-03     448.962E-03    -223.882E-03     17.8403E-03    -225.176E-03     448.074E-03    -223.901E-03     15.3762E-03
            2154     13.5166E-03     26.1926E-03    -3.16278E+06     23.6126E+06     67.5196E+06    -233.154E+03    -246.828E-03     482.180E-03    -235.352E-03     191.491E-03    -255.206E-03     490.436E-03    -235.045E-03     161.497E-03
            2155     12.8112E-03     25.8759E-03    -7.71915E+06     21.1516E+06     64.6627E+06     526.770E+03    -248.093E-03     482.984E-03    -234.891E-03     239.061E-03    -260.912E-03     495.663E-03    -234.587E-03     200.081E-03
            2156     12.1071E-03     25.5602E-03    -12.0676E+06     15.3164E+06     61.4246E+06     602.797E+03    -247.485E-03     481.871E-03    -234.386E-03     250.720E-03    -262.022E-03     496.241E-03    -234.083E-03     208.878E-03
            2157     11.4007E-03     25.2079E-03    -16.8863E+06     10.8120E+06     60.3317E+06     281.966E+03    -248.025E-03     481.872E-03    -233.847E-03     266.825E-03    -264.348E-03     497.998E-03    -233.536E-03     221.911E-03
            2158     10.6951E-03     24.8445E-03    -21.9459E+06     5.53759E+06     59.7467E+06     734.834E+03    -248.420E-03     481.667E-03    -233.248E-03     272.338E-03    -265.082E-03     498.098E-03    -232.925E-03     226.476E-03
            2159     9.98756E-03     24.4768E-03    -27.5193E+06    -1.35593E+06     56.6018E+06     978.429E+03    -248.676E-03     481.230E-03    -232.554E-03     268.457E-03    -264.530E-03     496.818E-03    -232.230E-03     223.292E-03
            2160     9.28288E-03     24.1184E-03    -33.4649E+06    -9.56137E+06     50.1344E+06     1.00048E+06    -248.280E-03     480.014E-03    -231.734E-03     254.329E-03    -262.318E-03     493.754E-03    -231.421E-03     211.540E-03
            2161     8.57567E-03     23.7837E-03    -39.7313E+06    -19.0495E+06     40.7510E+06     1.37959E+06    -246.777E-03     477.568E-03    -230.791E-03     232.565E-03    -258.449E-03     488.913E-03    -230.502E-03     193.498E-03
            2162     7.86939E-03     23.4792E-03    -46.6272E+06    -29.6922E+06     29.9916E+06     2.56410E+06    -244.458E-03     474.222E-03    -229.765E-03     207.353E-03    -253.731E-03     483.138E-03    -229.504E-03     172.686E-03
            2163     7.16058E-03     23.2078E-03    -53.3510E+06    -40.4373E+06     19.1877E+06     3.68728E+06    -241.729E-03     470.429E-03    -228.700E-03     182.573E-03    -248.900E-03     477.212E-03    -228.468E-03     152.387E-03
            2164     6.45187E-03     22.9675E-03    -60.0261E+06    -50.4934E+06     9.39804E+06     3.60433E+06    -238.785E-03     466.426E-03    -227.642E-03     159.515E-03    -244.236E-03     471.459E-03    -227.434E-03     133.590E-03
            2165     5.74025E-03     22.7563E-03    -67.2772E+06    -63.0137E+06    -2.61854E+06     2.98833E+06    -235.848E-03     462.459E-03    -226.610E-03     137.690E-03    -239.907E-03     466.063E-03    -226.435E-03     115.744E-03
            2166     5.02756E-03     22.5727E-03    -75.2388E+06    -92.9298E+06    -19.5979E+06     2.73566E+06    -233.207E-03     458.828E-03    -225.621E-03     117.026E-03    -236.133E-03     461.214E-03    -225.475E-03     98.7373E-03
            2167     4.31314E-03     22.4144E-03    -83.3825E+06    -132.862E+06    -38.0205E+06     2.24401E+06    -230.583E-03     455.276E-03    -224.693E-03     97.7988E-03    -232.614E-03     456.650E-03    -224.570E-03     82.8417E-03
            2168     3.59725E-03     22.2824E-03    -91.1103E+06    -174.889E+06    -55.1267E+06     1.73800E+06    -227.986E-03     451.863E-03    -223.877E-03     79.5295E-03    -229.325E-03     452.417E-03    -223.767E-03     67.6026E-03
            2169     2.87910E-03     22.1769E-03    -97.9137E+06    -206.499E+06    -72.2499E+06     1.82876E+06    -225.891E-03     449.057E-03    -223.167E-03     62.3123E-03    -226.719E-03     449.014E-03    -223.087E-03     53.1123E-03
            2170     2.16097E-03     22.0922E-03    -103.217E+06    -222.709E+06    -88.2219E+06     1.68089E+06    -224.235E-03     446.780E-03    -222.545E-03     45.9498E-03    -224.706E-03     446.349E-03    -222.514E-03     39.2560E-03
            2171     1.44169E-03     22.0340E-03    -107.848E+06    -240.059E+06    -100.562E+06     1.12720E+06    -222.865E-03     444.934E-03    -222.068E-03     30.6283E-03    -223.093E-03     444.217E-03    -222.066E-03     26.2396E-03
            2172     720.316E-06     21.9973E-03    -110.203E+06    -252.549E+06    -108.875E+06     805.174E+03    -222.083E-03     443.751E-03    -221.668E-03     16.9098E-03    -222.169E-03     442.865E-03    -221.686E-03     14.5416E-03
            2173     13.5148E-03     24.6575E-03    -2.85408E+06     23.5886E+06     67.3789E+06     590.222E+03    -247.258E-03     482.733E-03    -235.475E-03     190.247E-03    -255.508E-03     490.861E-03    -235.168E-03     160.361E-03
            2174     12.8117E-03     24.3443E-03    -7.57073E+06     21.0844E+06     64.7965E+06     40.1766E+03    -248.632E-03     483.606E-03    -234.974E-03     234.390E-03    -261.234E-03     496.068E-03    -234.670E-03     195.432E-03
            2175     12.1060E-03     24.0301E-03    -12.2806E+06     14.8674E+06     61.1775E+06     260.114E+03    -248.454E-03     482.859E-03    -234.405E-03     248.319E-03    -262.830E-03     497.068E-03    -234.103E-03     206.424E-03
            2176     11.4016E-03     23.6803E-03    -16.5358E+06     10.6634E+06     60.3366E+06     928.927E+03    -249.243E-03     483.033E-03    -233.789E-03     265.285E-03    -265.395E-03     498.989E-03    -233.479E-03     220.316E-03
            2177     10.6953E-03     23.3194E-03    -21.5436E+06     5.48679E+06     59.9388E+06     1.05871E+06    -250.317E-03     483.387E-03    -233.070E-03     269.436E-03    -266.746E-03     499.586E-03    -232.747E-03     223.419E-03
            2178     9.99217E-03     22.9508E-03    -27.0765E+06    -1.31537E+06     56.8586E+06     851.186E+03    -250.945E-03     483.133E-03    -232.189E-03     264.116E-03    -266.482E-03     498.405E-03    -231.863E-03     218.825E-03
            2179     9.28680E-03     22.5963E-03    -33.1413E+06    -9.81159E+06     50.0551E+06     936.199E+03    -250.541E-03     481.666E-03    -231.126E-03     248.633E-03    -264.182E-03     495.010E-03    -230.813E-03     205.893E-03
            2180     8.58352E-03     22.2631E-03    -39.7458E+06    -19.8587E+06     40.5286E+06     1.18265E+06    -248.727E-03     478.634E-03    -229.907E-03     225.170E-03    -259.931E-03     489.509E-03    -229.618E-03     186.415E-03
            2181     7.87799E-03     21.9650E-03    -45.8324E+06    -32.2560E+06     29.6058E+06     1.59451E+06    -245.816E-03     474.408E-03    -228.591E-03     199.095E-03    -254.616E-03     482.845E-03    -228.330E-03     164.946E-03
            2182     7.17179E-03     21.6982E-03    -51.3533E+06    -41.6929E+06     19.6902E+06      2.4389E+06    -242.506E-03     469.743E-03    -227.238E-03     173.459E-03    -249.228E-03     476.079E-03    -227.004E-03     143.932E-03
            2183     6.46215E-03     21.4638E-03    -57.7921E+06    -49.2954E+06     10.7079E+06     3.24248E+06    -239.078E-03     464.962E-03    -225.884E-03     149.592E-03    -244.123E-03     469.596E-03    -225.675E-03     124.424E-03
            2184     5.75170E-03     21.2573E-03    -65.5870E+06    -61.7650E+06    -2.26172E+06     3.73709E+06    -235.788E-03     460.321E-03    -224.533E-03     127.650E-03    -239.504E-03     463.592E-03    -224.360E-03     106.489E-03
            2185     5.03922E-03     21.0787E-03    -73.5121E+06    -90.4808E+06    -19.5252E+06     3.53656E+06    -232.428E-03     455.652E-03    -223.224E-03     107.415E-03    -235.079E-03     457.777E-03    -223.084E-03     89.9198E-03
            2186     4.32471E-03     20.9262E-03    -80.9225E+06    -129.808E+06    -37.1229E+06     3.01128E+06    -229.021E-03     451.040E-03    -222.019E-03     88.7877E-03    -230.840E-03     452.219E-03    -221.899E-03     74.5934E-03
            2187     3.60711E-03     20.7999E-03    -88.3300E+06    -172.377E+06    -52.3430E+06     2.51305E+06    -226.047E-03     447.001E-03    -220.954E-03     71.4277E-03    -227.234E-03     447.414E-03    -220.838E-03     60.1652E-03
            2188     2.88920E-03     20.6959E-03    -95.4226E+06    -204.985E+06    -67.6685E+06     1.77781E+06    -223.436E-03     443.443E-03    -220.006E-03     55.7018E-03    -224.168E-03     443.303E-03    -219.909E-03     47.0528E-03
            2189     2.16852E-03     20.6173E-03    -101.708E+06    -221.054E+06    -84.5976E+06     1.52554E+06    -221.081E-03     440.294E-03    -219.213E-03     41.2563E-03    -221.501E-03     439.813E-03    -219.168E-03     34.9860E-03
            2190     1.44581E-03     20.5602E-03    -106.191E+06    -237.458E+06    -98.8074E+06     1.39715E+06    -219.559E-03     438.185E-03    -218.626E-03     27.4823E-03    -219.763E-03     437.454E-03    -218.621E-03     23.3773E-03
            2191     723.943E-06     20.5259E-03    -109.470E+06    -250.378E+06    -107.096E+06     659.922E+03    -218.373E-03     436.745E-03    -218.372E-03     14.4472E-03    -218.452E-03     435.856E-03    -218.386E-03     12.2666E-03
            2192     13.5182E-03     23.1269E-03    -4.01542E+06     22.8629E+06     68.8004E+06     38.4701E+03    -248.824E-03     484.358E-03    -235.534E-03     188.978E-03    -257.003E-03     492.405E-03    -235.218E-03     159.106E-03
            2193     12.8112E-03     22.8137E-03    -6.87724E+06     21.5896E+06     66.2190E+06     1.23207E+06    -248.741E-03     483.731E-03    -234.990E-03     234.503E-03    -261.236E-03     496.087E-03    -234.681E-03     195.747E-03
            2194     12.1073E-03     22.4990E-03    -11.1893E+06     15.2225E+06     61.2611E+06     1.16293E+06    -249.642E-03     484.023E-03    -234.381E-03     247.390E-03    -263.873E-03     498.091E-03    -234.081E-03     205.439E-03
            2195     11.4015E-03     22.1534E-03    -16.4553E+06     9.89027E+06     59.6185E+06     633.315E+03    -251.784E-03     485.420E-03    -233.636E-03     262.500E-03    -267.716E-03     501.156E-03    -233.328E-03     217.185E-03
            2196     10.7001E-03     21.7867E-03    -20.8291E+06     5.40430E+06     59.8960E+06     904.655E+03    -253.327E-03     486.025E-03    -232.699E-03     264.713E-03    -269.381E-03     501.851E-03    -232.377E-03     218.427E-03
            2197     9.99715E-03     21.4261E-03    -26.2912E+06    -1.22526E+06     56.2062E+06     1.12258E+06    -254.245E-03     485.768E-03    -231.523E-03     257.588E-03    -269.258E-03     500.521E-03    -231.202E-03     212.224E-03
            2198     9.29668E-03     21.0689E-03    -32.4948E+06    -10.1369E+06     49.1373E+06     1.38646E+06    -253.576E-03     483.688E-03    -230.111E-03     239.667E-03    -266.562E-03     496.380E-03    -229.804E-03     197.209E-03
            2199     8.59454E-03     20.7439E-03    -38.2209E+06    -19.4216E+06     40.8227E+06     1.32877E+06    -250.900E-03     479.424E-03    -228.524E-03     214.305E-03    -261.410E-03     489.612E-03    -228.236E-03     176.164E-03
            2200     7.89138E-03     20.4496E-03    -44.6101E+06    -32.0686E+06     29.9614E+06     1.09217E+06    -247.468E-03     474.295E-03    -226.827E-03     187.414E-03    -255.627E-03     482.096E-03    -226.566E-03     154.038E-03
            2201     7.18588E-03     20.1903E-03    -51.8490E+06    -43.2269E+06     18.5130E+06     1.05925E+06    -243.664E-03     468.727E-03    -225.063E-03     160.958E-03    -249.810E-03     474.483E-03    -224.833E-03     132.316E-03
            2202     6.47935E-03     19.9626E-03    -58.8676E+06    -51.2697E+06     9.36427E+06     2.01150E+06    -239.602E-03     462.881E-03    -223.279E-03     136.948E-03    -244.160E-03     467.022E-03    -223.073E-03     112.722E-03
            2203     5.76945E-03     19.7629E-03    -65.8030E+06    -61.7382E+06    -2.42155E+06     3.10761E+06    -235.205E-03     456.718E-03    -221.513E-03     115.269E-03    -238.524E-03     459.592E-03    -221.340E-03     95.1093E-03
            2204     5.05663E-03     19.5913E-03    -73.1081E+06    -87.8713E+06    -19.1354E+06     3.49400E+06    -230.724E-03     450.567E-03    -219.843E-03     95.9140E-03    -233.073E-03     452.399E-03    -219.705E-03     79.4137E-03
            2205     4.34042E-03     19.4459E-03    -80.8696E+06    -127.743E+06    -37.1239E+06     3.65433E+06    -226.741E-03     445.061E-03    -218.320E-03     78.7340E-03    -228.346E-03     446.032E-03    -218.203E-03     65.4345E-03
            2206     3.62284E-03     19.3245E-03    -88.2430E+06    -167.549E+06    -53.2342E+06     2.96026E+06    -223.075E-03     440.034E-03    -216.958E-03     63.1313E-03    -224.122E-03     440.326E-03    -216.854E-03     52.6393E-03
            2207     2.90106E-03     19.2273E-03    -95.0939E+06    -201.794E+06    -68.1523E+06     1.20061E+06    -219.674E-03     435.479E-03    -215.804E-03     48.9691E-03    -220.317E-03     435.264E-03    -215.715E-03     40.9531E-03
            2208     2.17744E-03     19.1526E-03    -100.710E+06    -221.591E+06    -83.9317E+06     965.860E+03    -217.087E-03     431.951E-03    -214.864E-03     36.0932E-03    -217.451E-03     431.413E-03    -214.817E-03     30.2995E-03
            2209     1.45315E-03     19.0983E-03    -105.050E+06    -235.000E+06    -97.7532E+06     1.72638E+06    -215.241E-03     429.382E-03    -214.140E-03     23.8779E-03    -215.421E-03     428.636E-03    -214.136E-03     20.1053E-03
            2210     726.539E-06     19.0652E-03    -108.472E+06    -246.759E+06    -106.885E+06     1.52195E+06    -213.907E-03     427.638E-03    -213.730E-03     12.3220E-03    -213.979E-03     426.756E-03    -213.749E-03     10.3528E-03
            2211     13.5130E-03     21.5916E-03    -3.71578E+06     22.2565E+06     66.7616E+06     187.769E+03    -248.694E-03     484.300E-03    -235.606E-03     188.354E-03    -256.810E-03     492.288E-03    -235.299E-03     158.594E-03
            2212     12.8109E-03     21.2819E-03    -8.61088E+06     19.2556E+06     63.7961E+06    -196.221E+03    -250.235E-03     485.270E-03    -235.034E-03     234.992E-03    -262.719E-03     497.606E-03    -234.731E-03     195.969E-03
            2213     12.1053E-03     20.9672E-03    -11.5114E+06     14.7096E+06     62.0331E+06     694.809E+03    -252.977E-03     487.274E-03    -234.297E-03     246.281E-03    -267.101E-03     501.229E-03    -233.991E-03     203.749E-03
            2214     11.4067E-03     20.6155E-03    -14.8834E+06     10.8815E+06     61.1190E+06     1.28631E+06    -255.857E-03     489.156E-03    -233.299E-03     258.201E-03    -271.425E-03     504.533E-03    -232.988E-03     212.388E-03
            2215     10.7060E-03     20.2574E-03    -20.2020E+06     5.14058E+06     59.1816E+06     1.04721E+06    -257.892E-03     489.905E-03    -232.013E-03     258.276E-03    -273.358E-03     505.146E-03    -231.696E-03     211.717E-03
            2216     10.0083E-03     19.8914E-03    -25.6417E+06    -1.38737E+06     55.6733E+06     1.43022E+06    -258.989E-03     489.401E-03    -230.411E-03     248.070E-03    -273.217E-03     503.372E-03    -230.094E-03     202.771E-03
            2217     9.31087E-03     19.5425E-03    -30.9897E+06    -9.63117E+06     49.6564E+06     1.35875E+06    -257.237E-03     485.761E-03    -228.523E-03     227.064E-03    -269.330E-03     497.567E-03    -228.216E-03     185.140E-03
            2218     8.61227E-03     19.2228E-03    -37.3420E+06    -19.6405E+06     40.5626E+06     1.59081E+06    -253.732E-03     480.172E-03    -226.440E-03     200.365E-03    -263.382E-03     489.504E-03    -226.155E-03     163.061E-03
            2219     7.91170E-03     18.9366E-03    -44.3309E+06    -30.4220E+06     30.4071E+06     2.00861E+06    -249.433E-03     473.667E-03    -224.234E-03     172.017E-03    -256.799E-03     480.681E-03    -223.973E-03     139.710E-03
            2220     7.20895E-03     18.6851E-03    -51.4397E+06    -41.6646E+06     18.7493E+06     1.56588E+06    -244.403E-03     466.367E-03    -221.965E-03     145.587E-03    -249.877E-03     471.458E-03    -221.736E-03     118.154E-03
            2221     6.50236E-03     18.4652E-03    -58.7430E+06    -52.7104E+06     7.74923E+06     1.16676E+06    -239.198E-03     458.908E-03    -219.709E-03     122.746E-03    -243.225E-03     462.517E-03    -219.509E-03     99.7415E-03
            2222     5.79293E-03     18.2753E-03    -65.9796E+06    -63.4719E+06    -3.49994E+06     1.95766E+06    -233.767E-03     451.291E-03    -217.523E-03     102.228E-03    -236.677E-03     453.752E-03    -217.353E-03     83.2637E-03
            2223     5.07887E-03     18.1136E-03    -73.4855E+06    -87.1565E+06    -19.7960E+06     3.42699E+06    -228.400E-03     443.866E-03    -215.466E-03     83.9579E-03    -230.444E-03     445.398E-03    -215.332E-03     68.5946E-03
            2224     4.36166E-03     17.9754E-03    -80.8544E+06    -125.731E+06    -38.3790E+06     4.26470E+06    -223.319E-03     436.933E-03    -213.614E-03     68.2137E-03    -224.705E-03     437.696E-03    -213.506E-03     55.9545E-03
            2225     3.63983E-03     17.8618E-03    -87.5465E+06    -161.596E+06    -56.0000E+06     3.28728E+06    -218.845E-03     430.845E-03    -212.000E-03     54.2665E-03    -219.746E-03     431.023E-03    -211.919E-03     44.6647E-03
            2226     2.91617E-03     17.7714E-03    -93.6558E+06    -197.141E+06    -70.5533E+06     1.23692E+06    -215.281E-03     425.914E-03    -210.632E-03     41.5959E-03    -215.827E-03     425.630E-03    -210.563E-03     34.2785E-03
            2227     2.18978E-03     17.7011E-03    -99.5594E+06    -222.838E+06    -83.6420E+06     895.412E+03    -212.280E-03     421.763E-03    -209.483E-03     30.2702E-03    -212.584E-03     421.163E-03    -209.433E-03     25.0085E-03
            2228     1.46083E-03     17.6504E-03    -104.478E+06    -233.720E+06    -96.0792E+06     1.65375E+06    -209.791E-03     418.404E-03    -208.613E-03     19.7441E-03    -209.947E-03     417.636E-03    -208.603E-03     16.3431E-03
            2229     730.763E-06     17.6218E-03    -106.430E+06    -241.891E+06    -104.259E+06     1.43438E+06    -208.301E-03     416.485E-03    -208.183E-03     10.2477E-03    -208.367E-03     415.613E-03    -208.200E-03     8.45522E-03
            2230     13.5149E-03     20.0602E-03    -3.81171E+06     21.9974E+06     67.1711E+06     634.097E+03    -250.104E-03     485.828E-03    -235.724E-03     187.720E-03    -258.196E-03     493.790E-03    -235.415E-03     157.796E-03
            2231     12.8079E-03     19.7475E-03    -6.55063E+06     20.9674E+06     65.0374E+06     632.217E+03    -253.937E-03     488.948E-03    -235.010E-03     233.823E-03    -266.357E-03     501.230E-03    -234.706E-03     194.125E-03
            2232     12.1108E-03     19.4257E-03    -11.1029E+06     14.0623E+06     59.8794E+06    -89.5535E+03    -257.656E-03     491.659E-03    -234.003E-03     242.686E-03    -271.459E-03     505.299E-03    -233.707E-03     199.488E-03
            2233     11.4117E-03     19.0773E-03    -15.6392E+06     9.26912E+06     58.1890E+06     361.292E+03    -261.534E-03     494.176E-03    -232.642E-03     252.086E-03    -276.499E-03     508.950E-03    -232.342E-03     205.776E-03
            2234     10.7175E-03     18.7171E-03    -19.9154E+06     4.69807E+06     58.5310E+06     962.479E+03    -264.617E-03     495.485E-03    -230.869E-03     248.329E-03    -279.237E-03     509.883E-03    -230.554E-03     201.446E-03
            2235     10.0252E-03     18.3539E-03    -24.6070E+06    -1.37991E+06     56.3032E+06     1.00072E+06    -264.416E-03     493.103E-03    -228.688E-03     234.274E-03    -277.593E-03     506.027E-03    -228.368E-03     189.302E-03
            2236     9.33228E-03     18.0137E-03    -30.2877E+06    -9.87637E+06     50.4706E+06     1.32324E+06    -261.388E-03     487.597E-03    -226.208E-03     211.257E-03    -272.401E-03     498.323E-03    -225.898E-03     170.172E-03
            2237     8.63728E-03     17.7017E-03    -36.5299E+06    -19.7537E+06     41.7504E+06     1.98359E+06    -256.985E-03     480.506E-03    -223.521E-03     183.660E-03    -265.639E-03     488.841E-03    -223.231E-03     147.500E-03
            2238     7.94027E-03     17.4247E-03    -42.3794E+06    -29.7427E+06     32.3070E+06     2.16124E+06    -251.155E-03     471.874E-03    -220.719E-03     154.975E-03    -257.649E-03     478.021E-03    -220.453E-03     124.075E-03
            2239     7.23847E-03     17.1856E-03    -48.4283E+06    -40.1360E+06     21.4473E+06     2.53834E+06    -244.620E-03     462.521E-03    -217.901E-03     129.078E-03    -249.380E-03     466.907E-03    -217.665E-03     103.171E-03
            2240     6.53242E-03     16.9762E-03    -55.6993E+06    -51.4266E+06     9.68461E+06     2.87474E+06    -237.856E-03     453.012E-03    -215.156E-03     106.477E-03    -241.296E-03     456.045E-03    -214.952E-03     85.0725E-03
            2241     5.82088E-03     16.7977E-03    -64.0124E+06    -63.9208E+06    -4.30826E+06     2.95135E+06    -231.148E-03     443.692E-03    -212.544E-03     86.8233E-03    -233.598E-03     445.701E-03    -212.380E-03     69.3798E-03
            2242     5.10614E-03     16.6451E-03    -71.7329E+06    -87.4813E+06    -21.8817E+06     3.68000E+06    -224.858E-03     434.983E-03    -210.125E-03     70.4814E-03    -226.571E-03     436.193E-03    -210.003E-03     56.4505E-03
            2243     4.38606E-03     16.5194E-03    -78.0736E+06    -123.264E+06    -40.2001E+06     4.48205E+06    -219.021E-03     426.982E-03    -207.961E-03     56.4925E-03    -220.171E-03     427.533E-03    -207.870E-03     45.3840E-03
            2244     3.66202E-03     16.4140E-03    -83.7257E+06    -156.407E+06    -57.1106E+06     4.28295E+06    -213.894E-03     419.976E-03    -206.081E-03     44.2948E-03    -214.633E-03     420.026E-03    -206.019E-03     35.6710E-03
            2245     2.93392E-03     16.3297E-03    -89.6338E+06    -192.144E+06    -69.5829E+06     3.69746E+06    -209.744E-03     414.254E-03    -204.510E-03     33.6872E-03    -210.187E-03     413.895E-03    -204.449E-03     27.1741E-03
            2246     2.20373E-03     16.2656E-03    -96.0111E+06    -221.086E+06    -80.7916E+06     2.53919E+06    -206.312E-03     409.531E-03    -203.218E-03     24.3711E-03    -206.557E-03     408.881E-03    -203.162E-03     19.6866E-03
            2247     1.47067E-03     16.2216E-03    -101.015E+06    -231.737E+06    -93.3090E+06     1.21938E+06    -203.597E-03     405.824E-03    -202.227E-03     15.9369E-03    -203.721E-03     405.035E-03    -202.211E-03     12.8954E-03
            2248     735.884E-06     16.1925E-03    -103.897E+06    -238.832E+06    -102.096E+06     175.570E+03    -201.941E-03     403.582E-03    -201.641E-03     8.40098E-03    -201.996E-03     402.713E-03    -201.655E-03     6.78285E-03
            2249     13.5085E-03     18.5249E-03    -4.26337E+06     21.2503E+06     67.0559E+06    -862.983E+03    -253.108E-03     488.852E-03    -235.744E-03     186.150E-03    -261.195E-03     496.804E-03    -235.433E-03     155.644E-03
            2250     12.8134E-03     18.2016E-03    -7.99633E+06     19.3083E+06     63.6913E+06    -227.884E+03    -259.312E-03     494.103E-03    -234.791E-03     233.021E-03    -271.628E-03     506.275E-03    -234.489E-03     192.377E-03
            2251     12.1156E-03     17.8829E-03    -10.4295E+06     14.0061E+06     59.8617E+06     925.038E+03    -264.620E-03     498.021E-03    -233.401E-03     237.533E-03    -277.936E-03     511.176E-03    -233.107E-03     193.568E-03
            2252     11.4238E-03     17.5304E-03    -14.6758E+06     9.29604E+06     58.0568E+06     920.817E+03    -269.723E-03     501.221E-03    -231.498E-03     242.405E-03    -283.851E-03     515.163E-03    -231.200E-03     195.491E-03
            2253     10.7369E-03     17.1660E-03    -19.1404E+06     4.60699E+06     58.4042E+06     407.792E+03    -271.787E-03     500.865E-03    -229.079E-03     234.307E-03    -285.299E-03     514.159E-03    -228.766E-03     187.426E-03
            2254     10.0504E-03     16.8157E-03    -24.1686E+06    -2.12037E+06     56.2469E+06     420.730E+03    -270.171E-03     496.397E-03    -226.226E-03     217.498E-03    -282.120E-03     508.093E-03    -225.907E-03     173.188E-03
            2255     9.36145E-03     16.4816E-03    -29.7083E+06    -10.5797E+06     50.7962E+06     945.090E+03    -266.094E-03     489.153E-03    -223.059E-03     193.106E-03    -275.905E-03     498.678E-03    -222.747E-03     153.164E-03
            2256     8.67120E-03     16.1815E-03    -35.0433E+06    -19.8140E+06     42.6539E+06     1.04362E+06    -259.922E-03     479.609E-03    -219.687E-03     164.107E-03    -267.473E-03     486.846E-03    -219.394E-03     129.485E-03
            2257     7.97520E-03     15.9181E-03    -40.9002E+06    -30.0532E+06     32.4754E+06     1.57398E+06    -252.269E-03     468.509E-03    -216.239E-03     135.041E-03    -257.824E-03     473.721E-03    -215.974E-03     105.904E-03
            2258     7.27489E-03     15.6918E-03    -47.3580E+06    -41.0266E+06     20.6046E+06     2.48363E+06    -244.224E-03     457.049E-03    -212.826E-03     109.294E-03    -248.214E-03     460.669E-03    -212.595E-03     85.2185E-03
            2259     6.56900E-03     15.4973E-03    -53.6798E+06    -51.6255E+06     10.0679E+06     3.75608E+06    -235.833E-03     445.385E-03    -209.553E-03     87.5072E-03    -238.660E-03     447.812E-03    -209.349E-03     67.9233E-03
            2260     5.85766E-03     15.3326E-03    -60.4920E+06    -62.9835E+06    -2.45435E+06     5.14758E+06    -227.471E-03     433.980E-03    -206.508E-03     69.6133E-03    -229.461E-03     435.539E-03    -206.341E-03     53.8815E-03
            2261     5.13847E-03     15.1935E-03    -68.4996E+06    -85.9506E+06    -21.5143E+06     5.86554E+06    -219.965E-03     423.713E-03    -203.748E-03     55.0564E-03    -221.344E-03     424.605E-03    -203.632E-03     42.5372E-03
            2262     4.41503E-03     15.0772E-03    -76.3581E+06    -119.926E+06    -41.0778E+06     6.03323E+06    -213.469E-03     414.780E-03    -201.311E-03     43.1225E-03    -214.393E-03     415.124E-03    -201.232E-03     33.2898E-03
            2263     3.68721E-03     14.9829E-03    -83.3194E+06    -153.071E+06    -58.6651E+06     6.47274E+06    -207.718E-03     406.934E-03    -199.215E-03     33.6981E-03    -208.316E-03     406.860E-03    -199.166E-03     26.1207E-03
            2264     2.95523E-03     14.9071E-03    -89.2770E+06    -186.148E+06    -73.1981E+06     6.21122E+06    -202.842E-03     400.354E-03    -197.512E-03     25.7893E-03    -203.203E-03     399.947E-03    -197.479E-03     20.1136E-03
            2265     2.21880E-03     14.8496E-03    -93.6749E+06    -214.021E+06    -82.6049E+06     3.59928E+06    -199.182E-03     395.395E-03    -196.214E-03     18.5306E-03    -199.378E-03     394.734E-03    -196.180E-03     14.4465E-03
            2266     1.48085E-03     14.8093E-03    -97.4451E+06    -228.949E+06    -91.4169E+06     1.40173E+06    -196.590E-03     391.857E-03    -195.266E-03     12.2516E-03    -196.684E-03     391.053E-03    -195.250E-03     9.58334E-03
            2267     740.627E-06     14.7862E-03    -99.9475E+06    -236.520E+06    -99.2210E+06     1.17872E+06    -195.067E-03     389.687E-03    -194.620E-03     6.79774E-03    -195.104E-03     388.813E-03    -194.628E-03     5.40296E-03
            2268     13.5158E-03     16.9827E-03    -2.28317E+06     22.2576E+06     66.1613E+06     60.5019E+03    -257.654E-03     493.193E-03    -235.539E-03     185.441E-03    -265.643E-03     501.061E-03    -235.237E-03     154.367E-03
            2269     12.8155E-03     16.6532E-03    -7.24012E+06     19.0052E+06     62.1851E+06    -194.007E+03    -266.463E-03     500.711E-03    -234.248E-03     229.830E-03    -278.476E-03     512.584E-03    -233.954E-03     188.227E-03
            2270     12.1273E-03     16.3258E-03    -11.8869E+06     12.2230E+06     59.1564E+06    -596.883E+03    -274.163E-03     506.486E-03    -232.324E-03     229.566E-03    -286.855E-03     519.009E-03    -232.029E-03     184.509E-03
            2271     11.4459E-03     15.9701E-03    -14.6871E+06     9.13071E+06     59.8799E+06    -580.889E+03    -278.782E-03     508.521E-03    -229.739E-03     230.275E-03    -291.972E-03     521.519E-03    -229.431E-03     182.783E-03
            2272     10.7641E-03     15.6153E-03    -18.5036E+06     4.44224E+06     59.5687E+06    -214.254E+03    -279.033E-03     505.628E-03    -226.595E-03     219.205E-03    -291.361E-03     517.737E-03    -226.277E-03     172.685E-03
            2273     10.0820E-03     15.2687E-03    -23.4949E+06    -2.59593E+06     56.4167E+06     105.996E+03    -276.588E-03     499.585E-03    -222.998E-03     199.198E-03    -287.242E-03     509.988E-03    -222.678E-03     155.844E-03
            2274     9.40006E-03     14.9503E-03    -28.5663E+06    -10.7775E+06     50.7944E+06     162.848E+03    -271.126E-03     490.175E-03    -219.048E-03     172.548E-03    -279.698E-03     498.466E-03    -218.737E-03     133.976E-03
            2275     8.71225E-03     14.6627E-03    -34.0546E+06    -20.4650E+06     42.1549E+06     527.368E+03    -262.963E-03     477.864E-03    -214.901E-03     141.810E-03    -269.406E-03     483.997E-03    -214.611E-03     108.897E-03
            2276     8.02019E-03     14.4184E-03    -39.9508E+06    -30.9932E+06     31.9078E+06     1.27476E+06    -253.311E-03     464.035E-03    -210.723E-03     111.897E-03    -257.923E-03     468.308E-03    -210.461E-03     84.6738E-03
            2277     7.32053E-03     14.2073E-03    -45.9420E+06    -42.0489E+06     19.5847E+06     2.23396E+06    -242.834E-03     449.500E-03    -206.666E-03     86.6787E-03    -246.063E-03     452.365E-03    -206.441E-03     64.6106E-03
            2278     6.61374E-03     14.0313E-03    -52.4695E+06    -53.4362E+06     7.26568E+06     3.78895E+06    -232.407E-03     435.280E-03    -202.873E-03     66.8103E-03    -234.663E-03     437.142E-03    -202.683E-03     49.1209E-03
            2279     5.89821E-03     13.8827E-03    -60.0214E+06    -65.3227E+06    -3.49445E+06     6.58536E+06    -222.800E-03     422.229E-03    -199.429E-03     51.2207E-03    -224.380E-03     423.375E-03    -199.264E-03     37.1986E-03
            2280     5.17772E-03     13.7586E-03     -68.158E+06    -83.6932E+06    -18.8463E+06     9.29738E+06    -214.084E-03     410.438E-03    -196.354E-03     39.1105E-03    -215.183E-03     411.052E-03    -196.228E-03     28.1180E-03
            2281     4.44982E-03     13.6554E-03    -76.8204E+06    -114.592E+06    -39.5329E+06     9.88811E+06    -206.464E-03     400.156E-03    -193.692E-03     29.7831E-03    -207.207E-03     400.332E-03    -193.612E-03     21.2656E-03
            2282     3.71600E-03     13.5718E-03    -84.5645E+06    -149.076E+06    -58.9555E+06     9.30813E+06    -200.131E-03     391.609E-03    -191.478E-03     22.6177E-03    -200.615E-03     391.430E-03    -191.434E-03     16.1115E-03
            2283     2.97745E-03     13.5054E-03    -89.9749E+06    -178.198E+06    -75.4944E+06     8.00995E+06    -195.039E-03     384.748E-03    -189.709E-03     17.0393E-03    -195.337E-03     384.308E-03    -189.698E-03     12.1853E-03
            2284     2.23646E-03     13.4541E-03    -94.0860E+06    -203.723E+06    -87.7342E+06     5.09122E+06    -191.195E-03     379.594E-03    -188.400E-03     12.0862E-03    -191.358E-03     378.950E-03    -188.407E-03     8.61906E-03
            2285     1.49171E-03     13.4193E-03    -97.0775E+06    -224.979E+06    -92.9847E+06     2.06729E+06    -188.728E-03     376.252E-03    -187.524E-03     7.77564E-03    -188.805E-03     375.450E-03    -187.522E-03     5.49831E-03
            2286     746.553E-06     13.3964E-03    -99.4245E+06    -233.332E+06    -96.7618E+06     1.03676E+06    -187.313E-03     374.264E-03    -186.950E-03     4.27118E-03    -187.350E-03     373.394E-03    -186.952E-03     3.07181E-03
            2287     13.5165E-03     15.4324E-03    -2.72943E+06     22.1783E+06     66.8789E+06     499.593E+03    -266.470E-03     501.652E-03    -235.182E-03     188.220E-03    -274.553E-03     509.610E-03    -234.876E-03     155.772E-03
            2288     12.8305E-03     15.0968E-03    -4.82191E+06     22.0118E+06     66.2929E+06     698.872E+03    -277.638E-03     510.982E-03    -233.344E-03     228.991E-03    -289.514E-03     522.726E-03    -233.037E-03     185.613E-03
            2289     12.1493E-03     14.7539E-03    -9.83977E+06     14.1907E+06     61.0820E+06    -760.733E+03    -284.435E-03     515.167E-03    -230.732E-03     222.666E-03    -296.530E-03     527.101E-03    -230.433E-03     176.579E-03
            2290     11.4718E-03     14.4046E-03    -14.6473E+06     8.59097E+06     58.9089E+06    -1.63223E+06    -287.806E-03     515.226E-03    -227.420E-03     219.494E-03    -300.128E-03     527.358E-03    -227.117E-03     171.619E-03
            2291     10.7973E-03     14.0535E-03    -19.4023E+06      2.8832E+06     58.1675E+06    -1.58601E+06    -287.879E-03     511.369E-03    -223.490E-03     203.719E-03    -299.104E-03     522.371E-03    -223.175E-03     157.417E-03
            2292     10.1235E-03     13.7212E-03    -23.6925E+06    -3.42728E+06     55.7728E+06    -1.35286E+06    -283.972E-03     503.004E-03    -219.032E-03     179.844E-03    -293.440E-03     512.220E-03    -218.714E-03     137.315E-03
            2293     9.44507E-03     13.4143E-03    -28.3268E+06    -11.6553E+06     50.0337E+06    -1.22685E+06    -276.707E-03     490.902E-03    -214.195E-03     149.912E-03    -284.143E-03     498.059E-03    -213.887E-03     112.580E-03
            2294     8.76337E-03     13.1494E-03    -33.5923E+06    -21.7296E+06     40.6765E+06    -451.104E+03    -266.074E-03     475.257E-03    -209.184E-03     117.045E-03    -271.484E-03     480.362E-03    -208.900E-03     85.8004E-03
            2295     8.07287E-03     12.9223E-03    -39.0544E+06    -32.3183E+06     30.0032E+06     736.645E+03    -253.388E-03     457.639E-03    -204.251E-03     88.0874E-03    -257.181E-03     461.099E-03    -203.998E-03     62.7324E-03
            2296     7.37427E-03     12.7368E-03    -45.1071E+06    -44.0328E+06     17.0128E+06     2.61101E+06    -240.412E-03     440.004E-03    -199.592E-03     64.8537E-03    -243.026E-03     442.258E-03    -199.378E-03     44.6428E-03
            2297     6.66434E-03     12.5810E-03    -52.1711E+06    -56.8168E+06     3.58066E+06     5.65332E+06    -228.195E-03     423.520E-03    -195.324E-03     47.2560E-03    -230.000E-03     424.930E-03    -195.149E-03     31.3091E-03
            2298     5.94752E-03     12.4507E-03    -59.9872E+06    -69.3282E+06    -7.29192E+06     9.20883E+06    -217.190E-03     408.699E-03    -191.509E-03     33.8311E-03    -218.442E-03     409.514E-03    -191.358E-03     21.3700E-03
            2299     5.22052E-03     12.3439E-03    -68.1285E+06    -83.0931E+06    -19.0025E+06     11.9861E+06    -207.318E-03     395.484E-03    -188.165E-03     23.9581E-03    -208.199E-03     395.881E-03    -188.041E-03     14.3089E-03
            2300     4.48714E-03     12.2549E-03    -76.0718E+06    -108.173E+06    -35.0826E+06     13.1361E+06    -198.860E-03     384.181E-03    -185.320E-03     16.9320E-03    -199.469E-03     384.234E-03    -185.229E-03     9.54557E-03
            2301     3.74788E-03     12.1837E-03    -83.4820E+06    -140.664E+06    -54.0416E+06     12.0086E+06    -192.062E-03     375.028E-03    -182.967E-03     11.7698E-03    -192.463E-03     374.787E-03    -182.912E-03     6.18718E-03
            2302     3.00429E-03     12.1254E-03    -89.8088E+06    -169.047E+06    -71.0058E+06     9.55261E+06    -186.637E-03     367.731E-03    -181.094E-03     8.01898E-03    -186.893E-03     367.269E-03    -181.074E-03     3.88849E-03
            2303     2.25551E-03     12.0828E-03      -94.14E+06    -193.441E+06    -84.9525E+06     7.00704E+06    -182.629E-03     362.327E-03    -179.697E-03     5.41621E-03    -182.780E-03     361.696E-03    -179.705E-03     2.48999E-03
            2304     1.50558E-03     12.0499E-03    -97.1547E+06    -216.762E+06    -94.2469E+06     3.77475E+06    -180.017E-03     358.762E-03    -178.745E-03     3.34088E-03    -180.091E-03     357.988E-03    -178.761E-03     1.43083E-03
            2305     752.944E-06     12.0326E-03    -99.2436E+06    -230.638E+06    -98.5290E+06     364.349E+03    -178.604E-03     356.670E-03    -178.066E-03     1.86256E-03    -178.637E-03     355.811E-03    -178.080E-03     821.666E-06
            2306     13.5249E-03     13.8768E-03    -4.02822E+06     21.9513E+06     67.3774E+06    -1.09590E+06    -278.686E-03     513.378E-03    -234.692E-03     192.012E-03    -286.982E-03     521.542E-03    -234.382E-03     157.365E-03
            2307     12.8435E-03     13.5085E-03    -7.72010E+06     19.9241E+06     64.8880E+06    -1.68036E+06    -289.815E-03     521.987E-03    -232.172E-03     228.646E-03    -301.708E-03     533.735E-03    -231.865E-03     183.106E-03
            2308     12.1726E-03     13.1783E-03    -9.62143E+06     14.9632E+06     62.2468E+06    -1.14382E+06    -295.321E-03     524.162E-03    -228.841E-03     219.225E-03    -307.130E-03     535.810E-03    -228.538E-03     171.731E-03
            2309     11.5027E-03     12.8260E-03    -13.8392E+06     9.88898E+06     59.6666E+06    -778.762E+03    -299.268E-03     523.987E-03    -224.719E-03     209.704E-03    -310.925E-03     535.460E-03    -224.415E-03     160.971E-03
            2310     10.8374E-03     12.4815E-03    -18.4819E+06     3.75776E+06     57.5933E+06    -1.69019E+06    -298.144E-03     518.002E-03    -219.858E-03     187.526E-03    -308.451E-03     528.096E-03    -219.549E-03     141.006E-03
            2311     10.1695E-03     12.1667E-03    -23.1598E+06    -3.52611E+06     54.5151E+06    -2.63878E+06    -292.766E-03     507.177E-03    -214.411E-03     159.695E-03    -301.288E-03     515.456E-03    -214.100E-03     117.367E-03
            2312     9.49989E-03     11.8770E-03    -28.3538E+06    -12.9756E+06     48.2265E+06    -2.32908E+06    -282.323E-03     490.928E-03    -208.605E-03     126.075E-03    -288.784E-03     497.114E-03    -208.304E-03     89.7606E-03
            2313     8.82153E-03     11.6369E-03    -33.7679E+06    -23.8460E+06     38.1703E+06    -1.27464E+06    -267.533E-03     470.311E-03    -202.778E-03     93.3067E-03    -272.110E-03     474.583E-03    -202.503E-03     63.6755E-03
            2314     8.13252E-03     11.4397E-03    -39.8547E+06    -35.5624E+06     26.0625E+06     738.314E+03    -251.715E-03     448.953E-03    -197.238E-03     67.3814E-03    -254.904E-03     451.806E-03    -196.998E-03     43.7234E-03
            2315     7.43004E-03     11.2786E-03    -46.4680E+06    -48.4823E+06     11.6927E+06     4.04471E+06    -237.057E-03     429.175E-03    -192.118E-03     47.3008E-03    -239.259E-03     431.012E-03    -191.922E-03     28.6137E-03
            2316     6.71950E-03     11.1468E-03    -53.1101E+06    -61.1421E+06    -819.794E+03     7.76246E+06    -223.728E-03     411.199E-03    -187.470E-03     32.0729E-03    -225.245E-03     412.316E-03    -187.309E-03     17.4529E-03
            2317     5.99648E-03     11.0388E-03    -59.2964E+06    -71.8920E+06    -9.53206E+06     10.7630E+06    -211.384E-03     394.729E-03    -183.345E-03     20.9542E-03    -212.440E-03     395.349E-03    -183.203E-03     9.61846E-03
            2318     5.26667E-03     10.9492E-03    -65.3834E+06    -82.6110E+06    -19.5455E+06     12.9700E+06    -200.705E-03     380.454E-03    -179.749E-03     12.8604E-03    -201.448E-03     380.728E-03    -179.632E-03     4.13959E-03
            2319     4.52794E-03     10.8781E-03    -71.5798E+06    -102.881E+06    -29.9763E+06     14.1578E+06    -191.728E-03     368.415E-03    -176.687E-03     7.32411E-03    -192.248E-03     368.401E-03    -176.584E-03     674.382E-06
            2320     3.78280E-03     10.8169E-03    -77.9725E+06    -130.343E+06    -43.4980E+06     13.3647E+06    -184.270E-03     358.400E-03    -174.130E-03     3.69300E-03    -184.625E-03     358.138E-03    -174.046E-03    -1.30651E-03
            2321     3.03177E-03     10.7715E-03    -84.1391E+06    -157.966E+06    -60.3444E+06     10.5753E+06    -178.383E-03     350.437E-03    -172.055E-03     1.36914E-03    -178.612E-03     349.977E-03    -172.005E-03    -2.31145E-03
            2322     2.27795E-03     10.7333E-03    -89.7622E+06    -184.524E+06    -76.2451E+06     8.11689E+06    -173.883E-03     344.352E-03    -170.469E-03     366.510E-06    -174.021E-03     343.731E-03    -170.452E-03    -2.21310E-03
            2323     1.51973E-03     10.7083E-03    -93.8081E+06    -206.079E+06    -89.4978E+06     5.86051E+06    -170.809E-03     340.175E-03    -169.366E-03     90.5158E-06    -170.881E-03     339.435E-03    -169.378E-03    -1.56444E-03
            2324     760.537E-06     10.6904E-03    -95.8329E+06    -224.484E+06    -96.3216E+06     2.58889E+06    -169.195E-03     337.816E-03    -168.621E-03     50.7847E-06    -169.222E-03     336.978E-03    -168.638E-03    -837.687E-06
            2325     13.5301E-03     12.2691E-03    -2.40605E+06     23.9817E+06     66.6090E+06    -869.644E+03    -290.256E-03     524.293E-03    -234.038E-03     196.214E-03    -298.703E-03     532.624E-03    -233.736E-03     159.817E-03
            2326     12.8656E-03     11.9286E-03    -6.83075E+06     20.7043E+06     62.7303E+06    -1.95585E+06    -301.402E-03     532.280E-03    -230.878E-03     230.191E-03    -313.442E-03     544.185E-03    -230.584E-03     182.462E-03
            2327     12.1940E-03     11.5802E-03    -11.3437E+06     13.9373E+06     58.4715E+06    -2.10226E+06    -309.190E-03     535.947E-03    -226.757E-03     215.564E-03    -320.909E-03     547.507E-03    -226.469E-03     165.905E-03
            2328     11.5388E-03     11.2265E-03    -14.6768E+06     9.61013E+06     57.5811E+06    -2.89648E+06    -312.218E-03     533.903E-03    -221.686E-03     198.438E-03    -323.415E-03     544.921E-03    -221.391E-03     148.146E-03
            2329     10.8809E-03     10.9045E-03    -17.7143E+06     4.50268E+06     57.0722E+06    -2.70970E+06    -310.109E-03     525.892E-03    -215.784E-03     171.615E-03    -319.823E-03     535.403E-03    -215.479E-03     123.928E-03
            2330     10.2236E-03     10.5961E-03    -22.1341E+06    -3.39715E+06     52.7882E+06    -2.37631E+06    -301.187E-03     510.475E-03    -209.288E-03     137.931E-03    -308.913E-03     517.971E-03    -208.987E-03     95.5872E-03
            2331     9.55958E-03     10.3410E-03    -27.5587E+06    -14.1490E+06     44.3106E+06    -1.41289E+06    -284.658E-03     487.309E-03    -202.651E-03     104.178E-03    -290.323E-03     492.711E-03    -202.369E-03     69.1564E-03
            2332     8.88160E-03     10.1321E-03    -33.8990E+06    -26.4822E+06     32.9200E+06     493.518E+03    -266.068E-03     462.374E-03    -196.306E-03     76.1577E-03    -270.094E-03     466.101E-03    -196.054E-03     48.1201E-03
            2333     8.18915E-03     9.96882E-03    -40.7679E+06    -39.1534E+06     21.3558E+06     2.91664E+06    -248.725E-03     439.161E-03    -190.437E-03     53.9041E-03    -251.555E-03     441.655E-03    -190.214E-03     31.6640E-03
            2334     7.48593E-03     9.83518E-03    -47.4672E+06    -53.2578E+06     8.37836E+06     5.43241E+06    -232.943E-03     418.015E-03    -185.072E-03     37.3581E-03    -234.937E-03     419.634E-03    -184.884E-03     19.8085E-03
            2335     6.76927E-03     9.72894E-03    -53.0551E+06    -64.7868E+06    -2.13438E+06     8.01165E+06    -218.760E-03     398.993E-03    -180.233E-03     24.5868E-03    -220.163E-03     399.988E-03    -180.073E-03     10.8199E-03
            2336     6.04474E-03     9.64432E-03    -58.1918E+06    -72.8743E+06    -8.85246E+06     10.1105E+06    -206.056E-03     381.990E-03    -175.934E-03     15.5859E-03    -207.059E-03     382.555E-03    -175.788E-03     4.83176E-03
            2337     5.30800E-03     9.57571E-03    -63.8094E+06    -82.5768E+06    -17.7330E+06     12.0779E+06    -194.975E-03     367.128E-03    -172.153E-03     9.35120E-03    -195.699E-03     367.385E-03    -172.029E-03     1.02443E-03
            2338     4.56514E-03     9.51847E-03    -69.8449E+06    -98.0675E+06    -28.9045E+06     13.3383E+06    -185.559E-03     354.441E-03    -168.882E-03     4.99781E-03    -186.079E-03     354.448E-03    -168.783E-03    -1.38312E-03
            2339     3.81495E-03     9.47491E-03    -75.3078E+06    -119.663E+06    -40.4108E+06     11.4813E+06    -177.635E-03     343.750E-03    -166.115E-03     2.40806E-03    -178.002E-03     343.541E-03    -166.034E-03    -2.43255E-03
            2340     3.05948E-03     9.43674E-03    -79.7433E+06    -149.343E+06    -53.5753E+06       9.077E+06    -171.255E-03     335.091E-03    -163.836E-03     682.536E-06    -171.490E-03     334.666E-03    -163.772E-03    -2.89512E-03
            2341     2.29834E-03     9.41079E-03    -83.7552E+06    -176.247E+06    -68.4781E+06     8.11903E+06    -166.284E-03     328.299E-03    -162.014E-03    -230.418E-06    -166.419E-03     327.705E-03    -161.980E-03    -2.73059E-03
            2342     1.53442E-03     9.38885E-03    -87.4945E+06    -196.075E+06    -80.3500E+06     6.20850E+06    -162.598E-03     323.278E-03    -160.680E-03    -377.651E-06    -162.667E-03     322.569E-03    -160.671E-03    -1.96554E-03
            2343     767.701E-06     9.37679E-03    -89.5176E+06    -213.771E+06    -87.7839E+06     4.50981E+06    -160.373E-03     320.218E-03    -159.846E-03    -314.632E-06    -160.395E-03     319.414E-03    -159.845E-03    -1.14042E-03
            2344     13.5489E-03     10.6936E-03    -2.79084E+06     25.2851E+06     63.1447E+06    -227.373E+03    -304.516E-03     538.017E-03    -233.500E-03     210.223E-03    -313.571E-03     546.966E-03    -233.217E-03     170.880E-03
            2345     12.8706E-03     10.3099E-03    -6.81358E+06     24.0850E+06     60.8666E+06    -1.20672E+06    -318.070E-03     547.619E-03    -229.549E-03     231.548E-03    -330.385E-03     559.818E-03    -229.270E-03     180.813E-03
            2346     12.2275E-03     9.95750E-03    -10.8117E+06     16.9900E+06     56.3404E+06    -2.34700E+06    -324.138E-03     548.605E-03    -224.467E-03     210.421E-03    -335.944E-03     560.270E-03    -224.194E-03     157.961E-03
            2347     11.5753E-03     9.62310E-03    -14.2171E+06     10.3030E+06     53.6869E+06    -3.56257E+06    -326.923E-03     545.260E-03    -218.338E-03     187.612E-03    -337.977E-03     556.151E-03    -218.063E-03     134.660E-03
            2348     10.9298E-03     9.29663E-03    -18.2867E+06     2.95665E+06     50.5566E+06    -3.89077E+06    -320.762E-03     532.129E-03    -211.367E-03     153.349E-03    -329.915E-03     541.095E-03    -211.092E-03     104.630E-03
            2349     10.2821E-03     9.02509E-03    -22.6926E+06    -6.36274E+06     45.0649E+06    -2.14489E+06    -303.631E-03     507.737E-03    -204.106E-03     119.281E-03    -310.593E-03     514.480E-03    -203.839E-03     78.2141E-03
            2350     9.61559E-03     8.81034E-03    -28.1781E+06    -17.8062E+06     36.4785E+06     720.115E+03    -282.443E-03     479.562E-03    -197.120E-03     90.8174E-03    -287.541E-03     484.405E-03    -196.871E-03     57.7157E-03
            2351     8.93316E-03     8.64053E-03    -34.1109E+06    -29.8821E+06     26.1718E+06     3.67776E+06    -262.195E-03     452.857E-03    -190.661E-03     67.4861E-03    -265.891E-03     456.260E-03    -190.438E-03     41.0752E-03
            2352     8.23817E-03     8.50773E-03    -40.1631E+06    -41.6245E+06     17.0476E+06     6.01106E+06    -243.937E-03     428.725E-03    -184.788E-03     49.3634E-03    -246.614E-03     431.070E-03    -184.584E-03     28.3473E-03
            2353     7.52907E-03     8.40663E-03    -46.5742E+06    -54.2401E+06     8.36620E+06     7.49233E+06    -227.611E-03     407.105E-03    -179.494E-03     36.5593E-03    -229.570E-03     408.688E-03    -179.306E-03     19.8526E-03
            2354     6.80978E-03     8.32604E-03    -52.7870E+06    -65.4657E+06    -364.251E+03     7.81384E+06    -213.153E-03     387.916E-03    -174.763E-03     27.3211E-03    -214.598E-03     388.947E-03    -174.593E-03     14.0433E-03
            2355     6.07775E-03     8.26534E-03    -58.5193E+06    -73.7477E+06    -6.77290E+06     8.62329E+06    -200.860E-03     371.422E-03    -170.562E-03     20.6873E-03    -201.939E-03     372.054E-03    -170.404E-03     10.1462E-03
            2356     5.33998E-03     8.21592E-03    -64.0029E+06    -82.6375E+06    -14.1845E+06     10.1850E+06    -190.008E-03     356.854E-03    -166.845E-03     16.0636E-03    -190.814E-03     357.182E-03    -166.703E-03     7.79090E-03
            2357     4.59179E-03     8.17839E-03    -68.8259E+06    -92.6510E+06    -26.3588E+06     10.0065E+06    -180.596E-03     344.190E-03    -163.594E-03     12.7708E-03    -181.191E-03     344.289E-03    -163.491E-03     6.34904E-03
            2358     3.83748E-03     8.14628E-03    -72.6720E+06    -109.422E+06    -39.8975E+06     7.48688E+06    -172.796E-03     333.612E-03    -160.816E-03     10.2827E-03    -173.218E-03     333.503E-03    -160.751E-03     5.34925E-03
            2359     3.07696E-03     8.12335E-03    -76.9307E+06    -144.638E+06    -50.4787E+06     5.39461E+06    -166.356E-03     324.890E-03    -158.535E-03     8.21795E-03    -166.625E-03     324.520E-03    -158.466E-03     4.53800E-03
            2360     2.31268E-03     8.10343E-03    -80.9456E+06    -171.007E+06    -62.3922E+06     4.92148E+06    -161.318E-03     317.990E-03    -156.672E-03     6.30226E-03    -161.476E-03     317.435E-03    -156.619E-03     3.70110E-03
            2361     1.54442E-03     8.09158E-03    -83.7524E+06    -188.293E+06    -75.0682E+06     4.45151E+06    -157.499E-03     312.717E-03    -155.218E-03     4.42199E-03    -157.578E-03     312.047E-03    -155.199E-03     2.76642E-03
            2362     772.996E-06     8.08221E-03    -86.4729E+06    -203.452E+06    -82.9709E+06     3.08741E+06    -154.826E-03     309.158E-03    -154.332E-03     2.58067E-03    -154.857E-03     308.399E-03    -154.327E-03     1.71935E-03
            2363     13.5287E-03     9.03181E-03    -3.65054E+06     26.8023E+06     65.7502E+06    -211.719E+03    -319.614E-03     552.512E-03    -232.898E-03     204.522E-03    -328.750E-03     561.541E-03    -232.602E-03     163.517E-03
            2364     12.9057E-03     8.67372E-03    -7.27804E+06     25.2646E+06     60.4324E+06    -1.85906E+06    -331.996E-03     560.109E-03    -228.113E-03     232.491E-03    -344.840E-03     572.832E-03    -227.836E-03     178.621E-03
            2365     12.2504E-03     8.32829E-03    -9.81282E+06     19.0205E+06     54.7796E+06    -2.80462E+06    -342.848E-03     564.884E-03    -222.036E-03     208.455E-03    -355.033E-03     576.944E-03    -221.776E-03     151.855E-03
            2366     11.6181E-03     7.97520E-03    -12.8323E+06     11.6447E+06     50.0340E+06    -2.32962E+06    -340.810E-03     555.603E-03    -214.793E-03     173.186E-03    -351.458E-03     566.115E-03    -214.541E-03     118.459E-03
            2367     10.9856E-03     7.68764E-03    -17.1261E+06     1.34688E+06     43.5483E+06    -1.33781E+06    -323.262E-03     530.345E-03    -207.082E-03     136.250E-03    -331.497E-03     538.415E-03    -206.842E-03     89.4476E-03
            2368     10.3277E-03     7.46338E-03    -22.9143E+06    -10.8306E+06     35.6488E+06     1.04984E+06    -299.475E-03     499.116E-03    -199.641E-03     105.971E-03    -305.604E-03     505.038E-03    -199.413E-03     68.0594E-03
            2369     9.65618E-03     7.28867E-03    -28.7442E+06    -22.4567E+06     28.5071E+06     3.67910E+06    -276.092E-03     468.903E-03    -192.811E-03     82.2889E-03    -280.671E-03     473.231E-03    -192.595E-03     51.8048E-03
            2370     8.97097E-03     7.15864E-03    -34.1993E+06    -33.1628E+06     21.8917E+06     6.02763E+06    -254.735E-03     441.414E-03    -186.679E-03     65.1384E-03    -258.179E-03     444.566E-03    -186.471E-03     40.6805E-03
            2371     8.26864E-03     7.06234E-03    -39.7070E+06    -43.5867E+06     15.5168E+06     7.93635E+06    -235.929E-03     417.177E-03    -181.249E-03     53.6084E-03    -238.547E-03     419.463E-03    -181.051E-03     33.9787E-03
            2372     7.55474E-03     6.98927E-03    -45.0097E+06    -52.9652E+06     10.7489E+06     8.98380E+06    -219.835E-03     396.324E-03    -176.489E-03     45.8733E-03    -221.843E-03     397.959E-03    -176.293E-03     30.0907E-03
            2373     6.82753E-03     6.93821E-03    -50.9114E+06    -62.2908E+06     5.03798E+06     8.60661E+06    -206.281E-03     378.604E-03    -172.323E-03     40.9859E-03    -207.833E-03     379.745E-03    -172.133E-03     28.2801E-03
            2374     6.09327E-03     6.89617E-03    -57.3496E+06    -72.0852E+06    -2.38891E+06     7.20500E+06    -194.869E-03     363.549E-03    -168.679E-03     37.3350E-03    -196.070E-03     364.301E-03    -168.504E-03     27.1344E-03
            2375     5.34801E-03     6.86875E-03    -62.4368E+06    -80.5501E+06    -9.20056E+06     5.68885E+06    -185.336E-03     350.841E-03    -165.504E-03     34.3825E-03    -186.258E-03     351.285E-03    -165.343E-03     26.2505E-03
            2376     4.59777E-03     6.84547E-03    -66.3364E+06    -88.4365E+06    -18.4122E+06     4.44146E+06    -177.270E-03     340.012E-03    -162.742E-03     31.6106E-03    -177.968E-03     340.216E-03    -162.610E-03     25.2074E-03
            2377     3.84086E-03     6.82940E-03    -71.6311E+06    -104.910E+06    -33.3182E+06     4.17052E+06    -170.456E-03     330.834E-03    -160.378E-03     28.0576E-03    -170.962E-03     330.811E-03    -160.289E-03     23.1329E-03
            2378     3.07928E-03     6.81572E-03    -78.0587E+06    -139.387E+06    -48.8025E+06     2.88502E+06    -164.974E-03     323.415E-03    -158.441E-03     23.9184E-03    -165.308E-03     323.118E-03    -158.370E-03     20.2323E-03
            2379     2.31279E-03     6.80702E-03    -83.9356E+06    -169.605E+06    -62.7292E+06     807.266E+03    -160.638E-03     317.536E-03    -156.898E-03     19.0428E-03    -160.842E-03     317.021E-03    -156.844E-03     16.4022E-03
            2380     1.54339E-03     6.79955E-03    -88.6040E+06    -185.466E+06    -76.5088E+06     1.33967E+06    -157.500E-03     313.218E-03    -155.718E-03     13.4027E-03    -157.620E-03     312.585E-03    -155.703E-03     11.7071E-03
            2381     772.675E-06     6.79710E-03    -91.4088E+06    -196.781E+06    -87.7616E+06     788.888E+03    -155.280E-03     310.366E-03    -155.085E-03     7.53370E-03    -155.344E-03     309.658E-03    -155.106E-03     6.64068E-03
            2382     13.5887E-03     7.43730E-03    -5.04178E+06     27.3700E+06     64.5015E+06    -2.10579E+06    -335.720E-03     568.217E-03    -232.497E-03     228.812E-03    -346.444E-03     578.824E-03    -232.207E-03     183.146E-03
            2383     12.9008E-03     7.02283E-03    -5.68857E+06     27.5374E+06     62.0099E+06    -1.80348E+06    -357.744E-03     584.515E-03    -226.771E-03     248.341E-03    -372.030E-03     598.678E-03    -226.493E-03     187.784E-03
            2384     12.2858E-03     6.63255E-03    -7.18955E+06     20.3299E+06     54.6309E+06    -2.09935E+06    -362.742E-03     582.178E-03    -219.436E-03     194.085E-03    -374.432E-03     593.768E-03    -219.182E-03     134.997E-03
            2385     11.6672E-03     6.32571E-03    -10.7704E+06     9.68665E+06     46.5113E+06     165.708E+03    -345.211E-03     556.545E-03    -211.334E-03     150.664E-03    -354.341E-03     565.557E-03    -211.099E-03     99.2570E-03
            2386     11.0191E-03     6.08673E-03    -16.3174E+06    -2.98623E+06     38.7625E+06     3.53144E+06    -317.571E-03     521.065E-03    -203.494E-03     115.359E-03    -324.342E-03     527.675E-03    -203.272E-03     73.7069E-03
            2387     10.3625E-03     5.91040E-03    -21.4183E+06    -13.9012E+06     33.6504E+06     6.12844E+06    -288.882E-03     485.323E-03    -196.440E-03     91.4951E-03    -293.975E-03     490.209E-03    -196.221E-03     58.1525E-03
            2388     9.68499E-03     5.78431E-03    -26.7351E+06    -24.1542E+06     28.9335E+06     7.50568E+06    -262.997E-03     453.326E-03    -190.329E-03     78.3726E-03    -266.949E-03     457.026E-03    -190.111E-03     51.6528E-03
            2389     8.98641E-03     5.69440E-03    -32.5439E+06    -34.3500E+06     23.9573E+06     8.26020E+06    -241.272E-03     426.416E-03    -185.144E-03     71.2794E-03    -244.377E-03     429.224E-03    -184.927E-03     49.8327E-03
            2390     8.27579E-03     5.63085E-03    -37.7405E+06    -43.3549E+06     19.7779E+06     8.41485E+06    -223.579E-03     404.365E-03    -180.786E-03     67.6970E-03    -226.047E-03     406.496E-03    -180.569E-03     50.3737E-03
            2391     7.55062E-03     5.58872E-03    -42.4604E+06    -51.2798E+06     16.0877E+06     7.96389E+06    -209.419E-03     386.549E-03    -177.130E-03     65.6562E-03    -211.384E-03     388.142E-03    -176.914E-03     51.6085E-03
            2392     6.81811E-03     5.55697E-03    -47.0047E+06    -59.0262E+06     11.1159E+06     7.41801E+06    -198.102E-03     372.158E-03    -174.056E-03     63.9921E-03    -199.660E-03     373.313E-03    -173.846E-03     52.6074E-03
            2393     6.07503E-03     5.53812E-03    -52.0084E+06    -66.8254E+06     5.48191E+06     5.68573E+06    -189.027E-03     360.504E-03    -171.477E-03     61.8054E-03    -190.255E-03     361.298E-03    -171.277E-03     52.5942E-03
            2394     5.32799E-03     5.52303E-03    -59.0327E+06    -75.8182E+06    -1.19569E+06     2.64985E+06    -181.985E-03     351.297E-03    -169.312E-03     58.6226E-03    -182.950E-03     351.788E-03    -169.122E-03     51.1910E-03
            2395     4.57486E-03     5.51444E-03    -67.8179E+06    -86.7755E+06    -10.9300E+06     804.389E+03    -176.400E-03     343.876E-03    -167.477E-03     54.1244E-03    -177.154E-03     344.113E-03    -167.307E-03     48.2096E-03
            2396     3.81811E-03     5.50799E-03    -75.8294E+06    -104.941E+06    -25.5892E+06     267.433E+03    -171.837E-03     337.772E-03    -165.935E-03     48.3202E-03    -172.405E-03     337.770E-03    -165.801E-03     43.7267E-03
            2397     3.05789E-03     5.50418E-03    -82.3377E+06    -135.519E+06    -45.0286E+06    -733.253E+03    -168.306E-03     332.990E-03    -164.685E-03     41.1056E-03    -168.695E-03     332.731E-03    -164.594E-03     37.6407E-03
            2398     2.29598E-03     5.50126E-03    -88.5781E+06    -169.407E+06    -62.9881E+06    -2.28447E+06    -165.690E-03     329.415E-03    -163.725E-03     32.4499E-03    -165.931E-03     328.916E-03    -163.666E-03     29.9505E-03
            2399     1.53187E-03     5.50011E-03    -93.8058E+06    -187.553E+06    -79.0382E+06    -2.98084E+06    -163.779E-03     326.821E-03    -163.042E-03     22.6176E-03    -163.927E-03     326.191E-03    -163.029E-03     20.9729E-03
            2400     765.811E-06     5.49865E-03    -96.9503E+06    -198.226E+06    -92.3999E+06    -1.80162E+06    -162.696E-03     325.432E-03    -162.736E-03     12.5226E-03    -162.784E-03     324.730E-03    -162.770E-03     11.6467E-03
            2401     13.5043E-03     5.73124E-03    -2.62231E+06     33.2907E+06     58.8554E+06    -1.50331E+06    -366.402E-03     598.691E-03    -232.289E-03     237.345E-03    -377.281E-03     609.479E-03    -232.039E-03     187.153E-03
            2402     12.9362E-03     5.27333E-03    -4.55031E+06     30.1141E+06     51.8660E+06    -4.58550E+06    -389.452E-03     614.357E-03    -224.905E-03     219.897E-03    -402.427E-03     627.261E-03    -224.683E-03     156.279E-03
            2403     12.3297E-03     4.93886E-03    -7.85707E+06     13.3644E+06     43.6443E+06    -1.66524E+06    -370.724E-03     587.049E-03    -216.324E-03     152.652E-03    -379.799E-03     596.043E-03    -216.114E-03     98.9180E-03
            2404     11.6966E-03     4.67651E-03    -12.4838E+06     1.03173E+06     39.1535E+06     2.87805E+06    -336.088E-03     544.164E-03    -208.076E-03     113.000E-03    -342.671E-03     550.619E-03    -207.864E-03     70.0099E-03
            2405     11.0578E-03     4.50049E-03    -15.4104E+06    -7.77106E+06     37.4183E+06     6.19860E+06    -299.436E-03     500.371E-03    -200.935E-03     91.8462E-03    -304.322E-03     505.085E-03    -200.714E-03     58.0933E-03
            2406     10.3825E-03     4.38596E-03    -18.9830E+06    -15.9413E+06     36.1753E+06     8.36577E+06    -267.779E-03     462.885E-03    -195.107E-03     86.7420E-03    -271.629E-03     466.521E-03    -194.875E-03     60.2441E-03
            2407     9.68443E-03     4.30548E-03    -23.6185E+06    -24.5616E+06     34.4066E+06     9.85850E+06    -242.975E-03     433.462E-03    -190.487E-03     86.1871E-03    -246.069E-03     436.298E-03    -190.245E-03     65.2213E-03
            2408     8.97337E-03     4.25312E-03    -28.0169E+06    -32.2692E+06     32.5030E+06     9.52196E+06    -223.876E-03     410.749E-03    -186.872E-03     86.4425E-03    -226.369E-03     412.943E-03    -186.622E-03     69.6729E-03
            2409     8.24638E-03     4.21889E-03    -32.6202E+06    -39.6297E+06     29.1314E+06     7.63875E+06    -209.710E-03     393.767E-03    -184.057E-03     86.6869E-03    -211.729E-03     395.454E-03    -183.807E-03     73.0889E-03
            2410     7.51351E-03     4.19645E-03    -37.4154E+06    -49.1719E+06     23.2786E+06     5.93502E+06    -199.377E-03     381.236E-03    -181.859E-03     86.0176E-03    -201.004E-03     382.494E-03    -181.617E-03     74.9058E-03
            2411     6.77158E-03     4.18403E-03    -42.5024E+06    -56.5453E+06     18.2038E+06     4.79377E+06    -191.837E-03     371.981E-03    -180.144E-03     83.8626E-03    -193.145E-03     372.888E-03    -179.909E-03     74.7580E-03
            2412     6.02759E-03     4.17603E-03    -48.8428E+06    -61.9106E+06     15.5562E+06     3.34027E+06    -186.427E-03     365.238E-03    -178.811E-03     80.0096E-03    -187.482E-03     365.855E-03    -178.572E-03     72.5452E-03
            2413     5.27829E-03     4.17219E-03    -55.9661E+06    -70.3855E+06     7.95909E+06     930.688E+03    -182.489E-03     360.238E-03    -177.750E-03     74.5769E-03    -183.332E-03     360.607E-03    -177.527E-03     68.4690E-03
            2414     4.52762E-03     4.17033E-03    -62.4943E+06    -82.7510E+06    -5.25518E+06    -3.25077E+06    -179.711E-03     356.610E-03    -176.899E-03     67.4933E-03    -180.365E-03     356.759E-03    -176.715E-03     62.5223E-03
            2415     3.77509E-03     4.17052E-03      -68.21E+06    -106.956E+06    -19.3667E+06    -6.23561E+06    -177.853E-03     354.094E-03    -176.241E-03     58.9680E-03    -178.332E-03     353.999E-03    -176.084E-03     54.9879E-03
            2416     3.02137E-03     4.17119E-03    -73.9873E+06    -138.902E+06    -37.8855E+06    -5.48824E+06    -176.548E-03     352.269E-03    -175.721E-03     49.0294E-03    -176.867E-03     351.931E-03    -175.602E-03     45.9688E-03
            2417     2.26604E-03     4.17176E-03    -80.0736E+06    -170.327E+06    -58.8580E+06    -4.84002E+06    -175.641E-03     350.971E-03    -175.330E-03     37.9340E-03    -175.828E-03     350.427E-03    -175.261E-03     35.6998E-03
            2418     1.51079E-03     4.17259E-03    -85.8174E+06    -193.314E+06    -76.1957E+06    -4.99873E+06    -175.129E-03     350.205E-03    -175.076E-03     26.1430E-03    -175.227E-03     349.518E-03    -175.052E-03     24.6444E-03
            2419     755.437E-06     4.17372E-03    -90.3322E+06    -207.116E+06    -87.6035E+06    -3.36258E+06    -175.001E-03     349.861E-03    -174.860E-03     14.4338E-03    -175.050E-03     349.093E-03    -174.867E-03     13.6304E-03
            2420     13.5983E-03     3.98291E-03    -3.90325E+06     37.9691E+06     51.7607E+06    -4.52552E+06    -420.560E-03     651.567E-03    -231.006E-03     222.552E-03    -430.264E-03     661.228E-03    -230.797E-03     169.164E-03
            2421     12.9793E-03     3.51562E-03    -4.93234E+06      26.449E+06     44.6140E+06    -2.65855E+06    -408.444E-03     630.202E-03    -221.758E-03     156.339E-03    -417.210E-03     638.948E-03    -221.566E-03     101.628E-03
            2422     12.3731E-03     3.23668E-03    -9.30829E+06     3.93319E+06     37.8846E+06     1.57981E+06    -356.504E-03     569.363E-03    -212.859E-03     97.9526E-03    -361.763E-03     574.529E-03    -212.662E-03     57.9731E-03
            2423     11.7489E-03     3.06301E-03    -12.3440E+06    -4.95526E+06     36.6141E+06     2.71625E+06    -307.578E-03     513.261E-03    -205.683E-03     85.8214E-03    -311.438E-03     516.976E-03    -205.475E-03     55.4461E-03
            2424     11.0653E-03     2.96603E-03    -15.0360E+06    -12.4669E+06     36.4472E+06     5.15223E+06    -269.502E-03     469.803E-03    -200.301E-03     85.9365E-03    -272.426E-03     472.537E-03    -200.079E-03     63.3923E-03
            2425     10.3648E-03     2.89822E-03    -17.6617E+06    -18.8329E+06     37.9176E+06     7.34583E+06    -242.675E-03     439.061E-03    -196.386E-03     89.1017E-03    -245.030E-03     441.189E-03    -196.144E-03     71.7268E-03
            2426     9.65103E-03     2.85752E-03    -19.5901E+06    -23.8344E+06     39.8338E+06     7.97215E+06    -223.367E-03     416.938E-03    -193.572E-03     90.3504E-03    -225.255E-03     418.567E-03    -193.310E-03     76.6799E-03
            2427     8.92191E-03     2.83181E-03    -22.5908E+06    -29.3135E+06     39.2829E+06     7.60617E+06    -209.804E-03     401.390E-03    -191.586E-03     90.6566E-03    -211.337E-03     402.632E-03    -191.315E-03     79.6697E-03
            2428     8.18939E-03     2.81631E-03    -27.1327E+06    -35.8614E+06     35.4914E+06     6.81032E+06    -200.707E-03     390.919E-03    -190.213E-03     89.3382E-03    -201.957E-03     391.847E-03    -189.944E-03     80.3496E-03
            2429     7.44866E-03     2.80791E-03    -32.7477E+06    -45.2994E+06     28.0938E+06     4.82353E+06    -194.804E-03     384.080E-03    -189.276E-03     86.2575E-03    -195.820E-03     384.739E-03    -189.022E-03     78.7948E-03
            2430     6.70772E-03     2.80338E-03    -38.3745E+06    -52.8932E+06     19.4237E+06     2.16706E+06    -191.161E-03     379.805E-03    -188.645E-03     81.7411E-03    -191.987E-03     380.251E-03    -188.415E-03     75.4782E-03
            2431     5.96277E-03     2.80181E-03    -42.7835E+06    -57.3783E+06     12.5282E+06    -638.970E+03    -188.929E-03     377.165E-03    -188.236E-03     76.0270E-03    -189.602E-03     377.443E-03    -188.028E-03     70.7475E-03
            2432     5.21861E-03     2.80226E-03    -45.9670E+06    -63.8841E+06     2.21175E+06    -4.93635E+06    -187.654E-03     375.624E-03    -187.970E-03     69.1113E-03    -188.188E-03     375.756E-03    -187.800E-03     64.6430E-03
            2433     4.47267E-03     2.80336E-03    -48.9620E+06    -78.9337E+06    -13.3868E+06    -8.89287E+06    -187.091E-03     374.892E-03    -187.801E-03     61.0874E-03    -187.486E-03     374.865E-03    -187.683E-03     57.3374E-03
            2434     3.72679E-03     2.80502E-03    -53.1536E+06    -112.288E+06    -27.7461E+06    -9.99400E+06    -187.011E-03     374.747E-03    -187.735E-03     52.1532E-03    -187.272E-03     374.491E-03    -187.634E-03     49.0699E-03
            2435     2.98126E-03     2.80667E-03    -57.8372E+06    -148.481E+06    -39.0522E+06    -8.16896E+06    -187.115E-03     374.842E-03    -187.727E-03     42.7097E-03    -187.261E-03     374.359E-03    -187.623E-03     40.2797E-03
            2436     2.23644E-03     2.80865E-03    -61.9762E+06    -176.475E+06    -50.4931E+06    -5.12318E+06    -187.323E-03     375.050E-03    -187.726E-03     32.6718E-03    -187.380E-03     374.395E-03    -187.633E-03     30.8845E-03
            2437     1.49070E-03     2.80992E-03    -66.2624E+06    -200.180E+06    -61.1812E+06    -2.86855E+06    -187.625E-03     375.322E-03    -187.697E-03     22.2139E-03    -187.616E-03     374.533E-03    -187.616E-03     21.0346E-03
            2438     745.706E-06     2.80956E-03    -69.7236E+06    -214.853E+06    -68.5462E+06    -1.20138E+06    -187.735E-03     375.268E-03    -187.533E-03     11.9941E-03    -187.689E-03     374.399E-03    -187.463E-03     11.3655E-03
            2439     13.5694E-03     2.03490E-03    -3.36844E+06     41.9075E+06     58.5545E+06    -2.29018E+06    -510.875E-03     741.326E-03    -230.451E-03     204.479E-03    -517.782E-03     748.220E-03    -230.214E-03     160.478E-03
            2440     13.0487E-03     1.74037E-03    -6.01924E+06     20.2377E+06     52.9440E+06     1.64209E+06    -413.909E-03     633.324E-03    -219.415E-03     109.454E-03    -417.829E-03     637.228E-03    -219.170E-03     78.0529E-03
            2441     12.4291E-03     1.60371E-03    -8.35185E+06     3.61313E+06     48.0385E+06     3.20851E+06    -331.838E-03     542.956E-03    -211.118E-03     80.6643E-03    -333.938E-03     544.936E-03    -210.870E-03     59.8068E-03
            2442     11.7337E-03     1.52199E-03    -10.3278E+06    -5.40744E+06     43.8974E+06     3.65695E+06    -279.504E-03     484.980E-03    -205.476E-03     71.6087E-03    -281.051E-03     486.356E-03    -205.234E-03     57.1273E-03
            2443     11.0386E-03     1.47239E-03    -13.5870E+06    -14.1864E+06     40.5420E+06     3.45394E+06    -246.980E-03     448.724E-03    -201.744E-03     65.7830E-03    -248.112E-03     449.650E-03    -201.501E-03     55.3521E-03
            2444     10.3249E-03     1.44325E-03    -15.2981E+06    -19.6256E+06     41.2703E+06     3.08307E+06    -226.122E-03     425.427E-03    -199.305E-03     64.1003E-03    -227.014E-03     426.083E-03    -199.048E-03     56.0055E-03
            2445     9.59722E-03     1.42697E-03    -16.9010E+06    -23.8854E+06     40.9868E+06     3.47109E+06    -212.531E-03     410.279E-03    -197.748E-03     62.7170E-03    -213.253E-03     410.741E-03    -197.484E-03     56.2728E-03
            2446     8.86724E-03     1.41729E-03    -19.1489E+06    -29.0530E+06     35.9521E+06     4.41016E+06    -204.124E-03     400.915E-03    -196.790E-03     60.8513E-03    -204.713E-03     401.230E-03    -196.541E-03     55.5885E-03
            2447     8.12891E-03     1.41218E-03    -21.7814E+06    -34.5823E+06     28.5374E+06     4.89860E+06    -199.021E-03     395.267E-03    -196.247E-03     57.9359E-03    -199.500E-03     395.465E-03    -196.022E-03     53.5662E-03
            2448     7.39184E-03     1.40901E-03    -25.0704E+06    -40.0686E+06     20.6528E+06     3.67451E+06    -196.129E-03     392.120E-03    -195.991E-03     54.3278E-03    -196.525E-03     392.224E-03    -195.793E-03     50.6127E-03
            2449     6.65098E-03     1.40817E-03    -28.5657E+06    -46.0382E+06     10.4358E+06    -115.442E+03    -194.638E-03     390.555E-03    -195.918E-03     50.1959E-03    -194.963E-03     390.584E-03    -195.757E-03     46.9704E-03
            2450     5.91173E-03     1.40820E-03    -31.6560E+06    -52.1198E+06    -206.157E+03    -4.45246E+06    -194.071E-03     390.040E-03    -195.969E-03     45.6747E-03    -194.334E-03     390.004E-03    -195.848E-03     42.8403E-03
            2451     5.17074E-03     1.40887E-03    -35.7553E+06    -59.9435E+06    -12.8571E+06    -6.87120E+06    -194.117E-03     390.206E-03    -196.090E-03     40.7695E-03    -194.327E-03     390.111E-03    -196.015E-03     38.3064E-03
            2452     4.43138E-03     1.41001E-03    -41.5088E+06    -80.7243E+06    -27.9442E+06    -7.48836E+06    -194.515E-03     390.771E-03    -196.256E-03     35.6406E-03    -194.665E-03     390.565E-03    -196.218E-03     33.5461E-03
            2453     3.69220E-03     1.41110E-03    -46.5786E+06    -118.283E+06    -39.7403E+06    -7.24279E+06    -195.100E-03     391.572E-03    -196.471E-03     30.1358E-03    -195.174E-03     391.172E-03    -196.431E-03     28.3978E-03
            2454     2.95296E-03     1.41271E-03    -50.6074E+06    -157.597E+06    -45.5810E+06    -6.29954E+06    -195.743E-03     392.447E-03    -196.704E-03     24.3611E-03    -195.748E-03     391.841E-03    -196.630E-03     22.9704E-03
            2455     2.21350E-03     1.41344E-03    -54.0606E+06    -186.179E+06    -48.9299E+06    -3.66845E+06    -196.364E-03     393.254E-03    -196.891E-03     18.5950E-03    -196.321E-03     392.496E-03    -196.787E-03     17.5701E-03
            2456     1.47608E-03     1.41380E-03    -56.4362E+06    -205.367E+06    -53.3096E+06    -714.499E+03    -196.767E-03     393.772E-03    -197.005E-03     12.7398E-03    -196.689E-03     392.914E-03    -196.892E-03     12.0718E-03
            2457     737.731E-06     1.41521E-03    -57.9060E+06    -216.737E+06    -56.9361E+06     236.755E+03    -197.041E-03     394.066E-03    -197.025E-03     6.84832E-03    -196.940E-03     393.150E-03    -196.911E-03     6.48555E-03


