********************************************************************************
Field Output Report, written Mon Aug 12 21:30:00 2024

Source 1
---------

   ODB: G:/Abaqus_calc_2019/1740/Vel_40/odb/zeides_2a_32_red_1000_cal_100_vel_40_fric_025.odb
   Step: Step-1
   Frame: Increment   2551916: Step Time =   0.2945

Loc 1 : Nodal values from source 1

Output sorted by column "Nodal Label".

Field Output reported at nodes for region: DIE_2A_32_D0_36-1.Region_1
   Computation algorithm: EXTRAPOLATE_COMPUTE_AVERAGE
   Averaged at nodes
   Averaging regions: ODB_REGIONS

      Node Label     COORD.COOR1     COORD.COOR2
                          @Loc 1          @Loc 1
-------------------------------------------------
               1     20.6653E-03     124.605E-03


Field Output reported at nodes for region: DIE_2A_32_D0_36-1.Region_2
   Computation algorithm: EXTRAPOLATE_COMPUTE_AVERAGE
   Averaged at nodes
   Averaging regions: ODB_REGIONS

      Node Label     COORD.COOR1     COORD.COOR2
                          @Loc 1          @Loc 1
-------------------------------------------------
               1     20.6653E-03     124.605E-03


Field Output reported at nodes for part: WIRE-1
   Computation algorithm: EXTRAPOLATE_COMPUTE_AVERAGE
   Averaged at nodes
   Averaging regions: ODB_REGIONS

      Node Label     COORD.COOR1     COORD.COOR2           S.S11           S.S22           S.S33           S.S12         PE.PE11         PE.PE22         PE.PE33         PE.PE12         LE.LE11         LE.LE22         LE.LE33         LE.LE12
                          @Loc 1          @Loc 1          @Loc 1          @Loc 1          @Loc 1          @Loc 1          @Loc 1          @Loc 1          @Loc 1          @Loc 1          @Loc 1          @Loc 1          @Loc 1          @Loc 1
-------------------------------------------------------------------------------------------------------------------------------------------------------------------------------------------------------------------------------------------------
               1    -172.757E-09     67.2133E-03    -94.4064E+06    -242.399E+06    -93.8806E+06     23.1674E+03    -110.273E-03     220.045E-03    -109.772E-03     9.69425E-03    -110.261E-03     219.111E-03    -109.753E-03     9.49362E-03
               2     16.1289E-03     69.6422E-03    -3.16216E+06     122.237E+06     96.3461E+06     156.581E+03    -108.290E-03     218.233E-03    -109.943E-03     25.3028E-03    -109.739E-03     219.825E-03    -109.634E-03     22.0722E-03
               3     15.5177E-03     139.300E-03     37.6900E+06    -35.5685E+06    -89.8805E+06     33.6125E+06     73.5929E-03     59.7467E-03    -133.340E-03     1.16575E-03     73.7652E-03     59.4465E-03    -133.792E-03     1.59959E-03
               4    -8.09983E-06     134.277E-03    -62.2622E+06    -8.48936E+06    -63.9346E+06    -4.25616E+06    -102.525E-03     209.267E-03    -106.743E-03    -10.1057E-03    -102.759E-03     209.379E-03    -106.960E-03    -10.1947E-03
               5    -1.61077E-06    -263.678E-18    -52.0456E+06    -199.914E+06    -52.1254E+06    -4.05494E+06    -114.103E-03     227.920E-03    -113.817E-03     1.24711E-03    -113.996E-03     227.072E-03    -113.712E-03     1.17265E-03
               6     15.7366E-03    -263.678E-18     29.3115E+06     126.865E+06     124.134E+06    -2.79481E+06    -202.045E-03     328.939E-03    -126.895E-03     193.229E-03    -204.568E-03     331.567E-03    -126.500E-03     185.115E-03
               7     806.574E-06     67.2206E-03    -93.6548E+06    -241.085E+06    -91.4817E+06     223.680E+03    -110.330E-03     220.274E-03    -109.944E-03     15.9139E-03    -110.329E-03     219.350E-03    -109.916E-03     15.5850E-03
               8     1.61215E-03     67.2467E-03    -91.0789E+06    -237.039E+06    -84.1021E+06     192.480E+03    -110.442E-03     220.601E-03    -110.159E-03     28.7840E-03    -110.471E-03     219.710E-03    -110.104E-03     28.1686E-03
               9     2.41854E-03     67.2851E-03    -86.9809E+06    -231.338E+06    -72.8139E+06     130.608E+03    -110.553E-03     220.773E-03    -110.220E-03     42.2619E-03    -110.634E-03     219.936E-03    -110.123E-03     41.3223E-03
              10     3.22458E-03     67.3408E-03    -82.1739E+06    -221.710E+06    -60.3013E+06     655.142E+03    -110.738E-03     220.974E-03    -110.236E-03     55.8706E-03    -110.899E-03     220.231E-03    -110.097E-03     54.5884E-03
              11     4.03091E-03     67.4098E-03    -76.5281E+06    -209.981E+06    -48.1261E+06     615.449E+03    -111.099E-03     221.337E-03    -110.238E-03     69.1060E-03    -111.365E-03     220.726E-03    -110.064E-03     67.4357E-03
              12     4.83766E-03     67.4944E-03    -70.9343E+06    -196.168E+06    -36.7424E+06     694.185E+03    -111.553E-03     221.797E-03    -110.244E-03     81.9408E-03    -111.963E-03     221.366E-03    -110.040E-03     79.8360E-03
              13     5.64317E-03     67.5923E-03    -65.2552E+06    -183.071E+06    -25.3272E+06     997.839E+03    -111.996E-03     222.254E-03    -110.257E-03     94.4702E-03    -112.590E-03     222.039E-03    -110.024E-03     91.8827E-03
              14     6.45031E-03     67.7041E-03    -59.2989E+06    -169.239E+06    -15.8985E+06     726.757E+03    -112.406E-03     222.664E-03    -110.257E-03     106.616E-03    -113.233E-03     222.725E-03    -110.006E-03     103.484E-03
              15     7.25603E-03     67.8287E-03      -54.33E+06    -151.214E+06    -9.42011E+06     618.170E+03    -112.826E-03     223.061E-03    -110.235E-03     118.457E-03    -113.957E-03     223.490E-03    -109.984E-03     114.719E-03
              16     8.06284E-03     67.9667E-03    -49.6814E+06    -129.718E+06    -4.63682E+06     257.825E+03    -113.188E-03     223.386E-03    -110.198E-03     129.815E-03    -114.712E-03     224.287E-03    -109.961E-03     125.390E-03
              17     8.86950E-03     68.1153E-03    -45.3697E+06    -103.468E+06     373.800E+03     275.807E+03    -113.415E-03     223.569E-03    -110.154E-03     140.436E-03    -115.435E-03     225.059E-03    -109.936E-03     135.274E-03
              18     9.67554E-03     68.2762E-03    -41.6395E+06    -70.5650E+06     4.54236E+06     200.939E+03    -113.522E-03     223.616E-03    -110.094E-03     150.322E-03    -116.176E-03     225.858E-03    -109.908E-03     144.348E-03
              19     10.4826E-03     68.4458E-03    -38.0546E+06    -22.9866E+06     10.8693E+06     290.707E+03    -113.249E-03     223.263E-03    -110.013E-03     160.474E-03    -116.741E-03     226.507E-03    -109.871E-03     153.626E-03
              20     11.2901E-03     68.6278E-03    -34.4301E+06     44.5013E+06     18.6162E+06     359.324E+03    -113.319E-03     223.224E-03    -109.904E-03     174.103E-03    -118.015E-03     227.901E-03    -109.826E-03     166.247E-03
              21     12.0962E-03     68.8267E-03    -29.7638E+06     93.0601E+06     37.5943E+06    -316.146E+03    -113.438E-03     223.319E-03    -109.880E-03     191.433E-03    -119.778E-03     229.774E-03    -109.784E-03     182.501E-03
              22     12.9027E-03     69.0478E-03    -23.8186E+06     108.084E+06     71.7663E+06    -13.0579E+03    -112.632E-03     222.608E-03    -109.976E-03     198.663E-03    -120.345E-03     230.413E-03    -109.740E-03     189.285E-03
              23     13.7121E-03     69.2616E-03    -18.1123E+06     117.111E+06     95.0904E+06     277.343E+03    -110.976E-03     221.011E-03    -110.035E-03     179.951E-03    -118.694E-03     228.805E-03    -109.703E-03     171.259E-03
              24     14.5132E-03     69.4415E-03    -11.4386E+06     127.191E+06     103.692E+06    -199.326E+03    -109.113E-03     219.140E-03    -110.027E-03     160.762E-03    -116.545E-03     226.682E-03    -109.676E-03     153.118E-03
              25     15.3273E-03     69.6120E-03    -5.22894E+06     128.229E+06     101.410E+06    -149.315E+03    -108.313E-03     218.289E-03    -109.976E-03     91.8715E-03    -112.834E-03     222.952E-03    -109.647E-03     86.6427E-03
              26     16.1337E-03     70.8179E-03    -3.01983E+06     122.395E+06     96.3070E+06    -243.931E+03    -108.269E-03     218.204E-03    -109.935E-03     25.7457E-03    -109.717E-03     219.797E-03    -109.627E-03     22.5056E-03
              27     16.1278E-03     72.0041E-03    -2.79936E+06     122.330E+06     96.3281E+06     85.7262E+03    -107.943E-03     217.907E-03    -109.964E-03     24.0658E-03    -109.368E-03     219.477E-03    -109.656E-03     20.8712E-03
              28     16.1335E-03     73.1796E-03    -2.07586E+06     122.668E+06     96.5909E+06     14.3223E+03    -107.462E-03     217.424E-03    -109.962E-03     25.6218E-03    -108.904E-03     219.014E-03    -109.654E-03     22.4234E-03
              29     16.1289E-03     74.3624E-03    -4.56086E+06     121.316E+06     95.5228E+06    -259.897E+03    -109.590E-03     219.534E-03    -109.944E-03     25.7290E-03    -111.048E-03     221.129E-03    -109.635E-03     22.4465E-03
              30     16.1301E-03     75.5521E-03    -3.33875E+06     122.194E+06     95.8077E+06     1.37029E+06    -106.840E-03     216.858E-03    -110.019E-03     25.7931E-03    -108.294E-03     218.457E-03    -109.712E-03     22.6525E-03
              31     16.1320E-03     76.7181E-03    -963.348E+03     124.243E+06     97.4412E+06    -53.0201E+03    -105.653E-03     215.652E-03    -109.998E-03     26.5682E-03    -107.112E-03     217.266E-03    -109.690E-03     23.4331E-03
              32     16.1303E-03     77.9024E-03    -3.34265E+06     122.716E+06     96.3238E+06    -529.660E+03    -110.035E-03     219.948E-03    -109.913E-03     24.1987E-03    -111.471E-03     221.529E-03    -109.604E-03     20.8893E-03
              33     16.1301E-03     79.0916E-03    -2.49139E+06     123.101E+06     96.7011E+06     426.614E+03    -108.239E-03     218.209E-03    -109.970E-03     26.3548E-03    -109.696E-03     219.813E-03    -109.661E-03     23.1151E-03
              34     16.1316E-03     80.2680E-03    -2.16183E+06     123.475E+06     96.7884E+06    -485.818E+03    -105.814E-03     215.825E-03    -110.012E-03     28.3896E-03    -107.300E-03     217.462E-03    -109.704E-03     25.2280E-03
              35     16.1300E-03     81.4431E-03    -3.58082E+06     123.074E+06     96.8471E+06    -566.636E+03    -108.485E-03     218.464E-03    -109.979E-03     25.8355E-03    -109.952E-03     220.075E-03    -109.669E-03     22.5818E-03
              36     16.1295E-03     82.6309E-03    -2.26209E+06     123.044E+06     96.3487E+06     1.37448E+06    -107.520E-03     217.487E-03    -109.967E-03     23.8506E-03    -108.946E-03     219.062E-03    -109.660E-03     20.6752E-03
              37     16.1342E-03     83.8015E-03     427.346E+03     125.849E+06     98.9189E+06    -610.872E+03    -106.584E-03     216.509E-03    -109.924E-03     25.1622E-03    -108.026E-03     218.112E-03    -109.613E-03     21.9672E-03
              38     16.1299E-03     84.9896E-03    -3.56922E+06     123.707E+06     97.2575E+06    -1.02209E+06    -110.783E-03     220.666E-03    -109.883E-03     26.1679E-03    -112.252E-03     222.280E-03    -109.571E-03     22.8028E-03
              39     16.1297E-03     86.1774E-03    -4.07616E+06     123.202E+06     96.4710E+06     1.71502E+06    -110.013E-03     219.991E-03    -109.978E-03     27.8151E-03    -111.487E-03     221.608E-03    -109.669E-03     24.5179E-03
              40     16.1295E-03     87.3578E-03    -3.59899E+06     123.437E+06     95.4743E+06     1.49890E+06    -105.867E-03     215.916E-03    -110.049E-03     27.2558E-03    -107.330E-03     217.529E-03    -109.746E-03     24.1292E-03
              41     16.1319E-03     88.5240E-03    -707.286E+03     126.627E+06     98.2220E+06    -1.56276E+06    -105.970E-03     215.961E-03    -109.990E-03     23.0729E-03    -107.402E-03     217.554E-03    -109.682E-03     19.9137E-03
              42     16.1312E-03     89.7118E-03    -1.16087E+06     126.612E+06     98.6132E+06    -1.86597E+06    -108.458E-03     218.378E-03    -109.919E-03     23.8652E-03    -109.907E-03     219.986E-03    -109.608E-03     20.5945E-03
              43     16.1308E-03     90.8953E-03    -3.52468E+06     124.422E+06     96.8567E+06     317.946E+03    -110.583E-03     220.500E-03    -109.917E-03     27.8185E-03    -112.076E-03     222.141E-03    -109.608E-03     24.4569E-03
              44     16.1288E-03     92.0828E-03    -3.18300E+06     124.510E+06     97.0173E+06     2.39412E+06    -108.483E-03     218.459E-03    -109.975E-03     26.9008E-03    -109.942E-03     220.066E-03    -109.666E-03     23.6808E-03
              45     16.1330E-03     93.2553E-03    -1.79330E+06     126.118E+06     98.3511E+06     1.03064E+06    -105.809E-03     215.825E-03    -110.017E-03     26.5661E-03    -107.265E-03     217.438E-03    -109.705E-03     23.4528E-03
              46     16.1285E-03     94.4382E-03    -2.40979E+06     125.704E+06     98.0607E+06    -738.495E+03    -106.881E-03     216.858E-03    -109.978E-03     25.4576E-03    -108.340E-03     218.470E-03    -109.666E-03     22.2577E-03
              47     16.1340E-03     95.6106E-03    -2.74439E+06     125.938E+06     98.7109E+06    -1.03453E+06    -109.714E-03     219.621E-03    -109.907E-03     24.8331E-03    -111.163E-03     221.222E-03    -109.592E-03     21.5086E-03
              48     16.1276E-03     96.8064E-03    -3.54625E+06     125.392E+06     98.2155E+06     232.853E+03    -109.622E-03     219.563E-03    -109.942E-03     24.5309E-03    -111.069E-03     221.159E-03    -109.627E-03     21.2562E-03
              49     16.1328E-03     97.9822E-03    -1.24920E+06     127.008E+06     99.1878E+06     797.443E+03    -106.425E-03     216.425E-03    -110.000E-03     27.1010E-03    -107.898E-03     218.058E-03    -109.687E-03     23.9391E-03
              50     16.1302E-03     99.1574E-03    -1.85909E+06     128.762E+06     99.7656E+06     200.690E+03    -107.706E-03     217.661E-03    -109.955E-03     27.2679E-03    -109.189E-03     219.306E-03    -109.640E-03     24.0358E-03
              51     16.1310E-03     100.349E-03    -2.70454E+06     129.995E+06     99.8821E+06     669.307E+03    -107.790E-03     217.751E-03    -109.961E-03     26.9700E-03    -109.289E-03     219.412E-03    -109.646E-03     23.7297E-03
              52     16.1315E-03     101.518E-03    -2.77423E+06     130.933E+06     100.196E+06     -324.06E+03    -107.403E-03     217.341E-03    -109.938E-03     27.7810E-03    -108.912E-03     219.015E-03    -109.623E-03     24.5287E-03
              53     16.1319E-03     102.705E-03    -2.80006E+06     131.049E+06     100.530E+06    -108.438E+03    -109.450E-03     219.347E-03    -109.896E-03     24.6541E-03    -110.908E-03     220.968E-03    -109.580E-03     21.3611E-03
              54     16.1301E-03     103.888E-03    -2.71016E+06     132.436E+06     100.620E+06     1.34755E+06    -108.019E-03     217.936E-03    -109.917E-03     25.8513E-03    -109.489E-03     219.575E-03    -109.602E-03     22.6259E-03
              55     16.1342E-03     105.063E-03    -3.29761E+06     134.834E+06     101.458E+06     570.691E+03    -108.166E-03     218.052E-03    -109.887E-03     26.0429E-03    -109.650E-03     219.710E-03    -109.570E-03     22.7941E-03
              56     16.1294E-03     106.251E-03    -3.16308E+06     136.017E+06     102.429E+06     131.796E+03    -108.399E-03     218.256E-03    -109.857E-03     25.2451E-03    -109.874E-03     219.905E-03    -109.538E-03     21.9840E-03
              57     16.1365E-03     107.426E-03    -2.33529E+06     135.944E+06     103.148E+06     178.458E+03    -107.562E-03     217.377E-03    -109.815E-03     27.2166E-03    -109.053E-03     219.043E-03    -109.493E-03     23.9753E-03
              58     16.1313E-03     108.612E-03    -2.98861E+06     137.222E+06     104.630E+06     1.13724E+06    -107.919E-03     217.652E-03    -109.733E-03     27.1054E-03    -109.422E-03     219.327E-03    -109.404E-03     23.8525E-03
              59     16.1396E-03     109.788E-03    -2.41419E+06     140.194E+06     106.738E+06     1.35537E+06    -107.607E-03     217.227E-03    -109.620E-03     28.3836E-03    -109.124E-03     218.924E-03    -109.286E-03     25.1272E-03
              60     16.1361E-03     110.972E-03    -2.95892E+06     142.026E+06     107.810E+06     1.85165E+06    -107.299E-03     216.757E-03    -109.458E-03     29.3615E-03    -108.833E-03     218.472E-03    -109.120E-03     26.0994E-03
              61     16.1458E-03     112.148E-03    -3.16365E+06     144.988E+06     109.692E+06     1.79175E+06    -106.418E-03     215.652E-03    -109.234E-03     30.8818E-03    -107.990E-03     217.410E-03    -108.891E-03     27.6103E-03
              62     16.1458E-03     113.327E-03    -1.67732E+06     146.320E+06     111.287E+06     74.3422E+03    -107.365E-03     216.260E-03    -108.895E-03     29.7652E-03    -108.919E-03     218.005E-03    -108.548E-03     26.4136E-03
              63     16.1562E-03     114.501E-03    -4.74436E+06     143.682E+06     109.745E+06     724.875E+03    -112.015E-03     220.419E-03    -108.403E-03     28.9515E-03    -113.553E-03     222.132E-03    -108.056E-03     25.3960E-03
              64     16.1588E-03     115.692E-03    -3.85629E+06     147.186E+06     113.887E+06     3.04611E+06    -114.673E-03     222.577E-03    -107.905E-03     31.6912E-03    -116.251E-03     224.336E-03    -107.543E-03     28.0032E-03
              65     16.1712E-03     116.888E-03    -1.46558E+06     152.606E+06     118.739E+06     3.31651E+06    -114.518E-03     221.934E-03    -107.416E-03     39.8132E-03    -116.245E-03     223.854E-03    -107.041E-03     36.0205E-03
              66     16.1757E-03     118.064E-03    -3.29713E+06     156.198E+06     120.843E+06     1.35494E+06    -120.912E-03     227.685E-03    -106.773E-03     42.1990E-03    -122.726E-03     229.693E-03    -106.390E-03     37.9928E-03
              67     16.1851E-03     119.271E-03    -2.35743E+06     158.146E+06     122.891E+06     1.08698E+06    -130.336E-03     236.440E-03    -106.104E-03     40.0619E-03    -132.148E-03     238.449E-03    -105.715E-03     35.3668E-03
              68     16.1894E-03     120.475E-03    -2.87872E+06     161.015E+06     124.755E+06    -285.594E+03    -140.013E-03     245.528E-03    -105.515E-03     45.5166E-03    -141.952E-03     247.669E-03    -105.120E-03     40.1921E-03
              69     16.1938E-03     121.709E-03    -1.94514E+06     161.073E+06     124.590E+06     496.259E+03    -150.896E-03     255.893E-03    -104.997E-03     50.4009E-03    -152.936E-03     258.138E-03    -104.604E-03     44.3816E-03
              70     16.1965E-03     122.938E-03    -3.30369E+06     161.358E+06     124.378E+06    -101.992E+03    -161.922E-03     266.474E-03    -104.552E-03     56.4906E-03    -164.102E-03     268.856E-03    -104.159E-03     49.6717E-03
              71     16.1980E-03     124.195E-03    -1.96502E+06     162.726E+06     125.786E+06    -866.147E+03    -173.869E-03     277.995E-03    -104.126E-03     62.7937E-03    -176.183E-03     280.518E-03    -103.730E-03     55.0789E-03
              72     16.2014E-03     125.458E-03    -2.05771E+06     164.187E+06     127.126E+06     2.30479E+06    -185.926E-03     289.653E-03    -103.727E-03     70.6467E-03    -188.444E-03     292.381E-03    -103.326E-03     61.9154E-03
              73     16.2007E-03     126.741E-03    -4.48130E+06     163.822E+06     125.617E+06     -32.796E+03    -199.147E-03     302.501E-03    -103.354E-03     77.2319E-03    -201.909E-03     305.468E-03    -102.957E-03     67.0249E-03
              74     16.2025E-03     128.039E-03    -2.79074E+06     165.072E+06     124.519E+06    -1.53717E+06    -213.372E-03     316.357E-03    -102.986E-03     88.1697E-03    -216.365E-03     319.573E-03    -102.599E-03     76.5714E-03
              75     16.2020E-03     129.364E-03     190.601E+03     169.875E+06      125.96E+06     3.82279E+06    -226.941E-03     329.584E-03    -102.643E-03     101.003E-03    -230.225E-03     333.115E-03    -102.260E-03     88.0369E-03
              76     16.2038E-03     130.700E-03    -5.42711E+06     171.962E+06     124.636E+06     358.759E+03    -239.274E-03     341.620E-03    -102.346E-03     115.194E-03    -242.943E-03     345.527E-03    -101.964E-03     100.627E-03
              77     16.2027E-03     132.052E-03    -2.71343E+06     176.763E+06     128.641E+06    -3.33625E+06    -248.308E-03     350.453E-03    -102.145E-03     130.023E-03    -252.497E-03     354.901E-03    -101.755E-03     113.592E-03
              78     16.2044E-03     133.421E-03     1.09356E+06     178.353E+06     125.887E+06     1.23396E+06    -254.300E-03     356.344E-03    -102.045E-03     152.826E-03    -259.260E-03     361.593E-03    -101.675E-03     134.619E-03
              79     16.2007E-03     134.791E-03    -62.2135E+06     155.374E+06     64.8400E+06    -5.01197E+06    -242.991E-03     345.188E-03    -102.196E-03     180.496E-03    -249.118E-03     351.486E-03    -102.007E-03     161.326E-03
              80     16.2034E-03     136.148E-03    -160.860E+06     45.9380E+06    -59.4836E+06    -41.8265E+06    -197.692E-03     300.774E-03    -103.083E-03     242.309E-03    -204.339E-03     307.220E-03    -103.213E-03     226.488E-03
              81     16.2041E-03     137.413E-03    -215.107E+06    -47.7720E+06    -138.764E+06    -10.7574E+06    -81.7005E-03     189.496E-03    -107.795E-03     238.231E-03    -85.4599E-03     192.852E-03    -108.108E-03     232.388E-03
              82     16.0576E-03     138.355E-03    -90.5762E+06    -42.8909E+06    -115.996E+06     40.9570E+06     38.5985E-03     83.9818E-03    -122.580E-03     91.8405E-03     38.1812E-03     84.1780E-03    -122.967E-03     92.3018E-03
              83     14.7400E-03     138.838E-03    -19.8775E+06     21.9308E+06    -53.2621E+06     20.6337E+06     64.3795E-03     71.7197E-03    -136.099E-03     17.3076E-03     64.3160E-03     71.9354E-03    -136.369E-03     17.5746E-03
              84     13.7974E-03     138.426E-03    -96.7103E+06     40.5775E+06    -33.4133E+06    -22.0952E+06     32.2320E-03     107.774E-03    -140.006E-03    -6.91098E-03     31.7767E-03     108.231E-03    -140.092E-03    -7.30473E-03
              85     13.0558E-03     137.925E-03    -130.210E+06    -20.5107E+06    -73.8032E+06    -63.5814E+06     7.42839E-03     133.622E-03    -141.050E-03    -40.2067E-03     6.85437E-03     133.793E-03    -141.201E-03    -41.2610E-03
              86     12.2602E-03     137.463E-03    -142.078E+06    -42.4928E+06    -86.1251E+06    -80.8704E+06    -3.23769E-03     143.988E-03    -140.750E-03    -57.6991E-03    -3.77112E-03     144.074E-03    -140.913E-03    -59.1125E-03
              87     11.5000E-03     137.020E-03    -140.188E+06    -42.0025E+06    -72.4790E+06    -83.6808E+06    -20.3782E-03     160.066E-03    -139.687E-03    -98.0746E-03    -20.8856E-03     160.030E-03    -139.786E-03    -99.7483E-03
              88     10.7497E-03     136.613E-03    -141.673E+06    -41.4783E+06    -67.7847E+06    -78.5250E+06    -38.1037E-03     175.599E-03    -137.495E-03    -129.550E-03    -38.5610E-03     175.468E-03    -137.568E-03    -131.358E-03
              89     10.0083E-03     136.242E-03    -143.479E+06    -48.8471E+06    -70.2139E+06    -74.2351E+06    -55.5217E-03     189.999E-03    -134.477E-03    -153.261E-03    -55.9318E-03     189.758E-03    -134.549E-03    -155.159E-03
              90     9.27469E-03     135.910E-03    -140.732E+06    -49.7902E+06     -68.411E+06    -69.5401E+06    -70.6794E-03     201.671E-03    -130.991E-03    -163.015E-03    -71.0664E-03     201.391E-03    -131.057E-03    -164.907E-03
              91     8.53453E-03     135.617E-03    -133.868E+06    -39.1654E+06    -59.6174E+06    -62.9386E+06    -83.5876E-03     210.951E-03    -127.363E-03    -161.570E-03    -83.9830E-03     210.714E-03    -127.410E-03    -163.365E-03
              92     7.79426E-03     135.359E-03    -125.957E+06    -32.7695E+06    -55.3481E+06    -55.2164E+06    -93.3940E-03     217.159E-03    -123.765E-03    -151.730E-03    -93.7938E-03     216.974E-03    -123.811E-03    -153.360E-03
              93     7.04185E-03     135.136E-03    -117.411E+06    -27.5678E+06    -53.3946E+06     -46.488E+06    -100.406E-03     220.741E-03    -120.336E-03    -137.534E-03    -100.803E-03     220.615E-03    -120.392E-03    -138.956E-03
              94     6.28561E-03     134.943E-03    -109.892E+06    -21.2560E+06    -53.5243E+06    -38.6178E+06    -104.874E-03     222.024E-03    -117.149E-03    -120.609E-03    -105.276E-03     221.960E-03    -117.227E-03    -121.825E-03
              95     5.51949E-03     134.780E-03    -102.756E+06    -15.7851E+06    -52.3320E+06    -32.0698E+06    -106.942E-03     221.248E-03    -114.306E-03    -102.442E-03    -107.339E-03     221.246E-03    -114.396E-03    -103.457E-03
              96     4.74531E-03     134.644E-03    -95.8214E+06    -11.5393E+06    -51.7971E+06    -26.8240E+06    -107.544E-03     219.385E-03    -111.841E-03    -85.4228E-03    -107.932E-03     219.426E-03    -111.945E-03    -86.2611E-03
              97     3.96486E-03     134.531E-03    -88.8944E+06    -9.32530E+06    -54.3358E+06    -22.7960E+06    -107.248E-03     217.000E-03    -109.752E-03    -69.4675E-03    -107.614E-03     217.072E-03    -109.882E-03    -70.1558E-03
              98     3.17784E-03     134.442E-03    -82.2379E+06    -8.72287E+06    -59.5562E+06    -18.0910E+06    -106.654E-03     214.691E-03    -108.037E-03    -54.6129E-03    -106.990E-03     214.782E-03    -108.203E-03    -55.1473E-03
              99     2.38733E-03     134.373E-03    -75.9138E+06    -7.15821E+06    -65.1474E+06    -14.0292E+06    -105.856E-03     212.567E-03    -106.710E-03    -40.4822E-03    -106.164E-03     212.677E-03    -106.916E-03    -40.8834E-03
             100     1.59315E-03     134.324E-03    -69.4452E+06    -7.17152E+06    -65.6909E+06    -10.2320E+06    -105.464E-03     211.229E-03    -105.765E-03    -27.0201E-03    -105.744E-03     211.338E-03    -105.982E-03    -27.2994E-03
             101     798.142E-06     134.296E-03    -64.2358E+06    -8.24070E+06    -63.9727E+06    -6.14858E+06    -104.053E-03     210.113E-03    -106.060E-03    -15.3109E-03    -104.304E-03     210.219E-03    -106.275E-03    -15.4628E-03
             102     4.90325E-06     133.114E-03    -74.1780E+06    -18.5416E+06    -74.2006E+06    -5.34277E+06    -90.9886E-03     182.332E-03    -91.3437E-03    -5.88810E-03    -91.2495E-03     182.430E-03    -91.5802E-03    -6.00569E-03
             103    -1.89112E-06     132.005E-03    -94.8566E+06    -42.5828E+06    -93.6678E+06    -6.62006E+06    -68.6042E-03     136.008E-03    -67.4038E-03    -152.302E-06    -68.8958E-03     136.054E-03    -67.6728E-03    -285.358E-06
             104     1.00901E-06     130.940E-03     -116.43E+06    -69.4611E+06    -115.927E+06    -7.05385E+06    -52.2588E-03     104.808E-03    -52.5493E-03     3.97257E-03    -52.5781E-03     104.792E-03    -52.8594E-03     3.85877E-03
             105    -552.272E-09     129.900E-03    -143.445E+06    -97.1758E+06    -142.008E+06    -8.08963E+06    -43.5231E-03     86.9748E-03    -43.4517E-03     7.82404E-03    -43.8954E-03     86.9016E-03    -43.8128E-03     7.71055E-03
             106     219.717E-09     128.872E-03    -178.300E+06    -126.916E+06    -178.263E+06    -7.80815E+06    -39.8390E-03     79.6964E-03    -39.8574E-03     9.88145E-03    -40.2881E-03     79.5789E-03    -40.3061E-03     9.77938E-03
             107     39.3043E-09     127.848E-03    -219.218E+06    -152.919E+06    -219.242E+06    -5.55913E+06    -41.0242E-03     81.9415E-03    -40.9174E-03     12.0533E-03    -41.5811E-03     81.8118E-03    -41.4740E-03     11.9865E-03
             108    -173.819E-09     126.814E-03    -213.697E+06    -164.218E+06    -215.330E+06    -380.276E+03    -46.4484E-03     92.6169E-03    -46.1685E-03     13.3198E-03    -46.9681E-03     92.4158E-03    -46.6972E-03     13.3222E-03
             109     703.501E-09     125.768E-03    -154.015E+06    -156.295E+06    -154.929E+06     5.01607E+06    -54.6343E-03     108.921E-03    -54.2868E-03     13.5651E-03    -54.9562E-03     108.584E-03    -54.6115E-03     13.6309E-03
             110    -702.865E-09     124.702E-03    -103.012E+06    -142.648E+06    -101.262E+06     1.79062E+06    -63.9343E-03     127.750E-03    -63.8157E-03     13.3738E-03    -64.0997E-03     127.330E-03    -63.9658E-03     13.3841E-03
             111     872.567E-09     123.613E-03    -82.1598E+06    -143.691E+06    -82.3094E+06    -2.38349E+06    -73.0041E-03     145.873E-03    -72.8686E-03     13.7262E-03    -73.0909E-03     145.391E-03    -72.9526E-03     13.6679E-03
             112    -877.819E-09     122.506E-03    -72.2928E+06    -153.030E+06    -72.5052E+06    -1.68817E+06    -80.9610E-03     161.517E-03    -80.5562E-03     13.2759E-03    -80.9986E-03     160.962E-03    -80.5920E-03     13.2068E-03
             113     1.48671E-06     121.386E-03    -66.7089E+06    -162.531E+06    -66.7205E+06    -3.09852E+06    -87.7067E-03     175.095E-03    -87.3878E-03     11.8277E-03    -87.7110E-03     174.476E-03    -87.3890E-03     11.7087E-03
             114    -1.61520E-06     120.251E-03    -65.8911E+06    -173.008E+06    -66.4183E+06    -2.86313E+06    -93.4892E-03     187.138E-03    -93.6493E-03     11.5618E-03    -93.4747E-03     186.467E-03    -93.6350E-03     11.4228E-03
             115     1.42816E-06     119.097E-03    -68.8056E+06    -183.461E+06    -68.6896E+06    -1.80361E+06    -98.6327E-03     196.812E-03    -98.1793E-03     11.8556E-03    -98.6139E-03     196.097E-03    -98.1569E-03     11.7150E-03
             116    -562.177E-09     117.942E-03    -71.5305E+06    -192.360E+06    -72.0961E+06    -1.67302E+06    -102.025E-03     203.551E-03    -101.526E-03     11.4311E-03    -102.002E-03     202.801E-03    -101.504E-03     11.2730E-03
             117     446.082E-09     116.775E-03    -74.4006E+06    -199.023E+06    -74.6758E+06    -2.05403E+06    -104.514E-03     208.771E-03    -104.257E-03     9.79220E-03    -104.492E-03     207.996E-03    -104.234E-03     9.60570E-03
             118     41.8346E-09     115.610E-03    -80.2634E+06    -207.373E+06    -80.1005E+06    -2.45732E+06    -106.834E-03     213.207E-03    -106.373E-03     9.29837E-03    -106.822E-03     212.406E-03    -106.357E-03     9.09146E-03
             119     183.074E-09     114.428E-03    -84.5984E+06    -214.573E+06    -84.7734E+06    -996.867E+03    -108.114E-03     216.200E-03    -108.086E-03     10.2820E-03    -108.106E-03     215.376E-03    -108.076E-03     10.0952E-03
             120    -410.094E-09     113.254E-03    -88.3887E+06    -220.994E+06    -88.4907E+06    -1.43377E+06    -108.810E-03     217.656E-03    -108.847E-03     10.2157E-03    -108.806E-03     216.812E-03    -108.841E-03     10.0191E-03
             121     530.726E-09     112.075E-03    -91.7091E+06    -226.416E+06    -92.7532E+06    -660.246E+03    -109.334E-03     218.550E-03    -109.216E-03     9.59342E-03    -109.334E-03     217.689E-03    -109.218E-03     9.39687E-03
             122    -509.619E-09     110.896E-03    -97.9262E+06    -232.276E+06    -96.5710E+06    -1.68594E+06    -109.984E-03     219.532E-03    -109.549E-03     9.80627E-03    -110.000E-03     218.657E-03    -109.553E-03     9.59273E-03
             123     1.16356E-06     109.713E-03    -97.6815E+06    -240.736E+06    -99.3285E+06    -2.70071E+06    -110.277E-03     220.109E-03    -109.832E-03     10.1450E-03    -110.276E-03     219.195E-03    -109.838E-03     9.91468E-03
             124    -1.16096E-06     108.535E-03    -97.7642E+06    -246.552E+06    -97.5792E+06     77.2461E+03    -110.150E-03     220.094E-03    -109.944E-03     9.71939E-03    -110.143E-03     219.149E-03    -109.933E-03     9.52592E-03
             125     1.45116E-06     107.353E-03    -98.0431E+06    -246.773E+06    -98.0796E+06    -328.516E+03    -110.096E-03     220.022E-03    -109.926E-03     9.20969E-03    -110.089E-03     219.077E-03    -109.917E-03     9.00897E-03
             126    -1.50461E-06     106.175E-03    -99.1209E+06    -248.278E+06    -98.9028E+06    -858.530E+03    -110.217E-03     220.383E-03    -110.166E-03     9.29037E-03    -110.212E-03     219.434E-03    -110.157E-03     9.07912E-03
             127     1.60537E-06     104.990E-03    -98.9775E+06    -249.598E+06    -99.3294E+06     283.688E+03    -110.462E-03     220.433E-03    -109.970E-03     9.55071E-03    -110.455E-03     219.477E-03    -109.961E-03     9.36134E-03
             128    -955.582E-09     103.812E-03    -99.3911E+06    -250.357E+06    -99.2848E+06     498.882E+03    -110.096E-03     220.117E-03    -110.021E-03     10.1571E-03    -110.090E-03     219.158E-03    -110.010E-03     9.96928E-03
             129     383.737E-09     102.630E-03    -99.0708E+06    -250.132E+06    -98.0019E+06    -308.378E+03    -110.397E-03     220.313E-03    -109.917E-03     9.51247E-03    -110.391E-03     219.353E-03    -109.901E-03     9.31316E-03
             130     934.614E-09     101.450E-03    -98.2284E+06    -250.982E+06    -99.6615E+06    -148.146E+03    -110.220E-03     220.020E-03    -109.800E-03     9.33440E-03    -110.206E-03     219.056E-03    -109.792E-03     9.13987E-03
             131    -1.62656E-06     100.271E-03    -98.1325E+06    -250.304E+06    -97.6284E+06     414.640E+03    -109.941E-03     220.183E-03    -110.242E-03     9.60621E-03    -109.930E-03     219.220E-03    -110.225E-03     9.41941E-03
             132     1.79896E-06     99.0862E-03    -96.6312E+06    -249.822E+06    -97.3405E+06    -121.276E+03    -110.362E-03     220.323E-03    -109.961E-03     9.97902E-03    -110.345E-03     219.360E-03    -109.945E-03     9.78539E-03
             133    -1.37534E-06     97.9085E-03    -97.4494E+06    -250.188E+06    -96.9145E+06    -2.25646E+03    -110.107E-03     219.867E-03    -109.760E-03     9.44628E-03    -110.094E-03     218.903E-03    -109.741E-03     9.24648E-03
             134     1.47730E-06     96.7292E-03    -94.9914E+06    -248.741E+06    -95.8438E+06     53.5876E+03    -110.016E-03     220.021E-03    -110.005E-03     8.92168E-03    -109.994E-03     219.058E-03    -109.986E-03     8.72315E-03
             135    -1.60433E-06     95.5456E-03    -96.0108E+06    -249.303E+06    -95.7029E+06     521.169E+03    -109.906E-03     220.108E-03    -110.202E-03     9.56047E-03    -109.890E-03     219.144E-03    -110.180E-03     9.37625E-03
             136     1.21884E-06     94.3677E-03     -95.074E+06    -248.200E+06    -94.1473E+06     147.493E+03    -110.344E-03     220.174E-03    -109.830E-03     9.69815E-03    -110.327E-03     219.211E-03    -109.803E-03     9.50668E-03
             137    -35.5470E-09     93.1832E-03    -93.9311E+06    -247.466E+06    -93.9155E+06    -418.187E+03    -110.485E-03     220.110E-03    -109.625E-03     9.84133E-03    -110.464E-03     219.149E-03    -109.600E-03     9.63552E-03
             138     197.968E-09     92.0084E-03    -93.6650E+06    -247.077E+06    -93.6766E+06    -311.786E+03    -110.318E-03     220.306E-03    -109.988E-03     9.31533E-03    -110.297E-03     219.347E-03    -109.962E-03     9.10712E-03
             139     136.569E-09     90.8215E-03    -94.0944E+06    -247.582E+06    -94.3321E+06     561.593E+03    -110.414E-03     220.177E-03    -109.763E-03     9.31864E-03    -110.392E-03     219.216E-03    -109.739E-03     9.13208E-03
             140     539.543E-09     89.6454E-03    -94.3238E+06    -247.291E+06     -93.876E+06     327.704E+03    -109.954E-03     219.543E-03    -109.589E-03     9.71636E-03    -109.935E-03     218.584E-03    -109.563E-03     9.53077E-03
             141    -662.564E-09     88.4634E-03    -93.7748E+06    -247.069E+06    -94.0124E+06    -472.760E+03    -109.964E-03     219.868E-03    -109.904E-03     9.23889E-03    -109.942E-03     218.909E-03    -109.880E-03     9.03270E-03
             142     843.099E-09     87.2853E-03    -93.3169E+06    -246.755E+06    -93.9141E+06    -634.570E+03    -110.251E-03     220.343E-03    -110.092E-03     8.94373E-03    -110.228E-03     219.385E-03    -110.069E-03     8.72888E-03
             143    -805.798E-09     86.1013E-03    -94.0165E+06    -246.793E+06      -93.68E+06    -173.737E+03    -110.136E-03     220.216E-03    -110.080E-03     9.46061E-03    -110.116E-03     219.258E-03    -110.054E-03     9.26069E-03
             144     825.721E-09     84.9223E-03    -93.8306E+06    -246.604E+06    -93.7916E+06     485.744E+03    -110.203E-03     220.204E-03    -110.001E-03     9.86203E-03    -110.182E-03     219.247E-03    -109.976E-03     9.68024E-03
             145    -560.965E-09     83.7404E-03    -93.6434E+06    -246.562E+06    -94.2711E+06     279.990E+03    -110.329E-03     220.201E-03    -109.873E-03     9.40967E-03    -110.306E-03     219.245E-03    -109.851E-03     9.21821E-03
             146     987.127E-09     82.5615E-03    -94.7153E+06    -246.957E+06    -94.4044E+06    -110.408E+03    -110.276E-03     220.024E-03    -109.749E-03     8.79366E-03    -110.258E-03     219.068E-03    -109.725E-03     8.59008E-03
             147    -592.042E-09     81.3809E-03    -94.1405E+06    -246.206E+06    -93.9120E+06    -301.840E+03    -110.071E-03     220.101E-03    -110.030E-03     9.18482E-03    -110.052E-03     219.147E-03    -110.006E-03     8.98445E-03
             148     230.891E-09     80.1985E-03    -94.4425E+06    -246.583E+06    -94.7162E+06     285.042E+03    -110.320E-03     220.318E-03    -109.999E-03     9.53263E-03    -110.301E-03     219.364E-03    -109.978E-03     9.34332E-03
             149     606.847E-09     79.0185E-03    -94.3513E+06    -246.068E+06    -94.4651E+06     303.721E+03    -110.394E-03     220.396E-03    -110.002E-03     9.89392E-03    -110.376E-03     219.444E-03    -109.981E-03     9.70259E-03
             150    -856.200E-09     77.8375E-03    -94.1999E+06    -245.351E+06    -94.1012E+06    -179.464E+03    -110.058E-03     220.396E-03    -110.338E-03     9.76934E-03    -110.040E-03     219.446E-03    -110.316E-03     9.57170E-03
             151     615.140E-09     76.6556E-03    -94.7947E+06    -245.940E+06    -95.0706E+06     163.954E+03    -110.174E-03     219.988E-03    -109.814E-03     9.47344E-03    -110.157E-03     219.037E-03    -109.795E-03     9.28511E-03
             152     166.298E-09     75.4772E-03    -94.9894E+06    -244.947E+06    -94.7794E+06     203.590E+03    -110.266E-03     220.137E-03    -109.871E-03     9.51938E-03    -110.252E-03     219.192E-03    -109.852E-03     9.32342E-03
             153    -346.045E-09     74.2964E-03    -94.5001E+06    -243.752E+06    -94.6719E+06    -243.068E+03    -110.555E-03     220.939E-03    -110.383E-03     9.23742E-03    -110.541E-03     219.999E-03    -110.366E-03     9.02827E-03
             154     766.984E-09     73.1113E-03    -95.3295E+06    -244.423E+06    -95.6259E+06     423.185E+03    -110.431E-03     220.142E-03    -109.712E-03     9.70349E-03    -110.418E-03     219.201E-03    -109.697E-03     9.52053E-03
             155    -71.9023E-09     71.9341E-03    -96.5821E+06    -244.924E+06    -95.9732E+06     414.211E+03    -110.005E-03     219.376E-03    -109.370E-03     9.92014E-03    -109.998E-03     218.435E-03    -109.355E-03     9.73230E-03
             156     366.412E-09     70.7552E-03    -94.7972E+06    -243.514E+06    -94.7069E+06    -362.188E+03    -110.052E-03     220.326E-03    -110.274E-03     9.16982E-03    -110.040E-03     219.388E-03    -110.257E-03     8.96010E-03
             157    -1.05057E-06     69.5723E-03    -94.4704E+06    -243.347E+06    -94.7657E+06    -29.4652E+03    -110.256E-03     220.664E-03    -110.409E-03     9.48908E-03    -110.241E-03     219.726E-03    -110.393E-03     9.29706E-03
             158     1.44643E-06     68.3887E-03    -95.4809E+06    -243.827E+06    -95.3940E+06     1.06584E+06    -110.576E-03     220.090E-03    -109.514E-03     10.1807E-03    -110.565E-03     219.153E-03    -109.499E-03     10.0027E-03
             159    -327.327E-09     66.0294E-03    -93.8674E+06    -242.325E+06    -94.3235E+06    -62.8891E+03    -110.283E-03     220.419E-03    -110.135E-03     9.23533E-03    -110.268E-03     219.484E-03    -110.120E-03     9.04103E-03
             160     1.02560E-06     64.8490E-03     -94.913E+06    -242.966E+06    -94.8210E+06    -335.779E+03    -110.644E-03     220.653E-03    -110.010E-03     9.50555E-03    -110.632E-03     219.718E-03    -109.994E-03     9.29946E-03
             161    -738.554E-09     63.6692E-03    -94.2698E+06    -241.916E+06    -94.1179E+06    -245.061E+03    -110.398E-03     220.572E-03    -110.174E-03     9.16316E-03    -110.386E-03     219.640E-03    -110.157E-03     8.95405E-03
             162     779.709E-09     62.4849E-03    -94.7559E+06    -242.192E+06    -94.8856E+06     535.624E+03    -110.043E-03     219.907E-03    -109.864E-03     9.52917E-03    -110.032E-03     218.975E-03    -109.850E-03     9.35022E-03
             163    -571.763E-09     61.3081E-03    -94.6071E+06    -242.276E+06    -94.9597E+06     438.293E+03    -110.108E-03     220.031E-03    -109.923E-03     10.0893E-03    -110.096E-03     219.099E-03    -109.909E-03     9.90299E-03
             164     615.171E-09     60.1249E-03    -93.1894E+06    -240.722E+06    -93.2927E+06    -131.061E+03    -110.524E-03     220.621E-03    -110.097E-03     9.68655E-03    -110.510E-03     219.693E-03    -110.079E-03     9.48020E-03
             165    -9.54100E-09     58.9441E-03    -94.5059E+06    -241.550E+06    -94.1346E+06    -387.281E+03    -110.442E-03     220.224E-03    -109.782E-03     9.28399E-03    -110.431E-03     219.293E-03    -109.765E-03     9.08331E-03
             166     436.711E-09     57.7660E-03    -94.8551E+06    -241.854E+06    -94.8222E+06     126.470E+03    -110.085E-03     220.158E-03    -110.074E-03     9.13597E-03    -110.074E-03     219.228E-03    -110.060E-03     8.94289E-03
             167    -880.945E-09     56.5822E-03    -93.4929E+06    -240.616E+06    -94.2123E+06     196.606E+03    -110.216E-03     220.649E-03    -110.433E-03     9.67781E-03    -110.201E-03     219.722E-03    -110.420E-03     9.48480E-03
             168     926.767E-09     55.4014E-03    -93.6915E+06    -240.726E+06    -94.2837E+06     196.153E+03    -110.449E-03     220.539E-03    -110.089E-03     9.86267E-03    -110.436E-03     219.612E-03    -110.076E-03     9.67104E-03
             169    -439.601E-09     54.2205E-03    -94.8264E+06    -241.059E+06    -93.9891E+06    -200.554E+03    -110.195E-03     219.957E-03    -109.762E-03     9.26551E-03    -110.187E-03     219.030E-03    -109.745E-03     9.05986E-03
             170     623.022E-09     53.0424E-03    -93.7319E+06    -240.371E+06    -94.2536E+06    -133.367E+03    -110.014E-03     219.913E-03    -109.899E-03     9.10443E-03    -110.001E-03     218.988E-03    -109.886E-03     8.90371E-03
             171    -659.976E-09     51.8592E-03    -93.8948E+06    -239.579E+06    -93.3974E+06     319.028E+03    -110.094E-03     220.171E-03    -110.078E-03     10.1892E-03    -110.084E-03     219.249E-03    -110.061E-03     10.0020E-03
             172     683.420E-09     50.6776E-03    -93.8372E+06    -239.917E+06    -94.1524E+06     299.420E+03    -110.439E-03     220.060E-03    -109.621E-03     10.0802E-03    -110.428E-03     219.138E-03    -109.608E-03     9.88863E-03
             173     564.767E-09     49.5007E-03    -94.2239E+06    -239.778E+06    -93.9113E+06    -281.226E+03    -110.016E-03     219.567E-03    -109.551E-03     8.75224E-03    -110.006E-03     218.645E-03    -109.536E-03     8.54576E-03
             174    -1.09253E-06     48.3204E-03    -94.2745E+06    -239.780E+06    -94.2878E+06    -535.102E+03    -109.585E-03     219.464E-03    -109.879E-03     8.30521E-03    -109.575E-03     218.542E-03    -109.866E-03     8.09508E-03
             175     1.11899E-06     47.1393E-03    -93.7790E+06    -239.714E+06    -94.2122E+06     421.374E+03    -109.940E-03     219.919E-03    -109.979E-03     9.87149E-03    -109.928E-03     218.997E-03    -109.966E-03     9.68655E-03
             176    -1.25514E-06     45.9567E-03    -93.7249E+06    -239.104E+06    -93.4678E+06     771.988E+03    -110.045E-03     219.696E-03    -109.651E-03     10.0196E-03    -110.034E-03     218.777E-03    -109.636E-03     9.84252E-03
             177     1.98485E-06     44.7796E-03    -92.8894E+06    -238.806E+06    -93.7693E+06    -111.040E+03    -109.668E-03     218.757E-03    -109.089E-03     9.25677E-03    -109.653E-03     217.838E-03    -109.077E-03     9.06207E-03
             178    -1.82522E-06     43.6011E-03    -94.2208E+06    -239.360E+06    -93.5021E+06    -759.483E+03    -109.065E-03     218.457E-03    -109.392E-03     9.23309E-03    -109.056E-03     217.537E-03    -109.376E-03     9.02828E-03
             179     1.10879E-06     42.4214E-03    -94.9483E+06    -240.479E+06    -94.9583E+06    -130.916E+03    -109.498E-03     218.686E-03    -109.188E-03     9.13249E-03    -109.490E-03     217.763E-03    -109.176E-03     8.93596E-03
             180     73.6417E-09     41.2423E-03    -94.1659E+06    -239.262E+06    -93.8452E+06     569.903E+03    -109.469E-03     218.204E-03    -108.735E-03     9.88946E-03    -109.461E-03     217.285E-03    -108.721E-03     9.70430E-03
             181    -110.087E-09     40.0641E-03    -93.7805E+06    -239.291E+06    -94.7017E+06     536.912E+03    -108.249E-03     216.918E-03    -108.669E-03     9.46943E-03    -108.237E-03     215.998E-03    -108.660E-03     9.29823E-03
             182    -580.830E-09     38.8896E-03    -95.2868E+06    -240.144E+06    -94.8629E+06     887.681E+03    -108.038E-03     216.118E-03    -108.080E-03     9.34413E-03    -108.032E-03     215.196E-03    -108.068E-03     9.17703E-03
             183     1.17110E-06     37.7119E-03    -93.9746E+06    -238.575E+06    -93.5946E+06    -745.599E+03    -108.277E-03     215.987E-03    -107.710E-03     9.11551E-03    -108.269E-03     215.070E-03    -107.696E-03     8.90975E-03
             184    -876.835E-09     36.5399E-03    -92.3546E+06    -237.014E+06    -93.2419E+06    -320.658E+03    -107.293E-03     214.947E-03    -107.654E-03     8.70470E-03    -107.279E-03     214.035E-03    -107.643E-03     8.51144E-03
             185    -43.9142E-09     35.3611E-03    -94.1699E+06    -237.897E+06    -93.9370E+06    -128.909E+03    -106.847E-03     213.596E-03    -106.749E-03     8.43251E-03    -106.839E-03     212.684E-03    -106.737E-03     8.25586E-03
             186     1.09617E-06     34.1955E-03    -94.4946E+06    -238.553E+06    -94.9697E+06    -102.523E+03    -106.669E-03     212.936E-03    -106.268E-03     8.64298E-03    -106.660E-03     212.023E-03    -106.260E-03     8.45789E-03
             187    -1.53668E-06     33.0169E-03    -93.7811E+06    -237.081E+06    -93.0390E+06     164.637E+03    -106.059E-03     211.845E-03    -105.786E-03     8.36917E-03    -106.052E-03     210.936E-03    -105.772E-03     8.18760E-03
             188     2.40043E-06     31.8515E-03    -94.1457E+06    -237.930E+06    -94.5034E+06    -541.194E+03    -105.522E-03     210.325E-03    -104.803E-03     8.71540E-03    -105.513E-03     209.413E-03    -104.794E-03     8.53438E-03
             189    -2.13249E-06     30.6811E-03    -93.2960E+06    -237.023E+06    -93.3729E+06     990.753E+03    -104.550E-03     208.847E-03    -104.297E-03     8.65547E-03    -104.540E-03     207.937E-03    -104.285E-03     8.50623E-03
             190     2.24538E-06     29.5138E-03    -94.4292E+06    -237.381E+06    -94.1902E+06     339.645E+03    -103.552E-03     206.708E-03    -103.156E-03     7.48745E-03    -103.544E-03     205.799E-03    -103.146E-03     7.33689E-03
             191    -1.73420E-06     28.3565E-03    -93.9041E+06    -236.957E+06    -94.3496E+06    -651.034E+03    -102.691E-03     205.508E-03    -102.817E-03     7.69239E-03    -102.682E-03     204.601E-03    -102.809E-03     7.51104E-03
             192     990.341E-09     27.1845E-03    -93.4246E+06    -236.121E+06    -93.6727E+06     342.147E+03    -102.356E-03     204.457E-03    -102.100E-03     8.35290E-03    -102.348E-03     203.551E-03    -102.091E-03     8.19618E-03
             193     138.824E-09     26.0278E-03    -95.1316E+06    -236.524E+06    -94.5723E+06     1.45755E+06    -101.477E-03     201.919E-03    -100.442E-03     8.67478E-03    -101.475E-03     201.014E-03    -100.434E-03     8.55726E-03
             194     388.396E-09     24.8699E-03    -93.0621E+06    -233.819E+06    -92.8257E+06     776.855E+03    -99.9261E-03     199.799E-03    -99.8727E-03     8.26877E-03    -99.9205E-03     198.902E-03    -99.8628E-03     8.13403E-03
             195    -855.166E-09     23.7125E-03    -93.0376E+06    -233.027E+06    -93.3519E+06    -394.759E+03    -99.0435E-03     197.928E-03    -98.8840E-03     6.58665E-03    -99.0374E-03     197.036E-03    -98.8779E-03     6.43294E-03
             196     1.56101E-06     22.5651E-03    -92.5666E+06    -231.782E+06    -92.8577E+06    -411.586E+03    -98.4271E-03     196.761E-03    -98.3334E-03     5.90940E-03    -98.4204E-03     195.874E-03    -98.3274E-03     5.75500E-03
             197    -2.13088E-06     21.4063E-03    -91.2422E+06    -229.902E+06    -91.6418E+06     38.5210E+03    -97.7386E-03     196.068E-03    -98.3295E-03     7.14457E-03    -97.7301E-03     195.188E-03    -98.3221E-03     6.99970E-03
             198     1.71360E-06     20.2536E-03    -92.2189E+06    -229.749E+06    -92.2845E+06     239.624E+03    -97.3935E-03     194.293E-03    -96.8993E-03     7.33639E-03    -97.3891E-03     193.415E-03    -96.8939E-03     7.19954E-03
             199    -509.943E-09     19.1090E-03    -91.3513E+06    -227.733E+06    -91.4196E+06     274.613E+03    -96.1967E-03     192.388E-03    -96.1910E-03     6.30969E-03    -96.1922E-03     191.517E-03    -96.1854E-03     6.17560E-03
             200    -703.151E-09     17.9588E-03    -90.9662E+06    -226.144E+06     -91.211E+06     761.571E+03    -94.6055E-03     189.635E-03    -95.0299E-03     4.64010E-03    -94.6015E-03     188.771E-03    -95.0261E-03     4.53086E-03
             201     1.21560E-06     16.8167E-03    -89.9103E+06    -223.030E+06    -89.7099E+06     505.095E+03    -93.0915E-03     185.434E-03    -92.3426E-03     4.22675E-03    -93.0889E-03     184.581E-03    -92.3374E-03     4.12032E-03
             202    -500.206E-09     15.6812E-03    -87.5939E+06    -219.080E+06    -87.8702E+06     298.774E+03    -90.2845E-03     180.229E-03    -89.9447E-03     2.71964E-03    -90.2787E-03     179.389E-03    -89.9394E-03     2.62183E-03
             203     341.286E-09     14.5478E-03    -87.4085E+06    -216.905E+06    -88.0326E+06     1.37433E+06    -86.4640E-03     172.901E-03    -86.4370E-03     1.88763E-03    -86.4602E-03     172.071E-03    -86.4359E-03     1.82905E-03
             204    -136.731E-09     13.4275E-03    -84.8240E+06    -211.329E+06    -84.3948E+06     1.45037E+06    -82.3442E-03     164.379E-03    -82.0352E-03     1.77230E-03    -82.3407E-03     163.568E-03    -82.0277E-03     1.72281E-03
             205     455.448E-09     12.3161E-03    -81.2371E+06    -205.304E+06    -80.9508E+06     1.07916E+06    -77.6690E-03     155.020E-03    -77.3509E-03     397.330E-06    -77.6615E-03     154.228E-03    -77.3401E-03     351.148E-06
             206    -230.275E-09     11.2151E-03    -78.3531E+06    -200.746E+06    -78.6336E+06     1.34340E+06    -72.6428E-03     145.256E-03    -72.6127E-03     993.112E-06    -72.6307E-03     144.479E-03    -72.6012E-03     958.139E-06
             207     59.7120E-09     10.1239E-03    -75.0328E+06    -195.411E+06    -74.4573E+06     1.08002E+06    -68.4839E-03     136.881E-03    -68.3973E-03     983.882E-06    -68.4687E-03     136.121E-03    -68.3774E-03     947.449E-06
             208     269.513E-09     9.04396E-03    -72.4905E+06    -191.851E+06    -71.7210E+06     399.015E+03    -66.1649E-03     131.650E-03    -65.4853E-03     1.25105E-03    -66.1460E-03     130.900E-03    -65.4607E-03     1.20833E-03
             209     558.961E-09     7.96354E-03    -71.4365E+06    -191.957E+06    -71.6690E+06    -599.919E+03    -66.0337E-03     132.066E-03    -66.0318E-03     3.00328E-03    -66.0094E-03     131.314E-03    -66.0083E-03     2.94644E-03
             210    -1.38600E-06     6.88185E-03    -69.8615E+06    -192.898E+06    -69.7180E+06     252.629E+03    -69.8222E-03     140.062E-03    -70.2402E-03     4.79742E-03    -69.7933E-03     139.299E-03    -70.2078E-03     4.75400E-03
             211     1.51603E-06     5.78393E-03    -68.9588E+06    -196.290E+06    -69.4160E+06    -1.19063E+06    -77.3145E-03     154.718E-03    -77.4031E-03     6.13311E-03    -77.2773E-03     153.935E-03    -77.3655E-03     6.06973E-03
             212    -1.78446E-06     4.67028E-03    -67.7135E+06    -199.848E+06    -67.5720E+06    -408.387E+03    -86.7023E-03     173.510E-03    -86.8078E-03     6.78248E-03    -86.6580E-03     172.704E-03    -86.7577E-03     6.72622E-03
             213     1.89812E-06     3.52978E-03    -63.0554E+06    -200.758E+06    -62.7983E+06    -283.861E+03    -96.9451E-03     193.694E-03    -96.7485E-03     6.56176E-03    -96.8826E-03     192.869E-03    -96.6800E-03     6.50675E-03
             214    -1.67039E-06     2.37009E-03    -57.7987E+06    -200.398E+06    -57.8643E+06     256.316E+03    -105.776E-03     211.313E-03    -105.537E-03     4.87541E-03    -105.693E-03     210.478E-03    -105.452E-03     4.83560E-03
             215     1.83927E-06     1.18987E-03    -53.8714E+06    -200.200E+06     -53.831E+06     41.1944E+03    -111.857E-03     223.471E-03    -111.614E-03     2.66024E-03    -111.759E-03     222.626E-03    -111.515E-03     2.63402E-03
             216     803.313E-06    -263.678E-18    -52.1176E+06    -199.771E+06    -51.9092E+06    -189.463E+03    -114.010E-03     227.893E-03    -113.883E-03     2.32830E-03    -113.905E-03     227.045E-03    -113.777E-03     2.30147E-03
             217     1.60345E-03    -263.678E-18    -52.1125E+06    -199.818E+06    -51.6081E+06     387.526E+03    -113.956E-03     227.908E-03    -113.952E-03     4.49389E-03    -113.853E-03     227.060E-03    -113.845E-03     4.45538E-03
             218     2.40767E-03    -263.678E-18    -51.8915E+06    -199.333E+06    -50.8211E+06    -37.4745E+03    -114.094E-03     228.073E-03    -113.980E-03     6.58013E-03    -113.991E-03     227.226E-03    -113.869E-03     6.51490E-03
             219     3.20787E-03    -263.678E-18    -51.5305E+06    -198.343E+06    -50.3937E+06    -74.4645E+03    -114.211E-03     228.238E-03    -114.027E-03     8.59161E-03    -114.110E-03     227.396E-03    -113.917E-03     8.49984E-03
             220     4.01166E-03    -263.678E-18    -50.4941E+06    -197.253E+06    -50.3715E+06    -1.03353E+06    -114.321E-03     228.398E-03    -114.077E-03     10.5605E-03    -114.217E-03     227.560E-03    -113.970E-03     10.4287E-03
             221     4.81216E-03    -263.678E-18    -48.6264E+06    -195.430E+06    -51.7010E+06    -2.09851E+06    -114.561E-03     228.690E-03    -114.129E-03     13.1473E-03    -114.450E-03     227.862E-03    -114.034E-03     12.9771E-03
             222     5.61412E-03    -263.678E-18    -44.7056E+06    -189.809E+06    -55.6121E+06    -5.27426E+06    -114.869E-03     229.050E-03    -114.181E-03     15.6253E-03    -114.742E-03     228.251E-03    -114.119E-03     15.3832E-03
             223     6.41563E-03    -263.678E-18    -38.7632E+06    -174.849E+06    -60.5547E+06    -6.88398E+06    -115.251E-03     229.483E-03    -114.232E-03     17.8978E-03    -115.110E-03     228.759E-03    -114.225E-03     17.5948E-03
             224     7.21604E-03    -263.678E-18    -31.4150E+06    -148.705E+06    -67.1301E+06    -8.57727E+06    -115.835E-03     230.122E-03    -114.287E-03     20.2901E-03    -115.688E-03     229.530E-03    -114.361E-03     19.9271E-03
             225     8.01741E-03    -263.678E-18    -23.1341E+06    -111.765E+06    -69.8531E+06    -10.8151E+06    -116.850E-03     231.247E-03    -114.398E-03     23.1185E-03    -116.715E-03     230.835E-03    -114.551E-03     22.6679E-03
             226     8.81506E-03    -263.678E-18    -15.6466E+06     -65.335E+06    -68.0670E+06    -8.65963E+06    -118.195E-03     232.789E-03    -114.594E-03     26.4463E-03    -118.096E-03     232.600E-03    -114.817E-03     25.9689E-03
             227     9.61383E-03    -263.678E-18    -9.91681E+06    -11.3532E+06    -54.1381E+06    -5.13886E+06    -119.894E-03     234.826E-03    -114.932E-03     30.4748E-03    -119.873E-03     234.885E-03    -115.172E-03     29.9521E-03
             228     10.4084E-03    -263.678E-18    -8.28784E+06     33.4238E+06    -17.4738E+06    -593.927E+03    -122.310E-03     237.825E-03    -115.515E-03     34.5809E-03    -122.409E-03     238.063E-03    -115.639E-03     33.9997E-03
             229     11.2033E-03    -263.678E-18    -9.98717E+06     55.6570E+06     20.3998E+06     3.41323E+06    -125.749E-03     242.041E-03    -116.293E-03     40.9205E-03    -125.961E-03     242.355E-03    -116.257E-03     40.2284E-03
             230     11.9887E-03    -263.678E-18    -10.5156E+06     71.2882E+06     54.7197E+06     2.73774E+06    -130.740E-03     248.006E-03    -117.266E-03     48.0016E-03    -131.053E-03     248.376E-03    -117.080E-03     47.0503E-03
             231     12.7785E-03    -263.678E-18    -10.4703E+06     80.1563E+06     81.7977E+06     5.07629E+06    -138.303E-03     256.808E-03    -118.505E-03     60.9106E-03    -138.726E-03     257.236E-03    -118.197E-03     59.6201E-03
             232     13.5408E-03    -263.678E-18    -9.22312E+06     83.8873E+06     91.2414E+06     5.52456E+06    -149.136E-03     269.217E-03    -120.081E-03     88.7570E-03    -149.720E-03     269.791E-03    -119.733E-03     86.7765E-03
             233     14.3003E-03    -263.678E-18    -9.00287E+06     88.0806E+06     90.4672E+06     4.49450E+06    -165.402E-03     287.594E-03    -122.192E-03     113.197E-03    -166.257E-03     288.471E-03    -121.854E-03     109.858E-03
             234     15.0596E-03    -263.678E-18     9.38600E+06     107.419E+06     105.844E+06     1.03899E+06    -188.741E-03     313.893E-03    -125.152E-03     156.820E-03    -190.514E-03     315.737E-03    -124.792E-03     150.647E-03
             235     15.9245E-03     1.35565E-03     2.19206E+06     110.954E+06     98.3658E+06    -267.337E+03    -190.238E-03     313.017E-03    -122.778E-03     195.217E-03    -193.404E-03     316.285E-03    -122.451E-03     186.636E-03
             236     16.0073E-03     2.64639E-03    -16.8041E+06     96.8546E+06     76.2352E+06     7.22474E+06    -181.365E-03     297.624E-03    -116.258E-03     141.059E-03    -184.103E-03     300.445E-03    -115.993E-03     133.108E-03
             237     16.0722E-03     3.91694E-03    -6.91500E+06     100.766E+06     79.6057E+06     7.65773E+06    -176.643E-03     289.231E-03    -112.588E-03     86.9297E-03    -178.558E-03     291.244E-03    -112.326E-03     79.7005E-03
             238     16.0970E-03     5.16771E-03    -1.88049E+06     107.747E+06     86.0071E+06     2.66694E+06    -176.011E-03     286.625E-03    -110.614E-03     61.4429E-03    -177.763E-03     288.512E-03    -110.338E-03     53.9219E-03
             239     16.1077E-03     6.45305E-03    -2.18823E+06     109.458E+06     89.6911E+06     1.67160E+06    -176.789E-03     286.593E-03    -109.804E-03     38.6637E-03    -178.226E-03     288.151E-03    -109.511E-03     31.3338E-03
             240     16.1126E-03     7.69566E-03    -2.80501E+06     107.722E+06     89.6493E+06    -142.469E+03    -169.436E-03     279.135E-03    -109.698E-03     30.8197E-03    -170.795E-03     280.604E-03    -109.402E-03     23.9119E-03
             241     16.1100E-03     8.95452E-03    -860.899E+03     107.329E+06     91.4189E+06     633.674E+03    -161.091E-03     270.942E-03    -109.852E-03     17.9904E-03    -162.245E-03     272.209E-03    -109.549E-03     11.9042E-03
             242     16.1138E-03     10.1799E-03    -1.65854E+06     104.360E+06     89.5465E+06     1.59973E+06    -150.536E-03     260.616E-03    -110.080E-03     13.6939E-03    -151.602E-03     261.785E-03    -109.781E-03     8.36645E-03
             243     16.1105E-03     11.4074E-03    -2.02628E+06     103.147E+06     87.7776E+06     1.32304E+06    -143.647E-03     253.825E-03    -110.178E-03     6.97047E-03    -144.626E-03     254.907E-03    -109.886E-03     2.13353E-03
             244     16.1176E-03     12.6191E-03    -3.26201E+06     104.762E+06     88.2240E+06    -103.210E+03    -139.297E-03     249.485E-03    -110.188E-03     6.15337E-03    -140.286E-03     250.579E-03    -109.894E-03     1.54719E-03
             245     16.1130E-03     13.8461E-03    -4.61278E+06     103.869E+06     87.4167E+06     376.893E+03    -135.683E-03     245.873E-03    -110.191E-03     8.28713E-03    -136.713E-03     247.003E-03    -109.897E-03     3.84487E-03
             246     16.1205E-03     15.0543E-03    -2.86168E+06     106.426E+06     88.7113E+06     1.29364E+06    -129.862E-03     240.029E-03    -110.167E-03     11.9083E-03    -130.947E-03     241.225E-03    -109.874E-03     7.66396E-03
             247     16.1207E-03     16.2554E-03    -933.393E+03     111.545E+06     92.2036E+06    -197.536E+03    -128.497E-03     238.523E-03    -110.027E-03     14.8597E-03    -129.646E-03     239.798E-03    -109.726E-03     10.5889E-03
             248     16.1242E-03     17.4719E-03    -1.92474E+06     111.416E+06     92.1283E+06    -195.474E+03    -129.323E-03     239.215E-03    -109.892E-03     17.4826E-03    -130.524E-03     240.537E-03    -109.590E-03     13.1390E-03
             249     16.1242E-03     18.6717E-03    -2.53731E+06     111.443E+06     92.1112E+06     421.395E+03    -128.237E-03     238.055E-03    -109.818E-03     18.8912E-03    -129.467E-03     239.404E-03    -109.516E-03     14.5904E-03
             250     16.1269E-03     19.8806E-03    -2.32610E+06     112.253E+06     92.4374E+06     593.635E+03    -126.635E-03     236.406E-03    -109.771E-03     19.3342E-03    -127.886E-03     237.779E-03    -109.468E-03     15.1078E-03
             251     16.1270E-03     21.0812E-03    -2.43571E+06     112.765E+06     92.8392E+06     446.390E+03    -125.045E-03     234.801E-03    -109.756E-03     21.0739E-03    -126.338E-03     236.217E-03    -109.452E-03     16.8961E-03
             252     16.1277E-03     22.2828E-03    -2.35858E+06     113.230E+06     92.8472E+06     527.547E+03    -123.847E-03     233.571E-03    -109.725E-03     21.2117E-03    -125.154E-03     235.003E-03    -109.421E-03     17.0830E-03
             253     16.1301E-03     23.4780E-03    -1.37967E+06     114.550E+06     94.1400E+06    -613.588E+03    -123.033E-03     232.727E-03    -109.695E-03     21.0168E-03    -124.348E-03     234.171E-03    -109.388E-03     16.9199E-03
             254     16.1279E-03     24.6829E-03    -1.92870E+06     114.427E+06     93.9800E+06    -455.195E+03    -121.352E-03     231.062E-03    -109.710E-03     21.8217E-03    -122.689E-03     232.526E-03    -109.403E-03     17.8176E-03
             255     16.1315E-03     25.8718E-03    -2.44392E+06     114.442E+06     93.9666E+06    -258.803E+03    -119.932E-03     229.660E-03    -109.728E-03     23.2023E-03    -121.296E-03     231.149E-03    -109.421E-03     19.2781E-03
             256     16.1276E-03     27.0724E-03    -1.98252E+06     115.074E+06     94.2151E+06     537.964E+03    -117.959E-03     227.717E-03    -109.759E-03     22.7345E-03    -119.320E-03     229.207E-03    -109.451E-03     18.9422E-03
             257     16.1330E-03     28.2589E-03    -1.99857E+06     115.338E+06     94.3065E+06    -355.675E+03    -115.790E-03     225.575E-03    -109.785E-03     24.0737E-03    -117.181E-03     227.096E-03    -109.478E-03     20.3541E-03
             258     16.1279E-03     29.4493E-03    -2.88416E+06     114.733E+06     94.1497E+06     220.178E+03    -116.246E-03     226.011E-03    -109.764E-03     24.0872E-03    -117.642E-03     227.531E-03    -109.456E-03     20.3962E-03
             259     16.1335E-03     30.6423E-03    -1.62359E+06     115.977E+06     95.2608E+06     635.743E+03    -115.068E-03     224.863E-03    -109.794E-03     25.4566E-03    -116.473E-03     226.397E-03    -109.484E-03     21.8277E-03
             260     16.1276E-03     31.8325E-03    -2.99699E+06     114.775E+06     93.9826E+06     755.037E+03    -112.923E-03     222.777E-03    -109.854E-03     27.1672E-03    -114.356E-03     224.334E-03    -109.546E-03     23.6348E-03
             261     16.1333E-03     33.0124E-03    -2.59355E+06     116.269E+06     94.8311E+06     907.293E+03    -112.186E-03     222.043E-03    -109.856E-03     26.9939E-03    -113.633E-03     223.618E-03    -109.547E-03     23.4989E-03
             262     16.1289E-03     34.2033E-03    -1.98523E+06     117.114E+06     95.5078E+06     146.032E+03    -111.386E-03     221.251E-03    -109.865E-03     25.8445E-03    -112.826E-03     222.822E-03    -109.554E-03     22.3967E-03
             263     16.1328E-03     35.3838E-03    -1.93837E+06     116.417E+06     94.8132E+06     150.846E+03    -110.135E-03     220.010E-03    -109.876E-03     26.3736E-03    -111.579E-03     221.586E-03    -109.568E-03     22.9837E-03
             264     16.1306E-03     36.5659E-03    -1.80812E+06     116.598E+06     95.2831E+06    -1.08792E+06    -110.775E-03     220.631E-03    -109.855E-03     25.4339E-03    -112.206E-03     222.193E-03    -109.545E-03     22.0109E-03
             265     16.1315E-03     37.7541E-03    -2.73906E+06     116.552E+06     94.9889E+06    -468.753E+03    -110.716E-03     220.591E-03    -109.874E-03     24.4472E-03    -112.134E-03     222.137E-03    -109.565E-03     21.0738E-03
             266     16.1308E-03     38.9325E-03    -4.02795E+06     116.234E+06     94.3216E+06    -618.476E+03    -110.868E-03     220.761E-03    -109.893E-03     25.1073E-03    -112.305E-03     222.323E-03    -109.584E-03     21.7181E-03
             267     16.1298E-03     40.1225E-03    -2.88703E+06     116.429E+06     94.8799E+06     251.532E+03    -109.276E-03     219.199E-03    -109.923E-03     23.2986E-03    -110.685E-03     220.736E-03    -109.614E-03     20.0256E-03
             268     16.1332E-03     41.2969E-03    -7.80369E+03     118.627E+06     96.9522E+06     277.752E+03    -107.232E-03     217.165E-03    -109.933E-03     25.6217E-03    -108.671E-03     218.744E-03    -109.620E-03     22.4190E-03
             269     16.1302E-03     42.4824E-03    -3.00248E+06     117.193E+06     95.3366E+06     63.4241E+03    -110.052E-03     219.936E-03    -109.884E-03     26.8427E-03    -111.513E-03     221.526E-03    -109.573E-03     23.4994E-03
             270     16.1311E-03     43.6672E-03    -3.65179E+06     116.600E+06     94.9603E+06     891.895E+03    -110.527E-03     220.430E-03    -109.903E-03     27.9125E-03    -111.978E-03     222.007E-03    -109.592E-03     24.5730E-03
             271     16.1303E-03     44.8527E-03    -1.47761E+06     117.528E+06     95.8094E+06     869.206E+03    -107.691E-03     217.663E-03    -109.972E-03     28.5193E-03    -109.142E-03     219.248E-03    -109.661E-03     25.3004E-03
             272     16.1313E-03     46.0267E-03    -2.37995E+06     117.752E+06     95.4418E+06    -621.448E+03    -106.128E-03     216.127E-03    -109.999E-03     25.7986E-03    -107.578E-03     217.710E-03    -109.689E-03     22.6338E-03
             273     16.1309E-03     47.2023E-03    -1.86891E+06     118.503E+06     96.1828E+06    -907.383E+03    -106.651E-03     216.608E-03    -109.957E-03     23.6124E-03    -108.087E-03     218.180E-03    -109.646E-03     20.4436E-03
             274     16.1326E-03     48.3857E-03    -2.07561E+06     119.091E+06     96.5706E+06     121.481E+03    -108.459E-03     218.355E-03    -109.896E-03     24.4376E-03    -109.904E-03     219.935E-03    -109.583E-03     21.1917E-03
             275     16.1306E-03     49.5676E-03    -3.93724E+06     118.347E+06     95.2712E+06     208.952E+03    -110.724E-03     220.586E-03    -109.861E-03     26.3507E-03    -112.185E-03     222.176E-03    -109.551E-03     22.9852E-03
             276     16.1312E-03     50.7569E-03    -2.40036E+06     119.535E+06     96.3345E+06     1.56347E+06    -109.872E-03     219.787E-03    -109.916E-03     26.9178E-03    -111.309E-03     221.361E-03    -109.604E-03     23.6345E-03
             277     16.1301E-03     51.9373E-03    -3.22214E+06     118.953E+06     95.6565E+06     657.584E+03    -107.032E-03     217.039E-03    -110.007E-03     26.5734E-03    -108.468E-03     218.608E-03    -109.697E-03     23.4283E-03
             278     16.1305E-03     53.1098E-03    -2.71860E+06     118.217E+06     95.1223E+06    -1.25501E+06    -106.323E-03     216.323E-03    -110.000E-03     24.7623E-03    -107.756E-03     217.890E-03    -109.692E-03     21.6020E-03
             279     16.1323E-03     54.2918E-03     423.895E+03     120.369E+06     97.8884E+06    -1.04460E+06    -106.378E-03     216.330E-03    -109.952E-03     24.2461E-03    -107.814E-03     217.910E-03    -109.638E-03     21.0725E-03
             280     16.1316E-03     55.4718E-03    -2.22640E+06     119.872E+06     97.1194E+06    -1.48943E+06    -107.865E-03     217.783E-03    -109.918E-03     26.1781E-03    -109.343E-03     219.397E-03    -109.603E-03     22.9265E-03
             281     16.1309E-03     56.6534E-03    -2.20982E+06     119.576E+06     96.5641E+06     360.931E+03    -108.475E-03     218.363E-03    -109.888E-03     26.1068E-03    -109.931E-03     219.956E-03    -109.576E-03     22.8596E-03
             282     16.1338E-03     57.8350E-03    -683.313E+03     121.532E+06     97.9750E+06     1.37675E+06    -108.306E-03     218.212E-03    -109.906E-03     27.0892E-03    -109.759E-03     219.809E-03    -109.591E-03     23.8719E-03
             283     16.1280E-03     59.0205E-03    -5.25779E+06     119.201E+06     95.0351E+06     577.258E+03    -109.317E-03     219.277E-03    -109.960E-03     28.2455E-03    -110.798E-03     220.887E-03    -109.650E-03     24.9741E-03
             284     16.1313E-03     60.1984E-03    -3.34928E+06     118.445E+06     93.9575E+06     568.164E+03    -106.970E-03     216.944E-03    -109.974E-03     25.6352E-03    -108.398E-03     218.509E-03    -109.671E-03     22.4625E-03
             285     16.1330E-03     61.3715E-03    -228.320E+03     122.130E+06     97.6474E+06    -1.17930E+06    -106.221E-03     216.178E-03    -109.957E-03     24.1896E-03    -107.653E-03     217.759E-03    -109.645E-03     21.0353E-03
             286     16.1291E-03     62.5613E-03    -4.15254E+06     121.165E+06     96.5208E+06     8.16287E+03    -107.780E-03     217.757E-03    -109.976E-03     26.7232E-03    -109.275E-03     219.387E-03    -109.663E-03     23.5184E-03
             287     16.1315E-03     63.7369E-03    -3.32983E+06     121.391E+06     96.0131E+06     876.664E+03    -106.975E-03     216.959E-03    -109.984E-03     27.9632E-03    -108.467E-03     218.591E-03    -109.675E-03     24.7687E-03
             288     16.1312E-03     64.9152E-03    -796.202E+03     123.876E+06     98.2706E+06     388.837E+03    -107.754E-03     217.689E-03    -109.935E-03     26.7121E-03    -109.214E-03     219.301E-03    -109.622E-03     23.4913E-03
             289     16.1314E-03     66.0998E-03    -1.64118E+06     123.887E+06     98.2346E+06     533.563E+03    -108.697E-03     218.618E-03    -109.921E-03     27.7296E-03    -110.169E-03     220.240E-03    -109.607E-03     24.4617E-03
             290     16.1307E-03     67.2835E-03    -3.00956E+06     122.047E+06     95.9037E+06     201.237E+03    -106.984E-03     216.940E-03    -109.956E-03     27.5572E-03    -108.455E-03     218.555E-03    -109.649E-03     24.3478E-03
             291     16.1322E-03     68.4542E-03    -2.76138E+06     122.623E+06     96.5323E+06    -507.614E+03    -107.411E-03     217.373E-03    -109.962E-03     26.0622E-03    -108.876E-03     218.984E-03    -109.653E-03     22.8458E-03
             292     806.107E-06     68.4033E-03    -94.1885E+06    -241.945E+06    -92.0118E+06     671.760E+03    -110.467E-03     220.287E-03    -109.820E-03     15.9624E-03    -110.466E-03     219.360E-03    -109.792E-03     15.6435E-03
             293     1.61248E-03     68.4264E-03    -91.1088E+06    -237.044E+06    -83.8354E+06     284.946E+03    -110.373E-03     220.526E-03    -110.153E-03     28.6321E-03    -110.403E-03     219.635E-03    -110.097E-03     28.0170E-03
             294     2.41836E-03     68.4672E-03    -87.2533E+06    -231.493E+06    -72.6352E+06     479.388E+03    -110.470E-03     220.662E-03    -110.191E-03     42.2782E-03    -110.553E-03     219.824E-03    -110.092E-03     41.3439E-03
             295     3.22476E-03     68.5205E-03    -82.1646E+06    -222.171E+06    -60.3135E+06     442.337E+03    -110.764E-03     220.969E-03    -110.204E-03     55.9959E-03    -110.925E-03     220.224E-03    -110.065E-03     54.7123E-03
             296     4.03127E-03     68.5913E-03    -76.4808E+06    -210.164E+06    -47.9822E+06     662.691E+03    -111.161E-03     221.383E-03    -110.222E-03     69.1409E-03    -111.428E-03     220.771E-03    -110.046E-03     67.4695E-03
             297     4.83696E-03     68.6748E-03    -70.8166E+06    -196.107E+06    -36.5210E+06     891.669E+03    -111.512E-03     221.745E-03    -110.233E-03     81.8660E-03    -111.921E-03     221.312E-03    -110.029E-03     79.7635E-03
             298     5.64422E-03     68.7734E-03    -64.9329E+06    -183.356E+06    -25.8306E+06     557.806E+03    -111.927E-03     222.163E-03    -110.237E-03     94.4837E-03    -112.518E-03     221.948E-03    -110.006E-03     91.8919E-03
             299     6.44973E-03     68.8848E-03    -59.4629E+06    -169.570E+06    -16.2881E+06     730.991E+03    -112.405E-03     222.640E-03    -110.235E-03     106.646E-03    -113.231E-03     222.701E-03    -109.985E-03     103.514E-03
             300     7.25674E-03     69.0098E-03    -54.1229E+06    -150.814E+06    -9.07185E+06     644.390E+03    -112.802E-03     223.018E-03    -110.216E-03     118.544E-03    -113.935E-03     223.450E-03    -109.964E-03     114.804E-03
             301     8.06301E-03     69.1470E-03    -49.2185E+06    -129.357E+06    -4.09792E+06     465.031E+03    -113.132E-03     223.309E-03    -110.177E-03     129.799E-03    -114.654E-03     224.209E-03    -109.939E-03     125.382E-03
             302     8.86932E-03     69.2966E-03    -45.0596E+06    -103.647E+06     504.547E+03     528.144E+03    -113.412E-03     223.544E-03    -110.131E-03     140.448E-03    -115.434E-03     225.035E-03    -109.913E-03     135.285E-03
             303     9.67642E-03     69.4564E-03    -41.1990E+06    -70.1782E+06     4.65970E+06     442.791E+03    -113.446E-03     223.515E-03    -110.069E-03     150.279E-03    -116.096E-03     225.756E-03    -109.884E-03     144.313E-03
             304     10.4827E-03     69.6270E-03    -37.2370E+06    -23.1339E+06     11.2549E+06     582.885E+03    -113.386E-03     223.381E-03    -109.995E-03     160.084E-03    -116.876E-03     226.624E-03    -109.852E-03     153.225E-03
             305     11.2894E-03     69.8069E-03    -33.1572E+06     44.7766E+06     19.2386E+06     263.667E+03    -113.434E-03     223.331E-03    -109.898E-03     174.112E-03    -118.133E-03     228.017E-03    -109.818E-03     166.238E-03
             306     12.0962E-03     70.0101E-03    -29.4697E+06     93.8786E+06     38.6640E+06    -233.350E+03    -113.249E-03     223.125E-03    -109.876E-03     191.098E-03    -119.576E-03     229.569E-03    -109.776E-03     182.196E-03
             307     12.9045E-03     70.2248E-03    -24.9119E+06     107.136E+06     71.0414E+06    -161.764E+03    -112.822E-03     222.790E-03    -109.968E-03     199.137E-03    -120.561E-03     230.614E-03    -109.732E-03     189.718E-03
             308     13.7084E-03     70.4463E-03    -17.7361E+06     117.313E+06     94.8868E+06    -49.8982E+03    -110.939E-03     220.968E-03    -110.029E-03     180.129E-03    -118.658E-03     228.765E-03    -109.699E-03     171.431E-03
             309     14.5213E-03     70.6193E-03    -10.7906E+06     127.825E+06     104.450E+06    -55.7116E+03    -108.997E-03     219.015E-03    -110.018E-03     160.730E-03    -116.414E-03     226.545E-03    -109.666E-03     153.121E-03
             310     15.3207E-03     70.7966E-03    -5.59976E+06     127.956E+06     101.011E+06    -128.904E+03    -108.493E-03     218.457E-03    -109.965E-03     92.9919E-03    -113.035E-03     223.141E-03    -109.637E-03     87.7439E-03
             311     806.162E-06     69.5828E-03    -93.6698E+06    -242.060E+06    -92.1998E+06     50.9598E+03    -110.126E-03     220.425E-03    -110.299E-03     15.7296E-03    -110.122E-03     219.497E-03    -110.274E-03     15.4003E-03
             312     1.61211E-03     69.6083E-03    -91.4494E+06    -237.825E+06    -84.5978E+06     342.900E+03    -110.096E-03     220.246E-03    -110.150E-03     28.7194E-03    -110.125E-03     219.352E-03    -110.096E-03     28.1059E-03
             313     2.41880E-03     69.6467E-03    -87.3239E+06    -231.845E+06    -72.8958E+06     498.291E+03    -110.460E-03     220.589E-03    -110.129E-03     42.3860E-03    -110.542E-03     219.749E-03    -110.030E-03     41.4552E-03
             314     3.22513E-03     69.7020E-03    -82.0853E+06    -222.197E+06    -59.9787E+06     532.836E+03    -110.897E-03     221.070E-03    -110.173E-03     55.9411E-03    -111.057E-03     220.324E-03    -110.032E-03     54.6556E-03
             315     4.03081E-03     69.7719E-03    -76.5618E+06    -210.479E+06    -47.3865E+06     702.645E+03    -111.149E-03     221.363E-03    -110.213E-03     69.0256E-03    -111.417E-03     220.749E-03    -110.034E-03     67.3542E-03
             316     4.83778E-03     69.8558E-03    -70.5528E+06    -196.394E+06    -36.3051E+06     604.001E+03    -111.471E-03     221.691E-03    -110.220E-03     81.9378E-03    -111.879E-03     221.257E-03    -110.015E-03     79.8314E-03
             317     5.64331E-03     69.9539E-03    -64.9178E+06    -183.410E+06    -25.8838E+06     704.780E+03    -111.912E-03     222.133E-03    -110.220E-03     94.4935E-03    -112.503E-03     221.917E-03    -109.990E-03     91.9039E-03
             318     6.45063E-03     70.0658E-03    -59.4102E+06    -169.389E+06    -16.2118E+06     520.291E+03    -112.352E-03     222.569E-03    -110.217E-03     106.612E-03    -113.179E-03     222.631E-03    -109.967E-03     103.477E-03
             319     7.25649E-03     70.1904E-03    -54.0270E+06    -150.841E+06    -9.17624E+06     417.604E+03    -112.764E-03     222.959E-03    -110.194E-03     118.392E-03    -113.896E-03     223.390E-03    -109.943E-03     114.650E-03
             320     8.06311E-03     70.3280E-03    -49.3889E+06    -129.414E+06    -4.27195E+06     591.806E+03    -113.116E-03     223.273E-03    -110.156E-03     129.754E-03    -114.639E-03     224.173E-03    -109.919E-03     125.340E-03
             321     8.86998E-03     70.4769E-03    -44.8351E+06    -103.528E+06     502.273E+03     393.793E+03    -113.404E-03     223.515E-03    -110.111E-03     140.404E-03    -115.426E-03     225.009E-03    -109.894E-03     135.236E-03
             322     9.67597E-03     70.6376E-03    -40.5461E+06    -70.1014E+06     4.70021E+06     462.376E+03    -113.499E-03     223.553E-03    -110.053E-03     149.915E-03    -116.143E-03     225.789E-03    -109.869E-03     143.948E-03
             323     10.4833E-03     70.8066E-03    -36.6827E+06    -23.1126E+06     11.4205E+06     262.400E+03    -113.532E-03     223.522E-03    -109.990E-03     160.159E-03    -117.025E-03     226.770E-03    -109.846E-03     153.281E-03
             324     11.2892E-03     70.9901E-03    -33.0648E+06     44.8484E+06     19.3290E+06     349.213E+03    -113.344E-03     223.240E-03    -109.896E-03     173.919E-03    -118.039E-03     227.921E-03    -109.816E-03     166.060E-03
             325     12.0971E-03     71.1871E-03    -29.1643E+06     94.3404E+06     38.3501E+06     793.515E+03    -113.306E-03     223.177E-03    -109.872E-03     190.852E-03    -119.627E-03     229.619E-03    -109.774E-03     181.954E-03
             326     12.9027E-03     71.4088E-03    -23.8916E+06     108.104E+06     71.6248E+06     199.342E+03    -112.831E-03     222.799E-03    -109.969E-03     199.084E-03    -120.565E-03     230.625E-03    -109.733E-03     189.663E-03
             327     13.7123E-03     71.6247E-03    -17.8763E+06     117.176E+06     94.9035E+06    -624.857E+03    -110.756E-03     220.781E-03    -110.025E-03     179.963E-03    -118.452E-03     228.554E-03    -109.695E-03     171.289E-03
             328     14.5136E-03     71.8011E-03    -11.2942E+06     127.318E+06     103.715E+06    -414.509E+03    -109.398E-03     219.418E-03    -110.019E-03     160.088E-03    -116.803E-03     226.933E-03    -109.669E-03     152.436E-03
             329     15.3291E-03     71.9750E-03    -5.25942E+06     128.202E+06     101.150E+06     17.2567E+03    -108.694E-03     218.680E-03    -109.987E-03     91.3453E-03    -113.223E-03     223.353E-03    -109.659E-03     86.0765E-03
             330     805.594E-06     70.7638E-03    -94.0915E+06    -242.273E+06    -92.2200E+06    -70.0925E+03    -109.992E-03     220.157E-03    -110.165E-03     15.7238E-03    -109.990E-03     219.229E-03    -110.139E-03     15.3901E-03
             331     1.61279E-03     70.7881E-03    -91.4790E+06    -238.344E+06    -84.4954E+06     319.238E+03    -110.162E-03     220.219E-03    -110.057E-03     28.8802E-03    -110.191E-03     219.322E-03    -110.002E-03     28.2695E-03
             332     2.41897E-03     70.8276E-03    -87.2359E+06    -232.388E+06    -72.9548E+06     524.622E+03    -110.625E-03     220.730E-03    -110.105E-03     42.3810E-03    -110.706E-03     219.888E-03    -110.007E-03     41.4474E-03
             333     3.22456E-03     70.8833E-03    -82.1334E+06    -222.415E+06    -60.1219E+06     677.709E+03    -110.846E-03     221.021E-03    -110.174E-03     55.7630E-03    -111.006E-03     220.274E-03    -110.033E-03     54.4799E-03
             334     4.03137E-03     70.9523E-03    -76.2924E+06    -210.847E+06    -47.1733E+06     400.100E+03    -111.049E-03     221.251E-03    -110.202E-03     68.9866E-03    -111.315E-03     220.634E-03    -110.021E-03     67.3122E-03
             335     4.83724E-03     71.0366E-03    -70.5038E+06    -196.603E+06    -35.8477E+06     635.830E+03    -111.477E-03     221.680E-03    -110.203E-03     81.9770E-03    -111.885E-03     221.244E-03    -109.995E-03     79.8709E-03
             336     5.64437E-03     71.1348E-03    -64.8655E+06    -183.228E+06    -25.6140E+06     736.814E+03    -111.924E-03     222.130E-03    -110.206E-03     94.4506E-03    -112.516E-03     221.916E-03    -109.974E-03     91.8585E-03
             337     6.44991E-03     71.2463E-03    -59.3056E+06    -168.998E+06    -16.3771E+06     563.871E+03    -112.354E-03     222.557E-03    -110.203E-03     106.617E-03    -113.181E-03     222.622E-03    -109.954E-03     103.481E-03
             338     7.25688E-03     71.3714E-03    -54.3164E+06    -150.852E+06    -9.39140E+06     443.112E+03    -112.757E-03     222.940E-03    -110.183E-03     118.283E-03    -113.889E-03     223.371E-03    -109.933E-03     114.543E-03
             339     8.06341E-03     71.5082E-03    -49.4261E+06    -129.472E+06    -4.50524E+06     166.846E+03    -113.144E-03     223.292E-03    -110.148E-03     129.575E-03    -114.666E-03     224.192E-03    -109.911E-03     125.152E-03
             340     8.86953E-03     71.6582E-03    -45.0120E+06    -103.318E+06     370.265E+03     195.712E+03    -113.434E-03     223.542E-03    -110.108E-03     140.168E-03    -115.455E-03     225.035E-03    -109.891E-03     134.999E-03
             341     9.67669E-03     71.8177E-03    -41.0716E+06    -70.4758E+06     4.36837E+06     106.182E+03    -113.576E-03     223.632E-03    -110.056E-03     149.777E-03    -116.222E-03     225.870E-03    -109.873E-03     143.797E-03
             342     10.4823E-03     71.9884E-03    -37.3551E+06    -23.2265E+06     11.0670E+06     134.957E+03    -113.438E-03     223.432E-03    -109.993E-03     160.066E-03    -116.929E-03     226.675E-03    -109.850E-03     153.199E-03
             343     11.2901E-03     72.1693E-03    -33.5320E+06     44.6532E+06     18.6199E+06     232.543E+03    -113.358E-03     223.253E-03    -109.895E-03     173.531E-03    -118.043E-03     227.924E-03    -109.818E-03     165.673E-03
             344     12.0958E-03     72.3691E-03    -28.7840E+06     94.3491E+06     38.1008E+06     239.863E+03    -113.563E-03     223.444E-03    -109.881E-03     190.866E-03    -119.890E-03     229.894E-03    -109.786E-03     181.931E-03
             345     12.9039E-03     72.5884E-03    -23.1845E+06     108.862E+06     72.2636E+06     366.227E+03    -112.758E-03     222.745E-03    -109.988E-03     198.595E-03    -120.469E-03     230.552E-03    -109.751E-03     189.194E-03
             346     13.7088E-03     72.8050E-03    -17.0291E+06     118.112E+06     95.6069E+06     359.169E+03    -110.725E-03     220.767E-03    -110.042E-03     179.626E-03    -118.410E-03     228.534E-03    -109.711E-03     170.973E-03
             347     14.5214E-03     72.9832E-03    -11.5199E+06     127.186E+06     103.462E+06    -225.110E+03    -109.478E-03     219.512E-03    -110.034E-03     161.202E-03    -116.922E-03     227.067E-03    -109.685E-03     153.536E-03
             348     15.3166E-03     73.1582E-03    -5.61052E+06     127.642E+06     100.517E+06    -294.855E+03    -108.400E-03     218.392E-03    -109.992E-03     92.7620E-03    -112.957E-03     223.091E-03    -109.666E-03     87.4922E-03
             349     807.215E-06     71.9445E-03    -94.9887E+06    -242.997E+06    -92.6734E+06     284.649E+03    -110.227E-03     219.872E-03    -109.644E-03     15.7350E-03    -110.228E-03     218.942E-03    -109.618E-03     15.4115E-03
             350     1.61256E-03     71.9682E-03    -91.5984E+06    -238.591E+06    -84.0745E+06     445.436E+03    -110.514E-03     220.532E-03    -110.019E-03     28.6779E-03    -110.544E-03     219.634E-03    -109.960E-03     28.0658E-03
             351     2.41832E-03     72.0093E-03    -87.4126E+06    -232.595E+06    -72.8921E+06     511.548E+03    -110.553E-03     220.698E-03    -110.145E-03     42.4125E-03    -110.635E-03     219.855E-03    -110.046E-03     41.4785E-03
             352     3.22503E-03     72.0635E-03    -82.0894E+06    -222.668E+06    -60.4181E+06     232.867E+03    -110.681E-03     220.855E-03    -110.173E-03     55.7335E-03    -110.840E-03     220.107E-03    -110.034E-03     54.4457E-03
             353     4.03113E-03     72.1331E-03    -76.3995E+06    -211.359E+06    -47.2060E+06     462.268E+03    -111.067E-03     221.252E-03    -110.186E-03     69.0219E-03    -111.333E-03     220.634E-03    -110.004E-03     67.3467E-03
             354     4.83785E-03     72.2173E-03    -70.6026E+06    -196.946E+06    -35.9625E+06     652.346E+03    -111.496E-03     221.688E-03    -110.192E-03     81.9101E-03    -111.904E-03     221.251E-03    -109.984E-03     79.8032E-03
             355     5.64354E-03     72.3153E-03    -64.7806E+06    -183.222E+06    -25.5967E+06     523.769E+03    -111.933E-03     222.133E-03    -110.199E-03     94.3878E-03    -112.525E-03     221.918E-03    -109.968E-03     91.7922E-03
             356     6.45070E-03     72.4273E-03    -59.2160E+06    -169.077E+06    -16.0965E+06     572.454E+03    -112.382E-03     222.584E-03    -110.202E-03     106.459E-03    -113.209E-03     222.647E-03    -109.951E-03     103.322E-03
             357     7.25672E-03     72.5517E-03    -53.8419E+06    -150.379E+06    -9.17877E+06     485.787E+03    -112.797E-03     222.982E-03    -110.185E-03     118.138E-03    -113.928E-03     223.415E-03    -109.935E-03     114.394E-03
             358     8.06295E-03     72.6895E-03    -49.1900E+06    -129.099E+06    -4.27253E+06     181.434E+03    -113.191E-03     223.346E-03    -110.155E-03     129.517E-03    -114.714E-03     224.248E-03    -109.918E-03     125.092E-03
             359     8.86987E-03     72.8383E-03    -44.9781E+06    -103.307E+06     534.211E+03     218.602E+03    -113.486E-03     223.606E-03    -110.120E-03     140.165E-03    -115.507E-03     225.099E-03    -109.902E-03     134.993E-03
             360     9.67563E-03     72.9993E-03    -41.1258E+06    -70.2440E+06     4.60292E+06     158.385E+03    -113.562E-03     223.632E-03    -110.069E-03     149.760E-03    -116.211E-03     225.872E-03    -109.885E-03     143.779E-03
             361     10.4832E-03     73.1683E-03    -37.2220E+06    -23.2840E+06     11.0364E+06     98.0053E+03    -113.412E-03     223.415E-03    -110.004E-03     159.791E-03    -116.896E-03     226.653E-03    -109.861E-03     152.928E-03
             362     11.2890E-03     73.3506E-03    -33.2733E+06     44.8743E+06     19.0088E+06    -138.064E+03    -113.473E-03     223.383E-03    -109.910E-03     173.657E-03    -118.166E-03     228.061E-03    -109.831E-03     165.778E-03
             363     12.0967E-03     73.5495E-03    -29.2528E+06     94.1841E+06     38.3868E+06    -468.349E+03    -113.594E-03     223.495E-03    -109.901E-03     190.853E-03    -119.919E-03     229.939E-03    -109.803E-03     181.910E-03
             364     12.9021E-03     73.7698E-03    -23.8027E+06     108.367E+06     71.7744E+06    -202.591E+03    -113.030E-03     223.043E-03    -110.014E-03     198.356E-03    -120.748E-03     230.854E-03    -109.777E-03     188.916E-03
             365     13.7114E-03     73.9849E-03    -17.3160E+06     117.892E+06     95.2623E+06     518.895E+03    -110.866E-03     220.946E-03    -110.081E-03     179.359E-03    -118.564E-03     228.725E-03    -109.750E-03     170.680E-03
             366     14.5122E-03     74.1641E-03    -10.3550E+06     128.402E+06     104.711E+06     761.969E+03    -108.285E-03     218.332E-03    -110.048E-03     160.709E-03    -115.690E-03     225.852E-03    -109.695E-03     153.194E-03
             367     15.3325E-03     74.3380E-03    -5.63249E+06     128.280E+06     101.375E+06     106.218E+03    -108.476E-03     218.450E-03    -109.974E-03     92.7404E-03    -113.013E-03     223.129E-03    -109.645E-03     87.5515E-03
             368     806.070E-06     73.1250E-03    -94.2619E+06    -243.156E+06    -92.3621E+06     436.263E+03    -110.367E-03     220.285E-03    -109.918E-03     15.7007E-03    -110.364E-03     219.353E-03    -109.891E-03     15.3794E-03
             369     1.61217E-03     73.1500E-03    -91.4809E+06    -239.218E+06    -84.3133E+06     399.071E+03    -110.295E-03     220.433E-03    -110.138E-03     28.6821E-03    -110.323E-03     219.532E-03    -110.080E-03     28.0688E-03
             370     2.41869E-03     73.1895E-03    -87.2244E+06    -232.478E+06    -73.0642E+06     214.966E+03    -110.395E-03     220.546E-03    -110.151E-03     42.4491E-03    -110.476E-03     219.704E-03    -110.053E-03     41.5128E-03
             371     3.22494E-03     73.2441E-03    -82.0385E+06    -222.664E+06    -59.8640E+06     179.565E+03    -110.722E-03     220.884E-03    -110.162E-03     55.7488E-03    -110.881E-03     220.135E-03    -110.020E-03     54.4577E-03
             372     4.03136E-03     73.3139E-03     -76.258E+06    -212.078E+06    -46.5826E+06     417.050E+03    -111.118E-03     221.306E-03    -110.188E-03     68.9151E-03    -111.383E-03     220.682E-03    -110.003E-03     67.2382E-03
             373     4.83734E-03     73.3978E-03    -70.2982E+06    -197.364E+06    -35.7329E+06     550.870E+03    -111.518E-03     221.718E-03    -110.199E-03     81.8348E-03    -111.926E-03     221.279E-03    -109.990E-03     79.7245E-03
             374     5.64431E-03     73.4964E-03    -64.6123E+06    -183.066E+06    -25.3467E+06     551.388E+03    -111.953E-03     222.162E-03    -110.208E-03     94.2779E-03    -112.545E-03     221.947E-03    -109.976E-03     91.6819E-03
             375     6.44993E-03     73.6077E-03    -59.0191E+06    -169.353E+06    -16.0829E+06     192.915E+03    -112.383E-03     222.595E-03    -110.212E-03     106.423E-03    -113.209E-03     222.657E-03    -109.961E-03     103.279E-03
             376     7.25658E-03     73.7329E-03    -53.7551E+06    -150.251E+06    -9.33877E+06     361.702E+03    -112.820E-03     223.014E-03    -110.194E-03     118.181E-03    -113.952E-03     223.448E-03    -109.945E-03     114.433E-03
             377     8.06335E-03     73.8696E-03    -49.0110E+06    -128.389E+06    -3.90387E+06     588.095E+03    -113.240E-03     223.407E-03    -110.168E-03     129.537E-03    -114.764E-03     224.314E-03    -109.930E-03     125.111E-03
             378     8.86922E-03     74.0199E-03    -44.8294E+06    -103.589E+06     523.591E+03     272.798E+03    -113.483E-03     223.617E-03    -110.133E-03     140.113E-03    -115.503E-03     225.108E-03    -109.916E-03     134.940E-03
             379     9.67646E-03     74.1793E-03    -40.7402E+06    -69.6104E+06     4.64727E+06     225.391E+03    -113.549E-03     223.629E-03    -110.080E-03     149.813E-03    -116.197E-03     225.871E-03    -109.896E-03     143.836E-03
             380     10.4820E-03     74.3499E-03    -36.9461E+06    -22.6746E+06     11.4146E+06    -223.501E+03    -113.532E-03     223.551E-03    -110.019E-03     159.724E-03    -117.022E-03     226.796E-03    -109.875E-03     152.839E-03
             381     11.2897E-03     74.5302E-03    -33.0744E+06     44.8049E+06     19.0331E+06    -337.684E+03    -113.517E-03     223.447E-03    -109.930E-03     173.670E-03    -118.210E-03     228.126E-03    -109.852E-03     165.784E-03
             382     12.0953E-03     74.7320E-03    -29.0202E+06     94.5069E+06     38.4512E+06     70.5991E+03    -113.632E-03     223.555E-03    -109.922E-03     190.769E-03    -119.960E-03     230.003E-03    -109.825E-03     181.823E-03
             383     12.9037E-03     74.9488E-03    -24.4830E+06     107.784E+06     71.2915E+06    -64.1484E+03    -113.179E-03     223.219E-03    -110.040E-03     198.635E-03    -120.923E-03     231.052E-03    -109.804E-03     189.168E-03
             384     13.7067E-03     75.1689E-03    -18.0727E+06     117.365E+06     94.5989E+06    -534.923E+03    -110.993E-03     221.106E-03    -110.113E-03     179.260E-03    -118.705E-03     228.896E-03    -109.783E-03     170.540E-03
             385     14.5209E-03     75.3409E-03    -10.9582E+06     128.089E+06     104.180E+06    -395.957E+03    -109.290E-03     219.404E-03    -110.114E-03     158.337E-03    -116.650E-03     226.877E-03    -109.763E-03     150.698E-03
             386     15.3178E-03     75.5166E-03    -5.45765E+06     128.385E+06     101.052E+06     668.511E+03    -108.034E-03     218.094E-03    -110.060E-03     91.0383E-03    -112.529E-03     222.733E-03    -109.733E-03     85.8263E-03
             387     805.509E-06     74.3053E-03    -93.7532E+06    -243.226E+06    -92.1063E+06     89.8806E+03    -110.210E-03     220.521E-03    -110.311E-03     15.8313E-03    -110.205E-03     219.587E-03    -110.283E-03     15.4980E-03
             388     1.61243E-03     74.3307E-03    -91.2133E+06    -239.575E+06    -84.7285E+06     237.394E+03    -110.073E-03     220.256E-03    -110.182E-03     28.9514E-03    -110.099E-03     219.353E-03    -110.126E-03     28.3371E-03
             389     2.41878E-03     74.3696E-03    -87.0843E+06    -232.346E+06    -73.1810E+06     274.824E+03    -110.468E-03     220.610E-03    -110.142E-03     42.2966E-03    -110.548E-03     219.768E-03    -110.045E-03     41.3597E-03
             390     3.22493E-03     74.4255E-03    -82.0313E+06    -222.811E+06    -59.6507E+06     248.351E+03    -110.775E-03     220.950E-03    -110.175E-03     55.6526E-03    -110.934E-03     220.200E-03    -110.031E-03     54.3619E-03
             391     4.03106E-03     74.4941E-03    -76.2679E+06    -212.434E+06    -46.0051E+06     325.126E+03    -111.138E-03     221.347E-03    -110.209E-03     68.9046E-03    -111.404E-03     220.721E-03    -110.020E-03     67.2244E-03
             392     4.83769E-03     74.5791E-03    -70.2702E+06    -197.412E+06    -35.3573E+06     427.218E+03    -111.535E-03     221.754E-03    -110.219E-03     81.8037E-03    -111.942E-03     221.314E-03    -110.008E-03     79.6906E-03
             393     5.64336E-03     74.6766E-03    -64.4909E+06    -183.141E+06    -25.7255E+06     320.425E+03    -111.922E-03     222.143E-03    -110.221E-03     94.3101E-03    -112.512E-03     221.928E-03    -109.990E-03     91.7113E-03
             394     6.45045E-03     74.7890E-03    -59.0753E+06    -168.696E+06    -16.0738E+06     358.341E+03    -112.377E-03     222.598E-03    -110.220E-03     106.489E-03    -113.205E-03     222.663E-03    -109.971E-03     103.348E-03
             395     7.25675E-03     74.9131E-03    -54.0312E+06    -150.476E+06    -9.39471E+06     269.468E+03    -112.864E-03     223.069E-03    -110.205E-03     118.202E-03    -113.998E-03     223.504E-03    -109.955E-03     114.448E-03
             396     8.06265E-03     75.0513E-03    -49.2948E+06    -129.221E+06    -4.61605E+06     348.938E+03    -113.255E-03     223.434E-03    -110.179E-03     129.559E-03    -114.780E-03     224.338E-03    -109.943E-03     125.128E-03
             397     8.86959E-03     75.2000E-03    -44.8043E+06    -102.833E+06     536.776E+03     256.285E+03    -113.465E-03     223.608E-03    -110.144E-03     140.103E-03    -115.486E-03     225.104E-03    -109.927E-03     134.930E-03
             398     9.67549E-03     75.3606E-03    -40.8386E+06    -69.5587E+06     4.53552E+06     121.500E+03    -113.579E-03     223.669E-03    -110.090E-03     149.830E-03    -116.229E-03     225.914E-03    -109.907E-03     143.846E-03
             399     10.4831E-03     75.5303E-03    -37.3678E+06    -21.8334E+06     11.4524E+06     29.1763E+03    -113.624E-03     223.657E-03    -110.033E-03     159.873E-03    -117.123E-03     226.912E-03    -109.890E-03     152.982E-03
             400     11.2881E-03     75.7122E-03    -34.1032E+06     45.3831E+06     19.0479E+06    -265.831E+03    -113.630E-03     223.582E-03    -109.952E-03     173.583E-03    -118.332E-03     228.268E-03    -109.873E-03     165.685E-03
             401     12.0965E-03     75.9110E-03    -29.9868E+06     93.5062E+06     37.3933E+06    -194.034E+03    -113.618E-03     223.561E-03    -109.943E-03     190.979E-03    -119.956E-03     230.016E-03    -109.848E-03     182.029E-03
             402     12.9007E-03     76.1325E-03    -24.0412E+06     108.210E+06     71.3238E+06    -175.433E+03    -112.952E-03     223.002E-03    -110.051E-03     199.082E-03    -120.690E-03     230.833E-03    -109.816E-03     189.646E-03
             403     13.7118E-03     76.3471E-03    -17.5327E+06     118.102E+06     95.3098E+06    -413.348E+03    -111.107E-03     221.225E-03    -110.118E-03     179.873E-03    -118.820E-03     229.019E-03    -109.788E-03     171.159E-03
             404     14.5103E-03     76.5252E-03    -12.3877E+06     126.656E+06     102.637E+06     80.5560E+03    -109.716E-03     219.836E-03    -110.120E-03     162.233E-03    -117.179E-03     227.407E-03    -109.772E-03     154.541E-03
             405     15.3220E-03     76.7006E-03    -5.66816E+06     127.904E+06     100.223E+06     275.188E+03    -107.583E-03     217.635E-03    -110.053E-03     94.7151E-03    -112.166E-03     222.362E-03    -109.729E-03     89.4741E-03
             406     806.493E-06     75.4868E-03    -94.0347E+06    -243.815E+06    -92.1305E+06     57.2665E+03    -110.283E-03     220.278E-03    -109.995E-03     15.6155E-03    -110.278E-03     219.341E-03    -109.966E-03     15.2834E-03
             407     1.61247E-03     75.5103E-03    -91.3301E+06    -239.446E+06    -84.2672E+06     194.082E+03    -110.351E-03     220.495E-03    -110.145E-03     28.7820E-03    -110.378E-03     219.593E-03    -110.086E-03     28.1646E-03
             408     2.41841E-03     75.5516E-03    -87.2199E+06    -232.336E+06    -73.1989E+06     127.236E+03    -110.478E-03     220.656E-03    -110.178E-03     42.2965E-03    -110.559E-03     219.815E-03    -110.081E-03     41.3569E-03
             409     3.22473E-03     75.6051E-03    -82.0228E+06    -223.018E+06    -60.1013E+06     178.578E+03    -110.764E-03     220.963E-03    -110.200E-03     55.6945E-03    -110.923E-03     220.214E-03    -110.058E-03     54.4019E-03
             410     4.03126E-03     75.6757E-03    -76.2660E+06    -212.760E+06    -46.0458E+06     450.088E+03    -111.144E-03     221.373E-03    -110.229E-03     68.9788E-03    -111.410E-03     220.747E-03    -110.040E-03     67.2995E-03
             411     4.83706E-03     75.7593E-03    -70.4436E+06    -197.343E+06    -35.0525E+06     382.878E+03    -111.480E-03     221.714E-03    -110.234E-03     81.8148E-03    -111.889E-03     221.274E-03    -110.021E-03     79.7024E-03
             412     5.64419E-03     75.8579E-03    -64.6803E+06    -183.105E+06    -25.7331E+06     82.0179E+03    -111.926E-03     222.154E-03    -110.228E-03     94.4198E-03    -112.518E-03     221.941E-03    -109.997E-03     91.8165E-03
             413     6.44996E-03     75.9692E-03    -59.1043E+06    -168.637E+06    -16.3790E+06     464.347E+03    -112.429E-03     222.657E-03    -110.228E-03     106.476E-03    -113.256E-03     222.723E-03    -109.980E-03     103.336E-03
             414     7.25630E-03     76.0946E-03    -54.0032E+06    -150.509E+06    -9.46164E+06     426.378E+03    -112.867E-03     223.083E-03    -110.215E-03     118.298E-03    -114.003E-03     223.520E-03    -109.966E-03     114.543E-03
             415     8.06314E-03     76.2316E-03    -49.2351E+06    -129.346E+06    -4.69992E+06     53.1382E+03    -113.225E-03     223.411E-03    -110.186E-03     129.591E-03    -114.749E-03     224.315E-03    -109.951E-03     125.158E-03
             416     8.86916E-03     76.3813E-03    -44.9072E+06    -102.255E+06     602.210E+03     161.976E+03    -113.495E-03     223.646E-03    -110.150E-03     140.139E-03    -115.519E-03     225.145E-03    -109.934E-03     134.963E-03
             417     9.67620E-03     76.5411E-03    -40.9656E+06    -69.8337E+06     4.63387E+06     48.1874E+03    -113.647E-03     223.748E-03    -110.102E-03     149.917E-03    -116.300E-03     225.995E-03    -109.918E-03     143.926E-03
             418     10.4816E-03     76.7116E-03    -37.1576E+06    -22.2853E+06     11.1493E+06     496.121E+03    -113.595E-03     223.637E-03    -110.042E-03     160.045E-03    -117.091E-03     226.889E-03    -109.900E-03     153.166E-03
             419     11.2897E-03     76.8930E-03    -33.5452E+06     46.3860E+06     19.8696E+06     551.703E+03    -113.595E-03     223.554E-03    -109.959E-03     173.948E-03    -118.303E-03     228.250E-03    -109.878E-03     166.064E-03
             420     12.0940E-03     77.0930E-03    -29.5628E+06     94.4476E+06     38.6119E+06    -439.011E+03    -113.546E-03     223.493E-03    -109.946E-03     191.408E-03    -119.892E-03     229.956E-03    -109.847E-03     182.463E-03
             421     12.9043E-03     77.3114E-03    -24.3875E+06     107.899E+06     71.3840E+06    -936.660E+03    -112.846E-03     222.889E-03    -110.043E-03     199.411E-03    -120.584E-03     230.716E-03    -109.807E-03     189.979E-03
             422     13.7067E-03     77.5300E-03    -18.3009E+06     116.900E+06     94.5586E+06     317.801E+03    -110.415E-03     220.498E-03    -110.083E-03     180.522E-03    -118.115E-03     228.273E-03    -109.753E-03     171.900E-03
             423     14.5217E-03     77.7059E-03    -11.1093E+06     127.562E+06     103.621E+06     664.350E+03    -107.943E-03     217.961E-03    -110.018E-03     162.396E-03    -115.382E-03     225.512E-03    -109.668E-03     154.916E-03
             424     15.3277E-03     77.8795E-03    -5.17703E+06     128.824E+06     101.429E+06    -242.305E+03    -108.681E-03     218.620E-03    -109.938E-03     93.1687E-03    -113.242E-03     223.325E-03    -109.610E-03     87.9608E-03
             425     806.385E-06     76.6677E-03    -93.8407E+06    -244.196E+06    -91.9160E+06     151.952E+03    -110.326E-03     220.299E-03    -109.973E-03     15.5372E-03    -110.320E-03     219.360E-03    -109.942E-03     15.2095E-03
             426     1.61200E-03     76.6919E-03    -90.9942E+06    -239.406E+06    -83.9093E+06     84.5782E+03    -110.418E-03     220.586E-03    -110.167E-03     28.6520E-03    -110.445E-03     219.682E-03    -110.108E-03     28.0327E-03
             427     2.41855E-03     76.7315E-03    -87.0089E+06    -232.230E+06    -72.9427E+06     115.736E+03    -110.462E-03     220.667E-03    -110.205E-03     42.3223E-03    -110.542E-03     219.826E-03    -110.107E-03     41.3814E-03
             428     3.22493E-03     76.7864E-03    -82.0806E+06    -223.280E+06    -60.1442E+06     190.798E+03    -110.765E-03     220.981E-03    -110.216E-03     55.8173E-03    -110.924E-03     220.231E-03    -110.074E-03     54.5236E-03
             429     4.03075E-03     76.8564E-03    -76.1651E+06    -213.259E+06    -46.3952E+06     342.587E+03    -111.088E-03     221.323E-03    -110.235E-03     69.0268E-03    -111.352E-03     220.694E-03    -110.048E-03     67.3481E-03
             430     4.83772E-03     76.9401E-03    -70.0411E+06    -197.159E+06    -34.8108E+06     385.337E+03    -111.484E-03     221.719E-03    -110.235E-03     81.8787E-03    -111.893E-03     221.280E-03    -110.021E-03     79.7653E-03
             431     5.64342E-03     77.0384E-03    -64.3808E+06    -182.606E+06    -25.0640E+06     302.024E+03    -111.993E-03     222.228E-03    -110.235E-03     94.4458E-03    -112.585E-03     222.016E-03    -110.002E-03     91.8450E-03
             432     6.45017E-03     77.1504E-03    -58.9928E+06    -169.525E+06    -16.5340E+06     170.139E+03    -112.426E-03     222.662E-03    -110.236E-03     106.536E-03    -113.252E-03     222.726E-03    -109.988E-03     103.388E-03
             433     7.25665E-03     77.2750E-03    -53.5335E+06    -150.359E+06    -9.48680E+06     281.735E+03    -112.839E-03     223.059E-03    -110.219E-03     118.394E-03    -113.973E-03     223.495E-03    -109.971E-03     114.640E-03
             434     8.06262E-03     77.4129E-03    -48.6884E+06    -128.322E+06    -3.93927E+06     217.748E+03    -113.232E-03     223.422E-03    -110.191E-03     129.625E-03    -114.757E-03     224.330E-03    -109.954E-03     125.194E-03
             435     8.86948E-03     77.5617E-03    -44.3298E+06    -102.739E+06     781.133E+03     180.253E+03    -113.523E-03     223.677E-03    -110.155E-03     140.238E-03    -115.545E-03     225.175E-03    -109.937E-03     135.060E-03
             436     9.67531E-03     77.7225E-03    -40.4672E+06    -69.6046E+06     5.01351E+06     220.754E+03    -113.642E-03     223.748E-03    -110.105E-03     150.072E-03    -116.296E-03     225.996E-03    -109.921E-03     144.083E-03
             437     10.4829E-03     77.8922E-03    -36.5767E+06    -23.0148E+06     11.3150E+06     143.889E+03    -113.529E-03     223.571E-03    -110.042E-03     160.208E-03    -117.023E-03     226.821E-03    -109.899E-03     153.327E-03
             438     11.2880E-03     78.0741E-03    -32.1479E+06     45.9753E+06     19.9579E+06     315.527E+03    -113.389E-03     223.335E-03    -109.946E-03     174.081E-03    -118.085E-03     228.022E-03    -109.866E-03     166.215E-03
             439     12.0976E-03     78.2736E-03    -27.8414E+06     96.1883E+06     40.6677E+06     678.394E+03    -113.549E-03     223.482E-03    -109.933E-03     191.326E-03    -119.888E-03     229.946E-03    -109.828E-03     182.393E-03
             440     12.9008E-03     78.4930E-03    -23.9769E+06     108.338E+06     72.1824E+06     923.346E+03    -112.800E-03     222.828E-03    -110.028E-03     199.117E-03    -120.535E-03     230.653E-03    -109.789E-03     189.715E-03
             441     13.7126E-03     78.7099E-03    -18.4831E+06     116.525E+06     93.9563E+06    -204.394E+03    -110.388E-03     220.454E-03    -110.067E-03     178.621E-03    -118.056E-03     228.198E-03    -109.739E-03     169.993E-03
             442     14.5151E-03     78.8822E-03    -11.1314E+06     127.511E+06     103.701E+06    -768.776E+03    -108.832E-03     218.875E-03    -110.043E-03     157.411E-03    -116.152E-03     226.307E-03    -109.693E-03     149.831E-03
             443     15.3246E-03     79.0600E-03    -5.00367E+06     128.800E+06     101.417E+06     42.5582E+03    -108.499E-03     218.494E-03    -109.996E-03     90.9846E-03    -112.979E-03     223.120E-03    -109.668E-03     85.7506E-03
             444     805.862E-06     77.8481E-03    -93.3704E+06    -244.108E+06    -91.7713E+06    -78.4667E+03    -110.134E-03     220.387E-03    -110.254E-03     16.0116E-03    -110.126E-03     219.448E-03    -110.223E-03     15.6803E-03
             445     1.61256E-03     77.8732E-03    -90.9478E+06    -239.686E+06    -84.2622E+06     140.419E+03    -110.310E-03     220.487E-03    -110.177E-03     28.6925E-03    -110.335E-03     219.583E-03    -110.119E-03     28.0736E-03
             446     2.41844E-03     77.9120E-03    -86.8999E+06    -232.378E+06    -73.0511E+06     283.718E+03    -110.514E-03     220.710E-03    -110.196E-03     42.2912E-03    -110.594E-03     219.868E-03    -110.098E-03     41.3512E-03
             447     3.22451E-03     77.9675E-03    -81.8514E+06    -223.230E+06    -59.9748E+06     191.457E+03    -110.733E-03     220.947E-03    -110.214E-03     55.9366E-03    -110.891E-03     220.196E-03    -110.071E-03     54.6445E-03
             448     4.03138E-03     78.0366E-03    -76.0958E+06    -213.396E+06    -46.4875E+06     7.22037E+03    -111.087E-03     221.315E-03    -110.228E-03     69.0146E-03    -111.350E-03     220.686E-03    -110.041E-03     67.3305E-03
             449     4.83719E-03     78.1211E-03    -69.9874E+06    -197.545E+06    -35.3138E+06     306.812E+03    -111.550E-03     221.782E-03    -110.232E-03     81.9465E-03    -111.957E-03     221.341E-03    -110.020E-03     79.8316E-03
             450     5.64394E-03     78.2194E-03    -64.2267E+06    -182.333E+06    -24.6832E+06     451.039E+03    -111.982E-03     222.221E-03    -110.239E-03     94.4975E-03    -112.574E-03     222.010E-03    -110.005E-03     91.8993E-03
             451     6.44998E-03     78.3311E-03    -58.6170E+06    -168.949E+06    -15.7213E+06    -53.6413E+03    -112.436E-03     222.677E-03    -110.241E-03     106.593E-03    -113.264E-03     222.743E-03    -109.990E-03     103.440E-03
             452     7.25627E-03     78.4560E-03    -53.3914E+06    -150.466E+06    -9.41324E+06    -18.2354E+03    -112.845E-03     223.068E-03    -110.222E-03     118.315E-03    -113.977E-03     223.503E-03    -109.974E-03     114.558E-03
             453     8.06315E-03     78.5936E-03    -48.7384E+06    -128.396E+06    -4.13496E+06     214.642E+03    -113.185E-03     223.375E-03    -110.191E-03     129.676E-03    -114.709E-03     224.283E-03    -109.954E-03     125.248E-03
             454     8.86911E-03     78.7430E-03    -44.6081E+06    -102.985E+06     655.384E+03     132.228E+03    -113.493E-03     223.644E-03    -110.151E-03     140.367E-03    -115.517E-03     225.143E-03    -109.934E-03     135.188E-03
             455     9.67625E-03     78.9031E-03    -40.4593E+06    -69.2644E+06     5.01434E+06     212.845E+03    -113.570E-03     223.667E-03    -110.097E-03     150.188E-03    -116.225E-03     225.917E-03    -109.913E-03     144.203E-03
             456     10.4817E-03     79.0734E-03    -36.6675E+06    -22.1340E+06     11.8057E+06    -109.253E+03    -113.458E-03     223.489E-03    -110.030E-03     160.266E-03    -116.957E-03     226.744E-03    -109.886E-03     153.385E-03
             457     11.2902E-03     79.2545E-03    -33.3684E+06     45.2356E+06     19.1356E+06    -256.659E+03    -113.492E-03     223.426E-03    -109.934E-03     173.932E-03    -118.192E-03     228.113E-03    -109.855E-03     166.047E-03
             458     12.0944E-03     79.4543E-03    -29.4728E+06     94.3651E+06     37.7601E+06     682.210E+03    -113.535E-03     223.453E-03    -109.918E-03     191.159E-03    -119.877E-03     229.916E-03    -109.823E-03     182.226E-03
             459     12.9046E-03     79.6745E-03    -23.3449E+06     108.779E+06     71.6030E+06     1.33623E+06    -112.832E-03     222.853E-03    -110.022E-03     198.319E-03    -120.550E-03     230.667E-03    -109.787E-03     188.921E-03
             460     13.7075E-03     79.8885E-03    -16.7823E+06     118.712E+06     95.7661E+06     711.081E+03    -111.239E-03     221.336E-03    -110.096E-03     178.982E-03    -118.928E-03     229.109E-03    -109.765E-03     170.279E-03
             461     14.5164E-03     80.0679E-03    -11.4651E+06     127.574E+06     103.763E+06    -46.7556E+03    -109.917E-03     220.034E-03    -110.116E-03     160.336E-03    -117.323E-03     227.551E-03    -109.766E-03     152.628E-03
             462     15.3187E-03     80.2384E-03    -5.44552E+06     128.305E+06     100.871E+06    -348.831E+03    -107.674E-03     217.737E-03    -110.063E-03     93.7952E-03    -112.215E-03     222.422E-03    -109.737E-03     88.5395E-03
             463     806.366E-06     79.0290E-03    -93.6532E+06    -244.428E+06    -91.5609E+06     311.013E+03    -110.272E-03     220.351E-03    -110.079E-03     15.9432E-03    -110.266E-03     219.410E-03    -110.047E-03     15.6175E-03
             464     1.61215E-03     79.0538E-03    -91.1843E+06    -239.706E+06    -83.9331E+06     103.592E+03    -110.253E-03     220.406E-03    -110.153E-03     28.7236E-03    -110.279E-03     219.501E-03    -110.093E-03     28.1047E-03
             465     2.41857E-03     79.0932E-03    -86.9578E+06    -232.603E+06    -73.3405E+06    -37.7458E+03    -110.492E-03     220.654E-03    -110.162E-03     42.3768E-03    -110.571E-03     219.811E-03    -110.066E-03     41.4334E-03
             466     3.22507E-03     79.1479E-03    -81.4674E+06    -223.072E+06    -59.8618E+06     125.490E+03    -110.784E-03     220.976E-03    -110.192E-03     55.9064E-03    -110.941E-03     220.225E-03    -110.049E-03     54.6131E-03
             467     4.03091E-03     79.2176E-03    -75.7414E+06    -213.118E+06    -45.9578E+06     100.374E+03    -111.161E-03     221.386E-03    -110.225E-03     69.0515E-03    -111.424E-03     220.757E-03    -110.036E-03     67.3669E-03
             468     4.83754E-03     79.3019E-03    -70.1168E+06    -197.835E+06    -35.4023E+06     149.220E+03    -111.553E-03     221.787E-03    -110.234E-03     81.9597E-03    -111.960E-03     221.346E-03    -110.023E-03     79.8420E-03
             469     5.64354E-03     79.4000E-03    -64.1745E+06    -182.441E+06    -24.7838E+06     307.756E+03    -111.962E-03     222.202E-03    -110.240E-03     94.4687E-03    -112.554E-03     221.990E-03    -110.006E-03     91.8676E-03
             470     6.45019E-03     79.5121E-03    -58.7121E+06    -168.134E+06    -15.2200E+06     59.8096E+03    -112.421E-03     222.662E-03    -110.241E-03     106.658E-03    -113.251E-03     222.731E-03    -109.989E-03     103.510E-03
             471     7.25650E-03     79.6369E-03    -53.7611E+06    -150.478E+06    -9.36902E+06    -73.8537E+03    -112.829E-03     223.049E-03    -110.220E-03     118.410E-03    -113.965E-03     223.487E-03    -109.971E-03     114.649E-03
             472     8.06258E-03     79.7741E-03    -49.1760E+06    -128.799E+06    -4.57240E+06     211.044E+03    -113.169E-03     223.353E-03    -110.185E-03     129.773E-03    -114.695E-03     224.261E-03    -109.949E-03     125.344E-03
             473     8.86968E-03     79.9238E-03    -44.8877E+06    -102.684E+06     719.689E+03     199.898E+03    -113.424E-03     223.566E-03    -110.143E-03     140.449E-03    -115.450E-03     225.067E-03    -109.925E-03     135.275E-03
             474     9.67548E-03     80.0840E-03    -41.1010E+06    -69.4449E+06     4.53763E+06         695.016    -113.509E-03     223.591E-03    -110.082E-03     150.125E-03    -116.164E-03     225.841E-03    -109.899E-03     144.143E-03
             475     10.4835E-03     80.2539E-03    -37.5537E+06    -21.6962E+06     11.4480E+06     125.779E+03    -113.514E-03     223.531E-03    -110.017E-03     160.220E-03    -117.016E-03     226.790E-03    -109.874E-03     153.341E-03
             476     11.2882E-03     80.4357E-03    -34.2543E+06     45.1677E+06     18.6276E+06     528.453E+03    -113.589E-03     223.517E-03    -109.927E-03     173.978E-03    -118.299E-03     228.211E-03    -109.850E-03     166.094E-03
             477     12.0971E-03     80.6356E-03    -30.2436E+06     93.8106E+06     37.1475E+06    -160.637E+03    -113.565E-03     223.481E-03    -109.916E-03     191.161E-03    -119.910E-03     229.944E-03    -109.822E-03     182.220E-03
             478     12.9010E-03     80.8540E-03    -24.3168E+06     108.296E+06     71.2018E+06    -590.907E+03    -112.971E-03     222.996E-03    -110.025E-03     198.829E-03    -120.709E-03     230.826E-03    -109.791E-03     189.385E-03
             479     13.7110E-03     81.0721E-03    -17.2082E+06     118.333E+06     95.3517E+06     759.159E+03    -110.853E-03     220.940E-03    -110.087E-03     180.310E-03    -118.563E-03     228.733E-03    -109.757E-03     171.632E-03
             480     14.5155E-03     81.2474E-03    -10.5207E+06     128.611E+06     104.781E+06     987.286E+03    -108.901E-03     218.967E-03    -110.067E-03     161.748E-03    -116.344E-03     226.526E-03    -109.714E-03     154.154E-03
             481     15.3271E-03     81.4222E-03    -5.63413E+06     128.890E+06     101.694E+06    -88.5168E+03    -108.518E-03     218.526E-03    -110.009E-03     93.1755E-03    -113.088E-03     223.239E-03    -109.679E-03     87.9287E-03
             482     805.882E-06     80.2104E-03    -93.5147E+06    -244.830E+06    -91.9712E+06     145.474E+03    -110.211E-03     220.266E-03    -110.055E-03     15.6267E-03    -110.203E-03     219.324E-03    -110.024E-03     15.2986E-03
             483     1.61258E-03     80.2339E-03    -90.8562E+06    -239.700E+06    -84.0333E+06     17.8703E+03    -110.224E-03     220.337E-03    -110.113E-03     28.7529E-03    -110.249E-03     219.432E-03    -110.054E-03     28.1336E-03
             484     2.41879E-03     80.2741E-03    -86.7685E+06    -232.229E+06    -72.7619E+06    -77.2311E+03    -110.523E-03     220.660E-03    -110.137E-03     42.3495E-03    -110.603E-03     219.818E-03    -110.038E-03     41.4062E-03
             485     3.22470E-03     80.3285E-03    -81.8369E+06    -223.236E+06    -59.8175E+06    -48.1874E+03    -110.834E-03     221.017E-03    -110.183E-03     55.7715E-03    -110.992E-03     220.266E-03    -110.040E-03     54.4745E-03
             486     4.03127E-03     80.3987E-03    -76.0478E+06    -213.204E+06    -45.8860E+06     184.211E+03    -111.161E-03     221.385E-03    -110.225E-03     69.1078E-03    -111.425E-03     220.756E-03    -110.035E-03     67.4247E-03
             487     4.83724E-03     80.4824E-03     -69.944E+06    -197.655E+06    -35.1251E+06     106.360E+03    -111.555E-03     221.790E-03    -110.234E-03     81.9740E-03    -111.963E-03     221.349E-03    -110.022E-03     79.8528E-03
             488     5.64386E-03     80.5812E-03    -64.4527E+06    -182.889E+06    -25.2257E+06     172.813E+03    -111.939E-03     222.175E-03    -110.237E-03     94.5245E-03    -112.531E-03     221.963E-03    -110.004E-03     91.9227E-03
             489     6.44995E-03     80.6926E-03    -59.1102E+06    -168.176E+06    -15.3482E+06     354.859E+03    -112.333E-03     222.565E-03    -110.232E-03     106.767E-03    -113.165E-03     222.635E-03    -109.979E-03     103.626E-03
             490     7.25657E-03     80.8179E-03    -54.0776E+06    -150.051E+06    -9.07158E+06     104.633E+03    -112.795E-03     223.001E-03    -110.206E-03     118.505E-03    -113.933E-03     223.440E-03    -109.955E-03     114.749E-03
             491     8.06330E-03     80.9550E-03    -49.3064E+06    -128.869E+06    -4.46303E+06     166.724E+03    -113.201E-03     223.372E-03    -110.171E-03     129.811E-03    -114.730E-03     224.282E-03    -109.935E-03     125.377E-03
             492     8.86920E-03     81.1046E-03    -44.9544E+06    -102.422E+06     721.206E+03     288.001E+03    -113.394E-03     223.523E-03    -110.129E-03     140.459E-03    -115.421E-03     225.025E-03    -109.912E-03     135.289E-03
             493     9.67666E-03     81.2647E-03     -41.056E+06    -69.4427E+06     4.75668E+06     250.817E+03    -113.541E-03     223.613E-03    -110.071E-03     150.181E-03    -116.198E-03     225.863E-03    -109.887E-03     144.200E-03
             494     10.4818E-03     81.4348E-03    -37.5285E+06    -22.7251E+06     11.0169E+06     502.482E+03    -113.602E-03     223.611E-03    -110.009E-03     160.322E-03    -117.106E-03     226.869E-03    -109.867E-03     153.440E-03
             495     11.2901E-03     81.6168E-03    -33.3046E+06     45.7909E+06     19.2095E+06     408.511E+03    -113.490E-03     223.410E-03    -109.920E-03     173.987E-03    -118.194E-03     228.103E-03    -109.843E-03     166.114E-03
             496     12.0948E-03     81.8160E-03    -28.8538E+06     95.3395E+06     39.2335E+06     230.217E+03    -113.503E-03     223.412E-03    -109.909E-03     191.345E-03    -119.841E-03     229.872E-03    -109.809E-03     182.419E-03
             497     12.9043E-03     82.0360E-03    -24.5063E+06     108.502E+06     72.1592E+06    -246.439E+03    -112.905E-03     222.916E-03    -110.011E-03     199.300E-03    -120.648E-03     230.748E-03    -109.772E-03     189.875E-03
             498     13.7084E-03     82.2515E-03    -18.4713E+06     117.399E+06     94.4913E+06    -850.787E+03    -110.683E-03     220.745E-03    -110.062E-03     179.485E-03    -118.393E-03     228.532E-03    -109.733E-03     170.806E-03
             499     14.5192E-03     82.4277E-03    -11.0558E+06     128.132E+06     103.980E+06    -341.599E+03    -109.150E-03     219.200E-03    -110.050E-03     159.334E-03    -116.530E-03     226.693E-03    -109.700E-03     151.723E-03
             500     15.3227E-03     82.6017E-03    -4.65942E+06     129.188E+06     101.588E+06     798.866E+03    -108.344E-03     218.345E-03    -110.001E-03     90.8457E-03    -112.837E-03     222.986E-03    -109.674E-03     85.6293E-03
             501     806.468E-06     81.3903E-03    -93.2791E+06    -244.687E+06    -91.5745E+06    -220.846E+03    -110.129E-03     220.176E-03    -110.048E-03     15.5779E-03    -110.120E-03     219.234E-03    -110.015E-03     15.2436E-03
             502     1.61241E-03     81.4149E-03    -90.5404E+06    -239.746E+06    -84.0219E+06     53.3625E+03    -110.313E-03     220.407E-03    -110.093E-03     28.7312E-03    -110.336E-03     219.501E-03    -110.035E-03     28.1120E-03
             503     2.41855E-03     81.4547E-03    -86.7185E+06    -232.186E+06    -72.4931E+06     209.983E+03    -110.533E-03     220.680E-03    -110.146E-03     42.3272E-03    -110.613E-03     219.837E-03    -110.046E-03     41.3875E-03
             504     3.22495E-03     81.5097E-03    -81.8799E+06    -223.143E+06    -59.4827E+06     18.4750E+03    -110.794E-03     220.983E-03    -110.188E-03     55.8170E-03    -110.954E-03     220.232E-03    -110.043E-03     54.5207E-03
             505     4.03099E-03     81.5790E-03    -76.0470E+06    -213.404E+06    -46.0198E+06     51.4440E+03    -111.142E-03     221.362E-03    -110.221E-03     69.1290E-03    -111.406E-03     220.732E-03    -110.031E-03     67.4437E-03
             506     4.83754E-03     81.6638E-03    -70.2378E+06    -197.806E+06    -35.1165E+06     164.467E+03    -111.486E-03     221.711E-03    -110.225E-03     82.0427E-03    -111.895E-03     221.270E-03    -110.011E-03     79.9254E-03
             507     5.64359E-03     81.7614E-03    -64.4974E+06    -183.028E+06    -25.3225E+06     205.880E+03    -111.888E-03     222.106E-03    -110.218E-03     94.6194E-03    -112.481E-03     221.894E-03    -109.986E-03     92.0180E-03
             508     6.45045E-03     81.8736E-03    -58.9446E+06    -168.291E+06    -15.6075E+06     452.580E+03    -112.339E-03     222.551E-03    -110.211E-03     106.820E-03    -113.170E-03     222.620E-03    -109.960E-03     103.680E-03
             509     7.25676E-03     81.9983E-03    -53.6546E+06    -149.416E+06    -8.37441E+06     401.479E+03    -112.781E-03     222.970E-03    -110.189E-03     118.546E-03    -113.918E-03     223.410E-03    -109.937E-03     114.797E-03
             510     8.06291E-03     82.1361E-03    -48.9404E+06    -129.172E+06    -3.99385E+06     81.2237E+03    -113.160E-03     223.314E-03    -110.154E-03     129.828E-03    -114.689E-03     224.222E-03    -109.915E-03     125.394E-03
             511     8.86994E-03     82.2851E-03    -44.5389E+06    -102.509E+06     862.224E+03     295.469E+03    -113.459E-03     223.572E-03    -110.113E-03     140.440E-03    -115.486E-03     225.074E-03    -109.895E-03     135.266E-03
             512     9.67574E-03     82.4454E-03    -40.5021E+06    -69.3670E+06     5.24887E+06     484.009E+03    -113.637E-03     223.701E-03    -110.064E-03     150.257E-03    -116.295E-03     225.953E-03    -109.878E-03     144.271E-03
             513     10.4835E-03     82.6162E-03    -36.3706E+06    -22.8811E+06     11.6496E+06     375.707E+03    -113.459E-03     223.459E-03    -110.000E-03     160.315E-03    -116.955E-03     226.711E-03    -109.856E-03     153.444E-03
             514     11.2884E-03     82.7972E-03    -32.7913E+06     46.1005E+06     19.9999E+06     364.997E+03    -113.328E-03     223.229E-03    -109.901E-03     174.302E-03    -118.030E-03     227.920E-03    -109.821E-03     166.447E-03
             515     12.0975E-03     82.9972E-03    -29.1156E+06     95.2975E+06     38.9100E+06     674.187E+03    -113.507E-03     223.386E-03    -109.879E-03     191.687E-03    -119.858E-03     229.860E-03    -109.781E-03     182.762E-03
             516     12.9021E-03     83.2161E-03    -23.6265E+06     109.269E+06     72.1466E+06     555.471E+03    -112.859E-03     222.840E-03    -109.981E-03     199.100E-03    -120.595E-03     230.670E-03    -109.744E-03     189.696E-03
             517     13.7117E-03     83.4334E-03    -17.7178E+06     118.561E+06     95.7514E+06    -78.8903E+03    -111.044E-03     221.092E-03    -110.048E-03     179.898E-03    -118.759E-03     228.887E-03    -109.715E-03     171.218E-03
             518     14.5140E-03     83.6080E-03    -12.7621E+06     126.605E+06     102.509E+06     178.643E+03    -109.354E-03     219.394E-03    -110.040E-03     161.579E-03    -116.766E-03     226.913E-03    -109.693E-03     153.953E-03
             519     15.3220E-03     83.7854E-03    -5.14205E+06     128.524E+06     100.797E+06    -17.5399E+03    -107.658E-03     217.630E-03    -109.972E-03     93.1117E-03    -112.172E-03     222.290E-03    -109.647E-03     87.8951E-03
             520     806.131E-06     82.5707E-03    -93.6074E+06    -244.858E+06    -91.1984E+06     192.663E+03    -110.280E-03     220.194E-03    -109.914E-03     15.5147E-03    -110.274E-03     219.251E-03    -109.879E-03     15.1853E-03
             521     1.61242E-03     82.5960E-03    -90.7508E+06    -239.669E+06    -83.3621E+06     117.353E+03    -110.348E-03     220.458E-03    -110.111E-03     28.8526E-03    -110.373E-03     219.552E-03    -110.048E-03     28.2354E-03
             522     2.41860E-03     82.6353E-03    -86.5028E+06    -232.445E+06    -72.7502E+06     57.3807E+03    -110.484E-03     220.638E-03    -110.154E-03     42.3303E-03    -110.562E-03     219.795E-03    -110.055E-03     41.3883E-03
             523     3.22485E-03     82.6904E-03    -81.4323E+06    -223.050E+06    -59.3476E+06     327.635E+03    -110.745E-03     220.926E-03    -110.181E-03     55.9033E-03    -110.903E-03     220.175E-03    -110.036E-03     54.6122E-03
             524     4.03122E-03     82.7600E-03    -75.8489E+06    -213.180E+06    -45.5307E+06     154.691E+03    -111.077E-03     221.281E-03    -110.205E-03     69.1912E-03    -111.341E-03     220.652E-03    -110.013E-03     67.5084E-03
             525     4.83740E-03     82.8442E-03    -70.0627E+06    -197.752E+06    -34.9461E+06     271.833E+03    -111.425E-03     221.624E-03    -110.199E-03     82.1105E-03    -111.833E-03     221.183E-03    -109.985E-03     79.9966E-03
             526     5.64430E-03     82.9423E-03    -64.3594E+06    -182.984E+06    -25.2153E+06     196.239E+03    -111.913E-03     222.106E-03    -110.193E-03     94.6310E-03    -112.506E-03     221.894E-03    -109.960E-03     92.0281E-03
             527     6.45021E-03     83.0543E-03    -58.6122E+06    -168.487E+06    -15.5793E+06     351.017E+03    -112.354E-03     222.546E-03    -110.192E-03     106.731E-03    -113.183E-03     222.613E-03    -109.940E-03     103.589E-03
             528     7.25678E-03     83.1791E-03    -53.5096E+06    -149.847E+06    -8.44708E+06     514.467E+03    -112.740E-03     222.911E-03    -110.171E-03     118.607E-03    -113.877E-03     223.350E-03    -109.918E-03     114.861E-03
             529     8.06361E-03     83.3168E-03    -48.8649E+06    -128.643E+06    -3.49693E+06     280.524E+03    -113.161E-03     223.297E-03    -110.136E-03     129.842E-03    -114.690E-03     224.206E-03    -109.896E-03     125.414E-03
             530     8.86968E-03     83.4658E-03    -44.8014E+06    -102.927E+06     849.803E+03     388.455E+03    -113.496E-03     223.594E-03    -110.098E-03     140.476E-03    -115.525E-03     225.095E-03    -109.879E-03     135.299E-03
             531     9.67662E-03     83.6268E-03    -40.9156E+06    -69.6599E+06     4.94710E+06     261.439E+03    -113.548E-03     223.593E-03    -110.046E-03     150.487E-03    -116.207E-03     225.846E-03    -109.861E-03     144.506E-03
             532     10.4819E-03     83.7963E-03    -37.2805E+06    -22.2766E+06     11.6919E+06     32.7495E+03    -113.318E-03     223.293E-03    -109.975E-03     160.432E-03    -116.818E-03     226.548E-03    -109.830E-03     153.572E-03
             533     11.2911E-03     83.9778E-03    -33.5549E+06     45.7158E+06     19.2690E+06     524.472E+03    -113.342E-03     223.212E-03    -109.871E-03     174.267E-03    -118.046E-03     227.904E-03    -109.792E-03     166.412E-03
             534     12.0959E-03     84.1780E-03    -29.0581E+06     95.3204E+06     38.6935E+06     540.174E+03    -113.456E-03     223.307E-03    -109.851E-03     191.562E-03    -119.802E-03     229.776E-03    -109.753E-03     182.647E-03
             535     12.9046E-03     84.3977E-03    -23.9809E+06     109.203E+06     72.2281E+06     496.665E+03    -112.782E-03     222.734E-03    -109.952E-03     199.178E-03    -120.523E-03     230.568E-03    -109.714E-03     189.783E-03
             536     13.7094E-03     84.6126E-03    -18.2289E+06     117.742E+06     95.0291E+06     1.47303E+06    -110.438E-03     220.434E-03    -109.996E-03     180.763E-03    -118.143E-03     228.217E-03    -109.665E-03     172.157E-03
             537     14.5199E-03     84.7927E-03    -10.7746E+06     128.557E+06     104.737E+06     825.032E+03    -108.194E-03     218.139E-03    -109.945E-03     162.015E-03    -115.601E-03     225.661E-03    -109.592E-03     154.508E-03
             538     15.3293E-03     84.9601E-03    -4.89421E+06     130.046E+06     102.753E+06    -660.126E+03    -109.226E-03     219.118E-03    -109.893E-03     93.3620E-03    -113.767E-03     223.806E-03    -109.560E-03     88.1071E-03
             539     806.337E-06     83.7520E-03    -92.9317E+06    -244.881E+06    -91.4391E+06     208.303E+03    -110.273E-03     220.265E-03    -109.992E-03     15.7515E-03    -110.263E-03     219.321E-03    -109.959E-03     15.4245E-03
             540     1.61238E-03     83.7763E-03    -90.4535E+06    -239.819E+06    -83.5010E+06     199.978E+03    -110.261E-03     220.380E-03    -110.119E-03     28.8290E-03    -110.284E-03     219.473E-03    -110.058E-03     28.2125E-03
             541     2.41863E-03     83.8164E-03    -86.3666E+06    -232.377E+06    -72.4298E+06     162.397E+03    -110.444E-03     220.581E-03    -110.137E-03     42.3772E-03    -110.522E-03     219.738E-03    -110.037E-03     41.4369E-03
             542     3.22492E-03     83.8707E-03    -81.2961E+06    -223.298E+06    -59.4952E+06     166.166E+03    -110.705E-03     220.861E-03    -110.156E-03     55.9852E-03    -110.861E-03     220.108E-03    -110.012E-03     54.6929E-03
             543     4.03129E-03     83.9409E-03    -75.6713E+06    -213.293E+06    -45.5157E+06     440.058E+03    -111.025E-03     221.200E-03    -110.175E-03     69.1561E-03    -111.288E-03     220.569E-03    -109.984E-03     67.4785E-03
             544     4.83795E-03     84.0245E-03    -69.7791E+06    -197.630E+06    -34.6947E+06     340.454E+03    -111.479E-03     221.654E-03    -110.175E-03     82.0351E-03    -111.886E-03     221.212E-03    -109.961E-03     79.9197E-03
             545     5.64382E-03     84.1233E-03    -64.1040E+06    -182.733E+06    -24.8978E+06     274.473E+03    -111.900E-03     222.076E-03    -110.176E-03     94.5870E-03    -112.491E-03     221.863E-03    -109.942E-03     91.9876E-03
             546     6.45059E-03     84.2348E-03    -58.8275E+06    -169.065E+06    -15.4780E+06     327.430E+03    -112.308E-03     222.482E-03    -110.174E-03     106.746E-03    -113.137E-03     222.547E-03    -109.921E-03     103.605E-03
             547     7.25710E-03     84.3597E-03    -53.5160E+06    -150.303E+06    -8.56221E+06     464.751E+03    -112.762E-03     222.915E-03    -110.152E-03     118.589E-03    -113.897E-03     223.351E-03    -109.899E-03     114.843E-03
             548     8.06329E-03     84.4974E-03    -49.0211E+06    -128.203E+06    -3.32808E+06     769.372E+03    -113.140E-03     223.260E-03    -110.120E-03     129.859E-03    -114.669E-03     224.169E-03    -109.879E-03     125.441E-03
             549     8.87001E-03     84.6469E-03    -44.9928E+06    -102.797E+06     1.27581E+06     732.348E+03    -113.379E-03     223.457E-03    -110.078E-03     140.653E-03    -115.411E-03     224.961E-03    -109.858E-03     135.485E-03
             550     9.67626E-03     84.8070E-03    -41.4523E+06    -69.4342E+06     5.03519E+06     636.211E+03    -113.404E-03     223.419E-03    -110.016E-03     150.434E-03    -116.065E-03     225.672E-03    -109.830E-03     144.468E-03
             551     10.4847E-03     84.9773E-03    -38.1842E+06    -21.7309E+06     11.7576E+06     520.528E+03    -113.438E-03     223.386E-03    -109.947E-03     160.264E-03    -116.945E-03     226.646E-03    -109.802E-03     153.398E-03
             552     11.2889E-03     85.1582E-03    -34.3532E+06     45.6268E+06     19.3262E+06    -223.892E+03    -113.498E-03     223.355E-03    -109.857E-03     174.060E-03    -118.213E-03     228.054E-03    -109.777E-03     166.174E-03
             553     12.0975E-03     85.3590E-03    -29.9400E+06     94.6204E+06     38.4101E+06      25.105E+03    -113.299E-03     223.139E-03    -109.840E-03     191.156E-03    -119.636E-03     229.595E-03    -109.742E-03     182.247E-03
             554     12.9035E-03     85.5770E-03    -24.7082E+06     108.512E+06     71.4597E+06     1.04426E+06    -112.579E-03     222.509E-03    -109.931E-03     198.881E-03    -120.308E-03     230.329E-03    -109.695E-03     189.508E-03
             555     13.7123E-03     85.7955E-03    -17.5969E+06     118.442E+06     95.4118E+06     158.700E+03    -110.471E-03     220.450E-03    -109.978E-03     178.449E-03    -118.138E-03     228.198E-03    -109.647E-03     169.807E-03
             556     14.5196E-03     85.9660E-03    -10.0369E+06     129.768E+06     105.715E+06    -895.743E+03    -109.144E-03     219.118E-03    -109.975E-03     156.996E-03    -116.496E-03     226.589E-03    -109.620E-03     149.357E-03
             557     15.3248E-03     86.1457E-03    -5.48405E+06     129.830E+06     102.129E+06     375.073E+03    -109.693E-03     219.665E-03    -109.972E-03     91.4556E-03    -114.222E-03     224.339E-03    -109.641E-03     86.1366E-03
             558     805.988E-06     84.9324E-03    -92.7083E+06    -244.766E+06    -91.0525E+06     139.073E+03    -110.182E-03     220.228E-03    -110.046E-03     15.9431E-03    -110.171E-03     219.284E-03    -110.012E-03     15.6170E-03
             559     1.61239E-03     84.9573E-03    -90.0353E+06    -239.886E+06    -83.5623E+06    -22.6034E+03    -110.214E-03     220.306E-03    -110.093E-03     28.8302E-03    -110.235E-03     219.399E-03    -110.032E-03     28.2102E-03
             560     2.41881E-03     84.9965E-03    -86.2433E+06    -232.670E+06    -72.6756E+06     248.410E+03    -110.400E-03     220.502E-03    -110.102E-03     42.4121E-03    -110.477E-03     219.658E-03    -110.003E-03     41.4736E-03
             561     3.22509E-03     85.0518E-03    -81.3774E+06    -223.411E+06    -59.4281E+06     428.244E+03    -110.702E-03     220.827E-03    -110.125E-03     55.9029E-03    -110.859E-03     220.074E-03    -109.980E-03     54.6136E-03
             562     4.03151E-03     85.1209E-03    -75.7103E+06    -213.527E+06    -45.5819E+06     470.962E+03    -111.086E-03     221.242E-03    -110.156E-03     69.0970E-03    -111.349E-03     220.610E-03    -109.964E-03     67.4187E-03
             563     4.83752E-03     85.2057E-03    -69.7860E+06    -197.762E+06    -34.7297E+06     449.937E+03    -111.449E-03     221.612E-03    -110.162E-03     82.0255E-03    -111.856E-03     221.169E-03    -109.948E-03     79.9132E-03
             564     5.64429E-03     85.3037E-03    -64.2265E+06    -182.737E+06    -24.8231E+06     498.242E+03    -111.829E-03     221.987E-03    -110.159E-03     94.6137E-03    -112.421E-03     221.775E-03    -109.925E-03     92.0195E-03
             565     6.45068E-03     85.4154E-03    -58.8363E+06    -169.329E+06    -15.3234E+06     417.788E+03    -112.329E-03     222.485E-03    -110.156E-03     106.772E-03    -113.158E-03     222.549E-03    -109.902E-03     103.630E-03
             566     7.25697E-03     85.5406E-03    -53.9381E+06    -150.580E+06    -8.50204E+06     668.622E+03    -112.749E-03     222.886E-03    -110.137E-03     118.560E-03    -113.885E-03     223.321E-03    -109.883E-03     114.818E-03
             567     8.06369E-03     85.6779E-03    -49.2658E+06    -128.338E+06    -3.16904E+06     1.04219E+06    -113.073E-03     223.175E-03    -110.102E-03     129.947E-03    -114.605E-03     224.086E-03    -109.861E-03     125.533E-03
             568     8.87030E-03     85.8274E-03    -45.0169E+06    -102.650E+06     1.76131E+06     1.10381E+06    -113.351E-03     223.410E-03    -110.060E-03     140.463E-03    -115.383E-03     224.913E-03    -109.837E-03     135.300E-03
             569     9.67739E-03     85.9878E-03    -41.0740E+06    -68.7497E+06     5.80170E+06     1.21923E+06    -113.486E-03     223.490E-03    -110.003E-03     149.964E-03    -116.146E-03     225.742E-03    -109.815E-03     143.997E-03
             570     10.4823E-03     86.1574E-03    -37.0394E+06    -21.1103E+06     12.7162E+06     933.513E+03    -113.511E-03     223.455E-03    -109.944E-03     160.158E-03    -117.018E-03     226.719E-03    -109.796E-03     153.285E-03
             571     11.2910E-03     86.3402E-03    -33.7669E+06     46.1250E+06     20.4988E+06     732.431E+03    -113.487E-03     223.346E-03    -109.860E-03     173.816E-03    -118.200E-03     228.045E-03    -109.775E-03     165.940E-03
             572     12.0962E-03     86.5383E-03    -30.6046E+06     94.2340E+06     38.1356E+06     264.929E+03    -113.488E-03     223.335E-03    -109.848E-03     190.656E-03    -119.835E-03     229.798E-03    -109.749E-03     181.719E-03
             573     12.9043E-03     86.7585E-03    -24.4210E+06     108.743E+06     71.4569E+06    -881.481E+03    -113.020E-03     222.981E-03    -109.962E-03     197.889E-03    -120.747E-03     230.801E-03    -109.727E-03     188.432E-03
             574     13.7103E-03     86.9737E-03    -17.0268E+06     119.370E+06     96.2998E+06    -1.05341E+06    -111.382E-03     221.439E-03    -110.057E-03     177.375E-03    -119.044E-03     229.185E-03    -109.724E-03     168.636E-03
             575     14.5140E-03     87.1518E-03    -11.1324E+06     129.160E+06     104.684E+06    -2.42384E+03    -110.528E-03     220.635E-03    -110.106E-03     159.379E-03    -117.952E-03     228.174E-03    -109.754E-03     151.619E-03
             576     15.3191E-03     87.3247E-03    -5.89566E+06     129.407E+06     100.792E+06     1.10146E+06    -108.345E-03     218.432E-03    -110.087E-03     93.8061E-03    -112.931E-03     223.165E-03    -109.762E-03     88.5051E-03
             577     806.482E-06     86.1137E-03    -92.9822E+06    -244.940E+06    -90.8658E+06    -57.3154E+03    -110.109E-03     220.185E-03    -110.076E-03     15.6802E-03    -110.099E-03     219.239E-03    -110.040E-03     15.3488E-03
             578     1.61259E-03     86.1373E-03    -90.2053E+06    -239.937E+06    -83.2835E+06     90.7070E+03    -110.178E-03     220.249E-03    -110.071E-03     28.6918E-03    -110.200E-03     219.341E-03    -110.009E-03     28.0739E-03
             579     2.41874E-03     86.1776E-03    -86.3026E+06    -232.940E+06    -72.7565E+06     209.705E+03    -110.396E-03     220.476E-03    -110.080E-03     42.3343E-03    -110.473E-03     219.630E-03    -109.981E-03     41.3948E-03
             580     3.22517E-03     86.2318E-03    -81.2256E+06    -223.744E+06    -59.5121E+06     470.196E+03    -110.715E-03     220.824E-03    -110.109E-03     55.8874E-03    -110.870E-03     220.069E-03    -109.964E-03     54.5989E-03
             581     4.03131E-03     86.3022E-03    -75.4395E+06    -213.607E+06    -45.3707E+06     598.837E+03    -111.053E-03     221.196E-03    -110.142E-03     69.1547E-03    -111.315E-03     220.563E-03    -109.950E-03     67.4786E-03
             582     4.83791E-03     86.3859E-03    -69.7105E+06    -197.929E+06    -34.8099E+06     595.151E+03    -111.398E-03     221.540E-03    -110.143E-03     82.0674E-03    -111.804E-03     221.097E-03    -109.929E-03     79.9580E-03
             583     5.64433E-03     86.4842E-03    -64.0452E+06    -182.835E+06    -24.9574E+06     711.991E+03    -111.878E-03     222.019E-03    -110.140E-03     94.5816E-03    -112.470E-03     221.806E-03    -109.907E-03     91.9868E-03
             584     6.45066E-03     86.5963E-03    -58.7390E+06    -169.138E+06    -15.0138E+06     774.018E+03    -112.336E-03     222.482E-03    -110.146E-03     106.715E-03    -113.165E-03     222.546E-03    -109.891E-03     103.577E-03
             585     7.25728E-03     86.7210E-03    -53.5403E+06    -150.769E+06    -7.83056E+06     989.390E+03    -112.712E-03     222.841E-03    -110.129E-03     118.404E-03    -113.848E-03     223.274E-03    -109.872E-03     114.663E-03
             586     8.06382E-03     86.8584E-03    -48.8495E+06    -129.170E+06    -2.87318E+06     1.29720E+06    -113.110E-03     223.206E-03    -110.096E-03     129.705E-03    -114.639E-03     224.112E-03    -109.852E-03     125.289E-03
             587     8.87023E-03     87.0082E-03    -44.5464E+06    -102.873E+06     2.12140E+06     1.40915E+06    -113.437E-03     223.497E-03    -110.060E-03     140.258E-03    -115.466E-03     224.997E-03    -109.836E-03     135.094E-03
             588     9.67616E-03     87.1681E-03    -40.4622E+06    -68.6130E+06     6.25559E+06     1.32749E+06    -113.589E-03     223.601E-03    -110.012E-03     149.932E-03    -116.248E-03     225.855E-03    -109.823E-03     143.958E-03
             589     10.4843E-03     87.3389E-03    -37.0473E+06    -21.0918E+06     12.9366E+06     1.29555E+06    -113.529E-03     223.487E-03    -109.958E-03     160.073E-03    -117.038E-03     226.752E-03    -109.809E-03     153.202E-03
             590     11.2891E-03     87.5199E-03    -33.2946E+06     46.5360E+06     20.0581E+06     1.47440E+06    -113.493E-03     223.363E-03    -109.870E-03     173.533E-03    -118.198E-03     228.057E-03    -109.789E-03     165.670E-03
             591     12.0972E-03     87.7203E-03    -28.1486E+06     96.5072E+06     40.2451E+06     387.021E+03    -113.793E-03     223.668E-03    -109.875E-03     190.651E-03    -120.139E-03     230.140E-03    -109.773E-03     181.689E-03
             592     12.9023E-03     87.9385E-03    -23.1972E+06     110.278E+06     74.1991E+06    -707.638E+03    -113.368E-03     223.378E-03    -110.011E-03     198.840E-03    -121.113E-03     231.218E-03    -109.766E-03     189.363E-03
             593     13.7078E-03     88.1576E-03    -18.5330E+06     118.086E+06     95.0923E+06    -94.8060E+03    -111.448E-03     221.542E-03    -110.094E-03     180.247E-03    -119.169E-03     229.341E-03    -109.763E-03     171.517E-03
             594     14.5174E-03     88.3307E-03    -13.1165E+06     126.992E+06     102.095E+06     1.22479E+06    -109.793E-03     219.896E-03    -110.104E-03     162.744E-03    -117.250E-03     227.462E-03    -109.759E-03     155.078E-03
             595     15.3234E-03     88.5132E-03    -5.57709E+06     129.656E+06     100.771E+06     228.544E+03    -107.676E-03     217.718E-03    -110.042E-03     93.0000E-03    -112.231E-03     222.421E-03    -109.718E-03     87.7774E-03
             596     805.819E-06     87.2930E-03    -92.6576E+06    -245.045E+06    -91.1157E+06    -107.957E+03    -110.126E-03     220.216E-03    -110.090E-03     15.3871E-03    -110.114E-03     219.270E-03    -110.056E-03     15.0504E-03
             597     1.61240E-03     87.3187E-03    -90.5306E+06    -240.166E+06    -83.2669E+06     350.425E+03    -110.099E-03     220.168E-03    -110.070E-03     28.7211E-03    -110.122E-03     219.259E-03    -110.006E-03     28.1074E-03
             598     2.41888E-03     87.3573E-03    -86.5329E+06    -233.013E+06    -72.4395E+06     204.935E+03    -110.410E-03     220.476E-03    -110.065E-03     42.4682E-03    -110.488E-03     219.629E-03    -109.964E-03     41.5291E-03
             599     3.22507E-03     87.4131E-03    -81.2776E+06    -224.152E+06    -59.8659E+06     201.278E+03    -110.704E-03     220.799E-03    -110.096E-03     55.9245E-03    -110.858E-03     220.043E-03    -109.952E-03     54.6321E-03
             600     4.03159E-03     87.4822E-03    -75.4587E+06    -214.121E+06    -45.9351E+06     527.705E+03    -110.989E-03     221.113E-03    -110.123E-03     69.0922E-03    -111.250E-03     220.478E-03    -109.933E-03     67.4155E-03
             601     4.83805E-03     87.5666E-03    -69.5314E+06    -197.991E+06    -34.8038E+06     751.705E+03    -111.472E-03     221.601E-03    -110.129E-03     81.9808E-03    -111.878E-03     221.158E-03    -109.915E-03     79.8701E-03
             602     5.64424E-03     87.6649E-03    -63.9574E+06    -182.930E+06    -25.0244E+06     717.071E+03    -111.926E-03     222.064E-03    -110.138E-03     94.4731E-03    -112.517E-03     221.851E-03    -109.905E-03     91.8753E-03
             603     6.45075E-03     87.7767E-03    -58.4197E+06    -169.100E+06    -14.7783E+06     1.08788E+06    -112.316E-03     222.463E-03    -110.148E-03     106.586E-03    -113.144E-03     222.527E-03    -109.892E-03     103.452E-03
             604     7.25718E-03     87.9016E-03    -53.4846E+06    -151.064E+06    -7.44094E+06     1.39689E+06    -112.780E-03     222.915E-03    -110.136E-03     118.278E-03    -113.916E-03     223.347E-03    -109.876E-03     114.538E-03
             605     8.06348E-03     88.0392E-03    -48.7803E+06    -129.831E+06    -2.68614E+06     1.37796E+06    -113.173E-03     223.282E-03    -110.109E-03     129.609E-03    -114.702E-03     224.185E-03    -109.863E-03     125.189E-03
             606     8.87012E-03     88.1886E-03    -44.2966E+06    -103.298E+06     2.17675E+06     1.47496E+06    -113.425E-03     223.498E-03    -110.074E-03     140.281E-03    -115.451E-03     224.994E-03    -109.849E-03     135.122E-03
             607     9.67716E-03     88.3494E-03    -40.4449E+06    -68.9639E+06     6.35480E+06     1.56435E+06    -113.608E-03     223.633E-03    -110.025E-03     150.048E-03    -116.269E-03     225.886E-03    -109.834E-03     144.077E-03
             608     10.4821E-03     88.5190E-03    -36.3752E+06    -21.2675E+06     13.2971E+06     1.46252E+06    -113.570E-03     223.541E-03    -109.970E-03     160.133E-03    -117.074E-03     226.801E-03    -109.820E-03     153.268E-03
             609     11.2903E-03     88.7016E-03    -31.7297E+06     47.8464E+06     21.9489E+06     629.969E+03    -113.572E-03     223.461E-03    -109.889E-03     173.920E-03    -118.277E-03     228.159E-03    -109.802E-03     166.046E-03
             610     12.0958E-03     88.9001E-03    -27.6150E+06     97.4269E+06     41.5516E+06     579.345E+03    -113.664E-03     223.550E-03    -109.885E-03     191.562E-03    -120.010E-03     230.023E-03    -109.779E-03     182.629E-03
             611     12.9030E-03     89.1221E-03    -23.5388E+06     109.952E+06     73.6933E+06     1.82228E+06    -112.838E-03     222.826E-03    -109.988E-03     199.652E-03    -120.569E-03     230.649E-03    -109.744E-03     190.279E-03
             612     13.7124E-03     89.3356E-03    -18.5538E+06     118.082E+06     94.8463E+06     2.01104E+06    -111.053E-03     221.092E-03    -110.039E-03     181.505E-03    -118.800E-03     228.917E-03    -109.709E-03     172.840E-03
             613     14.5149E-03     89.5173E-03    -12.3374E+06     127.690E+06     102.641E+06     705.332E+03    -108.940E-03     218.957E-03    -110.017E-03     162.136E-03    -116.369E-03     226.498E-03    -109.671E-03     154.547E-03
             614     15.3247E-03     89.6853E-03    -4.89755E+06     130.442E+06     101.671E+06    -1.02560E+06    -108.134E-03     218.088E-03    -109.954E-03     91.8023E-03    -112.635E-03     222.740E-03    -109.628E-03     86.5934E-03
             615     806.444E-06     88.4753E-03    -92.9636E+06    -245.484E+06    -91.4568E+06    -185.901E+03    -110.044E-03     219.980E-03    -109.936E-03     15.5742E-03    -110.033E-03     219.033E-03    -109.903E-03     15.2392E-03
             616     1.61263E-03     88.4977E-03    -90.4661E+06    -240.600E+06    -83.8056E+06     272.063E+03    -110.229E-03     220.227E-03    -109.998E-03     28.8411E-03    -110.251E-03     219.317E-03    -109.937E-03     28.2251E-03
             617     2.41897E-03     88.5389E-03    -86.5143E+06    -232.913E+06    -72.2395E+06     421.068E+03    -110.434E-03     220.486E-03    -110.052E-03     42.4908E-03    -110.513E-03     219.640E-03    -109.950E-03     41.5544E-03
             618     3.22516E-03     88.5931E-03    -81.5760E+06    -223.971E+06    -59.3473E+06     140.061E+03    -110.687E-03     220.778E-03    -110.091E-03     55.7689E-03    -110.844E-03     220.022E-03    -109.945E-03     54.4747E-03
             619     4.03161E-03     88.6628E-03    -75.7653E+06    -214.788E+06    -46.5726E+06     94.7039E+03    -111.085E-03     221.209E-03    -110.124E-03     69.0002E-03    -111.346E-03     220.573E-03    -109.935E-03     67.3139E-03
             620     4.83776E-03     88.7473E-03    -69.6236E+06    -198.524E+06    -35.4194E+06     699.033E+03    -111.498E-03     221.637E-03    -110.140E-03     81.9262E-03    -111.902E-03     221.192E-03    -109.928E-03     79.8145E-03
             621     5.64425E-03     88.8456E-03    -64.0367E+06    -182.977E+06    -24.9842E+06     958.970E+03    -111.891E-03     222.040E-03    -110.149E-03     94.3803E-03    -112.482E-03     221.827E-03    -109.916E-03     91.7857E-03
             622     6.45063E-03     88.9572E-03    -58.7644E+06    -169.944E+06    -14.9814E+06     1.12734E+06    -112.350E-03     222.508E-03    -110.158E-03     106.564E-03    -113.178E-03     222.568E-03    -109.902E-03     103.430E-03
             623     7.25704E-03     89.0824E-03    -53.1739E+06    -151.874E+06    -7.33915E+06     1.42705E+06    -112.790E-03     222.938E-03    -110.148E-03     118.371E-03    -113.924E-03     223.365E-03    -109.887E-03     114.633E-03
             624     8.06358E-03     89.2198E-03    -48.3299E+06    -129.663E+06    -2.19791E+06     1.58178E+06    -113.174E-03     223.294E-03    -110.120E-03     129.728E-03    -114.702E-03     224.196E-03    -109.873E-03     125.313E-03
             625     8.86991E-03     89.3694E-03    -44.0831E+06    -103.282E+06     2.68166E+06     1.58901E+06    -113.460E-03     223.545E-03    -110.085E-03     140.389E-03    -115.488E-03     225.041E-03    -109.858E-03     135.229E-03
             626     9.67605E-03     89.5296E-03    -39.7690E+06    -69.3734E+06     6.69859E+06     1.55633E+06    -113.548E-03     223.580E-03    -110.032E-03     150.236E-03    -116.203E-03     225.828E-03    -109.840E-03     144.273E-03
             627     10.4840E-03     89.7009E-03    -35.6863E+06    -20.2225E+06     14.0578E+06     1.06879E+06    -113.466E-03     223.436E-03    -109.969E-03     160.353E-03    -116.966E-03     226.696E-03    -109.818E-03     153.496E-03
             628     11.2893E-03     89.8811E-03    -32.4863E+06     48.3101E+06     22.5988E+06     783.495E+03    -113.442E-03     223.321E-03    -109.879E-03     174.440E-03    -118.156E-03     228.026E-03    -109.789E-03     166.578E-03
             629     12.0968E-03     90.0831E-03    -29.4317E+06     95.9057E+06     40.5057E+06     1.78787E+06    -113.412E-03     223.270E-03    -109.858E-03     191.738E-03    -119.763E-03     229.740E-03    -109.752E-03     182.843E-03
             630     12.9046E-03     90.2995E-03    -24.6243E+06     108.976E+06     71.6919E+06     2.33435E+06    -112.985E-03     222.940E-03    -109.955E-03     198.936E-03    -120.735E-03     230.781E-03    -109.718E-03     189.529E-03
             631     13.7091E-03     90.5191E-03    -17.2843E+06     119.322E+06     95.2558E+06     1.61717E+06    -110.532E-03     220.542E-03    -110.010E-03     179.810E-03    -118.245E-03     228.341E-03    -109.682E-03     171.172E-03
             632     14.5207E-03     90.6954E-03    -9.42325E+06     130.701E+06     105.708E+06     80.6306E+03    -108.228E-03     218.200E-03    -109.971E-03     160.179E-03    -115.605E-03     225.701E-03    -109.619E-03     152.657E-03
             633     15.3265E-03     90.8676E-03    -4.77339E+06     130.902E+06     102.460E+06    -281.059E+03    -109.300E-03     219.224E-03    -109.924E-03     93.0419E-03    -113.826E-03     223.900E-03    -109.594E-03     87.7727E-03
             634     806.625E-06     89.6538E-03    -93.4249E+06    -245.699E+06    -91.2839E+06     155.898E+03    -110.109E-03     219.858E-03    -109.749E-03     15.6771E-03    -110.100E-03     218.910E-03    -109.714E-03     15.3512E-03
             635     1.61274E-03     89.6797E-03    -90.5406E+06    -240.815E+06    -83.8973E+06     39.1852E+03    -110.348E-03     220.322E-03    -109.974E-03     28.6726E-03    -110.371E-03     219.411E-03    -109.913E-03     28.0517E-03
             636     2.41861E-03     89.7185E-03    -86.3023E+06    -233.209E+06     -72.735E+06     315.750E+03    -110.453E-03     220.516E-03    -110.063E-03     42.3181E-03    -110.529E-03     219.669E-03    -109.964E-03     41.3792E-03
             637     3.22531E-03     89.7740E-03    -81.2988E+06    -223.717E+06    -58.9344E+06     435.000E+03    -110.716E-03     220.825E-03    -110.109E-03     55.7424E-03    -110.873E-03     220.070E-03    -109.961E-03     54.4524E-03
             638     4.03130E-03     89.8434E-03    -75.7740E+06    -214.454E+06    -45.7159E+06     221.614E+03    -111.141E-03     221.290E-03    -110.149E-03     69.0370E-03    -111.403E-03     220.654E-03    -109.957E-03     67.3516E-03
             639     4.83776E-03     89.9280E-03    -70.1771E+06    -199.321E+06    -36.0680E+06     405.086E+03    -111.457E-03     221.616E-03    -110.158E-03     81.9020E-03    -111.862E-03     221.168E-03    -109.948E-03     79.7863E-03
             640     5.64415E-03     90.0259E-03    -64.4804E+06    -183.722E+06    -25.8037E+06     1.01609E+06    -111.874E-03     222.034E-03    -110.160E-03     94.4698E-03    -112.465E-03     221.819E-03    -109.929E-03     91.8791E-03
             641     6.45055E-03     90.1382E-03    -58.7484E+06    -170.224E+06    -14.9956E+06     985.647E+03    -112.348E-03     222.516E-03    -110.168E-03     106.616E-03    -113.176E-03     222.575E-03    -109.911E-03     103.481E-03
             642     7.25703E-03     90.2628E-03    -53.4473E+06    -152.951E+06    -7.81736E+06     974.303E+03    -112.748E-03     222.901E-03    -110.153E-03     118.432E-03    -113.880E-03     223.323E-03    -109.893E-03     114.691E-03
             643     8.06349E-03     90.4007E-03    -48.2935E+06    -130.118E+06    -2.37976E+06     1.60144E+06    -113.148E-03     223.268E-03    -110.120E-03     129.818E-03    -114.673E-03     224.167E-03    -109.873E-03     125.407E-03
             644     8.87011E-03     90.5500E-03    -43.6788E+06    -102.892E+06     3.06379E+06     1.66151E+06    -113.456E-03     223.540E-03    -110.084E-03     140.542E-03    -115.484E-03     225.039E-03    -109.856E-03     135.383E-03
             645     9.67687E-03     90.7110E-03    -39.7452E+06    -68.9757E+06     7.00936E+06     1.36519E+06    -113.486E-03     223.514E-03    -110.028E-03     150.288E-03    -116.142E-03     225.763E-03    -109.835E-03     144.326E-03
             646     10.4826E-03     90.8802E-03    -36.3935E+06    -20.1575E+06     13.8821E+06     1.63248E+06    -113.342E-03     223.299E-03    -109.957E-03     160.417E-03    -116.846E-03     226.562E-03    -109.806E-03     153.572E-03
             647     11.2905E-03     91.0634E-03    -33.5566E+06     47.4550E+06     21.3181E+06     2.28735E+06    -113.376E-03     223.235E-03    -109.859E-03     174.158E-03    -118.093E-03     227.939E-03    -109.772E-03     166.315E-03
             648     12.0975E-03     91.2614E-03    -29.7995E+06     95.2621E+06     39.2395E+06     2.35570E+06    -113.695E-03     223.543E-03    -109.849E-03     190.946E-03    -120.053E-03     230.020E-03    -109.747E-03     182.016E-03
             649     12.9029E-03     91.4833E-03    -23.9430E+06     109.625E+06     71.9434E+06     1.58886E+06    -113.271E-03     223.243E-03    -109.972E-03     198.672E-03    -121.038E-03     231.106E-03    -109.737E-03     189.214E-03
             650     13.7108E-03     91.6990E-03    -16.7331E+06     121.296E+06     96.4192E+06     236.036E+03    -110.575E-03     220.619E-03    -110.044E-03     178.038E-03    -118.244E-03     228.379E-03    -109.714E-03     169.384E-03
             651     14.5162E-03     91.8720E-03    -10.0387E+06     131.432E+06     105.980E+06    -503.257E+03    -108.942E-03     218.973E-03    -110.031E-03     158.351E-03    -116.297E-03     226.452E-03    -109.677E-03     150.751E-03
             652     15.3251E-03     92.0499E-03    -5.06144E+06     130.479E+06     102.298E+06     996.031E+03    -108.920E-03     218.913E-03    -109.993E-03     92.6514E-03    -113.460E-03     223.602E-03    -109.664E-03     87.3832E-03
             653     806.165E-06     90.8360E-03    -93.0738E+06    -245.641E+06    -91.3764E+06     294.240E+03    -110.246E-03     220.156E-03    -109.910E-03     15.6238E-03    -110.235E-03     219.208E-03    -109.876E-03     15.2964E-03
             654     1.61236E-03     90.8591E-03    -90.5279E+06    -240.635E+06    -83.5631E+06    -13.0675E+03    -110.191E-03     220.253E-03    -110.062E-03     28.7571E-03    -110.213E-03     219.343E-03    -110.000E-03     28.1370E-03
             655     2.41898E-03     90.9002E-03    -86.4723E+06    -233.565E+06    -72.9435E+06    -88.3983E+03    -110.469E-03     220.557E-03    -110.088E-03     42.2985E-03    -110.545E-03     219.708E-03    -109.988E-03     41.3547E-03
             656     3.22485E-03     90.9537E-03    -81.2095E+06    -224.384E+06    -59.7833E+06     460.665E+03    -110.765E-03     220.895E-03    -110.131E-03     55.8363E-03    -110.919E-03     220.138E-03    -109.986E-03     54.5454E-03
             657     4.03145E-03     91.0249E-03    -75.6234E+06    -214.002E+06    -45.0618E+06     784.507E+03    -111.054E-03     221.222E-03    -110.168E-03     69.0922E-03    -111.316E-03     220.587E-03    -109.974E-03     67.4187E-03
             658     4.83761E-03     91.1080E-03    -69.7745E+06    -199.678E+06    -33.8583E+06     489.011E+03    -111.461E-03     221.636E-03    -110.175E-03     81.9734E-03    -111.866E-03     221.183E-03    -109.954E-03     79.8589E-03
             659     5.64415E-03     91.2070E-03    -63.9112E+06    -184.612E+06    -24.4568E+06     908.526E+03    -111.888E-03     222.060E-03    -110.172E-03     94.5445E-03    -112.476E-03     221.837E-03    -109.934E-03     91.9530E-03
             660     6.45053E-03     91.3185E-03    -58.6648E+06    -170.518E+06    -15.1285E+06     1.13557E+06    -112.307E-03     222.477E-03    -110.170E-03     106.680E-03    -113.133E-03     222.534E-03    -109.913E-03     103.549E-03
             661     7.25702E-03     91.4437E-03    -53.7376E+06    -152.800E+06    -7.75720E+06     1.23965E+06    -112.762E-03     222.916E-03    -110.154E-03     118.459E-03    -113.896E-03     223.339E-03    -109.893E-03     114.721E-03
             662     8.06358E-03     91.5810E-03    -49.0844E+06    -130.778E+06    -2.90358E+06     1.18559E+06    -113.136E-03     223.256E-03    -110.120E-03     129.824E-03    -114.664E-03     224.154E-03    -109.874E-03     125.408E-03
             663     8.86999E-03     91.7310E-03    -44.5511E+06    -103.500E+06     2.31892E+06     1.31246E+06    -113.371E-03     223.450E-03    -110.079E-03     140.469E-03    -115.400E-03     224.947E-03    -109.853E-03     135.310E-03
             664     9.67646E-03     91.8910E-03    -40.6028E+06    -68.7621E+06     6.91889E+06     1.82060E+06    -113.444E-03     223.465E-03    -110.021E-03     150.127E-03    -116.105E-03     225.718E-03    -109.828E-03     144.169E-03
             665     10.4839E-03     92.0618E-03    -37.0707E+06    -21.5187E+06     13.2195E+06     2.31557E+06    -113.452E-03     223.407E-03    -109.954E-03     160.202E-03    -116.960E-03     226.668E-03    -109.803E-03     153.352E-03
             666     11.2900E-03     92.2425E-03    -33.1080E+06     46.9339E+06     20.7307E+06     2.94371E+06    -113.673E-03     223.542E-03    -109.870E-03     173.845E-03    -118.389E-03     228.247E-03    -109.786E-03     165.982E-03
             667     12.0959E-03     92.4444E-03    -28.7664E+06     96.1965E+06     39.7479E+06     2.37676E+06    -113.882E-03     223.760E-03    -109.878E-03     191.073E-03    -120.246E-03     230.248E-03    -109.777E-03     182.122E-03
             668     12.9032E-03     92.6628E-03    -23.5240E+06     111.244E+06     73.7206E+06     1.16747E+06    -112.925E-03     222.924E-03    -110.000E-03     198.869E-03    -120.671E-03     230.768E-03    -109.758E-03     189.457E-03
             669     13.7092E-03     92.8807E-03    -17.6827E+06     122.880E+06     97.6901E+06     514.735E+03    -111.305E-03     221.382E-03    -110.078E-03     178.697E-03    -118.992E-03     229.160E-03    -109.742E-03     169.997E-03
             670     14.5168E-03     93.0530E-03    -12.1258E+06     130.927E+06     104.981E+06     511.918E+03    -110.197E-03     220.304E-03    -110.107E-03     160.209E-03    -117.627E-03     227.851E-03    -109.755E-03     152.482E-03
             671     15.3191E-03     93.2336E-03    -5.67615E+06     130.179E+06     101.744E+06     839.527E+03    -107.780E-03     217.844E-03    -110.065E-03     93.6032E-03    -112.348E-03     222.560E-03    -109.737E-03     88.3573E-03
             672     805.879E-06     92.0143E-03    -92.9265E+06    -245.583E+06    -91.2336E+06    -180.940E+03    -110.233E-03     220.288E-03    -110.054E-03     15.8003E-03    -110.223E-03     219.340E-03    -110.020E-03     15.4627E-03
             673     1.61260E-03     92.0411E-03    -90.3346E+06    -240.721E+06    -83.7535E+06     124.072E+03    -110.203E-03     220.318E-03    -110.115E-03     28.8321E-03    -110.224E-03     219.407E-03    -110.054E-03     28.2141E-03
             674     2.41859E-03     92.0794E-03    -86.4981E+06    -233.286E+06    -72.4715E+06     183.299E+03    -110.417E-03     220.535E-03    -110.119E-03     42.3397E-03    -110.494E-03     219.688E-03    -110.017E-03     41.3998E-03
             675     3.22510E-03     92.1358E-03    -81.6388E+06    -224.730E+06    -59.8772E+06     70.6617E+03    -110.719E-03     220.859E-03    -110.140E-03     55.9269E-03    -110.875E-03     220.101E-03    -109.995E-03     54.6324E-03
             676     4.03118E-03     92.2041E-03    -75.6992E+06    -214.920E+06    -46.2871E+06     578.584E+03    -111.039E-03     221.203E-03    -110.163E-03     69.1227E-03    -111.299E-03     220.565E-03    -109.973E-03     67.4467E-03
             677     4.83798E-03     92.2896E-03    -69.8579E+06    -200.066E+06    -34.4266E+06     937.421E+03    -111.447E-03     221.617E-03    -110.170E-03     82.0487E-03    -111.852E-03     221.163E-03    -109.950E-03     79.9424E-03
             678     5.64397E-03     92.3871E-03    -64.4063E+06    -185.245E+06    -25.0859E+06     1.03852E+06    -111.902E-03     222.070E-03    -110.168E-03     94.5530E-03    -112.492E-03     221.846E-03    -109.931E-03     91.9605E-03
             679     6.45067E-03     92.4993E-03    -58.9954E+06    -170.586E+06    -15.3581E+06     1.53777E+06    -112.333E-03     222.502E-03    -110.169E-03     106.666E-03    -113.160E-03     222.559E-03    -109.913E-03     103.539E-03
             680     7.25706E-03     92.6242E-03    -53.8646E+06    -153.115E+06    -7.77470E+06     1.54157E+06    -112.754E-03     222.909E-03    -110.155E-03     118.433E-03    -113.889E-03     223.332E-03    -109.894E-03     114.697E-03
             681     8.06340E-03     92.7619E-03    -49.1389E+06    -130.381E+06    -2.70798E+06     1.31565E+06    -113.141E-03     223.263E-03    -110.122E-03     129.839E-03    -114.671E-03     224.163E-03    -109.875E-03     125.422E-03
             682     8.87011E-03     92.9113E-03    -45.0130E+06    -104.315E+06     2.05779E+06     1.42685E+06    -113.388E-03     223.470E-03    -110.082E-03     140.402E-03    -115.418E-03     224.963E-03    -109.855E-03     135.242E-03
             683     9.67687E-03     93.0721E-03    -41.0881E+06    -70.4046E+06     5.89213E+06     2.09440E+06    -113.508E-03     223.533E-03    -110.025E-03     149.946E-03    -116.167E-03     225.779E-03    -109.834E-03     143.987E-03
             684     10.4829E-03     93.2415E-03    -37.3388E+06    -21.6880E+06     13.0165E+06     2.57137E+06    -113.652E-03     223.622E-03    -109.971E-03     160.169E-03    -117.163E-03     226.886E-03    -109.820E-03     153.308E-03
             685     11.2893E-03     93.4250E-03    -33.5456E+06     46.4318E+06     20.4185E+06     2.44659E+06    -113.733E-03     223.626E-03    -109.893E-03     174.232E-03    -118.456E-03     228.336E-03    -109.810E-03     166.356E-03
             686     12.0966E-03     93.6243E-03    -29.1683E+06     97.0520E+06     40.0857E+06     2.29362E+06    -113.538E-03     223.427E-03    -109.889E-03     191.625E-03    -119.897E-03     229.910E-03    -109.787E-03     182.720E-03
             687     12.9027E-03     93.8450E-03    -24.2840E+06     112.759E+06     74.7713E+06     1.91737E+06    -112.753E-03     222.746E-03    -109.993E-03     199.168E-03    -120.490E-03     230.580E-03    -109.748E-03     189.801E-03
             688     13.7114E-03     94.0593E-03    -18.7595E+06     123.092E+06     97.8810E+06     1.66340E+06    -111.120E-03     221.173E-03    -110.053E-03     181.155E-03    -118.874E-03     229.013E-03    -109.715E-03     172.476E-03
             689     14.5141E-03     94.2411E-03    -12.2995E+06     131.765E+06     105.644E+06     1.33464E+06    -109.820E-03     219.879E-03    -110.059E-03     162.781E-03    -117.326E-03     227.503E-03    -109.704E-03     155.091E-03
             690     15.3257E-03     94.4081E-03    -5.54576E+06     131.390E+06     102.606E+06     137.163E+03    -108.213E-03     218.228E-03    -110.015E-03     93.2258E-03    -112.791E-03     222.956E-03    -109.685E-03     87.9554E-03
             691     806.705E-06     93.1976E-03    -93.0156E+06    -245.710E+06    -91.1625E+06    -31.4680E+03    -110.383E-03     220.246E-03    -109.864E-03     15.8726E-03    -110.372E-03     219.298E-03    -109.828E-03     15.5399E-03
             692     1.61208E-03     93.2202E-03    -90.6167E+06    -240.937E+06    -83.7400E+06     215.542E+03    -110.278E-03     220.393E-03    -110.115E-03     28.7627E-03    -110.301E-03     219.482E-03    -110.053E-03     28.1447E-03
             693     2.41873E-03     93.2613E-03    -86.6392E+06    -233.600E+06    -72.8639E+06     402.908E+03    -110.367E-03     220.493E-03    -110.126E-03     42.4698E-03    -110.444E-03     219.644E-03    -110.026E-03     41.5329E-03
             694     3.22499E-03     93.3151E-03    -81.9890E+06    -224.550E+06    -59.7172E+06     570.626E+03    -110.665E-03     220.799E-03    -110.133E-03     55.9620E-03    -110.823E-03     220.041E-03    -109.987E-03     54.6759E-03
             695     4.03160E-03     93.3859E-03    -76.9240E+06    -215.848E+06    -47.2395E+06     497.643E+03    -111.084E-03     221.238E-03    -110.154E-03     69.1193E-03    -111.347E-03     220.599E-03    -109.966E-03     67.4398E-03
             696     4.83744E-03     93.4692E-03    -71.2012E+06    -200.468E+06    -37.2321E+06     969.157E+03    -111.462E-03     221.620E-03    -110.158E-03     82.0075E-03    -111.868E-03     221.170E-03    -109.950E-03     79.9015E-03
             697     5.64448E-03     93.5684E-03    -65.5798E+06    -185.125E+06    -27.1479E+06     993.636E+03    -111.893E-03     222.053E-03    -110.160E-03     94.4938E-03    -112.486E-03     221.835E-03    -109.932E-03     91.9002E-03
             698     6.45037E-03     93.6797E-03    -59.7888E+06    -171.434E+06    -16.4527E+06     1.13368E+06    -112.353E-03     222.521E-03    -110.168E-03     106.635E-03    -113.183E-03     222.578E-03    -109.915E-03     103.500E-03
             699     7.25695E-03     93.8050E-03    -54.0963E+06    -153.127E+06    -7.96153E+06     1.38358E+06    -112.764E-03     222.923E-03    -110.159E-03     118.445E-03    -113.900E-03     223.346E-03    -109.898E-03     114.707E-03
             700     8.06365E-03     93.9423E-03    -49.2147E+06    -131.095E+06    -3.01990E+06     1.61015E+06    -113.153E-03     223.280E-03    -110.126E-03     129.764E-03    -114.683E-03     224.178E-03    -109.880E-03     125.348E-03
             701     8.86991E-03     94.0924E-03    -45.0540E+06    -105.125E+06     1.65404E+06     1.98906E+06    -113.410E-03     223.497E-03    -110.087E-03     140.292E-03    -115.437E-03     224.987E-03    -109.861E-03     135.139E-03
             702     9.67629E-03     94.2521E-03    -41.3858E+06    -71.4061E+06     5.34982E+06     2.22733E+06    -113.576E-03     223.609E-03    -110.034E-03     150.217E-03    -116.237E-03     225.855E-03    -109.843E-03     144.257E-03
             703     10.4831E-03     94.4235E-03    -37.6880E+06    -22.4858E+06     12.4451E+06     2.59317E+06    -113.632E-03     223.609E-03    -109.977E-03     160.829E-03    -117.151E-03     226.878E-03    -109.827E-03     153.968E-03
             704     11.2897E-03     94.6050E-03    -34.0860E+06     46.7186E+06     20.8170E+06     2.76617E+06    -113.446E-03     223.335E-03    -109.888E-03     174.657E-03    -118.173E-03     228.046E-03    -109.802E-03     166.814E-03
             705     12.0960E-03     94.8059E-03    -30.5695E+06     97.5504E+06     39.5325E+06     2.60446E+06    -113.278E-03     223.138E-03    -109.860E-03     191.833E-03    -119.642E-03     229.626E-03    -109.760E-03     182.957E-03
             706     12.9046E-03     95.0239E-03    -25.4570E+06     113.043E+06     73.3637E+06     2.10051E+06    -112.827E-03     222.782E-03    -109.955E-03     199.533E-03    -120.589E-03     230.642E-03    -109.715E-03     190.147E-03
             707     13.7093E-03     95.2426E-03    -18.5692E+06     123.330E+06     97.8699E+06     1.95402E+06    -110.583E-03     220.593E-03    -110.009E-03     180.439E-03    -118.323E-03     228.420E-03    -109.672E-03     171.813E-03
             708     14.5224E-03     95.4179E-03    -11.6810E+06     133.290E+06     107.043E+06     1.32422E+06    -108.542E-03     218.517E-03    -109.975E-03     161.824E-03    -115.995E-03     226.091E-03    -109.616E-03     154.286E-03
             709     15.3226E-03     95.5969E-03    -5.62233E+06     132.538E+06     103.683E+06    -195.984E+03    -109.009E-03     218.931E-03    -109.922E-03     92.9058E-03    -113.563E-03     223.635E-03    -109.588E-03     87.6483E-03
             710     805.659E-06     94.3764E-03    -94.0215E+06    -246.450E+06    -91.6185E+06     346.078E+03    -110.221E-03     220.168E-03    -109.947E-03     15.8366E-03    -110.214E-03     219.217E-03    -109.911E-03     15.5120E-03
             711     1.61276E-03     94.4023E-03    -91.0441E+06    -241.307E+06    -84.0290E+06     461.442E+03    -110.209E-03     220.280E-03    -110.070E-03     28.8210E-03    -110.233E-03     219.367E-03    -110.009E-03     28.2070E-03
             712     2.41866E-03     94.4406E-03    -87.2475E+06    -234.136E+06    -73.2766E+06     617.882E+03    -110.453E-03     220.547E-03    -110.095E-03     42.4631E-03    -110.532E-03     219.698E-03    -109.995E-03     41.5282E-03
             713     3.22518E-03     94.4966E-03    -82.3990E+06    -225.426E+06    -60.6791E+06     1.06699E+06    -110.714E-03     220.840E-03    -110.126E-03     55.9215E-03    -110.871E-03     220.081E-03    -109.983E-03     54.6403E-03
             714     4.03120E-03     94.5657E-03    -76.6176E+06    -215.283E+06    -46.7013E+06     952.845E+03    -111.070E-03     221.227E-03    -110.156E-03     69.1179E-03    -111.334E-03     220.590E-03    -109.967E-03     67.4445E-03
             715     4.83805E-03     94.6506E-03    -70.6540E+06    -200.866E+06    -34.1492E+06     895.580E+03    -111.500E-03     221.676E-03    -110.176E-03     81.9855E-03    -111.908E-03     221.219E-03    -109.953E-03     79.8764E-03
             716     5.64369E-03     94.7484E-03    -64.7692E+06    -185.362E+06    -23.7693E+06     1.23284E+06    -111.890E-03     222.071E-03    -110.181E-03     94.5439E-03    -112.484E-03     221.846E-03    -109.937E-03     91.9554E-03
             717     6.45074E-03     94.8607E-03    -59.3417E+06    -171.700E+06    -15.5487E+06      887.91E+03    -112.330E-03     222.505E-03    -110.175E-03     106.676E-03    -113.159E-03     222.559E-03    -109.918E-03     103.537E-03
             718     7.25702E-03     94.9854E-03    -54.2351E+06    -154.038E+06    -8.74777E+06     1.34618E+06    -112.798E-03     222.956E-03    -110.158E-03     118.484E-03    -113.932E-03     223.376E-03    -109.900E-03     114.746E-03
             719     8.06318E-03     95.1234E-03    -49.6564E+06    -132.201E+06    -3.81089E+06     1.91125E+06    -113.146E-03     223.273E-03    -110.127E-03     129.878E-03    -114.675E-03     224.168E-03    -109.883E-03     125.468E-03
             720     8.86996E-03     95.2725E-03    -45.4074E+06    -105.698E+06     1.08450E+06     2.26610E+06    -113.362E-03     223.446E-03    -110.085E-03     140.496E-03    -115.390E-03     224.935E-03    -109.860E-03     135.350E-03
             721     9.67671E-03     95.4334E-03    -41.4197E+06    -71.4497E+06     5.39848E+06     2.60931E+06    -113.549E-03     223.577E-03    -110.028E-03     150.568E-03    -116.215E-03     225.827E-03    -109.837E-03     144.612E-03
             722     10.4832E-03     95.6035E-03    -37.9388E+06    -23.7719E+06     11.8515E+06     2.90195E+06    -113.431E-03     223.391E-03    -109.960E-03     160.869E-03    -116.944E-03     226.651E-03    -109.812E-03     154.029E-03
             723     11.2898E-03     95.7868E-03    -34.6049E+06     46.5829E+06     20.0467E+06     3.45008E+06    -113.236E-03     223.092E-03    -109.856E-03     174.503E-03    -117.960E-03     227.800E-03    -109.773E-03     166.688E-03
             724     12.0980E-03     95.9848E-03    -30.4025E+06     98.4890E+06     39.4258E+06     3.13506E+06    -113.367E-03     223.196E-03    -109.828E-03     191.568E-03    -119.737E-03     229.693E-03    -109.730E-03     182.681E-03
             725     12.9033E-03     96.2065E-03    -25.0003E+06     114.035E+06     73.2074E+06     2.30732E+06    -112.898E-03     222.829E-03    -109.931E-03     199.354E-03    -120.677E-03     230.712E-03    -109.694E-03     189.949E-03
             726     13.7125E-03     96.4218E-03    -18.3921E+06     123.577E+06     97.6544E+06     1.33217E+06    -110.823E-03     220.824E-03    -110.001E-03     179.491E-03    -118.548E-03     228.639E-03    -109.665E-03     170.819E-03
             727     14.5135E-03     96.5984E-03    -10.6364E+06     134.712E+06     107.787E+06     572.785E+03    -108.883E-03     218.875E-03    -109.991E-03     159.353E-03    -116.260E-03     226.379E-03    -109.632E-03     151.773E-03
             728     15.3314E-03     96.7716E-03    -5.03518E+06     133.649E+06     104.354E+06     221.734E+03    -109.033E-03     218.989E-03    -109.956E-03     91.3044E-03    -113.542E-03     223.651E-03    -109.621E-03     86.0666E-03
             729     806.816E-06     95.5584E-03    -94.6296E+06    -247.215E+06    -92.7385E+06     367.279E+03    -109.956E-03     220.061E-03    -110.106E-03     15.7153E-03    -109.948E-03     219.110E-03    -110.074E-03     15.3910E-03
             730     1.61240E-03     95.5815E-03    -91.8296E+06    -242.041E+06    -84.9049E+06     579.287E+03    -110.183E-03     220.206E-03    -110.023E-03     28.8089E-03    -110.209E-03     219.292E-03    -109.963E-03     28.1973E-03
             731     2.41899E-03     95.6224E-03    -87.8102E+06    -234.694E+06    -73.8396E+06     871.979E+03    -110.516E-03     220.584E-03    -110.068E-03     42.4708E-03    -110.596E-03     219.733E-03    -109.970E-03     41.5399E-03
             732     3.22482E-03     95.6765E-03    -82.5699E+06    -225.839E+06    -61.1155E+06     646.450E+03    -110.783E-03     220.906E-03    -110.123E-03     55.8821E-03    -110.940E-03     220.145E-03    -109.981E-03     54.5932E-03
             733     4.03160E-03     95.7468E-03    -76.7912E+06    -215.601E+06    -47.1871E+06     980.740E+03    -111.074E-03     221.235E-03    -110.161E-03     69.1562E-03    -111.337E-03     220.597E-03    -109.973E-03     67.4842E-03
             734     4.83737E-03     95.8309E-03    -71.0923E+06    -201.220E+06    -34.5612E+06     1.24819E+06    -111.452E-03     221.629E-03    -110.177E-03     82.0202E-03    -111.861E-03     221.172E-03    -109.955E-03     79.9177E-03
             735     5.64451E-03     95.9293E-03    -65.3816E+06    -186.014E+06    -24.3980E+06     1.31370E+06    -111.885E-03     222.063E-03    -110.177E-03     94.5541E-03    -112.480E-03     221.835E-03    -109.935E-03     91.9673E-03
             736     6.45033E-03     96.0411E-03    -59.9308E+06    -171.552E+06    -15.7005E+06     1.46807E+06    -112.331E-03     222.503E-03    -110.172E-03     106.761E-03    -113.162E-03     222.558E-03    -109.915E-03     103.634E-03
             737     7.25692E-03     96.1663E-03    -55.1054E+06    -155.142E+06    -9.51444E+06     1.50125E+06    -112.750E-03     222.902E-03    -110.152E-03     118.595E-03    -113.887E-03     223.320E-03    -109.895E-03     114.858E-03
             738     8.06373E-03     96.3038E-03    -50.2587E+06    -132.431E+06    -4.38008E+06     2.00017E+06    -113.086E-03     223.200E-03    -110.115E-03     129.947E-03    -114.615E-03     224.094E-03    -109.872E-03     125.546E-03
             739     8.87010E-03     96.4534E-03    -45.8164E+06    -106.023E+06     798.801E+03     2.23088E+06    -113.398E-03     223.472E-03    -110.073E-03     140.530E-03    -115.430E-03     224.961E-03    -109.849E-03     135.380E-03
             740     9.67672E-03     96.6134E-03    -41.9226E+06    -72.5622E+06     4.53776E+06     2.75424E+06    -113.526E-03     223.543E-03    -110.016E-03     150.486E-03    -116.191E-03     225.788E-03    -109.828E-03     144.532E-03
             741     10.4832E-03     96.7853E-03    -38.1796E+06    -24.3824E+06     11.5124E+06     3.47250E+06    -113.326E-03     223.273E-03    -109.948E-03     160.461E-03    -116.833E-03     226.525E-03    -109.800E-03     153.640E-03
             742     11.2909E-03     96.9651E-03    -34.2016E+06     45.7619E+06     19.1573E+06     3.36922E+06    -113.340E-03     223.184E-03    -109.843E-03     174.074E-03    -118.056E-03     227.885E-03    -109.764E-03     166.247E-03
             743     12.0962E-03     97.1678E-03    -29.8148E+06     99.0374E+06     38.8722E+06     3.11321E+06    -113.524E-03     223.351E-03    -109.827E-03     191.066E-03    -119.884E-03     229.844E-03    -109.733E-03     182.165E-03
             744     12.9048E-03     97.3848E-03    -24.2150E+06     115.669E+06     74.0563E+06     2.53954E+06    -112.946E-03     222.890E-03    -109.944E-03     198.873E-03    -120.703E-03     230.757E-03    -109.706E-03     189.474E-03
             745     13.7091E-03     97.6050E-03    -17.2966E+06     125.534E+06     98.6076E+06     933.742E+03    -111.151E-03     221.176E-03    -110.025E-03     179.153E-03    -118.862E-03     228.986E-03    -109.689E-03     170.453E-03
             746     14.5217E-03     97.7782E-03    -11.0955E+06     134.444E+06     106.811E+06     261.874E+03    -110.142E-03     220.196E-03    -110.054E-03     159.881E-03    -117.570E-03     227.752E-03    -109.699E-03     152.145E-03
             747     15.3146E-03     97.9562E-03    -4.92058E+06     133.581E+06     103.530E+06     741.047E+03    -108.377E-03     218.408E-03    -110.031E-03     93.3637E-03    -112.944E-03     223.132E-03    -109.700E-03     88.0654E-03
             748     805.644E-06     96.7375E-03    -94.8509E+06    -247.548E+06    -93.5051E+06     219.795E+03    -110.053E-03     220.059E-03    -110.006E-03     15.4832E-03    -110.045E-03     219.107E-03    -109.977E-03     15.1540E-03
             749     1.61283E-03     96.7628E-03    -92.5599E+06    -242.779E+06    -85.8917E+06     422.767E+03    -110.238E-03     220.270E-03    -110.031E-03     28.8981E-03    -110.265E-03     219.354E-03    -109.974E-03     28.2856E-03
             750     2.41866E-03     96.8024E-03    -88.3121E+06    -235.265E+06    -74.8073E+06     589.749E+03    -110.466E-03     220.542E-03    -110.077E-03     42.3865E-03    -110.546E-03     219.691E-03    -109.982E-03     41.4528E-03
             751     3.22533E-03     96.8577E-03    -83.5200E+06    -225.888E+06    -61.2585E+06     800.896E+03    -110.752E-03     220.875E-03    -110.123E-03     55.8811E-03    -110.913E-03     220.115E-03    -109.980E-03     54.5963E-03
             752     4.03100E-03     96.9271E-03    -78.1987E+06    -216.669E+06    -48.1099E+06     1.01383E+06    -111.094E-03     221.253E-03    -110.159E-03     69.1612E-03    -111.361E-03     220.612E-03    -109.972E-03     67.4906E-03
             753     4.83810E-03     97.0116E-03    -72.3610E+06    -201.538E+06    -38.2992E+06     1.36152E+06    -111.430E-03     221.590E-03    -110.159E-03     82.0330E-03    -111.840E-03     221.138E-03    -109.954E-03     79.9327E-03
             754     5.64377E-03     97.1098E-03    -66.5750E+06    -186.126E+06    -28.0428E+06     1.22264E+06    -111.867E-03     222.025E-03    -110.157E-03     94.5547E-03    -112.462E-03     221.804E-03    -109.931E-03     91.9671E-03
             755     6.45079E-03     97.2218E-03    -60.9866E+06    -172.445E+06    -17.1886E+06     1.44183E+06    -112.306E-03     222.468E-03    -110.162E-03     106.728E-03    -113.139E-03     222.522E-03    -109.909E-03     103.602E-03
             756     7.25719E-03     97.3468E-03    -55.4506E+06    -154.976E+06    -9.50558E+06     1.57549E+06    -112.718E-03     222.863E-03    -110.145E-03     118.528E-03    -113.857E-03     223.282E-03    -109.887E-03     114.793E-03
             757     8.06346E-03     97.4844E-03    -50.4876E+06    -133.170E+06    -4.80102E+06     1.64105E+06    -113.110E-03     223.218E-03    -110.108E-03     129.728E-03    -114.636E-03     224.106E-03    -109.866E-03     125.322E-03
             758     8.87034E-03     97.6338E-03    -45.9466E+06    -107.092E+06     188.238E+03     2.16122E+06    -113.441E-03     223.511E-03    -110.070E-03     140.479E-03    -115.470E-03     224.996E-03    -109.847E-03     135.327E-03
             759     9.67639E-03     97.7951E-03    -41.7243E+06    -73.6686E+06     4.27622E+06     2.72231E+06    -113.472E-03     223.487E-03    -110.015E-03     150.250E-03    -116.131E-03     225.724E-03    -109.826E-03     144.300E-03
             760     10.4838E-03     97.9642E-03    -37.4670E+06    -25.1298E+06     11.4357E+06     3.28533E+06    -113.452E-03     223.402E-03    -109.950E-03     160.376E-03    -116.956E-03     226.650E-03    -109.802E-03     153.542E-03
             761     11.2892E-03     98.1478E-03    -33.4477E+06     45.4821E+06     19.6094E+06     3.35282E+06    -113.511E-03     223.369E-03    -109.858E-03     174.062E-03    -118.224E-03     228.067E-03    -109.777E-03     166.222E-03
             762     12.0976E-03     98.3464E-03    -29.1289E+06     99.3166E+06     39.6123E+06     3.01735E+06    -113.645E-03     223.494E-03    -109.850E-03     191.384E-03    -120.008E-03     229.992E-03    -109.753E-03     182.471E-03
             763     12.9023E-03     98.5680E-03    -23.3432E+06     117.388E+06     75.1247E+06     1.99833E+06    -113.219E-03     223.194E-03    -109.976E-03     198.892E-03    -120.982E-03     231.074E-03    -109.736E-03     189.453E-03
             764     13.7119E-03     98.7833E-03    -17.2514E+06     126.974E+06     98.9073E+06     1.40193E+06    -111.366E-03     221.433E-03    -110.067E-03     179.489E-03    -119.094E-03     229.263E-03    -109.731E-03     170.775E-03
             765     14.5112E-03     98.9626E-03    -11.7584E+06     134.259E+06     106.307E+06     1.54788E+06    -109.078E-03     219.145E-03    -110.067E-03     161.104E-03    -116.516E-03     226.709E-03    -109.713E-03     153.510E-03
             766     15.3305E-03     99.1372E-03    -5.43271E+06     134.167E+06     103.667E+06     929.194E+03    -107.875E-03     217.874E-03    -109.999E-03     93.8293E-03    -112.438E-03     222.594E-03    -109.667E-03     88.6300E-03
             767     806.969E-06     97.9184E-03    -95.7737E+06    -247.958E+06    -93.8245E+06     61.5476E+03    -110.245E-03     220.153E-03    -109.908E-03     15.7403E-03    -110.241E-03     219.201E-03    -109.878E-03     15.4088E-03
             768     1.61218E-03     97.9432E-03    -92.9405E+06    -242.955E+06    -86.3183E+06     366.429E+03    -110.291E-03     220.371E-03    -110.079E-03     28.7805E-03    -110.319E-03     219.456E-03    -110.024E-03     28.1666E-03
             769     2.41878E-03     97.9834E-03    -89.3083E+06    -235.831E+06    -75.6104E+06     521.020E+03    -110.371E-03     220.477E-03    -110.106E-03     42.4158E-03    -110.454E-03     219.625E-03    -110.012E-03     41.4822E-03
             770     3.22483E-03     98.0378E-03    -84.1976E+06    -226.766E+06    -62.4965E+06     907.583E+03    -110.708E-03     220.831E-03    -110.123E-03     55.9393E-03    -110.869E-03     220.070E-03    -109.984E-03     54.6585E-03
             771     4.03175E-03     98.1083E-03    -78.3940E+06    -217.087E+06    -48.6870E+06     1.31865E+06    -111.079E-03     221.232E-03    -110.154E-03     69.0755E-03    -111.345E-03     220.591E-03    -109.969E-03     67.4084E-03
             772     4.83732E-03     98.1917E-03    -72.3103E+06    -201.571E+06    -38.3373E+06     884.552E+03    -111.466E-03     221.624E-03    -110.158E-03     81.9934E-03    -111.875E-03     221.172E-03    -109.953E-03     79.8852E-03
             773     5.64453E-03     98.2908E-03    -66.4072E+06    -186.456E+06    -28.5587E+06     914.435E+03    -111.860E-03     222.017E-03    -110.157E-03     94.5212E-03    -112.453E-03     221.794E-03    -109.933E-03     91.9296E-03
             774     6.45040E-03     98.4021E-03    -60.6729E+06    -173.141E+06    -17.6925E+06     1.07810E+06    -112.310E-03     222.472E-03    -110.161E-03     106.649E-03    -113.139E-03     222.522E-03    -109.911E-03     103.517E-03
             775     7.25700E-03     98.5276E-03    -55.2333E+06    -155.084E+06    -9.86892E+06     1.27428E+06    -112.761E-03     222.908E-03    -110.147E-03     118.395E-03    -113.895E-03     223.324E-03    -109.891E-03     114.660E-03
             776     8.06372E-03     98.6648E-03    -50.3026E+06    -133.810E+06    -5.12650E+06     1.45790E+06    -113.158E-03     223.273E-03    -110.116E-03     129.689E-03    -114.684E-03     224.161E-03    -109.874E-03     125.274E-03
             777     8.86971E-03     98.8148E-03    -45.6552E+06    -108.052E+06    -449.047E+03     1.70519E+06    -113.346E-03     223.419E-03    -110.074E-03     140.453E-03    -115.368E-03     224.897E-03    -109.853E-03     135.304E-03
             778     9.67704E-03     98.9749E-03    -40.9795E+06    -74.4896E+06     3.93141E+06     2.10844E+06    -113.491E-03     223.506E-03    -110.015E-03     150.288E-03    -116.144E-03     225.738E-03    -109.828E-03     144.333E-03
             779     10.4828E-03     99.1457E-03    -36.7556E+06    -26.9988E+06     10.7191E+06     2.68818E+06    -113.561E-03     223.514E-03    -109.953E-03     160.572E-03    -117.060E-03     226.755E-03    -109.807E-03     153.722E-03
             780     11.2906E-03     99.3279E-03    -32.6576E+06     45.3534E+06     19.5576E+06     3.17657E+06    -113.547E-03     223.412E-03    -109.865E-03     174.246E-03    -118.256E-03     228.109E-03    -109.785E-03     166.404E-03
             781     12.0958E-03     99.5278E-03    -28.0411E+06     100.369E+06     40.3874E+06     2.94710E+06    -113.779E-03     223.641E-03    -109.862E-03     191.730E-03    -120.149E-03     230.150E-03    -109.765E-03     182.800E-03
             782     12.9044E-03     99.7488E-03    -23.4494E+06     117.604E+06     75.0412E+06     2.99992E+06    -113.257E-03     223.245E-03    -109.988E-03     199.563E-03    -121.038E-03     231.142E-03    -109.750E-03     190.134E-03
             783     13.7071E-03     99.9658E-03    -18.4033E+06     127.665E+06     98.7429E+06     2.75722E+06    -110.978E-03     221.042E-03    -110.064E-03     180.983E-03    -118.755E-03     228.921E-03    -109.729E-03     172.307E-03
             784     14.5213E-03     100.144E-03    -11.7954E+06     135.595E+06     107.048E+06     1.57496E+06    -108.976E-03     219.027E-03    -110.051E-03     160.039E-03    -116.383E-03     226.563E-03    -109.696E-03     152.460E-03
             785     15.3205E-03     100.311E-03    -5.41117E+06     135.155E+06     104.240E+06     700.339E+03    -108.173E-03     218.168E-03    -109.994E-03     91.5093E-03    -112.678E-03     222.831E-03    -109.661E-03     86.2975E-03
             786     805.731E-06     99.0998E-03    -96.2114E+06    -248.242E+06    -94.5457E+06     177.249E+03    -110.230E-03     220.267E-03    -110.037E-03     15.9028E-03    -110.227E-03     219.316E-03    -110.010E-03     15.5758E-03
             787     1.61234E-03     99.1240E-03    -93.9847E+06    -243.468E+06    -86.9759E+06     325.125E+03    -110.187E-03     220.292E-03    -110.105E-03     28.7663E-03    -110.218E-03     219.377E-03    -110.051E-03     28.1513E-03
             788     2.41875E-03     99.1632E-03    -89.7571E+06    -236.224E+06    -76.2127E+06     550.268E+03    -110.416E-03     220.521E-03    -110.105E-03     42.5559E-03    -110.500E-03     219.669E-03    -110.014E-03     41.6231E-03
             789     3.22521E-03     99.2192E-03    -84.6723E+06    -227.210E+06    -63.0566E+06     806.874E+03    -110.708E-03     220.837E-03    -110.129E-03     55.9396E-03    -110.871E-03     220.075E-03    -109.992E-03     54.6566E-03
             790     4.03102E-03     99.2880E-03    -78.7642E+06    -217.434E+06    -49.4487E+06     534.129E+03    -111.072E-03     221.228E-03    -110.156E-03     69.0957E-03    -111.339E-03     220.587E-03    -109.974E-03     67.4178E-03
             791     4.83812E-03     99.3733E-03    -72.5190E+06    -201.311E+06    -38.1846E+06     529.090E+03    -111.467E-03     221.631E-03    -110.163E-03     81.9418E-03    -111.877E-03     221.179E-03    -109.957E-03     79.8295E-03
             792     5.64367E-03     99.4705E-03    -66.7947E+06    -186.835E+06    -28.8243E+06     369.420E+03    -111.882E-03     222.044E-03    -110.162E-03     94.4867E-03    -112.476E-03     221.821E-03    -109.939E-03     91.8864E-03
             793     6.45075E-03     99.5834E-03    -61.1357E+06    -173.431E+06    -19.2075E+06     553.863E+03    -112.345E-03     222.509E-03    -110.164E-03     106.679E-03    -113.173E-03     222.560E-03    -109.920E-03     103.541E-03
             794     7.25699E-03     99.7077E-03    -55.6170E+06    -155.706E+06    -11.1359E+06     727.063E+03    -112.762E-03     222.914E-03    -110.152E-03     118.430E-03    -113.896E-03     223.329E-03    -109.901E-03     114.688E-03
             795     8.06318E-03     99.8460E-03    -50.3961E+06    -134.188E+06    -6.04349E+06     874.666E+03    -113.081E-03     223.197E-03    -110.116E-03     129.864E-03    -114.606E-03     224.084E-03    -109.878E-03     125.447E-03
             796     8.87028E-03     99.9949E-03    -45.6143E+06    -107.964E+06    -1.00545E+06     1.01624E+06    -113.371E-03     223.442E-03    -110.071E-03     140.493E-03    -115.392E-03     224.921E-03    -109.853E-03     135.334E-03
             797     9.67644E-03     100.156E-03    -41.2192E+06    -75.9339E+06     2.73225E+06     933.688E+03    -113.555E-03     223.570E-03    -110.015E-03     150.413E-03    -116.206E-03     225.797E-03    -109.831E-03     144.440E-03
             798     10.4836E-03     100.327E-03    -36.8282E+06    -28.6150E+06     9.73650E+06     1.75542E+06    -113.453E-03     223.404E-03    -109.951E-03     160.568E-03    -116.945E-03     226.635E-03    -109.807E-03     153.718E-03
             799     11.2893E-03     100.508E-03    -32.8571E+06     44.3243E+06     18.2891E+06     2.94642E+06    -113.557E-03     223.413E-03    -109.856E-03     174.682E-03    -118.272E-03     228.115E-03    -109.781E-03     166.833E-03
             800     12.0974E-03     100.709E-03    -29.8654E+06     99.9912E+06     37.9651E+06     3.72652E+06    -113.684E-03     223.527E-03    -109.843E-03     192.307E-03    -120.068E-03     230.050E-03    -109.755E-03     183.396E-03
             801     12.9018E-03     100.930E-03    -25.6098E+06     117.254E+06     73.1416E+06     3.79979E+06    -112.812E-03     222.764E-03    -109.953E-03     200.308E-03    -120.602E-03     230.668E-03    -109.720E-03     190.939E-03
             802     13.7135E-03     101.147E-03    -18.7028E+06     129.093E+06     99.3526E+06     3.09851E+06    -110.711E-03     220.724E-03    -110.013E-03     180.989E-03    -118.486E-03     228.603E-03    -109.677E-03     172.359E-03
             803     14.5140E-03     101.323E-03    -11.9600E+06     137.727E+06     108.368E+06     1.87975E+06    -109.479E-03     219.488E-03    -110.009E-03     161.581E-03    -116.945E-03     227.086E-03    -109.649E-03     153.942E-03
             804     15.3243E-03     101.500E-03    -5.90138E+06     136.255E+06     104.608E+06     471.769E+03    -108.492E-03     218.460E-03    -109.967E-03     94.2279E-03    -113.070E-03     223.196E-03    -109.633E-03     88.9375E-03
             805     806.152E-06     100.280E-03    -97.3794E+06    -248.896E+06    -95.4366E+06     252.459E+03    -109.978E-03     220.116E-03    -110.138E-03     15.9165E-03    -109.978E-03     219.164E-03    -110.113E-03     15.5918E-03
             806     1.61283E-03     100.304E-03    -94.5320E+06    -243.868E+06    -87.7245E+06     348.179E+03    -110.253E-03     220.310E-03    -110.057E-03     28.9452E-03    -110.285E-03     219.395E-03    -110.005E-03     28.3312E-03
             807     2.41862E-03     100.345E-03    -90.4017E+06    -236.475E+06    -76.5424E+06     417.446E+03    -110.515E-03     220.620E-03    -110.105E-03     42.3819E-03    -110.601E-03     219.767E-03    -110.014E-03     41.4454E-03
             808     3.22484E-03     100.399E-03    -85.1484E+06    -227.313E+06    -63.4299E+06     213.774E+03    -110.691E-03     220.833E-03    -110.142E-03     55.8991E-03    -110.855E-03     220.072E-03    -110.006E-03     54.6073E-03
             809     4.03166E-03     100.470E-03    -78.9722E+06    -216.997E+06    -49.4476E+06    -35.4806E+03    -111.049E-03     221.213E-03    -110.163E-03     69.1618E-03    -111.318E-03     220.574E-03    -109.981E-03     67.4780E-03
             810     4.83724E-03     100.553E-03    -73.0235E+06    -201.578E+06    -38.7515E+06    -120.212E+03    -111.463E-03     221.629E-03    -110.165E-03     81.9960E-03    -111.875E-03     221.178E-03    -109.961E-03     79.8761E-03
             811     5.64451E-03     100.652E-03    -66.9891E+06    -186.795E+06    -28.5946E+06    -23.6593E+03    -111.936E-03     222.106E-03    -110.170E-03     94.5193E-03    -112.531E-03     221.883E-03    -109.945E-03     91.9138E-03
             812     6.45022E-03     100.763E-03    -61.2952E+06    -173.501E+06    -19.2492E+06    -5.80094E+03    -112.338E-03     222.511E-03    -110.173E-03     106.652E-03    -113.167E-03     222.562E-03    -109.928E-03     103.508E-03
             813     7.25686E-03     100.889E-03    -55.7494E+06    -156.115E+06    -12.4991E+06    -49.9319E+03    -112.672E-03     222.820E-03    -110.148E-03     118.479E-03    -113.803E-03     223.235E-03    -109.904E-03     114.731E-03
             814     8.06379E-03     101.026E-03    -50.4240E+06    -134.545E+06    -7.18053E+06    -138.179E+03    -113.049E-03     223.156E-03    -110.106E-03     129.848E-03    -114.569E-03     224.039E-03    -109.874E-03     125.425E-03
             815     8.87004E-03     101.176E-03    -45.5488E+06    -108.141E+06    -1.69268E+06     211.634E+03    -113.413E-03     223.477E-03    -110.063E-03     140.620E-03    -115.434E-03     224.957E-03    -109.849E-03     135.449E-03
             816     9.67664E-03     101.336E-03    -41.5925E+06    -76.1334E+06     2.27511E+06     617.202E+03    -113.488E-03     223.495E-03    -110.008E-03     150.577E-03    -116.139E-03     225.722E-03    -109.825E-03     144.606E-03
             817     10.4829E-03     101.507E-03    -38.4355E+06    -30.6524E+06     7.87382E+06     1.24707E+06    -113.377E-03     223.311E-03    -109.935E-03     160.870E-03    -116.873E-03     226.540E-03    -109.795E-03     154.019E-03
             818     11.2909E-03     101.689E-03    -35.4609E+06     41.1013E+06     15.2770E+06     3.04107E+06    -113.423E-03     223.250E-03    -109.828E-03     175.186E-03    -118.146E-03     227.949E-03    -109.759E-03     167.349E-03
             819     12.0962E-03     101.891E-03    -31.5904E+06     99.4015E+06     35.8135E+06     4.50783E+06    -113.353E-03     223.151E-03    -109.798E-03     192.499E-03    -119.738E-03     229.673E-03    -109.717E-03     183.634E-03
             820     12.9062E-03     102.109E-03    -25.8488E+06     119.034E+06     72.6234E+06     3.42185E+06    -112.724E-03     222.623E-03    -109.900E-03     200.080E-03    -120.519E-03     230.539E-03    -109.672E-03     190.711E-03
             821     13.7090E-03     102.328E-03    -18.8035E+06     129.188E+06     99.2491E+06     2.25927E+06    -110.738E-03     220.705E-03    -109.967E-03     180.816E-03    -118.498E-03     228.569E-03    -109.631E-03     172.175E-03
             822     14.5217E-03     102.505E-03    -11.3061E+06     139.333E+06     109.432E+06     1.94501E+06    -108.866E-03     218.819E-03    -109.953E-03     161.185E-03    -116.309E-03     226.399E-03    -109.591E-03     153.618E-03
             823     15.3275E-03     102.678E-03    -5.22765E+06     138.384E+06     105.999E+06     689.365E+03    -108.961E-03     218.872E-03    -109.912E-03     92.2346E-03    -113.510E-03     223.587E-03    -109.575E-03     86.9851E-03
             824     806.761E-06     101.460E-03    -97.5140E+06    -249.117E+06    -96.3396E+06    -111.281E+03    -110.236E-03     220.168E-03    -109.932E-03     15.5335E-03    -110.235E-03     219.216E-03    -109.911E-03     15.2034E-03
             825     1.61219E-03     101.485E-03    -95.0883E+06    -243.965E+06    -88.0707E+06    -17.3985E+03    -110.267E-03     220.350E-03    -110.083E-03     28.7905E-03    -110.301E-03     219.436E-03    -110.032E-03     28.1721E-03
             826     2.41870E-03     101.525E-03    -90.7415E+06    -236.418E+06    -77.0019E+06    -104.590E+03    -110.459E-03     220.575E-03    -110.116E-03     42.4431E-03    -110.547E-03     219.725E-03    -110.027E-03     41.4995E-03
             827     3.22502E-03     101.580E-03    -85.3151E+06    -227.039E+06    -63.8014E+06    -423.820E+03    -110.756E-03     220.905E-03    -110.149E-03     55.8988E-03    -110.921E-03     220.146E-03    -110.015E-03     54.5974E-03
             828     4.03100E-03     101.650E-03    -79.2632E+06    -216.787E+06    -49.9569E+06    -454.443E+03    -111.040E-03     221.215E-03    -110.175E-03     69.0857E-03    -111.309E-03     220.578E-03    -109.996E-03     67.3975E-03
             829     4.83816E-03     101.734E-03    -72.9296E+06    -201.361E+06    -38.9159E+06    -765.720E+03    -111.455E-03     221.630E-03    -110.175E-03     81.9335E-03    -111.866E-03     221.180E-03    -109.972E-03     79.8055E-03
             830     5.64362E-03     101.832E-03    -66.9029E+06    -186.866E+06    -28.7190E+06    -766.277E+03    -111.907E-03     222.083E-03    -110.176E-03     94.5524E-03    -112.500E-03     221.858E-03    -109.951E-03     91.9414E-03
             831     6.45054E-03     101.945E-03    -60.8355E+06    -172.991E+06    -19.3084E+06    -735.017E+03    -112.287E-03     222.458E-03    -110.171E-03     106.659E-03    -113.114E-03     222.511E-03    -109.929E-03     103.506E-03
             832     7.25708E-03     102.069E-03    -55.0946E+06    -155.466E+06    -12.9447E+06    -1.00994E+06    -112.667E-03     222.808E-03    -110.141E-03     118.462E-03    -113.793E-03     223.224E-03    -109.900E-03     114.704E-03
             833     8.06334E-03     102.207E-03    -49.9610E+06    -134.821E+06    -8.08057E+06    -1.04439E+06    -113.050E-03     223.148E-03    -110.098E-03     129.878E-03    -114.565E-03     224.030E-03    -109.871E-03     125.444E-03
             834     8.87012E-03     102.356E-03    -45.4480E+06    -109.952E+06    -3.19919E+06    -536.907E+03    -113.278E-03     223.326E-03    -110.048E-03     140.795E-03    -115.292E-03     224.797E-03    -109.839E-03     135.624E-03
             835     9.67686E-03     102.517E-03    -41.5682E+06    -77.3035E+06     1.11219E+06     924.182E+03    -113.356E-03     223.337E-03    -109.981E-03     150.642E-03    -116.000E-03     225.556E-03    -109.804E-03     144.688E-03
             836     10.4843E-03     102.687E-03    -38.2844E+06    -31.3916E+06     7.39072E+06     2.04365E+06    -113.372E-03     223.278E-03    -109.906E-03     160.982E-03    -116.868E-03     226.505E-03    -109.768E-03     154.141E-03
             837     11.2897E-03     102.870E-03    -34.6226E+06     37.5892E+06     14.9419E+06     3.19442E+06    -113.317E-03     223.117E-03    -109.801E-03     175.068E-03    -118.025E-03     227.793E-03    -109.730E-03     167.248E-03
             838     12.0989E-03     103.070E-03    -29.9017E+06     98.3940E+06     36.1495E+06     4.12120E+06    -113.360E-03     223.129E-03    -109.769E-03     192.034E-03    -119.725E-03     229.633E-03    -109.688E-03     183.166E-03
             839     12.9030E-03     103.291E-03    -24.2867E+06     121.595E+06     73.1788E+06     3.69734E+06    -112.789E-03     222.662E-03    -109.873E-03     199.654E-03    -120.565E-03     230.571E-03    -109.648E-03     190.286E-03
             840     13.7138E-03     103.508E-03    -17.9230E+06     130.237E+06     99.4871E+06     2.26207E+06    -110.724E-03     220.671E-03    -109.947E-03     180.184E-03    -118.460E-03     228.518E-03    -109.612E-03     171.544E-03
             841     14.5163E-03     103.684E-03    -11.2344E+06     139.831E+06     109.445E+06     1.12380E+06    -109.530E-03     219.486E-03    -109.956E-03     160.204E-03    -116.965E-03     227.060E-03    -109.595E-03     152.550E-03
             842     15.3235E-03     103.860E-03    -5.23729E+06     139.627E+06     106.114E+06     1.10961E+06    -108.884E-03     218.818E-03    -109.934E-03     92.2486E-03    -113.441E-03     223.544E-03    -109.598E-03     86.9598E-03
             843     805.374E-06     102.642E-03    -97.9826E+06    -248.563E+06    -95.6591E+06    -209.337E+03    -110.328E-03     220.368E-03    -110.040E-03     15.7549E-03    -110.332E-03     219.419E-03    -110.015E-03     15.4209E-03
             844     1.61245E-03     102.665E-03    -95.0232E+06    -243.582E+06    -88.2518E+06    -257.687E+03    -110.231E-03     220.386E-03    -110.154E-03     28.7261E-03    -110.265E-03     219.474E-03    -110.105E-03     28.1031E-03
             845     2.41881E-03     102.706E-03    -90.8987E+06    -235.882E+06    -76.9147E+06    -524.493E+03    -110.385E-03     220.530E-03    -110.145E-03     42.3859E-03    -110.473E-03     219.682E-03    -110.056E-03     41.4388E-03
             846     3.22485E-03     102.760E-03    -85.4678E+06    -226.179E+06    -63.4341E+06    -864.768E+03    -110.760E-03     220.921E-03    -110.161E-03     55.8599E-03    -110.927E-03     220.166E-03    -110.027E-03     54.5545E-03
             847     4.03139E-03     102.830E-03    -79.1410E+06    -216.157E+06    -50.2292E+06    -1.47520E+06    -111.092E-03     221.280E-03    -110.188E-03     69.0618E-03    -111.362E-03     220.647E-03    -110.011E-03     67.3580E-03
             848     4.83705E-03     102.914E-03    -72.6900E+06    -200.938E+06    -39.2309E+06    -1.61823E+06    -111.431E-03     221.619E-03    -110.187E-03     82.0708E-03    -111.841E-03     221.171E-03    -109.987E-03     79.9336E-03
             849     5.64432E-03     103.013E-03    -66.3957E+06    -186.395E+06    -28.8795E+06    -1.60142E+06    -111.814E-03     221.992E-03    -110.178E-03     94.5376E-03    -112.404E-03     221.769E-03    -109.956E-03     91.9185E-03
             850     6.45049E-03     103.124E-03    -60.5222E+06    -172.423E+06    -20.2831E+06    -1.94092E+06    -112.242E-03     222.402E-03    -110.160E-03     106.641E-03    -113.065E-03     222.457E-03    -109.924E-03     103.477E-03
             851     7.25688E-03     103.250E-03    -54.8479E+06    -155.441E+06    -14.1148E+06    -2.29318E+06    -112.681E-03     222.809E-03    -110.128E-03     118.470E-03    -113.804E-03     223.227E-03    -109.894E-03     114.695E-03
             852     8.06373E-03     103.387E-03    -49.7436E+06    -135.182E+06    -9.30376E+06    -1.97952E+06    -113.001E-03     223.085E-03    -110.084E-03     129.957E-03    -114.512E-03     223.966E-03    -109.862E-03     125.516E-03
             853     8.87033E-03     103.537E-03    -45.2666E+06    -111.153E+06    -4.38519E+06    -1.13071E+06    -113.197E-03     223.227E-03    -110.030E-03     140.619E-03    -115.202E-03     224.690E-03    -109.825E-03     135.449E-03
             854     9.67733E-03     103.697E-03    -40.8264E+06    -80.1029E+06    -352.479E+03     96.2274E+03    -113.269E-03     223.227E-03    -109.958E-03     150.507E-03    -115.901E-03     225.431E-03    -109.785E-03     144.548E-03
             855     10.4833E-03     103.868E-03    -36.1685E+06    -32.8900E+06     7.26097E+06     1.92577E+06    -113.313E-03     223.194E-03    -109.881E-03     160.979E-03    -116.794E-03     226.409E-03    -109.745E-03     154.143E-03
             856     11.2917E-03     104.049E-03    -32.3708E+06     35.4325E+06     15.5632E+06     3.62024E+06    -113.405E-03     223.187E-03    -109.782E-03     174.849E-03    -118.095E-03     227.843E-03    -109.709E-03     167.030E-03
             857     12.0964E-03     104.252E-03    -29.1559E+06     97.0729E+06     35.8334E+06     4.39381E+06    -113.481E-03     223.236E-03    -109.755E-03     192.245E-03    -119.841E-03     229.732E-03    -109.674E-03     183.375E-03
             858     12.9059E-03     104.471E-03    -24.4226E+06     123.509E+06     72.9546E+06     3.72543E+06    -112.824E-03     222.684E-03    -109.860E-03     199.745E-03    -120.601E-03     230.601E-03    -109.639E-03     190.378E-03
             859     13.7099E-03     104.688E-03    -17.9432E+06     132.116E+06     99.5864E+06     2.61068E+06    -110.905E-03     220.846E-03    -109.942E-03     180.449E-03    -118.658E-03     228.716E-03    -109.609E-03     171.794E-03
             860     14.5201E-03     104.866E-03    -11.8341E+06     140.305E+06     109.177E+06     1.95078E+06    -109.407E-03     219.356E-03    -109.949E-03     162.498E-03    -116.898E-03     226.987E-03    -109.589E-03     154.863E-03
             861     15.3247E-03     105.043E-03    -6.28477E+06     140.482E+06     106.068E+06     1.16678E+06    -108.656E-03     218.567E-03    -109.911E-03     94.1305E-03    -113.256E-03     223.337E-03    -109.576E-03     88.8629E-03
             862     807.069E-06     103.821E-03    -98.1412E+06    -248.178E+06    -96.0515E+06     174.923E+03    -110.195E-03     220.260E-03    -110.065E-03     16.1496E-03    -110.199E-03     219.314E-03    -110.043E-03     15.8232E-03
             863     1.61209E-03     103.847E-03    -95.1631E+06    -242.740E+06    -87.8309E+06    -480.961E+03    -110.371E-03     220.513E-03    -110.141E-03     28.7497E-03    -110.408E-03     219.604E-03    -110.090E-03     28.1225E-03
             864     2.41825E-03     103.885E-03    -90.6757E+06    -234.847E+06     -76.208E+06    -865.931E+03    -110.474E-03     220.655E-03    -110.181E-03     42.3913E-03    -110.564E-03     219.811E-03    -110.090E-03     41.4381E-03
             865     3.22499E-03     103.942E-03    -85.1078E+06    -224.828E+06    -62.9170E+06    -1.50255E+06    -110.658E-03     220.846E-03    -110.189E-03     55.8910E-03    -110.825E-03     220.096E-03    -110.054E-03     54.5796E-03
             866     4.03095E-03     104.011E-03    -79.0209E+06    -214.619E+06    -50.1142E+06    -2.35066E+06    -111.060E-03     221.254E-03    -110.193E-03     69.0769E-03    -111.331E-03     220.628E-03    -110.018E-03     67.3626E-03
             867     4.83800E-03     104.096E-03    -72.7124E+06    -200.172E+06    -39.6226E+06    -2.77179E+06    -111.432E-03     221.620E-03    -110.188E-03     82.0560E-03    -111.842E-03     221.176E-03    -109.990E-03     79.9047E-03
             868     5.64369E-03     104.193E-03    -66.4273E+06    -185.998E+06    -29.6563E+06    -2.90550E+06    -111.782E-03     221.957E-03    -110.175E-03     94.4872E-03    -112.372E-03     221.737E-03    -109.957E-03     91.8530E-03
             869     6.45052E-03     104.306E-03    -60.2890E+06    -171.647E+06    -21.1090E+06    -3.15394E+06    -112.197E-03     222.348E-03    -110.151E-03     106.655E-03    -113.018E-03     222.407E-03    -109.920E-03     103.480E-03
             870     7.25724E-03     104.430E-03    -54.9166E+06    -155.167E+06    -15.4540E+06    -3.48609E+06    -112.608E-03     222.719E-03    -110.111E-03     118.476E-03    -113.728E-03     223.138E-03    -109.884E-03     114.692E-03
             871     8.06357E-03     104.568E-03    -49.9982E+06    -135.823E+06    -10.8075E+06    -3.17826E+06    -112.961E-03     223.024E-03    -110.063E-03     129.899E-03    -114.469E-03     223.903E-03    -109.848E-03     125.445E-03
             872     8.87039E-03     104.717E-03    -45.0912E+06    -111.817E+06    -5.36740E+06    -2.41639E+06    -113.181E-03     223.191E-03    -110.010E-03     140.684E-03    -115.183E-03     224.651E-03    -109.809E-03     135.501E-03
             873     9.67681E-03     104.878E-03    -40.4781E+06    -82.4673E+06    -1.54969E+06    -1.52112E+06    -113.307E-03     223.247E-03    -109.940E-03     150.605E-03    -115.932E-03     225.441E-03    -109.770E-03     144.625E-03
             874     10.4849E-03     105.047E-03    -36.5519E+06    -37.7937E+06     4.73468E+06     720.014E+03    -113.296E-03     223.158E-03    -109.862E-03     160.971E-03    -116.763E-03     226.348E-03    -109.731E-03     154.128E-03
             875     11.2899E-03     105.232E-03    -33.0885E+06     32.6898E+06     12.7390E+06     3.67725E+06    -113.353E-03     223.109E-03    -109.757E-03     174.977E-03    -118.036E-03     227.755E-03    -109.692E-03     167.169E-03
             876     12.0991E-03     105.430E-03    -29.3201E+06     97.0593E+06     33.5301E+06     4.82530E+06    -113.382E-03     223.104E-03    -109.721E-03     192.409E-03    -119.734E-03     229.599E-03    -109.652E-03     183.559E-03
             877     12.9038E-03     105.653E-03    -24.4262E+06     124.860E+06     72.2580E+06     4.40067E+06    -112.833E-03     222.661E-03    -109.828E-03     200.357E-03    -120.615E-03     230.590E-03    -109.612E-03     191.005E-03
             878     13.7133E-03     105.869E-03    -19.2997E+06     133.318E+06     99.2562E+06     3.67340E+06    -110.936E-03     220.848E-03    -109.913E-03     181.249E-03    -118.719E-03     228.749E-03    -109.582E-03     172.602E-03
             879     14.5173E-03     106.047E-03    -12.9971E+06     141.623E+06     109.191E+06     2.13795E+06    -109.157E-03     219.074E-03    -109.917E-03     161.671E-03    -116.641E-03     226.697E-03    -109.557E-03     154.062E-03
             880     15.3285E-03     106.221E-03    -6.09297E+06     142.369E+06     107.254E+06     553.520E+03    -108.603E-03     218.483E-03    -109.880E-03     92.6686E-03    -113.174E-03     223.227E-03    -109.541E-03     87.4105E-03
             881     805.381E-06     105.003E-03    -98.0965E+06    -247.576E+06    -96.2456E+06    -26.1267E+03    -110.253E-03     220.305E-03    -110.052E-03     15.6774E-03    -110.258E-03     219.362E-03    -110.032E-03     15.3480E-03
             882     1.61275E-03     105.027E-03    -95.0978E+06    -241.674E+06    -87.6206E+06    -727.752E+03    -110.252E-03     220.388E-03    -110.137E-03     28.8037E-03    -110.290E-03     219.485E-03    -110.086E-03     28.1743E-03
             883     2.41865E-03     105.068E-03    -90.3720E+06    -233.189E+06    -76.3417E+06    -1.63758E+06    -110.556E-03     220.718E-03    -110.161E-03     42.4880E-03    -110.648E-03     219.882E-03    -110.074E-03     41.5236E-03
             884     3.22450E-03     105.121E-03    -84.8709E+06    -223.246E+06    -63.4348E+06    -2.20918E+06    -110.724E-03     220.915E-03    -110.191E-03     55.9307E-03    -110.893E-03     220.174E-03    -110.061E-03     54.6079E-03
             885     4.03149E-03     105.192E-03    -79.0142E+06    -212.480E+06    -50.2602E+06    -2.83474E+06    -111.007E-03     221.205E-03    -110.198E-03     69.1270E-03    -111.280E-03     220.589E-03    -110.027E-03     67.4099E-03
             886     4.83703E-03     105.275E-03    -72.8218E+06    -198.423E+06    -39.6324E+06    -4.02186E+06    -111.387E-03     221.572E-03    -110.185E-03     81.9556E-03    -111.800E-03     221.137E-03    -109.990E-03     79.7899E-03
             887     5.64428E-03     105.374E-03    -66.4635E+06    -185.583E+06    -30.2923E+06    -4.47133E+06    -111.756E-03     221.921E-03    -110.166E-03     94.5401E-03    -112.345E-03     221.703E-03    -109.952E-03     91.8879E-03
             888     6.45051E-03     105.485E-03    -60.5014E+06    -171.129E+06    -22.6234E+06    -4.50282E+06    -112.150E-03     222.283E-03    -110.133E-03     106.708E-03    -112.970E-03     222.346E-03    -109.910E-03     103.517E-03
             889     7.25705E-03     105.611E-03    -55.1024E+06    -153.980E+06    -16.3275E+06    -4.52139E+06    -112.553E-03     222.643E-03    -110.091E-03     118.531E-03    -113.673E-03     223.069E-03    -109.869E-03     114.739E-03
             890     8.06400E-03     105.748E-03    -50.0851E+06    -135.679E+06    -11.5897E+06    -4.62460E+06    -112.892E-03     222.931E-03    -110.039E-03     129.918E-03    -114.398E-03     223.811E-03    -109.828E-03     125.452E-03
             891     8.87063E-03     105.897E-03    -45.3286E+06    -113.208E+06    -6.81118E+06    -4.24689E+06    -113.102E-03     223.082E-03    -109.980E-03     140.686E-03    -115.097E-03     224.534E-03    -109.784E-03     135.488E-03
             892     9.67803E-03     106.057E-03    -41.0952E+06    -84.7965E+06    -3.11003E+06    -2.88995E+06    -113.310E-03     223.219E-03    -109.909E-03     150.931E-03    -115.932E-03     225.403E-03    -109.742E-03     144.940E-03
             893     10.4831E-03     106.229E-03    -37.2223E+06    -42.5417E+06     2.61586E+06    -255.781E+03    -113.348E-03     223.182E-03    -109.834E-03     161.328E-03    -116.812E-03     226.355E-03    -109.705E-03     154.471E-03
             894     11.2923E-03     106.410E-03    -33.3645E+06     28.1501E+06     10.1859E+06     2.86477E+06    -113.273E-03     222.996E-03    -109.723E-03     175.347E-03    -117.949E-03     227.624E-03    -109.665E-03     167.542E-03
             895     12.0970E-03     106.613E-03    -29.4242E+06     96.4117E+06     30.9335E+06     4.77901E+06    -113.361E-03     223.039E-03    -109.678E-03     192.624E-03    -119.714E-03     229.540E-03    -109.620E-03     183.775E-03
             896     12.9068E-03     106.831E-03    -24.8995E+06     125.030E+06     69.2243E+06     5.35036E+06    -112.776E-03     222.557E-03    -109.780E-03     200.327E-03    -120.556E-03     230.491E-03    -109.579E-03     190.988E-03
             897     13.7116E-03     107.052E-03    -18.6742E+06     134.773E+06     98.9145E+06     4.39928E+06    -110.872E-03     220.745E-03    -109.873E-03     181.062E-03    -118.635E-03     228.634E-03    -109.547E-03     172.437E-03
             898     14.5210E-03     107.226E-03    -11.4491E+06     145.235E+06     111.646E+06     2.40342E+06    -109.328E-03     219.218E-03    -109.890E-03     162.357E-03    -116.829E-03     226.870E-03    -109.526E-03     154.734E-03
             899     15.3220E-03     107.405E-03    -5.14381E+06     144.014E+06     108.770E+06     689.039E+03    -108.297E-03     218.145E-03    -109.848E-03     94.6001E-03    -112.908E-03     222.933E-03    -109.506E-03     89.3339E-03
             900     806.546E-06     106.183E-03    -97.9549E+06    -246.708E+06    -96.2806E+06    -642.623E+03    -110.186E-03     220.345E-03    -110.158E-03     15.6506E-03    -110.191E-03     219.406E-03    -110.140E-03     15.3093E-03
             901     1.61206E-03     106.208E-03    -95.0838E+06    -239.583E+06    -89.1121E+06    -1.04047E+06    -110.227E-03     220.365E-03    -110.138E-03     28.8853E-03    -110.266E-03     219.474E-03    -110.098E-03     28.2538E-03
             902     2.41867E-03     106.248E-03    -90.7102E+06    -230.519E+06    -77.5901E+06    -2.46214E+06    -110.452E-03     220.592E-03    -110.140E-03     42.3559E-03    -110.547E-03     219.771E-03    -110.062E-03     41.3831E-03
             903     3.22508E-03     106.303E-03    -85.1370E+06    -222.130E+06    -63.7477E+06    -3.13757E+06    -110.753E-03     220.922E-03    -110.169E-03     55.8715E-03    -110.924E-03     220.187E-03    -110.042E-03     54.5368E-03
             904     4.03069E-03     106.372E-03    -79.0319E+06    -209.749E+06    -51.5696E+06    -3.75290E+06    -111.003E-03     221.178E-03    -110.175E-03     69.2733E-03    -111.279E-03     220.578E-03    -110.014E-03     67.5455E-03
             905     4.83809E-03     106.457E-03    -72.7549E+06    -195.794E+06    -40.6134E+06    -5.16085E+06    -111.318E-03     221.478E-03    -110.160E-03     82.1065E-03    -111.733E-03     221.057E-03    -109.973E-03     79.9298E-03
             906     5.64380E-03     106.554E-03    -66.7827E+06    -184.600E+06    -30.6811E+06    -5.78247E+06    -111.731E-03     221.872E-03    -110.141E-03     94.5951E-03    -112.322E-03     221.660E-03    -109.930E-03     91.9279E-03
             907     6.45075E-03     106.666E-03    -61.0007E+06    -169.657E+06    -23.4919E+06    -5.98003E+06    -112.100E-03     222.205E-03    -110.104E-03     106.756E-03    -112.922E-03     222.276E-03    -109.887E-03     103.552E-03
             908     7.25747E-03     106.791E-03    -55.2819E+06    -153.519E+06    -17.3824E+06    -6.25776E+06    -112.464E-03     222.520E-03    -110.056E-03     118.681E-03    -113.583E-03     222.948E-03    -109.840E-03     114.876E-03
             909     8.06395E-03     106.928E-03    -50.0149E+06    -134.945E+06    -12.2603E+06    -6.14506E+06    -112.794E-03     222.792E-03    -109.998E-03     130.110E-03    -114.296E-03     223.673E-03    -109.791E-03     125.638E-03
             910     8.87095E-03     107.077E-03    -45.4515E+06    -113.994E+06    -7.76362E+06    -5.76278E+06    -113.053E-03     222.988E-03    -109.935E-03     140.936E-03    -115.046E-03     224.438E-03    -109.742E-03     135.725E-03
             911     9.67729E-03     107.238E-03    -41.2288E+06    -87.4628E+06    -4.62442E+06    -4.26622E+06    -113.194E-03     223.052E-03    -109.858E-03     151.293E-03    -115.809E-03     225.223E-03    -109.694E-03     145.299E-03
             912     10.4862E-03     107.409E-03    -37.0370E+06    -46.4226E+06     1.22004E+06    -1.77200E+06    -113.256E-03     223.032E-03    -109.777E-03     161.757E-03    -116.710E-03     226.187E-03    -109.649E-03     154.898E-03
             913     11.2904E-03     107.591E-03    -33.0759E+06     21.7063E+06     8.04681E+06     1.86471E+06    -113.326E-03     222.991E-03    -109.664E-03     175.749E-03    -117.990E-03     227.590E-03    -109.608E-03     167.933E-03
             914     12.1004E-03     107.791E-03    -29.4915E+06     93.7167E+06     27.7501E+06     5.27623E+06    -113.418E-03     223.029E-03    -109.612E-03     193.383E-03    -119.768E-03     229.527E-03    -109.566E-03     184.548E-03
             915     12.9043E-03     108.014E-03    -24.6670E+06     126.030E+06     66.4899E+06     5.50070E+06    -112.937E-03     222.653E-03    -109.715E-03     201.114E-03    -120.737E-03     230.619E-03    -109.530E-03     191.759E-03
             916     13.7137E-03     108.229E-03    -17.7992E+06     136.580E+06     98.6886E+06     3.88947E+06    -110.727E-03     220.545E-03    -109.818E-03     182.009E-03    -118.506E-03     228.459E-03    -109.497E-03     173.380E-03
             917     14.5182E-03     108.410E-03    -10.4974E+06     147.809E+06     113.667E+06     2.69304E+06    -108.754E-03     218.577E-03    -109.824E-03     163.043E-03    -116.245E-03     226.226E-03    -109.454E-03     155.484E-03
             918     15.3326E-03     108.582E-03    -4.97444E+06     145.661E+06     110.827E+06     1.73460E+06    -108.183E-03     217.950E-03    -109.767E-03     94.4848E-03    -112.787E-03     222.732E-03    -109.417E-03     89.2568E-03
             919     805.976E-06     107.365E-03    -97.0100E+06    -245.029E+06    -95.2078E+06    -813.069E+03    -110.224E-03     220.235E-03    -110.012E-03     15.6583E-03    -110.228E-03     219.302E-03    -109.992E-03     15.3170E-03
             920     1.61251E-03     107.388E-03    -94.1364E+06    -236.455E+06    -88.7079E+06    -2.08753E+06    -110.332E-03     220.443E-03    -110.110E-03     28.8995E-03    -110.372E-03     219.566E-03    -110.075E-03     28.2534E-03
             921     2.41846E-03     107.429E-03    -90.2982E+06    -227.406E+06    -77.9742E+06    -3.18526E+06    -110.371E-03     220.499E-03    -110.129E-03     42.4434E-03    -110.467E-03     219.694E-03    -110.058E-03     41.4631E-03
             922     3.22476E-03     107.483E-03    -85.1242E+06    -220.243E+06    -63.6093E+06    -4.06199E+06    -110.619E-03     220.756E-03    -110.136E-03     55.9660E-03    -110.792E-03     220.029E-03    -110.012E-03     54.6246E-03
             923     4.03177E-03     107.553E-03    -78.7494E+06    -206.896E+06    -51.9624E+06    -5.10815E+06    -110.952E-03     221.078E-03    -110.125E-03     69.2338E-03    -111.229E-03     220.491E-03    -109.971E-03     67.4924E-03
             924     4.83734E-03     107.636E-03    -72.7886E+06    -192.923E+06    -41.1525E+06    -5.88698E+06    -111.277E-03     221.386E-03    -110.109E-03     82.1922E-03    -111.694E-03     220.979E-03    -109.929E-03     80.0112E-03
             925     5.64466E-03     107.735E-03    -67.0312E+06    -182.448E+06    -30.7162E+06    -6.83708E+06    -111.646E-03     221.738E-03    -110.092E-03     94.7472E-03    -112.241E-03     221.536E-03    -109.883E-03     92.0741E-03
             926     6.45084E-03     107.846E-03    -61.1426E+06    -167.172E+06    -23.8084E+06    -7.70145E+06    -111.989E-03     222.034E-03    -110.045E-03     106.996E-03    -112.814E-03     222.117E-03    -109.833E-03     103.780E-03
             927     7.25763E-03     107.971E-03    -55.5736E+06    -152.434E+06    -18.1176E+06    -8.19018E+06    -112.328E-03     222.315E-03    -109.987E-03     119.032E-03    -113.447E-03     222.748E-03    -109.776E-03     115.215E-03
             928     8.06482E-03     108.108E-03    -50.2992E+06    -135.135E+06    -13.5922E+06    -8.05095E+06    -112.662E-03     222.580E-03    -109.918E-03     130.526E-03    -114.160E-03     223.459E-03    -109.717E-03     126.048E-03
             929     8.87164E-03     108.258E-03    -45.4086E+06    -114.357E+06    -8.60841E+06    -7.33303E+06    -112.965E-03     222.815E-03    -109.850E-03     141.478E-03    -114.954E-03     224.262E-03    -109.661E-03     136.265E-03
             930     9.67920E-03     108.417E-03    -40.8617E+06    -89.5430E+06    -5.46689E+06    -6.09299E+06    -113.115E-03     222.886E-03    -109.770E-03     151.823E-03    -115.720E-03     225.043E-03    -109.609E-03     145.827E-03
             931     10.4843E-03     108.589E-03    -36.5003E+06    -50.9288E+06    -298.622E+03    -3.60423E+06    -113.105E-03     222.787E-03    -109.681E-03     162.541E-03    -116.543E-03     225.915E-03    -109.556E-03     155.690E-03
             932     11.2944E-03     108.771E-03    -32.4493E+06     13.6804E+06     5.73300E+06     651.199E+03    -113.301E-03     222.865E-03    -109.563E-03     176.608E-03    -117.947E-03     227.427E-03    -109.508E-03     168.798E-03
             933     12.0983E-03     108.972E-03    -28.1794E+06     89.1355E+06     24.8309E+06     5.15486E+06    -113.502E-03     223.004E-03    -109.502E-03     194.292E-03    -119.836E-03     229.482E-03    -109.467E-03     185.467E-03
             934     12.9091E-03     109.193E-03    -23.5844E+06     128.563E+06     64.4110E+06     6.05320E+06    -112.827E-03     222.424E-03    -109.598E-03     202.227E-03    -120.617E-03     230.401E-03    -109.428E-03     192.914E-03
             935     13.7132E-03     109.413E-03    -18.4933E+06     139.156E+06     98.3859E+06     4.26519E+06    -110.590E-03     220.295E-03    -109.704E-03     182.598E-03    -118.380E-03     228.227E-03    -109.387E-03     174.008E-03
             936     14.5243E-03     109.586E-03    -12.6241E+06     148.577E+06     114.240E+06     2.96601E+06    -108.680E-03     218.397E-03    -109.717E-03     163.732E-03    -116.217E-03     226.085E-03    -109.343E-03     156.169E-03
             937     15.3242E-03     109.766E-03    -5.99528E+06     147.267E+06     112.045E+06     1.95288E+06    -107.969E-03     217.627E-03    -109.658E-03     95.7440E-03    -112.612E-03     222.447E-03    -109.303E-03     90.5010E-03
             938     806.537E-06     108.544E-03    -96.5185E+06    -241.536E+06    -95.2486E+06    -1.38590E+06    -110.167E-03     220.164E-03    -109.998E-03     15.9069E-03    -110.174E-03     219.248E-03    -109.984E-03     15.5593E-03
             939     1.61225E-03     108.570E-03    -93.9587E+06    -232.742E+06    -88.2648E+06    -3.09458E+06    -110.206E-03     220.264E-03    -110.057E-03     28.8526E-03    -110.250E-03     219.404E-03    -110.025E-03     28.1951E-03
             940     2.41877E-03     108.609E-03    -90.2502E+06    -225.034E+06    -77.2321E+06    -3.54108E+06    -110.328E-03     220.394E-03    -110.066E-03     42.4979E-03    -110.428E-03     219.599E-03    -109.995E-03     41.5158E-03
             941     3.22531E-03     108.664E-03    -85.0623E+06    -216.090E+06    -64.4562E+06    -4.89428E+06    -110.534E-03     220.598E-03    -110.064E-03     56.1055E-03    -110.712E-03     219.893E-03    -109.949E-03     54.7584E-03
             942     4.03118E-03     108.733E-03    -79.2612E+06    -204.164E+06    -52.3048E+06    -6.23897E+06    -110.819E-03     220.868E-03    -110.049E-03     69.3760E-03    -111.101E-03     220.296E-03    -109.899E-03     67.6271E-03
             943     4.83857E-03     108.817E-03    -73.0142E+06    -190.458E+06    -40.6206E+06    -6.93635E+06    -111.149E-03     221.175E-03    -110.026E-03     82.4147E-03    -111.570E-03     220.779E-03    -109.847E-03     80.2311E-03
             944     5.64447E-03     108.915E-03    -66.8398E+06    -179.203E+06    -30.7499E+06    -7.93529E+06    -111.457E-03     221.449E-03    -109.992E-03     95.0535E-03    -112.053E-03     221.260E-03    -109.789E-03     92.3831E-03
             945     6.45180E-03     109.027E-03    -61.1359E+06    -164.333E+06    -24.0535E+06    -9.19940E+06    -111.786E-03     221.717E-03    -109.930E-03     107.372E-03    -112.612E-03     221.812E-03    -109.724E-03     104.153E-03
             946     7.25873E-03     109.151E-03    -55.6856E+06    -150.341E+06    -18.2868E+06    -9.89734E+06    -112.132E-03     221.993E-03    -109.861E-03     119.512E-03    -113.250E-03     222.433E-03    -109.654E-03     115.698E-03
             947     8.06552E-03     109.288E-03    -50.5837E+06    -134.710E+06    -14.4128E+06    -10.0414E+06    -112.460E-03     222.240E-03    -109.779E-03     131.200E-03    -113.955E-03     223.118E-03    -109.583E-03     126.723E-03
             948     8.87286E-03     109.437E-03    -45.7009E+06    -115.178E+06    -9.92890E+06    -9.51099E+06    -112.759E-03     222.457E-03    -109.698E-03     142.397E-03    -114.740E-03     223.896E-03    -109.514E-03     137.191E-03
             949     9.67940E-03     109.598E-03    -41.1860E+06    -91.1068E+06    -6.60905E+06    -8.11269E+06    -112.946E-03     222.556E-03    -109.609E-03     152.863E-03    -115.545E-03     224.703E-03    -109.451E-03     146.877E-03
             950     10.4888E-03     109.768E-03    -37.0962E+06    -55.5042E+06    -2.26804E+06    -5.84782E+06    -112.951E-03     222.463E-03    -109.512E-03     163.761E-03    -116.380E-03     225.570E-03    -109.389E-03     156.917E-03
             951     11.2932E-03     109.951E-03    -33.4769E+06     4.94193E+06     2.91498E+06    -825.578E+03    -113.166E-03     222.553E-03    -109.387E-03     178.378E-03    -117.802E-03     227.079E-03    -109.331E-03     170.593E-03
             952     12.1038E-03     110.152E-03    -30.5933E+06     83.6534E+06     19.3806E+06     4.17098E+06    -113.556E-03     222.862E-03    -109.305E-03     196.151E-03    -119.903E-03     229.340E-03    -109.285E-03     187.334E-03
             953     12.9071E-03     110.374E-03    -26.1848E+06     129.706E+06     58.6911E+06     5.32585E+06    -112.824E-03     222.216E-03    -109.392E-03     203.559E-03    -120.646E-03     230.235E-03    -109.249E-03     194.254E-03
             954     13.7185E-03     110.591E-03    -19.1723E+06     141.015E+06     96.3984E+06     4.38615E+06    -110.596E-03     220.114E-03    -109.518E-03     183.688E-03    -118.401E-03     228.071E-03    -109.212E-03     175.118E-03
             955     14.5212E-03     110.770E-03    -11.6682E+06     150.180E+06     115.135E+06     3.38856E+06    -108.753E-03     218.302E-03    -109.550E-03     164.617E-03    -116.290E-03     225.998E-03    -109.175E-03     157.065E-03
             956     15.3373E-03     110.943E-03    -5.51405E+06     149.416E+06     113.680E+06     2.37487E+06    -107.785E-03     217.282E-03    -109.498E-03     96.5605E-03    -112.440E-03     222.119E-03    -109.138E-03     91.3192E-03
             957     805.877E-06     109.726E-03    -97.4124E+06    -236.346E+06    -97.0744E+06    -2.71360E+06    -110.095E-03     219.993E-03    -109.898E-03     16.0489E-03    -110.111E-03     219.106E-03    -109.900E-03     15.6850E-03
             958     1.61273E-03     109.750E-03    -95.4288E+06    -229.089E+06    -89.0108E+06    -3.21005E+06    -109.994E-03     219.945E-03    -109.951E-03     28.8850E-03    -110.049E-03     219.107E-03    -109.926E-03     28.2305E-03
             959     2.41903E-03     109.790E-03    -90.9491E+06    -221.751E+06    -77.3022E+06    -4.49811E+06    -110.195E-03     220.131E-03    -109.936E-03     42.6542E-03    -110.303E-03     219.353E-03    -109.869E-03     41.6655E-03
             960     3.22521E-03     109.844E-03    -85.3233E+06    -211.576E+06    -64.7904E+06    -5.82099E+06    -110.397E-03     220.326E-03    -109.929E-03     56.2870E-03    -110.581E-03     219.644E-03    -109.822E-03     54.9351E-03
             961     4.03249E-03     109.914E-03    -79.2509E+06    -200.531E+06    -51.7199E+06    -7.29162E+06    -110.622E-03     220.533E-03    -109.911E-03     69.7335E-03    -110.909E-03     219.977E-03    -109.764E-03     67.9835E-03
             962     4.83840E-03     109.997E-03    -72.8038E+06    -187.808E+06    -40.0667E+06    -8.31198E+06    -110.884E-03     220.755E-03    -109.872E-03     82.7785E-03    -111.306E-03     220.369E-03    -109.694E-03     80.5957E-03
             963     5.64607E-03     110.095E-03    -66.5099E+06    -175.534E+06    -30.6826E+06    -9.33994E+06    -111.163E-03     220.975E-03    -109.812E-03     95.5524E-03    -111.759E-03     220.801E-03    -109.615E-03     92.8878E-03
             964     6.45265E-03     110.206E-03    -60.4259E+06    -160.919E+06    -23.7212E+06    -10.6415E+06    -111.500E-03     221.233E-03    -109.732E-03     108.076E-03    -112.324E-03     221.339E-03    -109.530E-03     104.870E-03
             965     7.25990E-03     110.330E-03    -54.9375E+06    -148.301E+06    -18.1087E+06    -11.2945E+06    -111.811E-03     221.458E-03    -109.646E-03     120.287E-03    -112.924E-03     221.901E-03    -109.442E-03     116.489E-03
             966     8.06759E-03     110.467E-03    -50.2004E+06    -133.171E+06    -14.5059E+06    -11.5989E+06    -112.090E-03     221.634E-03    -109.544E-03     132.321E-03    -113.579E-03     222.514E-03    -109.350E-03     127.869E-03
             967     8.87490E-03     110.617E-03    -45.9208E+06    -115.361E+06    -10.6563E+06    -11.3153E+06    -112.393E-03     221.833E-03    -109.440E-03     143.836E-03    -114.367E-03     223.266E-03    -109.259E-03     138.660E-03
             968     9.68331E-03     110.777E-03    -41.9490E+06    -93.4192E+06    -8.16395E+06    -9.97507E+06    -112.625E-03     221.957E-03    -109.332E-03     154.543E-03    -115.215E-03     224.090E-03    -109.176E-03     148.589E-03
             969     10.4887E-03     110.948E-03    -38.3073E+06    -58.6301E+06    -3.52320E+06    -7.63871E+06    -112.741E-03     221.967E-03    -109.226E-03     165.556E-03    -116.167E-03     225.058E-03    -109.103E-03     158.744E-03
             970     11.2997E-03     111.130E-03    -34.7431E+06    -5.18205E+06     376.863E+03    -2.42344E+06    -113.051E-03     222.150E-03    -109.098E-03     180.475E-03    -117.678E-03     226.634E-03    -109.039E-03     172.718E-03
             971     12.1040E-03     111.333E-03    -30.7256E+06     77.5123E+06     14.9766E+06     3.63476E+06    -113.324E-03     222.315E-03    -108.991E-03     198.499E-03    -119.661E-03     228.775E-03    -108.984E-03     189.747E-03
             972     12.9153E-03     111.554E-03    -26.2712E+06     131.568E+06     54.0650E+06     4.84859E+06    -112.782E-03     221.840E-03    -109.058E-03     206.201E-03    -120.623E-03     229.898E-03    -108.940E-03     196.943E-03
             973     13.7183E-03     111.772E-03    -20.3147E+06     141.526E+06     92.9741E+06     3.66943E+06    -111.148E-03     220.357E-03    -109.209E-03     186.664E-03    -119.009E-03     228.379E-03    -108.920E-03     178.047E-03
             974     14.5309E-03     111.948E-03    -13.6088E+06     151.189E+06     114.138E+06     2.86961E+06    -109.400E-03     218.693E-03    -109.293E-03     165.794E-03    -116.951E-03     226.401E-03    -108.921E-03     158.183E-03
             975     15.3294E-03     112.124E-03    -6.84859E+06     151.137E+06     114.619E+06     2.06943E+06    -107.580E-03     216.852E-03    -109.272E-03     97.0421E-03    -112.229E-03     221.681E-03    -108.908E-03     91.7858E-03
             976     806.578E-06     110.906E-03    -96.7384E+06    -230.618E+06    -94.0651E+06    -2.42987E+06    -109.866E-03     219.506E-03    -109.641E-03     15.9657E-03    -109.891E-03     218.643E-03    -109.636E-03     15.6092E-03
             977     1.61280E-03     110.930E-03    -93.4136E+06    -225.065E+06    -86.6651E+06    -3.66741E+06    -109.828E-03     219.554E-03    -109.727E-03     29.1510E-03    -109.883E-03     218.730E-03    -109.698E-03     28.4956E-03
             978     2.41944E-03     110.969E-03    -89.0446E+06    -216.754E+06    -75.5218E+06    -5.29874E+06    -109.962E-03     219.679E-03    -109.718E-03     42.9386E-03    -110.070E-03     218.921E-03    -109.652E-03     41.9491E-03
             979     3.22645E-03     111.024E-03    -83.4966E+06    -207.220E+06    -62.5442E+06    -7.05426E+06    -110.128E-03     219.831E-03    -109.703E-03     56.6032E-03    -110.311E-03     219.164E-03    -109.594E-03     55.2492E-03
             980     4.03259E-03     111.093E-03    -77.2228E+06    -196.407E+06    -49.4639E+06    -8.04186E+06    -110.284E-03     219.952E-03    -109.668E-03     70.1563E-03    -110.568E-03     219.408E-03    -109.518E-03     68.4175E-03
             981     4.84044E-03     111.177E-03    -71.0930E+06    -184.019E+06    -38.5192E+06    -9.49610E+06    -110.453E-03     220.051E-03    -109.598E-03     83.4526E-03    -110.871E-03     219.676E-03    -109.421E-03     81.2827E-03
             982     5.64700E-03     111.274E-03    -64.6493E+06    -171.646E+06    -29.8707E+06    -10.9511E+06    -110.732E-03     220.238E-03    -109.506E-03     96.4573E-03    -111.322E-03     220.075E-03    -109.312E-03     93.8076E-03
             983     6.45498E-03     111.385E-03    -58.8880E+06    -157.766E+06    -23.1017E+06    -11.8582E+06    -111.026E-03     220.425E-03    -109.399E-03     109.217E-03    -111.841E-03     220.538E-03    -109.200E-03     106.041E-03
             984     7.26255E-03     111.509E-03    -53.7716E+06    -146.131E+06    -17.6976E+06    -12.6077E+06    -111.321E-03     220.607E-03    -109.287E-03     121.673E-03    -112.425E-03     221.053E-03    -109.085E-03     117.911E-03
             985     8.07020E-03     111.646E-03    -49.0315E+06    -131.276E+06    -13.8089E+06    -12.6268E+06    -111.598E-03     220.758E-03    -109.161E-03     133.884E-03    -113.075E-03     221.636E-03    -108.968E-03     129.482E-03
             986     8.87868E-03     111.795E-03    -44.9361E+06    -114.466E+06    -9.89759E+06    -12.3082E+06    -111.852E-03     220.886E-03    -109.033E-03     145.695E-03    -113.814E-03     222.310E-03    -108.852E-03     140.582E-03
             987     9.68592E-03     111.955E-03    -41.1478E+06    -94.6925E+06    -7.70591E+06    -11.2273E+06    -112.097E-03     220.998E-03    -108.901E-03     156.752E-03    -114.671E-03     223.111E-03    -108.742E-03     150.870E-03
             988     10.4966E-03     112.126E-03    -37.4961E+06    -62.1055E+06    -3.71369E+06    -8.67988E+06    -112.438E-03     221.214E-03    -108.776E-03     168.255E-03    -115.848E-03     224.281E-03    -108.650E-03     161.512E-03
             989     11.3010E-03     112.310E-03    -33.4472E+06    -14.2512E+06     257.721E+03    -4.50951E+06    -112.898E-03     221.549E-03    -108.651E-03     183.501E-03    -117.511E-03     225.992E-03    -108.581E-03     175.792E-03
             990     12.1124E-03     112.512E-03    -28.7323E+06     68.8120E+06     12.4435E+06     1.70304E+06    -113.039E-03     221.562E-03    -108.523E-03     201.681E-03    -119.355E-03     227.984E-03    -108.519E-03     193.002E-03
             991     12.9173E-03     112.734E-03    -24.0649E+06     131.865E+06     50.4306E+06     5.90968E+06    -112.573E-03     221.133E-03    -108.559E-03     209.391E-03    -120.393E-03     229.189E-03    -108.464E-03     200.239E-03
             992     13.7299E-03     112.952E-03    -19.9688E+06     144.323E+06     90.9614E+06     5.45088E+06    -111.257E-03     219.976E-03    -108.719E-03     190.758E-03    -119.166E-03     228.063E-03    -108.445E-03     182.212E-03
             993     14.5292E-03     113.133E-03    -14.3817E+06     153.068E+06     113.157E+06     3.11239E+06    -110.214E-03     219.057E-03    -108.843E-03     170.555E-03    -117.893E-03     226.900E-03    -108.478E-03     162.876E-03
             994     15.3451E-03     113.301E-03    -6.20587E+06     152.658E+06     115.684E+06     940.059E+03    -108.739E-03     217.633E-03    -108.894E-03     98.7127E-03    -113.451E-03     222.529E-03    -108.528E-03     93.3292E-03
             995     806.738E-06     112.086E-03    -91.4063E+06    -224.704E+06    -89.8860E+06    -1.78449E+06    -109.442E-03     218.718E-03    -109.276E-03     16.0708E-03    -109.455E-03     217.870E-03    -109.267E-03     15.7297E-03
             996     1.61362E-03     112.110E-03    -89.2566E+06    -219.711E+06    -82.6503E+06    -4.14115E+06    -109.535E-03     218.885E-03    -109.349E-03     29.3729E-03    -109.582E-03     218.075E-03    -109.315E-03     28.7220E-03
             997     2.42036E-03     112.149E-03    -84.7362E+06    -211.612E+06    -71.6608E+06    -5.78326E+06    -109.569E-03     218.921E-03    -109.353E-03     43.3093E-03    -109.668E-03     218.176E-03    -109.281E-03     42.3287E-03
             998     3.22705E-03     112.203E-03    -79.7530E+06    -202.222E+06    -58.7858E+06    -7.24419E+06    -109.637E-03     218.954E-03    -109.316E-03     57.2297E-03    -109.813E-03     218.299E-03    -109.201E-03     55.8970E-03
             999     4.03490E-03     112.272E-03    -74.0153E+06    -191.848E+06    -47.0373E+06    -9.04717E+06    -109.709E-03     218.950E-03    -109.241E-03     70.9544E-03    -109.985E-03     218.418E-03    -109.091E-03     69.2344E-03
            1000     4.84182E-03     112.355E-03    -67.7083E+06    -179.379E+06    -36.8839E+06    -10.4498E+06    -109.880E-03     219.014E-03    -109.134E-03     84.5231E-03    -110.287E-03     218.651E-03    -108.960E-03     82.3822E-03
            1001     5.65038E-03     112.453E-03    -62.1875E+06    -167.751E+06    -28.6871E+06    -11.9067E+06    -110.087E-03     219.097E-03    -109.010E-03     97.6997E-03    -110.666E-03     218.943E-03    -108.820E-03     95.0911E-03
            1002     6.45791E-03     112.563E-03    -56.8813E+06    -155.111E+06    -22.2057E+06    -12.7706E+06    -110.296E-03     219.164E-03    -108.869E-03     110.762E-03    -111.097E-03     219.278E-03    -108.672E-03     107.642E-03
            1003     7.26650E-03     112.687E-03    -52.0912E+06    -142.968E+06    -16.4911E+06    -13.4107E+06    -110.559E-03     219.278E-03    -108.719E-03     123.571E-03    -111.649E-03     219.723E-03    -108.519E-03     119.883E-03
            1004     8.07519E-03     112.823E-03    -47.7083E+06    -129.519E+06    -12.5052E+06    -13.6805E+06    -110.871E-03     219.432E-03    -108.561E-03     136.284E-03    -112.335E-03     220.303E-03    -108.367E-03     131.961E-03
            1005     8.88353E-03     112.972E-03    -43.5205E+06    -113.394E+06    -8.77314E+06    -13.0976E+06    -111.178E-03     219.583E-03    -108.404E-03     148.554E-03    -113.123E-03     220.995E-03    -108.220E-03     143.537E-03
            1006     9.69364E-03     113.132E-03    -39.6762E+06    -94.6450E+06    -6.19025E+06    -12.1452E+06    -111.479E-03     219.729E-03    -108.250E-03     159.923E-03    -114.032E-03     221.823E-03    -108.086E-03     154.147E-03
            1007     10.5001E-03     113.304E-03    -35.7711E+06    -65.8726E+06    -3.29925E+06    -10.2059E+06    -111.871E-03     219.975E-03    -108.104E-03     172.026E-03    -115.255E-03     223.007E-03    -107.973E-03     165.393E-03
            1008     11.3124E-03     113.488E-03    -31.7613E+06    -20.7567E+06     1.13589E+06    -6.72980E+06    -112.469E-03     220.437E-03    -107.968E-03     187.631E-03    -117.055E-03     224.833E-03    -107.886E-03     180.031E-03
            1009     12.1177E-03     113.691E-03    -27.9098E+06     58.5407E+06     11.8040E+06    -302.908E+03    -113.041E-03     220.880E-03    -107.839E-03     205.828E-03    -119.340E-03     227.254E-03    -107.824E-03     197.228E-03
            1010     12.9300E-03     113.913E-03    -23.4833E+06     127.012E+06     46.0724E+06     5.80142E+06    -112.912E-03     220.785E-03    -107.872E-03     213.561E-03    -120.753E-03     228.859E-03    -107.792E-03     204.465E-03
            1011     13.7332E-03     114.133E-03    -17.2344E+06     147.352E+06     87.5412E+06     6.89700E+06    -111.003E-03     219.043E-03    -108.040E-03     193.728E-03    -118.891E-03     227.139E-03    -107.791E-03     185.316E-03
            1012     14.5496E-03     114.312E-03    -9.81103E+06     158.691E+06     115.542E+06     4.24342E+06    -110.010E-03     218.200E-03    -108.190E-03     174.445E-03    -117.727E-03     226.110E-03    -107.829E-03     166.867E-03
            1013     15.3447E-03     114.489E-03    -5.39386E+06     155.248E+06     118.514E+06     1.55758E+06    -111.306E-03     219.639E-03    -108.334E-03     101.263E-03    -116.094E-03     224.616E-03    -107.958E-03     95.7694E-03
            1014     807.329E-06     113.263E-03    -87.2883E+06    -218.979E+06    -85.9499E+06    -2.23858E+06    -108.845E-03     217.673E-03    -108.828E-03     16.4048E-03    -108.852E-03     216.842E-03    -108.813E-03     16.0675E-03
            1015     1.61421E-03     113.289E-03    -84.6834E+06    -213.632E+06    -78.4015E+06    -4.00320E+06    -108.861E-03     217.655E-03    -108.794E-03     29.6502E-03    -108.899E-03     216.861E-03    -108.753E-03     29.0165E-03
            1016     2.42168E-03     113.327E-03    -80.9621E+06    -206.365E+06    -67.8776E+06    -5.95571E+06    -108.839E-03     217.581E-03    -108.742E-03     43.9760E-03    -108.931E-03     216.850E-03    -108.665E-03     43.0188E-03
            1017     3.22957E-03     113.382E-03    -75.6605E+06    -197.068E+06    -55.9898E+06    -7.62248E+06    -108.845E-03     217.502E-03    -108.656E-03     58.1420E-03    -109.010E-03     216.860E-03    -108.541E-03     56.8403E-03
            1018     4.03709E-03     113.449E-03    -70.0805E+06    -186.243E+06    -44.6454E+06    -9.52920E+06    -108.941E-03     217.485E-03    -108.544E-03     72.0844E-03    -109.204E-03     216.968E-03    -108.396E-03     70.4041E-03
            1019     4.84596E-03     113.533E-03    -64.7648E+06    -175.055E+06    -35.4186E+06    -11.2498E+06    -109.036E-03     217.442E-03    -108.406E-03     85.9360E-03    -109.430E-03     217.087E-03    -108.236E-03     83.8452E-03
            1020     5.65371E-03     113.629E-03    -59.3238E+06    -163.169E+06    -27.0080E+06    -12.3795E+06    -109.122E-03     217.366E-03    -108.244E-03     99.5322E-03    -109.686E-03     217.219E-03    -108.057E-03     96.9948E-03
            1021     6.46335E-03     113.740E-03    -54.4027E+06    -151.909E+06    -20.2618E+06    -13.3618E+06    -109.262E-03     217.322E-03    -108.060E-03     113.016E-03    -110.046E-03     217.433E-03    -107.863E-03     109.984E-03
            1022     7.27239E-03     113.862E-03    -49.7309E+06    -139.707E+06    -14.7119E+06    -13.7900E+06    -109.469E-03     217.331E-03    -107.862E-03     126.376E-03    -110.538E-03     217.770E-03    -107.661E-03     122.800E-03
            1023     8.08209E-03     113.999E-03    -45.5830E+06    -127.517E+06    -10.5070E+06    -14.1989E+06    -109.796E-03     217.456E-03    -107.661E-03     139.545E-03    -111.235E-03     218.311E-03    -107.462E-03     135.350E-03
            1024     8.89246E-03     114.147E-03    -41.7118E+06    -112.623E+06    -7.43091E+06    -13.9126E+06    -110.190E-03     217.653E-03    -107.463E-03     152.370E-03    -112.105E-03     219.042E-03    -107.276E-03     147.495E-03
            1025     9.70107E-03     114.308E-03    -37.8831E+06    -94.3206E+06    -4.37612E+06    -13.0261E+06    -110.687E-03     217.971E-03    -107.284E-03     164.553E-03    -113.215E-03     220.042E-03    -107.114E-03     158.923E-03
            1026     10.5135E-03     114.480E-03    -34.3032E+06    -68.0280E+06    -1.99519E+06    -11.8224E+06    -111.289E-03     218.414E-03    -107.125E-03     177.039E-03    -114.646E-03     221.414E-03    -106.987E-03     170.547E-03
            1027     11.3200E-03     114.665E-03    -30.8019E+06    -26.1408E+06     2.65913E+06    -8.26263E+06    -112.215E-03     219.213E-03    -106.998E-03     192.634E-03    -116.774E-03     223.563E-03    -106.903E-03     185.168E-03
            1028     12.1329E-03     114.868E-03    -27.5883E+06     47.2330E+06     12.1056E+06    -1.24126E+06    -113.315E-03     220.216E-03    -106.901E-03     210.613E-03    -119.587E-03     226.522E-03    -106.869E-03     202.119E-03
            1029     12.9374E-03     115.093E-03    -23.7199E+06     121.635E+06     41.9422E+06     4.85560E+06    -113.728E-03     220.690E-03    -106.962E-03     218.270E-03    -121.581E-03     228.769E-03    -106.894E-03     209.213E-03
            1030     13.7500E-03     115.313E-03    -18.0522E+06     150.009E+06     82.0348E+06     4.99366E+06    -112.819E-03     220.035E-03    -107.216E-03     196.048E-03    -120.723E-03     228.170E-03    -106.997E-03     187.531E-03
            1031     14.5493E-03     115.490E-03    -11.3466E+06     160.303E+06     113.437E+06     3.74611E+06    -111.306E-03     218.816E-03    -107.510E-03     173.470E-03    -118.972E-03     226.681E-03    -107.159E-03     165.846E-03
            1032     15.3684E-03     115.673E-03    -5.92740E+06     157.265E+06     121.260E+06     3.55857E+06    -112.648E-03     220.430E-03    -107.782E-03     101.726E-03    -117.419E-03     225.386E-03    -107.395E-03     96.2197E-03
            1033     807.453E-06     114.442E-03    -83.5792E+06    -212.792E+06    -81.8780E+06    -2.34240E+06    -107.919E-03     215.932E-03    -108.013E-03     16.6694E-03    -107.922E-03     215.120E-03    -107.993E-03     16.3415E-03
            1034     1.61587E-03     114.464E-03    -80.7370E+06    -208.058E+06    -74.5716E+06    -4.36915E+06    -107.775E-03     215.652E-03    -107.877E-03     30.3974E-03    -107.807E-03     214.875E-03    -107.831E-03     29.7819E-03
            1035     2.42404E-03     114.504E-03    -76.6908E+06    -200.528E+06    -64.6444E+06    -6.08697E+06    -107.785E-03     215.544E-03    -107.759E-03     44.8710E-03    -107.867E-03     214.829E-03    -107.680E-03     43.9485E-03
            1036     3.23246E-03     114.556E-03    -71.9951E+06    -191.515E+06    -53.7588E+06    -8.26956E+06    -107.780E-03     215.421E-03    -107.641E-03     59.2868E-03    -107.934E-03     214.795E-03    -107.527E-03     58.0264E-03
            1037     4.04169E-03     114.626E-03    -66.6847E+06    -180.891E+06    -42.8669E+06    -10.0233E+06    -107.782E-03     215.278E-03    -107.496E-03     73.6551E-03    -108.033E-03     214.775E-03    -107.351E-03     72.0348E-03
            1038     4.85016E-03     114.707E-03    -61.3352E+06    -170.050E+06    -32.8975E+06    -11.4588E+06    -107.714E-03     215.030E-03    -107.316E-03     87.9181E-03    -108.093E-03     214.683E-03    -107.145E-03     85.9107E-03
            1039     5.66093E-03     114.804E-03    -56.4792E+06    -158.694E+06    -24.7831E+06    -12.7624E+06    -107.715E-03     214.811E-03    -107.096E-03     102.174E-03    -108.262E-03     214.666E-03    -106.908E-03     99.7405E-03
            1040     6.47037E-03     114.913E-03    -51.7324E+06    -148.298E+06    -17.9619E+06    -13.5987E+06    -107.827E-03     214.685E-03    -106.857E-03     116.175E-03    -108.590E-03     214.789E-03    -106.657E-03     113.271E-03
            1041     7.28160E-03     115.036E-03    -47.4332E+06    -136.624E+06    -12.8185E+06    -14.0017E+06    -108.008E-03     214.612E-03    -106.604E-03     130.120E-03    -109.050E-03     215.038E-03    -106.401E-03     126.697E-03
            1042     8.09257E-03     115.172E-03    -43.5503E+06    -125.078E+06    -8.40797E+06    -14.1813E+06    -108.347E-03     214.701E-03    -106.354E-03     144.064E-03    -109.755E-03     215.534E-03    -106.151E-03     140.052E-03
            1043     8.90338E-03     115.321E-03    -40.0399E+06    -111.396E+06    -5.77551E+06    -14.3283E+06    -108.912E-03     215.026E-03    -106.114E-03     157.562E-03    -110.792E-03     216.385E-03    -105.923E-03     152.878E-03
            1044     9.71635E-03     115.482E-03    -36.7721E+06    -94.4469E+06    -3.03822E+06    -13.7501E+06    -109.662E-03     215.574E-03    -105.912E-03     170.262E-03    -112.153E-03     217.608E-03    -105.737E-03     164.830E-03
            1045     10.5248E-03     115.654E-03    -33.9927E+06    -68.3423E+06    -576.789E+03    -12.3777E+06    -110.809E-03     216.566E-03    -105.757E-03     183.336E-03    -114.141E-03     219.536E-03    -105.612E-03     177.029E-03
            1046     11.3384E-03     115.840E-03    -31.6944E+06    -31.1722E+06     4.04595E+06    -8.91453E+06    -112.344E-03     218.021E-03    -105.676E-03     199.338E-03    -116.896E-03     222.338E-03    -105.565E-03     192.018E-03
            1047     12.1440E-03     116.046E-03    -29.0328E+06     36.1507E+06     10.2463E+06    -2.05023E+06    -114.206E-03     219.850E-03    -105.644E-03     217.541E-03    -120.495E-03     226.134E-03    -105.603E-03     209.119E-03
            1048     12.9568E-03     116.271E-03    -25.0621E+06     117.728E+06     38.1131E+06     3.31447E+06    -115.537E-03     221.337E-03    -105.800E-03     224.261E-03    -123.433E-03     229.452E-03    -105.744E-03     215.156E-03
            1049     13.7582E-03     116.496E-03    -19.9280E+06     152.395E+06     78.2034E+06     4.08779E+06    -115.495E-03     221.702E-03    -106.207E-03     202.158E-03    -123.513E-03     229.964E-03    -106.008E-03     193.496E-03
            1050     14.5665E-03     116.676E-03    -14.0209E+06     159.554E+06     108.898E+06     3.75134E+06    -115.327E-03     222.044E-03    -106.718E-03     178.777E-03    -123.156E-03     230.074E-03    -106.384E-03     170.802E-03
            1051     15.3581E-03     116.848E-03    -6.07110E+06     158.402E+06     122.297E+06     3.56872E+06    -115.001E-03     222.209E-03    -107.209E-03     107.440E-03    -119.919E-03     227.314E-03    -106.818E-03     101.621E-03
            1052     808.980E-06     115.614E-03    -79.0046E+06    -206.058E+06    -77.4902E+06    -2.87053E+06    -106.591E-03     213.018E-03    -106.427E-03     16.6305E-03    -106.587E-03     212.226E-03    -106.401E-03     16.3079E-03
            1053     1.61808E-03     115.640E-03    -76.3553E+06    -201.876E+06    -70.9256E+06    -4.63753E+06    -106.368E-03     212.790E-03    -106.422E-03     31.3070E-03    -106.390E-03     212.030E-03    -106.373E-03     30.7209E-03
            1054     2.42751E-03     115.677E-03    -72.7289E+06    -194.571E+06    -61.8953E+06    -6.87136E+06    -106.375E-03     212.683E-03    -106.309E-03     46.0025E-03    -106.446E-03     211.985E-03    -106.230E-03     45.1177E-03
            1055     3.23730E-03     115.731E-03    -68.0595E+06    -185.651E+06    -51.0340E+06    -8.71825E+06    -106.219E-03     212.391E-03    -106.172E-03     60.8617E-03    -106.360E-03     211.779E-03    -106.059E-03     59.6630E-03
            1056     4.04700E-03     115.797E-03    -63.1868E+06    -175.463E+06    -40.3927E+06    -10.5565E+06    -105.986E-03     211.958E-03    -105.972E-03     75.8268E-03    -106.223E-03     211.464E-03    -105.828E-03     74.2915E-03
            1057     4.85871E-03     115.880E-03    -58.0837E+06    -165.241E+06    -30.6156E+06    -11.8211E+06    -105.868E-03     211.590E-03    -105.723E-03     90.6899E-03    -106.228E-03     211.246E-03    -105.552E-03     88.7946E-03
            1058     5.66910E-03     115.974E-03    -53.1794E+06    -154.489E+06    -22.3562E+06    -12.6632E+06    -105.807E-03     211.248E-03    -105.440E-03     105.518E-03    -106.329E-03     211.096E-03    -105.251E-03     103.229E-03
            1059     6.48210E-03     116.084E-03    -48.9860E+06    -144.724E+06    -15.7278E+06    -13.3833E+06    -105.842E-03     210.979E-03    -105.137E-03     120.270E-03    -106.574E-03     211.068E-03    -104.935E-03     117.543E-03
            1060     7.29387E-03     116.206E-03    -45.0467E+06    -133.800E+06    -10.7305E+06    -13.7833E+06    -106.033E-03     210.855E-03    -104.822E-03     135.051E-03    -107.038E-03     211.256E-03    -104.616E-03     131.834E-03
            1061     8.10718E-03     116.342E-03    -41.4912E+06    -122.796E+06    -6.39885E+06    -13.8909E+06    -106.509E-03     211.028E-03    -104.519E-03     149.907E-03    -107.875E-03     211.828E-03    -104.313E-03     146.128E-03
            1062     8.92092E-03     116.491E-03    -38.4522E+06    -109.116E+06    -3.60419E+06    -13.7208E+06    -107.380E-03     211.627E-03    -104.247E-03     164.252E-03    -109.217E-03     212.950E-03    -104.051E-03     159.823E-03
            1063     9.73205E-03     116.652E-03    -36.0291E+06    -93.5025E+06    -914.135E+03    -13.3730E+06    -108.637E-03     212.681E-03    -104.044E-03     177.771E-03    -111.091E-03     214.677E-03    -103.860E-03     172.586E-03
            1064     10.5473E-03     116.826E-03    -33.6864E+06    -69.2593E+06     1.15245E+06    -11.7447E+06    -110.387E-03     214.307E-03    -103.920E-03     191.679E-03    -113.693E-03     217.244E-03    -103.765E-03     185.606E-03
            1065     11.3548E-03     117.015E-03    -31.4425E+06    -35.8694E+06     6.25399E+06    -8.26971E+06    -112.719E-03     216.633E-03    -103.914E-03     207.965E-03    -117.265E-03     220.921E-03    -103.785E-03     200.827E-03
            1066     12.1687E-03     117.222E-03    -28.4229E+06     27.6546E+06     12.1898E+06    -2.83335E+06    -115.825E-03     219.828E-03    -104.002E-03     226.918E-03    -122.164E-03     226.129E-03    -103.940E-03     218.536E-03
            1067     12.9709E-03     117.455E-03    -24.6183E+06     114.018E+06     38.8510E+06     2.92992E+06    -117.970E-03     222.278E-03    -104.309E-03     233.491E-03    -125.993E-03     230.507E-03    -104.244E-03     224.316E-03
            1068     13.7801E-03     117.678E-03    -20.2231E+06     153.747E+06     74.6150E+06     4.63691E+06    -118.198E-03     223.070E-03    -104.872E-03     210.906E-03    -126.379E-03     231.510E-03    -104.693E-03     202.123E-03
            1069     14.5791E-03     117.864E-03    -14.3578E+06     159.880E+06     104.441E+06     3.89104E+06    -119.274E-03     224.868E-03    -105.595E-03     187.443E-03    -127.349E-03     233.157E-03    -105.283E-03     179.130E-03
            1070     15.3864E-03     118.045E-03    -7.27244E+06     160.005E+06     122.813E+06     2.58288E+06    -120.696E-03     227.091E-03    -106.395E-03     112.670E-03    -125.822E-03     232.404E-03    -106.003E-03     106.383E-03
            1071     810.649E-06     116.787E-03    -74.1828E+06    -198.798E+06    -73.1865E+06    -3.14651E+06    -104.570E-03     208.909E-03    -104.339E-03     17.0966E-03    -104.558E-03     208.139E-03    -104.309E-03     16.7928E-03
            1072     1.62136E-03     116.808E-03    -72.2912E+06    -194.988E+06    -67.5839E+06    -5.18270E+06    -104.495E-03     208.889E-03    -104.394E-03     32.1413E-03    -104.510E-03     208.151E-03    -104.345E-03     31.5897E-03
            1073     2.43231E-03     116.848E-03    -68.7799E+06    -187.907E+06    -58.5352E+06    -7.44460E+06    -104.215E-03     208.501E-03    -104.286E-03     47.5242E-03    -104.278E-03     207.822E-03    -104.207E-03     46.6958E-03
            1074     3.24345E-03     116.899E-03    -64.4534E+06    -179.865E+06    -48.4184E+06    -9.52060E+06    -103.900E-03     207.980E-03    -104.081E-03     62.9921E-03    -104.028E-03     207.381E-03    -103.968E-03     61.8729E-03
            1075     4.05637E-03     116.966E-03    -59.6594E+06    -170.026E+06    -38.1630E+06    -10.8012E+06    -103.610E-03     207.419E-03    -103.809E-03     78.6247E-03    -103.828E-03     206.932E-03    -103.667E-03     77.2046E-03
            1076     4.86837E-03     117.046E-03    -55.1639E+06    -160.858E+06    -28.7626E+06    -12.0363E+06    -103.384E-03     206.877E-03    -103.493E-03     94.1514E-03    -103.721E-03     206.529E-03    -103.323E-03     92.4023E-03
            1077     5.68300E-03     117.141E-03    -50.6024E+06    -151.336E+06    -20.9177E+06    -12.7680E+06    -103.225E-03     206.364E-03    -103.139E-03     109.815E-03    -103.715E-03     206.197E-03    -102.951E-03     107.710E-03
            1078     6.49621E-03     117.249E-03    -46.1599E+06    -141.166E+06    -13.7850E+06    -12.8132E+06    -103.183E-03     205.945E-03    -102.762E-03     125.560E-03    -103.874E-03     206.011E-03    -102.560E-03     123.062E-03
            1079     7.31219E-03     117.371E-03    -42.5862E+06    -130.871E+06    -8.32922E+06    -12.9703E+06    -103.518E-03     205.902E-03    -102.384E-03     141.339E-03    -104.476E-03     206.267E-03    -102.174E-03     138.385E-03
            1080     8.12718E-03     117.506E-03    -39.4699E+06    -120.756E+06    -4.27980E+06    -13.0571E+06    -104.328E-03     206.368E-03    -102.040E-03     157.199E-03    -105.641E-03     207.124E-03    -101.829E-03     153.705E-03
            1081     8.94192E-03     117.656E-03    -36.7149E+06    -107.204E+06    -1.08186E+06    -12.4875E+06    -105.592E-03     207.350E-03    -101.757E-03     172.563E-03    -107.373E-03     208.622E-03    -101.554E-03     168.441E-03
            1082     9.75876E-03     117.819E-03    -34.4320E+06    -91.3699E+06     2.54535E+06    -11.7397E+06    -107.599E-03     209.181E-03    -101.582E-03     187.144E-03    -110.010E-03     211.138E-03    -101.387E-03     182.256E-03
            1083     10.5692E-03     117.996E-03    -32.6635E+06    -70.8814E+06     4.05904E+06    -10.3373E+06    -110.222E-03     211.755E-03    -101.533E-03     201.601E-03    -113.495E-03     214.649E-03    -101.363E-03     195.789E-03
            1084     11.3850E-03     118.187E-03    -30.1907E+06    -38.9286E+06     10.0003E+06    -7.59130E+06    -113.775E-03     215.433E-03    -101.658E-03     218.463E-03    -118.333E-03     219.717E-03    -101.508E-03     211.480E-03
            1085     12.1899E-03     118.400E-03    -27.3518E+06     21.2031E+06     17.7161E+06    -3.07607E+06    -117.775E-03     219.706E-03    -101.931E-03     237.482E-03    -124.182E-03     226.040E-03    -101.834E-03     229.145E-03
            1086     13.0013E-03     118.637E-03    -23.8778E+06     108.190E+06     44.6497E+06     3.14500E+06    -120.662E-03     223.101E-03    -102.439E-03     243.337E-03    -128.822E-03     231.431E-03    -102.338E-03     234.092E-03
            1087     13.8008E-03     118.865E-03    -18.9534E+06     155.720E+06     75.8272E+06     5.76914E+06    -122.634E-03     225.862E-03    -103.228E-03     219.134E-03    -131.027E-03     234.522E-03    -103.047E-03     210.040E-03
            1088     14.6026E-03     119.055E-03    -13.1687E+06     162.046E+06     102.541E+06     3.72404E+06    -125.184E-03     229.458E-03    -104.274E-03     192.850E-03    -133.470E-03     237.976E-03    -103.977E-03     183.994E-03
            1089     15.3914E-03     119.238E-03    -6.09207E+06     161.968E+06     123.626E+06     1.70675E+06    -128.574E-03     234.071E-03    -105.497E-03     113.585E-03    -133.797E-03     239.490E-03    -105.105E-03     106.737E-03
            1090     813.002E-06     117.950E-03    -70.7972E+06    -191.059E+06    -69.6558E+06    -3.14119E+06    -101.962E-03     203.610E-03    -101.648E-03     18.2289E-03    -101.948E-03     202.868E-03    -101.616E-03     17.9559E-03
            1091     1.62543E-03     117.975E-03    -68.7498E+06    -187.046E+06    -64.1574E+06    -5.93720E+06    -101.648E-03     203.346E-03    -101.698E-03     33.2188E-03    -101.660E-03     202.635E-03    -101.648E-03     32.7085E-03
            1092     2.43873E-03     118.011E-03    -65.4541E+06    -181.259E+06    -56.2560E+06    -8.14989E+06    -101.165E-03     202.658E-03    -101.494E-03     49.4320E-03    -101.218E-03     201.998E-03    -101.417E-03     48.6761E-03
            1093     3.25341E-03     118.063E-03    -61.5459E+06    -173.654E+06    -46.5884E+06    -10.0259E+06    -100.814E-03     202.015E-03    -101.200E-03     65.6495E-03    -100.930E-03     201.429E-03    -101.092E-03     64.6364E-03
            1094     4.06732E-03     118.128E-03    -57.2119E+06    -165.332E+06    -36.9814E+06    -11.3939E+06    -100.497E-03     201.360E-03    -100.863E-03     82.0254E-03    -100.695E-03     200.875E-03    -100.725E-03     80.7436E-03
            1095     4.88377E-03     118.208E-03    -52.5403E+06    -156.523E+06    -27.6085E+06    -12.0195E+06    -100.079E-03     200.556E-03    -100.477E-03     98.4532E-03    -100.387E-03     200.200E-03    -100.312E-03     96.8882E-03
            1096     5.69921E-03     118.301E-03    -48.3951E+06    -148.019E+06    -19.4904E+06    -12.5122E+06    -99.7993E-03     199.843E-03    -100.043E-03     115.177E-03    -100.251E-03     199.652E-03    -99.8559E-03     113.299E-03
            1097     6.51785E-03     118.409E-03    -44.5509E+06    -138.800E+06    -12.8423E+06    -12.4692E+06    -99.9139E-03     199.507E-03    -99.5931E-03     131.968E-03    -100.557E-03     199.535E-03    -99.3915E-03     129.736E-03
            1098     7.33491E-03     118.530E-03    -40.8852E+06    -128.693E+06    -6.79880E+06    -11.9958E+06    -100.545E-03     199.717E-03    -99.1725E-03     148.933E-03    -101.446E-03     200.035E-03    -98.9606E-03     146.281E-03
            1099     8.15339E-03     118.666E-03    -38.0633E+06    -118.384E+06    -2.09094E+06    -11.6298E+06    -101.775E-03     200.592E-03    -98.8171E-03     165.854E-03    -103.025E-03     201.291E-03    -98.6007E-03     162.693E-03
            1100     8.97189E-03     118.817E-03    -35.8469E+06    -106.495E+06     1.26558E+06    -10.7812E+06    -103.857E-03     202.425E-03    -98.5676E-03     182.310E-03    -105.579E-03     203.637E-03    -98.3549E-03     178.518E-03
            1101     9.78674E-03     118.983E-03    -34.2096E+06    -90.2406E+06     5.08772E+06    -9.63095E+06    -106.785E-03     205.260E-03    -98.4759E-03     197.711E-03    -109.148E-03     207.167E-03    -98.2700E-03     193.140E-03
            1102     10.6048E-03     119.163E-03    -32.8601E+06    -70.8740E+06     7.97379E+06    -8.43413E+06    -110.669E-03     209.247E-03    -98.5778E-03     212.549E-03    -113.928E-03     212.115E-03    -98.3875E-03     206.978E-03
            1103     11.4129E-03     119.359E-03    -31.3910E+06    -40.0939E+06     14.0768E+06    -6.63240E+06    -115.497E-03     214.405E-03    -98.9074E-03     230.061E-03    -120.103E-03     218.717E-03    -98.7334E-03     223.195E-03
            1104     12.2254E-03     119.579E-03    -28.9274E+06     16.3002E+06     23.9939E+06    -3.14499E+06    -120.668E-03     220.115E-03    -99.4471E-03     248.279E-03    -127.193E-03     226.526E-03    -99.3088E-03     239.896E-03
            1105     13.0265E-03     119.818E-03    -24.3898E+06     101.852E+06     51.8880E+06     2.49154E+06    -125.295E-03     225.569E-03    -100.273E-03     252.455E-03    -133.654E-03     234.053E-03    -100.126E-03     242.898E-03
            1106     13.8301E-03     120.058E-03    -18.3718E+06     156.847E+06     78.8742E+06     5.39407E+06    -129.172E-03     230.597E-03    -101.425E-03     226.318E-03    -137.819E-03     239.509E-03    -101.232E-03     216.659E-03
            1107     14.6196E-03     120.252E-03    -12.8041E+06     164.568E+06     103.307E+06     4.53946E+06    -133.379E-03     236.304E-03    -102.924E-03     198.894E-03    -141.953E-03     245.118E-03    -102.628E-03     189.207E-03
            1108     15.4106E-03     120.448E-03    -6.69979E+06     164.590E+06     124.477E+06     1.86603E+06    -137.872E-03     242.521E-03    -104.650E-03     119.486E-03    -143.314E-03     248.165E-03    -104.256E-03     111.828E-03
            1109     815.120E-06     119.110E-03    -67.8188E+06    -182.255E+06    -66.7514E+06    -3.54435E+06    -98.2660E-03     196.446E-03    -98.1802E-03     19.0764E-03    -98.2537E-03     195.739E-03    -98.1514E-03     18.8306E-03
            1110     1.63139E-03     119.131E-03    -65.7113E+06    -178.748E+06    -61.7745E+06    -6.48782E+06    -97.7349E-03     195.777E-03    -98.0417E-03     34.7973E-03    -97.7444E-03     195.096E-03    -97.9961E-03     34.3427E-03
            1111     2.44819E-03     119.168E-03    -62.9488E+06    -174.221E+06    -54.7193E+06    -8.88828E+06    -97.3615E-03     195.110E-03    -97.7482E-03     51.6527E-03    -97.4080E-03     194.471E-03    -97.6779E-03     50.9834E-03
            1112     3.26484E-03     119.217E-03    -59.3656E+06    -167.572E+06    -45.9772E+06    -10.5262E+06    -96.8982E-03     194.306E-03    -97.4080E-03     68.7130E-03    -96.9998E-03     193.734E-03    -97.3088E-03     67.8262E-03
            1113     4.08374E-03     119.283E-03    -55.4631E+06    -160.500E+06    -36.4933E+06    -11.7139E+06    -96.3192E-03     193.320E-03    -97.0009E-03     85.9473E-03    -96.4960E-03     192.834E-03    -96.8702E-03     84.8336E-03
            1114     4.90189E-03     119.360E-03    -51.5859E+06    -153.095E+06    -27.8354E+06    -12.0479E+06    -95.8291E-03     192.356E-03    -96.5272E-03     103.503E-03    -96.1055E-03     191.985E-03    -96.3696E-03     102.153E-03
            1115     5.72335E-03     119.453E-03    -48.0000E+06    -144.905E+06    -19.8607E+06    -11.7780E+06    -95.7156E-03     191.741E-03    -96.0254E-03     121.335E-03    -96.1266E-03     191.523E-03    -95.8450E-03     119.721E-03
            1116     6.54317E-03     119.559E-03    -45.0904E+06    -136.784E+06    -13.1298E+06    -11.4635E+06    -96.0835E-03     191.624E-03    -95.5402E-03     139.253E-03    -96.6771E-03     191.608E-03    -95.3421E-03     137.322E-03
            1117     7.36544E-03     119.682E-03    -43.0515E+06    -127.717E+06    -7.65388E+06    -10.5793E+06    -97.1597E-03     192.274E-03    -95.1142E-03     157.503E-03    -98.0065E-03     192.535E-03    -94.9049E-03     155.187E-03
            1118     8.18648E-03     119.818E-03    -41.4031E+06    -116.738E+06    -2.50284E+06    -9.61405E+06    -99.2260E-03     194.030E-03    -94.8038E-03     175.510E-03    -100.423E-03     194.672E-03    -94.5870E-03     172.700E-03
            1119     9.00627E-03     119.972E-03    -40.0614E+06    -105.724E+06     1.53430E+06    -8.87649E+06    -102.434E-03     197.101E-03    -94.6670E-03     192.967E-03    -104.115E-03     198.259E-03    -94.4480E-03     189.504E-03
            1120     9.82640E-03     120.141E-03    -38.4330E+06    -89.4593E+06     5.54185E+06    -8.07546E+06    -106.678E-03     201.429E-03    -94.7516E-03     208.854E-03    -109.015E-03     203.297E-03    -94.5384E-03     204.561E-03
            1121     10.6388E-03     120.326E-03    -36.3262E+06    -70.5544E+06     10.1876E+06    -7.00533E+06    -111.949E-03     207.049E-03    -95.1002E-03     224.319E-03    -115.226E-03     209.918E-03    -94.8943E-03     218.932E-03
            1122     11.4538E-03     120.531E-03    -33.5169E+06    -39.9422E+06     17.4790E+06    -5.72492E+06    -118.220E-03     213.948E-03    -95.7282E-03     241.550E-03    -122.898E-03     218.317E-03    -95.5343E-03     234.723E-03
            1123     12.2577E-03     120.756E-03    -30.0543E+06     13.3548E+06     29.2930E+06    -3.04650E+06    -125.298E-03     221.938E-03    -96.6408E-03     259.000E-03    -131.989E-03     228.488E-03    -96.4702E-03     250.397E-03
            1124     13.0623E-03     121.008E-03    -25.6722E+06     96.9787E+06     57.6459E+06     1.65875E+06    -132.159E-03     230.075E-03    -97.9169E-03     262.510E-03    -140.826E-03     238.832E-03    -97.7321E-03     252.362E-03
            1125     13.8526E-03     121.252E-03    -20.3415E+06     156.164E+06     80.6555E+06     4.76242E+06    -137.508E-03     237.063E-03    -99.5545E-03     235.322E-03    -146.526E-03     246.332E-03    -99.3482E-03     224.823E-03
            1126     14.6417E-03     121.462E-03    -13.8575E+06     167.898E+06     104.539E+06     3.53290E+06    -142.699E-03     244.281E-03    -101.582E-03     205.851E-03    -151.652E-03     253.481E-03    -101.282E-03     195.103E-03
            1127     15.4199E-03     121.658E-03    -5.94557E+06     167.702E+06     125.744E+06     1.26790E+06    -148.280E-03     252.136E-03    -103.856E-03     124.546E-03    -153.970E-03     258.038E-03    -103.462E-03     115.928E-03
            1128     819.507E-06     120.257E-03    -65.5719E+06    -172.277E+06    -65.2567E+06    -4.28954E+06    -93.3290E-03     186.839E-03    -93.5104E-03     19.7223E-03    -93.3213E-03     186.175E-03    -93.4918E-03     19.5031E-03
            1129     1.63944E-03     120.280E-03    -64.2251E+06    -170.300E+06    -61.2066E+06    -6.94957E+06    -93.0232E-03     186.271E-03    -93.2477E-03     36.4574E-03    -93.0346E-03     185.625E-03    -93.2136E-03     36.0693E-03
            1130     2.45946E-03     120.314E-03    -62.0477E+06    -166.930E+06    -54.8577E+06    -9.21340E+06    -92.5843E-03     185.546E-03    -92.9619E-03     54.0360E-03    -92.6282E-03     184.934E-03    -92.9042E-03     53.4697E-03
            1131     3.28115E-03     120.364E-03    -59.5249E+06    -161.958E+06    -47.5054E+06    -10.7181E+06    -91.8787E-03     184.457E-03    -92.5786E-03     72.0969E-03    -91.9716E-03     183.899E-03    -92.4950E-03     71.3546E-03
            1132     4.10266E-03     120.426E-03    -56.8840E+06    -156.369E+06    -39.2807E+06    -11.2445E+06    -91.1514E-03     183.247E-03    -92.0957E-03     90.3000E-03    -91.3116E-03     182.762E-03    -91.9829E-03     89.3824E-03
            1133     4.92751E-03     120.503E-03    -54.5415E+06    -150.325E+06    -31.2714E+06    -11.1801E+06    -90.8265E-03     182.389E-03    -91.5628E-03     108.987E-03    -91.0792E-03     182.003E-03    -91.4221E-03     107.878E-03
            1134     5.75071E-03     120.595E-03    -52.6036E+06    -143.362E+06    -24.0048E+06    -10.1880E+06    -90.9930E-03     182.031E-03    -91.0380E-03     127.939E-03    -91.3720E-03     181.781E-03    -90.8739E-03     126.614E-03
            1135     6.57683E-03     120.702E-03    -51.4701E+06    -135.422E+06    -17.1632E+06    -8.95235E+06    -91.8726E-03     182.445E-03    -90.5728E-03     147.182E-03    -92.4310E-03     182.388E-03    -90.3877E-03     145.582E-03
            1136     7.40132E-03     120.824E-03    -50.6507E+06    -126.495E+06    -10.8874E+06    -7.72096E+06    -93.8282E-03     184.054E-03    -90.2255E-03     166.468E-03    -94.6362E-03     184.263E-03    -90.0231E-03     164.503E-03
            1137     8.22595E-03     120.963E-03    -49.8793E+06    -115.767E+06    -5.43079E+06    -6.85711E+06    -97.0932E-03     187.155E-03    -90.0616E-03     185.506E-03    -98.2570E-03     187.745E-03    -89.8486E-03     183.036E-03
            1138     9.04878E-03     121.120E-03    -48.5074E+06    -103.586E+06    -259.937E+03    -7.19722E+06    -101.681E-03     191.825E-03    -90.1443E-03     203.705E-03    -103.339E-03     192.944E-03    -89.9250E-03     200.539E-03
            1139     9.86640E-03     121.296E-03    -46.0603E+06    -87.9494E+06     4.33008E+06    -7.66994E+06    -107.407E-03     197.920E-03    -90.5127E-03     220.228E-03    -109.749E-03     199.774E-03    -90.2967E-03     216.145E-03
            1140     10.6843E-03     121.488E-03    -42.3581E+06    -69.6404E+06     10.0885E+06    -7.81525E+06    -114.301E-03     205.507E-03    -91.2063E-03     236.089E-03    -117.619E-03     208.400E-03    -90.9935E-03     230.786E-03
            1141     11.4914E-03     121.700E-03    -37.2853E+06    -39.0742E+06     18.1299E+06    -7.70303E+06    -122.439E-03     214.676E-03    -92.2372E-03     253.321E-03    -127.233E-03     219.149E-03    -92.0358E-03     246.372E-03
            1142     12.2981E-03     121.938E-03    -31.1156E+06     9.20755E+06     30.9924E+06    -4.87367E+06    -131.595E-03     225.222E-03    -93.6268E-03     270.690E-03    -138.519E-03     231.981E-03    -93.4401E-03     261.657E-03
            1143     13.0920E-03     122.198E-03    -25.2845E+06     91.3636E+06     60.6687E+06     1.85731E+06    -140.274E-03     235.709E-03    -95.4356E-03     274.053E-03    -149.322E-03     244.820E-03    -95.2281E-03     263.131E-03
            1144     13.8829E-03     122.462E-03    -19.7419E+06     157.385E+06     83.8046E+06     4.82887E+06    -146.973E-03     244.603E-03    -97.6301E-03     245.431E-03    -156.437E-03     254.317E-03    -97.4106E-03     233.896E-03
            1145     14.6602E-03     122.675E-03    -13.2847E+06     172.293E+06     105.479E+06     2.56281E+06    -153.648E-03     253.887E-03    -100.239E-03     215.627E-03    -163.124E-03     263.625E-03    -99.9419E-03     203.529E-03
            1146     15.4316E-03     122.894E-03    -6.67229E+06     169.102E+06     124.672E+06     620.934E+03    -159.733E-03     262.842E-03    -103.109E-03     133.104E-03    -165.805E-03     269.133E-03    -102.721E-03     123.293E-03
            1147     824.409E-06     121.394E-03    -66.8542E+06    -162.171E+06    -66.1205E+06    -4.16597E+06    -87.6323E-03     175.068E-03    -87.4357E-03     20.4437E-03    -87.6433E-03     174.455E-03    -87.4342E-03     20.2668E-03
            1148     1.64868E-03     121.415E-03    -66.5506E+06    -161.637E+06    -63.7614E+06    -6.90038E+06    -87.2523E-03     174.630E-03    -87.3778E-03     38.0058E-03    -87.2798E-03     174.029E-03    -87.3658E-03     37.6937E-03
            1149     2.47419E-03     121.449E-03    -65.3803E+06    -160.194E+06    -59.3012E+06    -9.03554E+06    -86.5493E-03     173.626E-03    -87.0769E-03     56.5079E-03    -86.6033E-03     173.048E-03    -87.0463E-03     56.0566E-03
            1150     3.29994E-03     121.497E-03    -64.0156E+06    -157.190E+06    -53.3206E+06    -9.85916E+06    -85.7530E-03     172.383E-03    -86.6296E-03     75.4683E-03    -85.8482E-03     171.844E-03    -86.5754E-03     74.8907E-03
            1151     4.12849E-03     121.558E-03    -62.9998E+06    -153.866E+06    -46.4515E+06    -9.48563E+06    -85.2671E-03     171.379E-03    -86.1121E-03     94.8175E-03    -85.4217E-03     170.895E-03    -86.0299E-03     94.1153E-03
            1152     4.95569E-03     121.634E-03    -62.8684E+06    -149.237E+06    -38.9576E+06    -7.89504E+06    -85.2502E-03     170.845E-03    -85.5948E-03     114.647E-03    -85.4922E-03     170.444E-03    -85.4820E-03     113.811E-03
            1153     5.78610E-03     121.725E-03    -63.4026E+06    -142.454E+06    -31.4342E+06    -6.37624E+06    -85.9291E-03     171.059E-03    -85.1296E-03     134.692E-03    -86.2969E-03     170.784E-03    -84.9883E-03     133.676E-03
            1154     6.61473E-03     121.832E-03    -63.2851E+06    -134.794E+06    -23.7283E+06    -5.16702E+06    -87.7884E-03     172.575E-03    -84.7871E-03     155.017E-03    -88.3294E-03     172.480E-03    -84.6185E-03     153.746E-03
            1155     7.44384E-03     121.957E-03    -62.2054E+06    -125.413E+06    -16.2551E+06    -4.68645E+06    -91.0267E-03     175.668E-03    -84.6412E-03     175.291E-03    -91.8139E-03     175.835E-03    -84.4504E-03     173.645E-03
            1156     8.27032E-03     122.100E-03    -59.4418E+06    -113.323E+06    -9.07882E+06    -5.31099E+06    -95.7196E-03     180.471E-03    -84.7518E-03     195.311E-03    -96.8595E-03     181.024E-03    -84.5467E-03     193.123E-03
            1157     9.09352E-03     122.264E-03    -55.2615E+06    -100.085E+06    -2.49114E+06    -6.82785E+06    -101.755E-03     186.921E-03    -85.1660E-03     214.238E-03    -103.392E-03     188.014E-03    -84.9532E-03     211.303E-03
            1158     9.91469E-03     122.446E-03    -50.2568E+06    -84.9105E+06     3.41811E+06    -8.49470E+06    -109.109E-03     195.028E-03    -85.9192E-03     231.502E-03    -111.449E-03     196.880E-03    -85.7061E-03     227.558E-03
            1159     10.7266E-03     122.648E-03    -44.5264E+06    -66.8765E+06     9.94263E+06    -10.1005E+06    -117.784E-03     204.831E-03    -87.0468E-03     247.933E-03    -121.146E-03     207.771E-03    -86.8356E-03     242.622E-03
            1160     11.5370E-03     122.871E-03    -38.6835E+06    -37.3703E+06     17.9443E+06    -10.6415E+06    -127.794E-03     216.353E-03    -88.5592E-03     265.902E-03    -132.722E-03     220.962E-03    -88.3592E-03     258.724E-03
            1161     12.3350E-03     123.121E-03    -33.1338E+06     3.56786E+06     29.8858E+06    -8.10419E+06    -138.984E-03     229.467E-03    -90.4839E-03     284.095E-03    -146.202E-03     236.498E-03    -90.2916E-03     274.475E-03
            1162     13.1286E-03     123.400E-03    -25.5921E+06     83.1967E+06     59.2571E+06    -1.54159E+06    -149.295E-03     242.155E-03    -92.8598E-03     287.466E-03    -158.807E-03     251.704E-03    -92.6471E-03     275.561E-03
            1163     13.9082E-03     123.673E-03    -17.0559E+06     156.783E+06     82.9804E+06     3.61732E+06    -157.488E-03     253.130E-03    -95.6419E-03     258.129E-03    -167.518E-03     263.421E-03    -95.4296E-03     245.305E-03
            1164     14.6805E-03     123.906E-03    -11.5717E+06     176.163E+06     104.326E+06     4.01881E+06    -165.449E-03     264.320E-03    -98.8703E-03     226.944E-03    -175.495E-03     274.653E-03    -98.5873E-03     213.309E-03
            1165     15.4440E-03     124.133E-03    -5.78279E+06     171.706E+06     124.877E+06     1.39118E+06    -171.783E-03     274.156E-03    -102.373E-03     141.429E-03    -178.193E-03     280.796E-03    -101.989E-03     130.347E-03
            1166     829.967E-06     122.517E-03    -72.1709E+06    -152.716E+06    -71.8179E+06    -3.54455E+06    -80.7377E-03     161.319E-03    -80.5814E-03     21.5137E-03    -80.7797E-03     160.767E-03    -80.6144E-03     21.3862E-03
            1167     1.66032E-03     122.536E-03    -71.9610E+06    -153.484E+06    -69.8856E+06    -6.23956E+06    -80.1475E-03     160.600E-03    -80.4530E-03     39.4366E-03    -80.2005E-03     160.051E-03    -80.4755E-03     39.2043E-03
            1168     2.49115E-03     122.570E-03    -72.4718E+06    -155.351E+06    -67.2754E+06    -7.15513E+06    -79.4334E-03     159.512E-03    -80.0785E-03     58.8787E-03    -79.5071E-03     158.967E-03    -80.0846E-03     58.5616E-03
            1169     3.32406E-03     122.615E-03    -74.0502E+06    -154.463E+06    -63.8899E+06    -6.62994E+06    -78.9181E-03     158.535E-03    -79.6170E-03     78.6765E-03    -79.0317E-03     158.018E-03    -79.6051E-03     78.2867E-03
            1170     4.15627E-03     122.676E-03    -76.2600E+06    -153.378E+06    -58.3331E+06    -4.94914E+06    -78.8237E-03     157.980E-03    -79.1565E-03     99.1349E-03    -78.9963E-03     157.503E-03    -79.1151E-03     98.6718E-03
            1171     4.99124E-03     122.751E-03    -77.6723E+06    -149.670E+06    -49.8820E+06    -2.87676E+06    -79.4434E-03     158.202E-03    -78.7583E-03     119.924E-03    -79.6987E-03     157.791E-03    -78.6781E-03     119.362E-03
            1172     5.82434E-03     122.843E-03    -77.3295E+06    -141.701E+06    -40.0257E+06    -1.75535E+06    -81.2147E-03     159.702E-03    -78.4873E-03     140.992E-03    -81.5854E-03     159.409E-03    -78.3698E-03     140.264E-03
            1173     6.65818E-03     122.953E-03    -75.3821E+06    -133.670E+06    -30.4900E+06    -2.09130E+06    -84.3563E-03     162.775E-03    -78.4184E-03     162.201E-03    -84.8853E-03     162.648E-03    -78.2678E-03     161.206E-03
            1174     7.48924E-03     123.080E-03    -71.1476E+06    -122.430E+06    -21.3373E+06    -3.70126E+06    -88.9823E-03     167.590E-03    -78.6072E-03     183.440E-03    -89.7434E-03     167.724E-03    -78.4332E-03     182.041E-03
            1175     8.31776E-03     123.230E-03    -65.4886E+06    -109.018E+06    -12.8467E+06    -6.42068E+06    -95.0832E-03     174.183E-03    -79.0998E-03     204.478E-03    -96.1889E-03     174.706E-03    -78.9110E-03     202.497E-03
            1176     9.14270E-03     123.400E-03    -59.2068E+06    -96.2025E+06    -5.51523E+06    -8.79000E+06    -102.645E-03     182.580E-03    -79.9345E-03     224.442E-03    -104.253E-03     183.653E-03    -79.7367E-03     221.662E-03
            1177     9.96060E-03     123.593E-03    -52.9350E+06    -80.4181E+06     1.39565E+06    -11.0408E+06    -111.634E-03     192.778E-03    -81.1441E-03     242.799E-03    -113.971E-03     194.640E-03    -80.9438E-03     238.929E-03
            1178     10.7755E-03     123.806E-03    -46.6050E+06    -62.3364E+06      8.3367E+06    -13.7534E+06    -122.015E-03     204.774E-03    -82.7593E-03     260.408E-03    -125.434E-03     207.786E-03    -82.5596E-03     255.023E-03
            1179     11.5785E-03     124.043E-03    -40.3089E+06    -36.3048E+06     16.2981E+06    -14.5899E+06    -133.962E-03     218.759E-03    -84.7963E-03     279.484E-03    -139.048E-03     223.529E-03    -84.6038E-03     271.988E-03
            1180     12.3769E-03     124.310E-03    -33.1888E+06    -1.39565E+06     28.2916E+06    -11.7616E+06    -146.933E-03     234.212E-03    -87.2787E-03     298.558E-03    -154.455E-03     241.534E-03    -87.0871E-03     288.279E-03
            1181     13.1616E-03     124.604E-03    -26.5394E+06     74.5942E+06     54.2665E+06    -5.47914E+06    -158.884E-03     249.104E-03    -90.2203E-03     302.226E-03    -168.888E-03     259.128E-03    -90.0186E-03     289.217E-03
            1182     13.9388E-03     124.899E-03    -20.7090E+06     152.358E+06     78.5047E+06     388.451E+03    -168.846E-03     262.461E-03    -93.6159E-03     273.055E-03    -179.549E-03     273.412E-03    -93.4143E-03     258.684E-03
            1183     14.7010E-03     125.147E-03    -12.5824E+06     177.281E+06     101.664E+06     1.43299E+06    -178.206E-03     275.699E-03    -97.4928E-03     239.999E-03    -188.942E-03     286.731E-03    -97.2233E-03     224.458E-03
            1184     15.4527E-03     125.392E-03    -5.00584E+06     173.578E+06     123.112E+06     1.39534E+06    -184.447E-03     286.090E-03    -101.642E-03     150.763E-03    -191.272E-03     293.160E-03    -101.271E-03     138.138E-03
            1185     836.323E-06     123.622E-03    -82.8804E+06    -144.899E+06    -83.0680E+06    -3.03838E+06    -72.6484E-03     145.405E-03    -72.7568E-03     22.2615E-03    -72.7381E-03     144.921E-03    -72.8419E-03     22.1746E-03
            1186     1.67339E-03     123.641E-03    -85.5390E+06    -148.829E+06    -84.2655E+06    -3.50923E+06    -72.0623E-03     144.525E-03    -72.4631E-03     40.7226E-03    -72.1642E-03     144.034E-03    -72.5446E-03     40.5904E-03
            1187     2.51179E-03     123.673E-03    -89.3576E+06    -154.009E+06    -83.7310E+06    -2.32538E+06    -71.6992E-03     143.800E-03    -72.1011E-03     60.7890E-03    -71.8238E-03     143.298E-03    -72.1669E-03     60.6312E-03
            1188     3.34973E-03     123.718E-03    -93.1967E+06    -154.945E+06    -79.9740E+06    -183.651E+03    -71.7037E-03     143.465E-03    -71.7612E-03     81.4880E-03    -71.8687E-03     142.976E-03    -71.8013E-03     81.3073E-03
            1189     4.18966E-03     123.778E-03    -95.4213E+06    -153.725E+06    -72.0724E+06     946.961E+03    -72.3816E-03     143.882E-03    -71.5007E-03     102.671E-03    -72.5989E-03     143.420E-03    -71.4998E-03     102.434E-03
            1190     5.02795E-03     123.854E-03    -94.1823E+06    -149.197E+06    -60.8384E+06     585.469E+03    -74.1147E-03     145.494E-03    -71.3789E-03     124.255E-03    -74.3968E-03     145.085E-03    -71.3302E-03     123.906E-03
            1191     5.86689E-03     123.948E-03    -89.6061E+06    -140.233E+06    -48.6430E+06    -601.132E+03    -77.2021E-03     148.659E-03    -71.4564E-03     146.229E-03    -77.5733E-03     148.353E-03    -71.3664E-03     145.698E-03
            1192     6.70270E-03     124.061E-03    -82.5845E+06    -130.359E+06    -37.0490E+06    -2.87423E+06    -81.7116E-03     153.502E-03    -71.7903E-03     168.408E-03    -82.2147E-03     153.355E-03    -71.6668E-03     167.593E-03
            1193     7.53632E-03     124.196E-03    -74.7862E+06    -117.444E+06    -26.3879E+06    -6.10166E+06    -87.6491E-03     160.064E-03    -72.4149E-03     190.807E-03    -88.3663E-03     160.175E-03    -72.2681E-03     189.571E-03
            1194     8.36609E-03     124.352E-03    -67.0175E+06    -103.749E+06    -16.6706E+06    -9.17868E+06    -95.0663E-03     168.429E-03    -73.3625E-03     212.938E-03    -96.1199E-03     168.925E-03    -73.1982E-03     211.107E-03
            1195     9.19059E-03     124.532E-03    -59.3361E+06    -91.6875E+06    -8.44528E+06    -12.2270E+06    -104.101E-03     178.768E-03    -74.6671E-03     234.320E-03    -105.662E-03     179.819E-03    -74.4903E-03     231.650E-03
            1196     10.0105E-03     124.736E-03    -51.3119E+06    -75.2735E+06    -258.268E+03    -14.7450E+06    -114.644E-03     191.006E-03    -76.3628E-03     254.041E-03    -116.957E-03     192.874E-03    -76.1805E-03     250.210E-03
            1197     10.8200E-03     124.963E-03    -44.1994E+06    -57.4164E+06     7.82687E+06    -16.3811E+06    -126.783E-03     205.271E-03    -78.4873E-03     273.033E-03    -130.237E-03     208.345E-03    -78.3008E-03     267.558E-03
            1198     11.6245E-03     125.217E-03    -38.7860E+06    -35.0193E+06     15.1669E+06    -16.8089E+06    -140.534E-03     221.590E-03    -81.0557E-03     293.539E-03    -145.756E-03     226.511E-03    -80.8729E-03     285.723E-03
            1199     12.4150E-03     125.501E-03    -34.3560E+06    -5.02759E+06     25.1191E+06    -15.1795E+06    -155.256E-03     239.342E-03    -84.0863E-03     313.728E-03    -163.068E-03     246.949E-03    -83.9036E-03     302.757E-03
            1200     13.1983E-03     125.817E-03    -28.3297E+06     64.5429E+06     46.2810E+06    -8.71956E+06    -169.282E-03     256.876E-03    -87.5939E-03     318.054E-03    -179.803E-03     267.400E-03    -87.4150E-03     303.779E-03
            1201     13.9657E-03     126.131E-03    -20.1583E+06     147.290E+06     73.3467E+06    -1.12910E+06    -180.830E-03     272.446E-03    -91.6169E-03     288.473E-03    -192.237E-03     284.102E-03    -91.4345E-03     272.349E-03
            1202     14.7205E-03     126.405E-03    -13.7337E+06     178.832E+06     101.718E+06    -591.200E+03    -190.958E-03     287.117E-03    -96.1585E-03     253.557E-03    -202.475E-03     298.933E-03    -95.8893E-03     235.915E-03
            1203     15.4665E-03     126.663E-03    -7.90057E+06     173.222E+06     121.819E+06    -1.19688E+06    -197.602E-03     298.553E-03    -100.951E-03     160.170E-03    -204.951E-03     306.141E-03    -100.581E-03     145.652E-03
            1204     843.973E-06     124.709E-03    -106.471E+06    -144.860E+06    -103.913E+06     2.87893E+06    -63.8052E-03     127.583E-03    -63.7781E-03     22.4980E-03    -63.9815E-03     127.162E-03    -63.9333E-03     22.5162E-03
            1205     1.68880E-03     124.727E-03    -112.951E+06    -149.316E+06    -107.468E+06     4.14016E+06    -63.6752E-03     127.341E-03    -63.6657E-03     41.5863E-03    -63.8746E-03     126.915E-03    -63.8228E-03     41.6058E-03
            1206     2.53308E-03     124.758E-03    -117.231E+06    -155.074E+06    -106.006E+06     4.13669E+06    -63.8775E-03     127.421E-03    -63.5433E-03     62.0580E-03    -64.0971E-03     126.976E-03    -63.6785E-03     62.0574E-03
            1207     3.37882E-03     124.803E-03    -116.625E+06    -156.460E+06    -97.5046E+06     3.86178E+06    -64.7303E-03     128.233E-03    -63.5029E-03     83.3587E-03    -64.9669E-03     127.779E-03    -63.5944E-03     83.3240E-03
            1208     4.22278E-03     124.865E-03    -111.400E+06    -152.111E+06    -84.2228E+06     2.35895E+06    -66.6083E-03     130.218E-03    -63.6100E-03     105.104E-03    -66.8646E-03     129.780E-03    -63.6490E-03     104.994E-03
            1209     5.06693E-03     124.943E-03    -103.826E+06    -146.421E+06    -70.4703E+06    -705.719E+03    -69.6825E-03     133.602E-03    -63.9196E-03     127.444E-03    -69.9689E-03     133.202E-03    -63.9091E-03     127.201E-03
            1210     5.90798E-03     125.041E-03    -94.7800E+06    -136.191E+06    -56.9011E+06    -4.19094E+06    -73.9920E-03     138.457E-03    -64.4645E-03     150.201E-03    -74.3401E-03     138.148E-03    -64.4141E-03     149.762E-03
            1211     6.74720E-03     125.160E-03    -85.0393E+06    -125.220E+06    -44.2841E+06    -8.13091E+06    -79.6522E-03     144.927E-03    -65.2744E-03     173.417E-03    -80.1129E-03     144.769E-03    -65.1909E-03     172.686E-03
            1212     7.58246E-03     125.301E-03    -74.9727E+06    -111.984E+06    -32.0178E+06    -11.5307E+06    -86.7571E-03     153.133E-03    -66.3761E-03     196.990E-03    -87.4155E-03     153.221E-03    -66.2651E-03     195.848E-03
            1213     8.41312E-03     125.468E-03    -64.8600E+06    -98.8474E+06    -20.5416E+06    -14.4771E+06    -95.4700E-03     163.271E-03    -67.8010E-03     220.583E-03    -96.4523E-03     163.733E-03    -67.6663E-03     218.847E-03
            1214     9.23854E-03     125.658E-03    -55.3926E+06    -86.7091E+06    -10.6733E+06    -16.9145E+06    -105.895E-03     175.480E-03    -69.5850E-03     243.482E-03    -107.384E-03     176.498E-03    -69.4323E-03     240.893E-03
            1215     10.0557E-03     125.876E-03    -48.0968E+06    -70.5541E+06    -1.76430E+06    -18.7375E+06    -117.958E-03     189.725E-03    -71.7675E-03     264.630E-03    -120.222E-03     191.577E-03    -71.6042E-03     260.829E-03
            1216     10.8668E-03     126.119E-03    -42.3664E+06    -55.6441E+06     5.63895E+06    -18.9611E+06    -131.768E-03     206.157E-03    -74.3887E-03     285.404E-03    -135.220E-03     209.250E-03    -74.2184E-03     279.855E-03
            1217     11.6646E-03     126.391E-03    -37.3980E+06    -33.3173E+06     13.0894E+06    -17.6769E+06    -147.271E-03     224.738E-03    -77.4671E-03     307.325E-03    -152.577E-03     229.762E-03    -77.2991E-03     299.231E-03
            1218     12.4555E-03     126.697E-03    -31.8154E+06    -5.07448E+06     23.3212E+06    -17.1277E+06    -164.018E-03     245.053E-03    -81.0346E-03     328.361E-03    -172.051E-03     252.895E-03    -80.8645E-03     316.685E-03
            1219     13.2306E-03     127.035E-03    -24.1692E+06     53.8475E+06     41.4034E+06    -12.5684E+06    -180.127E-03     265.238E-03    -85.1105E-03     334.333E-03    -191.099E-03     276.205E-03    -84.9465E-03     318.716E-03
            1220     13.9924E-03     127.377E-03    -16.9752E+06     137.967E+06     70.0621E+06    -4.82707E+06    -192.738E-03     282.474E-03    -89.7360E-03     305.508E-03    -204.893E-03     294.867E-03    -89.5611E-03     287.441E-03
            1221     14.7399E-03     127.670E-03    -10.1263E+06     179.194E+06     101.900E+06     910.650E+03    -203.351E-03     298.228E-03    -94.8771E-03     269.249E-03    -215.650E-03     310.842E-03    -94.6127E-03     249.467E-03
            1222     15.4732E-03     127.953E-03    -4.58981E+06     173.800E+06     120.700E+06     920.298E+03    -211.110E-03     311.381E-03    -100.270E-03     173.091E-03    -218.909E-03     319.438E-03    -99.9121E-03     156.833E-03
            1223     852.532E-06     125.776E-03    -152.431E+06    -155.187E+06    -150.627E+06     6.93813E+06    -54.8498E-03     109.302E-03    -54.4524E-03     22.5684E-03    -55.1715E-03     108.962E-03    -54.7595E-03     22.6597E-03
            1224     1.70378E-03     125.795E-03    -148.304E+06    -153.157E+06    -140.517E+06     8.26303E+06    -55.4674E-03     110.210E-03    -54.7427E-03     41.7730E-03    -55.7857E-03     109.860E-03    -55.0082E-03     41.8805E-03
            1225     2.55584E-03     125.826E-03    -142.233E+06    -154.401E+06    -127.909E+06     5.55609E+06    -56.6981E-03     111.747E-03    -55.0485E-03     62.5283E-03    -57.0034E-03     111.365E-03    -55.2579E-03     62.5935E-03
            1226     3.40595E-03     125.873E-03    -134.243E+06    -153.934E+06    -113.991E+06     1.14197E+06    -58.7534E-03     114.236E-03    -55.4822E-03     83.9991E-03    -59.0445E-03     113.831E-03    -55.6343E-03     83.9877E-03
            1227     4.25595E-03     125.937E-03    -123.921E+06    -147.641E+06    -98.9452E+06    -3.73074E+06    -61.8061E-03     117.893E-03    -56.0867E-03     106.154E-03    -62.0908E-03     117.498E-03    -56.1877E-03     106.038E-03
            1228     5.10265E-03     126.019E-03    -111.471E+06    -140.369E+06    -83.4445E+06    -9.00581E+06    -66.0267E-03     122.930E-03    -56.9037E-03     129.088E-03    -66.3146E-03     122.565E-03    -56.9558E-03     128.824E-03
            1229     5.94736E-03     126.123E-03    -97.7837E+06    -130.236E+06    -67.7111E+06    -13.7625E+06    -71.3904E-03     129.343E-03    -57.9529E-03     152.694E-03    -71.7109E-03     129.050E-03    -57.9609E-03     152.235E-03
            1230     6.78821E-03     126.249E-03    -84.1559E+06    -119.535E+06    -52.2790E+06    -17.2219E+06    -78.0618E-03     137.314E-03    -59.2527E-03     176.918E-03    -78.4681E-03     137.149E-03    -59.2187E-03     176.193E-03
            1231     7.62496E-03     126.400E-03    -71.9584E+06    -107.567E+06    -37.9586E+06    -19.7146E+06    -86.1914E-03     147.017E-03    -60.8252E-03     201.550E-03    -86.7735E-03     147.072E-03    -60.7547E-03     200.444E-03
            1232     8.45677E-03     126.575E-03    -62.1242E+06    -95.0025E+06    -25.4118E+06    -20.8820E+06    -96.0819E-03     158.789E-03    -62.7068E-03     226.548E-03    -96.9793E-03     159.204E-03    -62.6060E-03     224.882E-03
            1233     9.28158E-03     126.780E-03    -55.4644E+06    -82.2954E+06    -15.2152E+06    -21.8688E+06    -107.794E-03     172.738E-03    -64.9436E-03     250.914E-03    -109.204E-03     173.705E-03    -64.8199E-03     248.413E-03
            1234     10.0996E-03     127.012E-03    -49.5674E+06     -67.451E+06    -5.96591E+06    -22.6367E+06    -121.278E-03     188.860E-03    -67.5814E-03     273.858E-03    -123.472E-03     190.660E-03    -67.4416E-03     270.120E-03
            1235     10.9063E-03     127.273E-03    -43.3402E+06    -54.8369E+06     1.75446E+06    -22.8114E+06    -136.748E-03     207.413E-03    -70.6655E-03     296.310E-03    -140.143E-03     210.461E-03    -70.5143E-03     290.725E-03
            1236     11.7055E-03     127.566E-03    -36.0088E+06    -33.6562E+06     10.3375E+06    -21.9135E+06    -154.115E-03     228.342E-03    -74.2261E-03     319.534E-03    -159.393E-03     233.350E-03    -74.0734E-03     311.198E-03
            1237     12.4886E-03     127.894E-03    -28.9196E+06    -3.82607E+06     22.1280E+06    -20.1403E+06    -172.804E-03     251.101E-03    -78.2973E-03     342.302E-03    -180.901E-03     259.027E-03    -78.1392E-03     330.034E-03
            1238     13.2606E-03     128.259E-03    -24.1049E+06     45.3232E+06     36.1871E+06    -17.5166E+06    -189.923E-03     272.789E-03    -82.8668E-03     350.968E-03    -201.194E-03     284.041E-03    -82.7166E-03     334.223E-03
            1239     14.0173E-03     128.629E-03    -18.0579E+06     124.713E+06     66.5135E+06    -9.68404E+06    -203.401E-03     291.389E-03    -87.9880E-03     325.406E-03    -216.271E-03     304.458E-03    -87.8101E-03     305.479E-03
            1240     14.7571E-03     128.951E-03    -11.7553E+06     171.844E+06     98.9543E+06    -2.07786E+06    -215.833E-03     309.476E-03    -93.6431E-03     287.498E-03    -229.056E-03     322.993E-03    -93.3805E-03     265.290E-03
            1241     15.4889E-03     129.254E-03    -4.53767E+06     172.131E+06     117.355E+06     1.78839E+06    -224.645E-03     324.255E-03    -99.6103E-03     187.039E-03    -233.029E-03     332.904E-03    -99.2666E-03     168.811E-03
            1242     859.139E-06     126.824E-03    -208.585E+06    -161.243E+06    -209.494E+06    -878.889E+03    -46.8435E-03     93.2065E-03    -46.3631E-03     21.9585E-03    -47.3500E-03     93.0038E-03    -46.8743E-03     21.9571E-03
            1243     1.71855E-03     126.844E-03    -195.517E+06    -153.103E+06    -193.862E+06    -3.00173E+06    -48.2057E-03     95.0406E-03    -46.8349E-03     40.6982E-03    -48.6799E-03     94.8358E-03    -47.2987E-03     40.6745E-03
            1244     2.57536E-03     126.878E-03    -178.094E+06    -148.634E+06    -171.234E+06    -7.47201E+06    -50.5879E-03     98.1196E-03    -47.5316E-03     61.3628E-03    -51.0130E-03     97.8785E-03    -47.9140E-03     61.2818E-03
            1245     3.43107E-03     126.928E-03    -158.638E+06    -145.974E+06    -146.275E+06    -13.6171E+06    -53.8401E-03     102.306E-03    -48.4658E-03     82.9263E-03    -54.2098E-03     102.017E-03    -48.7555E-03     82.7543E-03
            1246     4.28345E-03     126.996E-03    -138.891E+06    -139.579E+06    -122.956E+06    -19.3907E+06    -57.9535E-03     107.542E-03    -49.5888E-03     105.411E-03    -58.2773E-03     107.233E-03    -49.7998E-03     105.134E-03
            1247     5.13399E-03     127.085E-03    -120.136E+06    -131.454E+06    -101.783E+06    -24.9352E+06    -63.0069E-03     113.902E-03    -50.8947E-03     128.756E-03    -63.3050E-03     113.601E-03    -51.0388E-03     128.343E-03
            1248     5.98073E-03     127.195E-03    -102.944E+06    -123.278E+06    -82.4151E+06    -29.4750E+06    -69.2239E-03     121.625E-03    -52.4008E-03     152.944E-03    -69.5299E-03     121.367E-03    -52.4849E-03     152.358E-03
            1249     6.82357E-03     127.330E-03    -88.0056E+06    -116.099E+06    -64.7964E+06    -30.8445E+06    -76.7603E-03     130.896E-03    -54.1354E-03     177.979E-03    -77.1295E-03     130.729E-03    -54.1634E-03     177.179E-03
            1250     7.66162E-03     127.489E-03    -76.3781E+06    -105.001E+06    -48.5897E+06    -29.9443E+06    -85.8711E-03     141.999E-03    -56.1282E-03     203.641E-03    -86.4025E-03     142.029E-03    -56.1081E-03     202.531E-03
            1251     8.49351E-03     127.678E-03    -67.3887E+06    -93.3438E+06    -34.5344E+06    -28.9017E+06    -96.8301E-03     155.254E-03    -58.4242E-03     229.870E-03    -97.6592E-03     155.616E-03    -58.3638E-03     228.254E-03
            1252     9.31871E-03     127.896E-03    -58.1584E+06    -79.6673E+06    -21.4234E+06    -28.2795E+06    -109.627E-03     170.696E-03    -61.0694E-03     255.487E-03    -110.932E-03     171.578E-03    -60.9766E-03     253.079E-03
            1253     10.1347E-03     128.144E-03    -49.2617E+06    -66.1712E+06    -9.76221E+06    -27.8230E+06    -124.497E-03     188.614E-03    -64.1168E-03     279.906E-03    -126.546E-03     190.287E-03    -63.9982E-03     276.272E-03
            1254     10.9424E-03     128.425E-03    -42.2129E+06    -53.3676E+06    -831.289E+03    -27.1845E+06    -141.524E-03     209.142E-03    -67.6176E-03     303.844E-03    -144.743E-03     212.031E-03    -67.4832E-03     298.327E-03
            1255     11.7351E-03     128.740E-03    -36.9905E+06    -33.0321E+06     7.49993E+06    -27.2348E+06    -160.549E-03     232.155E-03    -71.6068E-03     328.664E-03    -165.620E-03     236.965E-03    -71.4677E-03     320.271E-03
            1256     12.5184E-03     129.094E-03    -31.2669E+06    -6.20971E+06     18.7007E+06    -26.6543E+06    -180.011E-03     256.100E-03    -76.0891E-03     353.227E-03    -187.858E-03     263.770E-03    -75.9413E-03     340.754E-03
            1257     13.2859E-03     129.486E-03    -23.6627E+06     37.0973E+06     31.6732E+06    -21.0437E+06    -197.574E-03     278.585E-03    -81.0115E-03     365.176E-03    -208.718E-03     289.697E-03    -80.8726E-03     347.893E-03
            1258     14.0401E-03     129.885E-03    -17.6754E+06     109.666E+06     57.4452E+06    -11.0829E+06    -212.568E-03     299.029E-03    -86.4617E-03     344.218E-03    -225.904E-03     312.540E-03    -86.3079E-03     322.752E-03
            1259     14.7781E-03     130.244E-03    -12.8769E+06     162.085E+06     94.1764E+06    -2.79904E+06    -227.201E-03     319.754E-03    -92.5534E-03     306.532E-03    -241.550E-03     334.376E-03    -92.2988E-03     281.635E-03
            1260     15.4911E-03     130.572E-03    -7.83486E+06     171.192E+06     117.786E+06     150.677E+03    -237.114E-03     336.165E-03    -99.0504E-03     202.670E-03    -246.364E-03     345.664E-03    -98.6984E-03     182.078E-03
            1261     864.568E-06     127.856E-03    -215.924E+06    -149.363E+06    -215.316E+06    -10.0452E+06    -41.6074E-03     82.7238E-03    -41.1165E-03     20.0999E-03    -42.1582E-03     82.6012E-03    -41.6634E-03     19.9772E-03
            1262     1.72742E-03     127.879E-03    -207.109E+06    -140.099E+06    -205.207E+06    -18.4583E+06    -43.3111E-03     84.9646E-03    -41.6534E-03     37.5489E-03    -43.8449E-03     84.8598E-03    -42.1760E-03     37.3221E-03
            1263     2.58944E-03     127.917E-03    -194.169E+06    -134.840E+06    -189.385E+06    -26.3236E+06    -46.0951E-03     88.5865E-03    -42.4914E-03     57.2330E-03    -46.5936E-03     88.4654E-03    -42.9613E-03     56.9068E-03
            1264     3.44824E-03     127.972E-03    -178.536E+06    -131.505E+06    -169.865E+06    -34.1442E+06    -49.9020E-03     93.5156E-03    -43.6136E-03     78.4613E-03    -50.3561E-03     93.3612E-03    -44.0134E-03     78.0285E-03
            1265     4.30456E-03     128.046E-03    -161.605E+06    -126.879E+06    -151.215E+06    -41.2787E+06    -54.6504E-03     99.6192E-03    -44.9689E-03     101.083E-03    -55.0601E-03     99.4432E-03    -45.3066E-03     100.537E-03
            1266     5.15684E-03     128.141E-03    -144.216E+06    -119.807E+06    -131.732E+06    -46.8250E+06    -60.4169E-03     106.964E-03    -46.5469E-03     124.878E-03    -60.7970E-03     106.789E-03    -46.8228E-03     124.213E-03
            1267     6.00546E-03     128.259E-03    -127.308E+06    -115.423E+06    -109.860E+06    -50.6270E+06    -67.3667E-03     115.735E-03    -48.3683E-03     149.558E-03    -67.7438E-03     115.570E-03    -48.5657E-03     148.750E-03
            1268     6.84957E-03     128.402E-03    -110.408E+06    -114.552E+06    -87.9170E+06    -50.9411E+06    -75.6807E-03     126.121E-03    -50.4408E-03     174.976E-03    -76.0916E-03     125.990E-03    -50.5541E-03     173.996E-03
            1269     7.68820E-03     128.573E-03    -93.3075E+06    -107.351E+06    -66.9473E+06    -47.0131E+06    -85.6594E-03     138.435E-03    -52.7754E-03     201.327E-03    -86.1806E-03     138.440E-03    -52.8192E-03     200.112E-03
            1270     8.52033E-03     128.773E-03    -77.9599E+06    -94.9686E+06    -46.9861E+06    -42.1623E+06    -97.4857E-03     152.902E-03    -55.4167E-03     228.321E-03    -98.2421E-03     153.184E-03    -55.4009E-03     226.700E-03
            1271     9.34462E-03     129.006E-03    -66.5511E+06    -79.7033E+06    -30.0124E+06    -39.4605E+06    -111.339E-03     169.748E-03    -58.4091E-03     254.888E-03    -112.518E-03     170.499E-03    -58.3471E-03     252.548E-03
            1272     10.1604E-03     129.272E-03    -57.8416E+06    -67.0433E+06    -17.2473E+06    -37.8268E+06    -127.346E-03     189.153E-03    -61.8070E-03     280.451E-03    -129.199E-03     190.618E-03    -61.7122E-03     276.951E-03
            1273     10.9635E-03     129.573E-03    -49.1082E+06    -54.4897E+06    -6.97992E+06    -36.3897E+06    -145.660E-03     211.324E-03    -65.6643E-03     305.593E-03    -148.573E-03     213.897E-03    -65.5489E-03     300.265E-03
            1274     11.7576E-03     129.912E-03    -39.3552E+06    -34.0191E+06     4.46741E+06    -34.3199E+06    -165.477E-03     235.482E-03    -70.0051E-03     331.297E-03    -170.069E-03     239.810E-03    -69.8764E-03     323.186E-03
            1275     12.5346E-03     130.292E-03    -31.5386E+06    -7.98234E+06     16.2308E+06    -32.6282E+06    -184.850E-03     259.633E-03    -74.7830E-03     356.066E-03    -191.981E-03     266.585E-03    -74.6446E-03     343.991E-03
            1276     13.3032E-03     130.708E-03    -26.0427E+06     21.6756E+06     23.9156E+06    -27.5874E+06    -202.896E-03     282.836E-03    -79.9397E-03     370.460E-03    -213.247E-03     293.113E-03    -79.8138E-03     353.408E-03
            1277     14.0555E-03     131.143E-03    -19.2911E+06     86.9445E+06     43.8427E+06    -14.6368E+06    -218.901E-03     304.481E-03    -85.5793E-03     356.176E-03    -231.967E-03     317.674E-03    -85.4582E-03     334.137E-03
            1278     14.7852E-03     131.539E-03    -12.2017E+06     149.662E+06     79.6243E+06    -3.18757E+06    -233.947E-03     325.806E-03    -91.8596E-03     323.974E-03    -249.094E-03     341.227E-03    -91.6608E-03     296.901E-03
            1279     15.5064E-03     131.907E-03    -5.83276E+06     170.352E+06     113.394E+06    -1.49745E+06    -244.998E-03     343.656E-03    -98.6581E-03     219.380E-03    -255.205E-03     354.133E-03    -98.3296E-03     196.270E-03
            1280     865.354E-06     128.883E-03    -176.580E+06    -123.845E+06    -174.285E+06    -13.4186E+06    -40.4033E-03     80.4279E-03    -40.0246E-03     16.8523E-03    -40.8543E-03     80.3175E-03    -40.4604E-03     16.6767E-03
            1281     1.73031E-03     128.907E-03    -172.593E+06    -116.758E+06    -165.553E+06    -23.9361E+06    -41.9586E-03     82.4684E-03    -40.5098E-03     31.9618E-03    -42.4130E-03     82.3754E-03    -40.9180E-03     31.6478E-03
            1282     2.59313E-03     128.948E-03    -167.997E+06    -112.832E+06    -157.353E+06    -33.6686E+06    -44.4448E-03     85.7170E-03    -41.2722E-03     49.2985E-03    -44.8948E-03     85.6261E-03    -41.6518E-03     48.8551E-03
            1283     3.45428E-03     129.008E-03    -162.602E+06    -110.137E+06    -150.281E+06    -43.2360E+06    -47.9027E-03     90.1827E-03    -42.2800E-03     68.5169E-03    -48.3423E-03     90.0899E-03    -42.6360E-03     67.9420E-03
            1284     4.31225E-03     129.088E-03    -155.626E+06    -106.430E+06    -141.486E+06    -53.0698E+06    -52.4643E-03     96.0080E-03    -43.5437E-03     89.7417E-03    -52.8933E-03     95.9173E-03    -43.8712E-03     89.0227E-03
            1285     5.16686E-03     129.190E-03    -146.609E+06    -103.809E+06    -130.616E+06    -61.0167E+06    -58.3048E-03     103.385E-03    -45.0803E-03     112.965E-03    -58.7227E-03     103.294E-03    -45.3703E-03     112.108E-03
            1286     6.01679E-03     129.316E-03    -136.069E+06    -103.420E+06    -117.351E+06    -65.7585E+06    -65.5785E-03     112.491E-03    -46.9128E-03     137.712E-03    -65.9956E-03     112.400E-03    -47.1523E-03     136.723E-03
            1287     6.86121E-03     129.469E-03    -124.942E+06    -108.890E+06    -104.672E+06    -68.3540E+06    -74.4558E-03     123.511E-03    -49.0556E-03     163.638E-03    -74.8921E-03     123.423E-03    -49.2399E-03     162.484E-03
            1288     7.69955E-03     129.650E-03    -112.116E+06    -108.559E+06    -90.2548E+06    -68.2229E+06    -85.0868E-03     136.613E-03    -51.5261E-03     190.727E-03    -85.5987E-03     136.606E-03    -51.6574E-03     189.343E-03
            1289     8.53100E-03     129.864E-03    -96.2101E+06    -101.049E+06    -68.1618E+06    -63.8921E+06    -97.7247E-03     152.108E-03    -54.3830E-03     218.193E-03    -98.4090E-03     152.293E-03    -54.4378E-03     216.467E-03
            1290     9.35422E-03     130.111E-03    -79.6066E+06    -85.9737E+06    -43.9285E+06    -55.9835E+06    -112.335E-03     169.974E-03    -57.6392E-03     245.098E-03    -113.341E-03     170.524E-03    -57.6187E-03     242.819E-03
            1291     10.1668E-03     130.395E-03    -66.5396E+06    -70.1929E+06    -26.1059E+06    -49.6878E+06    -129.225E-03     190.535E-03    -61.3105E-03     271.257E-03    -130.772E-03     191.678E-03    -61.2428E-03     268.003E-03
            1292     10.9704E-03     130.717E-03    -57.5296E+06    -56.3070E+06    -13.2155E+06    -46.9798E+06    -148.194E-03     213.643E-03    -65.4486E-03     296.818E-03    -150.620E-03     215.710E-03    -65.3496E-03     291.931E-03
            1293     11.7571E-03     131.080E-03    -51.9161E+06    -37.6783E+06    -2.72727E+06    -46.8441E+06    -167.840E-03     237.879E-03    -70.0390E-03     322.051E-03    -171.665E-03     241.401E-03    -69.9227E-03     314.640E-03
            1294     12.5367E-03     131.481E-03    -45.8416E+06    -14.4497E+06     5.93069E+06    -45.9056E+06    -187.142E-03     262.157E-03    -75.0147E-03     345.618E-03    -193.094E-03     267.886E-03    -74.8976E-03     334.556E-03
            1295     13.2995E-03     131.924E-03    -33.7102E+06     6.02273E+06     12.5850E+06    -43.3994E+06    -204.668E-03     284.982E-03    -80.3139E-03     362.277E-03    -213.423E-03     293.612E-03    -80.2108E-03     346.489E-03
            1296     14.0496E-03     132.388E-03    -19.2851E+06     46.1150E+06     28.3712E+06    -28.4744E+06    -217.593E-03     303.497E-03    -85.9045E-03     359.235E-03    -229.095E-03     315.025E-03    -85.8016E-03     338.766E-03
            1297     14.7885E-03     132.833E-03    -6.20623E+06     125.866E+06     60.1730E+06    -5.53658E+06    -232.770E-03     324.644E-03    -91.8730E-03     344.395E-03    -247.448E-03     339.589E-03    -91.7457E-03     317.933E-03
            1298     15.4989E-03     133.234E-03     719.068E+03     174.793E+06     102.024E+06     2.29169E+06    -248.678E-03     347.188E-03    -98.5098E-03     245.510E-03    -259.474E-03     358.331E-03    -98.2541E-03     221.222E-03
            1299     862.581E-06     129.911E-03    -142.802E+06    -95.0707E+06    -140.187E+06    -13.2037E+06    -43.9101E-03     87.5162E-03    -43.6060E-03     12.8291E-03    -44.2856E-03     87.4505E-03    -43.9621E-03     12.6424E-03
            1300     1.72425E-03     129.937E-03    -140.441E+06    -90.6469E+06    -133.914E+06    -23.2953E+06    -45.1192E-03     89.1568E-03    -44.0377E-03     24.0375E-03    -45.5006E-03     89.1028E-03    -44.3721E-03     23.7049E-03
            1301     2.58511E-03     129.981E-03    -136.119E+06    -87.5552E+06    -124.478E+06    -33.3480E+06    -47.0625E-03     91.7678E-03    -44.7053E-03     37.1782E-03    -47.4444E-03     91.7133E-03    -45.0034E-03     36.6970E-03
            1302     3.44392E-03     130.044E-03    -130.216E+06    -84.8922E+06    -115.020E+06    -43.9284E+06    -49.7356E-03     95.3202E-03    -45.5846E-03     52.1479E-03    -50.1119E-03     95.2634E-03    -45.8478E-03     51.5078E-03
            1303     4.30065E-03     130.128E-03    -124.303E+06    -82.1860E+06    -105.736E+06    -53.6193E+06    -53.3378E-03     100.018E-03    -46.6803E-03     69.4013E-03    -53.7116E-03     99.9630E-03    -46.9096E-03     68.6083E-03
            1304     5.15417E-03     130.235E-03    -120.257E+06    -83.0462E+06    -99.0543E+06    -61.4981E+06    -58.1248E-03     106.139E-03    -48.0146E-03     89.1860E-03    -58.5019E-03     106.080E-03    -48.2151E-03     88.2541E-03
            1305     6.00380E-03     130.369E-03    -117.971E+06    -87.0337E+06    -96.8914E+06    -67.0688E+06    -64.4039E-03     114.017E-03    -49.6133E-03     111.573E-03    -64.7916E-03     113.957E-03    -49.8005E-03     110.513E-03
            1306     6.84839E-03     130.530E-03    -115.550E+06    -93.6939E+06    -95.8497E+06    -72.2581E+06    -72.5564E-03     124.092E-03    -51.5359E-03     136.400E-03    -72.9670E-03     124.038E-03    -51.7118E-03     135.180E-03
            1307     7.68642E-03     130.722E-03    -111.370E+06    -98.5372E+06    -92.7170E+06    -77.6326E+06    -83.0320E-03     136.880E-03    -53.8485E-03     163.430E-03    -83.4960E-03     136.869E-03    -54.0077E-03     161.977E-03
            1308     8.51629E-03     130.949E-03    -104.764E+06    -100.691E+06    -84.1390E+06    -79.5300E+06    -95.7722E-03     152.388E-03    -56.6157E-03     191.541E-03    -96.3473E-03     152.480E-03    -56.7385E-03     189.781E-03
            1309     9.33652E-03     131.212E-03    -95.9386E+06    -95.9315E+06    -70.1636E+06    -75.4693E+06    -110.911E-03     170.783E-03    -59.8716E-03     219.213E-03    -111.701E-03     171.098E-03    -59.9442E-03     217.014E-03
            1310     10.1480E-03     131.512E-03    -85.2179E+06    -78.7081E+06    -47.7906E+06    -68.5673E+06    -128.377E-03     192.043E-03    -63.6660E-03     245.648E-03    -129.557E-03     192.784E-03    -63.6673E-03     242.709E-03
            1311     10.9440E-03     131.855E-03    -74.8653E+06    -63.7734E+06    -26.4334E+06    -61.8908E+06    -147.099E-03     215.076E-03    -67.9763E-03     270.485E-03    -148.900E-03     216.466E-03    -67.9074E-03     266.308E-03
            1312     11.7330E-03     132.236E-03    -67.3995E+06    -40.5971E+06    -12.7332E+06    -56.4797E+06    -166.236E-03     238.941E-03    -72.7043E-03     293.886E-03    -169.039E-03     241.402E-03    -72.6113E-03     287.732E-03
            1313     12.5038E-03     132.662E-03    -63.4967E+06    -16.8836E+06    -4.19433E+06    -57.5659E+06    -184.561E-03     262.345E-03    -77.7840E-03     316.051E-03    -188.899E-03     266.417E-03    -77.6884E-03     306.904E-03
            1314     13.2661E-03     133.124E-03    -66.5430E+06    -1.65687E+06    -3.57591E+06    -65.7516E+06    -197.940E-03     280.957E-03    -83.0170E-03     335.266E-03    -204.375E-03     287.167E-03    -82.9360E-03     322.357E-03
            1315     14.0208E-03     133.615E-03    -67.6378E+06     1.40904E+06    -4.66325E+06    -71.1354E+06    -204.241E-03     292.395E-03    -88.1536E-03     342.858E-03    -212.937E-03     300.878E-03    -88.0808E-03     326.270E-03
            1316     14.7721E-03     134.082E-03    -62.9995E+06     56.7072E+06     1.39823E+06    -54.9234E+06    -218.414E-03     311.668E-03    -93.2545E-03     351.224E-03    -231.087E-03     324.332E-03    -93.2384E-03     328.180E-03
            1317     15.5100E-03     134.574E-03    -61.7142E+06     137.436E+06     36.2006E+06    -21.8490E+06    -236.973E-03     335.989E-03    -99.0153E-03     270.477E-03    -247.826E-03     347.031E-03    -98.9441E-03     246.989E-03
            1318     855.052E-06     130.952E-03    -115.831E+06    -67.3061E+06    -114.158E+06    -12.0307E+06    -52.7106E-03     105.350E-03    -52.6390E-03     7.02345E-03    -53.0339E-03     105.342E-03    -52.9442E-03     6.82905E-03
            1319     1.70962E-03     130.979E-03    -113.969E+06    -64.0971E+06    -108.643E+06    -22.3113E+06    -53.7990E-03     106.811E-03    -53.0123E-03     13.5105E-03    -54.1288E-03     106.811E-03    -53.2973E-03     13.1471E-03
            1320     2.56256E-03     131.024E-03    -110.628E+06    -62.0351E+06    -99.5156E+06    -32.5400E+06    -55.2510E-03     108.931E-03    -53.6797E-03     20.8524E-03    -55.5857E-03     108.928E-03    -53.9269E-03     20.3141E-03
            1321     3.41419E-03     131.089E-03    -107.556E+06    -59.3157E+06    -90.6705E+06    -42.1256E+06    -57.1184E-03     111.644E-03    -54.5252E-03     29.7128E-03    -57.4631E-03     111.646E-03    -54.7366E-03     29.0033E-03
            1322     4.26365E-03     131.176E-03    -106.191E+06    -59.3613E+06    -85.7154E+06    -50.2880E+06    -59.5459E-03     115.086E-03    -55.5403E-03     40.5056E-03    -59.9032E-03     115.092E-03    -55.7288E-03     39.6381E-03
            1323     5.11081E-03     131.286E-03    -105.751E+06    -62.1924E+06    -82.3776E+06     -56.437E+06    -62.5930E-03     119.340E-03    -56.7469E-03     53.5686E-03    -62.9658E-03     119.343E-03    -56.9152E-03     52.5638E-03
            1324     5.95483E-03     131.424E-03    -104.682E+06    -67.5337E+06    -79.1960E+06    -62.4502E+06    -66.6045E-03     124.774E-03    -58.1696E-03     69.5776E-03    -66.9916E-03     124.768E-03    -58.3159E-03     68.4300E-03
            1325     6.79503E-03     131.591E-03    -102.898E+06    -73.9334E+06    -76.4464E+06    -68.6107E+06    -72.2876E-03     132.153E-03    -59.8653E-03     88.6736E-03    -72.6927E-03     132.142E-03    -59.9912E-03     87.3636E-03
            1326     7.62981E-03     131.791E-03    -102.563E+06    -79.4758E+06    -76.3785E+06    -74.6146E+06    -80.0366E-03     141.939E-03    -61.9019E-03     111.104E-03    -80.4786E-03     141.948E-03    -62.0199E-03     109.604E-03
            1327     8.45712E-03     132.028E-03    -105.253E+06    -88.2843E+06    -81.4388E+06    -78.8991E+06    -90.3388E-03     154.689E-03    -64.3502E-03     136.094E-03    -90.8447E-03     154.738E-03    -64.4768E-03     134.368E-03
            1328     9.27667E-03     132.303E-03    -107.822E+06    -90.9826E+06    -82.8033E+06    -82.5774E+06    -103.649E-03     170.966E-03    -67.3168E-03     162.534E-03    -104.278E-03     171.127E-03    -67.4426E-03     160.475E-03
            1329     10.0813E-03     132.622E-03    -105.630E+06    -83.2190E+06    -71.7447E+06    -84.0368E+06    -119.451E-03     190.331E-03    -70.8793E-03     189.239E-03    -120.289E-03     190.707E-03    -70.9642E-03     186.680E-03
            1330     10.8778E-03     132.979E-03    -99.0686E+06    -74.1482E+06    -55.3009E+06    -80.8402E+06    -137.032E-03     212.041E-03    -75.0088E-03     214.498E-03    -138.195E-03     212.752E-03    -75.0341E-03     211.178E-03
            1331     11.6558E-03     133.381E-03    -91.8534E+06    -55.3959E+06    -37.6962E+06    -74.2074E+06    -155.136E-03     234.755E-03    -79.6189E-03     238.035E-03    -156.834E-03     236.045E-03    -79.5939E-03     233.528E-03
            1332     12.4267E-03     133.822E-03    -93.1240E+06    -22.0187E+06    -17.7230E+06    -63.7259E+06    -170.500E-03     255.041E-03    -84.5411E-03     260.966E-03    -173.103E-03     257.292E-03    -84.4627E-03     254.731E-03
            1333     13.1859E-03     134.302E-03    -104.032E+06     20.0356E+06    -8.28223E+06    -66.3919E+06    -177.996E-03     267.347E-03    -89.3507E-03     280.773E-03    -181.882E-03     270.964E-03    -89.2703E-03     272.277E-03
            1334     13.9490E-03     134.792E-03    -120.521E+06     18.3331E+06    -25.5448E+06    -86.2669E+06    -178.805E-03     272.485E-03    -93.6795E-03     292.905E-03    -184.195E-03     277.592E-03    -93.6590E-03     281.790E-03
            1335     14.7139E-03     135.289E-03    -144.606E+06     13.4629E+06    -55.2759E+06    -92.8191E+06    -185.063E-03     282.545E-03    -97.4819E-03     326.608E-03    -193.738E-03     290.935E-03    -97.5681E-03     310.875E-03
            1336     15.4562E-03     135.828E-03    -159.763E+06     39.8276E+06    -63.9456E+06    -64.9450E+06    -194.623E-03     295.793E-03    -101.170E-03     299.389E-03    -203.533E-03     304.495E-03    -101.316E-03     281.990E-03
            1337     842.457E-06     132.017E-03    -94.3098E+06    -40.8536E+06    -92.4291E+06    -11.0854E+06    -68.4925E-03     136.350E-03    -67.8575E-03    -342.152E-06    -68.7865E-03     136.402E-03    -68.1237E-03    -559.697E-06
            1338     1.68375E-03     132.046E-03    -93.3430E+06    -38.2606E+06    -87.9415E+06    -20.0695E+06    -68.8327E-03     137.420E-03    -68.5870E-03    -582.689E-06    -69.1338E-03     137.477E-03    -68.8359E-03    -977.379E-06
            1339     2.52401E-03     132.092E-03    -93.1232E+06    -37.2521E+06    -82.2860E+06    -28.8574E+06    -69.9001E-03     139.162E-03    -69.2620E-03    -237.012E-06    -70.2122E-03     139.218E-03    -69.4844E-03    -818.210E-06
            1340     3.36229E-03     132.159E-03    -93.6273E+06    -36.3385E+06    -77.3772E+06    -36.1735E+06    -71.2625E-03     141.440E-03    -70.1779E-03     974.196E-06    -71.5901E-03     141.498E-03    -70.3763E-03     218.197E-06
            1341     4.19845E-03     132.246E-03    -95.0084E+06    -37.7113E+06    -73.0930E+06    -42.3881E+06    -72.7129E-03     144.025E-03    -71.3120E-03     3.26739E-03    -73.0584E-03     144.077E-03    -71.4850E-03     2.34512E-03
            1342     5.03162E-03     132.358E-03    -96.2983E+06    -42.1004E+06    -69.2236E+06    -48.7757E+06    -74.1851E-03     146.822E-03    -72.6367E-03     7.07446E-03    -74.5465E-03     146.856E-03    -72.7822E-03     5.97709E-03
            1343     5.86228E-03     132.495E-03    -97.4983E+06    -47.0422E+06    -65.5349E+06    -54.9706E+06    -75.9185E-03     150.073E-03    -74.1547E-03     13.0171E-03    -76.2990E-03     150.092E-03    -74.2728E-03     11.7434E-03
            1344     6.68911E-03     132.663E-03    -100.450E+06    -53.4456E+06    -64.8410E+06    -60.9670E+06    -78.2336E-03     154.129E-03    -75.8959E-03     21.7002E-03    -78.6408E-03     154.139E-03    -75.9970E-03     20.2470E-03
            1345     7.51104E-03     132.865E-03    -104.758E+06    -59.4638E+06    -66.8255E+06    -66.0646E+06    -81.4980E-03     159.417E-03    -77.9192E-03     32.9015E-03    -81.9425E-03     159.431E-03    -78.0152E-03     31.2672E-03
            1346     8.32870E-03     133.104E-03    -107.850E+06    -68.4033E+06    -69.7062E+06    -71.3366E+06    -86.1358E-03     166.440E-03    -80.3041E-03     46.9088E-03    -86.6140E-03     166.454E-03    -80.3970E-03     45.0750E-03
            1347     9.13605E-03     133.387E-03    -108.617E+06    -73.7494E+06    -71.3380E+06    -76.7661E+06    -92.3205E-03     175.421E-03    -83.1009E-03     64.1464E-03    -92.8405E-03     175.463E-03    -83.1932E-03     62.0896E-03
            1348     9.93916E-03     133.711E-03    -110.855E+06    -72.1501E+06    -71.3642E+06    -81.5494E+06    -100.309E-03     186.647E-03    -86.3381E-03     83.7594E-03    -100.910E-03     186.773E-03    -86.4296E-03     81.4370E-03
            1349     10.7270E-03     134.083E-03    -116.702E+06    -70.6585E+06    -71.6164E+06    -85.3076E+06    -110.164E-03     200.185E-03    -90.0211E-03     105.085E-03    -110.901E-03     200.441E-03    -90.1075E-03     102.409E-03
            1350     11.5081E-03     134.497E-03    -124.292E+06    -66.3262E+06    -66.3757E+06    -86.4662E+06    -120.667E-03     214.755E-03    -94.0877E-03     128.303E-03    -121.620E-03     215.212E-03    -94.1432E-03     125.165E-03
            1351     12.2735E-03     134.952E-03    -125.454E+06    -43.8662E+06    -51.6916E+06    -76.4547E+06    -128.011E-03     226.247E-03    -98.2362E-03     153.486E-03    -129.286E-03     227.072E-03    -98.2492E-03     149.875E-03
            1352     13.0398E-03     135.435E-03    -117.435E+06     20.5389E+06    -25.9940E+06    -62.0735E+06    -130.788E-03     232.834E-03    -102.046E-03     176.627E-03    -132.556E-03     234.342E-03    -102.035E-03     172.394E-03
            1353     13.8059E-03     135.930E-03    -124.531E+06     62.0145E+06    -18.3527E+06    -51.8781E+06    -128.145E-03     233.299E-03    -105.154E-03     196.223E-03    -130.610E-03     235.617E-03    -105.155E-03     191.150E-03
            1354     14.5749E-03     136.426E-03    -144.393E+06     48.9979E+06    -40.5750E+06    -53.8884E+06    -123.899E-03     231.206E-03    -107.307E-03     236.581E-03    -127.825E-03     234.911E-03    -107.371E-03     230.027E-03
            1355     15.3976E-03     136.970E-03    -183.522E+06    -4.08264E+06    -96.4469E+06    -36.2159E+06    -102.303E-03     210.265E-03    -107.962E-03     252.838E-03    -106.679E-03     214.302E-03    -108.172E-03     246.114E-03
            1356     822.466E-06     133.124E-03    -74.9007E+06    -18.0076E+06    -73.6258E+06    -8.27003E+06    -91.3182E-03     182.823E-03    -91.5044E-03    -9.72901E-03    -91.5878E-03     182.918E-03    -91.7378E-03    -9.91958E-03
            1357     1.64513E-03     133.154E-03    -77.1038E+06    -16.6422E+06    -72.4612E+06    -14.1677E+06    -91.7515E-03     183.735E-03    -91.9833E-03    -17.8145E-03    -92.0376E-03     183.832E-03    -92.2097E-03    -18.1554E-03
            1358     2.46618E-03     133.201E-03    -80.7131E+06    -16.1143E+06    -70.2909E+06    -19.9860E+06    -92.3946E-03     185.178E-03    -92.7839E-03    -26.2907E-03    -92.6997E-03     185.275E-03    -92.9949E-03    -26.7876E-03
            1359     3.28490E-03     133.269E-03    -85.2824E+06    -17.2744E+06    -66.2731E+06    -25.2034E+06    -93.4009E-03     187.334E-03    -93.9330E-03    -34.8700E-03    -93.7289E-03     187.419E-03    -94.1157E-03    -35.5239E-03
            1360     4.10016E-03     133.357E-03    -89.5565E+06    -18.3500E+06    -60.7449E+06    -30.1619E+06    -94.2029E-03     189.617E-03    -95.4142E-03    -43.5276E-03    -94.5541E-03     189.685E-03    -95.5614E-03    -44.3440E-03
            1361     4.91276E-03     133.468E-03    -94.4912E+06    -21.4682E+06    -56.8870E+06    -35.6751E+06    -94.7666E-03     191.952E-03    -97.1853E-03    -52.1298E-03    -95.1386E-03     191.993E-03    -97.3016E-03    -53.1225E-03
            1362     5.72059E-03     133.605E-03    -100.793E+06    -26.6331E+06    -56.7335E+06    -41.3043E+06    -94.8458E-03     194.088E-03    -99.2422E-03    -60.5759E-03    -95.2359E-03     194.097E-03    -99.3411E-03    -61.7534E-03
            1363     6.52397E-03     133.770E-03    -106.870E+06    -31.9060E+06    -57.6914E+06    -47.1040E+06    -94.0987E-03     195.696E-03    -101.597E-03    -68.4035E-03    -94.5047E-03     195.670E-03    -101.685E-03    -69.7715E-03
            1364     7.32262E-03     133.968E-03    -111.821E+06    -38.8438E+06    -58.4026E+06    -53.3994E+06    -92.3882E-03     196.650E-03    -104.262E-03    -74.8748E-03    -92.8008E-03     196.582E-03    -104.335E-03    -76.4432E-03
            1365     8.11192E-03     134.203E-03    -115.850E+06    -44.6431E+06    -58.8251E+06    -60.8451E+06    -89.4309E-03     196.650E-03    -107.219E-03    -78.6926E-03    -89.8504E-03     196.547E-03    -107.281E-03    -80.4711E-03
            1366     8.89846E-03     134.476E-03    -121.471E+06    -52.3841E+06    -62.4505E+06    -68.3561E+06    -85.0946E-03     195.517E-03    -110.422E-03    -78.6597E-03    -85.5272E-03     195.384E-03    -110.482E-03    -80.6292E-03
            1367     9.67293E-03     134.794E-03    -128.058E+06    -56.5053E+06    -67.3097E+06    -73.4432E+06    -79.6549E-03     193.466E-03    -113.811E-03    -73.0883E-03    -80.1187E-03     193.344E-03    -113.879E-03    -75.1937E-03
            1368     10.4452E-03     135.155E-03    -133.879E+06    -56.2642E+06    -70.1217E+06    -77.7471E+06    -73.5667E-03     190.857E-03    -117.290E-03    -59.9926E-03    -74.0836E-03     190.791E-03    -117.365E-03    -62.1899E-03
            1369     11.2072E-03     135.563E-03    -136.864E+06    -52.7811E+06    -70.3083E+06    -80.5229E+06    -66.6746E-03     187.317E-03    -120.643E-03    -37.6183E-03    -67.2573E-03     187.349E-03    -120.719E-03    -39.8292E-03
            1370     11.9732E-03     136.009E-03    -135.418E+06    -48.8721E+06    -72.4233E+06    -83.2301E+06    -58.4734E-03     181.990E-03    -123.517E-03    -8.63071E-03    -59.1090E-03     182.127E-03    -123.612E-03    -10.7778E-03
            1371     12.7446E-03     136.483E-03    -134.914E+06    -23.1392E+06    -69.3349E+06    -75.8367E+06    -50.1972E-03     175.803E-03    -125.606E-03     24.9888E-03    -50.9284E-03     176.159E-03    -125.723E-03     23.0338E-03
            1372     13.5193E-03     136.983E-03    -127.285E+06     24.7773E+06    -44.4921E+06    -48.7805E+06    -42.7722E-03     169.707E-03    -126.935E-03     47.0316E-03    -43.6535E-03     170.333E-03    -127.009E-03     45.4652E-03
            1373     14.3292E-03     137.466E-03    -112.436E+06     57.6066E+06    -26.3613E+06    -24.0906E+06    -26.2065E-03     153.246E-03    -127.039E-03     79.1275E-03    -27.3566E-03     154.317E-03    -127.092E-03     77.5884E-03
            1374     15.0937E-03     137.976E-03    -98.4102E+06     13.2228E+06    -71.2652E+06     12.1538E+06     12.6799E-03     111.928E-03    -124.608E-03     99.7247E-03     11.7963E-03     112.741E-03    -124.841E-03     99.0826E-03
            1375     15.3220E-03     68.4355E-03    -5.91966E+06     127.608E+06     100.643E+06    -197.286E+03    -108.487E-03     218.476E-03    -109.990E-03     92.7154E-03    -113.047E-03     223.177E-03    -109.663E-03     87.4200E-03
            1376     14.5205E-03     68.2596E-03    -11.3627E+06     127.152E+06     103.872E+06     247.373E+03    -109.542E-03     219.570E-03    -110.028E-03     160.806E-03    -116.968E-03     227.106E-03    -109.677E-03     153.139E-03
            1377     13.7090E-03     68.0810E-03    -17.3410E+06     117.456E+06     95.2917E+06    -125.996E+03    -110.597E-03     220.631E-03    -110.034E-03     179.395E-03    -118.280E-03     228.393E-03    -109.703E-03     170.757E-03
            1378     12.9037E-03     67.8676E-03    -24.0937E+06     107.630E+06     71.1367E+06     192.588E+03    -112.600E-03     222.587E-03    -109.986E-03     198.927E-03    -120.324E-03     230.401E-03    -109.752E-03     189.542E-03
            1379     12.0965E-03     67.6458E-03    -29.5628E+06     93.4804E+06     38.1444E+06     824.748E+03    -113.310E-03     223.213E-03    -109.903E-03     191.967E-03    -119.650E-03     229.669E-03    -109.805E-03     183.066E-03
            1380     11.2888E-03     67.4473E-03    -33.7508E+06     44.8491E+06     19.3842E+06     193.065E+03    -113.261E-03     223.200E-03    -109.939E-03     174.418E-03    -117.958E-03     227.881E-03    -109.858E-03     166.567E-03
            1381     10.4820E-03     67.2655E-03    -37.2396E+06    -23.4774E+06     10.8415E+06     146.805E+03    -113.493E-03     223.536E-03    -110.042E-03     160.688E-03    -116.988E-03     226.783E-03    -109.900E-03     153.817E-03
            1382     9.67606E-03     67.0947E-03    -41.0066E+06    -70.9489E+06     4.34852E+06     388.401E+03    -113.562E-03     223.676E-03    -110.114E-03     150.282E-03    -116.210E-03     225.913E-03    -109.930E-03     144.308E-03
            1383     8.86894E-03     66.9353E-03    -45.3544E+06    -103.124E+06     546.387E+03     356.151E+03    -113.478E-03     223.650E-03    -110.172E-03     140.340E-03    -115.499E-03     225.143E-03    -109.954E-03     135.174E-03
            1384     8.06251E-03     66.7851E-03    -49.8055E+06    -130.051E+06    -4.95517E+06     325.406E+03    -113.242E-03     223.453E-03    -110.211E-03     129.686E-03    -114.764E-03     224.350E-03    -109.975E-03     125.263E-03
            1385     7.25671E-03     66.6483E-03    -54.4982E+06    -151.532E+06    -9.36671E+06     407.657E+03    -112.843E-03     223.089E-03    -110.246E-03     118.316E-03    -113.975E-03     223.516E-03    -109.994E-03     114.571E-03
            1386     6.44946E-03     66.5231E-03    -59.9066E+06    -169.069E+06    -15.8722E+06     891.388E+03    -112.393E-03     222.661E-03    -110.268E-03     106.543E-03    -113.221E-03     222.722E-03    -110.015E-03     103.416E-03
            1387     5.64389E-03     66.4116E-03    -65.1904E+06    -183.349E+06    -25.8560E+06     680.349E+03    -111.977E-03     222.245E-03    -110.268E-03     94.3724E-03    -112.569E-03     222.029E-03    -110.037E-03     91.7826E-03
            1388     4.83696E-03     66.3132E-03    -70.6725E+06    -195.865E+06    -36.6135E+06     651.442E+03    -111.537E-03     221.799E-03    -110.262E-03     81.9047E-03    -111.947E-03     221.368E-03    -110.058E-03     79.7984E-03
            1389     4.03095E-03     66.2296E-03    -76.5279E+06    -209.534E+06    -47.8143E+06     879.587E+03    -111.168E-03     221.422E-03    -110.254E-03     69.0569E-03    -111.436E-03     220.813E-03    -110.078E-03     67.3876E-03
            1390     3.22479E-03     66.1593E-03    -82.0471E+06    -221.249E+06    -60.7806E+06     396.577E+03    -110.778E-03     221.015E-03    -110.237E-03     55.7516E-03    -110.938E-03     220.275E-03    -110.101E-03     54.4647E-03
            1391     2.41826E-03     66.1051E-03    -87.1364E+06    -231.112E+06    -73.3560E+06     215.523E+03    -110.484E-03     220.715E-03    -110.231E-03     42.4271E-03    -110.566E-03     219.879E-03    -110.136E-03     41.4925E-03
            1392     1.61244E-03     66.0645E-03    -91.0636E+06    -237.060E+06    -84.4116E+06    -16.2959E+03    -110.366E-03     220.586E-03    -110.220E-03     28.8251E-03    -110.395E-03     219.695E-03    -110.166E-03     28.2045E-03
            1393     805.770E-06     66.0413E-03    -93.2532E+06    -240.877E+06    -91.8613E+06    -202.846E+03    -110.291E-03     220.464E-03    -110.173E-03     15.5124E-03    -110.288E-03     219.541E-03    -110.147E-03     15.1781E-03
            1394     15.3233E-03     67.2498E-03    -5.55056E+06     127.839E+06     100.898E+06    -214.060E+03    -108.325E-03     218.313E-03    -109.989E-03     93.0319E-03    -112.893E-03     223.023E-03    -109.661E-03     87.7349E-03
            1395     14.5152E-03     67.0766E-03    -11.2278E+06     127.329E+06     104.059E+06    -613.897E+03    -109.317E-03     219.351E-03    -110.034E-03     159.733E-03    -116.725E-03     226.870E-03    -109.682E-03     152.094E-03
            1396     13.7116E-03     66.9037E-03    -17.8436E+06     116.811E+06     94.7018E+06     496.793E+03    -110.368E-03     220.420E-03    -110.052E-03     179.935E-03    -118.047E-03     228.176E-03    -109.722E-03     171.333E-03
            1397     12.9024E-03     66.6844E-03    -24.5419E+06     107.163E+06     71.3234E+06     665.346E+03    -112.543E-03     222.566E-03    -110.023E-03     199.799E-03    -120.285E-03     230.395E-03    -109.786E-03     190.419E-03
            1398     12.0955E-03     66.4673E-03    -29.1013E+06     93.9421E+06     38.8884E+06    -210.936E+03    -113.366E-03     223.311E-03    -109.945E-03     191.977E-03    -119.714E-03     229.777E-03    -109.845E-03     183.053E-03
            1399     11.2883E-03     66.2656E-03    -32.4293E+06     44.1428E+06     19.6434E+06     284.644E+03    -113.501E-03     223.472E-03    -109.970E-03     174.291E-03    -118.199E-03     228.154E-03    -109.889E-03     166.415E-03
            1400     10.4825E-03     66.0845E-03    -36.7597E+06    -23.2543E+06     11.3844E+06     917.174E+03    -113.596E-03     223.658E-03    -110.062E-03     160.231E-03    -117.085E-03     226.901E-03    -109.918E-03     153.362E-03
            1401     9.67502E-03     65.9142E-03    -41.0217E+06    -70.6690E+06     4.11427E+06     616.411E+03    -113.607E-03     223.730E-03    -110.124E-03     150.165E-03    -116.253E-03     225.968E-03    -109.941E-03     144.191E-03
            1402     8.86925E-03     65.7537E-03    -44.9096E+06    -103.812E+06     689.466E+03     580.540E+03    -113.520E-03     223.702E-03    -110.181E-03     140.226E-03    -115.538E-03     225.189E-03    -109.962E-03     135.060E-03
            1403     8.06292E-03     65.6048E-03    -49.5125E+06    -129.370E+06    -4.15931E+06     800.034E+03    -113.240E-03     223.460E-03    -110.220E-03     129.707E-03    -114.763E-03     224.360E-03    -109.981E-03     125.290E-03
            1404     7.25582E-03     65.4669E-03    -54.6350E+06    -151.913E+06    -9.68689E+06     507.181E+03    -112.873E-03     223.124E-03    -110.251E-03     118.312E-03    -114.004E-03     223.550E-03    -110.000E-03     114.568E-03
            1405     6.45035E-03     65.3426E-03    -59.4815E+06    -169.223E+06    -15.7213E+06     475.384E+03    -112.452E-03     222.721E-03    -110.269E-03     106.517E-03    -113.279E-03     222.782E-03    -110.016E-03     103.381E-03
            1406     5.64322E-03     65.2304E-03    -65.0032E+06    -182.917E+06    -25.3088E+06     656.980E+03    -111.927E-03     222.197E-03    -110.270E-03     94.2816E-03    -112.518E-03     221.982E-03    -110.037E-03     91.6936E-03
            1407     4.83733E-03     65.1328E-03    -70.9471E+06    -195.787E+06    -36.6124E+06     869.959E+03    -111.523E-03     221.790E-03    -110.267E-03     81.8220E-03    -111.933E-03     221.359E-03    -110.063E-03     79.7197E-03
            1408     4.03085E-03     65.0481E-03    -76.4130E+06    -209.444E+06    -48.0118E+06     630.258E+03    -111.170E-03     221.429E-03    -110.259E-03     69.0040E-03    -111.437E-03     220.821E-03    -110.085E-03     67.3296E-03
            1409     3.22468E-03     64.9789E-03    -81.8496E+06    -220.722E+06    -60.8988E+06     546.569E+03    -110.802E-03     221.042E-03    -110.239E-03     55.7596E-03    -110.962E-03     220.304E-03    -110.105E-03     54.4757E-03
            1410     2.41853E-03     64.9241E-03    -87.0028E+06    -230.643E+06    -73.6535E+06     375.549E+03    -110.497E-03     220.725E-03    -110.228E-03     42.4158E-03    -110.579E-03     219.893E-03    -110.136E-03     41.4816E-03
            1411     1.61186E-03     64.8838E-03    -91.0313E+06    -236.902E+06    -84.3159E+06     87.3534E+03    -110.277E-03     220.523E-03    -110.246E-03     28.7552E-03    -110.306E-03     219.632E-03    -110.192E-03     28.1390E-03
            1412     806.305E-06     64.8598E-03    -93.7852E+06    -241.108E+06    -91.9273E+06    -74.9484E+03    -110.435E-03     220.572E-03    -110.138E-03     15.6665E-03    -110.433E-03     219.649E-03    -110.112E-03     15.3329E-03
            1413     15.3256E-03     66.0711E-03    -4.79926E+06     128.466E+06     101.958E+06     172.781E+03    -108.047E-03     218.005E-03    -109.958E-03     93.0568E-03    -112.575E-03     222.677E-03    -109.627E-03     87.8593E-03
            1414     14.5187E-03     65.8967E-03    -12.1569E+06     126.031E+06     102.805E+06     46.4404E+03    -108.130E-03     218.169E-03    -110.039E-03     159.739E-03    -115.496E-03     225.641E-03    -109.690E-03     152.231E-03
            1415     13.7083E-03     65.7224E-03    -19.2999E+06     115.683E+06     94.0057E+06    -241.220E+03    -110.389E-03     220.484E-03    -110.095E-03     179.946E-03    -118.080E-03     228.244E-03    -109.765E-03     171.324E-03
            1416     12.9023E-03     65.5052E-03    -24.0099E+06     107.880E+06     72.0277E+06    -688.970E+03    -112.715E-03     222.778E-03    -110.063E-03     199.760E-03    -120.473E-03     230.624E-03    -109.824E-03     190.337E-03
            1417     12.0949E-03     65.2852E-03    -29.0641E+06     93.2124E+06     38.5120E+06    -52.4654E+03    -113.686E-03     223.651E-03    -109.965E-03     191.498E-03    -120.042E-03     230.123E-03    -109.866E-03     182.530E-03
            1418     11.2893E-03     65.0850E-03    -34.6701E+06     43.2460E+06     18.1330E+06     660.580E+03    -113.615E-03     223.586E-03    -109.970E-03     173.942E-03    -118.319E-03     228.267E-03    -109.892E-03     166.057E-03
            1419     10.4815E-03     64.9036E-03    -38.3367E+06    -23.3513E+06     10.9203E+06     436.279E+03    -113.520E-03     223.583E-03    -110.062E-03     160.141E-03    -117.015E-03     226.826E-03    -109.918E-03     153.269E-03
            1420     9.67613E-03     64.7331E-03    -41.4864E+06    -69.6872E+06     4.90570E+06     463.084E+03    -113.594E-03     223.724E-03    -110.130E-03     150.060E-03    -116.244E-03     225.965E-03    -109.944E-03     144.086E-03
            1421     8.86891E-03     64.5732E-03    -45.4903E+06    -104.466E+06     179.497E+03     406.870E+03    -113.499E-03     223.683E-03    -110.185E-03     140.353E-03    -115.518E-03     225.170E-03    -109.967E-03     135.185E-03
            1422     8.06229E-03     64.4234E-03    -49.4911E+06    -129.983E+06    -3.95477E+06     610.982E+03    -113.281E-03     223.506E-03    -110.225E-03     129.555E-03    -114.804E-03     224.403E-03    -109.985E-03     125.131E-03
            1423     7.25662E-03     64.2864E-03    -53.8806E+06    -150.822E+06    -8.98364E+06     624.652E+03    -112.875E-03     223.127E-03    -110.252E-03     118.221E-03    -114.003E-03     223.554E-03    -110.000E-03     114.482E-03
            1424     6.44947E-03     64.1611E-03    -59.4630E+06    -169.872E+06    -15.9156E+06     409.760E+03    -112.423E-03     222.694E-03    -110.272E-03     106.497E-03    -113.249E-03     222.752E-03    -110.019E-03     103.360E-03
            1425     5.64393E-03     64.0501E-03    -65.1913E+06    -182.699E+06    -24.9675E+06     1.02031E+06    -111.985E-03     222.257E-03    -110.272E-03     94.3058E-03    -112.578E-03     222.043E-03    -110.038E-03     91.7213E-03
            1426     4.83705E-03     63.9517E-03    -70.9005E+06    -195.698E+06    -36.7084E+06     781.735E+03    -111.560E-03     221.819E-03    -110.259E-03     81.8701E-03    -111.970E-03     221.389E-03    -110.056E-03     79.7657E-03
            1427     4.03105E-03     63.8674E-03    -76.7079E+06    -209.442E+06    -48.3136E+06     529.807E+03    -111.107E-03     221.359E-03    -110.252E-03     68.8740E-03    -111.374E-03     220.751E-03    -110.079E-03     67.2013E-03
            1428     3.22446E-03     63.7982E-03    -82.0301E+06    -220.351E+06    -60.6445E+06     623.685E+03    -110.831E-03     221.066E-03    -110.235E-03     55.7399E-03    -110.993E-03     220.330E-03    -110.100E-03     54.4550E-03
            1429     2.41845E-03     63.7426E-03    -86.7774E+06    -229.900E+06    -73.3019E+06     421.169E+03    -110.589E-03     220.786E-03    -110.197E-03     42.1738E-03    -110.671E-03     219.956E-03    -110.104E-03     41.2382E-03
            1430     1.61259E-03     63.7040E-03    -91.0078E+06    -236.783E+06    -84.5410E+06     218.494E+03    -110.249E-03     220.432E-03    -110.183E-03     28.7194E-03    -110.278E-03     219.542E-03    -110.130E-03     28.1076E-03
            1431     805.657E-06     63.6776E-03    -93.6241E+06    -240.915E+06    -91.8439E+06     -48.141E+03    -110.249E-03     220.433E-03    -110.184E-03     15.7604E-03    -110.248E-03     219.510E-03    -110.158E-03     15.4282E-03
            1432     15.3251E-03     64.8914E-03    -4.94468E+06     127.821E+06     101.352E+06     821.762E+03    -107.885E-03     217.863E-03    -109.978E-03     93.4070E-03    -112.405E-03     222.525E-03    -109.649E-03     88.2251E-03
            1433     14.5148E-03     64.7187E-03    -11.6903E+06     126.397E+06     103.420E+06     761.394E+03    -108.389E-03     218.455E-03    -110.066E-03     160.901E-03    -115.775E-03     225.949E-03    -109.715E-03     153.382E-03
            1434     13.7097E-03     64.5405E-03    -17.4975E+06     117.541E+06     95.2372E+06    -777.363E+03    -110.478E-03     220.591E-03    -110.113E-03     179.634E-03    -118.193E-03     228.385E-03    -109.782E-03     170.970E-03
            1435     12.9019E-03     64.3257E-03    -25.0149E+06     106.825E+06     69.8146E+06    -811.133E+03    -112.997E-03     223.054E-03    -110.056E-03     199.297E-03    -120.767E-03     230.912E-03    -109.826E-03     189.819E-03
            1436     12.0958E-03     64.1028E-03    -31.4090E+06     91.1859E+06     36.5863E+06     462.085E+03    -113.600E-03     223.556E-03    -109.955E-03     191.439E-03    -119.950E-03     230.012E-03    -109.859E-03     182.491E-03
            1437     11.2884E-03     63.9051E-03    -34.7344E+06     44.3383E+06     19.4300E+06     387.054E+03    -113.508E-03     223.484E-03    -109.976E-03     174.053E-03    -118.212E-03     228.166E-03    -109.893E-03     166.175E-03
            1438     10.4827E-03     63.7220E-03    -38.0330E+06    -22.9936E+06     11.0470E+06    -76.1935E+03    -113.576E-03     223.641E-03    -110.065E-03     160.344E-03    -117.077E-03     226.894E-03    -109.921E-03     153.457E-03
            1439     9.67503E-03     63.5528E-03    -41.8476E+06    -70.7558E+06     4.54537E+06     11.4023E+03    -113.598E-03     223.730E-03    -110.131E-03     150.050E-03    -116.247E-03     225.965E-03    -109.945E-03     144.070E-03
            1440     8.86899E-03     63.3919E-03    -45.5978E+06    -103.942E+06     448.898E+03     205.924E+03    -113.595E-03     223.777E-03    -110.182E-03     140.279E-03    -115.617E-03     225.267E-03    -109.963E-03     135.101E-03
            1441     8.06302E-03     63.2426E-03    -49.8114E+06    -130.601E+06    -4.47969E+06     10.1520E+03    -113.293E-03     223.507E-03    -110.214E-03     129.300E-03    -114.811E-03     224.397E-03    -109.974E-03     124.874E-03
            1442     7.25596E-03     63.1054E-03    -54.5568E+06    -150.988E+06    -8.67170E+06     537.516E+03    -112.809E-03     223.054E-03    -110.245E-03     118.090E-03    -113.941E-03     223.481E-03    -109.990E-03     114.349E-03
            1443     6.45026E-03     62.9806E-03    -59.9938E+06    -169.533E+06    -16.4317E+06     1.03451E+06    -112.346E-03     222.612E-03    -110.266E-03     106.373E-03    -113.173E-03     222.671E-03    -110.015E-03     103.249E-03
            1444     5.64304E-03     62.8690E-03    -65.3711E+06    -183.575E+06    -26.1162E+06     501.716E+03    -111.984E-03     222.253E-03    -110.269E-03     94.3619E-03    -112.575E-03     222.036E-03    -110.039E-03     91.7695E-03
            1445     4.83754E-03     62.7706E-03    -70.7771E+06    -195.304E+06    -36.2432E+06     704.082E+03    -111.585E-03     221.844E-03    -110.259E-03     81.8492E-03    -111.996E-03     221.416E-03    -110.055E-03     79.7418E-03
            1446     4.03084E-03     62.6870E-03    -76.5254E+06    -208.921E+06    -48.0080E+06     741.567E+03    -111.176E-03     221.417E-03    -110.241E-03     68.9059E-03    -111.444E-03     220.811E-03    -110.068E-03     67.2353E-03
            1447     3.22493E-03     62.6168E-03    -82.0664E+06    -220.013E+06    -61.0796E+06     339.880E+03    -110.835E-03     221.046E-03    -110.211E-03     55.8150E-03    -110.998E-03     220.313E-03    -110.078E-03     54.5254E-03
            1448     2.41863E-03     62.5622E-03    -87.0594E+06    -229.409E+06    -73.2444E+06     376.153E+03    -110.564E-03     220.736E-03    -110.172E-03     42.2474E-03    -110.648E-03     219.908E-03    -110.079E-03     41.3133E-03
            1449     1.61227E-03     62.5224E-03    -90.9671E+06    -236.292E+06    -84.0389E+06     351.411E+03    -110.401E-03     220.501E-03    -110.100E-03     28.6971E-03    -110.431E-03     219.613E-03    -110.046E-03     28.0833E-03
            1450     806.549E-06     62.4983E-03    -93.6845E+06    -240.815E+06    -92.0010E+06     457.815E+03    -110.186E-03     220.143E-03    -109.957E-03     15.7485E-03    -110.184E-03     219.221E-03    -109.932E-03     15.4291E-03
            1451     15.3214E-03     63.7114E-03    -5.48095E+06     127.580E+06     101.332E+06     535.405E+03    -107.974E-03     218.002E-03    -110.028E-03     92.7825E-03    -112.505E-03     222.673E-03    -109.698E-03     87.5594E-03
            1452     14.5181E-03     63.5366E-03    -10.5009E+06     127.985E+06     104.993E+06    -272.111E+03    -108.955E-03     219.051E-03    -110.096E-03     159.988E-03    -116.369E-03     226.577E-03    -109.741E-03     152.378E-03
            1453     13.7087E-03     63.3623E-03    -17.5739E+06     117.383E+06     94.8901E+06     561.243E+03    -110.805E-03     220.917E-03    -110.112E-03     180.604E-03    -118.559E-03     228.750E-03    -109.782E-03     171.898E-03
            1454     12.9028E-03     63.1420E-03    -24.8182E+06     106.853E+06     70.6334E+06     1.43619E+06    -113.089E-03     223.140E-03    -110.051E-03     199.449E-03    -120.846E-03     230.983E-03    -109.817E-03     190.001E-03
            1455     12.0955E-03     62.9245E-03    -29.7368E+06     91.7913E+06     37.8256E+06     46.1977E+03    -113.470E-03     223.422E-03    -109.952E-03     191.437E-03    -119.803E-03     229.865E-03    -109.853E-03     182.508E-03
            1456     11.2886E-03     62.7227E-03    -33.3281E+06     43.4512E+06     19.5806E+06    -428.621E+03    -113.497E-03     223.472E-03    -109.975E-03     174.122E-03    -118.192E-03     228.147E-03    -109.892E-03     166.234E-03
            1457     10.4815E-03     62.5416E-03    -36.9971E+06    -22.2384E+06     11.9712E+06     385.894E+03    -113.578E-03     223.644E-03    -110.066E-03     159.880E-03    -117.066E-03     226.887E-03    -109.920E-03     153.007E-03
            1458     9.67584E-03     62.3717E-03    -41.0482E+06    -71.2548E+06     4.43897E+06     103.615E+03    -113.726E-03     223.848E-03    -110.122E-03     149.942E-03    -116.370E-03     226.081E-03    -109.937E-03     143.954E-03
            1459     8.86934E-03     62.2108E-03    -45.1881E+06    -104.256E+06     876.749E+03     199.828E+03    -113.614E-03     223.781E-03    -110.168E-03     140.099E-03    -115.631E-03     225.266E-03    -109.946E-03     134.924E-03
            1460     8.06258E-03     62.0617E-03    -49.8541E+06    -129.791E+06    -4.06933E+06     458.402E+03    -113.182E-03     223.383E-03    -110.201E-03     129.305E-03    -114.701E-03     224.276E-03    -109.961E-03     124.891E-03
            1461     7.25683E-03     61.9246E-03    -54.9402E+06    -152.267E+06    -9.32206E+06     268.900E+03    -112.780E-03     223.017E-03    -110.237E-03     118.173E-03    -113.913E-03     223.442E-03    -109.983E-03     114.427E-03
            1462     6.44962E-03     61.7999E-03    -59.6347E+06    -169.228E+06    -15.6632E+06     577.208E+03    -112.370E-03     222.630E-03    -110.261E-03     106.457E-03    -113.196E-03     222.690E-03    -110.007E-03     103.326E-03
            1463     5.64402E-03     61.6882E-03    -65.0770E+06    -183.131E+06    -25.5488E+06     661.662E+03    -111.944E-03     222.208E-03    -110.264E-03     94.3843E-03    -112.536E-03     221.992E-03    -110.032E-03     91.7956E-03
            1464     4.83686E-03     61.5897E-03    -70.9562E+06    -195.584E+06    -36.4354E+06     493.398E+03    -111.552E-03     221.808E-03    -110.257E-03     81.7769E-03    -111.962E-03     221.378E-03    -110.052E-03     79.6686E-03
            1465     4.03113E-03     61.5059E-03    -76.5178E+06    -208.535E+06    -47.5579E+06     613.561E+03    -111.208E-03     221.447E-03    -110.239E-03     68.9453E-03    -111.478E-03     220.843E-03    -110.064E-03     67.2703E-03
            1466     3.22468E-03     61.4361E-03    -82.1078E+06    -219.546E+06    -61.0141E+06     635.569E+03    -110.819E-03     221.023E-03    -110.204E-03     55.8181E-03    -110.981E-03     220.292E-03    -110.072E-03     54.5347E-03
            1467     2.41843E-03     61.3814E-03    -87.0356E+06    -229.421E+06    -73.6072E+06     326.732E+03    -110.534E-03     220.705E-03    -110.171E-03     42.3646E-03    -110.618E-03     219.879E-03    -110.080E-03     41.4291E-03
            1468     1.61250E-03     61.3415E-03    -90.8802E+06    -235.914E+06    -83.7816E+06     365.426E+03    -110.377E-03     220.495E-03    -110.118E-03     28.8108E-03    -110.407E-03     219.608E-03    -110.063E-03     28.1978E-03
            1469     806.484E-06     61.3171E-03    -93.5494E+06    -240.378E+06    -91.6504E+06     427.127E+03    -110.199E-03     220.201E-03    -110.002E-03     16.0261E-03    -110.198E-03     219.281E-03    -109.976E-03     15.7030E-03
            1470     15.3248E-03     62.5263E-03    -5.22853E+06     127.916E+06     102.093E+06    -241.458E+03    -107.592E-03     217.620E-03    -110.029E-03     91.9731E-03    -112.110E-03     222.278E-03    -109.696E-03     86.8014E-03
            1471     14.5147E-03     62.3593E-03    -11.2101E+06     127.038E+06     103.931E+06     655.907E+03    -108.745E-03     218.854E-03    -110.109E-03     160.801E-03    -116.166E-03     226.384E-03    -109.757E-03     153.203E-03
            1472     13.7091E-03     62.1787E-03    -18.7161E+06     116.067E+06     94.4440E+06     1.37586E+06    -111.350E-03     221.472E-03    -110.122E-03     180.850E-03    -119.102E-03     229.296E-03    -109.791E-03     172.116E-03
            1473     12.9023E-03     61.9623E-03    -23.4361E+06     108.096E+06     72.8299E+06     510.969E+03    -113.012E-03     223.064E-03    -110.052E-03     198.734E-03    -120.738E-03     230.880E-03    -109.811E-03     189.306E-03
            1474     12.0954E-03     61.7429E-03    -27.9912E+06     93.1741E+06     39.3758E+06     222.986E+03    -113.599E-03     223.543E-03    -109.944E-03     191.306E-03    -119.928E-03     229.989E-03    -109.842E-03     182.368E-03
            1475     11.2890E-03     61.5422E-03    -32.8457E+06     43.2426E+06     19.4678E+06     297.672E+03    -113.533E-03     223.489E-03    -109.956E-03     173.820E-03    -118.219E-03     228.156E-03    -109.874E-03     165.945E-03
            1476     10.4827E-03     61.3608E-03    -36.8923E+06    -23.6470E+06     11.6502E+06     214.279E+03    -113.556E-03     223.602E-03    -110.046E-03     159.900E-03    -117.037E-03     226.834E-03    -109.900E-03     153.030E-03
            1477     9.67554E-03     61.1903E-03    -40.6764E+06    -70.6478E+06     5.41083E+06     572.615E+03    -113.738E-03     223.841E-03    -110.103E-03     149.874E-03    -116.385E-03     226.078E-03    -109.915E-03     143.887E-03
            1478     8.86942E-03     61.0299E-03    -45.0961E+06    -103.729E+06     1.25640E+06     687.228E+03    -113.409E-03     223.562E-03    -110.153E-03     139.986E-03    -115.424E-03     225.045E-03    -109.931E-03     134.831E-03
            1479     8.06314E-03     60.8812E-03    -49.4515E+06    -130.325E+06    -3.94104E+06     506.340E+03    -113.089E-03     223.289E-03    -110.200E-03     129.499E-03    -114.608E-03     224.181E-03    -109.959E-03     125.086E-03
            1480     7.25590E-03     60.7436E-03    -54.1040E+06    -152.011E+06    -8.89101E+06     395.389E+03    -112.805E-03     223.045E-03    -110.240E-03     118.236E-03    -113.935E-03     223.469E-03    -109.986E-03     114.492E-03
            1481     6.45030E-03     60.6192E-03    -59.6989E+06    -169.589E+06    -15.6158E+06     274.819E+03    -112.408E-03     222.670E-03    -110.261E-03     106.535E-03    -113.235E-03     222.728E-03    -110.007E-03     103.398E-03
            1482     5.64323E-03     60.5071E-03    -65.3344E+06    -182.829E+06    -25.0089E+06     666.889E+03    -111.991E-03     222.251E-03    -110.260E-03     94.4586E-03    -112.585E-03     222.037E-03    -110.025E-03     91.8697E-03
            1483     4.83764E-03     60.4092E-03    -70.8516E+06    -195.500E+06    -36.6497E+06     539.684E+03    -111.547E-03     221.793E-03    -110.245E-03     81.7994E-03    -111.957E-03     221.363E-03    -110.042E-03     79.6930E-03
            1484     4.03084E-03     60.3247E-03    -76.8358E+06    -208.776E+06    -48.3033E+06     436.318E+03    -111.138E-03     221.371E-03    -110.233E-03     68.9184E-03    -111.408E-03     220.767E-03    -110.060E-03     67.2433E-03
            1485     3.22484E-03     60.2555E-03    -82.2687E+06    -219.261E+06    -60.7702E+06     671.778E+03    -110.814E-03     221.023E-03    -110.209E-03     55.7377E-03    -110.978E-03     220.292E-03    -110.075E-03     54.4547E-03
            1486     2.41863E-03     60.2004E-03    -86.7809E+06    -229.040E+06    -73.4781E+06     436.062E+03    -110.499E-03     220.682E-03    -110.182E-03     42.3837E-03    -110.582E-03     219.856E-03    -110.092E-03     41.4501E-03
            1487     1.61229E-03     60.1607E-03    -90.8133E+06    -235.882E+06    -84.3344E+06     92.4870E+03    -110.220E-03     220.414E-03    -110.194E-03     28.7788E-03    -110.250E-03     219.528E-03    -110.142E-03     28.1641E-03
            1488     805.527E-06     60.1367E-03    -92.9440E+06    -239.732E+06    -91.1962E+06    -132.727E+03    -110.320E-03     220.476E-03    -110.156E-03     15.7704E-03    -110.318E-03     219.558E-03    -110.130E-03     15.4350E-03
            1489     15.3238E-03     61.3543E-03    -5.17386E+06     126.477E+06     100.374E+06     212.690E+03    -107.247E-03     217.264E-03    -110.017E-03     92.7052E-03    -111.782E-03     221.939E-03    -109.691E-03     87.5336E-03
            1490     14.5152E-03     61.1763E-03    -12.0981E+06     126.045E+06     102.870E+06     1.31408E+06    -109.378E-03     219.477E-03    -110.098E-03     161.515E-03    -116.809E-03     227.014E-03    -109.749E-03     153.889E-03
            1491     13.7096E-03     60.9963E-03    -17.0881E+06     117.742E+06     96.0172E+06     164.232E+03    -111.244E-03     221.344E-03    -110.100E-03     179.067E-03    -118.937E-03     229.116E-03    -109.766E-03     170.359E-03
            1492     12.9028E-03     60.7829E-03    -23.5716E+06     107.942E+06     72.3982E+06    -295.827E+03    -112.858E-03     222.885E-03    -110.027E-03     198.364E-03    -120.577E-03     230.693E-03    -109.787E-03     188.941E-03
            1493     12.0960E-03     60.5609E-03    -29.2910E+06     92.5879E+06     38.4541E+06     259.592E+03    -113.574E-03     223.496E-03    -109.922E-03     191.332E-03    -119.912E-03     229.947E-03    -109.821E-03     182.393E-03
            1494     11.2894E-03     60.3620E-03    -33.0879E+06     43.4103E+06     19.7961E+06     439.035E+03    -113.495E-03     223.433E-03    -109.937E-03     173.915E-03    -118.186E-03     228.103E-03    -109.853E-03     166.047E-03
            1495     10.4820E-03     60.1798E-03    -36.9341E+06    -23.9549E+06     11.8391E+06     630.866E+03    -113.613E-03     223.639E-03    -110.025E-03     160.219E-03    -117.106E-03     226.880E-03    -109.878E-03     153.341E-03
            1496     9.67650E-03     60.0091E-03    -41.0549E+06    -70.8196E+06     5.14510E+06     707.540E+03    -113.538E-03     223.624E-03    -110.087E-03     149.895E-03    -116.184E-03     225.859E-03    -109.899E-03     143.923E-03
            1497     8.86950E-03     59.8498E-03    -44.8266E+06    -103.460E+06     1.63958E+06     696.084E+03    -113.300E-03     223.450E-03    -110.151E-03     140.018E-03    -115.314E-03     224.934E-03    -109.928E-03     134.868E-03
            1498     8.06237E-03     59.7002E-03    -49.2430E+06    -130.149E+06    -3.77396E+06     544.260E+03    -113.106E-03     223.307E-03    -110.201E-03     129.576E-03    -114.625E-03     224.200E-03    -109.960E-03     125.163E-03
            1499     7.25678E-03     59.5629E-03    -54.2259E+06    -151.852E+06    -8.62250E+06     522.206E+03    -112.816E-03     223.057E-03    -110.241E-03     118.160E-03    -113.945E-03     223.479E-03    -109.985E-03     114.419E-03
            1500     6.44958E-03     59.4382E-03    -59.5017E+06    -169.548E+06    -15.5974E+06     676.052E+03    -112.427E-03     222.685E-03    -110.258E-03     106.449E-03    -113.252E-03     222.743E-03    -110.004E-03     103.318E-03
            1501     5.64394E-03     59.3264E-03    -65.2120E+06    -183.333E+06    -25.2960E+06     370.846E+03    -111.992E-03     222.246E-03    -110.254E-03     94.3975E-03    -112.584E-03     222.029E-03    -110.021E-03     91.8047E-03
            1502     4.83706E-03     59.2280E-03    -71.0417E+06    -195.109E+06    -36.3732E+06     630.394E+03    -111.514E-03     221.757E-03    -110.244E-03     81.8170E-03    -111.925E-03     221.329E-03    -110.039E-03     79.7143E-03
            1503     4.03120E-03     59.1444E-03    -76.6398E+06    -208.375E+06    -48.6058E+06     609.165E+03    -111.114E-03     221.348E-03    -110.233E-03     69.0532E-03    -111.383E-03     220.745E-03    -110.063E-03     67.3830E-03
            1504     3.22462E-03     59.0742E-03    -81.8973E+06    -219.364E+06    -61.2829E+06     246.411E+03    -110.781E-03     220.999E-03    -110.218E-03     55.8372E-03    -110.943E-03     220.269E-03    -110.088E-03     54.5495E-03
            1505     2.41851E-03     59.0199E-03    -86.8386E+06    -228.390E+06    -73.2163E+06     384.734E+03    -110.462E-03     220.675E-03    -110.213E-03     42.3901E-03    -110.546E-03     219.852E-03    -110.122E-03     41.4581E-03
            1506     1.61210E-03     58.9801E-03    -90.7074E+06    -235.280E+06    -84.0629E+06     145.602E+03    -110.367E-03     220.567E-03    -110.200E-03     28.8221E-03    -110.397E-03     219.684E-03    -110.148E-03     28.2067E-03
            1507     806.559E-06     58.9554E-03    -93.3410E+06    -240.024E+06    -91.7079E+06    -226.158E+03    -110.433E-03     220.416E-03    -109.983E-03     15.5846E-03    -110.431E-03     219.497E-03    -109.959E-03     15.2511E-03
            1508     15.3210E-03     60.1739E-03    -5.52314E+06     126.384E+06     100.172E+06     657.464E+03    -108.642E-03     218.646E-03    -110.004E-03     93.1804E-03    -113.223E-03     223.366E-03    -109.678E-03     87.8921E-03
            1509     14.5180E-03     59.9915E-03    -10.5698E+06     128.074E+06     104.880E+06    -218.234E+03    -109.644E-03     219.683E-03    -110.039E-03     160.479E-03    -117.091E-03     227.243E-03    -109.685E-03     152.809E-03
            1510     13.7105E-03     59.8192E-03    -17.2610E+06     117.573E+06     95.6378E+06    -216.272E+03    -110.444E-03     220.488E-03    -110.044E-03     178.870E-03    -118.113E-03     228.236E-03    -109.712E-03     170.236E-03
            1511     12.9028E-03     59.5995E-03    -23.8383E+06     107.743E+06     72.2668E+06     215.407E+03    -112.665E-03     222.667E-03    -110.002E-03     198.920E-03    -120.396E-03     230.486E-03    -109.762E-03     189.520E-03
            1512     12.0964E-03     59.3821E-03    -28.4999E+06     92.3169E+06     39.3133E+06    -96.8587E+03    -113.497E-03     223.407E-03    -109.910E-03     191.542E-03    -119.847E-03     229.869E-03    -109.806E-03     182.595E-03
            1513     11.2887E-03     59.1803E-03    -32.8807E+06     42.2198E+06     19.4462E+06     746.718E+03    -113.562E-03     223.483E-03    -109.921E-03     174.002E-03    -118.256E-03     228.154E-03    -109.838E-03     166.125E-03
            1514     10.4835E-03     58.9990E-03    -37.1299E+06    -23.5517E+06     11.9555E+06     1.01060E+06    -113.476E-03     223.488E-03    -110.012E-03     160.122E-03    -116.965E-03     226.727E-03    -109.864E-03     153.261E-03
            1515     9.67555E-03     58.8286E-03    -40.6566E+06    -70.2889E+06     5.20634E+06     633.693E+03    -113.380E-03     223.463E-03    -110.083E-03     149.936E-03    -116.022E-03     225.696E-03    -109.896E-03     143.980E-03
            1516     8.86921E-03     58.6689E-03    -44.6748E+06    -104.472E+06     1.32774E+06     569.668E+03    -113.365E-03     223.517E-03    -110.152E-03     140.070E-03    -115.375E-03     224.994E-03    -109.929E-03     134.916E-03
            1517     8.06331E-03     58.5196E-03    -49.2480E+06    -129.315E+06    -3.00455E+06     888.520E+03    -113.183E-03     223.382E-03    -110.198E-03     129.576E-03    -114.705E-03     224.278E-03    -109.954E-03     125.163E-03
            1518     7.25596E-03     58.3820E-03    -54.2995E+06    -151.409E+06    -8.63504E+06     724.528E+03    -112.794E-03     223.026E-03    -110.232E-03     118.149E-03    -113.921E-03     223.448E-03    -109.977E-03     114.419E-03
            1519     6.45040E-03     58.2574E-03    -59.5429E+06    -170.130E+06    -15.7262E+06     319.801E+03    -112.413E-03     222.665E-03    -110.252E-03     106.528E-03    -113.238E-03     222.720E-03    -109.997E-03     103.394E-03
            1520     5.64345E-03     58.1454E-03    -65.0261E+06    -183.101E+06    -25.1972E+06     652.135E+03    -111.924E-03     222.177E-03    -110.253E-03     94.4143E-03    -112.515E-03     221.961E-03    -110.019E-03     91.8282E-03
            1521     4.83753E-03     58.0476E-03    -70.8047E+06    -194.862E+06    -36.1102E+06     699.577E+03    -111.467E-03     221.720E-03    -110.253E-03     81.9073E-03    -111.878E-03     221.292E-03    -110.048E-03     79.8090E-03
            1522     4.03071E-03     57.9632E-03    -76.2774E+06    -207.943E+06    -47.9226E+06     503.584E+03    -111.131E-03     221.380E-03    -110.249E-03     69.0672E-03    -111.399E-03     220.778E-03    -110.077E-03     67.3965E-03
            1523     3.22479E-03     57.8936E-03    -81.8661E+06    -218.890E+06    -61.0655E+06     399.059E+03    -110.731E-03     220.971E-03    -110.241E-03     55.7682E-03    -110.893E-03     220.243E-03    -110.110E-03     54.4847E-03
            1524     2.41824E-03     57.8390E-03    -87.0128E+06    -228.072E+06    -73.5010E+06     241.002E+03    -110.546E-03     220.777E-03    -110.231E-03     42.4295E-03    -110.631E-03     219.957E-03    -110.142E-03     41.4942E-03
            1525     1.61233E-03     57.7990E-03    -90.8192E+06    -234.978E+06    -84.0422E+06     220.535E+03    -110.460E-03     220.642E-03    -110.182E-03     28.8977E-03    -110.491E-03     219.760E-03    -110.130E-03     28.2829E-03
            1526     806.082E-06     57.7739E-03    -93.6238E+06    -239.859E+06    -91.7322E+06     206.547E+03    -110.215E-03     220.322E-03    -110.108E-03     15.5551E-03    -110.215E-03     219.405E-03    -110.083E-03     15.2298E-03
            1527     15.3272E-03     58.9864E-03    -6.32828E+06     126.807E+06     101.156E+06     57.4978E+03    -109.239E-03     219.208E-03    -109.970E-03     93.8591E-03    -113.834E-03     223.938E-03    -109.638E-03     88.5493E-03
            1528     14.5185E-03     58.8156E-03    -11.2968E+06     127.260E+06     104.351E+06    -265.554E+03    -109.050E-03     219.047E-03    -109.997E-03     160.854E-03    -116.506E-03     226.611E-03    -109.643E-03     153.219E-03
            1529     13.7102E-03     58.6364E-03    -17.8118E+06     117.048E+06     95.5300E+06    -91.1501E+03    -110.346E-03     220.369E-03    -110.023E-03     179.822E-03    -118.044E-03     228.142E-03    -109.689E-03     171.198E-03
            1530     12.9037E-03     58.4216E-03    -23.2556E+06     108.185E+06     72.0346E+06    -330.212E+03    -112.600E-03     222.584E-03    -109.984E-03     199.262E-03    -120.337E-03     230.413E-03    -109.747E-03     189.856E-03
            1531     12.0955E-03     58.1997E-03    -29.0188E+06     91.0746E+06     38.6151E+06     297.367E+03    -113.565E-03     223.458E-03    -109.893E-03     191.584E-03    -119.909E-03     229.911E-03    -109.790E-03     182.635E-03
            1532     11.2904E-03     58.0001E-03    -33.6978E+06     42.0336E+06     19.6592E+06     1.08596E+06    -113.450E-03     223.359E-03    -109.909E-03     173.937E-03    -118.140E-03     228.022E-03    -109.823E-03     166.078E-03
            1533     10.4820E-03     57.8182E-03    -37.0867E+06    -23.5783E+06     11.5851E+06     600.244E+03    -113.319E-03     223.324E-03    -110.005E-03     160.258E-03    -116.801E-03     226.557E-03    -109.859E-03     153.410E-03
            1534     9.67644E-03     57.6482E-03    -40.8254E+06    -70.2698E+06     5.62357E+06     619.496E+03    -113.407E-03     223.493E-03    -110.086E-03     149.906E-03    -116.046E-03     225.722E-03    -109.897E-03     143.951E-03
            1535     8.86946E-03     57.4883E-03    -45.0546E+06    -103.820E+06     1.44860E+06     692.103E+03    -113.388E-03     223.540E-03    -110.152E-03     140.239E-03    -115.403E-03     225.022E-03    -109.928E-03     135.086E-03
            1536     8.06252E-03     57.3384E-03    -49.4256E+06    -129.708E+06    -3.24701E+06     713.068E+03    -113.194E-03     223.391E-03    -110.196E-03     129.642E-03    -114.714E-03     224.284E-03    -109.953E-03     125.231E-03
            1537     7.25698E-03     57.2016E-03    -54.0366E+06    -150.987E+06    -8.26461E+06     858.374E+03    -112.813E-03     223.043E-03    -110.230E-03     118.290E-03    -113.940E-03     223.466E-03    -109.974E-03     114.563E-03
            1538     6.44965E-03     57.0763E-03    -59.4979E+06    -170.156E+06    -15.8859E+06     521.250E+03    -112.370E-03     222.621E-03    -110.251E-03     106.602E-03    -113.194E-03     222.675E-03    -109.997E-03     103.474E-03
            1539     5.64385E-03     56.9648E-03    -65.2362E+06    -183.003E+06    -25.5561E+06     542.098E+03    -111.885E-03     222.143E-03    -110.258E-03     94.3442E-03    -112.476E-03     221.926E-03    -110.025E-03     91.7615E-03
            1540     4.83689E-03     56.8668E-03    -70.6113E+06    -195.013E+06    -36.4296E+06     419.953E+03    -111.512E-03     221.769E-03    -110.257E-03     81.9578E-03    -111.921E-03     221.341E-03    -110.054E-03     79.8547E-03
            1541     4.03114E-03     56.7822E-03    -76.3293E+06    -207.947E+06    -47.6074E+06     485.143E+03    -111.119E-03     221.375E-03    -110.255E-03     68.9321E-03    -111.388E-03     220.773E-03    -110.081E-03     67.2600E-03
            1542     3.22448E-03     56.7130E-03    -82.1298E+06    -218.174E+06    -60.4979E+06     650.788E+03    -110.786E-03     221.026E-03    -110.240E-03     55.6610E-03    -110.951E-03     220.301E-03    -110.107E-03     54.3797E-03
            1543     2.41839E-03     56.6580E-03    -86.9547E+06    -227.720E+06    -73.5033E+06     423.427E+03    -110.601E-03     220.807E-03    -110.207E-03     42.4253E-03    -110.686E-03     219.989E-03    -110.118E-03     41.4921E-03
            1544     1.61240E-03     56.6175E-03    -90.8437E+06    -234.927E+06    -84.3045E+06     234.365E+03    -110.270E-03     220.463E-03    -110.193E-03     28.7182E-03    -110.301E-03     219.582E-03    -110.142E-03     28.1038E-03
            1545     806.105E-06     56.5943E-03    -93.1025E+06    -239.351E+06    -91.6882E+06     170.937E+03    -110.130E-03     220.448E-03    -110.318E-03     15.7479E-03    -110.128E-03     219.532E-03    -110.294E-03     15.4207E-03
            1546     15.3228E-03     57.8077E-03    -5.34081E+06     126.179E+06     100.877E+06    -172.895E+03    -108.347E-03     218.279E-03    -109.932E-03     92.9814E-03    -112.884E-03     222.952E-03    -109.603E-03     87.7406E-03
            1547     14.5165E-03     57.6329E-03    -11.8182E+06     126.140E+06     103.547E+06    -738.295E+03    -108.696E-03     218.687E-03    -109.992E-03     160.142E-03    -116.098E-03     226.195E-03    -109.640E-03     152.557E-03
            1548     13.7111E-03     57.4572E-03    -17.2896E+06     117.509E+06     95.6468E+06    -657.954E+03    -110.473E-03     220.497E-03    -110.025E-03     179.872E-03    -118.177E-03     228.280E-03    -109.692E-03     171.223E-03
            1549     12.9027E-03     57.2408E-03    -24.3912E+06     107.158E+06     70.7415E+06    -190.015E+03    -112.908E-03     222.879E-03    -109.971E-03     199.797E-03    -120.664E-03     230.724E-03    -109.737E-03     190.350E-03
            1550     12.0975E-03     57.0187E-03    -29.9807E+06     89.8400E+06     37.5629E+06     899.357E+03    -113.477E-03     223.354E-03    -109.877E-03     191.663E-03    -119.807E-03     229.787E-03    -109.776E-03     182.746E-03
            1551     11.2887E-03     56.8199E-03    -33.7805E+06     42.1306E+06     20.0137E+06     458.231E+03    -113.187E-03     223.098E-03    -109.910E-03     174.221E-03    -117.873E-03     227.755E-03    -109.822E-03     166.382E-03
            1552     10.4834E-03     56.6374E-03    -37.6453E+06    -22.3344E+06     11.9820E+06     674.260E+03    -113.350E-03     223.366E-03    -110.016E-03     160.483E-03    -116.841E-03     226.609E-03    -109.869E-03     153.637E-03
            1553     9.67558E-03     56.4678E-03    -41.6770E+06    -70.8856E+06     4.67369E+06     465.997E+03    -113.477E-03     223.568E-03    -110.091E-03     150.134E-03    -116.118E-03     225.796E-03    -109.904E-03     144.178E-03
            1554     8.86930E-03     56.3073E-03    -45.3881E+06    -103.888E+06     1.25360E+06     355.461E+03    -113.447E-03     223.602E-03    -110.155E-03     140.427E-03    -115.466E-03     225.088E-03    -109.932E-03     135.266E-03
            1555     8.06320E-03     56.1580E-03    -49.6261E+06    -129.329E+06    -3.41527E+06     601.565E+03    -113.169E-03     223.367E-03    -110.198E-03     129.612E-03    -114.686E-03     224.259E-03    -109.956E-03     125.209E-03
            1556     7.25583E-03     56.0204E-03    -54.4446E+06    -151.517E+06    -8.64512E+06     522.774E+03    -112.827E-03     223.061E-03    -110.233E-03     118.302E-03    -113.956E-03     223.483E-03    -109.978E-03     114.568E-03
            1557     6.45042E-03     55.8957E-03    -59.5345E+06    -169.547E+06    -15.6306E+06     789.617E+03    -112.392E-03     222.644E-03    -110.253E-03     106.464E-03    -113.216E-03     222.701E-03    -109.999E-03     103.339E-03
            1558     5.64330E-03     55.7841E-03    -64.9475E+06    -183.086E+06    -25.7664E+06     437.875E+03    -111.945E-03     222.196E-03    -110.251E-03     94.2486E-03    -112.533E-03     221.978E-03    -110.020E-03     91.6628E-03
            1559     4.83756E-03     55.6858E-03    -70.8637E+06    -195.128E+06    -36.9755E+06     334.413E+03    -111.533E-03     221.774E-03    -110.241E-03     81.8253E-03    -111.943E-03     221.347E-03    -110.040E-03     79.7176E-03
            1560     4.03079E-03     55.6014E-03    -76.8068E+06    -207.714E+06    -47.9069E+06     719.860E+03    -111.111E-03     221.345E-03    -110.235E-03     68.7714E-03    -111.382E-03     220.745E-03    -110.062E-03     67.1028E-03
            1561     3.22475E-03     55.5323E-03    -81.9603E+06    -218.030E+06    -60.7425E+06     539.750E+03    -110.841E-03     221.047E-03    -110.206E-03     55.7126E-03    -111.005E-03     220.322E-03    -110.075E-03     54.4289E-03
            1562     2.41878E-03     55.4765E-03    -86.8320E+06    -227.549E+06    -73.5132E+06     329.838E+03    -110.506E-03     220.680E-03    -110.174E-03     42.3756E-03    -110.591E-03     219.862E-03    -110.086E-03     41.4412E-03
            1563     1.61221E-03     55.4378E-03    -90.8956E+06    -234.695E+06    -84.0755E+06     228.273E+03    -110.209E-03     220.394E-03    -110.184E-03     28.6700E-03    -110.241E-03     219.514E-03    -110.133E-03     28.0566E-03
            1564     805.756E-06     55.4124E-03    -93.0591E+06    -239.221E+06    -91.5079E+06     167.412E+03    -110.308E-03     220.455E-03    -110.148E-03     15.9290E-03    -110.306E-03     219.540E-03    -110.123E-03     15.6023E-03
            1565     15.3274E-03     56.6289E-03    -3.99069E+06     127.344E+06     102.345E+06     628.246E+03    -108.274E-03     218.196E-03    -109.922E-03     92.6330E-03    -112.806E-03     222.869E-03    -109.589E-03     87.4256E-03
            1566     14.5195E-03     56.4524E-03    -10.2167E+06     127.681E+06     104.839E+06    -348.944E+03    -108.300E-03     218.294E-03    -109.995E-03     160.610E-03    -115.696E-03     225.804E-03    -109.641E-03     153.068E-03
            1567     13.7095E-03     56.2787E-03    -18.4763E+06     116.106E+06     93.9809E+06    -428.890E+03    -110.610E-03     220.643E-03    -110.033E-03     180.914E-03    -118.336E-03     228.443E-03    -109.704E-03     172.230E-03
            1568     12.9040E-03     56.0577E-03    -25.2575E+06     106.337E+06     70.9079E+06     400.798E+03    -113.015E-03     222.999E-03    -109.984E-03     200.145E-03    -120.784E-03     230.850E-03    -109.747E-03     190.699E-03
            1569     12.0959E-03     55.8397E-03    -30.1543E+06     89.7043E+06     37.9220E+06     100.759E+03    -113.304E-03     223.198E-03    -109.893E-03     191.901E-03    -119.641E-03     229.636E-03    -109.790E-03     182.996E-03
            1570     11.2899E-03     55.6390E-03    -34.0507E+06     41.6258E+06     19.3199E+06     365.139E+03    -113.316E-03     223.243E-03    -109.927E-03     174.711E-03    -118.011E-03     227.909E-03    -109.841E-03     166.862E-03
            1571     10.4818E-03     55.4568E-03    -37.7098E+06    -21.7346E+06     12.2517E+06     505.196E+03    -113.399E-03     223.430E-03    -110.031E-03     160.454E-03    -116.890E-03     226.675E-03    -109.884E-03     153.604E-03
            1572     9.67601E-03     55.2871E-03    -41.2129E+06    -70.3981E+06     4.69203E+06     270.456E+03    -113.568E-03     223.668E-03    -110.100E-03     150.206E-03    -116.210E-03     225.900E-03    -109.915E-03     144.241E-03
            1573     8.86936E-03     55.1262E-03    -45.2438E+06    -104.887E+06     701.701E+03     203.626E+03    -113.541E-03     223.697E-03    -110.156E-03     140.262E-03    -115.556E-03     225.177E-03    -109.935E-03     135.096E-03
            1574     8.06252E-03     54.9773E-03    -49.5305E+06    -129.546E+06    -3.26242E+06     479.817E+03    -113.204E-03     223.399E-03    -110.195E-03     129.461E-03    -114.722E-03     224.291E-03    -109.952E-03     125.051E-03
            1575     7.25694E-03     54.8396E-03    -54.3744E+06    -151.167E+06    -8.49999E+06     512.621E+03    -112.828E-03     223.054E-03    -110.226E-03     118.196E-03    -113.957E-03     223.478E-03    -109.970E-03     114.461E-03
            1576     6.44963E-03     54.7148E-03    -59.6100E+06    -169.442E+06    -15.8255E+06     362.907E+03    -112.431E-03     222.670E-03    -110.239E-03     106.272E-03    -113.256E-03     222.728E-03    -109.986E-03     103.139E-03
            1577     5.64404E-03     54.6033E-03    -65.0931E+06    -182.855E+06    -25.3837E+06     666.774E+03    -111.996E-03     222.226E-03    -110.230E-03     94.1876E-03    -112.586E-03     222.010E-03    -109.997E-03     91.6009E-03
            1578     4.83726E-03     54.5049E-03    -70.8648E+06    -194.827E+06    -36.6172E+06     856.061E+03    -111.506E-03     221.720E-03    -110.214E-03     81.7271E-03    -111.916E-03     221.293E-03    -110.012E-03     79.6271E-03
            1579     4.03127E-03     54.4210E-03    -76.3806E+06    -207.682E+06    -48.0620E+06     363.452E+03    -111.116E-03     221.317E-03    -110.200E-03     68.8641E-03    -111.385E-03     220.716E-03    -110.029E-03     67.1910E-03
            1580     3.22493E-03     54.3509E-03    -81.9310E+06    -218.031E+06    -60.8524E+06     292.989E+03    -110.793E-03     220.964E-03    -110.172E-03     55.7672E-03    -110.957E-03     220.240E-03    -110.041E-03     54.4802E-03
            1581     2.41841E-03     54.2964E-03    -86.8230E+06    -227.273E+06    -73.4578E+06     401.394E+03    -110.440E-03     220.588E-03    -110.148E-03     42.1995E-03    -110.526E-03     219.771E-03    -110.060E-03     41.2656E-03
            1582     1.61231E-03     54.2566E-03    -90.5051E+06    -234.310E+06    -83.9668E+06     312.525E+03    -110.336E-03     220.451E-03    -110.115E-03     28.7615E-03    -110.366E-03     219.572E-03    -110.064E-03     28.1501E-03
            1583     806.609E-06     54.2317E-03    -93.4512E+06    -239.207E+06    -91.2755E+06     118.757E+03    -110.295E-03     220.220E-03    -109.925E-03     15.7366E-03    -110.296E-03     219.305E-03    -109.899E-03     15.4066E-03
            1584     15.3238E-03     55.4453E-03    -4.61087E+06     126.940E+06     102.137E+06    -363.239E+03    -107.808E-03     217.772E-03    -109.964E-03     92.6846E-03    -112.322E-03     222.424E-03    -109.631E-03     87.4937E-03
            1585     14.5156E-03     55.2761E-03    -10.7035E+06     127.346E+06     104.365E+06     1.22359E+06    -108.641E-03     218.685E-03    -110.044E-03     162.228E-03    -116.065E-03     226.221E-03    -109.692E-03     154.667E-03
            1586     13.7102E-03     55.0950E-03    -18.0125E+06     116.609E+06     94.8261E+06     1.19049E+06    -111.049E-03     221.121E-03    -110.072E-03     182.023E-03    -118.824E-03     228.971E-03    -109.741E-03     173.315E-03
            1587     12.9028E-03     54.8784E-03    -24.4991E+06     106.629E+06     71.0868E+06     206.897E+03    -112.866E-03     222.880E-03    -110.014E-03     199.799E-03    -120.622E-03     230.721E-03    -109.777E-03     190.376E-03
            1588     12.0960E-03     54.6589E-03    -29.8179E+06     89.9597E+06     38.2841E+06     68.3593E+03    -113.432E-03     223.359E-03    -109.927E-03     192.038E-03    -119.774E-03     229.803E-03    -109.823E-03     183.117E-03
            1589     11.2884E-03     54.4579E-03    -33.7965E+06     41.7060E+06     19.7720E+06     22.4676E+03    -113.574E-03     223.523E-03    -109.949E-03     174.513E-03    -118.272E-03     228.192E-03    -109.862E-03     166.637E-03
            1590     10.4830E-03     54.2767E-03    -37.0841E+06    -22.7285E+06     12.1118E+06    -29.4018E+03    -113.559E-03     223.595E-03    -110.036E-03     160.267E-03    -117.046E-03     226.835E-03    -109.889E-03     153.397E-03
            1591     9.67551E-03     54.1058E-03    -41.0519E+06    -70.2919E+06     5.30342E+06     458.160E+03    -113.673E-03     223.768E-03    -110.095E-03     149.995E-03    -116.318E-03     226.003E-03    -109.907E-03     144.020E-03
            1592     8.86934E-03     53.9455E-03    -45.2414E+06    -104.571E+06     787.857E+03     261.543E+03    -113.540E-03     223.681E-03    -110.141E-03     139.955E-03    -115.553E-03     225.160E-03    -109.920E-03     134.791E-03
            1593     8.06337E-03     53.7963E-03    -49.5441E+06    -130.292E+06    -3.51905E+06     177.497E+03    -113.251E-03     223.425E-03    -110.174E-03     129.250E-03    -114.769E-03     224.315E-03    -109.931E-03     124.829E-03
            1594     7.25614E-03     53.6589E-03    -54.2232E+06    -150.879E+06    -8.03786E+06     541.656E+03    -112.848E-03     223.046E-03    -110.199E-03     117.985E-03    -113.977E-03     223.471E-03    -109.942E-03     114.247E-03
            1595     6.45066E-03     53.5339E-03    -59.5803E+06    -169.351E+06    -15.6731E+06     487.425E+03    -112.388E-03     222.595E-03    -110.208E-03     106.170E-03    -113.213E-03     222.653E-03    -109.954E-03     103.039E-03
            1596     5.64371E-03     53.4225E-03    -65.3748E+06    -183.103E+06    -25.6953E+06     573.224E+03    -111.955E-03     222.153E-03    -110.198E-03     94.1348E-03    -112.546E-03     221.937E-03    -109.966E-03     91.5467E-03
            1597     4.83777E-03     53.3242E-03    -70.7353E+06    -194.547E+06    -36.4544E+06     540.818E+03    -111.484E-03     221.666E-03    -110.182E-03     81.6253E-03    -111.894E-03     221.240E-03    -109.980E-03     79.5217E-03
            1598     4.03111E-03     53.2402E-03    -76.4577E+06    -207.529E+06    -48.2092E+06     421.205E+03    -111.080E-03     221.247E-03    -110.167E-03     68.9341E-03    -111.350E-03     220.648E-03    -109.996E-03     67.2617E-03
            1599     3.22490E-03     53.1702E-03    -82.0367E+06    -218.042E+06    -61.1251E+06     403.885E+03    -110.761E-03     220.899E-03    -110.138E-03     55.6918E-03    -110.925E-03     220.175E-03    -110.008E-03     54.4062E-03
            1600     2.41890E-03     53.1157E-03    -86.4753E+06    -226.868E+06    -73.3030E+06     346.396E+03    -110.505E-03     220.599E-03    -110.094E-03     42.1115E-03    -110.589E-03     219.784E-03    -110.007E-03     41.1777E-03
            1601     1.61250E-03     53.0758E-03    -90.3465E+06    -233.963E+06    -83.7113E+06     316.090E+03    -110.289E-03     220.324E-03    -110.034E-03     28.8123E-03    -110.320E-03     219.446E-03    -109.982E-03     28.2009E-03
            1602     806.181E-06     53.0506E-03    -92.9752E+06    -238.887E+06    -91.4241E+06     15.1961E+03    -110.091E-03     220.040E-03    -109.949E-03     15.5935E-03    -110.090E-03     219.126E-03    -109.925E-03     15.2628E-03
            1603     15.3237E-03     54.2676E-03    -4.78652E+06     125.734E+06     100.635E+06    -606.654E+03    -107.250E-03     217.259E-03    -110.009E-03     91.8741E-03    -111.756E-03     221.903E-03    -109.681E-03     86.7003E-03
            1604     14.5165E-03     54.0946E-03    -12.0869E+06     126.026E+06     103.021E+06     583.691E+03    -109.249E-03     219.341E-03    -110.092E-03     162.176E-03    -116.711E-03     226.908E-03    -109.742E-03     154.544E-03
            1605     13.7090E-03     53.9132E-03    -17.2242E+06     117.386E+06     95.6955E+06     1.05380E+06    -111.226E-03     221.327E-03    -110.101E-03     180.985E-03    -118.984E-03     229.162E-03    -109.767E-03     172.269E-03
            1606     12.9025E-03     53.6983E-03    -23.5428E+06     107.555E+06     72.0939E+06     898.665E+03    -112.872E-03     222.906E-03    -110.034E-03     198.898E-03    -120.589E-03     230.712E-03    -109.795E-03     189.495E-03
            1607     12.0953E-03     53.4774E-03    -28.8801E+06     90.6478E+06     39.1052E+06     234.304E+03    -113.667E-03     223.603E-03    -109.935E-03     191.596E-03    -120.002E-03     230.044E-03    -109.829E-03     182.652E-03
            1608     11.2896E-03     53.2774E-03    -33.1497E+06     42.1316E+06     19.9898E+06    -163.033E+03    -113.636E-03     223.578E-03    -109.942E-03     173.956E-03    -118.327E-03     228.243E-03    -109.855E-03     166.069E-03
            1609     10.4818E-03     53.0951E-03    -37.4697E+06    -23.6922E+06     11.6685E+06     148.553E+03    -113.699E-03     223.716E-03    -110.017E-03     159.971E-03    -117.188E-03     226.954E-03    -109.870E-03     153.089E-03
            1610     9.67654E-03     52.9251E-03    -41.1281E+06    -70.8215E+06     5.24774E+06     346.719E+03    -113.715E-03     223.782E-03    -110.067E-03     149.727E-03    -116.360E-03     226.014E-03    -109.878E-03     143.744E-03
            1611     8.86982E-03     52.7646E-03    -44.9677E+06    -103.829E+06     1.22446E+06     487.314E+03    -113.518E-03     223.626E-03    -110.107E-03     139.752E-03    -115.530E-03     225.105E-03    -109.885E-03     134.591E-03
            1612     8.06297E-03     52.6155E-03    -49.5870E+06    -130.237E+06    -3.72903E+06     215.944E+03    -113.242E-03     223.377E-03    -110.135E-03     129.126E-03    -114.758E-03     224.266E-03    -109.893E-03     124.707E-03
            1613     7.25755E-03     52.4780E-03    -54.4710E+06    -151.632E+06    -8.49097E+06     346.841E+03    -112.815E-03     222.973E-03    -110.157E-03     117.861E-03    -113.945E-03     223.395E-03    -109.901E-03     114.120E-03
            1614     6.45023E-03     52.3535E-03    -59.7405E+06    -169.428E+06    -15.3847E+06     634.223E+03    -112.330E-03     222.498E-03    -110.169E-03     106.174E-03    -113.155E-03     222.555E-03    -109.913E-03     103.049E-03
            1615     5.64431E-03     52.2416E-03    -65.1369E+06    -182.855E+06    -25.4408E+06     378.409E+03    -111.888E-03     222.049E-03    -110.161E-03     94.0953E-03    -112.479E-03     221.833E-03    -109.929E-03     91.5056E-03
            1616     4.83765E-03     52.1436E-03    -70.9865E+06    -194.582E+06    -36.8827E+06     367.257E+03    -111.463E-03     221.606E-03    -110.143E-03     81.5620E-03    -111.873E-03     221.181E-03    -109.942E-03     79.4559E-03
            1617     4.03152E-03     52.0597E-03    -76.7035E+06    -207.276E+06    -48.5436E+06     522.029E+03    -111.068E-03     221.191E-03    -110.123E-03     68.8644E-03    -111.338E-03     220.593E-03    -109.954E-03     67.1951E-03
            1618     3.22514E-03     51.9894E-03    -81.8378E+06    -217.842E+06    -61.4392E+06     317.230E+03    -110.700E-03     220.793E-03    -110.092E-03     55.6349E-03    -110.863E-03     220.069E-03    -109.965E-03     54.3516E-03
            1619     2.41867E-03     51.9351E-03    -86.5529E+06    -226.619E+06    -73.2949E+06     140.932E+03    -110.474E-03     220.525E-03    -110.051E-03     42.2984E-03    -110.559E-03     219.711E-03    -109.964E-03     41.3633E-03
            1620     1.61282E-03     51.8949E-03    -90.4688E+06    -233.820E+06    -83.6254E+06     61.0815E+03    -110.171E-03     220.186E-03    -110.015E-03     28.7348E-03    -110.203E-03     219.309E-03    -109.963E-03     28.1192E-03
            1621     806.255E-06     51.8712E-03    -93.0712E+06    -238.487E+06    -91.0209E+06     193.469E+03    -110.009E-03     220.049E-03    -110.040E-03     15.9094E-03    -110.009E-03     219.136E-03    -110.015E-03     15.5852E-03
            1622     15.3229E-03     53.0914E-03    -5.34148E+06     125.953E+06     100.655E+06    -4.87964E+03    -107.988E-03     218.035E-03    -110.047E-03     93.7953E-03    -112.602E-03     222.785E-03    -109.719E-03     88.5297E-03
            1623     14.5152E-03     52.9100E-03    -11.4593E+06     126.854E+06     103.821E+06     442.277E+03    -109.920E-03     220.014E-03    -110.095E-03     162.406E-03    -117.432E-03     227.636E-03    -109.743E-03     154.681E-03
            1624     13.7102E-03     52.7340E-03    -18.0321E+06     116.439E+06     94.9923E+06     225.133E+03    -111.159E-03     221.238E-03    -110.079E-03     179.303E-03    -118.845E-03     228.998E-03    -109.747E-03     170.601E-03
            1625     12.9026E-03     52.5166E-03    -23.5583E+06     107.739E+06     72.9749E+06     385.634E+03    -112.895E-03     222.908E-03    -110.013E-03     198.438E-03    -120.602E-03     230.702E-03    -109.770E-03     189.032E-03
            1626     12.0966E-03     52.2971E-03    -28.3920E+06     91.2258E+06     39.5649E+06     203.223E+03    -113.696E-03     223.601E-03    -109.905E-03     191.255E-03    -120.033E-03     230.046E-03    -109.798E-03     182.302E-03
            1627     11.2889E-03     52.0961E-03    -32.9194E+06     41.8097E+06     19.8898E+06     608.628E+03    -113.667E-03     223.571E-03    -109.904E-03     173.669E-03    -118.355E-03     228.233E-03    -109.817E-03     165.787E-03
            1628     10.4837E-03     51.9146E-03    -36.8818E+06    -23.4275E+06     11.9950E+06     622.346E+03    -113.662E-03     223.638E-03    -109.976E-03     159.724E-03    -117.146E-03     226.873E-03    -109.828E-03     152.850E-03
            1629     9.67622E-03     51.7438E-03    -40.9388E+06    -70.9210E+06     5.09132E+06     379.891E+03    -113.671E-03     223.693E-03    -110.022E-03     149.487E-03    -116.312E-03     225.922E-03    -109.834E-03     143.508E-03
            1630     8.87011E-03     51.5841E-03    -45.1837E+06    -103.518E+06     1.17777E+06     591.668E+03    -113.473E-03     223.535E-03    -110.062E-03     139.622E-03    -115.485E-03     225.015E-03    -109.840E-03     134.467E-03
            1631     8.06413E-03     51.4346E-03    -49.5556E+06    -130.423E+06    -3.87769E+06     361.682E+03    -113.148E-03     223.239E-03    -110.092E-03     129.162E-03    -114.662E-03     224.126E-03    -109.850E-03     124.751E-03
            1632     7.25675E-03     51.2975E-03    -54.3880E+06    -152.150E+06    -8.71649E+06     243.229E+03    -112.755E-03     222.873E-03    -110.118E-03     117.861E-03    -113.881E-03     223.291E-03    -109.862E-03     114.124E-03
            1633     6.45112E-03     51.1728E-03    -59.4620E+06    -169.015E+06    -15.6115E+06     407.987E+03    -112.312E-03     222.440E-03    -110.128E-03     106.186E-03    -113.135E-03     222.498E-03    -109.875E-03     103.060E-03
            1634     5.64429E-03     51.0611E-03    -65.1282E+06    -182.803E+06    -25.3470E+06     471.429E+03    -111.841E-03     221.963E-03    -110.122E-03     94.1202E-03    -112.431E-03     221.747E-03    -109.890E-03     91.5357E-03
            1635     4.83802E-03     50.9631E-03    -70.7224E+06    -194.506E+06      -36.36E+06     444.000E+03    -111.451E-03     221.556E-03    -110.105E-03     81.6210E-03    -111.861E-03     221.130E-03    -109.902E-03     79.5187E-03
            1636     4.03160E-03     50.8788E-03    -76.2199E+06    -207.092E+06    -47.9000E+06     261.770E+03    -111.045E-03     221.125E-03    -110.080E-03     68.8127E-03    -111.313E-03     220.527E-03    -109.909E-03     67.1411E-03
            1637     3.22527E-03     50.8094E-03    -81.8226E+06    -217.467E+06    -61.0520E+06     253.556E+03    -110.643E-03     220.691E-03    -110.048E-03     55.6953E-03    -110.806E-03     219.969E-03    -109.920E-03     54.4144E-03
            1638     2.41898E-03     50.7543E-03    -86.6932E+06    -226.774E+06    -73.6842E+06     104.806E+03    -110.331E-03     220.357E-03    -110.026E-03     42.2631E-03    -110.416E-03     219.543E-03    -109.940E-03     41.3295E-03
            1639     1.61235E-03     50.7145E-03    -90.4047E+06    -233.587E+06    -83.7497E+06     103.172E+03    -110.129E-03     220.150E-03    -110.021E-03     28.6023E-03    -110.160E-03     219.274E-03    -109.970E-03     27.9885E-03
            1640     806.129E-06     50.6909E-03    -92.8607E+06    -238.219E+06    -91.1268E+06     190.311E+03    -110.266E-03     220.089E-03    -109.823E-03     15.9321E-03    -110.266E-03     219.178E-03    -109.798E-03     15.6061E-03
            1641     15.3211E-03     51.9061E-03    -6.02072E+06     125.634E+06     100.505E+06    -192.980E+03    -108.750E-03     218.780E-03    -110.030E-03     93.8284E-03    -113.366E-03     223.529E-03    -109.701E-03     88.4872E-03
            1642     14.5179E-03     51.7293E-03    -11.6896E+06     126.269E+06     103.698E+06    -256.472E+03    -110.079E-03     220.124E-03    -110.045E-03     160.409E-03    -117.535E-03     227.686E-03    -109.693E-03     152.661E-03
            1643     13.7101E-03     51.5523E-03    -17.6497E+06     116.793E+06     95.3487E+06     36.4215E+03    -110.823E-03     220.850E-03    -110.027E-03     178.377E-03    -118.474E-03     228.576E-03    -109.694E-03     169.723E-03
            1644     12.9040E-03     51.3369E-03    -23.9666E+06     107.224E+06     71.5339E+06    -491.867E+03    -112.850E-03     222.811E-03    -109.961E-03     198.775E-03    -120.586E-03     230.635E-03    -109.724E-03     189.343E-03
            1645     12.0962E-03     51.1156E-03    -29.3561E+06     90.2942E+06     38.6007E+06     44.0379E+03    -113.719E-03     223.573E-03    -109.854E-03     191.220E-03    -120.063E-03     230.022E-03    -109.750E-03     182.256E-03
            1646     11.2908E-03     50.9156E-03    -33.3624E+06     41.4635E+06     19.9793E+06     735.021E+03    -113.631E-03     223.484E-03    -109.853E-03     173.572E-03    -118.318E-03     228.142E-03    -109.765E-03     165.697E-03
            1647     10.4830E-03     50.7334E-03    -37.1785E+06    -23.3684E+06     11.8990E+06     708.573E+03    -113.589E-03     223.512E-03    -109.923E-03     159.688E-03    -117.072E-03     226.746E-03    -109.776E-03     152.822E-03
            1648     9.67747E-03     50.5634E-03    -41.1067E+06    -69.8933E+06     5.39192E+06     680.728E+03    -113.522E-03     223.496E-03    -109.974E-03     149.430E-03    -116.160E-03     225.725E-03    -109.786E-03     143.472E-03
            1649     8.87071E-03     50.4033E-03    -45.0443E+06    -103.778E+06     1.17934E+06     426.934E+03    -113.363E-03     223.385E-03    -110.022E-03     139.773E-03    -115.372E-03     224.863E-03    -109.801E-03     134.625E-03
            1650     8.06364E-03     50.2543E-03    -49.2491E+06    -130.334E+06    -3.58071E+06     397.055E+03    -113.112E-03     223.169E-03    -110.057E-03     129.238E-03    -114.626E-03     224.056E-03    -109.815E-03     124.831E-03
            1651     7.25797E-03     50.1168E-03    -54.0331E+06    -151.528E+06    -8.32882E+06     326.953E+03    -112.711E-03     222.795E-03    -110.084E-03     117.870E-03    -113.834E-03     223.213E-03    -109.828E-03     114.142E-03
            1652     6.45079E-03     49.9923E-03    -59.4986E+06    -169.757E+06    -15.6848E+06     321.016E+03    -112.274E-03     222.369E-03    -110.095E-03     106.198E-03    -113.096E-03     222.423E-03    -109.841E-03     103.074E-03
            1653     5.64463E-03     49.8807E-03    -64.9459E+06    -182.847E+06    -25.4370E+06     364.005E+03    -111.853E-03     221.939E-03    -110.086E-03     94.1438E-03    -112.441E-03     221.721E-03    -109.854E-03     91.5615E-03
            1654     4.83811E-03     49.7824E-03    -70.5870E+06    -194.421E+06    -36.1977E+06     216.214E+03    -111.412E-03     221.478E-03    -110.066E-03     81.6470E-03    -111.821E-03     221.051E-03    -109.863E-03     79.5447E-03
            1655     4.03184E-03     49.6984E-03    -76.3808E+06    -206.971E+06    -47.5692E+06     415.402E+03    -110.991E-03     221.035E-03    -110.044E-03     68.7615E-03    -111.261E-03     220.437E-03    -109.871E-03     67.0946E-03
            1656     3.22533E-03     49.6290E-03    -81.6080E+06    -217.144E+06    -60.4885E+06     333.309E+03    -110.642E-03     220.651E-03    -110.009E-03     55.6781E-03    -110.806E-03     219.929E-03    -109.878E-03     54.3976E-03
            1657     2.41902E-03     49.5736E-03    -86.5956E+06    -226.702E+06    -73.6132E+06     180.341E+03    -110.297E-03     220.273E-03    -109.976E-03     42.0877E-03    -110.382E-03     219.459E-03    -109.890E-03     41.1560E-03
            1658     1.61260E-03     49.5350E-03    -90.4661E+06    -233.616E+06    -84.0640E+06     79.5099E+03    -110.172E-03     220.106E-03    -109.934E-03     28.5780E-03    -110.203E-03     219.230E-03    -109.885E-03     27.9657E-03
            1659     806.482E-06     49.5087E-03    -93.0525E+06    -238.148E+06    -91.1244E+06    -106.995E+03    -110.122E-03     219.849E-03    -109.728E-03     15.4377E-03    -110.122E-03     218.939E-03    -109.703E-03     15.1050E-03
            1660     15.3263E-03     50.7253E-03    -5.12932E+06     126.110E+06     101.177E+06     560.353E+03    -109.427E-03     219.344E-03    -109.917E-03     92.8363E-03    -113.976E-03     224.029E-03    -109.586E-03     87.5369E-03
            1661     14.5178E-03     50.5464E-03    -11.3369E+06     126.161E+06     104.006E+06    -779.697E+03    -108.725E-03     218.667E-03    -109.943E-03     158.931E-03    -116.100E-03     226.149E-03    -109.589E-03     151.348E-03
            1662     13.7120E-03     50.3739E-03    -18.0724E+06     116.184E+06     94.8713E+06    -823.943E+03    -110.278E-03     220.249E-03    -109.971E-03     178.757E-03    -117.938E-03     227.982E-03    -109.639E-03     170.138E-03
            1663     12.9034E-03     50.1554E-03    -24.2954E+06     106.845E+06     71.1247E+06    -93.9463E+03    -113.005E-03     222.921E-03    -109.916E-03     199.313E-03    -120.759E-03     230.762E-03    -109.680E-03     189.859E-03
            1664     12.0982E-03     49.9350E-03    -29.9367E+06     89.4768E+06     37.4679E+06     381.251E+03    -113.714E-03     223.514E-03    -109.800E-03     191.055E-03    -120.047E-03     229.950E-03    -109.699E-03     182.104E-03
            1665     11.2901E-03     49.7349E-03    -34.4286E+06     40.6899E+06     18.8192E+06     313.023E+03    -113.478E-03     223.280E-03    -109.802E-03     173.788E-03    -118.164E-03     227.933E-03    -109.717E-03     165.925E-03
            1666     10.4848E-03     49.5527E-03    -37.9986E+06    -22.6928E+06     11.7709E+06     303.020E+03    -113.448E-03     223.332E-03    -109.884E-03     159.977E-03    -116.936E-03     226.570E-03    -109.737E-03     153.121E-03
            1667     9.67724E-03     49.3830E-03    -41.3657E+06    -69.7816E+06     5.22706E+06     241.135E+03    -113.429E-03     223.373E-03    -109.943E-03     149.679E-03    -116.067E-03     225.600E-03    -109.756E-03     143.728E-03
            1668     8.87051E-03     49.2230E-03    -45.1273E+06    -104.139E+06     1.18871E+06     174.246E+03    -113.356E-03     223.352E-03    -109.996E-03     139.953E-03    -115.366E-03     224.829E-03    -109.773E-03     134.804E-03
            1669     8.06460E-03     49.0735E-03    -49.4980E+06    -129.550E+06    -3.39133E+06     328.181E+03    -113.102E-03     223.131E-03    -110.029E-03     129.216E-03    -114.617E-03     224.020E-03    -109.786E-03     124.814E-03
            1670     7.25735E-03     48.9365E-03    -54.4457E+06    -151.561E+06    -8.64515E+06     373.311E+03    -112.695E-03     222.748E-03    -110.053E-03     117.905E-03    -113.819E-03     223.166E-03    -109.798E-03     114.180E-03
            1671     6.45139E-03     48.8119E-03    -59.6992E+06    -170.082E+06    -15.9143E+06     236.709E+03    -112.299E-03     222.360E-03    -110.060E-03     106.154E-03    -113.120E-03     222.411E-03    -109.807E-03     103.031E-03
            1672     5.64472E-03     48.7002E-03    -65.1650E+06    -182.912E+06    -25.4854E+06     80.8767E+03    -111.840E-03     221.885E-03    -110.045E-03     94.0373E-03    -112.429E-03     221.667E-03    -109.813E-03     91.4531E-03
            1673     4.83845E-03     48.6020E-03    -70.8891E+06    -194.443E+06    -36.6291E+06     365.967E+03    -111.357E-03     221.379E-03    -110.022E-03     81.5558E-03    -111.767E-03     220.952E-03    -109.820E-03     79.4585E-03
            1674     4.03178E-03     48.5182E-03    -76.2639E+06    -206.799E+06    -47.9842E+06     186.856E+03    -110.976E-03     220.973E-03    -109.996E-03     68.6982E-03    -111.245E-03     220.375E-03    -109.826E-03     67.0301E-03
            1675     3.22564E-03     48.4481E-03    -81.7091E+06    -217.128E+06    -60.5316E+06     183.336E+03    -110.592E-03     220.551E-03    -109.959E-03     55.5361E-03    -110.756E-03     219.830E-03    -109.829E-03     54.2529E-03
            1676     2.41913E-03     48.3940E-03    -86.5331E+06    -226.036E+06    -72.8682E+06     435.475E+03    -110.330E-03     220.242E-03    -109.912E-03     42.1174E-03    -110.416E-03     219.429E-03    -109.823E-03     41.1899E-03
            1677     1.61294E-03     48.3537E-03    -90.4722E+06    -233.430E+06    -83.8936E+06     157.801E+03    -110.135E-03     219.972E-03    -109.837E-03     28.7334E-03    -110.167E-03     219.097E-03    -109.787E-03     28.1227E-03
            1678     806.684E-06     48.3295E-03    -93.3596E+06    -238.471E+06    -91.6531E+06    -204.752E+03    -109.787E-03     219.621E-03    -109.834E-03     15.1816E-03    -109.787E-03     218.710E-03    -109.812E-03     14.8485E-03
            1679     15.3281E-03     49.5440E-03    -5.31392E+06     126.178E+06     101.454E+06     369.320E+03    -109.465E-03     219.330E-03    -109.865E-03     93.2458E-03    -114.004E-03     224.004E-03    -109.533E-03     87.9783E-03
            1680     14.5213E-03     49.3699E-03    -10.4551E+06     127.068E+06     104.999E+06     293.033E+03    -108.227E-03     218.136E-03    -109.909E-03     161.124E-03    -115.621E-03     225.640E-03    -109.553E-03     153.621E-03
            1681     13.7104E-03     49.1937E-03    -17.9982E+06     116.122E+06     94.9725E+06    -138.115E+03    -110.531E-03     220.481E-03    -109.950E-03     180.819E-03    -118.256E-03     228.279E-03    -109.618E-03     172.157E-03
            1682     12.9053E-03     48.9741E-03    -24.8868E+06     106.125E+06     70.9344E+06     111.283E+03    -113.190E-03     223.076E-03    -109.886E-03     199.682E-03    -120.954E-03     230.923E-03    -109.650E-03     190.213E-03
            1683     12.0974E-03     48.7546E-03    -30.0965E+06     89.3021E+06     37.7082E+06     618.942E+03    -113.528E-03     223.300E-03    -109.772E-03     191.385E-03    -119.853E-03     229.726E-03    -109.670E-03     182.471E-03
            1684     11.2918E-03     48.5545E-03    -33.7758E+06     41.1972E+06     19.3813E+06     80.8642E+03    -113.459E-03     223.241E-03    -109.782E-03     174.381E-03    -118.149E-03     227.902E-03    -109.696E-03     166.520E-03
            1685     10.4835E-03     48.3722E-03    -37.1350E+06    -22.3392E+06     12.2206E+06    -133.631E+03    -113.391E-03     223.259E-03    -109.868E-03     160.085E-03    -116.870E-03     226.491E-03    -109.721E-03     153.237E-03
            1686     9.67754E-03     48.2026E-03    -41.0205E+06    -70.5685E+06     5.10910E+06     63.6321E+03    -113.465E-03     223.392E-03    -109.928E-03     149.746E-03    -116.098E-03     225.615E-03    -109.740E-03     143.795E-03
            1687     8.87123E-03     48.0423E-03    -45.1411E+06    -104.150E+06     1.10276E+06     174.221E+03    -113.440E-03     223.413E-03    -109.973E-03     139.953E-03    -115.449E-03     224.889E-03    -109.751E-03     134.804E-03
            1688     8.06411E-03     47.8931E-03    -49.5575E+06    -129.853E+06    -3.66047E+06     318.276E+03    -113.121E-03     223.120E-03    -109.999E-03     129.113E-03    -114.632E-03     224.005E-03    -109.757E-03     124.714E-03
            1689     7.25823E-03     47.7562E-03    -54.2961E+06    -151.592E+06    -8.53273E+06     269.474E+03    -112.749E-03     222.764E-03    -110.016E-03     117.716E-03    -113.872E-03     223.181E-03    -109.760E-03     113.989E-03
            1690     6.45135E-03     47.6312E-03    -59.4987E+06    -169.159E+06    -15.5669E+06     261.452E+03    -112.308E-03     222.321E-03    -110.013E-03     105.988E-03    -113.129E-03     222.375E-03    -109.759E-03     102.867E-03
            1691     5.64523E-03     47.5198E-03    -65.2084E+06    -182.934E+06    -25.6241E+06     241.661E+03    -111.806E-03     221.796E-03    -109.990E-03     93.8572E-03    -112.394E-03     221.577E-03    -109.758E-03     91.2776E-03
            1692     4.83846E-03     47.4218E-03    -70.6729E+06    -194.318E+06    -36.6521E+06     56.9760E+03    -111.336E-03     221.297E-03    -109.961E-03     81.3953E-03    -111.744E-03     220.870E-03    -109.760E-03     79.2959E-03
            1693     4.03237E-03     47.3375E-03    -76.3241E+06    -206.938E+06    -48.1711E+06     107.498E+03    -110.910E-03     220.842E-03    -109.931E-03     68.5993E-03    -111.178E-03     220.244E-03    -109.762E-03     66.9310E-03
            1694     3.22566E-03     47.2683E-03    -82.0476E+06    -217.278E+06    -61.0039E+06     164.042E+03    -110.544E-03     220.434E-03    -109.890E-03     55.3872E-03    -110.708E-03     219.713E-03    -109.761E-03     54.1057E-03
            1695     2.41928E-03     47.2134E-03    -86.7136E+06    -226.045E+06    -73.2135E+06     187.079E+03    -110.244E-03     220.086E-03    -109.843E-03     42.1234E-03    -110.330E-03     219.275E-03    -109.755E-03     41.1938E-03
            1696     1.61294E-03     47.1737E-03    -90.5619E+06    -233.073E+06    -83.6016E+06     359.400E+03    -109.895E-03     219.725E-03    -109.830E-03     28.5698E-03    -109.928E-03     218.851E-03    -109.779E-03     27.9620E-03
            1697     806.087E-06     47.1498E-03    -93.1079E+06    -238.145E+06    -91.4490E+06     327.672E+03    -109.813E-03     219.722E-03    -109.910E-03     15.7129E-03    -109.813E-03     218.812E-03    -109.887E-03     15.3900E-03
            1698     15.3240E-03     48.3605E-03    -5.17833E+06     125.463E+06     100.908E+06    -134.276E+03    -108.291E-03     218.218E-03    -109.927E-03     91.7899E-03    -112.790E-03     222.851E-03    -109.597E-03     86.5759E-03
            1699     14.5161E-03     48.1914E-03    -11.3279E+06     126.083E+06     103.759E+06     66.9123E+03    -109.155E-03     219.134E-03    -109.980E-03     162.229E-03    -116.599E-03     226.685E-03    -109.627E-03     154.596E-03
            1700     13.7119E-03     48.0118E-03    -17.7357E+06     116.518E+06     95.2228E+06     740.278E+03    -111.548E-03     221.522E-03    -109.974E-03     181.979E-03    -119.335E-03     229.384E-03    -109.641E-03     173.209E-03
            1701     12.9043E-03     47.7931E-03    -24.2138E+06     106.458E+06     71.6154E+06     820.698E+03    -113.100E-03     222.987E-03    -109.887E-03     199.527E-03    -120.838E-03     230.809E-03    -109.648E-03     190.098E-03
            1702     12.0982E-03     47.5749E-03    -29.2911E+06     89.8303E+06     39.0012E+06     112.302E+03    -113.503E-03     223.285E-03    -109.782E-03     191.928E-03    -119.828E-03     229.712E-03    -109.675E-03     183.018E-03
            1703     11.2899E-03     47.3730E-03    -33.0712E+06     42.0097E+06     20.2633E+06    -215.806E+03    -113.607E-03     223.395E-03    -109.788E-03     174.453E-03    -118.296E-03     228.057E-03    -109.700E-03     166.582E-03
            1704     10.4850E-03     47.1923E-03    -36.9538E+06    -23.3947E+06     11.8845E+06     10.6873E+03    -113.561E-03     223.420E-03    -109.859E-03     159.926E-03    -117.035E-03     226.646E-03    -109.712E-03     153.072E-03
            1705     9.67755E-03     47.0220E-03    -40.8247E+06    -70.7986E+06     5.19492E+06     193.746E+03    -113.615E-03     223.519E-03    -109.905E-03     149.636E-03    -116.247E-03     225.741E-03    -109.717E-03     143.679E-03
            1706     8.87090E-03     46.8616E-03    -44.8012E+06    -104.253E+06     1.05912E+06     265.912E+03    -113.480E-03     223.417E-03    -109.937E-03     139.601E-03    -115.484E-03     224.889E-03    -109.716E-03     134.452E-03
            1707     8.06503E-03     46.7128E-03    -49.1603E+06    -129.961E+06    -3.51471E+06     355.733E+03    -113.182E-03     223.135E-03    -109.952E-03     128.796E-03    -114.691E-03     224.017E-03    -109.710E-03     124.396E-03
            1708     7.25814E-03     46.5754E-03    -54.0584E+06    -151.311E+06    -8.42757E+06     317.722E+03    -112.771E-03     222.728E-03    -109.957E-03     117.509E-03    -113.891E-03     223.144E-03    -109.701E-03     113.786E-03
            1709     6.45217E-03     46.4511E-03    -59.3421E+06    -169.356E+06    -15.2024E+06     240.055E+03    -112.285E-03     222.233E-03    -109.948E-03     105.764E-03    -113.105E-03     222.285E-03    -109.692E-03     102.644E-03
            1710     5.64531E-03     46.3395E-03    -64.8223E+06    -182.231E+06    -24.8026E+06     360.850E+03    -111.792E-03     221.708E-03    -109.917E-03     93.6088E-03    -112.379E-03     221.490E-03    -109.682E-03     91.0330E-03
            1711     4.83928E-03     46.2416E-03    -70.8953E+06    -194.417E+06    -36.7287E+06      201.92E+03    -111.287E-03     221.163E-03    -109.876E-03     81.1673E-03    -111.694E-03     220.735E-03    -109.675E-03     79.0722E-03
            1712     4.03234E-03     46.1577E-03    -76.8535E+06    -207.157E+06    -48.5525E+06     230.952E+03    -110.829E-03     220.669E-03    -109.840E-03     68.4115E-03    -111.098E-03     220.070E-03    -109.671E-03     66.7484E-03
            1713     3.22610E-03     46.0879E-03    -81.8871E+06    -217.358E+06    -61.3715E+06     55.0030E+03    -110.462E-03     220.255E-03    -109.793E-03     55.2324E-03    -110.624E-03     219.533E-03    -109.666E-03     53.9537E-03
            1714     2.41968E-03     46.0336E-03    -86.7782E+06    -226.362E+06    -73.7411E+06    -110.474E+03    -110.065E-03     219.825E-03    -109.759E-03     41.9447E-03    -110.150E-03     219.012E-03    -109.674E-03     41.0133E-03
            1715     1.61284E-03     45.9938E-03    -90.5703E+06    -233.090E+06    -83.8148E+06     43.4077E+03    -109.800E-03     219.572E-03    -109.772E-03     28.3781E-03    -109.833E-03     218.699E-03    -109.722E-03     27.7660E-03
            1716     806.364E-06     45.9701E-03    -92.7205E+06    -237.539E+06    -90.7997E+06     414.451E+03    -109.904E-03     219.626E-03    -109.722E-03     15.7147E-03    -109.904E-03     218.718E-03    -109.697E-03     15.3951E-03
            1717     15.3247E-03     47.1837E-03    -4.85055E+06     125.485E+06     100.932E+06     115.741E+03    -107.869E-03     217.872E-03    -110.003E-03     91.6414E-03    -112.384E-03     222.522E-03    -109.673E-03     86.4166E-03
            1718     14.5172E-03     47.0093E-03    -11.3573E+06     126.211E+06     103.580E+06     838.912E+03    -110.064E-03     220.108E-03    -110.044E-03     162.164E-03    -117.531E-03     227.683E-03    -109.693E-03     154.428E-03
            1719     13.7104E-03     46.8280E-03    -18.1580E+06     116.060E+06     94.8037E+06     402.175E+03    -111.769E-03     221.776E-03    -110.007E-03     181.013E-03    -119.525E-03     229.605E-03    -109.675E-03     172.231E-03
            1720     12.9048E-03     46.6143E-03    -23.8273E+06     106.765E+06     72.5087E+06     209.478E+03    -113.160E-03     223.075E-03    -109.915E-03     199.220E-03    -120.879E-03     230.878E-03    -109.672E-03     189.794E-03
            1721     12.0967E-03     46.3929E-03    -28.5767E+06     90.3592E+06     39.3056E+06    -8.77868E+03    -113.879E-03     223.671E-03    -109.791E-03     191.825E-03    -120.212E-03     230.109E-03    -109.684E-03     182.872E-03
            1722     11.2918E-03     46.1931E-03    -33.1418E+06     41.6217E+06     19.8213E+06     112.002E+03    -113.745E-03     223.521E-03    -109.776E-03     173.808E-03    -118.425E-03     228.174E-03    -109.689E-03     165.931E-03
            1723     10.4835E-03     46.0109E-03    -37.1488E+06    -23.4298E+06     11.7559E+06     275.963E+03    -113.686E-03     223.520E-03    -109.834E-03     159.575E-03    -117.159E-03     226.744E-03    -109.687E-03     152.716E-03
            1724     9.67831E-03     45.8413E-03    -40.9164E+06    -71.1124E+06     4.96206E+06     222.216E+03    -113.777E-03     223.639E-03    -109.863E-03     149.300E-03    -116.409E-03     225.860E-03    -109.675E-03     143.330E-03
            1725     8.87207E-03     45.6813E-03    -45.0149E+06    -104.004E+06     1.11746E+06     273.138E+03    -113.569E-03     223.447E-03    -109.878E-03     139.285E-03    -115.573E-03     224.919E-03    -109.657E-03     134.132E-03
            1726     8.06517E-03     45.5321E-03    -49.4961E+06    -129.800E+06    -3.64534E+06     282.517E+03    -113.202E-03     223.081E-03    -109.879E-03     128.501E-03    -114.708E-03     223.962E-03    -109.637E-03     124.104E-03
            1727     7.25920E-03     45.3953E-03    -54.2821E+06    -151.594E+06    -8.65111E+06     266.942E+03    -112.746E-03     222.620E-03    -109.874E-03     117.146E-03    -113.864E-03     223.032E-03    -109.618E-03     113.426E-03
            1728     6.45228E-03     45.2707E-03    -59.5469E+06    -169.432E+06    -15.8936E+06     193.939E+03    -112.262E-03     222.113E-03    -109.851E-03     105.450E-03    -113.079E-03     222.163E-03    -109.599E-03     102.334E-03
            1729     5.64634E-03     45.1594E-03    -65.2394E+06    -182.480E+06    -25.0101E+06     350.211E+03    -111.726E-03     221.541E-03    -109.814E-03     93.3262E-03    -112.313E-03     221.320E-03    -109.580E-03     90.7544E-03
            1730     4.83934E-03     45.0616E-03    -70.7438E+06    -193.988E+06    -36.1485E+06     489.638E+03    -111.219E-03     220.986E-03    -109.767E-03     80.9420E-03    -111.625E-03     220.557E-03    -109.564E-03     78.8557E-03
            1731     4.03327E-03     44.9777E-03    -76.3263E+06    -206.905E+06    -48.2969E+06     147.033E+03    -110.769E-03     220.487E-03    -109.718E-03     68.1952E-03    -111.035E-03     219.887E-03    -109.549E-03     66.5357E-03
            1732     3.22645E-03     44.9083E-03    -82.0142E+06    -217.235E+06    -61.2350E+06     109.492E+03    -110.283E-03     219.955E-03    -109.672E-03     55.0527E-03    -110.446E-03     219.232E-03    -109.544E-03     53.7799E-03
            1733     2.41969E-03     44.8538E-03    -86.7448E+06    -226.366E+06    -73.8807E+06     23.7390E+03    -109.982E-03     219.617E-03    -109.635E-03     41.7436E-03    -110.066E-03     218.804E-03    -109.550E-03     40.8165E-03
            1734     1.61315E-03     44.8146E-03    -90.4706E+06    -233.204E+06    -84.0478E+06    -279.386E+03    -109.889E-03     219.455E-03    -109.566E-03     28.2395E-03    -109.921E-03     218.581E-03    -109.517E-03     27.6256E-03
            1735     806.769E-06     44.7892E-03    -92.5520E+06    -237.450E+06    -90.9666E+06    -176.567E+03    -109.764E-03     219.066E-03    -109.302E-03     15.3614E-03    -109.763E-03     218.157E-03    -109.278E-03     15.0348E-03
            1736     15.3206E-03     46.0021E-03    -5.74431E+06     124.838E+06     100.091E+06    -11.4185E+03    -108.283E-03     218.317E-03    -110.034E-03     93.0336E-03    -112.859E-03     223.025E-03    -109.706E-03     87.7193E-03
            1737     14.5164E-03     45.8249E-03    -11.4739E+06     126.379E+06     103.650E+06     790.584E+03    -110.427E-03     220.482E-03    -110.055E-03     161.582E-03    -117.890E-03     228.053E-03    -109.704E-03     153.820E-03
            1738     13.7111E-03     45.6483E-03    -17.1098E+06     116.953E+06     95.6904E+06     409.247E+03    -111.449E-03     221.464E-03    -110.016E-03     179.538E-03    -119.131E-03     229.224E-03    -109.682E-03     170.818E-03
            1739     12.9029E-03     45.4320E-03    -23.5784E+06     106.787E+06     72.2084E+06    -399.996E+03    -113.417E-03     223.333E-03    -109.917E-03     198.448E-03    -121.131E-03     231.134E-03    -109.676E-03     188.976E-03
            1740     12.0986E-03     45.2121E-03    -29.0018E+06     89.7873E+06     38.3986E+06    -28.1618E+03    -114.185E-03     223.953E-03    -109.767E-03     191.074E-03    -120.522E-03     230.393E-03    -109.663E-03     182.081E-03
            1741     11.2905E-03     45.0117E-03    -33.1163E+06     41.1579E+06     19.5986E+06     473.268E+03    -113.827E-03     223.562E-03    -109.734E-03     173.124E-03    -118.501E-03     228.206E-03    -109.648E-03     165.244E-03
            1742     10.4860E-03     44.8308E-03    -37.0449E+06    -23.1287E+06     12.1170E+06     503.728E+03    -113.742E-03     223.524E-03    -109.782E-03     159.317E-03    -117.214E-03     226.747E-03    -109.634E-03     152.458E-03
            1743     9.67841E-03     44.6602E-03    -41.1070E+06    -70.7755E+06     5.02588E+06     403.016E+03    -113.839E-03     223.637E-03    -109.798E-03     148.926E-03    -116.468E-03     225.854E-03    -109.611E-03     142.959E-03
            1744     8.87223E-03     44.5006E-03    -45.2618E+06    -104.113E+06     996.477E+03     258.222E+03    -113.643E-03     223.441E-03    -109.798E-03     138.853E-03    -115.643E-03     224.908E-03    -109.577E-03     133.702E-03
            1745     8.06636E-03     44.3518E-03    -49.5194E+06    -129.744E+06    -3.52331E+06     233.902E+03    -113.208E-03     222.993E-03    -109.785E-03     128.157E-03    -114.711E-03     223.869E-03    -109.543E-03     123.765E-03
            1746     7.25961E-03     44.2149E-03    -54.3148E+06    -151.326E+06    -8.28756E+06     289.952E+03    -112.742E-03     222.510E-03    -109.768E-03     116.902E-03    -113.858E-03     222.920E-03    -109.511E-03     113.189E-03
            1747     6.45362E-03     44.0908E-03    -59.7550E+06    -169.514E+06    -16.1145E+06     327.798E+03    -112.217E-03     221.948E-03    -109.731E-03     105.150E-03    -113.031E-03     221.995E-03    -109.479E-03     102.044E-03
            1748     5.64659E-03     43.9793E-03    -65.1442E+06    -182.951E+06    -25.6526E+06     126.065E+03    -111.652E-03     221.333E-03    -109.681E-03     93.0109E-03    -112.234E-03     221.108E-03    -109.450E-03     90.4434E-03
            1749     4.84046E-03     43.8820E-03    -70.6281E+06    -193.873E+06    -36.1000E+06     119.864E+03    -111.151E-03     220.775E-03    -109.624E-03     80.6541E-03    -111.556E-03     220.346E-03    -109.421E-03     78.5688E-03
            1750     4.03346E-03     43.7978E-03    -76.4494E+06    -206.662E+06    -47.9530E+06     309.440E+03    -110.613E-03     220.182E-03    -109.569E-03     67.8660E-03    -110.879E-03     219.581E-03    -109.398E-03     66.2149E-03
            1751     3.22702E-03     43.7291E-03    -82.0072E+06    -217.122E+06    -61.1653E+06     294.015E+03    -110.178E-03     219.690E-03    -109.512E-03     54.8058E-03    -110.339E-03     218.967E-03    -109.384E-03     53.5387E-03
            1752     2.42019E-03     43.6744E-03    -86.6624E+06    -225.929E+06    -73.4550E+06     168.985E+03    -109.944E-03     219.386E-03    -109.442E-03     41.5880E-03    -110.028E-03     218.574E-03    -109.356E-03     40.6660E-03
            1753     1.61381E-03     43.6345E-03    -90.5894E+06    -233.077E+06    -84.2858E+06    -152.085E+03    -109.671E-03     219.013E-03    -109.343E-03     28.1969E-03    -109.702E-03     218.141E-03    -109.295E-03     27.5868E-03
            1754     807.190E-06     43.6108E-03    -93.3417E+06    -238.052E+06    -91.6820E+06    -626.156E+03    -109.278E-03     218.617E-03    -109.338E-03     15.3771E-03    -109.279E-03     217.708E-03    -109.316E-03     15.0422E-03
            1755     15.3246E-03     44.8183E-03    -5.26461E+06     124.761E+06     100.237E+06     332.101E+03    -108.901E-03     218.888E-03    -109.987E-03     93.7883E-03    -113.479E-03     223.600E-03    -109.659E-03     88.4463E-03
            1756     14.5178E-03     44.6439E-03    -11.5272E+06     126.162E+06     103.606E+06    -564.679E+03    -110.045E-03     220.040E-03    -109.995E-03     159.121E-03    -117.447E-03     227.548E-03    -109.643E-03     151.388E-03
            1757     13.7104E-03     44.4663E-03    -17.0744E+06     116.913E+06     95.6889E+06    -327.790E+03    -111.193E-03     221.154E-03    -109.961E-03     177.711E-03    -118.819E-03     228.857E-03    -109.627E-03     169.018E-03
            1758     12.9056E-03     44.2517E-03    -23.5323E+06     106.875E+06     71.9058E+06     381.428E+03    -113.347E-03     223.208E-03    -109.861E-03     198.002E-03    -121.056E-03     231.005E-03    -109.623E-03     188.540E-03
            1759     12.0976E-03     44.0297E-03    -29.3815E+06       89.34E+06     38.1887E+06     202.038E+03    -114.069E-03     223.782E-03    -109.713E-03     190.405E-03    -120.387E-03     230.202E-03    -109.609E-03     181.429E-03
            1760     11.2932E-03     43.8318E-03    -33.6934E+06     40.8856E+06     19.3773E+06     227.324E+03    -113.869E-03     223.544E-03    -109.676E-03     172.884E-03    -118.538E-03     228.183E-03    -109.589E-03     165.002E-03
            1761     10.4848E-03     43.6493E-03    -37.3288E+06    -23.2840E+06     12.1321E+06     449.959E+03    -113.913E-03     223.623E-03    -109.709E-03     159.100E-03    -117.384E-03     226.843E-03    -109.561E-03     152.230E-03
            1762     9.67988E-03     43.4798E-03    -41.0333E+06    -70.3127E+06     5.41658E+06     474.939E+03    -113.880E-03     223.589E-03    -109.709E-03     148.554E-03    -116.500E-03     225.799E-03    -109.521E-03     142.596E-03
            1763     8.87359E-03     43.3199E-03    -44.9787E+06    -103.856E+06     1.19181E+06     341.893E+03    -113.620E-03     223.317E-03    -109.697E-03     138.409E-03    -115.611E-03     224.777E-03    -109.476E-03     133.270E-03
            1764     8.06697E-03     43.1717E-03    -49.5020E+06    -129.784E+06    -3.52214E+06     226.711E+03    -113.217E-03     222.889E-03    -109.672E-03     127.800E-03    -114.715E-03     223.761E-03    -109.430E-03     123.414E-03
            1765     7.26078E-03     43.0350E-03    -54.3777E+06    -151.399E+06    -8.38152E+06     362.484E+03    -112.738E-03     222.377E-03    -109.639E-03     116.564E-03    -113.850E-03     222.783E-03    -109.382E-03     112.859E-03
            1766     6.45403E-03     42.9106E-03    -59.4384E+06    -169.396E+06    -15.3868E+06     296.229E+03    -112.171E-03     221.761E-03    -109.590E-03     104.716E-03    -112.981E-03     221.803E-03    -109.335E-03     101.618E-03
            1767     5.64793E-03     42.8002E-03    -65.0340E+06    -182.855E+06    -25.5551E+06     22.0283E+03    -111.619E-03     221.138E-03    -109.519E-03     92.6873E-03    -112.197E-03     220.911E-03    -109.287E-03     90.1259E-03
            1768     4.84097E-03     42.7020E-03    -70.9970E+06    -194.106E+06    -36.5836E+06     197.155E+03    -111.027E-03     220.471E-03    -109.444E-03     80.2579E-03    -111.430E-03     220.040E-03    -109.243E-03     78.1801E-03
            1769     4.03466E-03     42.6192E-03    -76.8305E+06    -206.560E+06    -48.3244E+06     413.759E+03    -110.462E-03     219.839E-03    -109.377E-03     67.4830E-03    -110.728E-03     219.239E-03    -109.208E-03     65.8397E-03
            1770     3.22742E-03     42.5497E-03    -81.9279E+06    -216.796E+06    -61.0799E+06     151.009E+03    -110.090E-03     219.389E-03    -109.300E-03     54.5890E-03    -110.251E-03     218.667E-03    -109.172E-03     53.3246E-03
            1771     2.42106E-03     42.4953E-03    -86.7984E+06    -225.696E+06    -73.4639E+06     51.7052E+03    -109.672E-03     218.893E-03    -109.221E-03     41.4409E-03    -109.758E-03     218.082E-03    -109.135E-03     40.5222E-03
            1772     1.61385E-03     42.4560E-03    -90.7322E+06    -232.962E+06    -84.2894E+06     29.7344E+03    -109.230E-03     218.434E-03    -109.204E-03     28.1418E-03    -109.262E-03     217.561E-03    -109.156E-03     27.5380E-03
            1773     806.423E-06     42.4322E-03    -93.5280E+06    -238.274E+06    -91.8441E+06    -59.1824E+03    -109.282E-03     218.488E-03    -109.206E-03     15.3046E-03    -109.283E-03     217.578E-03    -109.184E-03     14.9785E-03
            1774     15.3249E-03     43.6396E-03    -5.17094E+06     125.408E+06     101.229E+06     270.129E+03    -109.854E-03     219.749E-03    -109.895E-03     93.1314E-03    -114.395E-03     224.423E-03    -109.563E-03     87.7975E-03
            1775     14.5193E-03     43.4592E-03    -10.5861E+06     127.022E+06     104.684E+06    -459.228E+03    -109.098E-03     218.995E-03    -109.897E-03     158.976E-03    -116.471E-03     226.478E-03    -109.543E-03     151.349E-03
            1776     13.7140E-03     43.2892E-03    -18.1661E+06     115.611E+06     94.4390E+06    -270.244E+03    -110.966E-03     220.856E-03    -109.890E-03     178.931E-03    -118.630E-03     228.592E-03    -109.559E-03     170.239E-03
            1777     12.9048E-03     43.0683E-03    -24.4158E+06     106.020E+06     71.2081E+06     143.268E+03    -113.425E-03     223.222E-03    -109.797E-03     198.727E-03    -121.144E-03     231.025E-03    -109.560E-03     189.255E-03
            1778     12.1004E-03     42.8508E-03    -29.2477E+06     89.7325E+06     38.6987E+06     450.828E+03    -113.952E-03     223.604E-03    -109.652E-03     190.355E-03    -120.251E-03     230.005E-03    -109.546E-03     181.412E-03
            1779     11.2915E-03     42.6496E-03    -33.3726E+06     41.1124E+06     19.5139E+06     353.314E+03    -114.076E-03     223.682E-03    -109.605E-03     172.807E-03    -118.736E-03     228.312E-03    -109.519E-03     164.923E-03
            1780     10.4878E-03     42.4692E-03    -37.1722E+06    -23.4377E+06     11.9895E+06     212.970E+03    -114.097E-03     223.713E-03    -109.616E-03     158.501E-03    -117.556E-03     226.922E-03    -109.468E-03     151.626E-03
            1781     9.68039E-03     42.2988E-03    -41.0384E+06    -70.0529E+06     5.52916E+06     498.834E+03    -113.859E-03     223.458E-03    -109.600E-03     148.115E-03    -116.471E-03     225.661E-03    -109.411E-03     142.170E-03
            1782     8.87429E-03     42.1397E-03    -45.1738E+06    -103.668E+06     937.131E+03     391.120E+03    -113.603E-03     223.178E-03    -109.576E-03     138.086E-03    -115.587E-03     224.632E-03    -109.355E-03     132.961E-03
            1783     8.06815E-03     41.9916E-03    -49.4764E+06    -129.984E+06    -3.76350E+06     179.046E+03    -113.289E-03     222.822E-03    -109.533E-03     127.328E-03    -114.781E-03     223.688E-03    -109.291E-03     122.945E-03
            1784     7.26183E-03     41.8548E-03    -54.2291E+06    -151.314E+06    -8.39196E+06     260.435E+03    -112.742E-03     222.219E-03    -109.477E-03     115.967E-03    -113.848E-03     222.620E-03    -109.221E-03     112.269E-03
            1785     6.45555E-03     41.7314E-03    -59.6448E+06    -169.366E+06    -15.5094E+06     206.568E+03    -112.116E-03     221.523E-03    -109.407E-03     104.155E-03    -112.923E-03     221.562E-03    -109.152E-03     101.064E-03
            1786     5.64867E-03     41.6202E-03    -65.3263E+06    -182.674E+06    -25.2832E+06     326.632E+03    -111.482E-03     220.803E-03    -109.322E-03     92.1971E-03    -112.059E-03     220.574E-03    -109.088E-03     89.6499E-03
            1787     4.84241E-03     41.5234E-03    -71.0253E+06    -194.218E+06    -36.8373E+06     279.163E+03    -110.859E-03     220.092E-03    -109.233E-03     79.8667E-03    -111.260E-03     219.658E-03    -109.032E-03     77.7996E-03
            1788     4.03506E-03     41.4400E-03    -76.2948E+06    -206.368E+06     -48.103E+06     86.6347E+03    -110.357E-03     219.506E-03    -109.149E-03     67.2229E-03    -110.620E-03     218.904E-03    -108.979E-03     65.5812E-03
            1789     3.22876E-03     41.3712E-03    -81.9995E+06    -216.651E+06    -60.8744E+06     182.584E+03    -109.861E-03     218.917E-03    -109.056E-03     54.4018E-03    -110.021E-03     218.194E-03    -108.928E-03     53.1464E-03
            1790     2.42128E-03     41.3168E-03    -87.0195E+06    -225.841E+06    -73.8641E+06     50.3946E+03    -109.329E-03     218.319E-03    -108.990E-03     41.0605E-03    -109.414E-03     217.507E-03    -108.906E-03     40.1475E-03
            1791     1.61411E-03     41.2783E-03    -90.6819E+06    -233.085E+06    -84.2912E+06     107.894E+03    -109.004E-03     218.000E-03    -108.996E-03     27.8882E-03    -109.036E-03     217.126E-03    -108.948E-03     27.2914E-03
            1792     807.160E-06     41.2533E-03    -93.3493E+06    -237.983E+06    -91.4347E+06     443.443E+03    -109.204E-03     218.081E-03    -108.877E-03     15.7120E-03    -109.205E-03     217.171E-03    -108.854E-03     15.3992E-03
            1793     15.3292E-03     42.4536E-03    -5.08561E+06     125.287E+06     100.981E+06    -221.931E+03    -109.340E-03     219.230E-03    -109.890E-03     94.0858E-03    -113.896E-03     223.921E-03    -109.560E-03     88.7777E-03
            1794     14.5208E-03     42.2856E-03    -11.2525E+06     126.218E+06     103.850E+06     116.283E+03    -109.388E-03     219.296E-03    -109.908E-03     162.442E-03    -116.832E-03     226.847E-03    -109.555E-03     154.781E-03
            1795     13.7101E-03     42.1041E-03    -18.0022E+06     115.781E+06     94.8519E+06     505.321E+03    -111.715E-03     221.599E-03    -109.884E-03     180.465E-03    -119.420E-03     229.376E-03    -109.552E-03     171.705E-03
            1796     12.9075E-03     41.8890E-03    -24.0595E+06     106.036E+06     71.2291E+06     71.4451E+03    -113.758E-03     223.517E-03    -109.759E-03     198.470E-03    -121.456E-03     231.299E-03    -109.522E-03     188.981E-03
            1797     12.0985E-03     41.6688E-03    -29.4570E+06     89.3434E+06     38.1940E+06    -26.6402E+03    -114.386E-03     223.970E-03    -109.584E-03     190.189E-03    -120.678E-03     230.363E-03    -109.480E-03     181.211E-03
            1798     11.2951E-03     41.4692E-03    -33.2944E+06     41.4177E+06     19.6578E+06     339.662E+03    -114.307E-03     223.815E-03    -109.508E-03     172.193E-03    -118.952E-03     228.432E-03    -109.422E-03     164.302E-03
            1799     10.4870E-03     41.2873E-03    -37.2025E+06    -23.4149E+06     11.6694E+06     528.197E+03    -114.048E-03     223.548E-03    -109.500E-03     157.980E-03    -117.491E-03     226.743E-03    -109.354E-03     151.127E-03
            1800     9.68232E-03     41.1190E-03    -41.1399E+06    -70.0313E+06     5.45360E+06     330.429E+03    -113.942E-03     223.413E-03    -109.471E-03     147.568E-03    -116.548E-03     225.608E-03    -109.282E-03     141.624E-03
            1801     8.87563E-03     40.9596E-03    -44.9328E+06    -102.999E+06     1.20732E+06     350.458E+03    -113.704E-03     223.127E-03    -109.423E-03     137.462E-03    -115.680E-03     224.574E-03    -109.202E-03     132.343E-03
            1802     8.06961E-03     40.8112E-03    -49.3367E+06    -130.127E+06    -4.01297E+06     223.518E+03    -113.285E-03     222.640E-03    -109.354E-03     126.646E-03    -114.767E-03     223.496E-03    -109.114E-03     122.276E-03
            1803     7.26332E-03     40.6756E-03    -54.2837E+06    -151.793E+06    -8.63020E+06     172.593E+03    -112.696E-03     221.974E-03    -109.278E-03     115.347E-03    -113.796E-03     222.368E-03    -109.023E-03     111.656E-03
            1804     6.45680E-03     40.5516E-03    -59.6670E+06    -169.049E+06    -15.1768E+06     367.335E+03    -111.998E-03     221.189E-03    -109.191E-03     103.689E-03    -112.802E-03     221.225E-03    -108.935E-03     100.612E-03
            1805     5.65047E-03     40.4419E-03    -65.4038E+06    -182.593E+06    -25.1785E+06     378.431E+03    -111.304E-03     220.396E-03    -109.092E-03     91.7691E-03    -111.879E-03     220.163E-03    -108.858E-03     89.2364E-03
            1806     4.84302E-03     40.3445E-03    -70.7569E+06    -194.054E+06    -36.7746E+06     141.322E+03    -110.684E-03     219.674E-03    -108.990E-03     79.4601E-03    -111.081E-03     219.237E-03    -108.790E-03     77.4040E-03
            1807     4.03672E-03     40.2618E-03    -76.5242E+06    -206.487E+06    -48.3042E+06     66.4209E+03    -110.129E-03     219.024E-03    -108.895E-03     66.9415E-03    -110.390E-03     218.420E-03    -108.726E-03     65.3108E-03
            1808     3.22904E-03     40.1929E-03    -81.9634E+06    -216.591E+06    -61.0536E+06     220.723E+03    -109.572E-03     218.373E-03    -108.802E-03     54.0621E-03    -109.731E-03     217.650E-03    -108.674E-03     52.8148E-03
            1809     2.42218E-03     40.1393E-03    -86.7872E+06    -225.750E+06    -73.7947E+06     148.342E+03    -109.139E-03     217.866E-03    -108.727E-03     40.8306E-03    -109.222E-03     217.053E-03    -108.642E-03     39.9259E-03
            1810     1.61476E-03     40.1004E-03    -90.9975E+06    -233.085E+06    -84.1560E+06     326.981E+03    -108.959E-03     217.601E-03    -108.642E-03     27.7642E-03    -108.992E-03     216.727E-03    -108.593E-03     27.1744E-03
            1811     807.242E-06     40.0758E-03    -93.1801E+06    -237.690E+06    -91.6618E+06     536.674E+03    -108.583E-03     217.212E-03    -108.629E-03     15.3806E-03    -108.583E-03     216.303E-03    -108.607E-03     15.0759E-03
            1812     15.3208E-03     41.2771E-03    -4.72944E+06     124.703E+06     100.246E+06     258.118E+03    -108.653E-03     218.606E-03    -109.953E-03     92.9442E-03    -113.168E-03     223.257E-03    -109.626E-03     87.6319E-03
            1813     14.5142E-03     41.0989E-03    -11.9563E+06     125.172E+06     102.641E+06    -88.2774E+03    -110.666E-03     220.619E-03    -109.952E-03     160.737E-03    -118.056E-03     228.112E-03    -109.603E-03     152.942E-03
            1814     13.7150E-03     40.9234E-03    -18.0003E+06     115.828E+06     94.9601E+06    -365.062E+03    -112.339E-03     222.212E-03    -109.873E-03     178.920E-03    -120.014E-03     229.959E-03    -109.540E-03     170.093E-03
            1815     12.9050E-03     40.7073E-03    -23.9502E+06     106.654E+06     72.2744E+06    -37.3007E+03    -114.247E-03     223.956E-03    -109.709E-03     197.623E-03    -121.937E-03     231.730E-03    -109.468E-03     188.087E-03
            1816     12.1024E-03     40.4870E-03    -28.9041E+06     89.0245E+06     38.5549E+06     192.640E+03    -114.814E-03     224.305E-03    -109.491E-03     189.371E-03    -121.093E-03     230.686E-03    -109.386E-03     180.358E-03
            1817     11.2945E-03     40.2878E-03    -33.5339E+06     40.7109E+06     19.0910E+06     551.026E+03    -114.338E-03     223.724E-03    -109.386E-03     171.620E-03    -118.970E-03     228.326E-03    -109.301E-03     163.739E-03
            1818     10.4903E-03     40.1075E-03    -37.3202E+06    -23.0427E+06     11.4917E+06     547.526E+03    -114.126E-03     223.487E-03    -109.361E-03     157.400E-03    -117.558E-03     226.672E-03    -109.216E-03     150.555E-03
            1819     9.68279E-03     39.9380E-03    -40.9718E+06    -70.1462E+06     5.24152E+06     81.1365E+03    -114.078E-03     223.384E-03    -109.307E-03     146.809E-03    -116.670E-03     225.567E-03    -109.119E-03     140.865E-03
            1820     8.87776E-03     39.7793E-03    -45.1591E+06    -102.313E+06     1.57515E+06     433.042E+03    -113.739E-03     222.973E-03    -109.234E-03     136.813E-03    -115.709E-03     224.415E-03    -109.012E-03     131.704E-03
            1821     8.07128E-03     39.6319E-03    -49.7383E+06    -129.690E+06    -4.24669E+06     418.200E+03    -113.196E-03     222.339E-03    -109.143E-03     126.190E-03    -114.672E-03     223.191E-03    -108.904E-03     121.841E-03
            1822     7.26504E-03     39.4957E-03    -54.5949E+06    -152.212E+06    -9.17538E+06     106.689E+03    -112.568E-03     221.620E-03    -109.052E-03     114.842E-03    -113.661E-03     222.006E-03    -108.798E-03     111.167E-03
            1823     6.45851E-03     39.3733E-03    -59.7452E+06    -169.071E+06    -15.2855E+06     335.562E+03    -111.842E-03     220.795E-03    -108.953E-03     103.162E-03    -112.640E-03     220.824E-03    -108.697E-03     100.103E-03
            1824     5.65130E-03     39.2629E-03    -65.0409E+06    -182.386E+06    -25.0295E+06     275.097E+03    -111.162E-03     220.000E-03    -108.837E-03     91.3136E-03    -111.731E-03     219.763E-03    -108.604E-03     88.7941E-03
            1825     4.84508E-03     39.1667E-03    -70.9960E+06    -193.988E+06    -36.8004E+06     252.206E+03    -110.497E-03     219.214E-03    -108.717E-03     79.0328E-03    -110.891E-03     218.775E-03    -108.517E-03     76.9908E-03
            1826     4.03714E-03     39.0839E-03    -76.8376E+06    -206.449E+06    -48.7349E+06     241.706E+03    -109.862E-03     218.471E-03    -108.608E-03     66.5120E-03    -110.122E-03     217.866E-03    -108.441E-03     64.8965E-03
            1827     3.23045E-03     39.0155E-03    -82.2085E+06    -216.641E+06    -61.5553E+06     114.170E+03    -109.296E-03     217.804E-03    -108.507E-03     53.5282E-03    -109.454E-03     217.079E-03    -108.382E-03     52.2892E-03
            1828     2.42250E-03     38.9623E-03    -87.0843E+06    -225.572E+06    -73.7899E+06     432.008E+03    -108.945E-03     217.353E-03    -108.408E-03     40.6006E-03    -109.029E-03     216.541E-03    -108.324E-03     39.7074E-03
            1829     1.61532E-03     38.9229E-03    -90.8840E+06    -232.485E+06    -84.0897E+06     316.212E+03    -108.696E-03     216.970E-03    -108.274E-03     27.6023E-03    -108.729E-03     216.099E-03    -108.226E-03     27.0164E-03
            1830     808.411E-06     38.8991E-03    -93.9610E+06    -237.826E+06    -91.7826E+06     403.886E+03    -108.281E-03     216.418E-03    -108.136E-03     15.0704E-03    -108.285E-03     215.510E-03    -108.114E-03     14.7645E-03
            1831     15.3257E-03     40.0936E-03    -4.84060E+06     124.999E+06     100.823E+06     655.383E+03    -109.809E-03     219.725E-03    -109.916E-03     90.9122E-03    -114.298E-03     224.349E-03    -109.587E-03     85.5698E-03
            1832     14.5232E-03     39.9171E-03    -10.5135E+06     126.660E+06     104.207E+06     440.504E+03    -110.556E-03     220.437E-03    -109.881E-03     159.008E-03    -117.904E-03     227.896E-03    -109.529E-03     151.243E-03
            1833     13.7106E-03     39.7420E-03    -17.6292E+06     115.949E+06     94.8204E+06    -450.915E+03    -112.358E-03     222.146E-03    -109.788E-03     177.589E-03    -119.989E-03     229.852E-03    -109.457E-03     168.757E-03
            1834     12.9095E-03     39.5237E-03    -24.2328E+06     106.265E+06     71.4876E+06    -619.094E+03    -114.456E-03     224.061E-03    -109.605E-03     196.737E-03    -122.122E-03     231.811E-03    -109.366E-03     187.176E-03
            1835     12.1018E-03     39.3061E-03    -29.3712E+06     88.0115E+06     38.4223E+06     74.9596E+03    -114.797E-03     224.171E-03    -109.374E-03     188.691E-03    -121.058E-03     230.529E-03    -109.267E-03     179.689E-03
            1836     11.2976E-03     39.1068E-03    -33.2126E+06     40.5166E+06     20.0080E+06     824.796E+03    -114.488E-03     223.742E-03    -109.254E-03     171.001E-03    -119.105E-03     228.327E-03    -109.164E-03     163.126E-03
            1837     10.4902E-03     38.9265E-03    -37.1082E+06    -22.1925E+06     11.7192E+06     608.746E+03    -114.345E-03     223.541E-03    -109.196E-03     156.834E-03    -117.765E-03     226.716E-03    -109.051E-03     149.990E-03
            1838     9.68615E-03     38.7577E-03    -41.1508E+06    -70.3404E+06     4.74583E+06     222.908E+03    -114.104E-03     223.217E-03    -109.114E-03     146.312E-03    -116.684E-03     225.388E-03    -108.928E-03     140.386E-03
            1839     8.87912E-03     38.5997E-03    -45.1763E+06    -102.820E+06     1.48423E+06     513.844E+03    -113.673E-03     222.698E-03    -109.025E-03     136.306E-03    -115.631E-03     224.126E-03    -108.803E-03     131.218E-03
            1840     8.07325E-03     38.4522E-03    -49.5907E+06    -128.848E+06    -3.65717E+06     680.155E+03    -113.144E-03     222.062E-03    -108.917E-03     125.639E-03    -114.613E-03     222.908E-03    -108.677E-03     121.310E-03
            1841     7.26667E-03     38.3172E-03    -54.4993E+06    -151.675E+06    -9.29533E+06     239.174E+03    -112.433E-03     221.237E-03    -108.805E-03     114.185E-03    -113.516E-03     221.616E-03    -108.552E-03     110.536E-03
            1842     6.45997E-03     38.1946E-03    -59.6398E+06    -169.561E+06    -16.1722E+06    -9.18950E+03    -111.724E-03     220.407E-03    -108.683E-03     102.533E-03    -112.512E-03     220.428E-03    -108.432E-03     99.4884E-03
            1843     5.65358E-03     38.0853E-03    -65.3296E+06    -182.690E+06    -25.4117E+06     220.766E+03    -110.988E-03     219.537E-03    -108.549E-03     90.6804E-03    -111.552E-03     219.294E-03    -108.317E-03     88.1747E-03
            1844     4.84568E-03     37.9889E-03    -70.9415E+06    -193.679E+06    -36.4570E+06     388.865E+03    -110.302E-03     218.712E-03    -108.410E-03     78.4624E-03    -110.694E-03     218.270E-03    -108.208E-03     76.4362E-03
            1845     4.03928E-03     37.9070E-03    -76.7041E+06    -206.138E+06    -48.5032E+06     319.294E+03    -109.626E-03     217.902E-03    -108.276E-03     65.8485E-03    -109.882E-03     217.295E-03    -108.109E-03     64.2462E-03
            1846     3.23108E-03     37.8388E-03    -82.2744E+06    -216.753E+06    -61.6603E+06     310.524E+03    -109.039E-03     217.187E-03    -108.148E-03     53.0863E-03    -109.195E-03     216.460E-03    -108.023E-03     51.8616E-03
            1847     2.42393E-03     37.7859E-03    -87.0181E+06    -225.397E+06    -73.6218E+06     250.703E+03    -108.592E-03     216.622E-03    -108.029E-03     40.2711E-03    -108.675E-03     215.809E-03    -107.945E-03     39.3832E-03
            1848     1.61608E-03     37.7463E-03    -90.8505E+06    -232.311E+06    -84.0817E+06     336.275E+03    -108.114E-03     216.067E-03    -107.953E-03     27.3612E-03    -108.147E-03     215.196E-03    -107.905E-03     26.7826E-03
            1849     807.276E-06     37.7241E-03    -93.1608E+06    -237.172E+06    -91.3750E+06    -103.243E+03    -108.085E-03     215.907E-03    -107.822E-03     15.0305E-03    -108.086E-03     215.001E-03    -107.800E-03     14.7135E-03
            1850     15.3280E-03     38.9123E-03    -6.07415E+06     124.295E+06     100.135E+06    -308.700E+03    -110.918E-03     220.775E-03    -109.856E-03     92.3365E-03    -115.459E-03     225.445E-03    -109.527E-03     86.8750E-03
            1851     14.5168E-03     38.7361E-03    -10.2755E+06     127.046E+06     104.953E+06     569.501E+03    -110.956E-03     220.737E-03    -109.781E-03     159.591E-03    -118.328E-03     228.219E-03    -109.426E-03     151.778E-03
            1852     13.7182E-03     38.5584E-03    -16.4405E+06     116.958E+06     95.6152E+06     760.337E+03    -112.356E-03     222.027E-03    -109.671E-03     177.565E-03    -119.959E-03     229.709E-03    -109.338E-03     168.768E-03
            1853     12.9088E-03     38.3437E-03    -23.8418E+06     106.067E+06     70.7378E+06     339.072E+03    -114.348E-03     223.828E-03    -109.480E-03     196.639E-03    -121.985E-03     231.552E-03    -109.246E-03     187.118E-03
            1854     12.1048E-03     38.1236E-03    -29.8882E+06     87.1803E+06     37.5504E+06     48.3615E+03    -114.900E-03     224.142E-03    -109.242E-03     188.283E-03    -121.140E-03     230.477E-03    -109.137E-03     179.288E-03
            1855     11.2980E-03     37.9263E-03    -34.2216E+06     40.3914E+06     19.5958E+06     149.507E+03    -114.717E-03     223.818E-03    -109.100E-03     170.442E-03    -119.323E-03     228.388E-03    -109.011E-03     162.555E-03
            1856     10.4940E-03     37.7455E-03    -37.5972E+06    -21.4194E+06     11.9061E+06     467.237E+03    -114.404E-03     223.421E-03    -109.018E-03     156.324E-03    -117.812E-03     226.585E-03    -108.873E-03     149.493E-03
            1857     9.68663E-03     37.5778E-03    -41.0584E+06    -70.1223E+06     4.73605E+06     368.522E+03    -114.104E-03     223.018E-03    -108.914E-03     145.736E-03    -116.669E-03     225.175E-03    -108.729E-03     139.832E-03
            1858     8.88155E-03     37.4200E-03    -45.0390E+06    -103.641E+06     1.13898E+06     370.792E+03    -113.733E-03     222.535E-03    -108.801E-03     135.756E-03    -115.678E-03     223.948E-03    -108.580E-03     130.683E-03
            1859     8.07508E-03     37.2732E-03    -49.2093E+06    -129.001E+06    -3.38779E+06     532.019E+03    -113.111E-03     221.778E-03    -108.668E-03     124.836E-03    -114.567E-03     222.612E-03    -108.426E-03     120.524E-03
            1860     7.26886E-03     37.1387E-03    -53.8728E+06    -150.733E+06    -8.49908E+06     586.621E+03    -112.335E-03     220.865E-03    -108.530E-03     113.427E-03    -113.409E-03     221.237E-03    -108.276E-03     109.802E-03
            1861     6.46215E-03     37.0168E-03    -59.5245E+06    -169.535E+06    -16.3166E+06     276.351E+03    -111.614E-03     219.993E-03    -108.379E-03     101.857E-03    -112.394E-03     220.008E-03    -108.129E-03     98.8320E-03
            1862     5.65479E-03     36.9077E-03    -65.1499E+06    -182.733E+06    -25.5992E+06     154.589E+03    -110.867E-03     219.080E-03    -108.213E-03     89.8276E-03    -111.424E-03     218.831E-03    -107.982E-03     87.3367E-03
            1863     4.84830E-03     36.8125E-03    -70.8928E+06    -193.739E+06    -36.4637E+06     252.588E+03    -110.037E-03     218.082E-03    -108.045E-03     77.6989E-03    -110.423E-03     217.634E-03    -107.844E-03     75.6878E-03
            1864     4.04009E-03     36.7299E-03    -76.5652E+06    -206.044E+06    -48.3077E+06     417.072E+03    -109.328E-03     217.219E-03    -107.890E-03     65.2036E-03    -109.582E-03     216.609E-03    -107.722E-03     63.6162E-03
            1865     3.23293E-03     36.6638E-03    -81.9608E+06    -216.151E+06    -60.9110E+06     400.944E+03    -108.689E-03     216.433E-03    -107.743E-03     52.6366E-03    -108.844E-03     215.706E-03    -107.616E-03     51.4245E-03
            1866     2.42469E-03     36.6089E-03    -86.9014E+06    -225.403E+06    -73.7357E+06     93.5209E+03    -108.092E-03     215.721E-03    -107.628E-03     39.9643E-03    -108.174E-03     214.907E-03    -107.544E-03     39.0841E-03
            1867     1.61628E-03     36.5731E-03    -90.6350E+06    -232.400E+06    -84.0414E+06    -19.9638E+03    -107.769E-03     215.322E-03    -107.554E-03     27.0114E-03    -107.799E-03     214.450E-03    -107.506E-03     26.4330E-03
            1868     808.593E-06     36.5466E-03    -92.2824E+06    -236.294E+06    -90.7618E+06    -190.858E+03    -107.490E-03     215.079E-03    -107.589E-03     14.6662E-03    -107.489E-03     214.175E-03    -107.566E-03     14.3525E-03
            1869     15.3230E-03     37.7252E-03    -5.32542E+06     124.430E+06     100.272E+06    -552.721E+03    -111.205E-03     221.031E-03    -109.825E-03     90.6830E-03    -115.689E-03     225.646E-03    -109.497E-03     85.1857E-03
            1870     14.5269E-03     37.5535E-03    -11.2820E+06     125.900E+06     103.572E+06    -447.175E+03    -111.482E-03     221.202E-03    -109.720E-03     158.936E-03    -118.822E-03     228.648E-03    -109.368E-03     151.056E-03
            1871     13.7142E-03     37.3779E-03    -17.3539E+06     116.120E+06     95.1356E+06     662.683E+03    -112.646E-03     222.234E-03    -109.588E-03     178.568E-03    -120.264E-03     229.927E-03    -109.255E-03     169.748E-03
            1872     12.9119E-03     37.1605E-03    -23.2276E+06     106.290E+06     72.0763E+06     1.36140E+06    -114.726E-03     224.106E-03    -109.380E-03     196.716E-03    -122.355E-03     231.821E-03    -109.140E-03     187.180E-03
            1873     12.1053E-03     36.9432E-03    -28.7331E+06     88.4263E+06     38.2683E+06     1.10616E+06    -115.213E-03     224.319E-03    -109.106E-03     187.806E-03    -121.427E-03     230.634E-03    -109.001E-03     178.817E-03
            1874     11.3010E-03     36.7442E-03    -33.1764E+06     40.7134E+06     19.4045E+06     384.617E+03    -114.804E-03     223.740E-03    -108.936E-03     169.981E-03    -119.384E-03     228.290E-03    -108.850E-03     162.113E-03
            1875     10.4943E-03     36.5654E-03    -37.1011E+06    -21.6851E+06     12.1325E+06     118.966E+03    -114.516E-03     223.351E-03    -108.835E-03     155.750E-03    -117.908E-03     226.499E-03    -108.689E-03     148.924E-03
            1876     9.68988E-03     36.3978E-03    -40.9891E+06    -69.6518E+06     4.69655E+06     441.455E+03    -114.260E-03     222.959E-03    -108.699E-03     144.976E-03    -116.809E-03     225.102E-03    -108.515E-03     139.087E-03
            1877     8.88327E-03     36.2406E-03    -44.9064E+06    -104.235E+06     697.879E+03     194.212E+03    -113.790E-03     222.342E-03    -108.552E-03     134.896E-03    -115.719E-03     223.740E-03    -108.332E-03     129.835E-03
            1878     8.07761E-03     36.0943E-03    -49.1601E+06    -129.051E+06    -3.26597E+06     340.611E+03    -113.083E-03     221.472E-03    -108.389E-03     123.965E-03    -114.528E-03     222.294E-03    -108.147E-03     119.669E-03
            1879     7.27089E-03     35.9609E-03    -54.0558E+06    -150.456E+06    -8.25056E+06     637.226E+03    -112.323E-03     220.540E-03    -108.216E-03     112.530E-03    -113.389E-03     220.904E-03    -107.961E-03     108.922E-03
            1880     6.46414E-03     35.8391E-03    -59.1775E+06    -169.062E+06    -15.5324E+06     589.366E+03    -111.538E-03     219.565E-03    -108.027E-03     100.864E-03    -112.311E-03     219.573E-03    -107.774E-03     97.8603E-03
            1881     5.65765E-03     35.7310E-03    -64.8977E+06    -182.505E+06    -25.4332E+06     377.145E+03    -110.646E-03     218.467E-03    -107.822E-03     88.8702E-03    -111.195E-03     218.212E-03    -107.590E-03     86.4024E-03
            1882     4.84976E-03     35.6359E-03    -70.8680E+06    -193.783E+06    -36.8088E+06     349.251E+03    -109.742E-03     217.365E-03    -107.623E-03     76.8340E-03    -110.122E-03     216.913E-03    -107.423E-03     74.8418E-03
            1883     4.04238E-03     35.5555E-03    -76.5564E+06    -205.934E+06    -48.3781E+06     284.026E+03    -108.905E-03     216.357E-03    -107.452E-03     64.5674E-03    -109.155E-03     215.744E-03    -107.284E-03     62.9957E-03
            1884     3.23412E-03     35.4872E-03    -81.9765E+06    -216.057E+06    -61.0847E+06     189.298E+03    -108.196E-03     215.502E-03    -107.306E-03     52.0729E-03    -108.349E-03     214.774E-03    -107.179E-03     50.8713E-03
            1885     2.42563E-03     35.4370E-03    -86.5691E+06    -224.889E+06    -73.4412E+06     236.685E+03    -107.742E-03     214.921E-03    -107.179E-03     39.5393E-03    -107.822E-03     214.108E-03    -107.095E-03     38.6707E-03
            1886     1.61746E-03     35.3958E-03    -90.2235E+06    -232.176E+06    -84.0158E+06    -100.792E+03    -107.452E-03     214.485E-03    -107.033E-03     26.6282E-03    -107.481E-03     213.613E-03    -106.986E-03     26.0532E-03
            1887     808.777E-06     35.3757E-03    -93.0361E+06    -236.822E+06    -91.4354E+06    -255.183E+03    -107.080E-03     213.929E-03    -106.849E-03     14.2033E-03    -107.080E-03     213.024E-03    -106.828E-03     13.8958E-03
            1888     15.3317E-03     36.5429E-03    -4.81601E+06     124.485E+06     100.260E+06    -299.437E+03    -110.960E-03     220.774E-03    -109.814E-03     92.1254E-03    -115.461E-03     225.409E-03    -109.486E-03     86.6382E-03
            1889     14.5169E-03     36.3700E-03    -11.4084E+06     125.721E+06     103.058E+06     128.895E+03    -111.744E-03     221.453E-03    -109.709E-03     159.610E-03    -119.095E-03     228.910E-03    -109.359E-03     151.700E-03
            1890     13.7192E-03     36.1948E-03    -18.2837E+06     115.338E+06     94.3189E+06    -23.2936E+03    -113.634E-03     223.174E-03    -109.540E-03     178.046E-03    -121.245E-03     230.856E-03    -109.209E-03     169.111E-03
            1891     12.9115E-03     35.9789E-03    -24.1459E+06     105.088E+06     71.8434E+06     532.993E+03    -115.269E-03     224.551E-03    -109.282E-03     196.172E-03    -122.878E-03     232.239E-03    -109.040E-03     186.587E-03
            1892     12.1081E-03     35.7602E-03    -28.7315E+06     88.9516E+06     39.2806E+06     1.06027E+06    -115.435E-03     224.412E-03    -108.977E-03     187.357E-03    -121.632E-03     230.708E-03    -108.868E-03     178.368E-03
            1893     11.3019E-03     35.5642E-03    -32.5769E+06     41.6866E+06     19.9776E+06     696.712E+03    -115.091E-03     223.863E-03    -108.773E-03     169.446E-03    -119.653E-03     228.400E-03    -108.686E-03     161.579E-03
            1894     10.4975E-03     35.3842E-03    -36.4957E+06    -21.9327E+06     12.2600E+06     437.665E+03    -114.804E-03     223.436E-03    -108.632E-03     154.787E-03    -118.173E-03     226.563E-03    -108.486E-03     147.967E-03
            1895     9.69118E-03     35.2180E-03    -40.3950E+06    -68.9323E+06     5.33722E+06     626.906E+03    -114.443E-03     222.899E-03    -108.456E-03     143.888E-03    -116.975E-03     225.027E-03    -108.271E-03     138.009E-03
            1896     8.88630E-03     35.0613E-03    -44.6129E+06    -103.774E+06     876.891E+03     393.753E+03    -113.841E-03     222.109E-03    -108.267E-03     133.788E-03    -115.754E-03     223.492E-03    -108.048E-03     128.747E-03
            1897     8.07973E-03     34.9162E-03    -49.2224E+06    -129.666E+06    -3.60612E+06     436.883E+03    -113.124E-03     221.187E-03    -108.063E-03     122.768E-03    -114.553E-03     221.992E-03    -107.822E-03     118.492E-03
            1898     7.27373E-03     34.7829E-03    -53.9573E+06    -150.696E+06    -8.48117E+06     427.013E+03    -112.318E-03     220.162E-03    -107.844E-03     111.302E-03    -113.371E-03     220.513E-03    -107.590E-03     107.710E-03
            1899     6.46727E-03     34.6624E-03    -59.2814E+06    -168.629E+06    -14.9986E+06     543.597E+03    -111.319E-03     218.936E-03    -107.617E-03     99.7693E-03    -112.084E-03     218.936E-03    -107.362E-03     96.7891E-03
            1900     5.65967E-03     34.5548E-03    -65.0482E+06    -182.039E+06    -24.8854E+06     745.663E+03    -110.311E-03     217.697E-03    -107.386E-03     87.9777E-03    -110.856E-03     217.437E-03    -107.152E-03     85.5384E-03
            1901     4.85237E-03     34.4613E-03    -70.7376E+06    -193.441E+06    -36.5502E+06     462.124E+03    -109.396E-03     216.559E-03    -107.163E-03     75.9995E-03    -109.772E-03     216.102E-03    -106.962E-03     74.0294E-03
            1902     4.04427E-03     34.3800E-03    -76.3949E+06    -205.725E+06    -48.2434E+06     319.473E+03    -108.474E-03     215.445E-03    -106.971E-03     63.7834E-03    -108.720E-03     214.829E-03    -106.803E-03     62.2304E-03
            1903     3.23545E-03     34.3153E-03     -81.847E+06    -215.779E+06    -61.1399E+06     290.070E+03    -107.822E-03     214.619E-03    -106.797E-03     51.4050E-03    -107.971E-03     213.889E-03    -106.671E-03     50.2197E-03
            1904     2.42719E-03     34.2609E-03    -86.5073E+06    -224.754E+06    -73.4828E+06     84.4961E+03    -107.340E-03     213.963E-03    -106.623E-03     38.8499E-03    -107.418E-03     213.149E-03    -106.539E-03     37.9885E-03
            1905     1.61827E-03     34.2254E-03    -90.5034E+06    -232.126E+06    -83.9117E+06     181.046E+03    -106.745E-03     213.234E-03    -106.489E-03     26.2618E-03    -106.774E-03     212.361E-03    -106.440E-03     25.7002E-03
            1906     809.266E-06     34.1999E-03    -93.4219E+06    -236.910E+06    -91.7380E+06     158.401E+03    -106.557E-03     212.913E-03    -106.356E-03     14.3421E-03    -106.558E-03     212.009E-03    -106.335E-03     14.0414E-03
            1907     15.3206E-03     35.3594E-03    -4.99183E+06     124.202E+06     99.8167E+06    -216.074E+03    -111.145E-03     220.974E-03    -109.828E-03     91.5643E-03    -115.613E-03     225.576E-03    -109.502E-03     86.0256E-03
            1908     14.5258E-03     35.1857E-03    -11.5117E+06     125.565E+06     102.890E+06    -2.06232E+03    -112.540E-03     222.234E-03    -109.694E-03     158.298E-03    -119.836E-03     229.637E-03    -109.345E-03     150.297E-03
            1909     13.7157E-03     35.0107E-03    -18.2985E+06     115.420E+06     94.2791E+06     268.425E+03    -114.209E-03     223.689E-03    -109.480E-03     177.055E-03    -121.792E-03     231.343E-03    -109.149E-03     168.070E-03
            1910     12.9148E-03     34.7954E-03    -24.6442E+06     104.741E+06     71.1810E+06    -144.801E+03    -115.675E-03     224.856E-03    -109.181E-03     195.207E-03    -123.256E-03     232.515E-03    -108.941E-03     185.588E-03
            1911     12.1084E-03     34.5795E-03    -29.5453E+06     88.3080E+06     38.6742E+06    -92.4423E+03    -115.838E-03     224.677E-03    -108.839E-03     186.728E-03    -122.015E-03     230.950E-03    -108.731E-03     177.705E-03
            1912     11.3045E-03     34.3815E-03    -33.2462E+06     41.9893E+06     19.7487E+06     369.626E+03    -115.629E-03     224.216E-03    -108.587E-03     168.328E-03    -120.174E-03     228.735E-03    -108.501E-03     160.431E-03
            1913     10.4992E-03     34.2041E-03    -36.9825E+06    -21.7586E+06     11.9947E+06     659.443E+03    -115.129E-03     223.521E-03    -108.391E-03     153.448E-03    -118.476E-03     226.624E-03    -108.246E-03     146.633E-03
            1914     9.69492E-03     34.0378E-03    -41.0731E+06    -68.6128E+06     5.23550E+06     724.560E+03    -114.589E-03     222.757E-03    -108.168E-03     142.608E-03    -117.104E-03     224.867E-03    -107.983E-03     136.746E-03
            1915     8.88867E-03     33.8827E-03    -45.2792E+06    -103.370E+06     529.910E+03     609.210E+03    -113.990E-03     221.920E-03    -107.930E-03     132.319E-03    -115.887E-03     223.288E-03    -107.712E-03     127.299E-03
            1916     8.08336E-03     33.7378E-03    -49.5746E+06    -129.859E+06    -4.04369E+06     384.357E+03    -113.126E-03     220.801E-03    -107.675E-03     121.424E-03    -114.539E-03     221.589E-03    -107.435E-03     117.173E-03
            1917     7.27692E-03     33.6058E-03    -54.4001E+06    -150.536E+06    -8.77404E+06     405.461E+03    -112.108E-03     219.525E-03    -107.417E-03     110.157E-03    -113.150E-03     219.865E-03    -107.164E-03     106.593E-03
            1918     6.46987E-03     33.4862E-03    -59.7537E+06    -168.842E+06    -15.5971E+06     463.612E+03    -111.012E-03     218.172E-03    -107.160E-03     98.5715E-03    -111.767E-03     218.161E-03    -106.907E-03     95.6197E-03
            1919     5.66265E-03     33.3801E-03    -65.1135E+06    -181.928E+06    -24.8574E+06     470.533E+03    -109.962E-03     216.866E-03    -106.905E-03     86.9654E-03    -110.499E-03     216.598E-03    -106.671E-03     84.5495E-03
            1920     4.85466E-03     33.2862E-03    -70.7030E+06    -193.198E+06    -36.4885E+06     441.336E+03    -108.975E-03     215.633E-03    -106.658E-03     74.9552E-03    -109.345E-03     215.172E-03    -106.458E-03     73.0068E-03
            1921     4.04608E-03     33.2079E-03    -76.2960E+06    -205.424E+06    -48.2585E+06     451.535E+03    -108.163E-03     214.591E-03    -106.428E-03     62.8420E-03    -108.404E-03     213.972E-03    -106.261E-03     61.3089E-03
            1922     3.23797E-03     33.1409E-03    -81.6896E+06    -215.361E+06    -60.9296E+06     365.372E+03    -107.442E-03     213.641E-03    -106.199E-03     50.6670E-03    -107.589E-03     212.910E-03    -106.073E-03     49.4968E-03
            1923     2.42871E-03     33.0904E-03    -86.7936E+06    -224.844E+06    -73.7036E+06     365.602E+03    -106.602E-03     212.616E-03    -106.013E-03     38.2562E-03    -106.680E-03     211.800E-03    -105.930E-03     37.4124E-03
            1924     1.61933E-03     33.0521E-03    -90.7808E+06    -232.149E+06    -84.2132E+06     232.254E+03    -106.061E-03     211.988E-03    -105.927E-03     25.9680E-03    -106.091E-03     211.116E-03    -105.880E-03     25.4162E-03
            1925     809.169E-06     33.0312E-03    -93.1361E+06    -236.128E+06    -91.0310E+06     70.3019E+03    -106.001E-03     211.849E-03    -105.848E-03     14.0631E-03    -106.003E-03     210.947E-03    -105.826E-03     13.7641E-03
            1926     15.3316E-03     34.1722E-03    -5.38752E+06     124.095E+06     99.9098E+06     467.271E+03    -111.849E-03     221.646E-03    -109.796E-03     90.9632E-03    -116.287E-03     226.215E-03    -109.469E-03     85.4053E-03
            1927     14.5193E-03     34.0029E-03    -11.9594E+06     125.076E+06     102.576E+06     341.437E+03    -112.846E-03     222.477E-03    -109.631E-03     157.974E-03    -120.115E-03     229.850E-03    -109.282E-03     149.949E-03
            1928     13.7208E-03     33.8249E-03    -18.2632E+06     115.386E+06     94.3966E+06    -181.446E+03    -114.461E-03     223.856E-03    -109.396E-03     176.111E-03    -122.001E-03     231.467E-03    -109.064E-03     167.102E-03
            1929     12.9140E-03     33.6136E-03    -24.1418E+06     105.429E+06     71.6114E+06    -161.490E+03    -116.130E-03     225.193E-03    -109.063E-03     193.583E-03    -123.654E-03     232.798E-03    -108.823E-03     183.940E-03
            1930     12.1114E-03     33.3961E-03    -29.4428E+06     87.8084E+06     38.4667E+06    -277.546E+03    -116.574E-03     225.238E-03    -108.663E-03     185.332E-03    -122.720E-03     231.479E-03    -108.556E-03     176.256E-03
            1931     11.3068E-03     33.2001E-03    -33.9303E+06     41.7237E+06     19.4992E+06     282.582E+03    -116.006E-03     224.357E-03    -108.351E-03     166.712E-03    -120.519E-03     228.841E-03    -108.265E-03     158.811E-03
            1932     10.5030E-03     33.0227E-03    -37.8575E+06    -21.5242E+06     11.2908E+06     609.505E+03    -115.325E-03     223.428E-03    -108.104E-03     151.842E-03    -118.644E-03     226.504E-03    -107.961E-03     145.043E-03
            1933     9.69723E-03     32.8586E-03    -41.3098E+06    -69.1318E+06     4.64202E+06     517.754E+03    -114.806E-03     222.637E-03    -107.831E-03     141.259E-03    -117.298E-03     224.723E-03    -107.648E-03     135.408E-03
            1934     8.89283E-03     32.7033E-03    -44.9471E+06    -102.699E+06     889.456E+03     761.371E+03    -114.076E-03     221.618E-03    -107.543E-03     130.951E-03    -115.953E-03     222.969E-03    -107.324E-03     125.956E-03
            1935     8.08669E-03     32.5608E-03    -49.6185E+06    -129.264E+06    -3.98773E+06     609.215E+03    -113.030E-03     220.270E-03    -107.240E-03     120.062E-03    -114.427E-03     221.044E-03    -107.001E-03     115.844E-03
            1936     7.28019E-03     32.4293E-03    -54.6022E+06    -150.557E+06    -9.04836E+06     341.207E+03    -111.849E-03     218.793E-03    -106.945E-03     108.770E-03    -112.877E-03     219.119E-03    -106.692E-03     105.241E-03
            1937     6.47333E-03     32.3112E-03    -59.5899E+06    -168.843E+06    -15.9561E+06     280.206E+03    -110.721E-03     217.374E-03    -106.653E-03     97.1932E-03    -111.462E-03     217.351E-03    -106.402E-03     94.2712E-03
            1938     5.66560E-03     32.2058E-03    -65.1444E+06    -182.303E+06    -25.5079E+06     207.857E+03    -109.622E-03     215.982E-03    -106.360E-03     85.6562E-03    -110.149E-03     215.704E-03    -106.129E-03     83.2646E-03
            1939     4.85733E-03     32.1136E-03    -70.7224E+06    -192.926E+06    -36.6939E+06     390.193E+03    -108.591E-03     214.666E-03    -106.075E-03     73.6572E-03    -108.954E-03     214.200E-03    -105.876E-03     71.7327E-03
            1940     4.04906E-03     32.0350E-03    -76.4403E+06    -205.164E+06    -48.6484E+06     555.497E+03    -107.694E-03     213.498E-03    -105.805E-03     61.8522E-03    -107.931E-03     212.877E-03    -105.640E-03     60.3417E-03
            1941     3.23967E-03     31.9698E-03    -81.9188E+06    -215.548E+06    -61.3876E+06     399.518E+03    -106.736E-03     212.299E-03    -105.563E-03     49.8351E-03    -106.880E-03     211.565E-03    -105.439E-03     48.6835E-03
            1942     2.43027E-03     31.9194E-03    -86.6892E+06    -224.476E+06    -73.4298E+06     484.333E+03    -105.929E-03     211.321E-03    -105.392E-03     37.6470E-03    -106.005E-03     210.505E-03    -105.308E-03     36.8200E-03
            1943     1.61978E-03     31.8830E-03    -90.4278E+06    -231.510E+06    -83.9111E+06     391.134E+03    -105.533E-03     210.814E-03    -105.281E-03     25.6486E-03    -105.562E-03     209.943E-03    -105.234E-03     25.1076E-03
            1944     810.644E-06     31.8590E-03    -92.9100E+06    -235.967E+06    -91.4245E+06    -115.081E+03    -105.475E-03     210.494E-03    -105.018E-03     14.0772E-03    -105.475E-03     209.593E-03    -104.999E-03     13.7829E-03
            1945     15.3235E-03     32.9918E-03    -5.77730E+06     123.654E+06     99.6109E+06     502.574E+03    -112.831E-03     222.594E-03    -109.763E-03     91.8473E-03    -117.294E-03     227.187E-03    -109.436E-03     86.1868E-03
            1946     14.5269E-03     32.8152E-03    -11.0998E+06     125.831E+06     103.570E+06     433.143E+03    -113.618E-03     223.167E-03    -109.549E-03     157.197E-03    -120.853E-03     230.509E-03    -109.198E-03     149.093E-03
            1947     13.7190E-03     32.6424E-03    -17.2586E+06     116.105E+06     95.1442E+06     241.884E+03    -114.893E-03     224.161E-03    -109.268E-03     174.311E-03    -122.343E-03     231.687E-03    -108.936E-03     165.289E-03
            1948     12.9178E-03     32.4285E-03    -24.2405E+06     105.102E+06     71.2280E+06    -327.128E+03    -116.724E-03     225.610E-03    -108.886E-03     192.094E-03    -124.198E-03     233.164E-03    -108.647E-03     182.406E-03
            1949     12.1137E-03     32.2137E-03    -29.5092E+06     87.4771E+06     37.8876E+06     179.599E+03    -117.063E-03     225.492E-03    -108.429E-03     183.669E-03    -123.169E-03     231.694E-03    -108.324E-03     174.576E-03
            1950     11.3106E-03     32.0176E-03    -33.7540E+06     41.1502E+06     19.0908E+06     511.751E+03    -116.219E-03     224.286E-03    -108.067E-03     165.154E-03    -120.692E-03     228.730E-03    -107.982E-03     157.271E-03
            1951     10.5056E-03     31.8428E-03    -37.3083E+06    -20.9157E+06     11.5599E+06     370.599E+03    -115.535E-03     223.309E-03    -107.774E-03     150.417E-03    -118.824E-03     226.358E-03    -107.632E-03     143.631E-03
            1952     9.70190E-03     31.6784E-03    -41.1012E+06    -69.1151E+06     4.58142E+06     357.377E+03    -114.949E-03     222.400E-03    -107.451E-03     139.765E-03    -117.416E-03     224.462E-03    -107.268E-03     133.933E-03
            1953     8.89604E-03     31.5254E-03    -45.2592E+06    -102.958E+06     648.556E+03     679.909E+03    -114.040E-03     221.155E-03    -107.115E-03     129.417E-03    -115.895E-03     222.481E-03    -106.896E-03     124.453E-03
            1954     8.09055E-03     31.3834E-03    -49.3129E+06    -128.695E+06    -3.95388E+06     629.393E+03    -112.931E-03     219.697E-03    -106.766E-03     118.449E-03    -114.308E-03     220.454E-03    -106.528E-03     114.264E-03
            1955     7.28429E-03     31.2540E-03    -53.8905E+06    -150.229E+06    -8.75925E+06     444.486E+03    -111.683E-03     218.106E-03    -106.423E-03     107.176E-03    -112.692E-03     218.416E-03    -106.171E-03     103.682E-03
            1956     6.47679E-03     31.1370E-03    -59.3032E+06    -168.415E+06    -15.9185E+06     408.478E+03    -110.450E-03     216.533E-03    -106.083E-03     95.7123E-03    -111.178E-03     216.498E-03    -105.832E-03     92.8253E-03
            1957     5.66912E-03     31.0327E-03    -65.0020E+06    -182.044E+06    -25.4434E+06     471.970E+03    -109.270E-03     215.013E-03    -105.743E-03     84.1129E-03    -109.786E-03     214.726E-03    -105.512E-03     81.7546E-03
            1958     4.86089E-03     30.9417E-03    -71.0452E+06    -193.263E+06    -36.9472E+06     504.263E+03    -108.097E-03     213.513E-03    -105.416E-03     72.4760E-03    -108.453E-03     213.038E-03    -105.218E-03     70.5848E-03
            1959     4.05156E-03     30.8640E-03    -76.5478E+06    -205.364E+06    -48.8711E+06     467.871E+03    -106.970E-03     212.100E-03    -105.130E-03     60.8404E-03    -107.203E-03     211.473E-03    -104.965E-03     59.3540E-03
            1960     3.24213E-03     30.8002E-03    -81.7469E+06    -215.209E+06    -61.2597E+06     446.864E+03    -105.988E-03     210.885E-03    -104.897E-03     48.8859E-03    -106.128E-03     210.149E-03    -104.773E-03     47.7566E-03
            1961     2.43149E-03     30.7505E-03    -86.5528E+06    -224.087E+06    -73.4245E+06     266.236E+03    -105.411E-03     210.113E-03    -104.702E-03     37.0014E-03    -105.485E-03     209.297E-03    -104.618E-03     36.1841E-03
            1962     1.62193E-03     30.7137E-03    -90.2770E+06    -231.081E+06    -83.8239E+06     176.947E+03    -104.901E-03     209.428E-03    -104.528E-03     25.0771E-03    -104.928E-03     208.558E-03    -104.481E-03     24.5422E-03
            1963     810.249E-06     30.6917E-03    -92.7196E+06    -235.708E+06    -91.0563E+06     464.985E+03    -104.549E-03     208.922E-03    -104.373E-03     13.8429E-03    -104.549E-03     208.021E-03    -104.352E-03     13.5672E-03
            1964     15.3305E-03     31.8001E-03    -5.07861E+06     123.827E+06     99.9918E+06     529.141E+03    -114.008E-03     223.738E-03    -109.730E-03     91.4075E-03    -118.461E-03     228.322E-03    -109.402E-03     85.6229E-03
            1965     14.5236E-03     31.6318E-03    -10.6979E+06     125.934E+06     103.762E+06     252.208E+03    -114.804E-03     224.249E-03    -109.445E-03     155.646E-03    -121.991E-03     231.544E-03    -109.093E-03     147.416E-03
            1966     13.7245E-03     31.4564E-03    -16.7558E+06     116.317E+06     95.4615E+06     275.094E+03    -115.591E-03     224.689E-03    -109.098E-03     173.069E-03    -122.987E-03     232.162E-03    -108.765E-03     164.000E-03
            1967     12.9199E-03     31.2457E-03    -22.7491E+06     105.343E+06     71.9875E+06     732.902E+03    -117.212E-03     225.878E-03    -108.666E-03     191.253E-03    -124.645E-03     233.395E-03    -108.425E-03     181.549E-03
            1968     12.1176E-03     31.0291E-03    -28.7578E+06     87.1261E+06     38.1377E+06     835.451E+03    -117.316E-03     225.481E-03    -108.164E-03     182.347E-03    -123.369E-03     231.630E-03    -108.058E-03     173.272E-03
            1969     11.3136E-03     30.8370E-03    -33.0673E+06     41.8540E+06     19.4660E+06     569.777E+03    -116.503E-03     224.260E-03    -107.757E-03     163.743E-03    -120.936E-03     228.668E-03    -107.672E-03     155.872E-03
            1970     10.5102E-03     30.6612E-03    -37.0536E+06    -20.7786E+06     11.6400E+06     594.571E+03    -115.807E-03     223.219E-03    -107.412E-03     148.989E-03    -119.064E-03     226.237E-03    -107.270E-03     142.223E-03
            1971     9.70514E-03     30.4997E-03    -41.1889E+06    -68.8415E+06     4.56670E+06     710.004E+03    -115.069E-03     222.102E-03    -107.033E-03     138.144E-03    -117.506E-03     224.136E-03    -106.851E-03     132.346E-03
            1972     8.90073E-03     30.3473E-03    -45.0366E+06    -102.995E+06     257.483E+03     480.537E+03    -114.039E-03     220.682E-03    -106.642E-03     127.646E-03    -115.866E-03     221.982E-03    -106.426E-03     122.714E-03
            1973     8.09480E-03     30.2074E-03    -49.2161E+06    -128.559E+06    -4.07911E+06     356.982E+03    -112.794E-03     219.039E-03    -106.244E-03     116.692E-03    -114.148E-03     219.773E-03    -106.007E-03     112.543E-03
            1974     7.28808E-03     30.0791E-03    -53.9857E+06    -149.611E+06    -8.58792E+06     704.977E+03    -111.534E-03     217.383E-03    -105.849E-03     105.448E-03    -112.526E-03     217.678E-03    -105.597E-03     101.993E-03
            1975     6.48120E-03     29.9638E-03    -59.4191E+06    -168.335E+06    -15.8693E+06     651.412E+03    -110.184E-03     215.636E-03    -105.452E-03     94.0368E-03    -110.898E-03     215.587E-03    -105.201E-03     91.1876E-03
            1976     5.67313E-03     29.8607E-03    -65.2192E+06    -182.010E+06    -25.5367E+06     688.771E+03    -108.765E-03     213.832E-03    -105.067E-03     82.6685E-03    -109.270E-03     213.534E-03    -104.837E-03     80.3509E-03
            1977     4.86408E-03     29.7713E-03    -70.7772E+06    -193.078E+06    -36.9953E+06     742.273E+03    -107.442E-03     212.158E-03    -104.715E-03     71.2344E-03    -107.790E-03     211.675E-03    -104.517E-03     69.3794E-03
            1978     4.05469E-03     29.6947E-03    -76.6200E+06    -205.339E+06    -49.0493E+06     401.935E+03    -106.275E-03     210.690E-03    -104.415E-03     59.6608E-03    -106.503E-03     210.059E-03    -104.252E-03     58.2006E-03
            1979     3.24401E-03     29.6323E-03    -82.0300E+06    -214.850E+06    -61.1208E+06     419.135E+03    -105.416E-03     209.569E-03    -104.153E-03     47.9079E-03    -105.556E-03     208.832E-03    -104.028E-03     46.7976E-03
            1980     2.43394E-03     29.5825E-03    -86.5405E+06    -223.678E+06    -73.5371E+06     276.579E+03    -104.703E-03     208.617E-03    -103.914E-03     36.2208E-03    -104.775E-03     207.801E-03    -103.832E-03     35.4186E-03
            1981     1.62242E-03     29.5468E-03    -90.4375E+06    -230.865E+06    -84.0018E+06     34.1649E+03    -104.186E-03     207.878E-03    -103.692E-03     24.4841E-03    -104.214E-03     207.009E-03    -103.646E-03     23.9577E-03
            1982     811.964E-06     29.5257E-03    -93.2486E+06    -235.558E+06    -91.1656E+06     229.142E+03    -103.810E-03     207.179E-03    -103.370E-03     13.0124E-03    -103.812E-03     206.280E-03    -103.349E-03     12.7400E-03
            1983     15.3259E-03     30.6157E-03    -5.09197E+06     123.488E+06     99.7888E+06     192.558E+03    -114.868E-03     224.510E-03    -109.642E-03     90.1003E-03    -119.262E-03     229.035E-03    -109.315E-03     84.2854E-03
            1984     14.5292E-03     30.4405E-03    -11.1220E+06     125.245E+06     102.995E+06    -378.958E+03    -114.956E-03     224.277E-03    -109.322E-03     154.422E-03    -122.088E-03     231.516E-03    -108.972E-03     146.160E-03
            1985     13.7248E-03     30.2741E-03    -17.3684E+06     115.624E+06     94.7544E+06     48.0011E+03    -116.433E-03     225.370E-03    -108.937E-03     172.588E-03    -123.811E-03     232.822E-03    -108.605E-03     163.433E-03
            1986     12.9235E-03     30.0586E-03    -23.6858E+06     104.611E+06     72.1358E+06     800.805E+03    -117.901E-03     226.352E-03    -108.451E-03     190.796E-03    -125.295E-03     233.824E-03    -108.207E-03     181.057E-03
            1987     12.1205E-03     29.8479E-03    -28.4454E+06     87.5941E+06     39.2953E+06     1.10273E+06    -117.807E-03     225.701E-03    -107.894E-03     180.961E-03    -123.804E-03     231.794E-03    -107.783E-03     171.890E-03
            1988     11.3176E-03     29.6534E-03    -32.8684E+06     42.4279E+06     19.8116E+06     1.13492E+06    -116.947E-03     224.370E-03    -107.422E-03     162.126E-03    -121.334E-03     228.733E-03    -107.337E-03     154.273E-03
            1989     10.5138E-03     29.4819E-03    -36.9635E+06    -20.3132E+06     11.4256E+06     1.10663E+06    -116.076E-03     223.089E-03    -107.013E-03     147.143E-03    -119.293E-03     226.069E-03    -106.873E-03     140.406E-03
            1990     9.71016E-03     29.3198E-03    -40.5584E+06    -68.6407E+06     4.31925E+06     820.447E+03    -115.181E-03     221.757E-03    -106.576E-03     136.276E-03    -117.582E-03     223.757E-03    -106.396E-03     130.513E-03
            1991     8.90499E-03     29.1704E-03    -44.6098E+06    -102.411E+06     491.955E+03     686.501E+03    -114.015E-03     220.145E-03    -106.131E-03     125.728E-03    -115.812E-03     221.419E-03    -105.915E-03     120.837E-03
            1992     8.09933E-03     29.0316E-03    -49.4429E+06    -127.956E+06    -4.25747E+06     751.097E+03    -112.707E-03     218.382E-03    -105.675E-03     114.854E-03    -114.040E-03     219.097E-03    -105.439E-03     110.749E-03
            1993     7.29303E-03     28.9054E-03    -54.5418E+06    -149.876E+06    -9.29796E+06     659.323E+03    -111.304E-03     216.526E-03    -105.222E-03     103.636E-03    -112.279E-03     216.802E-03    -104.972E-03     100.220E-03
            1994     6.48548E-03     28.7912E-03    -59.6544E+06    -168.486E+06    -16.0539E+06     758.271E+03    -109.755E-03     214.534E-03    -104.779E-03     92.3011E-03    -110.454E-03     214.470E-03    -104.528E-03     89.4958E-03
            1995     5.67706E-03     28.6908E-03    -64.9729E+06    -181.813E+06    -25.5363E+06     630.822E+03    -108.209E-03     212.567E-03    -104.358E-03     81.1430E-03    -108.703E-03     212.258E-03    -104.127E-03     78.8614E-03
            1996     4.86785E-03     28.6020E-03    -70.6868E+06    -192.688E+06    -36.8208E+06     725.295E+03    -106.828E-03     210.804E-03    -103.975E-03     69.7926E-03    -107.168E-03     210.315E-03    -103.778E-03     67.9689E-03
            1997     4.05747E-03     28.5277E-03    -76.4858E+06    -204.559E+06    -48.7361E+06     878.018E+03    -105.714E-03     209.348E-03    -103.634E-03     58.3351E-03    -105.936E-03     208.713E-03    -103.470E-03     56.9079E-03
            1998     3.24727E-03     28.4651E-03    -82.0002E+06    -214.521E+06    -61.4928E+06     401.325E+03    -104.731E-03     208.052E-03    -103.321E-03     46.8745E-03    -104.867E-03     207.314E-03    -103.199E-03     45.7848E-03
            1999     2.43584E-03     28.4169E-03    -86.8131E+06    -223.501E+06    -73.4432E+06     272.584E+03    -103.873E-03     206.929E-03    -103.056E-03     35.3570E-03    -103.945E-03     206.113E-03    -102.973E-03     34.5724E-03
            2000     1.62428E-03     28.3823E-03    -90.7475E+06    -230.570E+06    -84.1700E+06     502.895E+03    -103.202E-03     206.062E-03    -102.861E-03     24.1003E-03    -103.230E-03     205.194E-03    -102.815E-03     23.5924E-03
            2001     812.382E-06     28.3592E-03    -93.2375E+06    -235.298E+06    -91.8200E+06    -68.7129E+03    -102.790E-03     205.590E-03    -102.800E-03     13.1276E-03    -102.791E-03     204.692E-03    -102.783E-03     12.8495E-03
            2002     15.3355E-03     29.4275E-03    -4.47444E+06     123.959E+06     100.370E+06     207.048E+03    -115.865E-03     225.456E-03    -109.591E-03     90.2465E-03    -120.241E-03     229.965E-03    -109.262E-03     84.3647E-03
            2003     14.5272E-03     29.2570E-03    -10.6345E+06     125.661E+06     103.354E+06     189.133E+03    -115.661E-03     224.885E-03    -109.224E-03     155.152E-03    -122.753E-03     232.086E-03    -108.874E-03     146.831E-03
            2004     13.7275E-03     29.0843E-03    -18.1542E+06     114.724E+06     94.0894E+06     358.495E+03    -117.299E-03     226.087E-03    -108.787E-03     171.516E-03    -124.622E-03     233.479E-03    -108.457E-03     162.289E-03
            2005     12.9257E-03     28.8758E-03    -24.2318E+06     104.422E+06     71.5579E+06     346.161E+03    -118.865E-03     227.093E-03    -108.227E-03     188.850E-03    -126.192E-03     234.496E-03    -107.986E-03     179.045E-03
            2006     12.1240E-03     28.6620E-03    -29.4526E+06     86.9925E+06     38.7974E+06     470.297E+03    -118.477E-03     226.071E-03    -107.594E-03     178.913E-03    -124.408E-03     232.093E-03    -107.483E-03     169.824E-03
            2007     11.3218E-03     28.4728E-03    -33.1549E+06     42.3864E+06     19.7722E+06     1.23155E+06    -117.361E-03     224.413E-03    -107.052E-03     160.070E-03    -121.694E-03     228.722E-03    -106.967E-03     152.233E-03
            2008     10.5188E-03     28.3002E-03    -36.7524E+06    -19.3448E+06     11.3955E+06     1.35102E+06    -116.297E-03     222.875E-03    -106.578E-03     145.222E-03    -119.471E-03     225.817E-03    -106.440E-03     138.519E-03
            2009     9.71466E-03     28.1421E-03    -41.0056E+06    -68.0126E+06     4.05420E+06     1.09063E+06    -115.251E-03     221.333E-03    -106.083E-03     134.325E-03    -117.621E-03     223.305E-03    -105.904E-03     128.602E-03
            2010     8.91001E-03     27.9932E-03    -45.3523E+06    -102.112E+06    -79.5711E+03     982.986E+03    -113.993E-03     219.572E-03    -105.579E-03     123.714E-03    -115.763E-03     220.819E-03    -105.366E-03     118.870E-03
            2011     8.10441E-03     27.8571E-03    -49.5782E+06    -127.603E+06    -4.62570E+06     932.642E+03    -112.567E-03     217.632E-03    -105.065E-03     112.894E-03    -113.877E-03     218.326E-03    -104.831E-03     108.832E-03
            2012     7.29772E-03     27.7320E-03    -54.1413E+06    -149.763E+06    -9.59947E+06     738.551E+03    -110.901E-03     215.465E-03    -104.564E-03     101.790E-03    -111.855E-03     215.723E-03    -104.316E-03     98.4217E-03
            2013     6.49007E-03     27.6209E-03    -59.2729E+06    -168.351E+06    -15.9062E+06     709.482E+03    -109.260E-03     213.346E-03    -104.087E-03     90.6513E-03    -109.942E-03     213.267E-03    -103.836E-03     87.8890E-03
            2014     5.68135E-03     27.5212E-03    -65.0890E+06    -181.539E+06    -25.4495E+06     820.152E+03    -107.750E-03     211.374E-03    -103.624E-03     79.4880E-03    -108.234E-03     211.056E-03    -103.393E-03     77.2430E-03
            2015     4.87150E-03     27.4354E-03    -70.9330E+06    -192.578E+06    -36.9507E+06     938.382E+03    -106.343E-03     209.529E-03    -103.186E-03     68.2633E-03    -106.675E-03     209.033E-03    -102.989E-03     66.4734E-03
            2016     4.06133E-03     27.3610E-03    -76.4016E+06    -204.086E+06    -48.8139E+06     853.364E+03    -105.046E-03     207.838E-03    -102.792E-03     57.0444E-03    -105.263E-03     207.201E-03    -102.630E-03     55.6443E-03
            2017     3.24992E-03     27.3007E-03    -81.6904E+06    -213.709E+06    -61.6508E+06     730.711E+03    -103.849E-03     206.305E-03    -102.456E-03     45.8631E-03    -103.980E-03     205.566E-03    -102.336E-03     44.8021E-03
            2018     2.43789E-03     27.2534E-03    -86.7477E+06    -223.252E+06    -74.0685E+06     641.511E+03    -102.940E-03     205.141E-03    -102.201E-03     34.8215E-03    -103.010E-03     204.325E-03    -102.122E-03     34.0587E-03
            2019     1.62585E-03     27.2185E-03    -90.5006E+06    -230.347E+06    -84.5267E+06     380.903E+03    -102.178E-03     204.257E-03    -102.079E-03     23.5873E-03    -102.205E-03     203.389E-03    -102.036E-03     23.0878E-03
            2020     811.784E-06     27.1996E-03    -92.5908E+06    -234.405E+06    -91.3255E+06     407.343E+03    -102.068E-03     204.150E-03    -102.082E-03     13.1212E-03    -102.068E-03     203.254E-03    -102.064E-03     12.8575E-03
            2021     15.3246E-03     28.2375E-03    -5.15118E+06     123.208E+06     99.3263E+06     71.0343E+03    -116.731E-03     226.317E-03    -109.585E-03     89.0804E-03    -121.071E-03     230.787E-03    -109.260E-03     83.0676E-03
            2022     14.5313E-03     28.0670E-03    -11.0334E+06     125.343E+06     103.086E+06     682.445E+03    -117.584E-03     226.723E-03    -109.139E-03     153.330E-03    -124.606E-03     233.852E-03    -108.790E-03     144.825E-03
            2023     13.7293E-03     27.8987E-03    -17.3563E+06     115.244E+06     94.6846E+06     644.215E+03    -118.502E-03     227.103E-03    -108.602E-03     169.536E-03    -125.734E-03     234.409E-03    -108.270E-03     160.222E-03
            2024     12.9294E-03     27.6872E-03    -23.8107E+06     104.309E+06     71.4897E+06     496.312E+03    -119.592E-03     227.551E-03    -107.959E-03     186.328E-03    -126.825E-03     234.863E-03    -107.718E-03     176.493E-03
            2025     12.1287E-03     27.4797E-03    -29.1709E+06     86.6235E+06     37.8290E+06     845.602E+03    -118.993E-03     226.244E-03    -107.251E-03     176.603E-03    -124.850E-03     232.195E-03    -107.145E-03     167.519E-03
            2026     11.3263E-03     27.2890E-03    -33.8357E+06     42.0811E+06     18.4626E+06     1.06036E+06    -117.636E-03     224.282E-03    -106.646E-03     158.042E-03    -121.915E-03     228.537E-03    -106.566E-03     150.232E-03
            2027     10.5234E-03     27.1213E-03    -37.8612E+06    -19.1234E+06     10.6705E+06     1.25015E+06    -116.470E-03     222.587E-03    -106.117E-03     143.295E-03    -119.609E-03     225.493E-03    -105.981E-03     136.624E-03
            2028     9.71982E-03     26.9629E-03    -41.4837E+06    -67.0747E+06     3.82699E+06     1.29711E+06    -115.306E-03     220.870E-03    -105.563E-03     132.232E-03    -117.645E-03     222.812E-03    -105.387E-03     126.552E-03
            2029     8.91523E-03     26.8178E-03    -45.2012E+06    -101.282E+06    -351.415E+03     1.05878E+06    -113.901E-03     218.904E-03    -105.003E-03     121.818E-03    -115.644E-03     220.127E-03    -104.792E-03     117.019E-03
            2030     8.10957E-03     26.6824E-03    -49.3218E+06    -127.789E+06    -5.13455E+06     784.710E+03    -112.267E-03     216.708E-03    -104.441E-03     111.069E-03    -113.551E-03     217.377E-03    -104.210E-03     107.056E-03
            2031     7.30276E-03     26.5611E-03    -54.0183E+06    -149.300E+06    -9.49926E+06     952.949E+03    -110.500E-03     214.401E-03    -103.901E-03     99.9359E-03    -111.434E-03     214.641E-03    -103.654E-03     96.6177E-03
            2032     6.49447E-03     26.4508E-03    -59.5698E+06    -167.991E+06    -16.3656E+06     1.02017E+06    -108.834E-03     212.214E-03    -103.380E-03     88.9156E-03    -109.504E-03     212.124E-03    -103.132E-03     86.1956E-03
            2033     5.68550E-03     26.3539E-03    -65.2483E+06    -181.439E+06    -25.6731E+06     1.02970E+06    -107.287E-03     210.158E-03    -102.871E-03     77.8467E-03    -107.759E-03     209.829E-03    -102.642E-03     75.6432E-03
            2034     4.87580E-03     26.2690E-03    -70.8143E+06    -192.227E+06    -37.1047E+06     1.02577E+06    -105.794E-03     208.177E-03    -102.382E-03     66.9120E-03    -106.119E-03     207.675E-03    -102.187E-03     65.1535E-03
            2035     4.06473E-03     26.1970E-03    -76.4196E+06    -203.890E+06    -49.1614E+06     868.273E+03    -104.277E-03     206.229E-03    -101.953E-03     55.8054E-03    -104.488E-03     205.588E-03    -101.792E-03     54.4327E-03
            2036     3.25266E-03     26.1383E-03    -81.7151E+06    -213.274E+06    -61.6847E+06     1.05702E+06    -102.984E-03     204.590E-03    -101.606E-03     44.9103E-03    -103.113E-03     203.850E-03    -101.487E-03     43.8774E-03
            2037     2.44023E-03     26.0913E-03    -86.3496E+06    -222.772E+06    -74.3012E+06     867.823E+03    -102.028E-03     203.385E-03    -101.358E-03     33.9557E-03    -102.094E-03     202.569E-03    -101.281E-03     33.2125E-03
            2038     1.62615E-03     26.0589E-03    -89.9454E+06    -229.458E+06    -84.0452E+06     552.907E+03    -101.519E-03     202.705E-03    -101.187E-03     22.8387E-03    -101.543E-03     201.840E-03    -101.144E-03     22.3511E-03
            2039     814.278E-06     26.0366E-03    -93.3183E+06    -233.940E+06    -91.1269E+06     939.214E+03    -101.461E-03     202.239E-03    -100.778E-03     13.0750E-03    -101.465E-03     201.346E-03    -100.759E-03     12.8333E-03
            2040     15.3346E-03     27.0448E-03    -4.98832E+06     123.105E+06     99.3144E+06     272.251E+03    -118.262E-03     227.776E-03    -109.514E-03     86.8103E-03    -122.521E-03     232.167E-03    -109.189E-03     80.7053E-03
            2041     14.5305E-03     26.8774E-03    -11.1378E+06     124.855E+06     102.652E+06    -3.93219E+03    -118.632E-03     227.618E-03    -108.987E-03     150.482E-03    -125.541E-03     234.634E-03    -108.638E-03     141.863E-03
            2042     13.7337E-03     26.7082E-03    -17.1782E+06     115.208E+06     94.8029E+06     489.992E+03    -119.416E-03     227.794E-03    -108.377E-03     167.498E-03    -126.556E-03     235.006E-03    -108.045E-03     158.122E-03
            2043     12.9336E-03     26.5026E-03    -23.5926E+06     103.764E+06     71.5590E+06     1.11234E+06    -120.153E-03     227.822E-03    -107.669E-03     184.757E-03    -127.306E-03     235.053E-03    -107.428E-03     174.922E-03
            2044     12.1325E-03     26.2932E-03    -29.3768E+06     86.5452E+06     37.3374E+06     1.52301E+06    -119.436E-03     226.334E-03    -106.898E-03     174.651E-03    -125.230E-03     232.223E-03    -106.795E-03     165.584E-03
            2045     11.3313E-03     26.1087E-03    -33.6969E+06     42.5841E+06     18.0010E+06     1.67555E+06    -117.987E-03     224.217E-03    -106.230E-03     156.025E-03    -122.214E-03     228.424E-03    -106.153E-03     148.246E-03
            2046     10.5285E-03     25.9398E-03    -37.5375E+06    -18.5541E+06     10.4678E+06     1.29875E+06    -116.584E-03     222.226E-03    -105.642E-03     141.266E-03    -119.678E-03     225.091E-03    -105.509E-03     134.636E-03
            2047     9.72517E-03     25.7861E-03    -41.0131E+06    -66.4499E+06     3.54434E+06     1.16842E+06    -115.200E-03     220.239E-03    -105.040E-03     130.429E-03    -117.500E-03     222.148E-03    -104.866E-03     124.799E-03
            2048     8.92034E-03     25.6417E-03    -44.7555E+06    -101.120E+06    -529.556E+03     1.06622E+06    -113.729E-03     218.166E-03    -104.437E-03     120.198E-03    -115.445E-03     219.365E-03    -104.228E-03     115.443E-03
            2049     8.11448E-03     25.5100E-03    -49.1978E+06    -127.072E+06    -5.15123E+06     1.14162E+06    -112.022E-03     215.852E-03    -103.830E-03     109.106E-03    -113.282E-03     216.501E-03    -103.600E-03     105.145E-03
            2050     7.30725E-03     25.3900E-03    -54.1043E+06    -149.268E+06    -10.0023E+06     1.10713E+06    -110.220E-03     213.460E-03    -103.240E-03     98.0013E-03    -111.134E-03     213.681E-03    -102.996E-03     94.7286E-03
            2051     6.49941E-03     25.2827E-03    -59.1567E+06    -167.589E+06    -16.0401E+06     1.29833E+06    -108.436E-03     211.108E-03    -102.671E-03     87.0291E-03    -109.091E-03     211.004E-03    -102.423E-03     84.3512E-03
            2052     5.68995E-03     25.1874E-03    -64.8453E+06    -181.056E+06    -25.7420E+06     1.37919E+06    -106.679E-03     208.799E-03    -102.121E-03     76.2496E-03    -107.138E-03     208.461E-03    -101.893E-03     74.0902E-03
            2053     4.87933E-03     25.1045E-03    -70.7232E+06    -192.129E+06    -37.7124E+06     1.04621E+06    -105.026E-03     206.638E-03    -101.612E-03     65.5146E-03    -105.341E-03     206.129E-03    -101.420E-03     63.7915E-03
            2054     4.06787E-03     25.0348E-03    -76.2934E+06    -203.589E+06    -49.3310E+06     1.11099E+06    -103.563E-03     204.733E-03    -101.171E-03     54.6658E-03    -103.768E-03     204.088E-03    -101.011E-03     53.3231E-03
            2055     3.25554E-03     24.9773E-03    -81.5537E+06    -213.136E+06    -61.5435E+06     1.05735E+06    -102.327E-03     203.120E-03    -100.794E-03     43.9457E-03    -102.452E-03     202.378E-03    -100.674E-03     42.9308E-03
            2056     2.44183E-03     24.9322E-03    -86.1128E+06    -221.898E+06    -73.2535E+06     1.04279E+06    -101.417E-03     201.895E-03    -100.478E-03     33.1123E-03    -101.483E-03     201.080E-03    -100.398E-03     32.3863E-03
            2057     1.62916E-03     24.8990E-03    -90.2734E+06    -228.833E+06    -83.6607E+06     991.810E+03    -100.754E-03     200.952E-03    -100.198E-03     22.3638E-03    -100.780E-03     200.089E-03    -100.154E-03     21.8952E-03
            2058     814.004E-06     24.8788E-03    -92.6751E+06    -232.751E+06    -90.7213E+06     854.788E+03    -100.173E-03     200.140E-03    -99.9677E-03     12.7017E-03    -100.176E-03     199.251E-03    -99.9494E-03     12.4619E-03
            2059     15.3305E-03     25.8552E-03    -4.80604E+06     123.031E+06     99.5132E+06     135.625E+03    -120.091E-03     229.527E-03    -109.436E-03     87.5111E-03    -124.343E-03     233.910E-03    -109.110E-03     81.2444E-03
            2060     14.5366E-03     25.6844E-03    -10.4388E+06     125.075E+06     103.026E+06     583.570E+03    -119.699E-03     228.526E-03    -108.827E-03     150.105E-03    -126.549E-03     235.484E-03    -108.478E-03     141.388E-03
            2061     13.7359E-03     25.5206E-03    -17.5214E+06     114.275E+06     93.8941E+06     799.255E+03    -120.027E-03     228.182E-03    -108.156E-03     166.063E-03    -127.079E-03     235.306E-03    -107.826E-03     156.667E-03
            2062     12.9366E-03     25.3137E-03    -23.8843E+06     103.128E+06     71.4228E+06     1.31053E+06    -120.803E-03     228.196E-03    -107.394E-03     183.068E-03    -127.877E-03     235.346E-03    -107.152E-03     173.222E-03
            2063     12.1372E-03     25.1097E-03    -28.8420E+06     86.2291E+06     38.5725E+06     1.86452E+06    -119.966E-03     226.529E-03    -106.563E-03     172.568E-03    -125.687E-03     232.342E-03    -106.453E-03     163.515E-03
            2064     11.3356E-03     24.9252E-03    -32.9479E+06     43.4875E+06     18.7164E+06     1.99938E+06    -118.307E-03     224.133E-03    -105.826E-03     153.939E-03    -122.479E-03     228.289E-03    -105.748E-03     146.189E-03
            2065     10.5339E-03     24.7608E-03    -36.6379E+06    -17.2816E+06     10.5999E+06     1.75991E+06    -116.564E-03     221.748E-03    -105.184E-03     139.415E-03    -119.612E-03     224.573E-03    -105.052E-03     132.842E-03
            2066     9.72965E-03     24.6089E-03    -40.5028E+06    -65.9347E+06     3.50649E+06     1.41235E+06    -115.133E-03     219.672E-03    -104.539E-03     128.756E-03    -117.399E-03     221.550E-03    -104.367E-03     123.176E-03
            2067     8.92501E-03     24.4669E-03    -44.6095E+06    -100.727E+06     -694.65E+03     1.35043E+06    -113.606E-03     217.496E-03    -103.891E-03     118.137E-03    -115.291E-03     218.668E-03    -103.684E-03     113.434E-03
            2068     8.11930E-03     24.3376E-03    -48.9923E+06    -126.956E+06    -5.51929E+06     1.37879E+06    -111.797E-03     215.033E-03    -103.236E-03     107.062E-03    -113.032E-03     215.659E-03    -103.008E-03     103.148E-03
            2069     7.31244E-03     24.2204E-03    -53.7370E+06    -148.926E+06    -10.4125E+06     1.45043E+06    -109.905E-03     212.504E-03    -102.599E-03     96.1564E-03    -110.799E-03     212.709E-03    -102.357E-03     92.9303E-03
            2070     6.50374E-03     24.1154E-03    -59.2032E+06    -167.680E+06    -16.4994E+06     1.50458E+06    -107.997E-03     209.986E-03    -101.989E-03     85.3949E-03    -108.636E-03     209.867E-03    -101.742E-03     82.7629E-03
            2071     5.69409E-03     24.0226E-03    -64.7324E+06    -180.414E+06    -25.5427E+06     1.70328E+06    -106.077E-03     207.486E-03    -101.409E-03     74.6055E-03    -106.528E-03     207.140E-03    -101.181E-03     72.4862E-03
            2072     4.88303E-03     23.9422E-03    -70.4274E+06    -191.701E+06    -37.8787E+06     1.58097E+06    -104.238E-03     205.125E-03    -100.887E-03     63.9751E-03    -104.543E-03     204.610E-03    -100.696E-03     62.2971E-03
            2073     4.07069E-03     23.8739E-03    -76.0518E+06    -203.429E+06    -49.7609E+06     1.17992E+06    -102.858E-03     203.298E-03    -100.441E-03     53.5224E-03    -103.056E-03     202.649E-03    -100.284E-03     52.2070E-03
            2074     3.25767E-03     23.8180E-03    -81.3044E+06    -212.351E+06    -61.1878E+06     1.27057E+06    -101.793E-03     201.823E-03    -100.029E-03     42.8876E-03    -101.916E-03     201.080E-03    -99.9095E-03     41.8935E-03
            2075     2.44467E-03     23.7740E-03    -86.4315E+06    -221.086E+06    -73.1315E+06     1.24238E+06    -100.733E-03     200.389E-03    -99.6564E-03     32.5043E-03    -100.800E-03     199.577E-03    -99.5762E-03     31.7965E-03
            2076     1.62962E-03     23.7420E-03    -90.2009E+06    -227.805E+06    -83.4925E+06     891.811E+03    -99.9327E-03     199.274E-03    -99.3411E-03     22.0761E-03    -99.9600E-03     198.414E-03    -99.2975E-03     21.6186E-03
            2077     815.515E-06     23.7235E-03    -92.2733E+06    -231.702E+06    -90.6359E+06     120.011E+03    -99.3613E-03     198.402E-03    -99.0404E-03     11.6762E-03    -99.3636E-03     197.517E-03    -99.0238E-03     11.4278E-03
            2078     15.3338E-03     24.6553E-03    -4.77505E+06     122.540E+06     99.0461E+06    -165.254E+03    -121.281E-03     230.664E-03    -109.383E-03     85.2808E-03    -125.450E-03     234.964E-03    -109.059E-03     78.9269E-03
            2079     14.5353E-03     24.4933E-03    -11.0474E+06     124.171E+06     102.096E+06     740.974E+03    -120.781E-03     229.484E-03    -108.703E-03     147.826E-03    -127.519E-03     236.328E-03    -108.357E-03     139.029E-03
            2080     13.7389E-03     24.3297E-03    -17.4372E+06     114.171E+06     94.0081E+06     1.51610E+06    -121.092E-03     229.053E-03    -107.961E-03     164.345E-03    -128.053E-03     236.085E-03    -107.631E-03     154.898E-03
            2081     12.9407E-03     24.1264E-03    -23.7478E+06     102.911E+06     71.4917E+06     1.34795E+06    -121.536E-03     228.661E-03    -107.125E-03     180.708E-03    -128.509E-03     235.708E-03    -106.882E-03     170.848E-03
            2082     12.1406E-03     23.9240E-03    -28.9643E+06     85.6904E+06     38.1262E+06     1.60159E+06    -120.277E-03     226.508E-03    -106.230E-03     170.214E-03    -125.908E-03     232.229E-03    -106.122E-03     161.194E-03
            2083     11.3407E-03     23.7427E-03    -32.8315E+06     43.6229E+06     18.4555E+06     2.09325E+06    -118.318E-03     223.767E-03    -105.449E-03     151.877E-03    -122.425E-03     227.859E-03    -105.372E-03     144.186E-03
            2084     10.5375E-03     23.5822E-03    -36.6005E+06    -16.2171E+06     10.5286E+06     2.12458E+06    -116.729E-03     221.491E-03    -104.761E-03     137.480E-03    -119.737E-03     224.281E-03    -104.632E-03     130.946E-03
            2085     9.73454E-03     23.4314E-03    -40.7247E+06    -64.9205E+06     3.19213E+06     1.91878E+06    -115.239E-03     219.299E-03    -104.060E-03     126.639E-03    -117.472E-03     221.148E-03    -103.891E-03     121.102E-03
            2086     8.93017E-03     23.2931E-03    -44.8616E+06    -100.238E+06    -1.27819E+06     1.67139E+06    -113.400E-03     216.762E-03    -103.362E-03     116.043E-03    -115.054E-03     217.905E-03    -103.158E-03     111.397E-03
            2087     8.12390E-03     23.1661E-03    -49.1461E+06    -126.777E+06    -6.24041E+06     1.69839E+06    -111.488E-03     214.159E-03    -102.670E-03     105.180E-03    -112.699E-03     214.763E-03    -102.446E-03     101.319E-03
            2088     7.31643E-03     23.0516E-03    -54.0151E+06    -148.875E+06    -11.1451E+06     1.80297E+06    -109.510E-03     211.510E-03    -102.000E-03     94.2066E-03    -110.384E-03     211.696E-03    -101.762E-03     91.0332E-03
            2089     6.50781E-03     22.9495E-03    -59.0293E+06    -167.383E+06    -16.9869E+06     1.85474E+06    -107.501E-03     208.863E-03    -101.362E-03     83.5916E-03    -108.123E-03     208.730E-03    -101.119E-03     81.0085E-03
            2090     5.69781E-03     22.8588E-03    -64.4722E+06    -180.072E+06    -25.8544E+06     1.74984E+06    -105.498E-03     206.259E-03    -100.761E-03     72.8776E-03    -105.934E-03     205.902E-03    -100.536E-03     70.7989E-03
            2091     4.88627E-03     22.7816E-03    -70.0553E+06    -190.885E+06    -37.4257E+06     1.94995E+06    -103.710E-03     203.928E-03    -100.218E-03     62.5318E-03    -104.007E-03     203.407E-03    -100.027E-03     60.8884E-03
            2092     4.07357E-03     22.7145E-03    -75.8339E+06    -202.693E+06    -49.6857E+06     1.90158E+06    -102.263E-03     202.003E-03    -99.7404E-03     52.2802E-03    -102.456E-03     201.351E-03    -99.5850E-03     51.0023E-03
            2093     3.26033E-03     22.6600E-03    -81.4214E+06    -211.831E+06    -61.6369E+06     1.47952E+06    -101.040E-03     200.356E-03    -99.3160E-03     41.8244E-03    -101.159E-03     199.613E-03    -99.1990E-03     40.8576E-03
            2094     2.44575E-03     22.6175E-03    -85.9548E+06    -220.117E+06    -73.1642E+06     1.09170E+06    -99.9891E-03     198.939E-03    -98.9502E-03     31.5457E-03    -100.053E-03     198.129E-03    -98.8722E-03     30.8519E-03
            2095     1.63113E-03     22.5877E-03    -89.3836E+06    -226.435E+06    -83.0427E+06     818.376E+03    -99.1746E-03     197.833E-03    -98.6579E-03     21.5591E-03    -99.1995E-03     196.977E-03    -98.6152E-03     21.1101E-03
            2096     815.800E-06     22.5669E-03      -91.72E+06    -230.392E+06    -90.1173E+06     174.044E+03    -98.6382E-03     197.071E-03    -98.4327E-03     11.3303E-03    -98.6399E-03     196.192E-03    -98.4162E-03     11.0868E-03
            2097     15.3347E-03     23.4635E-03    -4.89296E+06     121.867E+06     98.4742E+06     404.674E+03    -122.573E-03     231.905E-03    -109.332E-03     84.0918E-03    -126.661E-03     236.122E-03    -109.009E-03     77.6768E-03
            2098     14.5386E-03     23.2983E-03    -11.3671E+06     123.308E+06     101.369E+06     981.387E+03    -121.784E-03     230.369E-03    -108.585E-03     145.860E-03    -128.403E-03     237.092E-03    -108.240E-03     136.997E-03
            2099     13.7415E-03     23.1385E-03    -17.6395E+06     113.767E+06     93.8282E+06     820.804E+03    -122.007E-03     229.784E-03    -107.777E-03     162.058E-03    -128.864E-03     236.710E-03    -107.447E-03     152.552E-03
            2100     12.9436E-03     22.9374E-03    -23.5250E+06     102.801E+06     71.9156E+06     1.63791E+06    -122.109E-03     228.988E-03    -106.879E-03     178.780E-03    -128.983E-03     235.935E-03    -106.634E-03     168.932E-03
            2101     12.1456E-03     22.7387E-03    -28.8763E+06     85.3295E+06     38.4630E+06     2.00697E+06    -120.492E-03     226.427E-03    -105.935E-03     168.043E-03    -126.040E-03     232.064E-03    -105.824E-03     159.070E-03
            2102     11.3433E-03     22.5615E-03    -33.4373E+06     43.8784E+06     17.8938E+06     2.12226E+06    -118.503E-03     223.607E-03    -105.105E-03     149.669E-03    -122.550E-03     227.640E-03    -105.030E-03     142.020E-03
            2103     10.5422E-03     22.4018E-03    -37.0708E+06    -15.6746E+06     9.89514E+06     2.19811E+06    -116.944E-03     221.309E-03    -104.365E-03     135.361E-03    -119.911E-03     224.060E-03    -104.239E-03     128.858E-03
            2104     9.73919E-03     22.2553E-03    -40.4193E+06    -63.7488E+06     3.03169E+06     2.25740E+06    -115.207E-03     218.820E-03    -103.614E-03     124.465E-03    -117.403E-03     220.638E-03    -103.448E-03     118.977E-03
            2105     8.93400E-03     22.1197E-03    -44.5201E+06    -99.8451E+06    -1.61478E+06     2.29635E+06    -113.228E-03     216.103E-03    -102.875E-03     114.050E-03    -114.849E-03     217.217E-03    -102.674E-03     109.462E-03
            2106     8.12822E-03     21.9953E-03    -49.1593E+06    -126.446E+06    -6.50677E+06     2.28041E+06    -111.205E-03     213.354E-03    -102.149E-03     103.078E-03    -112.388E-03     213.933E-03    -101.927E-03     99.2773E-03
            2107     7.32068E-03     21.8842E-03    -53.7005E+06    -148.159E+06    -11.4788E+06     1.97187E+06    -109.127E-03     210.573E-03    -101.446E-03     92.0888E-03    -109.977E-03     210.740E-03    -101.211E-03     88.9673E-03
            2108     6.51171E-03     21.7841E-03    -58.7069E+06    -167.391E+06    -17.0535E+06     1.92870E+06    -106.939E-03     207.730E-03    -100.790E-03     81.4587E-03    -107.541E-03     207.578E-03    -100.548E-03     78.9254E-03
            2109     5.70090E-03     21.6972E-03    -64.2328E+06    -179.853E+06    -26.2263E+06     2.18257E+06    -104.938E-03     205.114E-03    -100.176E-03     71.0903E-03    -105.359E-03     204.744E-03    -99.9528E-03     69.0605E-03
            2110     4.88910E-03     21.6212E-03    -69.9862E+06    -190.791E+06    -37.9699E+06     2.34279E+06    -103.359E-03     202.959E-03    -99.5998E-03     60.9424E-03    -103.647E-03     202.431E-03    -99.4115E-03     59.3320E-03
            2111     4.07654E-03     21.5569E-03    -75.4957E+06    -201.353E+06    -49.1154E+06     2.47261E+06    -101.778E-03     200.856E-03    -99.0779E-03     50.7691E-03    -101.966E-03     200.203E-03    -98.9220E-03     49.5266E-03
            2112     3.26224E-03     21.5039E-03    -80.8090E+06    -210.452E+06    -61.5908E+06     1.79416E+06    -100.264E-03     198.902E-03    -98.6376E-03     40.4853E-03    -100.377E-03     198.160E-03    -98.5232E-03     39.5489E-03
            2113     2.44754E-03     21.4631E-03    -85.3168E+06    -219.009E+06    -73.3440E+06     1.17656E+06    -99.2610E-03     197.550E-03    -98.2894E-03     30.5811E-03    -99.3205E-03     196.742E-03    -98.2148E-03     29.9051E-03
            2114     1.63226E-03     21.4331E-03    -88.8877E+06    -225.435E+06    -83.1266E+06     755.630E+03    -98.3881E-03     196.438E-03    -98.0503E-03     20.6274E-03    -98.4110E-03     195.587E-03    -98.0102E-03     20.1845E-03
            2115     815.616E-06     21.4162E-03    -90.8634E+06    -229.023E+06    -89.6691E+06     282.594E+03    -97.7957E-03     195.944E-03    -98.1481E-03     11.3137E-03    -97.7955E-03     195.069E-03    -98.1326E-03     11.0760E-03
            2116     15.3332E-03     22.2619E-03    -5.12816E+06     121.350E+06     98.0522E+06     465.891E+03    -124.006E-03     233.331E-03    -109.325E-03     83.0366E-03    -128.036E-03     237.490E-03    -109.004E-03     76.4950E-03
            2117     14.5398E-03     22.1045E-03    -10.9741E+06     123.405E+06     101.606E+06     844.117E+03    -123.236E-03     231.735E-03    -108.498E-03     143.990E-03    -129.753E-03     238.356E-03    -108.153E-03     134.996E-03
            2118     13.7436E-03     21.9454E-03    -17.5385E+06     113.187E+06     93.5593E+06     1.33932E+06    -122.649E-03     230.269E-03    -107.620E-03     160.219E-03    -129.396E-03     237.084E-03    -107.291E-03     150.703E-03
            2119     12.9468E-03     21.7487E-03    -24.1471E+06     102.125E+06     71.2920E+06     1.30721E+06    -122.388E-03     229.065E-03    -106.678E-03     176.560E-03    -129.157E-03     235.905E-03    -106.434E-03     166.741E-03
            2120     12.1468E-03     21.5524E-03    -28.8492E+06     84.6632E+06     38.4740E+06     1.88544E+06    -120.951E-03     226.640E-03    -105.689E-03     165.755E-03    -126.421E-03     232.197E-03    -105.578E-03     156.796E-03
            2121     11.3482E-03     21.3795E-03    -32.5376E+06     44.0716E+06     18.2278E+06     2.80884E+06    -119.019E-03     223.815E-03    -104.796E-03     147.270E-03    -123.007E-03     227.791E-03    -104.721E-03     139.636E-03
            2122     10.5459E-03     21.2221E-03    -36.8178E+06    -14.3952E+06     9.35827E+06     2.80111E+06    -116.893E-03     220.894E-03    -104.000E-03     133.145E-03    -119.808E-03     223.599E-03    -103.879E-03     126.706E-03
            2123     9.74245E-03     21.0795E-03    -41.2141E+06    -63.5736E+06     1.97878E+06     2.48140E+06    -115.136E-03     218.351E-03    -103.216E-03     122.417E-03    -117.294E-03     220.132E-03    -103.054E-03     116.984E-03
            2124     8.93850E-03     20.9462E-03    -45.1017E+06    -99.3723E+06    -2.25562E+06     2.66721E+06    -113.244E-03     215.678E-03    -102.434E-03     111.600E-03    -114.832E-03     216.760E-03    -102.236E-03     107.061E-03
            2125     8.13198E-03     20.8262E-03    -49.0076E+06    -125.596E+06    -6.88257E+06     2.45518E+06    -110.958E-03     212.622E-03    -101.664E-03     100.678E-03    -112.108E-03     213.172E-03    -101.445E-03     96.9363E-03
            2126     7.32433E-03     20.7165E-03    -53.5734E+06    -147.380E+06    -11.7658E+06     2.39603E+06    -108.704E-03     209.639E-03    -100.935E-03     89.8294E-03    -109.529E-03     209.785E-03    -100.702E-03     86.7692E-03
            2127     6.51496E-03     20.6212E-03    -58.9270E+06    -167.240E+06    -18.0634E+06     2.38065E+06    -106.546E-03     206.799E-03    -100.252E-03     79.0705E-03    -107.127E-03     206.629E-03    -100.015E-03     76.5925E-03
            2128     5.70405E-03     20.5359E-03    -64.5703E+06    -179.922E+06    -26.8381E+06     2.54431E+06    -104.662E-03     204.261E-03    -99.5987E-03     68.8420E-03    -105.069E-03     203.878E-03    -99.3783E-03     66.8549E-03
            2129     4.89210E-03     20.4624E-03    -69.9820E+06    -190.028E+06    -38.2732E+06     2.76834E+06    -102.891E-03     201.868E-03    -98.9772E-03     58.6302E-03    -103.167E-03     201.332E-03    -98.7915E-03     57.0636E-03
            2130     4.07881E-03     20.3999E-03    -75.2778E+06    -200.304E+06    -49.4100E+06     2.41989E+06    -101.147E-03     199.576E-03    -98.4292E-03     48.7367E-03    -101.327E-03     198.921E-03    -98.2767E-03     47.5237E-03
            2131     3.26476E-03     20.3497E-03    -80.1700E+06    -208.806E+06    -60.9019E+06     2.20210E+06    -99.6832E-03     197.654E-03    -97.9708E-03     38.9907E-03    -99.7920E-03     196.914E-03    -97.8563E-03     38.0841E-03
            2132     2.44909E-03     20.3098E-03    -84.8340E+06    -217.593E+06    -73.2481E+06     1.66810E+06    -98.4810E-03     196.103E-03    -97.6216E-03     29.4504E-03    -98.5376E-03     195.298E-03    -97.5494E-03     28.7994E-03
            2133     1.63285E-03     20.2812E-03    -88.5643E+06    -224.036E+06    -82.9487E+06     944.717E+03    -97.7579E-03     195.147E-03    -97.3892E-03     19.6462E-03    -97.7800E-03     194.300E-03    -97.3507E-03     19.2186E-03
            2134     816.840E-06     20.2647E-03    -91.1218E+06    -228.170E+06    -89.6105E+06     388.857E+03    -97.4991E-03     194.598E-03    -97.0986E-03     10.9135E-03    -97.5011E-03     193.727E-03    -97.0837E-03     10.6845E-03
            2135     15.3345E-03     21.0626E-03    -4.91607E+06     120.843E+06     97.9134E+06     602.953E+03    -125.006E-03     234.335E-03    -109.329E-03     81.4199E-03    -128.949E-03     238.406E-03    -109.008E-03     74.8200E-03
            2136     14.5402E-03     20.9064E-03    -10.8709E+06     122.569E+06     101.076E+06     1.11947E+06    -124.222E-03     232.664E-03    -108.442E-03     140.994E-03    -130.594E-03     239.140E-03    -108.098E-03     131.935E-03
            2137     13.7456E-03     20.7531E-03    -17.0477E+06     112.959E+06     93.7779E+06     1.50452E+06    -123.424E-03     230.929E-03    -107.505E-03     157.381E-03    -130.037E-03     237.610E-03    -107.175E-03     147.850E-03
            2138     12.9480E-03     20.5585E-03    -22.5855E+06     102.212E+06     71.9284E+06     1.82612E+06    -122.838E-03     229.347E-03    -106.509E-03     173.673E-03    -129.476E-03     236.059E-03    -106.265E-03     163.885E-03
            2139     12.1508E-03     20.3673E-03    -28.7027E+06     83.1728E+06     37.0416E+06     2.52373E+06    -121.309E-03     226.776E-03    -105.466E-03     163.110E-03    -126.681E-03     232.233E-03    -105.360E-03     154.188E-03
            2140     11.3502E-03     20.1945E-03    -33.9159E+06     43.8223E+06     16.2833E+06     3.38884E+06    -119.126E-03     223.654E-03    -104.528E-03     144.790E-03    -123.046E-03     227.562E-03    -104.461E-03     137.212E-03
            2141     10.5494E-03     20.0450E-03    -37.9046E+06    -12.6866E+06     8.51555E+06     3.47721E+06    -117.139E-03     220.830E-03    -103.692E-03     130.921E-03    -120.006E-03     223.493E-03    -103.576E-03     124.528E-03
            2142     9.74614E-03     19.9025E-03    -41.6325E+06    -63.0041E+06     1.09616E+06     2.93605E+06    -115.332E-03     218.186E-03    -102.854E-03     119.978E-03    -117.443E-03     219.922E-03    -102.697E-03     114.594E-03
            2143     8.94157E-03     19.7737E-03    -45.2812E+06    -98.9954E+06    -3.06191E+06     2.57901E+06    -113.261E-03     215.280E-03    -102.019E-03     108.740E-03    -114.803E-03     216.319E-03    -101.826E-03     104.255E-03
            2144     8.13593E-03     19.6565E-03    -49.2517E+06    -124.566E+06    -7.54279E+06     2.56266E+06    -110.926E-03     212.121E-03    -101.195E-03     97.5855E-03    -112.040E-03     212.639E-03    -100.980E-03     93.8992E-03
            2145     7.32781E-03     19.5512E-03    -53.6608E+06    -147.267E+06    -12.4258E+06     2.73125E+06    -108.504E-03     208.917E-03    -100.413E-03     86.4678E-03    -109.294E-03     209.030E-03    -100.183E-03     83.4719E-03
            2146     6.51822E-03     19.4578E-03    -58.6507E+06    -166.748E+06    -18.2656E+06     3.10798E+06    -106.411E-03     206.081E-03    -99.6695E-03     75.6585E-03    -106.964E-03     205.887E-03    -99.4340E-03     73.2398E-03
            2147     5.70775E-03     19.3757E-03    -64.2590E+06    -179.322E+06    -27.7582E+06     3.19052E+06    -104.384E-03     203.326E-03    -98.9419E-03     65.6070E-03    -104.768E-03     202.926E-03    -98.7275E-03     63.6755E-03
            2148     4.89566E-03     19.3044E-03    -69.9098E+06    -189.085E+06    -39.0735E+06     2.88308E+06    -102.315E-03     200.584E-03    -98.2687E-03     55.7037E-03    -102.576E-03     200.038E-03    -98.0885E-03     54.1851E-03
            2149     4.08181E-03     19.2455E-03    -75.1182E+06    -198.978E+06    -49.9521E+06     2.58184E+06    -100.470E-03     198.161E-03    -97.6909E-03     45.9872E-03    -100.639E-03     197.502E-03    -97.5432E-03     44.8161E-03
            2150     3.26645E-03     19.1960E-03    -80.1607E+06    -207.930E+06    -61.2551E+06     2.35131E+06    -99.0127E-03     196.217E-03    -97.2041E-03     36.7430E-03    -99.1157E-03     195.475E-03    -97.0927E-03     35.8678E-03
            2151     2.45114E-03     19.1585E-03    -84.5895E+06    -215.805E+06    -72.5479E+06     2.03463E+06    -97.8726E-03     194.672E-03    -96.7994E-03     27.3652E-03    -97.9272E-03     193.871E-03    -96.7266E-03     26.7437E-03
            2152     1.63421E-03     19.1311E-03    -88.1539E+06    -222.296E+06    -82.4965E+06     1.32950E+06    -96.9982E-03     193.482E-03    -96.4836E-03     18.3801E-03    -97.0193E-03     192.640E-03    -96.4459E-03     17.9774E-03
            2153     817.468E-06     19.1131E-03    -90.5454E+06    -226.429E+06    -89.0422E+06     639.843E+03    -96.4323E-03     192.704E-03    -96.2712E-03     10.1997E-03    -96.4343E-03     191.839E-03    -96.2568E-03     9.98305E-03
            2154     15.3333E-03     19.8608E-03    -5.09389E+06     119.921E+06     97.3361E+06     683.750E+03    -126.071E-03     235.386E-03    -109.315E-03     79.3056E-03    -129.914E-03     239.355E-03    -108.995E-03     72.6781E-03
            2155     14.5411E-03     19.7086E-03    -10.4681E+06     122.061E+06     101.036E+06     963.341E+03    -124.718E-03     233.101E-03    -108.383E-03     137.629E-03    -130.915E-03     239.402E-03    -108.040E-03     128.573E-03
            2156     13.7464E-03     19.5581E-03    -16.5447E+06     112.639E+06     93.6014E+06     1.30650E+06    -123.842E-03     231.250E-03    -107.408E-03     153.834E-03    -130.292E-03     237.770E-03    -107.079E-03     144.325E-03
            2157     12.9510E-03     19.3695E-03    -23.4678E+06     100.747E+06     71.1115E+06      2.4858E+06    -123.287E-03     229.658E-03    -106.371E-03     171.392E-03    -129.814E-03     236.253E-03    -106.127E-03     161.631E-03
            2158     12.1524E-03     19.1790E-03    -29.2604E+06     82.0767E+06     37.1278E+06     4.15891E+06    -121.529E-03     226.823E-03    -105.293E-03     160.779E-03    -126.801E-03     232.174E-03    -105.184E-03     151.924E-03
            2159     11.3532E-03     19.0139E-03    -33.8624E+06     44.6585E+06     16.2734E+06     4.29994E+06    -119.338E-03     223.653E-03    -104.315E-03     142.173E-03    -123.170E-03     227.476E-03    -104.249E-03     134.660E-03
            2160     10.5511E-03     18.8636E-03    -37.5243E+06    -11.1000E+06     8.22799E+06     3.52879E+06    -117.799E-03     221.213E-03    -103.414E-03     128.068E-03    -120.603E-03     223.821E-03    -103.302E-03     121.688E-03
            2161     9.74978E-03     18.7271E-03    -40.7347E+06    -61.6859E+06     941.617E+03     3.09601E+06    -115.935E-03     218.423E-03    -102.488E-03     116.233E-03    -117.978E-03     220.100E-03    -102.334E-03     110.884E-03
            2162     8.94543E-03     18.6012E-03    -44.4755E+06    -98.4346E+06    -3.47451E+06     2.90347E+06    -113.581E-03     215.142E-03    -101.561E-03     104.583E-03    -115.057E-03     216.121E-03    -101.372E-03     100.160E-03
            2163     8.13956E-03     18.4870E-03    -48.6815E+06    -124.146E+06    -7.86078E+06     2.95981E+06    -111.275E-03     211.913E-03    -100.638E-03     92.6759E-03    -112.331E-03     212.379E-03    -100.427E-03     89.0519E-03
            2164     7.33242E-03     18.3864E-03    -53.4613E+06    -147.124E+06    -13.0439E+06     3.18921E+06    -108.793E-03     208.527E-03    -99.7338E-03     81.1608E-03    -109.533E-03     208.592E-03    -99.5081E-03     78.2333E-03
            2165     6.52339E-03     18.2951E-03    -58.5621E+06    -166.851E+06    -19.1370E+06     3.60979E+06    -106.234E-03     205.108E-03    -98.8742E-03     70.5908E-03    -106.746E-03     204.875E-03    -98.6431E-03     68.2519E-03
            2166     5.71241E-03     18.2169E-03    -63.6966E+06    -178.381E+06    -28.3050E+06     3.89189E+06    -103.841E-03     201.902E-03    -98.0606E-03     60.6589E-03    -104.192E-03     201.475E-03    -97.8511E-03     58.8120E-03
            2167     4.89939E-03     18.1485E-03    -69.0202E+06    -187.868E+06    -39.3398E+06     3.49534E+06    -101.687E-03     199.002E-03    -97.3149E-03     51.1241E-03    -101.921E-03     198.439E-03    -97.1391E-03     49.6788E-03
            2168     4.08557E-03     18.0916E-03    -74.4473E+06    -197.481E+06    -49.9058E+06     3.12980E+06    -99.8072E-03     196.461E-03    -96.6536E-03     41.7831E-03    -99.9587E-03     195.792E-03    -96.5089E-03     40.6750E-03
            2169     3.27046E-03     18.0452E-03    -79.6317E+06    -206.343E+06    -61.5229E+06     2.81912E+06    -98.1787E-03     194.251E-03    -96.0722E-03     33.0890E-03    -98.2703E-03     193.506E-03    -95.9652E-03     32.2672E-03
            2170     2.45346E-03     18.0082E-03    -84.1393E+06    -214.032E+06    -72.5687E+06     2.22590E+06    -96.9180E-03     192.488E-03    -95.5701E-03     24.4947E-03    -96.9667E-03     191.689E-03    -95.5006E-03     23.9136E-03
            2171     1.63705E-03     17.9828E-03    -87.7022E+06    -220.176E+06    -81.9190E+06     1.52279E+06    -95.8437E-03     190.999E-03    -95.1549E-03     16.3139E-03    -95.8635E-03     190.163E-03    -95.1181E-03     15.9378E-03
            2172     818.098E-06     17.9668E-03    -90.1335E+06    -224.634E+06    -88.7993E+06     911.314E+03    -94.9354E-03     189.936E-03    -95.0011E-03     8.54263E-03    -94.9375E-03     189.079E-03    -94.9887E-03     8.34669E-03
            2173     15.3359E-03     18.6612E-03    -4.84729E+06     119.407E+06     97.2660E+06     470.954E+03    -127.386E-03     236.715E-03    -109.329E-03     77.7025E-03    -131.132E-03     240.586E-03    -109.009E-03     71.0122E-03
            2174     14.5423E-03     18.5084E-03    -10.0876E+06     121.431E+06     100.878E+06     972.927E+03    -125.008E-03     233.361E-03    -108.353E-03     135.253E-03    -131.052E-03     239.508E-03    -108.010E-03     126.223E-03
            2175     13.7482E-03     18.3653E-03    -17.0056E+06     111.196E+06     92.7244E+06     2.36434E+06    -123.986E-03     231.346E-03    -107.360E-03     152.223E-03    -130.318E-03     237.744E-03    -107.033E-03     142.759E-03
            2176     12.9509E-03     18.1774E-03    -24.2168E+06     99.1251E+06     70.4293E+06     3.77246E+06    -123.906E-03     230.201E-03    -106.295E-03     169.334E-03    -130.313E-03     236.669E-03    -106.051E-03     159.584E-03
            2177     12.1541E-03     17.9928E-03    -29.5824E+06     81.2929E+06     38.0888E+06     4.21611E+06    -122.310E-03     227.473E-03    -105.163E-03     157.467E-03    -127.458E-03     232.694E-03    -105.048E-03     148.618E-03
            2178     11.3543E-03     17.8298E-03    -32.9809E+06     46.2449E+06     17.3911E+06     4.27949E+06    -120.591E-03     224.676E-03    -104.084E-03     138.239E-03    -124.318E-03     228.399E-03    -104.016E-03     130.704E-03
            2179     10.5553E-03     17.6837E-03    -36.3241E+06    -9.18736E+06     8.31375E+06     3.87648E+06    -118.893E-03     221.944E-03    -103.052E-03     122.919E-03    -121.588E-03     224.454E-03    -102.944E-03     116.559E-03
            2180     9.75320E-03     17.5496E-03    -40.1285E+06    -60.6564E+06     741.879E+03     3.34894E+06    -116.898E-03     218.885E-03    -101.987E-03     110.018E-03    -118.838E-03     220.465E-03    -101.837E-03     104.714E-03
            2181     8.95091E-03     17.4287E-03    -43.8801E+06    -97.7416E+06    -4.00212E+06     3.31695E+06    -114.684E-03     215.575E-03    -100.891E-03     97.7004E-03    -116.066E-03     216.467E-03    -100.706E-03     93.3351E-03
            2182     8.14608E-03     17.3183E-03    -47.9202E+06    -123.985E+06    -8.40175E+06     3.54361E+06    -112.020E-03     211.797E-03    -99.7771E-03     84.9906E-03    -112.984E-03     212.176E-03    -99.5698E-03     81.4606E-03
            2183     7.33970E-03     17.2205E-03    -52.3815E+06    -147.012E+06    -13.2044E+06     4.06845E+06    -109.067E-03     207.755E-03    -98.6879E-03     73.2016E-03    -109.728E-03     207.746E-03    -98.4648E-03     70.3890E-03
            2184     6.53086E-03     17.1352E-03    -57.5407E+06    -166.658E+06    -19.5153E+06     4.53510E+06    -106.080E-03     203.734E-03    -97.6538E-03     62.9085E-03    -106.527E-03     203.442E-03    -97.4263E-03     60.6930E-03
            2185     5.71947E-03     17.0592E-03    -63.1513E+06    -177.296E+06    -28.7169E+06     4.64532E+06    -103.302E-03     199.981E-03    -96.6792E-03     53.1295E-03    -103.604E-03     199.514E-03    -96.4742E-03     51.4028E-03
            2186     4.90699E-03     16.9949E-03    -68.5598E+06    -186.146E+06    -39.4297E+06     4.40467E+06    -100.811E-03     196.597E-03    -95.7865E-03     43.9813E-03    -101.011E-03     196.008E-03    -95.6143E-03     42.6499E-03
            2187     4.09190E-03     16.9403E-03    -73.8083E+06    -195.737E+06    -50.2436E+06     3.94500E+06    -98.6504E-03     193.638E-03    -94.9877E-03     35.6035E-03    -98.7775E-03     192.954E-03    -94.8481E-03     34.5938E-03
            2188     3.27573E-03     16.8964E-03    -78.8325E+06    -204.322E+06    -61.4434E+06     3.44623E+06    -96.7980E-03     191.077E-03    -94.2793E-03     27.9529E-03    -96.8741E-03     190.326E-03    -94.1759E-03     27.2109E-03
            2189     2.45865E-03     16.8621E-03    -83.3266E+06    -211.963E+06    -72.5812E+06     2.67046E+06    -95.1344E-03     188.823E-03    -93.6883E-03     20.6606E-03    -95.1741E-03     188.024E-03    -93.6230E-03     20.1396E-03
            2190     1.63903E-03     16.8375E-03    -86.9028E+06    -218.095E+06    -81.6868E+06     1.91753E+06    -93.9838E-03     187.210E-03    -93.2264E-03     13.6188E-03    -93.9994E-03     186.379E-03    -93.1926E-03     13.2872E-03
            2191     820.698E-06     16.8234E-03    -89.0863E+06    -221.813E+06    -87.4813E+06     1.11014E+06    -93.3479E-03     186.031E-03    -92.6834E-03     7.24787E-03    -93.3497E-03     185.183E-03    -92.6700E-03     7.07425E-03
            2192     15.3314E-03     17.4507E-03    -4.29677E+06     118.779E+06     96.8963E+06     273.132E+03    -127.599E-03     236.996E-03    -109.397E-03     74.8531E-03    -131.208E-03     240.730E-03    -109.078E-03     68.2103E-03
            2193     14.5419E-03     17.3136E-03    -10.8759E+06     119.297E+06     99.0608E+06     1.87861E+06    -125.298E-03     233.704E-03    -108.406E-03     133.306E-03    -131.194E-03     239.698E-03    -108.068E-03     124.297E-03
            2194     13.7455E-03     17.1686E-03    -17.8177E+06     109.445E+06     91.7684E+06     3.26210E+06    -125.276E-03     232.648E-03    -107.372E-03     150.213E-03    -131.474E-03     238.905E-03    -107.046E-03     140.678E-03
            2195     12.9521E-03     16.9855E-03    -23.2009E+06     98.6147E+06     72.1185E+06     3.83807E+06    -125.339E-03     231.562E-03    -106.222E-03     164.770E-03    -131.545E-03     237.826E-03    -105.971E-03     154.965E-03
            2196     12.1552E-03     16.8043E-03    -28.0580E+06     81.2396E+06     39.5293E+06     4.38609E+06    -124.318E-03     229.268E-03    -104.950E-03     152.067E-03    -129.292E-03     234.317E-03    -104.830E-03     143.130E-03
            2197     11.3592E-03     16.6443E-03    -32.5437E+06     47.5518E+06     17.2374E+06     4.44452E+06    -122.850E-03     226.521E-03    -103.671E-03     131.244E-03    -126.412E-03     230.087E-03    -103.607E-03     123.647E-03
            2198     10.5607E-03     16.5015E-03    -36.1910E+06    -7.29147E+06     7.97692E+06     4.04846E+06    -120.857E-03     223.270E-03    -102.413E-03     114.377E-03    -123.385E-03     225.622E-03    -102.310E-03     108.034E-03
            2199     9.76166E-03     16.3731E-03    -39.3491E+06    -59.5288E+06     524.720E+03     3.66164E+06    -118.718E-03     219.820E-03    -101.102E-03     100.260E-03    -120.498E-03     221.248E-03    -100.956E-03     95.0229E-03
            2200     8.95987E-03     16.2542E-03    -42.9577E+06    -97.4299E+06    -4.40747E+06     3.89991E+06    -116.138E-03     215.872E-03    -99.7338E-03     86.6917E-03    -117.370E-03     216.619E-03    -99.5523E-03     82.4432E-03
            2201     8.15762E-03     16.1496E-03    -47.0285E+06    -123.657E+06    -9.06890E+06     4.35352E+06    -112.770E-03     211.116E-03    -98.3462E-03     73.6760E-03    -113.604E-03     211.371E-03    -98.1440E-03     70.3075E-03
            2202     7.35134E-03     16.0572E-03    -51.5584E+06    -147.135E+06    -13.5800E+06     4.97058E+06    -109.182E-03     206.187E-03    -97.0050E-03     62.1392E-03    -109.738E-03     206.078E-03    -96.7848E-03     59.5019E-03
            2203     6.54281E-03     15.9758E-03    -56.6728E+06    -165.883E+06    -18.9894E+06     5.86506E+06    -105.761E-03     201.489E-03    -95.7283E-03     52.1360E-03    -106.129E-03     201.123E-03    -95.5005E-03     50.0947E-03
            2204     5.73231E-03     15.9051E-03    -62.1237E+06    -175.302E+06    -28.5811E+06     5.79375E+06    -102.391E-03     196.907E-03    -94.5162E-03     43.3943E-03    -102.636E-03     196.392E-03    -94.3148E-03     41.8289E-03
            2205     4.91821E-03     15.8442E-03    -67.3551E+06    -184.426E+06    -39.3992E+06     5.25653E+06    -99.3338E-03     192.754E-03    -93.4206E-03     35.5407E-03    -99.4925E-03     192.134E-03    -93.2525E-03     34.3509E-03
            2206     4.10273E-03     15.7936E-03    -72.5987E+06    -193.512E+06    -49.8681E+06     4.91862E+06    -96.6890E-03     189.147E-03    -92.4583E-03     28.4345E-03    -96.7889E-03     188.447E-03    -92.3218E-03     27.5488E-03
            2207     3.28476E-03     15.7522E-03    -77.6410E+06    -201.928E+06    -61.0440E+06     4.17165E+06    -94.3920E-03     186.027E-03    -91.6348E-03     22.0371E-03    -94.4509E-03     185.270E-03    -91.5347E-03     21.3934E-03
            2208     2.46484E-03     15.7207E-03    -81.9323E+06    -209.344E+06    -71.5746E+06     3.33950E+06    -92.5499E-03     183.522E-03    -90.9717E-03     16.1412E-03    -92.5796E-03     182.724E-03    -90.9072E-03     15.6956E-03
            2209     1.64451E-03     15.6984E-03    -85.4726E+06    -215.396E+06    -80.6850E+06     2.49267E+06    -91.1799E-03     181.667E-03    -90.4872E-03     10.6116E-03    -91.1901E-03     180.842E-03    -90.4544E-03     10.3334E-03
            2210     821.752E-06     15.6841E-03    -87.3647E+06    -218.635E+06    -86.2757E+06     1.12178E+06    -90.4469E-03     180.566E-03    -90.1191E-03     5.37152E-03    -90.4454E-03     179.728E-03    -90.1068E-03     5.22148E-03
            2211     15.3348E-03     16.2532E-03    -5.47661E+06     116.869E+06     94.9896E+06     1.04845E+06    -127.926E-03     237.450E-03    -109.524E-03     72.9992E-03    -131.427E-03     241.071E-03    -109.211E-03     66.3553E-03
            2212     14.5367E-03     16.1127E-03    -12.1610E+06     117.549E+06     97.3740E+06     2.36862E+06    -127.432E-03     235.904E-03    -108.472E-03     129.804E-03    -133.139E-03     241.703E-03    -108.138E-03     120.643E-03
            2213     13.7480E-03     15.9697E-03    -17.2748E+06     109.156E+06     92.1766E+06     2.49032E+06    -127.678E-03     234.983E-03    -107.305E-03     144.122E-03    -133.645E-03     241.009E-03    -106.977E-03     134.405E-03
            2214     12.9536E-03     15.7927E-03    -22.9680E+06     97.6942E+06     72.5260E+06     3.07491E+06    -128.052E-03     234.024E-03    -105.972E-03     157.823E-03    -134.014E-03     240.041E-03    -105.718E-03     147.834E-03
            2215     12.1609E-03     15.6120E-03    -27.9451E+06     80.3995E+06     40.8400E+06     4.36009E+06    -127.608E-03     232.067E-03    -104.459E-03     143.496E-03    -132.332E-03     236.859E-03    -104.331E-03     134.401E-03
            2216     11.3671E-03     15.4562E-03    -31.5808E+06     49.0220E+06     18.5066E+06     4.96403E+06    -125.961E-03     228.837E-03    -102.876E-03     120.664E-03    -129.271E-03     232.156E-03    -102.809E-03     113.024E-03
            2217     10.5724E-03     15.3187E-03    -34.9323E+06    -4.97983E+06     8.02067E+06     4.32876E+06    -123.965E-03     225.232E-03    -101.267E-03     102.324E-03    -126.261E-03     227.365E-03    -101.169E-03     96.0015E-03
            2218     9.77562E-03     15.1935E-03    -38.5551E+06    -58.6621E+06     173.806E+03     4.07908E+06    -121.363E-03     220.937E-03    -99.5740E-03     86.8916E-03    -122.930E-03     222.160E-03    -99.4322E-03     81.7571E-03
            2219     8.97802E-03     15.0811E-03    -42.0142E+06    -96.8516E+06    -4.60658E+06     4.56641E+06    -117.476E-03     215.312E-03    -97.8358E-03     72.4593E-03    -118.522E-03     215.879E-03    -97.6575E-03     68.4006E-03
            2220     8.17506E-03     14.9824E-03    -45.8374E+06    -123.230E+06    -9.25044E+06     5.28822E+06    -113.126E-03     209.245E-03    -96.1190E-03     59.7447E-03    -113.812E-03     209.358E-03    -95.9201E-03     56.5980E-03
            2221     7.37034E-03     14.8958E-03    -50.4936E+06    -146.978E+06    -13.7339E+06     6.33451E+06    -108.951E-03     203.421E-03    -94.4698E-03     48.9867E-03    -109.396E-03     203.205E-03    -94.2521E-03     46.5696E-03
            2222     6.56201E-03     14.8204E-03    -55.5758E+06    -164.714E+06    -18.6227E+06     6.85865E+06    -104.671E-03     197.581E-03    -92.9095E-03     40.0496E-03    -104.960E-03     197.142E-03    -92.6832E-03     38.2119E-03
            2223     5.74955E-03     14.7550E-03    -60.4085E+06    -172.985E+06    -27.8490E+06     6.62758E+06    -100.554E-03     192.011E-03    -91.4572E-03     32.7372E-03    -100.742E-03     191.451E-03    -91.2581E-03     31.3529E-03
            2224     4.93482E-03     14.6994E-03    -65.7217E+06    -182.495E+06    -39.1218E+06     6.37815E+06    -96.9009E-03     187.067E-03    -90.1664E-03     26.5789E-03    -97.0196E-03     186.418E-03    -90.0021E-03     25.5485E-03
            2225     4.11657E-03     14.6524E-03    -70.9515E+06    -191.145E+06    -49.4140E+06     5.99124E+06    -93.7632E-03     182.820E-03    -89.0571E-03     21.0978E-03    -93.8369E-03     182.106E-03    -88.9242E-03     20.3445E-03
            2226     3.29631E-03     14.6155E-03    -75.6636E+06    -198.915E+06    -60.0635E+06     5.21490E+06    -91.1156E-03     179.250E-03    -88.1345E-03     16.1377E-03    -91.1572E-03     178.490E-03    -88.0367E-03     15.6003E-03
            2227     2.47405E-03     14.5862E-03    -80.1395E+06    -206.087E+06    -70.0551E+06     4.28316E+06    -89.0632E-03     176.478E-03    -87.4147E-03     11.8057E-03    -89.0840E-03     175.685E-03    -87.3500E-03     11.4404E-03
            2228     1.64992E-03     14.5659E-03    -83.5983E+06    -211.406E+06    -78.3279E+06     3.02428E+06    -87.6409E-03     174.533E-03    -86.8920E-03     7.62028E-03    -87.6480E-03     173.719E-03    -86.8558E-03     7.39135E-03
            2229     825.596E-06     14.5540E-03    -86.1964E+06    -215.236E+06    -85.0885E+06     1.80874E+06    -86.7596E-03     173.316E-03    -86.5569E-03     3.65995E-03    -86.7582E-03     172.491E-03    -86.5452E-03     3.54577E-03
            2230     15.3226E-03     15.0474E-03    -4.86398E+06     115.975E+06     94.5727E+06     1.61325E+06    -130.645E-03     240.245E-03    -109.599E-03     68.6871E-03    -134.015E-03     243.735E-03    -109.288E-03     61.8676E-03
            2231     14.5421E-03     14.9053E-03    -9.44751E+06     118.613E+06     99.0190E+06     1.83141E+06    -130.602E-03     238.987E-03    -108.385E-03     122.923E-03    -136.069E-03     244.554E-03    -108.048E-03     113.480E-03
            2232     13.7498E-03     14.7729E-03    -15.5133E+06     108.176E+06     92.5647E+06     2.43344E+06    -130.798E-03     237.809E-03    -107.011E-03     137.027E-03    -136.503E-03     243.575E-03    -106.682E-03     127.052E-03
            2233     12.9611E-03     14.5925E-03    -22.1516E+06     96.9340E+06     73.3715E+06     3.59382E+06    -132.449E-03     237.855E-03    -105.406E-03     150.040E-03    -138.136E-03     243.596E-03    -105.148E-03     139.731E-03
            2234     12.1725E-03     14.4185E-03    -27.4077E+06     79.6363E+06     41.8663E+06     4.25984E+06    -132.359E-03     235.881E-03    -103.522E-03     132.712E-03    -136.770E-03     240.357E-03    -103.388E-03     123.389E-03
            2235     11.3826E-03     14.2651E-03    -31.1235E+06     50.0554E+06     18.3299E+06     4.47078E+06    -130.414E-03     231.909E-03    -101.495E-03     107.197E-03    -133.414E-03     234.924E-03    -101.430E-03     99.4806E-03
            2236     10.5914E-03     14.1332E-03    -34.2268E+06    -2.57390E+06     7.85095E+06     4.67505E+06    -127.567E-03     226.988E-03    -99.4211E-03     87.3799E-03    -129.591E-03     228.860E-03    -99.3285E-03     81.1203E-03
            2237     9.79927E-03     14.0129E-03    -37.5184E+06    -57.2024E+06    -31.2606E+03     4.92072E+06    -123.576E-03     220.858E-03    -97.2824E-03     71.6349E-03    -124.918E-03     221.866E-03    -97.1452E-03     66.6746E-03
            2238     9.00179E-03     13.9096E-03    -41.2322E+06    -96.0615E+06    -5.02467E+06     5.39614E+06    -118.560E-03     213.696E-03    -95.1358E-03     57.2941E-03    -119.427E-03     214.092E-03    -94.9619E-03     53.4582E-03
            2239     8.20144E-03     13.8181E-03    -45.5003E+06    -122.934E+06    -9.66657E+06     6.50142E+06    -113.111E-03     206.159E-03    -93.0479E-03     45.3801E-03    -113.666E-03     206.146E-03    -92.8520E-03     42.4723E-03
            2240     7.39577E-03     13.7385E-03    -49.8482E+06    -146.297E+06    -14.4208E+06     7.43091E+06    -107.711E-03     198.791E-03    -91.0795E-03     35.8730E-03    -108.059E-03     198.485E-03    -90.8672E-03     33.6940E-03
            2241     6.58614E-03     13.6703E-03    -54.1438E+06    -162.833E+06    -18.7536E+06     7.44675E+06    -102.638E-03     191.898E-03    -89.2591E-03     28.3550E-03    -102.857E-03     191.401E-03    -89.0382E-03     26.7240E-03
            2242     5.77281E-03     13.6119E-03    -59.4066E+06    -171.201E+06    -27.8318E+06     7.53462E+06    -97.8586E-03     185.448E-03    -87.5891E-03     22.4690E-03    -97.9998E-03     184.851E-03    -87.3939E-03     21.2678E-03
            2243     4.95491E-03     13.5617E-03    -64.5786E+06    -180.294E+06    -38.9439E+06     7.65731E+06    -93.5373E-03     179.666E-03    -86.1286E-03     17.8707E-03    -93.6245E-03     178.996E-03    -85.9682E-03     17.0015E-03
            2244     4.13419E-03     13.5204E-03    -69.2846E+06    -188.343E+06    -49.0873E+06     7.14931E+06    -89.8916E-03     174.802E-03    -84.9104E-03     14.0538E-03    -89.9435E-03     174.081E-03    -84.7823E-03     13.4319E-03
            2245     3.31049E-03     13.4863E-03    -74.1124E+06    -195.558E+06    -59.3606E+06     6.33525E+06    -87.0527E-03     170.977E-03    -83.9241E-03     10.7085E-03    -87.0823E-03     170.220E-03    -83.8299E-03     10.2727E-03
            2246     2.48464E-03     13.4615E-03    -78.3687E+06    -201.956E+06    -68.6079E+06     5.11456E+06    -84.8924E-03     168.052E-03    -83.1598E-03     7.82053E-03    -84.9072E-03     167.269E-03    -83.0964E-03     7.52758E-03
            2247     1.65734E-03     13.4421E-03    -81.6609E+06    -207.283E+06    -76.5543E+06     3.66454E+06    -83.3485E-03     165.967E-03    -82.6188E-03     4.99020E-03    -83.3523E-03     165.166E-03    -82.5826E-03     4.81012E-03
            2248     828.919E-06     13.4320E-03    -83.9278E+06    -210.308E+06    -82.3136E+06     2.18689E+06    -82.5503E-03     164.770E-03    -82.2199E-03     2.62232E-03    -82.5483E-03     163.961E-03    -82.2048E-03     2.53249E-03
            2249     15.3364E-03     13.8345E-03    -4.88777E+06     115.210E+06     94.5984E+06     796.532E+03    -134.586E-03     244.106E-03    -109.520E-03     64.7759E-03    -137.839E-03     247.477E-03    -109.207E-03     57.7394E-03
            2250     14.5430E-03     13.7019E-03    -9.06341E+06     118.006E+06     98.9006E+06     1.88718E+06    -133.742E-03     241.843E-03    -108.102E-03     118.052E-03    -139.012E-03     247.213E-03    -107.765E-03     108.310E-03
            2251     13.7583E-03     13.5669E-03    -15.5555E+06     106.738E+06     92.4103E+06     3.00648E+06    -136.003E-03     242.462E-03    -106.459E-03     131.178E-03    -141.479E-03     247.994E-03    -106.129E-03     120.746E-03
            2252     12.9730E-03     13.3917E-03    -21.0647E+06     96.6240E+06     75.0790E+06     3.79377E+06    -138.875E-03     243.323E-03    -104.448E-03     141.394E-03    -144.258E-03     248.757E-03    -104.182E-03     130.606E-03
            2253     12.1892E-03     13.2165E-03    -26.0664E+06     79.6803E+06     43.1730E+06     4.27928E+06    -138.624E-03     240.669E-03    -102.044E-03     119.607E-03    -142.675E-03     244.786E-03    -101.906E-03     109.993E-03
            2254     11.4064E-03     13.0715E-03    -29.8863E+06     51.4379E+06     17.9161E+06     4.58438E+06    -135.424E-03     234.884E-03    -99.4602E-03     92.2797E-03    -138.104E-03     237.591E-03    -99.4018E-03     84.4992E-03
            2255     10.6203E-03     12.9447E-03    -33.3013E+06    -419.363E+03     7.04160E+06     5.01131E+06    -130.730E-03     227.605E-03    -96.8744E-03     72.2618E-03    -132.496E-03     229.233E-03    -96.7903E-03     66.1180E-03
            2256     9.82851E-03     12.8355E-03    -36.6662E+06    -55.7251E+06    -660.170E+03     5.85888E+06    -125.082E-03     219.375E-03    -94.2924E-03     56.4330E-03    -126.221E-03     220.189E-03    -94.1618E-03     51.6883E-03
            2257     9.03339E-03     12.7390E-03    -40.6301E+06    -95.3381E+06    -6.02667E+06     6.91030E+06    -118.850E-03     210.605E-03    -91.7544E-03     42.8202E-03    -119.567E-03     210.858E-03    -91.5874E-03     39.2341E-03
            2258     8.23273E-03     12.6581E-03    -44.8359E+06    -122.436E+06    -10.2749E+06     7.72214E+06    -112.296E-03     201.620E-03    -89.3244E-03     32.1701E-03    -112.743E-03     201.505E-03    -89.1333E-03     29.5027E-03
            2259     7.42656E-03     12.5880E-03    -49.0600E+06    -144.511E+06    -14.7271E+06     8.18138E+06    -105.748E-03     192.818E-03    -87.0697E-03     24.2241E-03    -106.023E-03     192.449E-03    -86.8626E-03     22.2647E-03
            2260     6.61494E-03     12.5276E-03    -53.8535E+06    -161.004E+06    -19.5737E+06     8.40498E+06    -99.7750E-03     184.800E-03    -85.0253E-03     18.1639E-03    -99.9452E-03     184.265E-03    -84.8117E-03     16.7322E-03
            2261     5.79861E-03     12.4765E-03    -58.6273E+06    -169.780E+06    -28.2691E+06     8.42025E+06    -94.4404E-03     177.623E-03    -83.1824E-03     13.7018E-03    -94.5476E-03     177.001E-03    -82.9926E-03     12.6636E-03
            2262     4.97838E-03     12.4338E-03    -63.2667E+06    -177.833E+06    -38.1595E+06     8.50652E+06    -89.6234E-03     171.212E-03    -81.5883E-03     10.5506E-03    -89.6888E-03     170.531E-03    -81.4295E-03     9.81451E-03
            2263     4.15379E-03     12.3972E-03    -68.1118E+06    -185.171E+06    -48.0125E+06     8.25002E+06    -85.5623E-03     165.838E-03    -80.2757E-03     8.16824E-03    -85.6021E-03     165.117E-03    -80.1485E-03     7.65766E-03
            2264     3.32616E-03     12.3686E-03    -72.3749E+06    -191.548E+06    -58.0090E+06     7.17752E+06    -82.4886E-03     161.721E-03    -79.2320E-03     6.16302E-03    -82.5102E-03     160.972E-03    -79.1393E-03     5.81191E-03
            2265     2.49662E-03     12.3451E-03    -75.8396E+06    -197.222E+06    -66.8079E+06     5.72212E+06    -80.2173E-03     158.653E-03    -78.4361E-03     4.33930E-03    -80.2253E-03     157.884E-03    -78.3742E-03     4.10613E-03
            2266     1.66539E-03     12.3301E-03    -78.9180E+06    -202.590E+06    -74.5055E+06     3.99982E+06    -78.5918E-03     156.483E-03    -77.8907E-03     2.83508E-03    -78.5902E-03     155.696E-03    -77.8551E-03     2.69218E-03
            2267     832.538E-06     12.3195E-03    -80.7746E+06    -204.974E+06    -79.4343E+06     2.08553E+06    -77.8112E-03     155.328E-03    -77.5173E-03     1.30779E-03    -77.8051E-03     154.536E-03    -77.5001E-03     1.23311E-03
            2268     15.3286E-03     12.6269E-03    -5.74013E+06     113.267E+06     93.1721E+06     438.533E+03    -139.137E-03     248.531E-03    -109.394E-03     62.6934E-03    -142.307E-03     251.813E-03    -109.084E-03     55.2878E-03
            2269     14.5503E-03     12.4877E-03    -10.5088E+06     116.098E+06     97.2695E+06     1.43636E+06    -139.809E-03     247.488E-03    -107.679E-03     114.419E-03    -144.924E-03     252.695E-03    -107.345E-03     104.071E-03
            2270     13.7679E-03     12.3590E-03    -15.3605E+06     106.048E+06     92.6489E+06     2.05301E+06    -143.759E-03     249.368E-03    -105.609E-03     125.079E-03    -149.021E-03     254.683E-03    -105.277E-03     113.913E-03
            2271     12.9908E-03     12.1784E-03    -20.1871E+06     95.6883E+06     76.0529E+06     2.84605E+06    -147.128E-03     250.163E-03    -103.035E-03     131.030E-03    -152.194E-03     255.278E-03    -102.764E-03     119.605E-03
            2272     12.2166E-03     12.0118E-03    -24.5241E+06     79.2626E+06     44.6980E+06     4.12153E+06    -144.915E-03     244.945E-03    -100.030E-03     105.581E-03    -148.600E-03     248.698E-03    -99.8863E-03     95.7271E-03
            2273     11.4368E-03     11.8728E-03    -28.3608E+06     52.5605E+06     17.8622E+06     5.14520E+06    -139.495E-03     236.391E-03    -96.8964E-03     78.2169E-03    -141.887E-03     238.821E-03    -96.8422E-03     70.4662E-03
            2274     10.6525E-03     11.7583E-03    -32.0281E+06     1.72249E+06     5.83482E+06     6.29574E+06    -133.146E-03     226.981E-03    -93.8351E-03     58.3742E-03    -134.697E-03     228.410E-03    -93.7620E-03     52.3869E-03
            2275     9.86434E-03     11.6579E-03    -36.2929E+06    -54.6035E+06    -1.86772E+06     7.60526E+06    -125.867E-03     216.719E-03    -90.8517E-03     43.2102E-03    -126.846E-03     217.384E-03    -90.7293E-03     38.6961E-03
            2276     9.06884E-03     11.5745E-03    -40.6355E+06    -93.7659E+06    -7.00945E+06     8.49136E+06    -118.052E-03     206.042E-03    -87.9898E-03     31.0561E-03    -118.661E-03     206.196E-03    -87.8300E-03     27.7193E-03
            2277     8.26677E-03     11.5033E-03    -44.5641E+06    -120.971E+06    -10.8273E+06     8.68711E+06    -110.453E-03     195.762E-03    -85.3095E-03     21.8732E-03    -110.827E-03     195.582E-03    -85.1236E-03     19.4295E-03
            2278     7.45908E-03     11.4443E-03    -48.6226E+06    -142.913E+06    -14.7899E+06     9.02422E+06    -103.280E-03     186.127E-03    -82.8470E-03     15.4720E-03    -103.509E-03     185.720E-03    -82.6432E-03     13.6954E-03
            2279     6.64524E-03     11.3935E-03    -53.0527E+06    -159.047E+06    -19.8070E+06     9.38636E+06    -96.5363E-03     177.168E-03    -80.6315E-03     10.9716E-03    -96.6761E-03     176.612E-03    -80.4230E-03     9.69860E-03
            2280     5.82594E-03     11.3507E-03    -57.6993E+06    -167.953E+06    -28.4352E+06     9.25345E+06    -90.5862E-03     169.259E-03    -78.6727E-03     7.77054E-03    -90.6732E-03     168.627E-03    -78.4876E-03     6.86273E-03
            2281     5.00188E-03     11.3147E-03    -62.5138E+06    -175.570E+06    -37.3902E+06     9.12815E+06    -85.5628E-03     162.558E-03    -76.9951E-03     5.74500E-03    -85.6183E-03     161.876E-03    -76.8368E-03     5.10627E-03
            2282     4.17401E-03     11.2853E-03    -66.6919E+06    -181.269E+06    -46.1029E+06     8.57116E+06    -81.3715E-03     156.966E-03    -75.5947E-03     4.43907E-03    -81.4065E-03     156.254E-03    -75.4656E-03     3.99981E-03
            2283     3.34302E-03     11.2599E-03    -70.2861E+06    -187.207E+06    -55.8798E+06     7.38841E+06    -77.9756E-03     152.449E-03    -74.4734E-03     3.33643E-03    -77.9928E-03     151.713E-03    -74.3795E-03     3.03906E-03
            2284     2.50918E-03     11.2413E-03    -73.6043E+06    -192.664E+06    -64.7681E+06     5.92941E+06    -75.4678E-03     149.108E-03    -73.6405E-03     2.32757E-03    -75.4725E-03     148.354E-03    -73.5782E-03     2.13367E-03
            2285     1.67339E-03     11.2272E-03    -75.9566E+06    -196.941E+06    -71.5293E+06     4.22033E+06    -73.8467E-03     146.919E-03    -73.0728E-03     1.49461E-03    -73.8421E-03     146.152E-03    -73.0347E-03     1.37807E-03
            2286     837.543E-06     11.2190E-03    -77.6240E+06    -199.720E+06    -76.5698E+06     2.28491E+06    -72.9287E-03     145.660E-03    -72.7309E-03     1.07644E-03    -72.9183E-03     144.885E-03    -72.7116E-03     1.01690E-03
            2287     15.3362E-03     11.4000E-03    -4.22416E+06     112.774E+06     93.3832E+06     650.376E+03    -145.474E-03     254.689E-03    -109.215E-03     59.7294E-03    -148.560E-03     257.890E-03    -108.906E-03     51.7499E-03
            2288     14.5578E-03     11.2727E-03    -9.28081E+06     116.089E+06     97.6229E+06    -2.22702E+03    -148.799E-03     255.865E-03    -107.066E-03     109.182E-03    -153.772E-03     260.935E-03    -106.733E-03     97.8742E-03
            2289     13.7848E-03     11.1366E-03    -14.7648E+06     104.804E+06     92.5030E+06     685.728E+03    -153.405E-03     257.822E-03    -104.417E-03     119.327E-03    -158.484E-03     262.953E-03    -104.085E-03     107.230E-03
            2290     13.0171E-03     10.9591E-03    -20.0269E+06     94.1935E+06     75.7558E+06     1.80492E+06    -154.980E-03     256.201E-03    -101.222E-03     120.540E-03    -159.744E-03     261.013E-03    -100.951E-03     108.558E-03
            2291     12.2455E-03     10.8005E-03    -24.6166E+06     77.1646E+06     43.8275E+06     3.53014E+06    -149.912E-03     247.571E-03    -97.6588E-03     92.9432E-03    -153.287E-03     251.009E-03    -97.5159E-03     82.9662E-03
            2292     11.4702E-03     10.6753E-03    -28.7663E+06     51.5916E+06     15.2956E+06     6.32383E+06    -142.419E-03     236.475E-03    -94.0561E-03     66.1107E-03    -144.582E-03     238.678E-03    -94.0127E-03     58.4619E-03
            2293     10.6891E-03     10.5703E-03    -33.6540E+06     3.29867E+06     2.88674E+06     8.85075E+06    -134.038E-03     224.664E-03    -90.6257E-03     47.1768E-03    -135.432E-03     225.945E-03    -90.5673E-03     41.4188E-03
            2294     9.89978E-03     10.4857E-03    -38.4032E+06    -52.1882E+06    -3.67279E+06     9.78772E+06    -125.141E-03     212.521E-03    -87.3797E-03     34.0656E-03    -126.026E-03     213.098E-03    -87.2668E-03     29.8079E-03
            2295     9.10344E-03     10.4140E-03    -42.1390E+06    -90.8736E+06    -7.98663E+06     9.42735E+06    -116.317E-03     200.646E-03    -84.3296E-03     23.9027E-03    -116.872E-03     200.755E-03    -84.1767E-03     20.7844E-03
            2296     8.30009E-03     10.3565E-03    -45.6669E+06    -118.850E+06    -11.1536E+06     9.19850E+06    -107.863E-03     189.385E-03    -81.5217E-03     16.4481E-03    -108.209E-03     189.181E-03    -81.3389E-03     14.1857E-03
            2297     7.48926E-03     10.3075E-03    -49.3485E+06    -141.621E+06    -14.8054E+06     9.38953E+06    -100.104E-03     179.086E-03    -78.9822E-03     11.7068E-03    -100.319E-03     178.667E-03    -78.7793E-03     10.0741E-03
            2298     6.67285E-03     10.2679E-03    -53.3603E+06    -157.260E+06    -19.4723E+06     9.69222E+06    -93.1627E-03     169.879E-03    -76.7165E-03     8.71949E-03    -93.2991E-03     169.325E-03    -76.5085E-03     7.54980E-03
            2299     5.85041E-03     10.2338E-03    -57.7856E+06    -165.623E+06    -27.6151E+06     9.72184E+06    -87.0400E-03     161.758E-03    -74.7184E-03     6.66587E-03    -87.1289E-03     161.135E-03    -74.5325E-03     5.83809E-03
            2300     5.02307E-03     10.2058E-03    -61.7594E+06    -172.480E+06    -35.4185E+06     9.01528E+06    -81.9297E-03     154.936E-03    -73.0063E-03     5.22568E-03    -81.9879E-03     154.265E-03    -72.8437E-03     4.63828E-03
            2301     4.19202E-03     10.1815E-03    -65.3652E+06    -177.662E+06    -43.7307E+06     7.96541E+06    -77.6568E-03     149.220E-03    -71.5633E-03     4.32869E-03    -77.6942E-03     148.521E-03    -71.4296E-03     3.91686E-03
            2302     3.35745E-03     10.1624E-03    -68.7387E+06    -183.127E+06    -52.9573E+06     6.90406E+06    -74.1400E-03     144.538E-03    -70.3981E-03     3.65207E-03    -74.1600E-03     143.817E-03    -70.2976E-03     3.37347E-03
            2303     2.52008E-03     10.1466E-03    -71.3101E+06    -187.843E+06    -61.2906E+06     5.35777E+06    -71.5190E-03     141.038E-03    -69.5194E-03     2.84712E-03    -71.5244E-03     140.301E-03    -69.4501E-03     2.66315E-03
            2304     1.68149E-03     10.1353E-03    -73.2172E+06    -191.981E+06    -68.2885E+06     3.59762E+06    -69.7519E-03     138.666E-03    -68.9139E-03     1.98504E-03    -69.7454E-03     137.915E-03    -68.8708E-03     1.87163E-03
            2305     840.228E-06     10.1286E-03    -74.5413E+06    -194.563E+06    -72.8004E+06     1.94456E+06    -68.7848E-03     137.323E-03    -68.5378E-03     1.27820E-03    -68.7717E-03     136.564E-03    -68.5116E-03     1.21939E-03
            2306     15.3361E-03     10.1716E-03    -4.33209E+06     112.977E+06     94.0179E+06     329.033E+03    -153.818E-03     262.709E-03    -108.891E-03     60.0392E-03    -156.867E-03     265.870E-03    -108.578E-03     51.2692E-03
            2307     14.5698E-03     10.0406E-03    -9.64533E+06     115.654E+06     97.3904E+06    -626.367E+03    -158.955E-03     265.172E-03    -106.217E-03     104.482E-03    -163.815E-03     270.126E-03    -105.884E-03     92.0942E-03
            2308     13.8064E-03     9.90558E-03    -15.5796E+06     103.833E+06     91.8426E+06    -14.9060E+03    -162.390E-03     265.359E-03    -102.970E-03     114.235E-03    -167.323E-03     270.341E-03    -102.639E-03     101.319E-03
            2309     13.0432E-03     9.73134E-03    -21.7266E+06     91.8520E+06     73.8234E+06     1.08202E+06    -160.836E-03     260.066E-03    -99.2304E-03     111.299E-03    -165.329E-03     264.598E-03    -98.9629E-03     99.0092E-03
            2310     12.2777E-03     9.58946E-03    -27.5928E+06     72.8950E+06     40.2794E+06     4.10023E+06    -153.062E-03     248.301E-03    -95.2394E-03     82.7168E-03    -156.189E-03     251.477E-03    -95.1037E-03     72.7848E-03
            2311     11.5039E-03     9.47448E-03    -33.3005E+06     48.1024E+06     10.8261E+06     8.55664E+06    -143.219E-03     234.551E-03    -91.3322E-03     57.9462E-03    -145.231E-03     236.589E-03    -91.2995E-03     50.5297E-03
            2312     10.7216E-03     9.38867E-03    -37.9836E+06     5.12418E+06     254.622E+03     11.2283E+06    -132.806E-03     220.537E-03    -87.7313E-03     41.2574E-03    -134.114E-03     221.732E-03    -87.6824E-03     35.8131E-03
            2313     9.93079E-03     9.31672E-03    -41.5094E+06    -47.6885E+06    -4.19896E+06     10.6220E+06    -122.716E-03     207.143E-03    -84.4273E-03     30.6708E-03    -123.569E-03     207.695E-03    -84.3190E-03     26.6756E-03
            2314     9.13213E-03     9.26079E-03    -44.2744E+06    -87.5025E+06    -7.83386E+06     9.14221E+06    -113.181E-03     194.575E-03    -81.3943E-03     22.8734E-03    -113.730E-03     194.682E-03    -81.2424E-03     19.9536E-03
            2315     8.32542E-03     9.21504E-03    -46.9753E+06    -117.112E+06    -10.0509E+06     8.76741E+06    -104.401E-03     183.061E-03    -78.6608E-03     17.9175E-03    -104.757E-03     182.866E-03    -78.4731E-03     15.7945E-03
            2316     7.51206E-03     9.17974E-03    -50.4356E+06    -140.183E+06    -13.0002E+06     9.14918E+06    -96.6467E-03     172.871E-03    -76.2241E-03     14.8727E-03    -96.8809E-03     172.467E-03    -76.0127E-03     13.3338E-03
            2317     6.69158E-03     9.14882E-03    -54.4051E+06    -155.450E+06    -18.0020E+06     9.27981E+06    -89.9137E-03     163.975E-03    -74.0616E-03     12.7529E-03    -90.0708E-03     163.441E-03    -73.8474E-03     11.6390E-03
            2318     5.86660E-03     9.12483E-03    -57.7771E+06    -162.762E+06    -25.0648E+06     8.69874E+06    -84.1787E-03     156.331E-03    -72.1519E-03     11.3126E-03    -84.2861E-03     155.728E-03    -71.9575E-03     10.5045E-03
            2319     5.03708E-03     9.10315E-03    -60.9948E+06    -169.117E+06    -32.0127E+06     7.63072E+06    -79.2236E-03     149.730E-03    -70.5060E-03     10.2053E-03    -79.2965E-03     149.079E-03    -70.3324E-03     9.61968E-03
            2320     4.20341E-03     9.08621E-03    -64.3127E+06    -174.497E+06    -40.2671E+06     6.42312E+06    -75.0993E-03     144.213E-03    -69.1135E-03     9.02181E-03    -75.1470E-03     143.530E-03    -68.9686E-03     8.60144E-03
            2321     3.36634E-03     9.07144E-03    -66.9641E+06    -179.313E+06    -48.7456E+06     5.05137E+06    -71.8177E-03     139.783E-03    -67.9654E-03     7.66596E-03    -71.8443E-03     139.077E-03    -67.8520E-03     7.36858E-03
            2322     2.52736E-03     9.05969E-03    -69.0654E+06    -183.795E+06    -56.9327E+06     3.53643E+06    -69.1946E-03     136.259E-03    -67.0648E-03     6.02052E-03    -69.2029E-03     135.535E-03    -66.9828E-03     5.81608E-03
            2323     1.68523E-03     9.05146E-03    -70.8248E+06    -188.180E+06    -64.7801E+06     1.99777E+06    -67.3837E-03     133.793E-03    -66.4094E-03     4.33271E-03    -67.3765E-03     133.054E-03    -66.3577E-03     4.19979E-03
            2324     843.918E-06     9.04488E-03    -72.0672E+06    -191.088E+06    -70.1334E+06     768.394E+03    -66.4397E-03     132.252E-03    -65.8127E-03     2.39447E-03    -66.4232E-03     131.505E-03    -65.7817E-03     2.32180E-03
            2325     15.3461E-03     8.92480E-03    -3.86807E+06     113.190E+06     94.5170E+06     139.971E+03    -163.368E-03     271.774E-03    -108.406E-03     59.6295E-03    -166.360E-03     274.880E-03    -108.092E-03     50.0817E-03
            2326     14.5868E-03     8.80032E-03    -9.73793E+06     113.489E+06     96.3633E+06     87.8851E+03    -167.446E-03     272.671E-03    -105.225E-03     102.388E-03    -172.222E-03     277.536E-03    -104.893E-03     89.1509E-03
            2327     13.8280E-03     8.66392E-03    -16.0234E+06     103.280E+06     90.8033E+06     822.055E+03    -168.833E-03     270.339E-03    -101.506E-03     111.128E-03    -173.639E-03     275.194E-03    -101.178E-03     97.7252E-03
            2328     13.0704E-03     8.50220E-03    -23.6764E+06     88.7858E+06     71.1637E+06     3.04038E+06    -163.868E-03     261.270E-03    -97.4027E-03     105.345E-03    -168.119E-03     265.550E-03    -97.1413E-03     93.1308E-03
            2329     12.3043E-03     8.37429E-03    -31.6855E+06      67.512E+06     37.8681E+06     7.06631E+06    -153.422E-03     246.632E-03    -93.2097E-03     77.4207E-03    -156.368E-03     249.600E-03    -93.0723E-03     67.8249E-03
            2330     11.5296E-03     8.27984E-03    -37.4755E+06     44.9701E+06     11.4342E+06     10.6639E+06    -140.959E-03     230.224E-03    -89.2648E-03     54.7475E-03    -142.860E-03     232.123E-03    -89.2184E-03     47.7848E-03
            2331     10.7447E-03     8.20944E-03    -41.0349E+06     8.03947E+06     2.43800E+06     11.4910E+06    -129.044E-03     214.805E-03    -85.7603E-03     42.1444E-03    -130.328E-03     215.967E-03    -85.7003E-03     37.0858E-03
            2332     9.95085E-03     8.15539E-03    -43.3842E+06    -41.6818E+06    -1.05307E+06     9.49387E+06    -118.324E-03     200.980E-03    -82.6565E-03     34.6021E-03    -119.192E-03     201.552E-03    -82.5384E-03     30.8856E-03
            2333     9.14767E-03     8.11304E-03    -45.6251E+06    -84.9263E+06    -4.87591E+06     7.83588E+06    -108.429E-03     188.335E-03    -79.9068E-03     29.8373E-03    -109.009E-03     188.469E-03    -79.7419E-03     27.1158E-03
            2334     8.33677E-03     8.08206E-03    -48.5837E+06    -116.134E+06    -6.82675E+06     7.71475E+06    -100.192E-03     177.690E-03    -77.4977E-03     27.0853E-03    -100.591E-03     177.526E-03    -77.2930E-03     25.0769E-03
            2335     7.51924E-03     8.05570E-03    -51.8335E+06    -139.003E+06    -8.99782E+06     7.80738E+06    -93.2650E-03     168.639E-03    -75.3739E-03     25.1633E-03    -93.5427E-03     168.267E-03    -75.1421E-03     23.6751E-03
            2336     6.69733E-03     8.03653E-03    -54.7127E+06    -152.996E+06    -13.8058E+06     7.23572E+06    -87.3001E-03     160.791E-03    -73.4905E-03     23.6712E-03    -87.4935E-03     160.288E-03    -73.2583E-03     22.5644E-03
            2337     5.86973E-03     8.01870E-03    -57.3850E+06    -160.146E+06    -20.6954E+06     6.11676E+06    -82.2317E-03     154.067E-03    -71.8348E-03     22.2196E-03    -82.3674E-03     153.491E-03    -71.6229E-03     21.3916E-03
            2338     5.03844E-03     8.00558E-03    -60.1182E+06    -166.107E+06    -26.6773E+06     4.83300E+06    -78.0244E-03     148.433E-03    -70.4083E-03     20.3945E-03    -78.1196E-03     147.802E-03    -70.2136E-03     19.7745E-03
            2339     4.20356E-03     7.99335E-03    -62.6254E+06    -171.171E+06    -34.8333E+06     3.18466E+06    -74.5345E-03     143.709E-03    -69.1746E-03     18.1327E-03    -74.5964E-03     143.042E-03    -69.0097E-03     17.6670E-03
            2340     3.36688E-03     7.98342E-03    -65.0621E+06    -176.593E+06    -44.0793E+06     1.69569E+06    -71.6133E-03     139.750E-03    -68.1367E-03     15.3660E-03    -71.6471E-03     139.054E-03    -68.0067E-03     15.0217E-03
            2341     2.52680E-03     7.97595E-03    -67.3804E+06    -181.592E+06    -52.8675E+06     504.730E+03    -69.3458E-03     136.642E-03    -67.2967E-03     12.2113E-03    -69.3581E-03     135.924E-03    -67.2000E-03     11.9657E-03
            2342     1.68649E-03     7.96942E-03    -69.2778E+06    -186.422E+06    -61.6795E+06     16.2484E+03    -67.6647E-03     134.303E-03    -66.6379E-03     8.61497E-03    -67.6584E-03     133.567E-03    -66.5755E-03     8.45659E-03
            2343     842.669E-06     7.96609E-03    -70.7159E+06    -190.186E+06    -68.6421E+06    -170.388E+03    -66.4794E-03     132.672E-03    -66.1929E-03     4.82358E-03    -66.4602E-03     131.925E-03    -66.1578E-03     4.73865E-03
            2344     15.3571E-03     7.67651E-03    -4.89126E+06     112.454E+06     93.3080E+06     273.254E+03    -172.101E-03     280.135E-03    -108.034E-03     68.9935E-03    -175.246E-03     283.391E-03    -107.723E-03     58.5654E-03
            2345     14.5985E-03     7.55031E-03    -10.3559E+06     112.438E+06     95.4551E+06     1.36629E+06    -174.395E-03     278.836E-03    -104.441E-03     107.208E-03    -179.212E-03     283.740E-03    -104.112E-03     93.3893E-03
            2346     13.8465E-03     7.41465E-03    -18.1696E+06     100.921E+06     87.8967E+06     3.65957E+06    -172.053E-03     272.472E-03    -100.419E-03     112.852E-03    -176.762E-03     277.223E-03    -100.099E-03     99.4676E-03
            2347     13.0873E-03     7.27456E-03    -26.7889E+06     84.0301E+06     68.5230E+06     7.11322E+06    -163.895E-03     260.086E-03    -96.1911E-03     104.001E-03    -167.934E-03     264.135E-03    -95.9314E-03     92.2718E-03
            2348     12.3206E-03     7.15949E-03    -33.8808E+06     64.4459E+06     40.7339E+06     10.0872E+06    -149.610E-03     241.706E-03    -92.0959E-03     76.1802E-03    -152.354E-03     244.447E-03    -91.9365E-03     67.3574E-03
            2349     11.5426E-03     7.09164E-03    -38.8989E+06     44.5274E+06     18.8038E+06     10.9424E+06    -134.862E-03     223.320E-03    -88.4588E-03     58.7004E-03    -136.686E-03     225.116E-03    -88.3729E-03     52.4229E-03
            2350     10.7513E-03     7.03761E-03    -41.6823E+06     12.2400E+06     10.4541E+06     9.66581E+06    -122.388E-03     207.773E-03    -85.3850E-03     51.5847E-03    -123.687E-03     208.941E-03    -85.2901E-03     46.9994E-03
            2351     9.95145E-03     6.99973E-03    -44.0420E+06    -37.4993E+06     5.78531E+06     7.62310E+06    -111.691E-03     194.489E-03    -82.7980E-03     47.0696E-03    -112.599E-03     195.094E-03    -82.6509E-03     43.6923E-03
            2352     9.14271E-03     6.97358E-03    -47.0251E+06    -83.2774E+06     1.48625E+06      6.2538E+06    -102.911E-03     183.518E-03    -80.6070E-03     45.0870E-03    -103.550E-03     183.693E-03    -80.4106E-03     42.5659E-03
            2353     8.32759E-03     6.95156E-03    -49.9718E+06    -115.334E+06    -295.229E+03     5.36082E+06    -95.9625E-03     174.704E-03    -78.7412E-03     43.7271E-03    -96.4204E-03     174.578E-03    -78.5030E-03     41.8155E-03
            2354     7.50774E-03     6.93680E-03    -52.3407E+06    -137.558E+06    -1.48473E+06     4.47044E+06    -90.3783E-03     167.509E-03    -77.1304E-03     42.0552E-03    -90.7065E-03     167.168E-03    -76.8625E-03     40.5937E-03
            2355     6.68247E-03     6.92347E-03    -54.5554E+06    -150.602E+06    -6.41073E+06     3.09208E+06    -85.8312E-03     161.539E-03    -75.7074E-03     40.2584E-03    -86.0672E-03     161.066E-03    -75.4420E-03     39.1274E-03
            2356     5.85478E-03     6.91445E-03    -56.7346E+06    -158.141E+06    -13.6757E+06     1.48160E+06    -82.1119E-03     156.561E-03    -74.4489E-03     37.5937E-03    -82.2792E-03     156.005E-03    -74.2057E-03     36.7133E-03
            2357     5.02353E-03     6.90520E-03    -58.4195E+06    -163.435E+06    -20.2600E+06    -53.8424E+03    -78.9666E-03     152.319E-03    -73.3526E-03     34.1910E-03    -79.0814E-03     151.705E-03    -73.1322E-03     33.5081E-03
            2358     4.19093E-03     6.89842E-03    -60.3394E+06    -169.434E+06    -29.9410E+06    -1.35453E+06    -76.3256E-03     148.723E-03    -72.3973E-03     30.1610E-03    -76.3957E-03     148.063E-03    -72.2138E-03     29.6351E-03
            2359     3.35464E-03     6.89265E-03    -62.5821E+06    -175.408E+06    -39.9549E+06    -2.25594E+06    -74.1549E-03     145.747E-03    -71.5919E-03     25.3530E-03    -74.1904E-03     145.051E-03    -71.4466E-03     24.9567E-03
            2360     2.51812E-03     6.88760E-03    -65.3593E+06    -181.633E+06    -50.1500E+06    -2.55913E+06    -72.4489E-03     143.382E-03    -70.9330E-03     19.9725E-03    -72.4588E-03     142.658E-03    -70.8256E-03     19.6873E-03
            2361     1.67885E-03     6.88423E-03    -68.0113E+06    -187.824E+06    -60.3521E+06    -2.13069E+06    -71.1178E-03     141.549E-03    -70.4314E-03     13.9807E-03    -71.1074E-03     140.803E-03    -70.3622E-03     13.7949E-03
            2362     840.790E-06     6.88190E-03    -69.5359E+06    -191.710E+06    -67.3676E+06    -865.502E+03    -70.1768E-03     140.409E-03    -70.2327E-03     7.81893E-03    -70.1528E-03     139.651E-03    -70.1907E-03     7.72672E-03
            2363     15.3471E-03     6.40515E-03    -5.53039E+06     111.029E+06     90.9653E+06     1.57503E+06    -176.740E-03     284.764E-03    -108.024E-03     74.4063E-03    -179.914E-03     288.050E-03    -107.722E-03     63.7749E-03
            2364     14.6068E-03     6.28862E-03    -12.8167E+06     108.340E+06     90.4633E+06     3.40297E+06    -176.709E-03     280.973E-03    -104.264E-03     115.120E-03    -181.582E-03     285.924E-03    -103.950E-03     101.330E-03
            2365     13.8498E-03     6.17261E-03    -20.3478E+06     96.3921E+06     84.1550E+06     7.02016E+06    -173.085E-03     273.266E-03    -100.182E-03     119.650E-03    -177.698E-03     277.910E-03    -99.8712E-03     106.666E-03
            2366     13.0920E-03     6.03618E-03    -26.9116E+06     80.4118E+06     70.3432E+06     9.71654E+06    -159.130E-03     255.241E-03    -96.1109E-03     104.474E-03    -162.826E-03     258.932E-03    -95.8368E-03     93.8475E-03
            2367     12.3209E-03     5.96106E-03    -32.6266E+06     63.4283E+06     48.9103E+06     11.1315E+06    -140.081E-03     232.594E-03    -92.5135E-03     82.2947E-03    -142.601E-03     235.089E-03    -92.3136E-03     74.7114E-03
            2368     11.5304E-03     5.90802E-03    -37.0664E+06     47.6781E+06     29.9975E+06     10.3753E+06    -124.928E-03     214.515E-03    -89.5876E-03     72.6372E-03    -126.701E-03     216.245E-03    -89.4530E-03     67.2319E-03
            2369     10.7337E-03     5.87497E-03    -40.9854E+06     15.4168E+06     21.6193E+06     7.65393E+06    -113.226E-03     200.527E-03    -87.3007E-03     69.5578E-03    -114.533E-03     201.686E-03    -87.1556E-03     65.5635E-03
            2370     9.92530E-03     5.85171E-03    -44.6626E+06    -36.0848E+06     16.4204E+06     5.50999E+06    -104.331E-03     189.844E-03    -85.5132E-03     68.0432E-03    -105.280E-03     190.463E-03    -85.3140E-03     65.0432E-03
            2371     9.11207E-03     5.83566E-03    -47.6015E+06    -81.6670E+06     12.2049E+06     3.29569E+06    -97.9827E-03     182.049E-03    -84.0667E-03     66.8037E-03    -98.6675E-03     182.242E-03    -83.8182E-03     64.4902E-03
            2372     8.29361E-03     5.82402E-03    -49.6999E+06    -114.108E+06     11.3190E+06     834.587E+03    -93.0897E-03     175.965E-03    -82.8751E-03     65.0255E-03    -93.5892E-03     175.851E-03    -82.5809E-03     63.2036E-03
            2373     7.47122E-03     5.81448E-03    -51.6401E+06    -135.788E+06     8.40616E+06    -1.31958E+06    -89.4575E-03     171.313E-03    -81.8560E-03     61.9508E-03    -89.8193E-03     170.985E-03    -81.5422E-03     60.5012E-03
            2374     6.64723E-03     5.80858E-03    -53.1020E+06    -148.692E+06     2.23095E+06    -3.42965E+06    -86.6765E-03     167.630E-03    -80.9536E-03     58.0003E-03    -86.9349E-03     167.164E-03    -80.6498E-03     56.8331E-03
            2375     5.82040E-03     5.80182E-03    -54.2438E+06    -156.506E+06    -6.60507E+06    -5.28961E+06    -84.4008E-03     164.549E-03    -80.1477E-03     53.4065E-03    -84.5787E-03     163.995E-03    -79.8751E-03     52.4656E-03
            2376     4.99287E-03     5.79844E-03    -55.5964E+06    -163.257E+06    -16.7752E+06    -6.37527E+06    -82.5409E-03     161.978E-03    -79.4368E-03     47.9282E-03    -82.6546E-03     161.360E-03    -79.2033E-03     47.1779E-03
            2377     4.16195E-03     5.79402E-03    -57.1543E+06    -170.357E+06    -27.9642E+06    -6.41516E+06    -80.9575E-03     159.777E-03    -78.8200E-03     41.5279E-03    -81.0186E-03     159.108E-03    -78.6299E-03     40.9430E-03
            2378     3.33201E-03     5.79122E-03    -59.8494E+06    -177.176E+06    -38.8371E+06    -5.64416E+06    -79.7008E-03     158.002E-03    -78.3017E-03     34.4245E-03    -79.7253E-03     157.293E-03    -78.1521E-03     33.9869E-03
            2379     2.49935E-03     5.78855E-03    -63.0102E+06    -184.285E+06    -49.8116E+06    -4.31240E+06    -78.6392E-03     156.525E-03    -77.8858E-03     26.6644E-03    -78.6369E-03     155.784E-03    -77.7763E-03     26.3572E-03
            2380     1.66732E-03     5.78671E-03    -66.3035E+06    -191.250E+06    -60.4871E+06    -2.87857E+06    -77.8817E-03     155.473E-03    -77.5911E-03     18.3280E-03    -77.8599E-03     154.706E-03    -77.5201E-03     18.1322E-03
            2381     832.382E-06     5.78578E-03    -68.4418E+06    -195.217E+06    -67.0676E+06    -1.58732E+06    -77.4703E-03     154.912E-03    -77.4414E-03     10.1177E-03    -77.4378E-03     154.132E-03    -77.3945E-03     10.0149E-03
            2382     15.3603E-03     5.14560E-03    -6.27643E+06     108.666E+06     86.4662E+06     4.78100E+06    -177.371E-03     286.221E-03    -108.850E-03     98.3073E-03    -180.826E-03     289.787E-03    -108.566E-03     87.7190E-03
            2383     14.5877E-03     5.03772E-03    -13.6556E+06     103.912E+06     86.0126E+06     7.39074E+06    -178.286E-03     283.401E-03    -105.115E-03     132.411E-03    -183.229E-03     288.412E-03    -104.815E-03     118.992E-03
            2384     13.8396E-03     4.90560E-03    -19.1732E+06     93.3271E+06     83.6591E+06     8.42605E+06    -167.743E-03     268.979E-03    -101.237E-03     124.714E-03    -171.991E-03     273.259E-03    -100.926E-03     113.004E-03
            2385     13.0770E-03     4.82280E-03    -24.3178E+06     78.6734E+06     75.2595E+06     9.65962E+06    -145.927E-03     243.740E-03    -97.8129E-03     111.410E-03    -149.138E-03     246.937E-03    -97.5154E-03     102.721E-03
            2386     12.2870E-03     4.76703E-03    -29.0638E+06     62.9918E+06     58.6229E+06     10.4670E+06    -126.420E-03     221.606E-03    -95.1862E-03     99.2541E-03    -128.687E-03     223.832E-03    -94.9423E-03     93.1479E-03
            2387     11.4922E-03     4.73837E-03    -33.9018E+06     51.2212E+06     42.7299E+06     9.52045E+06    -113.214E-03     206.506E-03    -93.2921E-03     94.9958E-03    -114.869E-03     208.106E-03    -93.1035E-03     90.5880E-03
            2388     10.6819E-03     4.71820E-03    -38.7371E+06     17.7001E+06     35.3009E+06     6.34617E+06    -104.647E-03     196.638E-03    -91.9908E-03     93.7448E-03    -105.889E-03     197.706E-03    -91.7837E-03     90.4261E-03
            2389     9.86984E-03     4.70614E-03    -42.7255E+06    -35.0697E+06     30.8620E+06     1.96745E+06    -99.4567E-03     190.525E-03    -91.0684E-03     91.6064E-03    -100.371E-03     191.075E-03    -90.8013E-03     88.9990E-03
            2390     9.05273E-03     4.69623E-03    -45.4371E+06    -79.5246E+06     26.5800E+06    -2.05911E+06    -96.0464E-03     186.391E-03    -90.3442E-03     88.0463E-03    -96.7107E-03     186.534E-03    -90.0301E-03     85.9514E-03
            2391     8.23450E-03     4.69032E-03    -47.2908E+06    -112.162E+06     23.7353E+06    -6.00535E+06    -93.6745E-03     183.427E-03    -89.7525E-03     83.3816E-03    -94.1557E-03     183.271E-03    -89.4026E-03     81.6640E-03
            2392     7.41454E-03     4.68499E-03    -48.2417E+06    -134.051E+06     17.6915E+06    -9.55983E+06    -91.9575E-03     181.190E-03    -89.2324E-03     77.7468E-03    -92.2997E-03     180.830E-03    -88.8796E-03     76.3162E-03
            2393     6.59325E-03     4.68093E-03    -48.6283E+06    -148.146E+06     7.04286E+06    -12.0434E+06    -90.7132E-03     179.467E-03    -88.7542E-03     71.2165E-03    -90.9431E-03     178.974E-03    -88.4337E-03     70.0242E-03
            2394     5.77111E-03     4.67896E-03    -49.1420E+06    -157.888E+06    -5.79231E+06    -12.6950E+06    -89.7097E-03     178.031E-03    -88.3215E-03     64.1294E-03    -89.8524E-03     177.450E-03    -88.0503E-03     63.1471E-03
            2395     4.94715E-03     4.67552E-03    -50.6970E+06    -166.528E+06    -18.5861E+06    -11.6898E+06    -88.9631E-03     176.905E-03    -87.9417E-03     56.2696E-03    -89.0394E-03     176.258E-03    -87.7197E-03     55.4816E-03
            2396     4.12500E-03     4.67456E-03    -53.6048E+06    -174.913E+06    -30.9259E+06    -9.71988E+06    -88.3619E-03     175.969E-03    -87.6072E-03     47.9066E-03    -88.3915E-03     175.270E-03    -87.4304E-03     47.2941E-03
            2397     3.29956E-03     4.67238E-03    -56.9139E+06    -182.367E+06    -41.8415E+06    -7.06744E+06    -87.7597E-03     175.089E-03    -87.3295E-03     39.1188E-03    -87.7569E-03     174.351E-03    -87.1918E-03     38.6663E-03
            2398     2.47576E-03     4.67143E-03    -60.5111E+06    -189.202E+06    -51.5575E+06    -4.29935E+06    -87.3580E-03     174.471E-03    -87.1127E-03     29.8662E-03    -87.3338E-03     173.702E-03    -87.0084E-03     29.5560E-03
            2399     1.64982E-03     4.67054E-03     -63.756E+06    -194.927E+06    -59.6725E+06    -2.15899E+06    -87.0950E-03     174.033E-03    -86.9381E-03     20.3608E-03    -87.0570E-03     173.242E-03    -86.8613E-03     20.1700E-03
            2400     826.602E-06     4.66929E-03    -66.4964E+06    -198.550E+06    -65.2853E+06    -984.529E+03    -86.8324E-03     173.666E-03    -86.8338E-03     11.1674E-03    -86.7889E-03     172.863E-03    -86.7760E-03     11.0690E-03
            2401     15.2911E-03     3.87799E-03    -8.91166E+06     105.956E+06     83.5398E+06     7.45597E+06    -179.020E-03     289.874E-03    -110.854E-03     117.397E-03    -182.518E-03     293.472E-03    -110.577E-03     107.218E-03
            2402     14.5674E-03     3.74946E-03    -11.0775E+06     102.751E+06     87.6207E+06     7.26552E+06    -172.292E-03     279.665E-03    -107.373E-03     142.732E-03    -176.885E-03     284.339E-03    -107.068E-03     130.771E-03
            2403     13.8081E-03     3.67454E-03    -14.2856E+06     91.3581E+06     87.1921E+06     8.44975E+06    -150.181E-03     254.459E-03    -104.278E-03     136.404E-03    -153.772E-03     258.086E-03    -103.954E-03     127.250E-03
            2404     13.0175E-03     3.61560E-03    -20.3416E+06     77.8527E+06     80.4681E+06     9.03018E+06    -128.375E-03     230.421E-03    -102.046E-03     129.914E-03    -130.993E-03     233.020E-03    -101.727E-03     123.476E-03
            2405     12.2245E-03     3.58983E-03    -25.5667E+06     62.4801E+06     64.6320E+06     8.64917E+06    -114.145E-03     214.732E-03    -100.587E-03     122.234E-03    -116.003E-03     216.540E-03    -100.318E-03     117.633E-03
            2406     11.4121E-03     3.57294E-03    -29.7374E+06     53.6225E+06     50.6829E+06     8.05186E+06    -106.230E-03     205.899E-03    -99.6685E-03     117.323E-03    -107.605E-03     207.212E-03    -99.4497E-03     113.928E-03
            2407     10.6025E-03     3.56252E-03    -33.7867E+06     21.2012E+06     44.3699E+06     3.97926E+06    -102.417E-03     201.546E-03    -99.1292E-03     111.513E-03    -103.445E-03     202.399E-03    -98.8891E-03     108.854E-03
            2408     9.78811E-03     3.55285E-03    -37.8813E+06    -32.5110E+06     37.1497E+06    -2.39691E+06    -100.407E-03     199.184E-03    -98.7773E-03     104.585E-03    -101.149E-03     199.566E-03    -98.4895E-03     102.414E-03
            2409     8.97508E-03     3.54791E-03    -40.6849E+06    -75.8170E+06     30.6202E+06    -9.05887E+06    -99.3300E-03     197.830E-03    -98.5005E-03     97.1004E-03    -99.8634E-03     197.857E-03    -98.1784E-03     95.2653E-03
            2410     8.16015E-03     3.54274E-03    -41.1671E+06    -109.695E+06     23.9473E+06    -15.2618E+06    -98.6357E-03     196.895E-03    -98.2592E-03     89.2854E-03    -99.0030E-03     196.652E-03    -97.9207E-03     87.7032E-03
            2411     7.34548E-03     3.54010E-03    -40.7348E+06    -134.203E+06     13.9490E+06    -19.0916E+06    -98.1039E-03     196.134E-03    -98.0297E-03     81.3540E-03    -98.3399E-03     195.702E-03    -97.7063E-03     79.9875E-03
            2412     6.52970E-03     3.53762E-03    -41.0169E+06    -151.558E+06     807.001E+03    -19.5524E+06    -97.8342E-03     195.641E-03    -97.8072E-03     72.9808E-03    -97.9691E-03     195.084E-03    -97.5239E-03     71.8212E-03
            2413     5.71432E-03     3.53565E-03    -42.8877E+06    -164.617E+06    -13.6876E+06    -17.1116E+06    -97.6888E-03     195.279E-03    -97.5897E-03     64.3456E-03    -97.7496E-03     194.636E-03    -97.3573E-03     63.3932E-03
            2414     4.89939E-03     3.53478E-03    -46.1812E+06    -173.859E+06    -26.1547E+06    -13.1390E+06    -97.4448E-03     194.842E-03    -97.3971E-03     55.6349E-03    -97.4583E-03     194.143E-03    -97.2088E-03     54.8836E-03
            2415     4.08180E-03     3.53301E-03    -50.2833E+06    -182.397E+06    -37.4131E+06    -9.12950E+06    -97.2650E-03     194.500E-03    -97.2351E-03     46.6798E-03    -97.2461E-03     193.756E-03    -97.0847E-03     46.1078E-03
            2416     3.26705E-03     3.53292E-03    -54.4327E+06    -188.989E+06    -46.2090E+06    -5.56889E+06    -97.1532E-03     194.253E-03    -97.0998E-03     37.7044E-03    -97.1155E-03     193.477E-03    -96.9778E-03     37.2879E-03
            2417     2.44946E-03     3.53186E-03    -57.9950E+06    -194.374E+06    -53.1585E+06    -2.79054E+06    -97.0280E-03     194.015E-03    -96.9871E-03     28.5782E-03    -96.9779E-03     193.215E-03    -96.8870E-03     28.2949E-03
            2418     1.63428E-03     3.53107E-03    -60.5498E+06    -198.013E+06    -58.0908E+06    -920.506E+03    -96.9063E-03     193.812E-03    -96.9062E-03     19.4005E-03    -96.8484E-03     192.997E-03    -96.8217E-03     19.2276E-03
            2419     815.447E-06     3.53153E-03    -62.2344E+06    -199.983E+06    -61.4191E+06    -157.096E+03    -96.8934E-03     193.705E-03    -96.8116E-03     10.6993E-03    -96.8316E-03     192.883E-03    -96.7385E-03     10.6122E-03
            2420     15.2919E-03     2.58775E-03    -8.45489E+06     105.093E+06     87.1423E+06     5.95737E+06    -174.383E-03     289.100E-03    -114.717E-03     159.889E-03    -178.219E-03     293.037E-03    -114.421E-03     150.274E-03
            2421     14.5084E-03     2.50230E-03    -3.66576E+06     101.220E+06     94.2204E+06     5.95621E+06    -154.806E-03     266.757E-03    -111.951E-03     168.573E-03    -158.835E-03     270.864E-03    -111.621E-03     159.155E-03
            2422     13.7196E-03     2.45518E-03    -9.12442E+06     87.8429E+06     91.0701E+06     8.62922E+06    -133.610E-03     243.581E-03    -109.971E-03     154.703E-03    -136.226E-03     246.219E-03    -109.630E-03     148.379E-03
            2423     12.9286E-03     2.42685E-03    -14.2236E+06     77.8301E+06     84.4814E+06     9.71885E+06    -120.034E-03     228.786E-03    -108.751E-03     142.225E-03    -121.806E-03     230.539E-03    -108.421E-03     137.883E-03
            2424     12.1175E-03     2.41161E-03    -20.2398E+06     64.6349E+06     64.7038E+06     7.62249E+06    -113.140E-03     221.100E-03    -107.960E-03     127.340E-03    -114.380E-03     222.305E-03    -107.701E-03     124.167E-03
            2425     11.3164E-03     2.40107E-03    -24.3643E+06     55.4767E+06     40.7628E+06     5.34569E+06    -110.238E-03     217.625E-03    -107.387E-03     115.264E-03    -111.146E-03     218.520E-03    -107.229E-03     112.814E-03
            2426     10.5088E-03     2.39155E-03    -27.8361E+06     24.8693E+06     22.7843E+06     1.87139E+06    -108.603E-03     215.605E-03    -107.002E-03     103.927E-03    -109.259E-03     216.179E-03    -106.884E-03     101.977E-03
            2427     9.70339E-03     2.38651E-03    -30.0741E+06    -25.3309E+06     11.5592E+06    -6.61793E+06    -107.539E-03     214.302E-03    -106.763E-03     93.7727E-03    -107.984E-03     214.512E-03    -106.625E-03     92.1152E-03
            2428     8.89497E-03     2.38045E-03    -30.4511E+06    -71.1363E+06     1.71038E+06    -15.8068E+06    -106.897E-03     213.481E-03    -106.584E-03     84.4895E-03    -107.175E-03     213.388E-03    -106.428E-03     83.0125E-03
            2429     8.08802E-03     2.37811E-03    -31.0610E+06    -108.226E+06    -6.18792E+06    -21.4402E+06    -106.548E-03     212.991E-03    -106.443E-03     75.8673E-03    -106.702E-03     212.663E-03    -106.272E-03     74.5497E-03
            2430     7.27933E-03     2.37546E-03    -32.9307E+06    -138.169E+06    -14.1576E+06    -23.3195E+06    -106.383E-03     212.700E-03    -106.317E-03     67.7043E-03    -106.446E-03     212.192E-03    -106.140E-03     66.5473E-03
            2431     6.47170E-03     2.37364E-03    -36.3810E+06    -161.041E+06    -22.1500E+06    -20.6510E+06    -106.215E-03     212.416E-03    -106.201E-03     59.7546E-03    -106.218E-03     211.777E-03    -106.025E-03     58.7833E-03
            2432     5.66299E-03     2.37250E-03    -40.6629E+06    -174.952E+06    -29.3811E+06    -15.4129E+06    -106.055E-03     212.150E-03    -106.096E-03     52.1113E-03    -106.024E-03     211.434E-03    -105.930E-03     51.3352E-03
            2433     4.85370E-03     2.37147E-03    -45.3235E+06    -183.903E+06    -37.3061E+06    -10.1898E+06    -105.966E-03     211.961E-03    -105.995E-03     44.7000E-03    -105.916E-03     211.200E-03    -105.849E-03     44.1003E-03
            2434     4.04632E-03     2.37130E-03    -49.5336E+06    -190.109E+06    -44.0293E+06    -5.68172E+06    -105.884E-03     211.792E-03    -105.908E-03     37.2708E-03    -105.822E-03     211.002E-03    -105.781E-03     36.8255E-03
            2435     3.23575E-03     2.37035E-03    -52.9632E+06    -194.453E+06    -49.2693E+06    -2.70420E+06    -105.846E-03     211.679E-03    -105.833E-03     29.8901E-03    -105.777E-03     210.870E-03    -105.721E-03     29.5693E-03
            2436     2.42825E-03     2.37011E-03    -55.3710E+06    -197.680E+06    -53.0303E+06    -940.526E+03    -105.774E-03     211.546E-03    -105.772E-03     22.6012E-03    -105.699E-03     210.722E-03    -105.670E-03     22.3804E-03
            2437     1.61739E-03     2.37012E-03    -56.8142E+06    -199.619E+06    -55.7226E+06    -179.888E+03    -105.730E-03     211.456E-03    -105.725E-03     15.2513E-03    -105.651E-03     210.623E-03    -105.632E-03     15.1115E-03
            2438     810.449E-06     2.36919E-03    -57.5677E+06    -200.212E+06    -57.2392E+06     59.3282E+03    -105.764E-03     211.386E-03    -105.622E-03     8.22881E-03    -105.682E-03     210.551E-03    -105.534E-03     8.15555E-03
            2439     15.1377E-03     1.30177E-03     911.912E+03     106.293E+06     97.8624E+06     2.39137E+06    -178.325E-03     299.564E-03    -121.239E-03     183.885E-03    -181.488E-03     302.815E-03    -120.905E-03     175.917E-03
            2440     14.3893E-03     1.26385E-03    -3.76628E+06     94.5561E+06     94.9184E+06     5.56730E+06    -155.832E-03     274.441E-03    -118.609E-03     155.077E-03    -158.196E-03     276.847E-03    -118.266E-03     149.270E-03
            2441     13.6107E-03     1.24293E-03    -8.34664E+06     84.7934E+06     91.8678E+06     7.20183E+06    -138.975E-03     255.777E-03    -116.802E-03     125.214E-03    -140.257E-03     257.060E-03    -116.454E-03     121.726E-03
            2442     12.8141E-03     1.22514E-03    -11.0150E+06     78.8348E+06     83.5173E+06     7.65459E+06    -129.263E-03     244.825E-03    -115.561E-03     101.731E-03    -130.110E-03     245.664E-03    -115.242E-03     99.4172E-03
            2443     12.0302E-03     1.21582E-03    -13.4053E+06     69.3617E+06     59.0915E+06     5.25999E+06    -123.928E-03     238.523E-03    -114.595E-03     84.2307E-03    -124.525E-03     239.140E-03    -114.380E-03     82.5049E-03
            2444     11.2323E-03     1.20770E-03    -15.5419E+06     55.7544E+06     25.1101E+06     3.54833E+06    -120.502E-03     234.296E-03    -113.795E-03     72.4653E-03    -120.925E-03     234.786E-03    -113.728E-03     71.1252E-03
            2445     10.4372E-03     1.20356E-03    -16.6769E+06     30.0022E+06    -8.68218E+06     422.894E+03    -117.938E-03     231.102E-03    -113.164E-03     63.2050E-03    -118.206E-03     231.439E-03    -113.227E-03     62.1360E-03
            2446     9.63706E-03     1.19883E-03    -17.1351E+06    -15.6902E+06    -33.1700E+06    -6.92469E+06    -116.133E-03     228.860E-03    -112.727E-03     55.7565E-03    -116.256E-03     228.959E-03    -112.845E-03     54.8066E-03
            2447     8.83767E-03     1.19694E-03    -19.3850E+06    -67.1715E+06    -45.7475E+06    -13.7454E+06    -114.783E-03     227.237E-03    -112.455E-03     49.1719E-03    -114.793E-03     227.071E-03    -112.558E-03     48.2990E-03
            2448     8.03483E-03     1.19430E-03    -24.3481E+06    -109.879E+06    -50.6299E+06    -16.6199E+06    -113.888E-03     226.172E-03    -112.284E-03     43.4365E-03    -113.833E-03     225.785E-03    -112.342E-03     42.6465E-03
            2449     7.23354E-03     1.19288E-03    -30.7668E+06    -144.993E+06    -50.7981E+06    -15.6428E+06    -113.279E-03     225.456E-03    -112.177E-03     38.3540E-03    -113.191E-03     224.888E-03    -112.176E-03     37.6748E-03
            2450     6.43013E-03     1.19203E-03    -37.4164E+06    -171.064E+06    -49.4609E+06    -12.9153E+06    -112.783E-03     224.885E-03    -112.103E-03     33.7057E-03    -112.680E-03     224.184E-03    -112.048E-03     33.1434E-03
            2451     5.62708E-03     1.19140E-03    -43.1026E+06    -185.234E+06    -47.3827E+06    -9.07200E+06    -112.438E-03     224.484E-03    -112.046E-03     29.2068E-03    -112.338E-03     223.709E-03    -111.952E-03     28.7632E-03
            2452     4.82399E-03     1.19103E-03    -47.3063E+06    -192.205E+06    -47.5032E+06    -4.98429E+06    -112.231E-03     224.218E-03    -111.987E-03     24.8161E-03    -112.135E-03     223.408E-03    -111.877E-03     24.4844E-03
            2453     4.01896E-03     1.19048E-03    -50.3297E+06    -195.498E+06    -48.8295E+06    -2.26032E+06    -112.108E-03     224.035E-03    -111.927E-03     20.6230E-03    -112.016E-03     223.210E-03    -111.814E-03     20.3789E-03
            2454     3.21692E-03     1.19046E-03    -51.9603E+06    -197.458E+06    -50.3739E+06    -731.709E+03    -111.966E-03     223.838E-03    -111.872E-03     16.4981E-03    -111.873E-03     223.004E-03    -111.762E-03     16.3223E-03
            2455     2.41122E-03     1.19024E-03    -52.8924E+06    -199.063E+06    -51.7703E+06    -104.564E+03    -111.893E-03     223.721E-03    -111.828E-03     12.3980E-03    -111.798E-03     222.880E-03    -111.722E-03     12.2742E-03
            2456     1.60920E-03     1.18984E-03    -53.4404E+06    -199.801E+06    -52.6997E+06     86.1731E+03    -111.847E-03     223.633E-03    -111.785E-03     8.42920E-03    -111.751E-03     222.788E-03    -111.682E-03     8.34843E-03
            2457     802.985E-06     1.19008E-03    -53.7761E+06    -200.065E+06    -53.6359E+06     116.398E+03    -111.825E-03     223.512E-03    -111.687E-03     4.56568E-03    -111.727E-03     222.668E-03    -111.587E-03     4.52333E-03


