********************************************************************************
Field Output Report, written Mon Aug 12 20:48:32 2024

Source 1
---------

   ODB: G:/Abaqus_calc_2019/1740/Vel_40/odb/zeides_2a_16_red_2500_cal_30_vel_40_fric_025.odb
   Step: Step-1
   Frame: Increment   4501565: Step Time =   0.4423

Loc 1 : Nodal values from source 1

Output sorted by column "Nodal Label".

Field Output reported at nodes for region: DIE_2A_16_D0_36-1.Region_1
   Computation algorithm: EXTRAPOLATE_COMPUTE_AVERAGE
   Averaged at nodes
   Averaging regions: ODB_REGIONS

      Node Label     COORD.COOR1     COORD.COOR2
                          @Loc 1          @Loc 1
-------------------------------------------------
               1     15.3788E-03     214.634E-03


Field Output reported at nodes for region: DIE_2A_16_D0_36-1.Region_2
   Computation algorithm: EXTRAPOLATE_COMPUTE_AVERAGE
   Averaged at nodes
   Averaging regions: ODB_REGIONS

      Node Label     COORD.COOR1     COORD.COOR2
                          @Loc 1          @Loc 1
-------------------------------------------------
               1     15.3788E-03     214.634E-03


Field Output reported at nodes for part: WIRE-1
   Computation algorithm: EXTRAPOLATE_COMPUTE_AVERAGE
   Averaged at nodes
   Averaging regions: ODB_REGIONS

      Node Label     COORD.COOR1     COORD.COOR2           S.S11           S.S22           S.S33           S.S12         PE.PE11         PE.PE22         PE.PE33         PE.PE12         LE.LE11         LE.LE22         LE.LE33         LE.LE12
                          @Loc 1          @Loc 1          @Loc 1          @Loc 1          @Loc 1          @Loc 1          @Loc 1          @Loc 1          @Loc 1          @Loc 1          @Loc 1          @Loc 1          @Loc 1          @Loc 1
-------------------------------------------------------------------------------------------------------------------------------------------------------------------------------------------------------------------------------------------------
               1    -130.074E-09     97.4666E-03    -132.341E+06    -251.696E+06    -132.432E+06     612.783E+03    -290.538E-03     581.188E-03    -290.650E-03     2.62446E-03    -290.642E-03     580.314E-03    -290.756E-03     2.55294E-03
               2     13.4699E-03     98.8746E-03    -3.15144E+06     86.1252E+06     93.7306E+06      69.721E+03    -289.680E-03     579.995E-03    -290.315E-03     42.1257E-03    -290.431E-03     580.769E-03    -289.966E-03     30.2149E-03
               3     13.5076E-03     197.104E-03    -23.1760E+06     18.7158E+06     59.8648E+06    -5.50029E+06    -234.277E-03     522.671E-03    -288.393E-03    -29.9898E-03    -234.500E-03     522.767E-03    -288.087E-03    -29.0692E-03
               4    -588.214E-09     195.267E-03     58.9605E+06    -11.2288E+06     55.1756E+06    -3.31055E+06    -296.312E-03     592.701E-03    -296.389E-03    -13.4399E-03    -296.118E-03     592.435E-03    -296.183E-03    -14.0222E-03
               5     807.840E-09    -346.945E-18    -69.1252E+06    -226.500E+06    -69.5103E+06    -1.90528E+06    -254.741E-03     509.211E-03    -254.470E-03    -510.177E-06    -254.657E-03     508.280E-03    -254.389E-03    -663.594E-06
               6     13.3535E-03    -346.945E-18     7.89150E+06     107.512E+06     103.088E+06    -2.72992E+06    -472.800E-03     764.698E-03    -291.898E-03     93.1031E-03    -473.967E-03     765.984E-03    -291.550E-03     76.5343E-03
               7     672.866E-06     97.4732E-03    -132.157E+06    -246.547E+06    -129.842E+06     210.441E+03    -290.473E-03     581.068E-03    -290.595E-03     5.03021E-03    -290.589E-03     580.216E-03    -290.695E-03     4.93700E-03
               8     1.34563E-03     97.4862E-03    -129.400E+06    -234.590E+06    -121.490E+06    -97.7530E+03    -290.401E-03     580.927E-03    -290.526E-03     9.82584E-03    -290.536E-03     580.122E-03    -290.605E-03     9.66484E-03
               9     2.01886E-03     97.5081E-03    -124.100E+06    -219.187E+06    -107.475E+06     163.260E+03    -290.356E-03     580.868E-03    -290.512E-03     14.7751E-03    -290.511E-03     580.116E-03    -290.552E-03     14.4966E-03
              10     2.69260E-03     97.5388E-03    -118.028E+06    -200.066E+06    -90.1968E+06     320.547E+03    -290.306E-03     580.819E-03    -290.513E-03     19.6822E-03    -290.491E-03     580.136E-03    -290.503E-03     19.1992E-03
              11     3.36599E-03     97.5775E-03    -110.621E+06    -177.924E+06    -71.3296E+06     380.199E+03    -290.343E-03     580.865E-03    -290.523E-03     24.5695E-03    -290.562E-03     580.267E-03    -290.461E-03     23.7850E-03
              12     4.03900E-03     97.6254E-03    -102.869E+06    -154.050E+06    -52.4947E+06     475.785E+03    -290.394E-03     580.932E-03    -290.538E-03     29.7113E-03    -290.653E-03     580.431E-03    -290.428E-03     28.5099E-03
              13     4.71227E-03     97.6815E-03    -94.4432E+06    -128.232E+06    -34.3775E+06     330.879E+03    -290.399E-03     580.947E-03    -290.548E-03     34.9771E-03    -290.703E-03     580.560E-03    -290.397E-03     33.2171E-03
              14     5.38560E-03     97.7456E-03    -85.3359E+06    -101.308E+06    -16.8116E+06     376.322E+03    -290.383E-03     580.930E-03    -290.547E-03     40.2106E-03    -290.738E-03     580.671E-03    -290.360E-03     37.7597E-03
              15     6.05890E-03     97.8187E-03    -76.7774E+06    -72.1914E+06    -258.902E+03     644.821E+03    -290.398E-03     580.931E-03    -290.534E-03     45.4934E-03    -290.819E-03     580.824E-03    -290.319E-03     42.1949E-03
              16     6.73229E-03     97.8990E-03    -68.4162E+06    -37.1484E+06     15.6010E+06     418.746E+03    -290.450E-03     580.960E-03    -290.510E-03     50.8583E-03    -290.958E-03     581.049E-03    -290.279E-03     46.5461E-03
              17     7.40589E-03     97.9880E-03    -60.1081E+06     219.380E+03     30.5519E+06     373.735E+03    -290.358E-03     580.835E-03    -290.476E-03     56.0869E-03    -290.972E-03     581.147E-03    -290.237E-03     50.6096E-03
              18     8.07993E-03     98.0826E-03    -52.4088E+06     21.9964E+06     41.2291E+06     341.449E+03    -290.299E-03     580.737E-03    -290.438E-03     60.9429E-03    -291.006E-03     581.216E-03    -290.187E-03     54.1569E-03
              19     8.75363E-03     98.1837E-03    -44.9652E+06     36.7119E+06     50.1106E+06    -122.858E+03    -290.406E-03     580.809E-03    -290.404E-03     65.4030E-03    -291.212E-03     581.442E-03    -290.141E-03     57.1551E-03
              20     9.42718E-03     98.2902E-03    -37.6579E+06     51.4527E+06     60.9952E+06    -230.476E+03    -290.494E-03     580.885E-03    -290.391E-03     69.4153E-03    -291.420E-03     581.683E-03    -290.106E-03     59.6007E-03
              21     10.1011E-03     98.4000E-03    -30.6539E+06     59.2703E+06     73.8495E+06    -43.8607E+03    -290.520E-03     580.928E-03    -290.407E-03     72.5104E-03    -291.569E-03     581.864E-03    -290.080E-03     61.0814E-03
              22     10.7742E-03     98.5118E-03    -23.7342E+06     67.9612E+06     85.8469E+06     125.412E+03    -290.396E-03     580.820E-03    -290.424E-03     73.7836E-03    -291.557E-03     581.889E-03    -290.059E-03     60.8305E-03
              23     11.4476E-03     98.6192E-03    -16.6627E+06     76.3332E+06     93.9318E+06     163.703E+03    -289.927E-03     580.343E-03    -290.416E-03     71.6713E-03    -291.130E-03     581.486E-03    -290.033E-03     57.7067E-03
              24     12.1228E-03     98.7191E-03    -10.6294E+06     82.4043E+06     96.6243E+06     138.657E+03    -289.500E-03     579.879E-03    -290.378E-03     70.9533E-03    -290.829E-03     581.182E-03    -289.999E-03     55.1417E-03
              25     12.7940E-03     98.8203E-03    -5.73781E+06     85.4136E+06     94.7919E+06     109.622E+03    -289.553E-03     579.885E-03    -290.332E-03     57.2416E-03    -290.659E-03     580.999E-03    -289.974E-03     42.6100E-03
              26     13.4682E-03     100.570E-03    -2.10416E+06     86.9141E+06     94.3735E+06     202.997E+03    -289.387E-03     579.723E-03    -290.336E-03     41.9319E-03    -290.127E-03     580.490E-03    -289.987E-03     30.1791E-03
              27     13.4697E-03     102.263E-03    -1.12706E+06     87.4663E+06     95.2532E+06     781.951E+03    -288.449E-03     578.796E-03    -290.347E-03     42.6646E-03    -289.194E-03     579.572E-03    -289.996E-03     30.8732E-03
              28     13.4692E-03     103.954E-03    -2.50071E+06     85.9165E+06     93.9757E+06    -852.670E+03    -289.247E-03     579.570E-03    -290.322E-03     42.9497E-03    -290.007E-03     580.353E-03    -289.973E-03     30.9369E-03
              29     13.4688E-03     105.649E-03    -2.85337E+06     85.5960E+06     94.9669E+06    -455.229E+03    -289.922E-03     580.242E-03    -290.321E-03     41.6949E-03    -290.672E-03     581.011E-03    -289.966E-03     29.7365E-03
              30     13.4696E-03     107.343E-03    -2.82285E+06     85.4310E+06     94.6735E+06     315.490E+03    -289.259E-03     579.596E-03    -290.337E-03     41.8042E-03    -290.000E-03     580.355E-03    -289.983E-03     30.0510E-03
              31     13.4685E-03     109.037E-03    -2.85264E+06     85.6543E+06     94.4955E+06        -25.0313    -289.249E-03     579.580E-03    -290.331E-03     42.8501E-03    -290.004E-03     580.355E-03    -289.979E-03     30.9664E-03
              32     13.4701E-03     110.731E-03    -2.32834E+06     86.2829E+06     95.3618E+06     298.354E+03    -289.688E-03     580.010E-03    -290.321E-03     42.6373E-03    -290.440E-03     580.782E-03    -289.966E-03     30.7771E-03
              33     13.4680E-03     112.425E-03    -2.01503E+06     86.0484E+06     94.8750E+06     232.673E+03    -289.243E-03     579.561E-03    -290.318E-03     42.3730E-03    -289.992E-03     580.333E-03    -289.965E-03     30.4787E-03
              34     13.4713E-03     114.117E-03    -1.58473E+06     86.2122E+06     95.6798E+06     125.375E+03    -289.404E-03     579.710E-03    -290.306E-03     42.9744E-03    -290.154E-03     580.483E-03    -289.950E-03     31.1337E-03
              35     13.4675E-03     115.814E-03    -3.63005E+06     84.4809E+06     93.7322E+06     379.820E+03    -289.869E-03     580.177E-03    -290.309E-03     41.9293E-03    -290.614E-03     580.938E-03    -289.957E-03     30.1222E-03
              36     13.4708E-03     117.505E-03    -2.08629E+06     86.4299E+06       95.54E+06    -680.289E+03    -289.112E-03     579.435E-03    -290.322E-03     42.7595E-03    -289.871E-03     580.216E-03    -289.967E-03     30.7566E-03
              37     13.4685E-03     119.199E-03    -1.70744E+06     86.6371E+06     96.0148E+06     92.6571E+03    -289.367E-03     579.675E-03    -290.308E-03     42.4006E-03    -290.122E-03     580.454E-03    -289.951E-03     30.4083E-03
              38     13.4702E-03     120.894E-03    -2.34209E+06     85.2910E+06     95.5345E+06     343.513E+03    -289.437E-03     579.750E-03    -290.313E-03     42.4292E-03    -290.185E-03     580.515E-03    -289.955E-03     30.5870E-03
              39     13.4687E-03     122.586E-03    -2.93464E+06     84.0468E+06     95.1109E+06     96.7386E+03    -289.572E-03     579.865E-03    -290.293E-03     42.9775E-03    -290.326E-03     580.631E-03    -289.935E-03     31.0821E-03
              40     13.4709E-03     124.281E-03    -1.74726E+06     85.2713E+06     96.5604E+06      32.518E+03    -289.965E-03     580.244E-03    -290.279E-03     42.0301E-03    -290.716E-03     581.012E-03    -289.917E-03     30.0217E-03
              41     13.4685E-03     125.977E-03    -3.61522E+06     83.2625E+06     96.3786E+06    -736.374E+03    -289.521E-03     579.834E-03    -290.313E-03     42.0581E-03    -290.272E-03     580.588E-03    -289.947E-03     30.1764E-03
              42     13.4702E-03     127.668E-03    -2.77433E+06     83.1974E+06     96.2939E+06     531.269E+03    -288.680E-03     578.991E-03    -290.310E-03     43.0942E-03    -289.436E-03     579.753E-03    -289.946E-03     31.2193E-03
              43     13.4704E-03     129.360E-03    -1.44630E+06     85.3647E+06     99.1194E+06    -105.941E+03    -288.962E-03     579.243E-03    -290.282E-03     42.8026E-03    -289.719E-03     580.011E-03    -289.908E-03     30.8580E-03
              44     13.4699E-03     131.055E-03    -3.00467E+06     85.8065E+06     99.0637E+06     569.122E+03    -289.793E-03     580.070E-03    -290.277E-03     42.2914E-03    -290.549E-03     580.833E-03    -289.902E-03     30.4519E-03
              45     13.4698E-03     132.750E-03     -3.0098E+06     87.4451E+06     98.7977E+06     807.415E+03    -289.163E-03     579.457E-03    -290.294E-03     42.2391E-03    -289.918E-03     580.225E-03    -289.922E-03     30.4719E-03
              46     13.4702E-03     134.441E-03    -2.09401E+06     88.7189E+06     99.9278E+06    -40.2940E+03    -288.769E-03     579.050E-03    -290.281E-03     42.9413E-03    -289.538E-03     579.836E-03    -289.907E-03     30.9718E-03
              47     13.4708E-03     136.134E-03    -1.67421E+06     90.0071E+06     100.716E+06    -17.7841E+03    -289.726E-03     579.973E-03    -290.246E-03     42.6088E-03    -290.497E-03     580.765E-03    -289.871E-03     30.5470E-03
              48     13.4698E-03     137.831E-03    -4.02165E+06     91.1748E+06     101.567E+06     3.17703E+03    -289.512E-03     579.775E-03    -290.263E-03     41.8914E-03    -290.283E-03     580.560E-03    -289.881E-03     30.0347E-03
              49     13.4710E-03     139.521E-03    -2.11595E+06     92.1285E+06     103.076E+06     466.699E+03    -288.923E-03     579.197E-03    -290.274E-03     42.8280E-03    -289.692E-03     579.987E-03    -289.889E-03     31.0294E-03
              50     13.4700E-03     141.217E-03    -1.12452E+06     92.7038E+06     103.431E+06     972.346E+03    -289.074E-03     579.340E-03    -290.266E-03     42.3217E-03    -289.837E-03     580.128E-03    -289.882E-03     30.5092E-03
              51     13.4710E-03     142.908E-03    -3.66440E+06     94.4730E+06     103.764E+06     420.443E+03    -289.198E-03     579.477E-03    -290.280E-03     42.3243E-03    -289.980E-03     580.281E-03    -289.892E-03     30.4310E-03
              52     13.4693E-03     144.603E-03    -2.81712E+06     95.4226E+06     104.593E+06    -113.081E+03    -288.935E-03     579.224E-03    -290.289E-03     42.2509E-03    -289.717E-03     580.032E-03    -289.900E-03     30.3244E-03
              53     13.4716E-03     146.293E-03    -1.37094E+06     98.9447E+06     107.560E+06     1.13718E+06    -288.475E-03     578.749E-03    -290.274E-03     42.9913E-03    -289.262E-03     579.571E-03    -289.878E-03     31.1290E-03
              54     13.4705E-03     147.987E-03    -3.45016E+06     101.206E+06     108.016E+06     222.287E+03    -288.705E-03     578.950E-03    -290.246E-03     42.6264E-03    -289.506E-03     579.785E-03    -289.847E-03     30.7057E-03
              55     13.4717E-03     149.679E-03    -4.08263E+06     102.487E+06     108.653E+06    -542.710E+03    -287.171E-03     577.385E-03    -290.214E-03     43.0265E-03    -287.980E-03     578.228E-03    -289.814E-03     31.1484E-03
              56     13.4742E-03     151.365E-03    -1.18873E+06     107.968E+06     111.997E+06     995.525E+03    -286.173E-03     576.289E-03    -290.116E-03     44.4250E-03    -286.989E-03     577.159E-03    -289.710E-03     32.6278E-03
              57     13.4748E-03     153.056E-03    -4.01253E+06     110.214E+06     112.397E+06     1.15247E+06    -286.723E-03     576.730E-03    -290.007E-03     43.1030E-03    -287.542E-03     577.600E-03    -289.599E-03     31.3965E-03
              58     13.4761E-03     154.743E-03    -2.91983E+06     112.639E+06     113.352E+06     1.31231E+06    -285.129E-03     575.026E-03    -289.897E-03     43.8840E-03    -285.961E-03     575.919E-03    -289.489E-03     32.0624E-03
              59     13.4808E-03     156.426E-03    -2.30555E+06     115.854E+06     115.458E+06     771.970E+03    -284.359E-03     574.095E-03    -289.736E-03     44.2454E-03    -285.205E-03     575.009E-03    -289.324E-03     32.3167E-03
              60     13.4798E-03     158.113E-03    -3.65078E+06     120.590E+06     117.986E+06     1.53596E+06    -284.098E-03     573.686E-03    -289.588E-03     43.6576E-03    -284.954E-03     574.615E-03    -289.168E-03     31.8007E-03
              61     13.4856E-03     159.793E-03    -2.63180E+06     124.904E+06     120.121E+06     1.14659E+06    -283.140E-03     572.575E-03    -289.434E-03     44.3571E-03    -284.011E-03     573.531E-03    -289.011E-03     32.4054E-03
              62     13.4846E-03     161.477E-03    -3.81718E+06     127.920E+06     121.946E+06     120.479E+03    -282.534E-03     571.830E-03    -289.296E-03     42.8756E-03    -283.417E-03     572.800E-03    -288.866E-03     30.7549E-03
              63     13.4892E-03     163.154E-03    -2.33646E+06     133.189E+06     125.042E+06     1.67361E+06    -281.567E-03     570.742E-03    -289.175E-03     43.3623E-03    -282.456E-03     571.733E-03    -288.740E-03     31.3137E-03
              64     13.4890E-03     164.836E-03    -2.57081E+06     136.541E+06     126.640E+06     1.08788E+06    -281.298E-03     570.333E-03    -289.035E-03     43.3310E-03    -282.194E-03     571.338E-03    -288.596E-03     31.2924E-03
              65     13.4928E-03     166.510E-03    -4.77959E+06     138.619E+06     127.256E+06     235.082E+03    -281.663E-03     570.565E-03    -288.901E-03     43.1799E-03    -282.578E-03     571.585E-03    -288.459E-03     31.0383E-03
              66     13.4922E-03     168.193E-03    -3.36525E+06     142.766E+06     130.362E+06     900.891E+03    -281.055E-03     569.857E-03    -288.803E-03     42.5586E-03    -281.966E-03     570.886E-03    -288.353E-03     30.4665E-03
              67     13.4959E-03     169.866E-03    -1.80225E+06     145.608E+06     132.712E+06     1.04048E+06    -280.474E-03     569.174E-03    -288.699E-03     43.0955E-03    -281.386E-03     570.211E-03    -288.244E-03     31.0794E-03
              68     13.4955E-03     171.544E-03    -4.22277E+06     145.328E+06     133.138E+06    -141.289E+03    -281.317E-03     569.886E-03    -288.570E-03     42.5673E-03    -282.243E-03     570.928E-03    -288.109E-03     30.3677E-03
              69     13.4986E-03     173.222E-03    -4.23723E+06     145.635E+06     134.803E+06    -333.463E+03    -281.404E-03     569.861E-03    -288.457E-03     42.2884E-03    -282.326E-03     570.894E-03    -287.988E-03     30.1777E-03
              70     13.4991E-03     174.900E-03    -2.63841E+06     145.182E+06     138.836E+06     246.143E+03    -281.234E-03     569.577E-03    -288.343E-03     43.3876E-03    -282.146E-03     570.593E-03    -287.856E-03     31.5458E-03
              71     13.5022E-03     176.579E-03    -2.98368E+06     142.293E+06     142.152E+06    -101.061E+03    -282.164E-03     570.359E-03    -288.195E-03     44.1212E-03    -283.080E-03     571.358E-03    -287.686E-03     32.2824E-03
              72     13.5032E-03     178.255E-03    -4.91567E+06     138.371E+06     140.929E+06    -1.23133E+06    -284.556E-03     572.575E-03    -288.019E-03     43.9589E-03    -285.477E-03     573.561E-03    -287.508E-03     31.9310E-03
              73     13.5043E-03     179.944E-03    -1.16532E+06     133.071E+06     138.252E+06    -1.47631E+06    -287.821E-03     575.668E-03    -287.847E-03     43.9355E-03    -288.699E-03     576.613E-03    -287.347E-03     32.0246E-03
              74     13.5052E-03     181.631E-03    -4.15986E+06     124.203E+06     130.649E+06     -2.2389E+06    -292.711E-03     580.350E-03    -287.639E-03     45.1767E-03    -293.565E-03     581.252E-03    -287.160E-03     33.5322E-03
              75     13.5056E-03     183.335E-03    -3.92893E+06     115.494E+06     123.455E+06    -1.10125E+06    -299.282E-03     586.687E-03    -287.405E-03     45.2488E-03    -300.095E-03     587.538E-03    -286.949E-03     33.7466E-03
              76     13.5062E-03     185.046E-03    -4.10275E+06     103.993E+06     117.994E+06    -2.66364E+06    -305.291E-03     592.500E-03    -287.209E-03     45.8245E-03    -306.053E-03     593.275E-03    -286.764E-03     34.7161E-03
              77     13.5065E-03     186.768E-03    -892.630E+03     87.7892E+06     118.575E+06    -2.78570E+06    -311.720E-03     598.741E-03    -287.021E-03     47.4965E-03    -312.438E-03     599.424E-03    -286.554E-03     36.4687E-03
              78     13.5080E-03     188.498E-03    -4.91202E+06     66.0560E+06     120.587E+06    -4.32171E+06    -319.155E-03     605.969E-03    -286.814E-03     48.3733E-03    -319.847E-03     606.529E-03    -286.300E-03     37.5867E-03
              79     13.5084E-03     190.248E-03    -355.797E+03     52.5209E+06     129.085E+06    -1.99303E+06    -325.738E-03     612.349E-03    -286.612E-03     48.7778E-03    -326.367E-03     612.790E-03    -286.042E-03     38.5549E-03
              80     13.5113E-03     191.999E-03    -4.19442E+06     45.0029E+06     129.586E+06    -2.01845E+06    -328.874E-03     615.289E-03    -286.415E-03     47.9566E-03    -329.440E-03     615.625E-03    -285.826E-03     39.3719E-03
              81     13.5126E-03     193.762E-03     804.339E+03     33.2396E+06     123.935E+06    -2.99537E+06    -326.324E-03     612.614E-03    -286.290E-03     44.7075E-03    -326.685E-03     612.736E-03    -285.719E-03     40.0988E-03
              82     13.5163E-03     195.502E-03     3.43978E+06     24.1079E+06      95.042E+06    -942.771E+03    -278.846E-03     566.177E-03    -287.330E-03     7.42286E-03    -279.027E-03     566.211E-03    -286.895E-03     6.87603E-03
              83     12.7427E-03     197.019E-03    -17.0670E+06    -3.10535E+06     76.8563E+06    -5.44672E+06    -233.563E-03     523.286E-03    -289.723E-03    -68.2253E-03    -233.702E-03     523.220E-03    -289.309E-03    -68.1840E-03
              84     12.0031E-03     196.882E-03    -14.0402E+06    -332.978E+03     104.543E+06    -7.29182E+06    -232.398E-03     524.488E-03    -292.091E-03    -136.911E-03    -232.581E-03     524.412E-03    -291.547E-03    -137.246E-03
              85     11.2927E-03     196.726E-03    -13.8527E+06     5.42810E+06     112.364E+06    -10.8159E+06    -232.146E-03     526.158E-03    -294.012E-03    -182.903E-03    -232.413E-03     526.126E-03    -293.438E-03    -182.811E-03
              86     10.5954E-03     196.574E-03    -6.27786E+06    -5.01515E+06     117.407E+06    -12.7555E+06    -233.000E-03     528.747E-03    -295.747E-03    -206.338E-03    -233.250E-03     528.646E-03    -295.144E-03    -206.194E-03
              87     9.90538E-03     196.419E-03    -825.916E+03    -1.75006E+06     125.068E+06    -14.1839E+06    -235.849E-03     533.242E-03    -297.393E-03    -220.269E-03    -236.102E-03     533.136E-03    -296.764E-03    -220.101E-03
              88     9.22009E-03     196.280E-03     2.98167E+06    -4.56424E+06     126.852E+06    -15.9158E+06    -242.428E-03     541.277E-03    -298.849E-03    -229.757E-03    -242.649E-03     541.119E-03    -298.212E-03    -229.752E-03
              89     8.54393E-03     196.143E-03     8.40712E+06    -4.23532E+06     128.336E+06    -16.6188E+06    -251.063E-03     551.029E-03    -299.967E-03    -234.072E-03    -251.243E-03     550.829E-03    -299.331E-03    -234.233E-03
              90     7.87390E-03     196.017E-03     13.6568E+06    -5.97366E+06     126.448E+06    -16.4433E+06    -259.406E-03     560.098E-03    -300.693E-03    -232.720E-03    -259.535E-03     559.846E-03    -300.072E-03    -233.065E-03
              91     7.21060E-03     195.895E-03     18.2806E+06    -6.23308E+06     122.920E+06    -15.4361E+06    -267.490E-03     568.561E-03    -301.071E-03    -224.970E-03    -267.572E-03     568.261E-03    -300.474E-03    -225.533E-03
              92     6.55300E-03     195.788E-03     22.3623E+06    -5.44737E+06     118.654E+06    -14.4178E+06    -274.967E-03     576.133E-03    -301.166E-03    -210.985E-03    -274.994E-03     575.791E-03    -300.597E-03    -211.851E-03
              93     5.89774E-03     195.688E-03     26.0598E+06    -4.23081E+06     113.748E+06    -14.0929E+06    -281.206E-03     582.251E-03    -301.045E-03    -193.752E-03    -281.183E-03     581.890E-03    -300.508E-03    -194.890E-03
              94     5.24245E-03     195.602E-03     29.5313E+06    -3.65325E+06     107.694E+06    -14.1725E+06    -286.210E-03     586.962E-03    -300.752E-03    -175.734E-03    -286.154E-03     586.599E-03    -300.251E-03    -177.038E-03
              95     4.58831E-03     195.524E-03     33.2867E+06    -3.85708E+06     100.715E+06    -14.5176E+06    -290.003E-03     590.327E-03    -300.324E-03    -156.714E-03    -289.921E-03     589.967E-03    -299.863E-03    -158.126E-03
              96     3.93399E-03     195.458E-03     37.5902E+06    -4.46093E+06     93.5096E+06    -14.8142E+06    -292.898E-03     592.701E-03    -299.803E-03    -136.560E-03    -292.793E-03     592.350E-03    -299.383E-03    -138.032E-03
              97     3.27962E-03     195.401E-03     41.7089E+06    -5.32009E+06     85.6702E+06    -14.4107E+06    -295.077E-03     594.278E-03    -299.201E-03    -115.207E-03    -294.957E-03     593.941E-03    -298.825E-03    -116.636E-03
              98     2.62539E-03     195.355E-03     45.7995E+06    -7.13206E+06     77.0872E+06    -13.1811E+06    -296.494E-03     595.029E-03    -298.535E-03    -92.6385E-03    -296.359E-03     594.706E-03    -298.205E-03    -93.9893E-03
              99     1.97077E-03     195.318E-03     49.9425E+06    -8.60911E+06     68.9968E+06    -11.4449E+06    -297.278E-03     595.099E-03    -297.821E-03    -69.0057E-03    -297.126E-03     594.792E-03    -297.536E-03    -70.2365E-03
             100     1.31528E-03     195.292E-03     53.1154E+06    -10.3059E+06     62.1362E+06    -8.72600E+06    -297.150E-03     594.271E-03    -297.122E-03    -45.3821E-03    -296.987E-03     593.981E-03    -296.873E-03    -46.3403E-03
             101     658.744E-06     195.274E-03     56.6714E+06    -11.2293E+06     57.1784E+06    -5.15589E+06    -296.572E-03     593.163E-03    -296.591E-03    -23.6226E-03    -296.392E-03     592.889E-03    -296.371E-03    -24.3038E-03
             102     619.880E-09     193.552E-03     8.80248E+06    -30.0704E+06     7.98384E+06    -5.08946E+06    -283.478E-03     566.983E-03    -283.505E-03    -10.1798E-03    -283.429E-03     566.779E-03    -283.435E-03    -10.3756E-03
             103    -548.769E-09     191.924E-03    -95.1914E+06    -76.8794E+06    -94.4153E+06    -8.05481E+06    -264.948E-03     529.842E-03    -264.894E-03    -2.74492E-03    -265.185E-03     529.726E-03    -265.116E-03    -2.50394E-03
             104     607.351E-09     190.331E-03    -203.682E+06    -133.188E+06    -203.251E+06    -8.36391E+06    -259.586E-03     518.675E-03    -259.089E-03     3.25758E-03    -260.117E-03     518.599E-03    -259.617E-03     3.70715E-03
             105     20.9207E-09     188.740E-03    -271.830E+06    -184.040E+06    -270.866E+06    -6.28565E+06    -263.051E-03     525.086E-03    -262.035E-03     5.72568E-03    -263.751E-03     524.950E-03    -262.728E-03     6.28049E-03
             106     752.286E-09     187.127E-03    -238.689E+06    -215.760E+06    -238.969E+06    -2.54843E+06    -269.930E-03     539.093E-03    -269.164E-03     6.46143E-03    -270.465E-03     538.704E-03    -269.700E-03     6.91917E-03
             107    -486.422E-09     185.488E-03    -168.894E+06    -224.240E+06    -168.509E+06     29.3640E+03    -276.523E-03     552.727E-03    -276.204E-03     5.77907E-03    -276.798E-03     552.093E-03    -276.477E-03     6.13496E-03
             108     644.491E-09     183.832E-03    -144.044E+06    -227.798E+06    -143.608E+06    -963.300E+03    -281.288E-03     561.500E-03    -280.212E-03     4.42089E-03    -281.470E-03     560.777E-03    -280.391E-03     4.69349E-03
             109     650.691E-09     182.165E-03    -143.986E+06    -238.675E+06    -143.894E+06    -2.05042E+06    -283.267E-03     565.782E-03    -282.515E-03     4.34995E-03    -283.432E-03     565.006E-03    -282.679E-03     4.52997E-03
             110    -936.416E-09     180.495E-03    -148.257E+06    -252.656E+06    -148.310E+06    -1.69984E+06    -283.552E-03     568.233E-03    -284.681E-03     4.15760E-03    -283.712E-03     567.400E-03    -284.841E-03     4.21514E-03
             111    -317.612E-09     178.821E-03    -153.871E+06    -266.103E+06    -154.531E+06    -1.11313E+06    -285.121E-03     570.549E-03    -285.428E-03     3.59505E-03    -285.280E-03     569.666E-03    -285.592E-03     3.63966E-03
             112     1.13964E-06     177.141E-03    -158.430E+06    -277.208E+06    -160.103E+06    -1.51203E+06    -286.451E-03     572.499E-03    -286.048E-03     4.31535E-03    -286.608E-03     571.575E-03    -286.217E-03     4.47877E-03
             113    -1.44464E-06     175.461E-03    -165.154E+06    -286.529E+06    -163.084E+06    -1.67875E+06    -286.894E-03     573.580E-03    -286.686E-03     3.65445E-03    -287.067E-03     572.624E-03    -286.846E-03     3.87670E-03
             114     2.03880E-06     173.779E-03    -166.723E+06    -295.372E+06    -168.377E+06    -1.37881E+06    -288.488E-03     575.360E-03    -286.873E-03     3.97998E-03    -288.648E-03     574.371E-03    -287.044E-03     4.04275E-03
             115    -477.444E-09     172.095E-03    -169.199E+06    -302.650E+06    -167.916E+06     172.593E+03    -289.906E-03     578.569E-03    -288.663E-03     3.85901E-03    -290.069E-03     577.546E-03    -288.819E-03     3.87421E-03
             116     593.988E-09     170.401E-03    -165.238E+06    -304.785E+06    -166.724E+06    -938.319E+03    -290.095E-03     581.147E-03    -291.052E-03     3.39605E-03    -290.238E-03     580.106E-03    -291.204E-03     3.26004E-03
             117    -2.01593E-06     168.706E-03    -167.770E+06    -309.493E+06    -166.795E+06    -1.23230E+06    -291.329E-03     584.059E-03    -292.729E-03     3.35285E-03    -291.477E-03     582.998E-03    -292.871E-03     3.25064E-03
             118     1.55726E-06     167.006E-03    -162.348E+06    -311.772E+06    -163.772E+06     369.336E+03    -294.518E-03     587.965E-03    -293.447E-03     2.43574E-03    -294.640E-03     586.880E-03    -293.579E-03     2.42239E-03
             119     319.202E-09     165.296E-03    -160.108E+06    -313.015E+06    -159.456E+06    -457.101E+03    -295.524E-03     589.972E-03    -294.448E-03     2.68750E-03    -295.640E-03     588.871E-03    -294.560E-03     2.58708E-03
             120    -752.411E-09     163.587E-03    -160.104E+06    -314.812E+06    -157.964E+06     100.925E+03    -294.871E-03     590.369E-03    -295.497E-03     2.41568E-03    -294.986E-03     589.256E-03    -295.599E-03     2.43556E-03
             121     361.185E-09     161.876E-03    -150.749E+06    -310.263E+06    -153.783E+06     815.491E+03    -294.937E-03     590.597E-03    -295.661E-03     3.08758E-03    -295.018E-03     589.488E-03    -295.761E-03     3.03059E-03
             122    -972.545E-09     160.165E-03    -152.711E+06    -309.897E+06    -150.086E+06    -433.928E+03    -294.824E-03     589.792E-03    -294.968E-03     2.80928E-03    -294.921E-03     588.683E-03    -295.048E-03     2.74356E-03
             123     1.40982E-06     158.460E-03    -147.361E+06    -308.196E+06    -150.186E+06     931.617E+03    -294.381E-03     588.267E-03    -293.886E-03     2.72658E-03    -294.453E-03     587.158E-03    -293.976E-03     2.68043E-03
             124    -1.21188E-06     156.755E-03    -147.028E+06    -302.808E+06    -144.196E+06     443.298E+03    -293.353E-03     586.817E-03    -293.464E-03     2.82426E-03    -293.440E-03     585.726E-03    -293.533E-03     2.84757E-03
             125     884.758E-09     155.052E-03    -143.499E+06    -301.724E+06    -146.101E+06    -321.785E+03    -292.699E-03     585.305E-03    -292.606E-03     3.19522E-03    -292.767E-03     584.217E-03    -292.691E-03     3.20230E-03
             126    -462.103E-09     153.351E-03    -143.560E+06    -297.683E+06    -142.306E+06     1.24007E+06    -291.996E-03     583.750E-03    -291.753E-03     3.78333E-03    -292.077E-03     582.677E-03    -291.825E-03     3.69978E-03
             127     368.642E-09     151.656E-03    -141.901E+06    -294.295E+06    -141.914E+06    -370.816E+03    -291.268E-03     582.459E-03    -291.191E-03     2.85862E-03    -291.345E-03     581.400E-03    -291.268E-03     2.80185E-03
             128    -177.183E-09     149.963E-03    -139.105E+06    -291.670E+06    -140.945E+06     971.524E+03    -290.646E-03     581.786E-03    -291.140E-03     3.07914E-03    -290.714E-03     580.734E-03    -291.220E-03     2.93965E-03
             129    -700.890E-09     148.265E-03    -140.318E+06    -290.834E+06    -137.753E+06    -377.612E+03    -290.502E-03     581.580E-03    -291.079E-03     2.48336E-03    -290.582E-03     580.530E-03    -291.142E-03     2.41304E-03
             130     820.250E-09     146.576E-03    -137.795E+06    -292.897E+06    -140.193E+06     98.9578E+03    -291.010E-03     581.584E-03    -290.575E-03     2.50524E-03    -291.071E-03     580.524E-03    -290.651E-03     2.46032E-03
             131    -378.910E-09     144.874E-03    -137.031E+06    -290.745E+06    -135.103E+06     29.3935E+03    -290.758E-03     581.227E-03    -290.469E-03     3.50550E-03    -290.826E-03     580.168E-03    -290.525E-03     3.39986E-03
             132     335.903E-09     143.184E-03    -137.167E+06    -291.470E+06    -138.720E+06    -664.386E+03    -290.506E-03     580.716E-03    -290.209E-03     3.48473E-03    -290.569E-03     579.659E-03    -290.281E-03     3.38591E-03
             133     87.2394E-09     141.492E-03    -135.284E+06    -286.688E+06    -135.130E+06     1.16022E+06    -290.531E-03     580.693E-03    -290.162E-03     2.99614E-03    -290.596E-03     579.652E-03    -290.226E-03     2.93689E-03
             134    -17.0446E-09     139.797E-03    -135.197E+06    -284.669E+06    -135.247E+06    -481.120E+03    -290.271E-03     580.429E-03    -290.158E-03     2.88271E-03    -290.338E-03     579.398E-03    -290.225E-03     2.86860E-03
             135     93.7951E-09     138.107E-03    -134.884E+06    -277.328E+06    -135.815E+06     2.39378E+06    -290.102E-03     580.462E-03    -290.360E-03     3.48168E-03    -290.177E-03     579.468E-03    -290.442E-03     3.45456E-03
             136    -534.365E-09     136.411E-03    -135.977E+06    -268.323E+06    -133.692E+06     44.1857E+03    -290.415E-03     580.611E-03    -290.196E-03     2.71348E-03    -290.512E-03     579.661E-03    -290.278E-03     2.68414E-03
             137     1.28422E-06     134.721E-03    -135.672E+06    -272.661E+06    -137.015E+06    -761.188E+03    -290.716E-03     580.582E-03    -289.866E-03     2.80436E-03    -290.801E-03     579.616E-03    -289.959E-03     2.75184E-03
             138    -905.230E-09     133.027E-03    -133.343E+06    -270.959E+06    -133.207E+06     816.768E+03    -290.291E-03     580.903E-03    -290.612E-03     3.40359E-03    -290.372E-03     579.936E-03    -290.692E-03     3.33470E-03
             139     88.9592E-09     131.331E-03    -136.795E+06    -272.279E+06    -135.254E+06    -656.686E+03    -290.051E-03     580.810E-03    -290.760E-03     3.29419E-03    -290.144E-03     579.844E-03    -290.843E-03     3.29927E-03
             140    -220.445E-09     129.640E-03    -133.136E+06    -270.826E+06    -134.968E+06     990.943E+03    -290.188E-03     580.505E-03    -290.318E-03     3.46263E-03    -290.265E-03     579.541E-03    -290.407E-03     3.48866E-03
             141     153.170E-09     127.946E-03    -134.590E+06    -269.200E+06    -132.956E+06    -545.157E+03    -290.252E-03     580.381E-03    -290.129E-03     3.29705E-03    -290.342E-03     579.424E-03    -290.209E-03     3.23943E-03
             142     86.4353E-09     126.256E-03    -132.841E+06    -265.408E+06    -134.850E+06     897.221E+03    -290.421E-03     580.601E-03    -290.181E-03     3.63144E-03    -290.505E-03     579.663E-03    -290.277E-03     3.56961E-03
             143    -28.4875E-09     124.558E-03    -136.100E+06    -261.175E+06    -134.337E+06     392.883E+03    -290.216E-03     580.530E-03    -290.313E-03     3.16259E-03    -290.324E-03     579.616E-03    -290.409E-03     3.22139E-03
             144    -151.213E-09     122.871E-03    -133.385E+06    -262.394E+06    -134.847E+06     338.302E+03    -290.041E-03     580.138E-03    -290.097E-03     2.73530E-03    -290.132E-03     579.215E-03    -290.197E-03     2.74556E-03
             145     238.439E-09     121.175E-03    -131.659E+06    -258.940E+06    -131.182E+06     286.453E+03    -290.296E-03     580.615E-03    -290.320E-03     3.86986E-03    -290.389E-03     579.703E-03    -290.409E-03     3.69993E-03
             146    -362.275E-09     119.481E-03    -134.206E+06    -261.067E+06    -134.211E+06    -1.53976E+06    -290.609E-03     580.851E-03    -290.243E-03     3.38350E-03    -290.707E-03     579.936E-03    -290.341E-03     3.24007E-03
             147     971.794E-09     117.790E-03    -132.575E+06    -257.731E+06    -133.938E+06     1.69388E+06    -290.604E-03     580.778E-03    -290.174E-03     2.73223E-03    -290.699E-03     579.876E-03    -290.278E-03     2.66199E-03
             148    -1.01769E-06     116.097E-03    -134.622E+06    -253.789E+06    -132.624E+06    -410.396E+03    -290.322E-03     580.930E-03    -290.608E-03     2.92502E-03    -290.435E-03     580.050E-03    -290.708E-03     2.89256E-03
             149     691.457E-09     114.397E-03    -132.536E+06    -254.170E+06    -134.608E+06     394.445E+03    -290.341E-03     580.310E-03    -289.969E-03     3.40515E-03    -290.439E-03     579.427E-03    -290.081E-03     3.40910E-03
             150     109.922E-09     112.712E-03    -135.623E+06    -253.118E+06    -133.458E+06    -94.6697E+03    -290.449E-03     580.441E-03    -289.992E-03     3.82009E-03    -290.566E-03     579.566E-03    -290.095E-03     3.70418E-03
             151    -285.678E-09     111.016E-03    -132.140E+06    -255.189E+06    -134.062E+06    -918.365E+03    -290.431E-03     581.204E-03    -290.772E-03     3.12781E-03    -290.528E-03     580.315E-03    -290.881E-03     3.03095E-03
             152    -19.6105E-09     109.320E-03    -133.089E+06    -259.294E+06    -131.304E+06     45.1277E+03    -290.200E-03     580.803E-03    -290.603E-03     3.43109E-03    -290.300E-03     579.890E-03    -290.690E-03     3.43738E-03
             153    -208.771E-09     107.629E-03    -133.417E+06    -261.973E+06    -134.636E+06    -333.423E+03    -290.054E-03     580.535E-03    -290.481E-03     3.62873E-03    -290.147E-03     579.615E-03    -290.581E-03     3.53532E-03
             154    -155.773E-09     105.936E-03    -130.977E+06    -259.316E+06    -130.378E+06     702.457E+03    -290.281E-03     580.811E-03    -290.530E-03     3.15587E-03    -290.371E-03     579.894E-03    -290.616E-03     3.08909E-03
             155     183.755E-09     104.241E-03    -132.660E+06    -259.862E+06    -132.941E+06    -428.532E+03    -290.518E-03     581.024E-03    -290.506E-03     3.63208E-03    -290.612E-03     580.111E-03    -290.602E-03     3.55590E-03
             156    -205.798E-09     102.547E-03    -132.428E+06    -254.157E+06    -132.307E+06     2.10364E+06    -290.588E-03     580.888E-03    -290.300E-03     3.45340E-03    -290.690E-03     580.002E-03    -290.401E-03     3.46195E-03
             157     610.112E-09     100.854E-03    -134.150E+06    -250.426E+06    -133.892E+06    -1.04259E+06    -290.481E-03     580.499E-03    -290.018E-03     3.16656E-03    -290.595E-03     579.636E-03    -290.129E-03     3.15614E-03
             158    -394.060E-09     99.1633E-03    -134.006E+06    -253.963E+06    -133.526E+06     -50.483E+03    -290.336E-03     580.899E-03    -290.564E-03     3.24166E-03    -290.444E-03     580.018E-03    -290.669E-03     3.08719E-03
             159     497.716E-09     95.7744E-03    -133.906E+06    -252.946E+06    -133.695E+06    -716.553E+03    -290.682E-03     580.964E-03    -290.283E-03     3.07386E-03    -290.791E-03     580.088E-03    -290.390E-03     3.12401E-03
             160    -332.974E-09     94.0783E-03    -130.950E+06    -251.605E+06    -131.850E+06     590.313E+03    -290.572E-03     581.119E-03    -290.547E-03     3.22757E-03    -290.671E-03     580.243E-03    -290.652E-03     3.30843E-03
             161     187.211E-09     92.3867E-03    -132.748E+06    -252.183E+06    -132.872E+06    -564.412E+03    -290.411E-03     580.885E-03    -290.474E-03     3.07534E-03    -290.516E-03     580.010E-03    -290.581E-03     3.04402E-03
             162    -134.062E-09     90.6897E-03    -131.760E+06    -251.273E+06    -131.560E+06     527.422E+03    -290.268E-03     580.500E-03    -290.232E-03     3.49539E-03    -290.372E-03     579.626E-03    -290.334E-03     3.40131E-03
             163     123.734E-09     89.0017E-03    -134.667E+06    -249.283E+06    -133.604E+06     230.329E+03    -290.313E-03     580.967E-03    -290.655E-03     3.53891E-03    -290.431E-03     580.110E-03    -290.766E-03     3.43976E-03
             164    -572.015E-09     87.3025E-03    -131.295E+06    -245.903E+06    -132.230E+06     435.433E+03    -290.073E-03     581.054E-03    -290.981E-03     3.33188E-03    -290.181E-03     580.207E-03    -291.096E-03     3.21383E-03
             165    -216.933E-09     85.6118E-03    -135.366E+06    -247.230E+06    -134.209E+06    -1.15234E+06    -290.142E-03     580.651E-03    -290.508E-03     3.17207E-03    -290.266E-03     579.806E-03    -290.625E-03     3.03337E-03
             166     517.587E-09     83.9183E-03    -133.037E+06    -250.178E+06    -134.201E+06     202.506E+03    -291.232E-03     581.132E-03    -289.899E-03     3.10682E-03    -291.340E-03     580.269E-03    -290.015E-03     3.07024E-03
             167     959.551E-09     82.2221E-03    -133.159E+06    -248.758E+06    -133.608E+06     108.612E+03    -291.360E-03     581.441E-03    -290.081E-03     3.81196E-03    -291.472E-03     580.585E-03    -290.195E-03     3.72899E-03
             168    -728.110E-09     80.5282E-03    -135.545E+06    -249.714E+06    -132.998E+06    -47.7235E+03    -290.560E-03     581.236E-03    -290.676E-03     3.68492E-03    -290.683E-03     580.378E-03    -290.782E-03     3.66528E-03
             169     353.706E-09     78.8343E-03    -132.818E+06    -249.878E+06    -135.096E+06     562.175E+03    -290.211E-03     580.871E-03    -290.660E-03     3.29795E-03    -290.317E-03     580.010E-03    -290.780E-03     3.30662E-03
             170    -610.093E-09     77.1405E-03    -133.906E+06    -249.504E+06    -132.485E+06      22.253E+03    -290.190E-03     580.773E-03    -290.584E-03     3.30315E-03    -290.306E-03     579.913E-03    -290.690E-03     3.20009E-03
             171     342.061E-09     75.4497E-03    -130.906E+06    -247.358E+06    -132.207E+06    -200.979E+03    -290.466E-03     581.238E-03    -290.772E-03     2.82463E-03    -290.570E-03     580.384E-03    -290.885E-03     2.76407E-03
             172    -502.463E-09     73.7515E-03    -134.621E+06    -250.261E+06    -133.024E+06    -670.833E+03    -290.410E-03     581.375E-03    -290.966E-03     3.45564E-03    -290.527E-03     580.513E-03    -291.073E-03     3.40005E-03
             173    -79.1925E-09     72.0574E-03    -129.857E+06    -251.494E+06    -131.098E+06    -176.471E+03    -290.539E-03     581.198E-03    -290.659E-03     3.63489E-03    -290.634E-03     580.319E-03    -290.761E-03     3.63205E-03
             174     480.510E-09     70.3639E-03    -132.585E+06    -253.440E+06    -132.331E+06    -677.835E+03    -290.833E-03     581.235E-03    -290.402E-03     3.38598E-03    -290.936E-03     580.352E-03    -290.504E-03     3.30722E-03
             175    -306.666E-09     68.6716E-03    -132.193E+06    -253.974E+06    -132.554E+06     285.697E+03    -290.860E-03     581.662E-03    -290.802E-03     3.22480E-03    -290.961E-03     580.777E-03    -290.904E-03     3.07123E-03
             176     203.173E-09     66.9729E-03    -131.107E+06    -251.279E+06    -131.532E+06     302.839E+03    -290.779E-03     581.506E-03    -290.727E-03     3.07968E-03    -290.879E-03     580.631E-03    -290.830E-03     3.04024E-03
             177    -39.3823E-09     65.2809E-03    -132.965E+06    -251.738E+06    -132.726E+06    -371.508E+03    -290.718E-03     581.307E-03    -290.589E-03     3.82491E-03    -290.825E-03     580.434E-03    -290.695E-03     3.73028E-03
             178     41.5914E-09     63.5844E-03    -134.895E+06    -252.861E+06    -133.445E+06    -130.523E+03    -290.988E-03     581.606E-03    -290.617E-03     3.22348E-03    -291.103E-03     580.731E-03    -290.722E-03     3.18988E-03
             179     461.542E-09     61.8923E-03    -130.571E+06    -251.782E+06    -132.484E+06     683.495E+03    -291.010E-03     581.200E-03    -290.190E-03     2.56974E-03    -291.106E-03     580.323E-03    -290.298E-03     2.66889E-03
             180     118.953E-09     60.1963E-03    -133.783E+06    -249.744E+06    -131.996E+06     78.2323E+03    -290.841E-03     581.546E-03    -290.705E-03     3.61759E-03    -290.957E-03     580.683E-03    -290.809E-03     3.57047E-03
             181    -507.778E-09     58.5026E-03    -132.014E+06    -249.319E+06    -133.291E+06    -571.064E+03    -291.104E-03     582.575E-03    -291.471E-03     3.54979E-03    -291.210E-03     581.714E-03    -291.585E-03     3.50483E-03
             182     385.019E-09     56.8006E-03    -131.507E+06    -251.134E+06    -132.375E+06     389.059E+03    -290.971E-03     582.367E-03    -291.395E-03     3.89434E-03    -291.073E-03     581.494E-03    -291.502E-03     3.93994E-03
             183    -849.884E-09     55.1097E-03    -135.041E+06    -253.233E+06    -132.362E+06     57.4604E+03    -291.133E-03     582.437E-03    -291.304E-03     4.06237E-03    -291.249E-03     581.560E-03    -291.403E-03     3.94064E-03
             184     1.09757E-06     53.4099E-03    -130.092E+06    -249.969E+06    -132.582E+06     279.142E+03    -292.065E-03     582.898E-03    -290.833E-03     3.81264E-03    -292.161E-03     582.030E-03    -290.945E-03     3.59325E-03
             185     280.822E-09     51.7135E-03    -132.643E+06    -250.690E+06    -131.926E+06    -767.345E+03    -291.901E-03     582.929E-03    -291.027E-03     4.08879E-03    -292.010E-03     582.060E-03    -291.131E-03     3.91917E-03
             186    -486.758E-09     50.0192E-03    -133.622E+06    -250.963E+06    -132.970E+06     505.308E+03    -291.610E-03     584.025E-03    -292.414E-03     3.44733E-03    -291.722E-03     583.157E-03    -292.522E-03     3.33030E-03
             187    -388.504E-09     48.3164E-03    -132.583E+06    -245.249E+06    -133.156E+06     735.185E+03    -292.200E-03     585.117E-03    -292.917E-03     2.99666E-03    -292.314E-03     584.277E-03    -293.035E-03     2.98324E-03
             188     289.389E-09     46.6139E-03    -134.264E+06    -244.666E+06    -133.802E+06    -476.267E+03    -292.518E-03     585.211E-03    -292.692E-03     3.74784E-03    -292.641E-03     584.376E-03    -292.812E-03     3.76657E-03
             189    -429.174E-09     44.9146E-03    -130.697E+06    -244.737E+06    -131.209E+06     61.2053E+03    -292.716E-03     585.557E-03    -292.841E-03     4.04173E-03    -292.825E-03     584.714E-03    -292.952E-03     3.91155E-03
             190     387.946E-09     43.2102E-03    -133.819E+06    -247.858E+06    -132.632E+06    -823.852E+03    -293.199E-03     586.170E-03    -292.971E-03     3.92085E-03    -293.317E-03     585.318E-03    -293.081E-03     3.66702E-03
             191    -38.5930E-09     41.5106E-03    -131.877E+06    -246.761E+06    -133.242E+06     734.053E+03    -293.980E-03     587.449E-03    -293.469E-03     3.85961E-03    -294.089E-03     586.600E-03    -293.586E-03     3.61574E-03
             192     355.873E-09     39.8015E-03    -132.530E+06    -245.825E+06    -130.923E+06    -520.061E+03    -294.588E-03     588.771E-03    -294.183E-03     3.69912E-03    -294.705E-03     587.925E-03    -294.289E-03     3.44777E-03
             193    -123.783E-09     38.0946E-03    -131.844E+06    -246.114E+06    -133.974E+06     422.841E+03    -294.746E-03     589.603E-03    -294.857E-03     4.35922E-03    -294.854E-03     588.759E-03    -294.979E-03     4.18128E-03
             194    -286.334E-09     36.3833E-03    -131.864E+06    -237.924E+06    -131.226E+06     1.65315E+06    -294.749E-03     590.260E-03    -295.511E-03     4.37336E-03    -294.874E-03     589.453E-03    -295.631E-03     4.22940E-03
             195    -330.145E-09     34.6748E-03    -135.200E+06    -237.708E+06    -132.992E+06    -1.08421E+06    -295.126E-03     591.427E-03    -296.301E-03     4.46871E-03    -295.265E-03     590.628E-03    -296.426E-03     4.30525E-03
             196    -618.303E-09     32.9621E-03    -131.832E+06    -236.334E+06    -133.550E+06     1.08735E+06    -296.270E-03     593.760E-03    -297.490E-03     4.43936E-03    -296.393E-03     592.964E-03    -297.624E-03     4.26719E-03
             197    -90.8236E-09     31.2416E-03    -130.669E+06    -233.721E+06    -130.104E+06    -23.6156E+03    -297.524E-03     595.644E-03    -298.120E-03     4.57873E-03    -297.650E-03     594.855E-03    -298.243E-03     4.34195E-03
             198    -4.33942E-09     29.5228E-03    -131.267E+06    -237.180E+06    -131.222E+06    -683.743E+03    -298.936E-03     596.999E-03    -298.063E-03     5.11581E-03    -299.059E-03     596.194E-03    -298.184E-03     4.84416E-03
             199     1.25152E-06     27.7978E-03    -131.428E+06    -237.974E+06    -132.224E+06     82.8855E+03    -299.854E-03     598.466E-03    -298.612E-03     5.56279E-03    -299.976E-03     597.660E-03    -298.737E-03     5.18407E-03
             200    -863.702E-09     26.0764E-03    -130.385E+06    -235.588E+06    -129.623E+06     344.530E+03    -299.510E-03     599.063E-03    -299.554E-03     4.91456E-03    -299.633E-03     598.264E-03    -299.671E-03     4.64363E-03
             201     411.054E-09     24.3475E-03    -129.457E+06    -233.168E+06    -129.919E+06     72.5644E+03    -298.752E-03     598.261E-03    -299.509E-03     4.92661E-03    -298.874E-03     597.472E-03    -299.632E-03     4.67772E-03
             202    -985.797E-09     22.6272E-03    -129.688E+06    -231.779E+06    -129.739E+06     309.109E+03    -297.780E-03     596.072E-03    -298.291E-03     4.39929E-03    -297.906E-03     595.291E-03    -298.416E-03     4.07591E-03
             203     868.203E-09     20.9108E-03    -129.908E+06    -231.629E+06    -129.901E+06    -223.623E+03    -296.146E-03     591.904E-03    -295.757E-03     3.51977E-03    -296.273E-03     591.123E-03    -295.883E-03     3.23105E-03
             204    -231.804E-09     19.1998E-03    -128.844E+06    -231.437E+06    -130.355E+06    -55.3739E+03    -291.809E-03     584.898E-03    -293.089E-03     3.90926E-03    -291.931E-03     584.117E-03    -293.218E-03     3.60137E-03
             205    -2.14699E-06     17.5098E-03    -130.370E+06    -231.757E+06    -128.654E+06     151.100E+03    -286.817E-03     576.213E-03    -289.395E-03     2.26241E-03    -286.948E-03     575.430E-03    -289.514E-03     1.94513E-03
             206     1.07006E-06     15.8314E-03    -128.132E+06    -231.461E+06    -129.334E+06     142.423E+03    -282.800E-03     565.909E-03    -283.109E-03     1.17783E-03    -282.919E-03     565.125E-03    -283.234E-03     870.752E-06
             207    -403.862E-09     14.1700E-03    -127.394E+06    -230.295E+06    -126.076E+06    -47.5666E+03    -275.818E-03     551.524E-03    -275.706E-03     706.666E-06    -275.942E-03     550.738E-03    -275.818E-03     387.763E-06
             208    -80.6085E-09     12.5427E-03    -125.384E+06    -231.481E+06    -126.571E+06    -306.467E+03    -266.804E-03     533.924E-03    -267.120E-03    -645.073E-06    -266.916E-03     533.129E-03    -267.235E-03    -1.08068E-03
             209     149.985E-09     10.9404E-03    -126.408E+06    -229.420E+06    -126.382E+06     924.524E+03    -258.317E-03     516.519E-03    -258.202E-03    -1.13132E-03    -258.437E-03     515.737E-03    -258.318E-03    -1.67037E-03
             210    -35.1725E-09     9.36896E-03    -129.742E+06    -226.719E+06    -129.594E+06     25.0518E+03    -251.509E-03     502.166E-03    -250.657E-03    -853.067E-06    -251.644E-03     501.408E-03    -250.788E-03    -1.44448E-03
             211     1.13233E-06     7.81019E-03    -132.889E+06    -226.766E+06    -132.286E+06    -94.1518E+03    -247.242E-03     493.684E-03    -246.442E-03     1.23868E-03    -247.388E-03     492.936E-03    -246.581E-03     698.881E-06
             212    -1.09444E-06     6.26465E-03    -127.097E+06    -227.793E+06    -126.903E+06    -257.762E+03    -245.688E-03     492.918E-03    -247.230E-03     3.24061E-03    -245.811E-03     492.150E-03    -247.350E-03     2.77199E-03
             213    -1.10948E-06     4.70931E-03    -109.227E+06    -229.286E+06    -109.058E+06    -43.1365E+03    -247.926E-03     497.419E-03    -249.493E-03     2.29260E-03    -247.983E-03     496.591E-03    -249.547E-03     1.93457E-03
             214     1.11389E-06     3.14936E-03    -88.1729E+06    -228.877E+06    -88.2426E+06     322.598E+03    -251.877E-03     503.399E-03    -251.521E-03     2.28380E-03    -251.859E-03     502.511E-03    -251.503E-03     2.07007E-03
             215    -620.028E-09     1.57525E-03    -74.7605E+06    -227.035E+06    -73.8983E+06     173.909E+03    -254.175E-03     507.867E-03    -253.693E-03     1.33417E-03    -254.112E-03     506.948E-03    -253.625E-03     1.20668E-03
             216     698.131E-06    -346.945E-18    -69.0664E+06    -224.147E+06    -68.8473E+06    -183.973E+03    -254.929E-03     509.552E-03    -254.623E-03     126.538E-06    -254.849E-03     508.631E-03    -254.542E-03     12.8577E-06
             217     1.39456E-03    -346.945E-18    -68.7738E+06    -218.707E+06    -66.8312E+06     214.939E+03    -255.411E-03     510.318E-03    -254.907E-03     1.72560E-03    -255.341E-03     509.422E-03    -254.825E-03     1.55485E-03
             218     2.09124E-03    -346.945E-18    -67.5155E+06    -210.893E+06    -62.8283E+06    -177.555E+03    -256.060E-03     511.253E-03    -255.193E-03     3.24550E-03    -256.002E-03     510.388E-03    -255.103E-03     2.91925E-03
             219     2.78715E-03    -346.945E-18    -65.5846E+06    -195.756E+06     -58.991E+06    -281.661E+03    -256.907E-03     512.423E-03    -255.516E-03     4.45248E-03    -256.867E-03     511.627E-03    -255.432E-03     4.02340E-03
             220     3.48282E-03    -346.945E-18    -63.5150E+06    -172.495E+06    -56.1684E+06    -704.400E+03    -258.144E-03     514.046E-03    -255.902E-03     5.42172E-03    -258.134E-03     513.360E-03    -255.840E-03     4.90187E-03
             221     4.17736E-03    -346.945E-18    -61.1374E+06    -144.574E+06    -52.6975E+06    -1.38030E+06    -259.777E-03     516.167E-03    -256.390E-03     6.29728E-03    -259.801E-03     515.614E-03    -256.356E-03     5.64316E-03
             222     4.87040E-03    -346.945E-18    -57.8130E+06    -112.235E+06    -48.9805E+06    -3.21943E+06    -261.723E-03     518.709E-03    -256.985E-03     7.55278E-03    -261.785E-03     518.309E-03    -256.984E-03     6.74162E-03
             223     5.56196E-03    -346.945E-18    -52.6328E+06    -73.9132E+06    -44.7091E+06    -5.67695E+06    -264.063E-03     521.749E-03    -257.686E-03     8.81599E-03    -264.163E-03     521.530E-03    -257.726E-03     7.84749E-03
             224     6.25202E-03    -346.945E-18    -46.8767E+06    -24.7369E+06    -38.9579E+06    -5.18407E+06    -267.103E-03     525.617E-03    -258.514E-03     10.0134E-03    -267.256E-03     525.629E-03    -258.605E-03     8.91857E-03
             225     6.93952E-03    -346.945E-18    -41.8831E+06     8.83257E+06    -28.2932E+06    -3.79892E+06    -271.137E-03     530.705E-03    -259.569E-03     11.6014E-03    -271.333E-03     530.867E-03    -259.662E-03     10.3030E-03
             226     7.62326E-03    -346.945E-18    -36.9282E+06     19.9195E+06    -14.1080E+06    -4.21878E+06    -275.755E-03     536.629E-03    -260.874E-03     12.9406E-03    -275.969E-03     536.824E-03    -260.920E-03     11.3609E-03
             227     8.30504E-03    -346.945E-18    -32.5345E+06     34.1459E+06    -1.01312E+06    -723.454E+03    -281.353E-03     543.734E-03    -262.382E-03     14.6863E-03    -281.591E-03     543.982E-03    -262.389E-03     12.8341E-03
             228     8.98116E-03    -346.945E-18    -30.7411E+06     47.2470E+06     18.6173E+06     3.33677E+06    -288.870E-03     553.068E-03    -264.198E-03     16.4019E-03    -289.153E-03     553.357E-03    -264.129E-03     14.3148E-03
             229     9.65296E-03    -346.945E-18    -28.9791E+06     56.5198E+06     45.2325E+06     3.21807E+06    -298.863E-03     565.282E-03    -266.419E-03     19.2696E-03    -299.205E-03     565.593E-03    -266.233E-03     16.5863E-03
             230     10.3148E-03    -346.945E-18    -23.9082E+06     68.1651E+06     68.1025E+06    -2.23889E+06    -311.887E-03     580.965E-03    -269.078E-03     21.8708E-03    -312.271E-03     581.313E-03    -268.802E-03     18.3866E-03
             231     10.9711E-03    -346.945E-18    -17.6060E+06     75.7381E+06     83.1200E+06    -345.144E+03    -329.275E-03     601.568E-03    -272.293E-03     28.7934E-03    -329.703E-03     601.967E-03    -271.962E-03     24.3285E-03
             232     11.6040E-03    -346.945E-18    -15.7129E+06     77.3875E+06     86.9017E+06     6.49441E+06    -353.833E-03     630.091E-03    -276.258E-03     41.0033E-03    -354.332E-03     630.569E-03    -275.913E-03     35.2537E-03
             233     12.2300E-03    -346.945E-18    -11.7032E+06     90.4087E+06     89.2265E+06     3.22127E+06    -392.305E-03     673.671E-03    -281.366E-03     47.0299E-03    -392.900E-03     674.315E-03    -281.034E-03     38.9952E-03
             234     12.8319E-03    -346.945E-18     625.686E+03     104.988E+06     98.1017E+06    -1.77384E+06    -444.555E-03     732.643E-03    -288.087E-03     70.3919E-03    -445.466E-03     733.668E-03    -287.750E-03     57.2411E-03
             235     13.4313E-03     2.10324E-03    -1.61593E+06     102.654E+06     97.3425E+06    -923.987E+03    -430.044E-03     720.873E-03    -290.829E-03     94.8011E-03    -431.429E-03     722.334E-03    -290.489E-03     77.0541E-03
             236     13.4598E-03     3.95917E-03    -7.64447E+06     98.9232E+06     90.2900E+06     1.59191E+06    -369.717E-03     659.182E-03    -289.465E-03     77.1890E-03    -370.976E-03     660.496E-03    -289.145E-03     60.7318E-03
             237     13.4671E-03     5.74963E-03    -3.55868E+06     99.1565E+06     91.4857E+06    -660.697E+03    -342.036E-03     631.339E-03    -289.303E-03     55.3920E-03    -343.019E-03     632.395E-03    -288.984E-03     40.2900E-03
             238     13.4660E-03     7.51000E-03    -3.48945E+06     96.6606E+06     93.5842E+06    -1.01174E+06    -323.978E-03     613.568E-03    -289.590E-03     51.1490E-03    -324.955E-03     614.605E-03    -289.257E-03     36.1503E-03
             239     13.4696E-03     9.25075E-03    -954.341E+03     95.3343E+06     93.8092E+06     419.430E+03    -311.125E-03     600.915E-03    -289.790E-03     51.3641E-03    -312.034E-03     601.887E-03    -289.458E-03     37.5492E-03
             240     13.4699E-03     10.9615E-03    -2.17329E+06     93.0329E+06     93.0699E+06    -979.299E+03    -305.011E-03     594.919E-03    -289.908E-03     47.0600E-03    -305.872E-03     595.832E-03    -289.574E-03     33.6523E-03
             241     13.4675E-03     12.6842E-03    -3.16591E+06     92.5883E+06     92.7071E+06     454.337E+03    -297.687E-03     587.802E-03    -290.115E-03     42.6718E-03    -298.479E-03     588.642E-03    -289.781E-03     30.1625E-03
             242     13.4708E-03     14.3763E-03    -2.33223E+06     92.2106E+06     91.8178E+06    -231.480E+03    -290.410E-03     580.656E-03    -290.246E-03     45.3391E-03    -291.210E-03     581.508E-03    -289.917E-03     33.1015E-03
             243     13.4693E-03     16.0667E-03    -2.88244E+06     91.3264E+06     92.0948E+06    -628.203E+03    -287.495E-03     577.818E-03    -290.323E-03     41.0644E-03    -288.252E-03     578.622E-03    -289.991E-03     29.1549E-03
             244     13.4690E-03     17.7602E-03    -1.12099E+06     92.2490E+06     92.6143E+06     717.787E+03    -282.468E-03     572.954E-03    -290.486E-03     40.2246E-03    -283.195E-03     573.737E-03    -290.155E-03     28.7768E-03
             245     13.4693E-03     19.4269E-03    -2.61295E+06     90.4851E+06     90.6582E+06    -358.697E+03    -280.434E-03     570.976E-03    -290.542E-03     40.8360E-03    -281.173E-03     571.764E-03    -290.216E-03     29.3050E-03
             246     13.4685E-03     21.1113E-03    -2.52746E+06     90.5822E+06     91.5121E+06    -196.412E+03    -280.305E-03     570.882E-03    -290.577E-03     37.5513E-03    -281.010E-03     571.635E-03    -290.247E-03     26.2633E-03
             247     13.4682E-03     22.7905E-03    -2.26810E+06     90.4305E+06     90.7589E+06     166.998E+03    -278.549E-03     569.177E-03    -290.627E-03     40.1895E-03    -279.270E-03     569.948E-03    -290.301E-03     28.9439E-03
             248     13.4693E-03     24.4599E-03    -3.25037E+06     89.4866E+06     90.0611E+06    -1.06254E+06    -280.042E-03     570.632E-03    -290.590E-03     39.8681E-03    -280.775E-03     571.409E-03    -290.264E-03     28.3450E-03
             249     13.4674E-03     26.1459E-03    -1.89843E+06     90.8528E+06     91.8989E+06     324.420E+03    -280.694E-03     571.267E-03    -290.574E-03     38.6720E-03    -281.401E-03     572.024E-03    -290.243E-03     27.4107E-03
             250     13.4703E-03     27.8230E-03    -1.26317E+06     91.3517E+06     91.7595E+06     330.413E+03    -280.862E-03     571.418E-03    -290.556E-03     40.9544E-03    -281.579E-03     572.189E-03    -290.228E-03     29.7564E-03
             251     13.4669E-03     29.5053E-03    -2.74665E+06     90.0951E+06     90.9485E+06     52.0553E+03    -282.764E-03     573.281E-03    -290.518E-03     40.3815E-03    -283.487E-03     574.052E-03    -290.190E-03     28.9813E-03
             252     13.4702E-03     31.1885E-03    -1.81273E+06     91.1913E+06     92.3482E+06     617.187E+03    -283.440E-03     573.940E-03    -290.501E-03     40.1340E-03    -284.161E-03     574.711E-03    -290.168E-03     28.7226E-03
             253     13.4673E-03     32.8730E-03    -3.00932E+06     90.2019E+06     91.1160E+06    -346.574E+03    -284.042E-03     574.529E-03    -290.487E-03     39.8701E-03    -284.768E-03     575.300E-03    -290.158E-03     28.3354E-03
             254     13.4695E-03     34.5590E-03    -2.57414E+06     90.7735E+06     92.2681E+06     228.440E+03    -284.227E-03     574.710E-03    -290.483E-03     40.4567E-03    -284.957E-03     575.485E-03    -290.150E-03     28.9359E-03
             255     13.4681E-03     36.2445E-03    -1.82966E+06     91.4204E+06     92.6523E+06     96.9794E+03    -284.960E-03     575.413E-03    -290.453E-03     41.4500E-03    -285.698E-03     576.200E-03    -290.120E-03     29.8458E-03
             256     13.4693E-03     37.9333E-03    -2.90646E+06     90.4269E+06     92.3848E+06    -515.039E+03    -286.647E-03     577.073E-03    -290.426E-03     41.3427E-03    -287.387E-03     577.856E-03    -290.091E-03     29.6803E-03
             257     13.4676E-03     39.6234E-03    -2.49116E+06     90.5336E+06     92.5911E+06     419.747E+03    -286.635E-03     577.055E-03    -290.420E-03     40.6848E-03    -287.359E-03     577.823E-03    -290.085E-03     29.2231E-03
             258     13.4702E-03     41.3109E-03    -2.52729E+06     90.2781E+06     92.3120E+06     471.469E+03    -286.031E-03     576.445E-03    -290.414E-03     41.2430E-03    -286.764E-03     577.222E-03    -290.080E-03     29.7141E-03
             259     13.4678E-03     43.0017E-03    -2.34049E+06     90.5152E+06     92.9573E+06    -149.634E+03    -287.096E-03     577.491E-03    -290.395E-03     42.2844E-03    -287.852E-03     578.291E-03    -290.058E-03     30.4021E-03
             260     13.4697E-03     44.6905E-03    -3.07125E+06     89.8808E+06     92.7386E+06    -424.407E+03    -288.486E-03     578.849E-03    -290.363E-03     42.0659E-03    -289.243E-03     579.645E-03    -290.025E-03     30.1332E-03
             261     13.4681E-03     46.3860E-03    -1.31967E+06     91.2284E+06     93.6877E+06     911.158E+03    -288.195E-03     578.545E-03    -290.351E-03     41.3671E-03    -288.927E-03     579.325E-03    -290.013E-03     29.7239E-03
             262     13.4704E-03     48.0754E-03    -1.77580E+06     90.7593E+06     93.7191E+06    -203.585E+03    -288.180E-03     578.541E-03    -290.360E-03     41.8524E-03    -288.925E-03     579.329E-03    -290.021E-03     30.0811E-03
             263     13.4669E-03     49.7695E-03    -2.74162E+06     89.6480E+06     92.9885E+06     96.2066E+03    -288.650E-03     579.013E-03    -290.362E-03     42.0585E-03    -289.403E-03     579.805E-03    -290.023E-03     30.1842E-03
             264     13.4708E-03     51.4604E-03    -2.29997E+06     90.0586E+06     93.0454E+06     -94.097E+03    -288.467E-03     578.819E-03    -290.352E-03     42.1741E-03    -289.219E-03     579.613E-03    -290.014E-03     30.2919E-03
             265     13.4673E-03     53.1537E-03    -3.34508E+06     89.6676E+06     92.7046E+06    -1.00329E+06    -288.804E-03     579.149E-03    -290.345E-03     42.0448E-03    -289.564E-03     579.947E-03    -290.007E-03     30.0603E-03
             266     13.4704E-03     54.8466E-03    -2.37748E+06     90.3464E+06     93.5137E+06    -7.99781E+03    -288.544E-03     578.890E-03    -290.346E-03     42.2125E-03    -289.296E-03     579.683E-03    -290.006E-03     30.3716E-03
             267     13.4682E-03     56.5388E-03    -1.15725E+06     92.0738E+06     94.2784E+06     641.915E+03    -288.892E-03     579.215E-03    -290.323E-03     42.8948E-03    -289.645E-03     580.017E-03    -289.984E-03     31.0849E-03
             268     13.4702E-03     58.2325E-03    -2.42024E+06     91.8212E+06     93.9894E+06     372.788E+03    -290.013E-03     580.340E-03    -290.327E-03     41.6414E-03    -290.765E-03     581.136E-03    -289.987E-03     29.7680E-03
             269     13.4666E-03     59.9289E-03    -2.40105E+06     90.3157E+06     93.3820E+06     158.168E+03    -289.052E-03     579.415E-03    -290.363E-03     41.8863E-03    -289.795E-03     580.200E-03    -290.024E-03     30.1493E-03
             270     13.4712E-03     61.6184E-03    -3.12061E+06     89.2948E+06     92.0913E+06    -331.085E+03    -288.505E-03     578.858E-03    -290.353E-03     42.5796E-03    -289.264E-03     579.655E-03    -290.017E-03     30.6699E-03
             271     13.4668E-03     63.3120E-03    -2.42522E+06     91.3160E+06     94.6201E+06    -748.520E+03    -289.282E-03     579.624E-03    -290.342E-03     41.9822E-03    -290.047E-03     580.431E-03    -289.998E-03     29.8950E-03
             272     13.4709E-03     65.0072E-03    -2.60417E+06     90.9290E+06     94.3702E+06     507.302E+03    -289.095E-03     579.434E-03    -290.339E-03     42.4046E-03    -289.850E-03     580.229E-03    -289.995E-03     30.5894E-03
             273     13.4674E-03     66.6989E-03    -2.68058E+06     90.6089E+06     94.1238E+06     205.018E+03    -289.025E-03     579.363E-03    -290.338E-03     42.2798E-03    -289.780E-03     580.158E-03    -289.995E-03     30.4332E-03
             274     13.4704E-03     68.3933E-03    -1.85793E+06     91.1196E+06     94.0887E+06     139.017E+03    -288.774E-03     579.107E-03    -290.333E-03     42.6416E-03    -289.531E-03     579.908E-03    -289.992E-03     30.7460E-03
             275     13.4685E-03     70.0845E-03    -2.65465E+06     90.2338E+06     93.7448E+06    -467.043E+03    -289.435E-03     579.753E-03    -290.317E-03     42.8663E-03    -290.195E-03     580.551E-03    -289.975E-03     30.9677E-03
             276     13.4693E-03     71.7815E-03    -2.07714E+06     89.3646E+06     93.5544E+06     82.0254E+03    -289.361E-03     579.678E-03    -290.317E-03     42.1024E-03    -290.108E-03     580.464E-03    -289.976E-03     30.2529E-03
             277     13.4697E-03     73.4708E-03    -2.44082E+06     88.8437E+06     93.9003E+06    -107.651E+03    -289.220E-03     579.545E-03    -290.325E-03     42.2942E-03    -289.969E-03     580.329E-03    -289.981E-03     30.4829E-03
             278     13.4680E-03     75.1687E-03    -3.27252E+06     88.8636E+06     93.5598E+06     764.433E+03    -289.522E-03     579.869E-03    -290.348E-03     41.6512E-03    -290.267E-03     580.647E-03    -290.004E-03     29.9015E-03
             279     13.4694E-03     76.8601E-03    -2.78417E+06     88.8690E+06     92.7100E+06     696.058E+03    -288.442E-03     578.801E-03    -290.358E-03     42.7425E-03    -289.192E-03     579.587E-03    -290.020E-03     31.0243E-03
             280     13.4690E-03     78.5511E-03    -2.55495E+06     89.1338E+06     93.8969E+06    -324.877E+03    -289.005E-03     579.334E-03    -290.329E-03     42.7657E-03    -289.768E-03     580.132E-03    -289.985E-03     30.7694E-03
             281     13.4694E-03     80.2461E-03    -2.33814E+06     89.1994E+06     94.5411E+06    -622.077E+03    -289.705E-03     580.010E-03    -290.305E-03     42.2338E-03    -290.465E-03     580.804E-03    -289.958E-03     30.1833E-03
             282     13.4694E-03     81.9403E-03    -2.31857E+06     88.9879E+06     94.9156E+06    -536.319E+03    -289.375E-03     579.687E-03    -290.312E-03     42.1724E-03    -290.125E-03     580.470E-03    -289.963E-03     30.3109E-03
             283     13.4691E-03     83.6347E-03    -1.83836E+06     89.0911E+06     94.8868E+06     1.05890E+06    -289.060E-03     579.385E-03    -290.325E-03     42.7093E-03    -289.808E-03     580.168E-03    -289.977E-03     30.9759E-03
             284     13.4694E-03     85.3272E-03    -1.85544E+06     88.7478E+06     94.9072E+06     118.926E+03    -289.162E-03     579.502E-03    -290.340E-03     42.2534E-03    -289.913E-03     580.286E-03    -289.991E-03     30.3815E-03
             285     13.4683E-03     87.0191E-03    -1.89954E+06     88.4694E+06     94.3805E+06    -253.165E+03    -289.033E-03     579.361E-03    -290.328E-03     42.3466E-03    -289.791E-03     580.152E-03    -289.981E-03     30.3314E-03
             286     13.4709E-03     88.7124E-03    -2.16957E+06     87.8456E+06     93.2580E+06    -691.501E+03    -289.559E-03     579.865E-03    -290.306E-03     41.8703E-03    -290.310E-03     580.650E-03    -289.964E-03     29.8586E-03
             287     13.4669E-03     90.4092E-03    -3.49916E+06     86.4382E+06     93.1594E+06    -335.430E+03    -289.633E-03     579.961E-03    -290.328E-03     41.8677E-03    -290.382E-03     580.734E-03    -289.983E-03     29.9880E-03
             288     13.4712E-03     92.1009E-03    -2.12289E+06     87.5909E+06     94.2590E+06     804.654E+03    -288.883E-03     579.214E-03    -290.331E-03     43.0669E-03    -289.630E-03     579.991E-03    -289.983E-03     31.3590E-03
             289     13.4677E-03     93.7954E-03    -3.22595E+06     86.3929E+06     93.9122E+06    -117.083E+03    -289.201E-03     579.531E-03    -290.330E-03     42.2240E-03    -289.952E-03     580.305E-03    -289.981E-03     30.3776E-03
             290     13.4701E-03     95.4873E-03    -1.91270E+06     85.1975E+06     94.2664E+06    -246.366E+03    -289.255E-03     579.587E-03    -290.332E-03     42.8794E-03    -290.006E-03     580.361E-03    -289.981E-03     30.9508E-03
             291     13.4687E-03     97.1816E-03    -2.80711E+06     84.1835E+06     93.4824E+06     85.2020E+03    -289.303E-03     579.617E-03    -290.314E-03     42.4229E-03    -290.055E-03     580.386E-03    -289.964E-03     30.4631E-03
             292     672.947E-06     99.1666E-03    -132.068E+06    -247.134E+06    -129.913E+06     46.0244E+03    -290.388E-03     580.896E-03    -290.508E-03     5.44668E-03    -290.503E-03     580.042E-03    -290.608E-03     5.32255E-03
             293     1.34654E-03     99.1800E-03    -128.706E+06    -234.536E+06    -120.790E+06     99.3868E+03    -290.440E-03     580.905E-03    -290.465E-03     9.98390E-03    -290.572E-03     580.097E-03    -290.542E-03     9.83509E-03
             294     2.01954E-03     99.2018E-03    -124.417E+06    -220.360E+06    -107.457E+06     180.449E+03    -290.414E-03     580.903E-03    -290.489E-03     14.7062E-03    -290.569E-03     580.146E-03    -290.527E-03     14.4247E-03
             295     2.69228E-03     99.2321E-03    -117.992E+06    -200.697E+06    -90.1615E+06     351.369E+03    -290.386E-03     580.900E-03    -290.514E-03     19.5414E-03    -290.570E-03     580.214E-03    -290.502E-03     19.0616E-03
             296     3.36526E-03     99.2715E-03    -110.553E+06    -178.457E+06    -71.2415E+06     436.634E+03    -290.368E-03     580.903E-03    -290.535E-03     24.5253E-03    -290.586E-03     580.301E-03    -290.472E-03     23.7462E-03
             297     4.03871E-03     99.3189E-03    -102.396E+06    -154.519E+06    -52.3839E+06     436.868E+03    -290.330E-03     580.876E-03    -290.545E-03     29.6330E-03    -290.586E-03     580.371E-03    -290.435E-03     28.4305E-03
             298     4.71224E-03     99.3749E-03    -93.7267E+06    -128.533E+06    -33.9485E+06     500.623E+03    -290.329E-03     580.875E-03    -290.545E-03     34.8508E-03    -290.630E-03     580.485E-03    -290.393E-03     33.0957E-03
             299     5.38553E-03     99.4398E-03    -85.3786E+06    -101.795E+06    -16.5452E+06     545.832E+03    -290.383E-03     580.923E-03    -290.541E-03     40.1459E-03    -290.738E-03     580.662E-03    -290.352E-03     37.6939E-03
             300     6.05912E-03     99.5116E-03    -76.8057E+06    -72.5833E+06    -168.998E+03     394.884E+03    -290.412E-03     580.940E-03    -290.529E-03     45.5139E-03    -290.832E-03     580.831E-03    -290.313E-03     42.2102E-03
             301     6.73272E-03     99.5933E-03    -68.0763E+06    -37.5735E+06     15.8321E+06     530.958E+03    -290.353E-03     580.855E-03    -290.502E-03     50.8679E-03    -290.860E-03     580.941E-03    -290.270E-03     46.5582E-03
             302     7.40626E-03     99.6808E-03    -60.2944E+06    -184.137E+03     30.7573E+06     494.005E+03    -290.299E-03     580.761E-03    -290.462E-03     55.9233E-03    -290.912E-03     581.071E-03    -290.221E-03     50.4427E-03
             303     8.07986E-03     99.7759E-03    -52.0624E+06     22.2881E+06     41.3909E+06     347.935E+03    -290.400E-03     580.826E-03    -290.425E-03     60.7101E-03    -291.106E-03     581.305E-03    -290.175E-03     53.9193E-03
             304     8.75340E-03     99.8774E-03    -44.3958E+06     37.1240E+06     50.4413E+06     523.040E+03    -290.479E-03     580.879E-03    -290.401E-03     65.0769E-03    -291.282E-03     581.510E-03    -290.138E-03     56.8482E-03
             305     9.42727E-03     99.9833E-03    -37.9635E+06     51.8377E+06     61.6003E+06     265.300E+03    -290.460E-03     580.854E-03    -290.393E-03     69.0532E-03    -291.386E-03     581.650E-03    -290.105E-03     59.2657E-03
             306     10.1006E-03     100.094E-03    -31.0737E+06     59.4412E+06     74.0434E+06    -356.873E+03    -290.365E-03     580.768E-03    -290.404E-03     71.9965E-03    -291.411E-03     581.700E-03    -290.074E-03     60.5956E-03
             307     10.7750E-03     100.205E-03    -23.8425E+06     67.6197E+06     85.6402E+06    -735.417E+03    -290.269E-03     580.681E-03    -290.412E-03     73.1432E-03    -291.427E-03     581.745E-03    -290.047E-03     60.1584E-03
             308     11.4489E-03     100.314E-03    -17.2581E+06     74.7356E+06     92.8870E+06    -409.399E+03    -290.190E-03     580.599E-03    -290.410E-03     70.7626E-03    -291.390E-03     581.734E-03    -290.028E-03     56.7028E-03
             309     12.1209E-03     100.412E-03    -10.6319E+06     81.2505E+06     96.0703E+06     407.762E+03    -289.846E-03     580.238E-03    -290.392E-03     70.2538E-03    -291.171E-03     581.536E-03    -290.014E-03     54.3711E-03
             310     12.7974E-03     100.514E-03    -4.51146E+06     86.3027E+06     95.6768E+06     516.863E+03    -289.487E-03     579.844E-03    -290.356E-03     57.1170E-03    -290.587E-03     580.956E-03    -289.996E-03     42.5382E-03
             311     673.497E-06     100.860E-03    -132.863E+06    -246.881E+06    -130.873E+06    -672.683E+03    -290.524E-03     580.715E-03    -290.191E-03     5.30704E-03    -290.641E-03     579.864E-03    -290.295E-03     5.24807E-03
             312     1.34587E-03     100.874E-03    -129.381E+06    -236.430E+06    -121.332E+06     279.081E+03    -290.530E-03     580.944E-03    -290.415E-03     9.78122E-03    -290.661E-03     580.129E-03    -290.491E-03     9.62717E-03
             313     2.01900E-03     100.896E-03    -124.512E+06    -220.258E+06    -107.026E+06     523.193E+03    -290.458E-03     580.942E-03    -290.485E-03     14.6103E-03    -290.614E-03     580.185E-03    -290.520E-03     14.3245E-03
             314     2.69241E-03     100.926E-03    -118.233E+06    -200.950E+06    -90.1648E+06     100.201E+03    -290.374E-03     580.889E-03    -290.515E-03     19.6465E-03    -290.559E-03     580.202E-03    -290.503E-03     19.1563E-03
             315     3.36583E-03     100.965E-03    -110.514E+06    -179.298E+06    -71.4579E+06     115.234E+03    -290.317E-03     580.846E-03    -290.528E-03     24.7290E-03    -290.534E-03     580.240E-03    -290.466E-03     23.9352E-03
             316     4.03900E-03     101.013E-03    -102.381E+06    -155.029E+06    -52.5662E+06     354.988E+03    -290.322E-03     580.856E-03    -290.534E-03     29.8465E-03    -290.577E-03     580.349E-03    -290.423E-03     28.6363E-03
             317     4.71208E-03     101.069E-03    -94.4168E+06    -128.992E+06    -34.2489E+06     352.132E+03    -290.324E-03     580.858E-03    -290.534E-03     35.0374E-03    -290.627E-03     580.467E-03    -290.381E-03     33.2789E-03
             318     5.38575E-03     101.133E-03    -85.6444E+06    -101.957E+06    -16.6667E+06     112.471E+03    -290.358E-03     580.886E-03    -290.528E-03     40.3034E-03    -290.714E-03     580.625E-03    -290.339E-03     37.8410E-03
             319     6.05896E-03     101.206E-03    -76.8943E+06    -72.8736E+06     -143.68E+03     208.535E+03    -290.398E-03     580.913E-03    -290.516E-03     45.5789E-03    -290.819E-03     580.803E-03    -290.299E-03     42.2639E-03
             320     6.73239E-03     101.286E-03    -68.8032E+06    -38.5445E+06     15.5830E+06     413.635E+03    -290.373E-03     580.864E-03    -290.491E-03     50.8040E-03    -290.882E-03     580.947E-03    -290.258E-03     46.4778E-03
             321     7.40627E-03     101.375E-03    -59.9789E+06    -560.153E+03     30.6751E+06     650.629E+03    -290.429E-03     580.887E-03    -290.458E-03     55.8314E-03    -291.040E-03     581.194E-03    -290.217E-03     50.3458E-03
             322     8.07977E-03     101.469E-03    -52.0406E+06     22.2046E+06     41.3386E+06     774.131E+03    -290.507E-03     580.939E-03    -290.432E-03     60.6158E-03    -291.213E-03     581.419E-03    -290.182E-03     53.8134E-03
             323     8.75346E-03     101.571E-03    -44.6819E+06     36.7709E+06     50.3271E+06     642.282E+03    -290.565E-03     580.980E-03    -290.415E-03     65.1048E-03    -291.371E-03     581.612E-03    -290.152E-03     56.8450E-03
             324     9.42681E-03     101.677E-03    -37.2077E+06     52.2922E+06     61.8614E+06     614.760E+03    -290.594E-03     581.008E-03    -290.414E-03     68.9333E-03    -291.518E-03     581.806E-03    -290.127E-03     59.1219E-03
             325     10.1008E-03     101.787E-03    -30.4456E+06     60.8130E+06     75.1220E+06     396.072E+03    -290.482E-03     580.917E-03    -290.435E-03     71.5769E-03    -291.526E-03     581.851E-03    -290.104E-03     60.1687E-03
             326     10.7739E-03     101.898E-03    -24.0332E+06     68.1770E+06     86.5970E+06    -85.3132E+03    -290.206E-03     580.653E-03    -290.446E-03     72.7576E-03    -291.362E-03     581.714E-03    -290.077E-03     59.8139E-03
             327     11.4470E-03     102.008E-03    -17.7749E+06     73.9977E+06     92.8479E+06    -495.695E+03    -290.114E-03     580.550E-03    -290.436E-03     70.9771E-03    -291.312E-03     581.678E-03    -290.053E-03     56.9982E-03
             328     12.1220E-03     102.106E-03    -11.4742E+06     80.1054E+06     95.0583E+06    -692.538E+03    -290.014E-03     580.428E-03    -290.415E-03     70.3935E-03    -291.339E-03     581.722E-03    -290.039E-03     54.5167E-03
             329     12.7927E-03     102.207E-03    -4.75647E+06     85.6712E+06     95.1664E+06     21.3976E+03    -289.132E-03     579.506E-03    -290.374E-03     57.2446E-03    -290.236E-03     580.621E-03    -290.016E-03     42.6108E-03
             330     672.840E-06     102.554E-03    -132.110E+06    -248.198E+06    -129.471E+06     1.49429E+06    -290.487E-03     580.853E-03    -290.366E-03     5.42056E-03    -290.601E-03     579.993E-03    -290.462E-03     5.38206E-03
             331     1.34648E-03     102.568E-03    -129.615E+06    -236.284E+06    -121.042E+06     72.9658E+03    -290.403E-03     580.844E-03    -290.442E-03     9.87434E-03    -290.536E-03     580.030E-03    -290.516E-03     9.72421E-03
             332     2.01944E-03     102.589E-03    -124.291E+06    -221.182E+06    -107.836E+06    -163.974E+03    -290.395E-03     580.857E-03    -290.461E-03     14.7594E-03    -290.548E-03     580.096E-03    -290.500E-03     14.4634E-03
             333     2.69239E-03     102.620E-03    -117.990E+06    -201.151E+06    -90.4765E+06     415.233E+03    -290.339E-03     580.823E-03    -290.484E-03     19.6575E-03    -290.522E-03     580.136E-03    -290.474E-03     19.1610E-03
             334     3.36552E-03     102.659E-03    -111.039E+06    -179.433E+06    -71.4050E+06     296.517E+03    -290.295E-03     580.796E-03    -290.501E-03     24.6684E-03    -290.514E-03     580.191E-03    -290.437E-03     23.8726E-03
             335     4.03894E-03     102.706E-03    -102.929E+06    -155.591E+06    -52.7363E+06     62.9200E+03    -290.286E-03     580.792E-03    -290.506E-03     29.7909E-03    -290.542E-03     580.284E-03    -290.395E-03     28.5744E-03
             336     4.71260E-03     102.762E-03    -93.9363E+06    -129.358E+06    -34.2641E+06     194.636E+03    -290.348E-03     580.857E-03    -290.508E-03     35.0164E-03    -290.648E-03     580.464E-03    -290.356E-03     33.2514E-03
             337     5.38565E-03     102.827E-03    -85.6185E+06    -102.093E+06    -16.8787E+06     427.160E+03    -290.384E-03     580.893E-03    -290.508E-03     40.2672E-03    -290.740E-03     580.630E-03    -290.320E-03     37.8056E-03
             338     6.05939E-03     102.899E-03    -77.6705E+06    -73.4355E+06     -660.11E+03     368.167E+03    -290.399E-03     580.899E-03    -290.500E-03     45.5188E-03    -290.822E-03     580.788E-03    -290.284E-03     42.2005E-03
             339     6.73299E-03     102.980E-03    -69.0259E+06    -39.1236E+06     15.3116E+06     503.547E+03    -290.490E-03     580.974E-03    -290.484E-03     50.7562E-03    -290.999E-03     581.054E-03    -290.250E-03     46.4309E-03
             340     7.40607E-03     103.068E-03    -60.7481E+06    -1.14506E+06     30.2559E+06     624.845E+03    -290.494E-03     580.954E-03    -290.460E-03     55.9333E-03    -291.109E-03     581.261E-03    -290.219E-03     50.4402E-03
             341     8.07967E-03     103.164E-03    -52.6075E+06     21.3572E+06     40.9669E+06     800.963E+03    -290.540E-03     580.977E-03    -290.437E-03     60.7787E-03    -291.247E-03     581.455E-03    -290.187E-03     53.9708E-03
             342     8.75316E-03     103.264E-03    -44.8655E+06     37.1424E+06     50.3918E+06     731.599E+03    -290.623E-03     581.045E-03    -290.423E-03     65.3275E-03    -291.430E-03     581.680E-03    -290.160E-03     57.0749E-03
             343     9.42681E-03     103.372E-03    -37.9273E+06     52.3522E+06     61.6552E+06     289.381E+03    -290.583E-03     581.004E-03    -290.422E-03     69.3794E-03    -291.512E-03     581.806E-03    -290.134E-03     59.5656E-03
             344     10.0998E-03     103.480E-03    -30.7571E+06     60.1098E+06     74.4867E+06     492.769E+03    -290.479E-03     580.917E-03    -290.438E-03     72.5169E-03    -291.530E-03     581.856E-03    -290.108E-03     61.1081E-03
             345     10.7737E-03     103.593E-03    -23.4498E+06     68.3670E+06     86.6915E+06     576.803E+03    -290.254E-03     580.702E-03    -290.448E-03     73.6799E-03    -291.411E-03     581.767E-03    -290.080E-03     60.7916E-03
             346     11.4486E-03     103.699E-03    -16.7262E+06     74.9944E+06     94.0423E+06     200.173E+03    -289.937E-03     580.371E-03    -290.434E-03     71.9410E-03    -291.138E-03     581.507E-03    -290.048E-03     58.0079E-03
             347     12.1206E-03     103.804E-03    -10.7741E+06     80.8203E+06     96.4638E+06    -305.705E+03    -289.618E-03     580.015E-03    -290.397E-03     71.4945E-03    -290.949E-03     581.315E-03    -290.016E-03     55.6763E-03
             348     12.7969E-03     103.898E-03     -5.2586E+06     85.0392E+06     95.2495E+06    -770.276E+03    -289.357E-03     579.704E-03    -290.347E-03     57.7780E-03    -290.467E-03     580.821E-03    -289.987E-03     43.0987E-03
             349     673.112E-06     104.248E-03    -131.419E+06    -250.882E+06    -130.814E+06    -142.682E+03    -290.433E-03     580.908E-03    -290.475E-03     5.56958E-03    -290.538E-03     580.035E-03    -290.575E-03     5.48207E-03
             350     1.34591E-03     104.261E-03    -128.580E+06    -235.825E+06    -122.110E+06     547.455E+03    -290.311E-03     580.745E-03    -290.434E-03     9.85624E-03    -290.438E-03     579.933E-03    -290.516E-03     9.71324E-03
             351     2.01929E-03     104.283E-03    -124.668E+06    -221.230E+06    -107.596E+06     364.592E+03    -290.305E-03     580.735E-03    -290.430E-03     14.6708E-03    -290.460E-03     579.974E-03    -290.466E-03     14.3950E-03
             352     2.69264E-03     104.313E-03    -118.262E+06    -201.749E+06    -90.4360E+06    -98.8950E+03    -290.350E-03     580.799E-03    -290.449E-03     19.6274E-03    -290.534E-03     580.109E-03    -290.437E-03     19.1327E-03
             353     3.36596E-03     104.352E-03    -110.534E+06    -179.631E+06    -71.7384E+06     78.1442E+03    -290.336E-03     580.811E-03    -290.475E-03     24.6126E-03    -290.552E-03     580.205E-03    -290.413E-03     23.8137E-03
             354     4.03920E-03     104.399E-03    -102.579E+06    -155.949E+06    -52.8431E+06     278.625E+03    -290.328E-03     580.821E-03    -290.493E-03     29.6886E-03    -290.582E-03     580.310E-03    -290.382E-03     28.4751E-03
             355     4.71228E-03     104.456E-03    -94.5505E+06    -130.055E+06    -34.5563E+06     402.561E+03    -290.343E-03     580.844E-03    -290.501E-03     34.8910E-03    -290.644E-03     580.448E-03    -290.348E-03     33.1273E-03
             356     5.38595E-03     104.520E-03    -85.5290E+06    -102.364E+06    -16.7436E+06     378.656E+03    -290.393E-03     580.896E-03    -290.503E-03     40.1158E-03    -290.747E-03     580.632E-03    -290.314E-03     37.6592E-03
             357     6.05911E-03     104.593E-03    -76.1299E+06    -74.2761E+06    -46.5003E+03     667.579E+03    -290.484E-03     580.985E-03    -290.502E-03     45.3813E-03    -290.899E-03     580.867E-03    -290.284E-03     42.0743E-03
             358     6.73241E-03     104.673E-03    -68.2369E+06    -39.9042E+06     15.5392E+06     907.482E+03    -290.465E-03     580.952E-03    -290.488E-03     50.6798E-03    -290.969E-03     581.027E-03    -290.253E-03     46.3560E-03
             359     7.40624E-03     104.762E-03    -60.2162E+06    -1.12323E+06     30.4740E+06     776.813E+03    -290.437E-03     580.896E-03    -290.459E-03     55.9118E-03    -291.049E-03     581.201E-03    -290.217E-03     50.4309E-03
             360     8.07991E-03     104.857E-03    -52.2634E+06     20.9547E+06     40.8619E+06     433.292E+03    -290.542E-03     580.975E-03    -290.433E-03     60.8909E-03    -291.247E-03     581.450E-03    -290.183E-03     54.1067E-03
             361     8.75333E-03     104.959E-03    -44.7246E+06     36.7592E+06     50.1438E+06     516.884E+03    -290.513E-03     580.926E-03    -290.413E-03     65.4297E-03    -291.319E-03     581.558E-03    -290.151E-03     57.1902E-03
             362     9.42697E-03     105.064E-03    -37.3146E+06     52.5384E+06     62.0094E+06     844.801E+03    -290.364E-03     580.766E-03    -290.402E-03     69.5508E-03    -291.291E-03     581.568E-03    -290.114E-03     59.7607E-03
             363     10.1015E-03     105.176E-03    -30.2785E+06     60.2793E+06     74.9584E+06     182.248E+03    -290.314E-03     580.721E-03    -290.407E-03     72.5067E-03    -291.361E-03     581.657E-03    -290.076E-03     61.1208E-03
             364     10.7752E-03     105.285E-03    -23.0003E+06     67.9642E+06     86.7585E+06    -41.1195E+03    -290.303E-03     580.717E-03    -290.414E-03     73.6440E-03    -291.460E-03     581.782E-03    -290.046E-03     60.6950E-03
             365     11.4472E-03     105.395E-03    -16.3326E+06     74.5852E+06     94.0091E+06    -77.0634E+03    -289.926E-03     580.330E-03    -290.404E-03     71.6710E-03    -291.131E-03     581.469E-03    -290.018E-03     57.6280E-03
             366     12.1235E-03     105.492E-03    -10.1410E+06     81.2175E+06     97.0035E+06     9.90912E+03    -289.539E-03     579.907E-03    -290.369E-03     70.6961E-03    -290.866E-03     581.206E-03    -289.987E-03     54.8231E-03
             367     12.7955E-03     105.595E-03    -4.81044E+06     85.3229E+06     96.2188E+06     49.2499E+03    -289.722E-03     580.055E-03    -290.333E-03     56.7688E-03    -290.823E-03     581.163E-03    -289.968E-03     42.1059E-03
             368     673.060E-06     105.941E-03    -131.301E+06    -251.083E+06    -129.642E+06     416.771E+03    -290.312E-03     580.763E-03    -290.451E-03     5.39555E-03    -290.417E-03     579.887E-03    -290.544E-03     5.31677E-03
             369     1.34640E-03     105.955E-03    -129.597E+06    -236.801E+06    -122.615E+06    -118.861E+03    -290.347E-03     580.729E-03    -290.382E-03     9.95203E-03    -290.477E-03     579.914E-03    -290.464E-03     9.80095E-03
             370     2.01951E-03     105.976E-03    -124.432E+06    -221.198E+06    -107.934E+06    -20.5838E+03    -290.340E-03     580.747E-03    -290.407E-03     14.7172E-03    -290.493E-03     579.986E-03    -290.445E-03     14.4309E-03
             371     2.69260E-03     106.007E-03    -118.328E+06    -201.881E+06    -90.5741E+06     231.771E+03    -290.334E-03     580.770E-03    -290.436E-03     19.5336E-03    -290.517E-03     580.079E-03    -290.425E-03     19.0482E-03
             372     3.36569E-03     106.045E-03    -111.066E+06    -180.428E+06    -71.9586E+06     283.726E+03    -290.360E-03     580.826E-03    -290.466E-03     24.5005E-03    -290.577E-03     580.217E-03    -290.404E-03     23.7050E-03
             373     4.03897E-03     106.093E-03    -103.010E+06    -156.271E+06    -52.9747E+06     281.602E+03    -290.364E-03     580.855E-03    -290.491E-03     29.6773E-03    -290.620E-03     580.344E-03    -290.380E-03     28.4589E-03
             374     4.71247E-03     106.149E-03    -94.2527E+06    -130.205E+06     -34.454E+06     133.729E+03    -290.364E-03     580.868E-03    -290.504E-03     34.9093E-03    -290.664E-03     580.471E-03    -290.351E-03     33.1515E-03
             375     5.38568E-03     106.214E-03    -85.6858E+06    -103.334E+06    -17.1775E+06     408.540E+03    -290.412E-03     580.919E-03    -290.507E-03     40.1674E-03    -290.765E-03     580.651E-03    -290.319E-03     37.7226E-03
             376     6.05925E-03     106.287E-03    -77.8090E+06    -75.1366E+06    -1.09890E+06     603.953E+03    -290.423E-03     580.925E-03    -290.502E-03     45.5092E-03    -290.844E-03     580.806E-03    -290.285E-03     42.2081E-03
             377     6.73275E-03     106.367E-03    -68.9580E+06    -40.2172E+06     14.9780E+06     443.787E+03    -290.442E-03     580.925E-03    -290.483E-03     50.8702E-03    -290.949E-03     581.001E-03    -290.250E-03     46.5470E-03
             378     7.40625E-03     106.455E-03    -60.1895E+06    -1.70255E+06     30.2734E+06     477.654E+03    -290.484E-03     580.940E-03    -290.456E-03     55.9552E-03    -291.094E-03     581.243E-03    -290.215E-03     50.4780E-03
             379     8.07964E-03     106.551E-03    -52.0598E+06     20.9363E+06     41.2238E+06     775.010E+03    -290.434E-03     580.864E-03    -290.430E-03     60.8073E-03    -291.138E-03     581.338E-03    -290.179E-03     54.0214E-03
             380     8.75348E-03     106.651E-03    -44.7381E+06     36.6018E+06     50.9768E+06     569.509E+03    -290.406E-03     580.812E-03    -290.406E-03     65.2912E-03    -291.212E-03     581.442E-03    -290.139E-03     57.0432E-03
             381     9.42739E-03     106.758E-03    -37.4850E+06     52.1929E+06     62.4934E+06     146.638E+03    -290.435E-03     580.829E-03    -290.394E-03     69.1022E-03    -291.362E-03     581.627E-03    -290.103E-03     59.2860E-03
             382     10.1005E-03     106.867E-03    -30.1823E+06     61.2507E+06     75.6231E+06     361.120E+03    -290.276E-03     580.678E-03    -290.402E-03     71.8907E-03    -291.323E-03     581.616E-03    -290.069E-03     60.4829E-03
             383     10.7741E-03     106.980E-03    -23.7000E+06     68.8746E+06     87.3584E+06    -35.4614E+03    -290.081E-03     580.485E-03    -290.404E-03     73.3813E-03    -291.243E-03     581.554E-03    -290.033E-03     60.4273E-03
             384     11.4495E-03     107.087E-03    -16.8563E+06     74.5205E+06     94.4226E+06    -218.382E+03    -290.169E-03     580.565E-03    -290.396E-03     71.1899E-03    -291.369E-03     581.696E-03    -290.008E-03     57.1929E-03
             385     12.1207E-03     107.188E-03    -10.6299E+06     80.6335E+06     97.0372E+06     144.717E+03    -290.077E-03     580.459E-03    -290.383E-03     70.3461E-03    -291.400E-03     581.750E-03    -289.999E-03     54.4967E-03
             386     12.7955E-03     107.288E-03    -5.52705E+06     84.5726E+06     95.6896E+06     179.221E+03    -289.561E-03     579.915E-03    -290.354E-03     56.9587E-03    -290.662E-03     581.020E-03    -289.990E-03     42.3700E-03
             387     673.194E-06     107.635E-03    -131.933E+06    -252.236E+06    -130.942E+06     27.5946E+03    -290.233E-03     580.630E-03    -290.397E-03     5.55964E-03    -290.338E-03     579.751E-03    -290.495E-03     5.47816E-03
             388     1.34629E-03     107.648E-03    -128.844E+06    -236.090E+06    -121.378E+06     247.274E+03    -290.416E-03     580.764E-03    -290.348E-03     9.80825E-03    -290.545E-03     579.950E-03    -290.426E-03     9.67528E-03
             389     2.01932E-03     107.670E-03    -124.749E+06    -221.791E+06    -107.850E+06     62.0094E+03    -290.379E-03     580.784E-03    -290.405E-03     14.6068E-03    -290.533E-03     580.021E-03    -290.442E-03     14.3232E-03
             390     2.69256E-03     107.700E-03    -118.412E+06    -202.623E+06    -90.5588E+06     133.182E+03    -290.317E-03     580.756E-03    -290.439E-03     19.5677E-03    -290.500E-03     580.062E-03    -290.427E-03     19.0791E-03
             391     3.36596E-03     107.739E-03    -110.841E+06    -180.336E+06    -71.6467E+06    -40.5623E+03    -290.322E-03     580.785E-03    -290.463E-03     24.6281E-03    -290.538E-03     580.175E-03    -290.399E-03     23.8343E-03
             392     4.03916E-03     107.787E-03    -102.568E+06    -156.784E+06    -52.9596E+06     41.7831E+03    -290.366E-03     580.849E-03    -290.483E-03     29.7408E-03    -290.618E-03     580.335E-03    -290.372E-03     28.5240E-03
             393     4.71238E-03     107.843E-03    -94.3234E+06    -130.991E+06    -34.7343E+06     609.322E+03    -290.387E-03     580.885E-03    -290.498E-03     34.9551E-03    -290.686E-03     580.485E-03    -290.345E-03     33.2084E-03
             394     5.38581E-03     107.907E-03    -86.2486E+06    -103.971E+06    -17.3516E+06     587.713E+03    -290.373E-03     580.875E-03    -290.502E-03     40.2840E-03    -290.728E-03     580.604E-03    -290.313E-03     37.8410E-03
             395     6.05914E-03     107.980E-03    -77.5140E+06    -74.9871E+06    -814.173E+03     174.594E+03    -290.391E-03     580.884E-03    -290.493E-03     45.5431E-03    -290.811E-03     580.765E-03    -290.276E-03     42.2269E-03
             396     6.73286E-03     108.060E-03    -68.5833E+06    -40.5316E+06     15.1093E+06     167.631E+03    -290.461E-03     580.935E-03    -290.474E-03     50.8471E-03    -290.965E-03     581.008E-03    -290.240E-03     46.5290E-03
             397     7.40611E-03     108.150E-03    -60.3163E+06    -2.42700E+06     30.3150E+06     439.148E+03    -290.435E-03     580.883E-03    -290.447E-03     56.0792E-03    -291.046E-03     581.183E-03    -290.205E-03     50.5895E-03
             398     8.07991E-03     108.244E-03    -52.6073E+06     20.3495E+06     41.0330E+06     368.051E+03    -290.412E-03     580.830E-03    -290.418E-03     60.9500E-03    -291.120E-03     581.304E-03    -290.166E-03     54.1284E-03
             399     8.75361E-03     108.346E-03    -44.6788E+06     36.2265E+06     50.8211E+06      651.75E+03    -290.477E-03     580.872E-03    -290.395E-03     65.4392E-03    -291.284E-03     581.502E-03    -290.129E-03     57.1784E-03
             400     9.42689E-03     108.451E-03    -37.5009E+06     52.9181E+06     62.9979E+06     734.685E+03    -290.469E-03     580.858E-03    -290.389E-03     69.4336E-03    -291.401E-03     581.662E-03    -290.096E-03     59.6166E-03
             401     10.1008E-03     108.562E-03    -30.5924E+06     61.7133E+06     75.9361E+06    -132.877E+03    -290.416E-03     580.818E-03    -290.402E-03     72.3091E-03    -291.471E-03     581.763E-03    -290.067E-03     60.8641E-03
             402     10.7753E-03     108.671E-03    -23.1162E+06     68.7960E+06     87.6878E+06     164.702E+03    -290.310E-03     580.725E-03    -290.415E-03     73.1792E-03    -291.465E-03     581.788E-03    -290.043E-03     60.2495E-03
             403     11.4475E-03     108.783E-03    -16.7018E+06     74.0952E+06     94.4972E+06     476.883E+03    -290.140E-03     580.552E-03    -290.412E-03     71.1639E-03    -291.335E-03     581.677E-03    -290.023E-03     57.2217E-03
             404     12.1225E-03     108.882E-03    -11.0346E+06     80.0586E+06     96.7447E+06     284.933E+03    -289.872E-03     580.262E-03    -290.390E-03     70.7469E-03    -291.201E-03     581.556E-03    -290.007E-03     54.8882E-03
             405     12.7951E-03     108.981E-03    -5.40004E+06     84.6968E+06     95.6723E+06     295.368E+03    -289.466E-03     579.818E-03    -290.352E-03     57.5128E-03    -290.575E-03     580.931E-03    -289.989E-03     42.8572E-03
             406     673.329E-06     109.328E-03    -132.136E+06    -251.060E+06    -129.720E+06    -490.952E+03    -290.275E-03     580.765E-03    -290.490E-03     5.40129E-03    -290.385E-03     579.891E-03    -290.583E-03     5.34573E-03
             407     1.34620E-03     109.342E-03    -129.143E+06    -237.112E+06    -122.159E+06    -438.988E+03    -290.345E-03     580.730E-03    -290.386E-03     9.83561E-03    -290.473E-03     579.913E-03    -290.466E-03     9.68070E-03
             408     2.01946E-03     109.363E-03    -124.241E+06    -222.237E+06    -107.787E+06     122.641E+03    -290.341E-03     580.750E-03    -290.409E-03     14.6730E-03    -290.492E-03     579.984E-03    -290.446E-03     14.3940E-03
             409     2.69263E-03     109.394E-03    -118.035E+06    -202.788E+06    -90.4950E+06    -9.30680E+03    -290.327E-03     580.764E-03    -290.437E-03     19.5396E-03    -290.508E-03     580.068E-03    -290.424E-03     19.0464E-03
             410     3.36576E-03     109.432E-03    -110.811E+06    -181.036E+06    -71.8846E+06     395.446E+03    -290.287E-03     580.745E-03    -290.459E-03     24.5410E-03    -290.501E-03     580.132E-03    -290.395E-03     23.7567E-03
             411     4.03917E-03     109.480E-03    -103.373E+06    -157.376E+06    -52.8807E+06     660.843E+03    -290.311E-03     580.786E-03    -290.475E-03     29.7363E-03    -290.567E-03     580.270E-03    -290.361E-03     28.5402E-03
             412     4.71247E-03     109.536E-03    -94.7754E+06    -131.251E+06    -34.4701E+06     166.292E+03    -290.357E-03     580.843E-03    -290.485E-03     35.0175E-03    -290.659E-03     580.441E-03    -290.330E-03     33.2552E-03
             413     5.38588E-03     109.601E-03    -85.6650E+06    -104.082E+06    -17.0829E+06     13.9300E+03    -290.365E-03     580.852E-03    -290.487E-03     40.2554E-03    -290.717E-03     580.580E-03    -290.297E-03     37.7954E-03
             414     6.05953E-03     109.673E-03    -77.1619E+06    -75.2977E+06    -645.396E+03     343.574E+03    -290.427E-03     580.908E-03    -290.481E-03     45.6126E-03    -290.846E-03     580.787E-03    -290.263E-03     42.3004E-03
             415     6.73255E-03     109.754E-03    -69.4536E+06    -40.8349E+06     14.9523E+06     499.348E+03    -290.407E-03     580.869E-03    -290.463E-03     50.9667E-03    -290.915E-03     580.943E-03    -290.228E-03     46.6382E-03
             416     7.40661E-03     109.842E-03    -61.3003E+06    -2.79353E+06     29.8103E+06     325.801E+03    -290.330E-03     580.758E-03    -290.429E-03     56.0717E-03    -290.944E-03     581.059E-03    -290.187E-03     50.5730E-03
             417     8.08016E-03     109.938E-03    -52.5453E+06     20.3211E+06     40.8659E+06     255.193E+03    -290.457E-03     580.855E-03    -290.398E-03     60.9362E-03    -291.164E-03     581.328E-03    -290.147E-03     54.1217E-03
             418     8.75356E-03     110.038E-03    -45.4751E+06     35.3577E+06     49.8659E+06     115.877E+03    -290.507E-03     580.885E-03    -290.378E-03     65.4592E-03    -291.315E-03     581.513E-03    -290.114E-03     57.1852E-03
             419     9.42766E-03     110.146E-03    -37.6882E+06     53.3928E+06     61.8640E+06    -83.5212E+03    -290.498E-03     580.870E-03    -290.371E-03     69.2921E-03    -291.429E-03     581.676E-03    -290.085E-03     59.4656E-03
             420     10.1015E-03     110.254E-03    -29.7876E+06     61.9902E+06     75.6991E+06     283.884E+03    -290.608E-03     581.004E-03    -290.396E-03     71.9765E-03    -291.655E-03     581.945E-03    -290.064E-03     60.5625E-03
             421     10.7735E-03     110.368E-03    -23.6620E+06     66.8697E+06     86.8208E+06     482.450E+03    -290.424E-03     580.845E-03    -290.421E-03     73.3407E-03    -291.582E-03     581.904E-03    -290.050E-03     60.3880E-03
             422     11.4483E-03     110.474E-03    -17.0183E+06     73.6647E+06     93.8363E+06     873.782E+03    -289.913E-03     580.326E-03    -290.413E-03     71.7510E-03    -291.116E-03     581.457E-03    -290.026E-03     57.7917E-03
             423     12.1214E-03     110.576E-03    -10.4626E+06     80.5790E+06     96.9135E+06     678.263E+03    -289.580E-03     579.956E-03    -290.377E-03     70.9487E-03    -290.905E-03     581.250E-03    -289.994E-03     55.1462E-03
             424     12.7960E-03     110.674E-03    -5.03010E+06     85.1280E+06     96.1235E+06     93.6063E+03    -289.613E-03     579.949E-03    -290.336E-03     57.3816E-03    -290.717E-03     581.059E-03    -289.972E-03     42.7654E-03
             425     672.572E-06     111.021E-03    -131.815E+06    -249.552E+06    -130.818E+06    -359.699E+03    -290.315E-03     580.937E-03    -290.622E-03     5.30993E-03    -290.424E-03     580.072E-03    -290.724E-03     5.20285E-03
             426     1.34630E-03     111.034E-03    -129.716E+06    -237.824E+06    -121.515E+06    -18.5054E+03    -290.223E-03     580.662E-03    -290.439E-03     9.84320E-03    -290.354E-03     579.841E-03    -290.514E-03     9.69010E-03
             427     2.01941E-03     111.057E-03    -124.744E+06    -222.894E+06    -107.715E+06    -106.084E+03    -290.257E-03     580.661E-03    -290.405E-03     14.6773E-03    -290.409E-03     579.892E-03    -290.439E-03     14.4021E-03
             428     2.69256E-03     111.087E-03    -118.507E+06    -203.544E+06    -90.6196E+06     353.088E+03    -290.263E-03     580.677E-03    -290.414E-03     19.7035E-03    -290.445E-03     579.978E-03    -290.400E-03     19.2116E-03
             429     3.36588E-03     111.126E-03    -111.443E+06    -181.772E+06    -71.6769E+06     360.201E+03    -290.300E-03     580.736E-03    -290.436E-03     24.8209E-03    -290.517E-03     580.120E-03    -290.369E-03     24.0258E-03
             430     4.03917E-03     111.173E-03    -102.708E+06    -157.544E+06    -52.6131E+06     129.160E+03    -290.333E-03     580.790E-03    -290.456E-03     29.8995E-03    -290.586E-03     580.271E-03    -290.342E-03     28.6906E-03
             431     4.71266E-03     111.230E-03    -94.2103E+06    -131.595E+06    -34.5007E+06     466.575E+03    -290.354E-03     580.823E-03    -290.469E-03     34.9741E-03    -290.652E-03     580.419E-03    -290.314E-03     33.2145E-03
             432     5.38598E-03     111.294E-03    -85.9608E+06    -104.492E+06    -17.1215E+06     767.073E+03    -290.404E-03     580.880E-03    -290.476E-03     40.2048E-03    -290.757E-03     580.607E-03    -290.285E-03     37.7456E-03
             433     6.05918E-03     111.367E-03    -77.8556E+06    -75.7210E+06    -691.523E+03     655.833E+03    -290.390E-03     580.863E-03    -290.473E-03     45.5390E-03    -290.811E-03     580.741E-03    -290.254E-03     42.2320E-03
             434     6.73327E-03     111.447E-03    -68.9904E+06    -41.1863E+06     15.2880E+06     527.889E+03    -290.386E-03     580.839E-03    -290.453E-03     50.7778E-03    -290.892E-03     580.910E-03    -290.217E-03     46.4473E-03
             435     7.40636E-03     111.536E-03    -60.1746E+06    -2.49966E+06     30.3509E+06     497.338E+03    -290.420E-03     580.843E-03    -290.423E-03     55.8297E-03    -291.030E-03     581.142E-03    -290.180E-03     50.3283E-03
             436     8.08014E-03     111.631E-03    -52.9529E+06     19.9736E+06     40.7226E+06     460.730E+03    -290.426E-03     580.822E-03    -290.396E-03     60.7007E-03    -291.133E-03     581.293E-03    -290.144E-03     53.9035E-03
             437     8.75391E-03     111.733E-03    -45.1969E+06     36.4787E+06     50.3980E+06     78.8339E+03    -290.529E-03     580.906E-03    -290.377E-03     65.1540E-03    -291.336E-03     581.536E-03    -290.112E-03     56.9077E-03
             438     9.42720E-03     111.838E-03    -38.3297E+06     53.6232E+06     61.9920E+06    -316.678E+03    -290.595E-03     580.971E-03    -290.376E-03     69.2054E-03    -291.527E-03     581.777E-03    -290.088E-03     59.3968E-03
             439     10.1000E-03     111.951E-03    -31.9403E+06     59.7701E+06     73.9985E+06    -134.068E+03    -290.377E-03     580.769E-03    -290.393E-03     72.3861E-03    -291.432E-03     581.709E-03    -290.063E-03     60.9597E-03
             440     10.7754E-03     112.059E-03    -24.3729E+06     66.0196E+06     85.6834E+06     517.001E+03    -290.188E-03     580.589E-03    -290.401E-03     73.7398E-03    -291.351E-03     581.651E-03    -290.033E-03     60.7723E-03
             441     11.4483E-03     112.170E-03    -17.4483E+06     73.8084E+06     93.5820E+06     552.150E+03    -290.088E-03     580.482E-03    -290.394E-03     71.5961E-03    -291.293E-03     581.615E-03    -290.008E-03     57.6005E-03
             442     12.1226E-03     112.268E-03    -10.9709E+06     80.9916E+06     96.7542E+06     165.040E+03    -289.863E-03     580.235E-03    -290.372E-03     70.6346E-03    -291.192E-03     581.533E-03    -289.990E-03     54.7651E-03
             443     12.7958E-03     112.369E-03    -4.75817E+06     85.4267E+06     96.0496E+06     230.871E+03    -289.488E-03     579.825E-03    -290.337E-03     57.1726E-03    -290.593E-03     580.938E-03    -289.974E-03     42.5041E-03
             444     673.384E-06     112.714E-03    -133.747E+06    -249.471E+06    -130.333E+06    -225.780E+03    -290.482E-03     580.644E-03    -290.162E-03     5.78982E-03    -290.601E-03     579.781E-03    -290.258E-03     5.67305E-03
             445     1.34603E-03     112.728E-03    -129.634E+06    -238.700E+06    -121.277E+06     86.5517E+03    -290.377E-03     580.733E-03    -290.355E-03     10.0581E-03    -290.507E-03     579.907E-03    -290.428E-03     9.89494E-03
             446     2.01944E-03     112.750E-03    -125.007E+06    -223.293E+06    -107.478E+06     417.499E+03    -290.202E-03     580.579E-03    -290.376E-03     14.7815E-03    -290.356E-03     579.808E-03    -290.409E-03     14.4949E-03
             447     2.69291E-03     112.781E-03    -118.603E+06    -204.368E+06    -90.2149E+06     199.149E+03    -290.246E-03     580.630E-03    -290.384E-03     19.6556E-03    -290.427E-03     579.927E-03    -290.367E-03     19.1734E-03
             448     3.36627E-03     112.819E-03    -110.563E+06    -181.724E+06    -71.3430E+06     283.988E+03    -290.345E-03     580.757E-03    -290.412E-03     24.5887E-03    -290.558E-03     580.140E-03    -290.345E-03     23.8104E-03
             449     4.03940E-03     112.868E-03    -102.760E+06    -158.028E+06    -52.7232E+06     508.370E+03    -290.346E-03     580.789E-03    -290.442E-03     29.7024E-03    -290.599E-03     580.268E-03    -290.328E-03     28.4916E-03
             450     4.71253E-03     112.923E-03    -94.6145E+06    -132.555E+06    -34.5334E+06     563.017E+03    -290.348E-03     580.807E-03    -290.460E-03     35.0000E-03    -290.646E-03     580.399E-03    -290.303E-03     33.2347E-03
             451     5.38598E-03     112.988E-03    -85.7595E+06    -104.866E+06    -16.9805E+06     484.157E+03    -290.408E-03     580.874E-03    -290.467E-03     40.2789E-03    -290.760E-03     580.599E-03    -290.275E-03     37.8198E-03
             452     6.05960E-03     113.060E-03    -76.5677E+06    -76.4551E+06    -128.805E+03     756.393E+03    -290.455E-03     580.924E-03    -290.469E-03     45.4884E-03    -290.870E-03     580.796E-03    -290.248E-03     42.1727E-03
             453     6.73257E-03     113.141E-03    -68.4830E+06    -41.3908E+06     15.7256E+06     928.001E+03    -290.418E-03     580.872E-03    -290.454E-03     50.7561E-03    -290.921E-03     580.940E-03    -290.216E-03     46.4320E-03
             454     7.40655E-03     113.229E-03    -60.8555E+06    -2.50403E+06     30.2556E+06     785.462E+03    -290.399E-03     580.822E-03    -290.423E-03     55.9885E-03    -291.012E-03     581.123E-03    -290.180E-03     50.5024E-03
             455     8.07984E-03     113.325E-03    -52.6092E+06     20.0036E+06     40.9660E+06     699.215E+03    -290.503E-03     580.901E-03    -290.398E-03     60.8709E-03    -291.208E-03     581.371E-03    -290.146E-03     54.0785E-03
             456     8.75356E-03     113.425E-03    -44.9691E+06     37.5008E+06     50.7175E+06     423.570E+03    -290.529E-03     580.909E-03    -290.380E-03     65.4411E-03    -291.338E-03     581.544E-03    -290.116E-03     57.2011E-03
             457     9.42706E-03     113.534E-03    -37.9924E+06     52.6242E+06     62.0090E+06     615.022E+03    -290.347E-03     580.718E-03    -290.370E-03     69.4647E-03    -291.278E-03     581.521E-03    -290.082E-03     59.6759E-03
             458     10.1020E-03     113.641E-03    -31.1340E+06     59.4163E+06     74.9166E+06     807.276E+03    -290.270E-03     580.648E-03    -290.378E-03     72.3867E-03    -291.321E-03     581.582E-03    -290.044E-03     60.9940E-03
             459     10.7744E-03     113.755E-03    -24.5219E+06     66.7554E+06     86.2640E+06    -129.404E+03    -290.290E-03     580.675E-03    -290.385E-03     73.4904E-03    -291.452E-03     581.736E-03    -290.015E-03     60.5380E-03
             460     11.4486E-03     113.862E-03    -17.4440E+06     73.4352E+06     93.4490E+06    -388.196E+03    -290.132E-03     580.514E-03    -290.382E-03     71.5456E-03    -291.335E-03     581.644E-03    -289.995E-03     57.5437E-03
             461     12.1213E-03     113.964E-03    -10.7940E+06     80.8043E+06     96.6267E+06    -49.0324E+03    -289.806E-03     580.165E-03    -290.359E-03     71.3378E-03    -291.140E-03     581.468E-03    -289.978E-03     55.4733E-03
             462     12.7948E-03     114.062E-03    -4.85816E+06     85.0322E+06     95.9845E+06    -65.8467E+03    -289.504E-03     579.827E-03    -290.323E-03     58.0018E-03    -290.614E-03     580.944E-03    -289.959E-03     43.3693E-03
             463     673.526E-06     114.409E-03    -131.989E+06    -249.787E+06    -130.639E+06     389.168E+03    -290.320E-03     580.412E-03    -290.092E-03     5.34444E-03    -290.429E-03     579.545E-03    -290.192E-03     5.31105E-03
             464     1.34663E-03     114.421E-03    -129.582E+06    -239.465E+06    -121.300E+06     152.388E+03    -290.328E-03     580.581E-03    -290.252E-03     9.79733E-03    -290.457E-03     579.751E-03    -290.324E-03     9.65362E-03
             465     2.01962E-03     114.443E-03    -124.639E+06    -224.163E+06    -107.548E+06     186.160E+03    -290.397E-03     580.724E-03    -290.327E-03     14.7204E-03    -290.548E-03     579.949E-03    -290.359E-03     14.4342E-03
             466     2.69274E-03     114.473E-03    -118.269E+06    -204.444E+06    -90.0420E+06     467.212E+03    -290.398E-03     580.792E-03    -290.394E-03     19.5353E-03    -290.579E-03     580.088E-03    -290.376E-03     19.0567E-03
             467     3.36566E-03     114.514E-03    -111.234E+06    -182.862E+06    -71.6307E+06     611.115E+03    -290.303E-03     580.737E-03    -290.434E-03     24.4992E-03    -290.518E-03     580.116E-03    -290.366E-03     23.7093E-03
             468     4.03916E-03     114.560E-03    -102.995E+06    -158.444E+06    -52.6746E+06     612.788E+03    -290.273E-03     580.725E-03    -290.452E-03     29.6646E-03    -290.526E-03     580.203E-03    -290.336E-03     28.4515E-03
             469     4.71279E-03     114.617E-03    -94.2905E+06    -132.478E+06    -34.3121E+06     384.617E+03    -290.312E-03     580.772E-03    -290.460E-03     34.8881E-03    -290.609E-03     580.363E-03    -290.302E-03     33.1315E-03
             470     5.38613E-03     114.681E-03    -85.9804E+06    -105.839E+06    -17.2520E+06     624.350E+03    -290.332E-03     580.791E-03    -290.460E-03     40.2204E-03    -290.682E-03     580.511E-03    -290.268E-03     37.7789E-03
             471     6.05930E-03     114.754E-03    -77.9540E+06    -77.2061E+06    -918.364E+03     621.516E+03    -290.379E-03     580.832E-03    -290.453E-03     45.6577E-03    -290.798E-03     580.703E-03    -290.233E-03     42.3524E-03
             472     6.73315E-03     114.834E-03    -69.2402E+06    -42.0701E+06     15.1613E+06     597.833E+03    -290.421E-03     580.856E-03    -290.435E-03     51.0343E-03    -290.927E-03     580.923E-03    -290.198E-03     46.7132E-03
             473     7.40646E-03     114.923E-03    -60.4781E+06    -3.05812E+06     30.4923E+06     847.362E+03    -290.413E-03     580.820E-03    -290.408E-03     56.1603E-03    -291.023E-03     581.117E-03    -290.163E-03     50.6939E-03
             474     8.08051E-03     115.018E-03    -52.2826E+06     20.1308E+06     41.5522E+06     784.503E+03    -290.477E-03     580.860E-03    -290.383E-03     61.1079E-03    -291.182E-03     581.330E-03    -290.129E-03     54.3303E-03
             475     8.75358E-03     115.120E-03    -44.8913E+06     37.2405E+06     50.8046E+06     985.926E+03    -290.417E-03     580.776E-03    -290.359E-03     65.6643E-03    -291.228E-03     581.412E-03    -290.094E-03     57.4185E-03
             476     9.42793E-03     115.224E-03    -37.6977E+06     52.5964E+06     62.1974E+06     685.334E+03    -290.365E-03     580.712E-03    -290.347E-03     69.4837E-03    -291.297E-03     581.516E-03    -290.058E-03     59.6587E-03
             477     10.1006E-03     115.336E-03    -29.9015E+06     59.5751E+06     75.4249E+06     269.896E+03    -290.401E-03     580.761E-03    -290.360E-03     72.4038E-03    -291.446E-03     581.693E-03    -290.026E-03     61.0062E-03
             478     10.7752E-03     115.447E-03    -22.3937E+06     67.5312E+06     87.6670E+06     568.028E+03    -290.248E-03     580.621E-03    -290.373E-03     73.7954E-03    -291.402E-03     581.682E-03    -290.000E-03     60.8888E-03
             479     11.4484E-03     115.557E-03    -16.1208E+06     74.4002E+06     94.8750E+06     184.475E+03    -290.045E-03     580.411E-03    -290.366E-03     71.8948E-03    -291.246E-03     581.544E-03    -289.976E-03     57.9247E-03
             480     12.1232E-03     115.656E-03    -10.2217E+06     81.0540E+06     97.5503E+06    -276.235E+03    -289.900E-03     580.245E-03    -290.345E-03     70.8172E-03    -291.230E-03     581.543E-03    -289.960E-03     54.9275E-03
             481     12.7980E-03     115.756E-03    -5.24730E+06     84.5426E+06     95.8736E+06     123.099E+03    -289.860E-03     580.180E-03    -290.320E-03     56.8904E-03    -290.963E-03     581.286E-03    -289.956E-03     42.2431E-03
             482     672.619E-06     116.100E-03    -133.258E+06    -250.743E+06    -130.611E+06    -72.3427E+03    -290.170E-03     580.635E-03    -290.466E-03     5.21475E-03    -290.284E-03     579.766E-03    -290.562E-03     5.16015E-03
             483     1.34645E-03     116.115E-03    -129.696E+06    -240.318E+06    -121.865E+06     490.439E+03    -290.220E-03     580.539E-03    -290.319E-03     9.72834E-03    -290.347E-03     579.706E-03    -290.392E-03     9.59642E-03
             484     2.01968E-03     116.136E-03    -124.809E+06    -224.400E+06    -107.381E+06     477.528E+03    -290.412E-03     580.763E-03    -290.351E-03     14.5476E-03    -290.563E-03     579.986E-03    -290.382E-03     14.2859E-03
             485     2.69247E-03     116.168E-03    -118.477E+06    -205.615E+06    -90.2990E+06     471.379E+03    -290.329E-03     580.735E-03    -290.406E-03     19.6635E-03    -290.508E-03     580.025E-03    -290.387E-03     19.1875E-03
             486     3.36611E-03     116.205E-03    -110.997E+06    -183.274E+06    -71.5504E+06     422.603E+03    -290.274E-03     580.707E-03    -290.433E-03     24.7427E-03    -290.487E-03     580.083E-03    -290.364E-03     23.9465E-03
             487     4.03934E-03     116.254E-03    -102.738E+06    -158.912E+06    -52.9972E+06     305.673E+03    -290.298E-03     580.745E-03    -290.447E-03     29.8347E-03    -290.549E-03     580.220E-03    -290.332E-03     28.6296E-03
             488     4.71241E-03     116.309E-03    -94.5417E+06    -133.453E+06    -34.6979E+06     726.592E+03    -290.278E-03     580.733E-03    -290.455E-03     35.0113E-03    -290.574E-03     580.320E-03    -290.298E-03     33.2581E-03
             489     5.38594E-03     116.375E-03    -86.2113E+06    -106.389E+06    -17.0102E+06     705.452E+03    -290.240E-03     580.690E-03    -290.450E-03     40.3254E-03    -290.592E-03     580.408E-03    -290.256E-03     37.8791E-03
             490     6.05990E-03     116.447E-03    -76.9877E+06    -77.1439E+06    -349.458E+03     593.396E+03    -290.263E-03     580.695E-03    -290.432E-03     45.6533E-03    -290.678E-03     580.563E-03    -290.210E-03     42.3685E-03
             491     6.73322E-03     116.528E-03    -68.4513E+06    -42.6601E+06     15.3512E+06     624.573E+03    -290.374E-03     580.781E-03    -290.407E-03     50.9867E-03    -290.875E-03     580.843E-03    -290.169E-03     46.6796E-03
             492     7.40691E-03     116.616E-03    -60.1700E+06    -3.72234E+06     30.7973E+06     654.993E+03    -290.466E-03     580.849E-03    -290.383E-03     56.2107E-03    -291.075E-03     581.142E-03    -290.136E-03     50.7308E-03
             493     8.08000E-03     116.712E-03    -52.5490E+06     19.4870E+06     41.6568E+06     954.518E+03    -290.378E-03     580.737E-03    -290.359E-03     61.0302E-03    -291.084E-03     581.205E-03    -290.103E-03     54.2435E-03
             494     8.75455E-03     116.812E-03    -44.8924E+06     36.8661E+06     51.0475E+06     857.081E+03    -290.342E-03     580.672E-03    -290.331E-03     65.4777E-03    -291.150E-03     581.304E-03    -290.064E-03     57.2483E-03
             495     9.42752E-03     116.920E-03    -37.1225E+06     53.8903E+06     62.8463E+06     567.250E+03    -290.468E-03     580.788E-03    -290.320E-03     69.6431E-03    -291.398E-03     581.596E-03    -290.030E-03     59.8460E-03
             496     10.1019E-03     117.029E-03    -30.6215E+06     59.6929E+06     75.2749E+06     235.912E+03    -290.486E-03     580.826E-03    -290.341E-03     72.6019E-03    -291.538E-03     581.763E-03    -290.006E-03     61.1694E-03
             497     10.7752E-03     117.140E-03    -24.0443E+06     66.7998E+06     86.9834E+06     43.1491E+03    -290.399E-03     580.762E-03    -290.363E-03     73.4703E-03    -291.560E-03     581.822E-03    -289.990E-03     60.5073E-03
             498     11.4494E-03     117.250E-03    -17.1778E+06     73.9671E+06     94.4908E+06     287.307E+03    -290.276E-03     580.646E-03    -290.370E-03     71.0508E-03    -291.477E-03     581.775E-03    -289.980E-03     57.0335E-03
             499     12.1219E-03     117.350E-03    -11.2419E+06     80.2164E+06     97.0281E+06     952.148E+03    -290.137E-03     580.500E-03    -290.363E-03     70.4272E-03    -291.465E-03     581.791E-03    -289.978E-03     54.5632E-03
             500     12.7929E-03     117.451E-03    -5.42997E+06     85.0302E+06     96.1317E+06     386.170E+03    -289.595E-03     579.933E-03    -290.338E-03     57.4409E-03    -290.704E-03     581.046E-03    -289.973E-03     42.7556E-03
             501     673.450E-06     117.794E-03    -132.107E+06    -252.088E+06    -130.312E+06     1.10335E+06    -290.565E-03     580.874E-03    -290.310E-03     5.11657E-03    -290.672E-03     579.996E-03    -290.404E-03     5.04735E-03
             502     1.34614E-03     117.807E-03    -129.620E+06    -240.472E+06    -121.325E+06     195.952E+03    -290.364E-03     580.807E-03    -290.443E-03     9.83197E-03    -290.491E-03     579.972E-03    -290.513E-03     9.69722E-03
             503     2.01913E-03     117.831E-03    -124.785E+06    -225.782E+06    -108.092E+06     351.137E+03    -290.139E-03     580.558E-03    -290.419E-03     14.5955E-03    -290.288E-03     579.775E-03    -290.451E-03     14.3159E-03
             504     2.69302E-03     117.859E-03    -118.491E+06    -206.103E+06    -90.6872E+06     522.668E+03    -290.166E-03     580.563E-03    -290.397E-03     19.6268E-03    -290.344E-03     579.851E-03    -290.379E-03     19.1540E-03
             505     3.36596E-03     117.900E-03    -110.786E+06    -183.601E+06    -71.7683E+06     520.809E+03    -290.269E-03     580.675E-03    -290.406E-03     24.6767E-03    -290.480E-03     580.049E-03    -290.338E-03     23.9005E-03
             506     4.03925E-03     117.946E-03    -103.145E+06    -159.811E+06    -53.0223E+06     856.930E+03    -290.232E-03     580.653E-03    -290.422E-03     29.8590E-03    -290.483E-03     580.125E-03    -290.305E-03     28.6533E-03
             507     4.71295E-03     118.004E-03    -94.8517E+06    -133.967E+06    -34.3664E+06     610.649E+03    -290.229E-03     580.655E-03    -290.426E-03     35.1787E-03    -290.527E-03     580.240E-03    -290.266E-03     33.4172E-03
             508     5.38641E-03     118.067E-03    -86.0206E+06    -106.379E+06    -16.7226E+06     490.852E+03    -290.299E-03     580.722E-03    -290.423E-03     40.3703E-03    -290.650E-03     580.439E-03    -290.228E-03     37.9174E-03
             509     6.05955E-03     118.141E-03    -77.7714E+06    -77.6363E+06    -588.507E+03     627.855E+03    -290.334E-03     580.749E-03    -290.415E-03     45.6113E-03    -290.752E-03     580.617E-03    -290.193E-03     42.3133E-03
             510     6.73340E-03     118.220E-03    -69.2458E+06    -43.0878E+06     15.1775E+06     736.509E+03    -290.349E-03     580.745E-03    -290.395E-03     50.9046E-03    -290.853E-03     580.806E-03    -290.157E-03     46.5970E-03
             511     7.40691E-03     118.310E-03    -61.1658E+06    -4.36446E+06     30.2122E+06     846.990E+03    -290.300E-03     580.664E-03    -290.364E-03     56.0684E-03    -290.912E-03     580.955E-03    -290.117E-03     50.5903E-03
             512     8.08098E-03     118.405E-03    -52.9213E+06     18.7101E+06      41.091E+06     862.732E+03    -290.396E-03     580.731E-03    -290.335E-03     60.9330E-03    -291.102E-03     581.196E-03    -290.080E-03     54.1340E-03
             513     8.75391E-03     118.506E-03    -45.4517E+06     37.0875E+06     50.7415E+06     927.965E+03    -290.507E-03     580.823E-03    -290.316E-03     65.3298E-03    -291.319E-03     581.458E-03    -290.050E-03     57.0774E-03
             514     9.42847E-03     118.612E-03    -38.6907E+06     54.2597E+06     62.4007E+06     705.249E+03    -290.476E-03     580.791E-03    -290.315E-03     69.1291E-03    -291.412E-03     581.601E-03    -290.025E-03     59.3244E-03
             515     10.1015E-03     118.723E-03    -31.6118E+06     59.4633E+06     75.0354E+06     733.813E+03    -290.546E-03     580.887E-03    -290.341E-03     72.0637E-03    -291.598E-03     581.820E-03    -290.007E-03     60.6530E-03
             516     10.7750E-03     118.835E-03    -24.8522E+06     67.1602E+06     87.0164E+06     841.313E+03    -290.587E-03     580.959E-03    -290.372E-03     73.4674E-03    -291.752E-03     582.022E-03    -289.998E-03     60.5113E-03
             517     11.4475E-03     118.944E-03    -18.5152E+06     73.6328E+06     94.0349E+06     314.542E+03    -290.387E-03     580.773E-03    -290.387E-03     71.6720E-03    -291.598E-03     581.908E-03    -289.996E-03     57.6600E-03
             518     12.1217E-03     119.045E-03    -11.4843E+06     79.5672E+06     96.7454E+06    -345.180E+03    -289.782E-03     580.152E-03    -290.371E-03     71.1534E-03    -291.117E-03     581.449E-03    -289.986E-03     55.2715E-03
             519     12.7984E-03     119.144E-03    -4.56658E+06     85.5518E+06     96.8147E+06    -276.820E+03    -289.360E-03     579.690E-03    -290.330E-03     57.5294E-03    -290.471E-03     580.808E-03    -289.963E-03     42.8201E-03
             520     672.919E-06     119.488E-03    -132.296E+06    -254.140E+06    -130.802E+06    -539.429E+03    -290.549E-03     580.895E-03    -290.346E-03     5.40883E-03    -290.654E-03     580.007E-03    -290.440E-03     5.26656E-03
             521     1.34580E-03     119.502E-03    -128.884E+06    -241.002E+06    -121.379E+06     608.822E+03    -290.296E-03     580.730E-03    -290.434E-03     9.91505E-03    -290.419E-03     579.892E-03    -290.505E-03     9.73504E-03
             522     2.01962E-03     119.522E-03    -124.537E+06    -226.480E+06    -107.311E+06     498.411E+03    -290.151E-03     580.554E-03    -290.404E-03     14.8356E-03    -290.298E-03     579.766E-03    -290.431E-03     14.5538E-03
             523     2.69251E-03     119.554E-03    -118.200E+06    -206.957E+06    -90.3551E+06     690.027E+03    -290.175E-03     580.561E-03    -290.386E-03     19.7466E-03    -290.351E-03     579.844E-03    -290.366E-03     19.2733E-03
             524     3.36615E-03     119.592E-03    -111.362E+06    -184.476E+06    -71.8672E+06     933.972E+03    -290.132E-03     580.517E-03    -290.385E-03     24.7593E-03    -290.344E-03     579.888E-03    -290.316E-03     23.9712E-03
             525     4.03962E-03     119.641E-03    -103.019E+06    -160.672E+06    -52.5118E+06     819.532E+03    -290.176E-03     580.565E-03    -290.390E-03     29.8706E-03    -290.426E-03     580.032E-03    -290.270E-03     28.6594E-03
             526     4.71294E-03     119.696E-03     -94.451E+06    -134.555E+06    -34.0510E+06     1.23250E+06    -290.261E-03     580.656E-03    -290.395E-03     35.0542E-03    -290.556E-03     580.237E-03    -290.233E-03     33.3070E-03
             527     5.38631E-03     119.761E-03    -86.5349E+06    -106.987E+06    -16.8241E+06     1.50913E+06    -290.336E-03     580.736E-03    -290.400E-03     40.2893E-03    -290.689E-03     580.451E-03    -290.204E-03     37.8497E-03
             528     6.06004E-03     119.833E-03    -78.1446E+06    -77.2262E+06    -338.114E+03     1.11430E+06    -290.415E-03     580.816E-03    -290.402E-03     45.6426E-03    -290.836E-03     580.687E-03    -290.178E-03     42.3352E-03
             529     6.73321E-03     119.915E-03    -70.0857E+06    -43.4875E+06     14.9647E+06     649.693E+03    -290.373E-03     580.761E-03    -290.389E-03     50.9526E-03    -290.881E-03     580.823E-03    -290.149E-03     46.6184E-03
             530     7.40694E-03     120.002E-03    -61.5012E+06    -5.38110E+06     29.7171E+06     888.927E+03    -290.329E-03     580.688E-03    -290.359E-03     55.9388E-03    -290.940E-03     580.976E-03    -290.114E-03     50.4434E-03
             531     8.08060E-03     120.098E-03    -53.3243E+06     18.1241E+06     40.6307E+06     1.27619E+06    -290.456E-03     580.790E-03    -290.335E-03     60.6607E-03    -291.161E-03     581.253E-03    -290.080E-03     53.8687E-03
             532     8.75459E-03     120.200E-03    -45.9931E+06     36.3403E+06     50.4030E+06     1.47544E+06    -290.591E-03     580.914E-03    -290.323E-03     65.1329E-03    -291.402E-03     581.545E-03    -290.057E-03     56.8893E-03
             533     9.42710E-03     120.305E-03    -38.6652E+06     55.2143E+06     62.7348E+06     1.42611E+06    -290.637E-03     580.967E-03    -290.331E-03     69.2677E-03    -291.576E-03     581.783E-03    -290.041E-03     59.4563E-03
             534     10.1012E-03     120.417E-03    -31.6653E+06     60.4349E+06     75.4290E+06     438.749E+03    -290.599E-03     580.962E-03    -290.363E-03     72.2791E-03    -291.654E-03     581.901E-03    -290.028E-03     60.8775E-03
             535     10.7750E-03     120.528E-03    -24.3689E+06     66.3847E+06     86.8244E+06    -30.6129E+03    -290.364E-03     580.750E-03    -290.386E-03     73.4888E-03    -291.526E-03     581.809E-03    -290.013E-03     60.5346E-03
             536     11.4494E-03     120.639E-03    -16.4400E+06     74.3778E+06     95.0198E+06     80.7345E+03    -290.018E-03     580.402E-03    -290.384E-03     71.6798E-03    -291.224E-03     581.538E-03    -289.992E-03     57.6467E-03
             537     12.1225E-03     120.737E-03    -10.2261E+06      80.802E+06     98.0850E+06    -506.637E+03    -289.823E-03     580.184E-03    -290.361E-03     70.8545E-03    -291.160E-03     581.487E-03    -289.973E-03     54.8800E-03
             538     12.7936E-03     120.837E-03    -5.19185E+06     84.6359E+06     96.6321E+06    -279.470E+03    -289.614E-03     579.942E-03    -290.328E-03     57.2209E-03    -290.726E-03     581.056E-03    -289.960E-03     42.4983E-03
             539     673.058E-06     121.183E-03    -131.825E+06    -254.611E+06    -129.820E+06    -8.97866E+03    -290.187E-03     580.461E-03    -290.275E-03     5.81356E-03    -290.290E-03     579.569E-03    -290.363E-03     5.66445E-03
             540     1.34681E-03     121.194E-03    -129.468E+06    -243.233E+06    -121.902E+06     81.3443E+03    -290.256E-03     580.507E-03    -290.251E-03     10.0570E-03    -290.378E-03     579.659E-03    -290.320E-03     9.88903E-03
             541     2.01949E-03     121.216E-03    -124.253E+06    -227.292E+06    -107.250E+06     773.297E+03    -290.362E-03     580.668E-03    -290.306E-03     14.8508E-03    -290.506E-03     579.876E-03    -290.333E-03     14.5755E-03
             542     2.69297E-03     121.246E-03    -118.213E+06    -208.314E+06    -90.1276E+06     947.146E+03    -290.205E-03     580.555E-03    -290.350E-03     19.7681E-03    -290.379E-03     579.831E-03    -290.327E-03     19.2821E-03
             543     3.36619E-03     121.285E-03    -110.646E+06    -185.835E+06    -71.2892E+06     1.23932E+06    -290.142E-03     580.504E-03    -290.362E-03     24.6967E-03    -290.350E-03     579.866E-03    -290.289E-03     23.9061E-03
             544     4.03970E-03     121.333E-03    -103.031E+06    -161.506E+06    -52.3110E+06     1.68414E+06    -290.213E-03     580.586E-03    -290.373E-03     29.7567E-03    -290.462E-03     580.048E-03    -290.251E-03     28.5642E-03
             545     4.71300E-03     121.390E-03    -94.6858E+06    -135.748E+06    -33.9053E+06     1.62081E+06    -290.285E-03     580.672E-03    -290.386E-03     34.9782E-03    -290.581E-03     580.247E-03    -290.222E-03     33.2324E-03
             546     5.38659E-03     121.453E-03    -85.5354E+06    -107.946E+06    -16.5089E+06     1.70865E+06    -290.344E-03     580.738E-03    -290.394E-03     40.2578E-03    -290.691E-03     580.446E-03    -290.196E-03     37.8172E-03
             547     6.05976E-03     121.527E-03    -77.2793E+06    -78.2142E+06    -313.155E+03     2.39713E+06    -290.377E-03     580.770E-03    -290.393E-03     45.5383E-03    -290.792E-03     580.634E-03    -290.169E-03     42.2517E-03
             548     6.73352E-03     121.607E-03    -69.4126E+06    -42.6354E+06     15.8228E+06     2.56382E+06    -290.408E-03     580.790E-03    -290.382E-03     50.8374E-03    -290.915E-03     580.854E-03    -290.141E-03     46.5312E-03
             549     7.40710E-03     121.696E-03    -61.8129E+06    -4.94233E+06     30.4899E+06     1.55733E+06    -290.510E-03     580.875E-03    -290.365E-03     56.0285E-03    -291.125E-03     581.165E-03    -290.116E-03     50.5398E-03
             550     8.08030E-03     121.792E-03    -53.8689E+06     16.9785E+06     40.6599E+06     1.04251E+06    -290.568E-03     580.920E-03    -290.351E-03     60.8382E-03    -291.276E-03     581.379E-03    -290.094E-03     54.0278E-03
             551     8.75369E-03     121.892E-03    -45.8316E+06     36.1846E+06     50.7026E+06     825.656E+03    -290.584E-03     580.925E-03    -290.341E-03     65.2852E-03    -291.396E-03     581.556E-03    -290.074E-03     57.0261E-03
             552     9.42830E-03     122.000E-03    -37.8119E+06     55.8194E+06     63.1460E+06     338.442E+03    -290.639E-03     580.984E-03    -290.345E-03     69.2455E-03    -291.574E-03     581.801E-03    -290.056E-03     59.4387E-03
             553     10.1012E-03     122.110E-03     -29.971E+06     61.4744E+06     76.0502E+06     538.039E+03    -290.506E-03     580.879E-03    -290.373E-03     72.3489E-03    -291.556E-03     581.820E-03    -290.038E-03     60.9395E-03
             554     10.7744E-03     122.223E-03    -23.1567E+06     67.3399E+06     87.8986E+06    -21.9892E+03    -290.125E-03     580.513E-03    -290.387E-03     73.7924E-03    -291.287E-03     581.576E-03    -290.012E-03     60.8333E-03
             555     11.4478E-03     122.330E-03    -17.0358E+06     74.0723E+06     95.0240E+06    -547.170E+03    -289.800E-03     580.169E-03    -290.369E-03     71.9933E-03    -291.009E-03     581.306E-03    -289.977E-03     57.9824E-03
             556     12.1223E-03     122.433E-03    -10.4713E+06     80.6095E+06     98.0047E+06     157.216E+03    -289.792E-03     580.129E-03    -290.338E-03     71.6561E-03    -291.128E-03     581.430E-03    -289.949E-03     55.8128E-03
             557     12.7975E-03     122.532E-03    -4.92447E+06     84.5798E+06     96.9582E+06     297.435E+03    -289.731E-03     580.038E-03    -290.307E-03     58.0993E-03    -290.842E-03     581.151E-03    -289.937E-03     43.4693E-03
             558     673.648E-06     122.873E-03    -132.211E+06    -256.016E+06    -130.709E+06      539.16E+03    -290.151E-03     580.271E-03    -290.120E-03     5.01568E-03    -290.252E-03     579.373E-03    -290.211E-03     4.98416E-03
             559     1.34657E-03     122.888E-03    -129.556E+06    -243.971E+06    -121.212E+06     572.241E+03    -290.294E-03     580.482E-03    -290.188E-03     9.73205E-03    -290.416E-03     579.630E-03    -290.253E-03     9.59316E-03
             560     2.01983E-03     122.909E-03    -124.998E+06    -229.257E+06    -107.861E+06     594.089E+03    -290.300E-03     580.564E-03    -290.265E-03     14.5875E-03    -290.444E-03     579.764E-03    -290.290E-03     14.2974E-03
             561     2.69290E-03     122.940E-03    -118.371E+06    -209.286E+06    -90.3422E+06     923.381E+03    -290.249E-03     580.565E-03    -290.316E-03     19.5456E-03    -290.422E-03     579.837E-03    -290.293E-03     19.0553E-03
             562     3.36633E-03     122.979E-03    -110.984E+06    -187.508E+06    -71.5715E+06     1.04969E+06    -290.253E-03     580.604E-03    -290.351E-03     24.6500E-03    -290.459E-03     579.959E-03    -290.276E-03     23.8611E-03
             563     4.03945E-03     123.026E-03    -102.446E+06    -163.226E+06    -52.6277E+06     1.40340E+06    -290.276E-03     580.653E-03    -290.377E-03     29.7520E-03    -290.519E-03     580.106E-03    -290.255E-03     28.5491E-03
             564     4.71309E-03     123.082E-03    -93.8202E+06    -136.707E+06    -33.9943E+06     1.91672E+06    -290.299E-03     580.694E-03    -290.395E-03     34.8626E-03    -290.588E-03     580.263E-03    -290.231E-03     33.1261E-03
             565     5.38626E-03     123.148E-03    -85.3330E+06    -109.762E+06    -16.5067E+06     2.29927E+06    -290.313E-03     580.716E-03    -290.403E-03     40.1453E-03    -290.656E-03     580.415E-03    -290.203E-03     37.7201E-03
             566     6.06001E-03     123.220E-03    -76.6152E+06    -80.2554E+06     241.867E+03     2.47504E+06    -290.345E-03     580.745E-03    -290.400E-03     45.4846E-03    -290.755E-03     580.597E-03    -290.171E-03     42.2036E-03
             567     6.73345E-03     123.301E-03    -67.5295E+06    -43.9105E+06     16.7195E+06     2.90939E+06    -290.465E-03     580.853E-03    -290.388E-03     50.8130E-03    -290.961E-03     580.905E-03    -290.143E-03     46.5281E-03
             568     7.40673E-03     123.390E-03    -59.1704E+06    -3.67444E+06     32.3822E+06     3.21147E+06    -290.494E-03     580.866E-03    -290.372E-03     56.0038E-03    -291.100E-03     581.155E-03    -290.119E-03     50.5618E-03
             569     8.08068E-03     123.485E-03    -52.1821E+06     18.8727E+06     42.7276E+06     1.96730E+06    -290.568E-03     580.926E-03    -290.358E-03     60.9491E-03    -291.273E-03     581.389E-03    -290.096E-03     54.1690E-03
             570     8.75421E-03     123.587E-03    -44.7180E+06     37.7456E+06     52.0601E+06     643.336E+03    -290.673E-03     581.020E-03    -290.348E-03     65.6036E-03    -291.485E-03     581.657E-03    -290.077E-03     57.3370E-03
             571     9.42672E-03     123.693E-03    -37.9159E+06     56.1324E+06     63.5783E+06     208.012E+03    -290.488E-03     580.835E-03    -290.347E-03     69.6395E-03    -291.429E-03     581.656E-03    -290.056E-03     59.8104E-03
             572     10.1009E-03     123.804E-03    -31.1244E+06     60.8622E+06     75.8229E+06    -175.864E+03    -290.198E-03     580.556E-03    -290.358E-03     72.7608E-03    -291.257E-03     581.501E-03    -290.022E-03     61.3223E-03
             573     10.7756E-03     123.914E-03    -23.3368E+06     67.0541E+06     88.1583E+06     687.568E+03    -290.046E-03     580.407E-03    -290.361E-03     74.0134E-03    -291.209E-03     581.469E-03    -289.984E-03     61.0802E-03
             574     11.4499E-03     124.025E-03    -16.7188E+06     74.6585E+06     96.2052E+06     1.14561E+06    -289.909E-03     580.257E-03    -290.348E-03     71.9586E-03    -291.118E-03     581.393E-03    -289.951E-03     57.9821E-03
             575     12.1232E-03     124.124E-03    -11.5512E+06     80.3954E+06     98.0815E+06    -40.3899E+03    -289.720E-03     580.037E-03    -290.317E-03     71.3511E-03    -291.059E-03     581.336E-03    -289.926E-03     55.4932E-03
             576     12.7958E-03     124.226E-03    -5.42830E+06     83.8875E+06     96.8570E+06    -283.672E+03    -289.801E-03     580.088E-03    -290.287E-03     57.3965E-03    -290.910E-03     581.195E-03    -289.917E-03     42.7067E-03
             577     672.956E-06     124.568E-03    -134.499E+06    -257.025E+06    -131.316E+06     306.823E+03    -290.247E-03     580.545E-03    -290.298E-03     5.30848E-03    -290.358E-03     579.647E-03    -290.387E-03     5.27895E-03
             578     1.34617E-03     124.580E-03    -130.542E+06    -245.695E+06    -121.985E+06     594.692E+03    -290.198E-03     580.480E-03    -290.282E-03     9.84504E-03    -290.321E-03     579.621E-03    -290.346E-03     9.69138E-03
             579     2.01968E-03     124.603E-03    -125.334E+06    -229.813E+06    -107.966E+06     618.371E+03    -290.181E-03     580.469E-03    -290.288E-03     14.6040E-03    -290.326E-03     579.667E-03    -290.313E-03     14.3205E-03
             580     2.69303E-03     124.633E-03    -118.841E+06    -210.609E+06    -91.0304E+06     490.951E+03    -290.292E-03     580.611E-03    -290.319E-03     19.4796E-03    -290.465E-03     579.879E-03    -290.297E-03     18.9888E-03
             581     3.36616E-03     124.672E-03    -111.245E+06    -188.619E+06    -72.0976E+06     852.850E+03    -290.308E-03     580.673E-03    -290.364E-03     24.5241E-03    -290.514E-03     580.023E-03    -290.290E-03     23.7410E-03
             582     4.03971E-03     124.719E-03    -103.086E+06    -164.830E+06    -53.1839E+06     1.06015E+06    -290.285E-03     580.680E-03    -290.395E-03     29.6726E-03    -290.528E-03     580.126E-03    -290.273E-03     28.4767E-03
             583     4.71269E-03     124.776E-03    -94.4320E+06    -138.768E+06    -34.7321E+06     1.37387E+06    -290.279E-03     580.689E-03    -290.409E-03     34.9505E-03    -290.567E-03     580.250E-03    -290.245E-03     33.2080E-03
             584     5.38643E-03     124.840E-03    -85.7767E+06    -111.427E+06    -17.0446E+06     1.58518E+06    -290.297E-03     580.710E-03    -290.413E-03     40.2110E-03    -290.639E-03     580.402E-03    -290.212E-03     37.7701E-03
             585     6.05981E-03     124.913E-03    -77.0372E+06    -81.7170E+06    -286.187E+03     1.87111E+06    -290.387E-03     580.797E-03    -290.410E-03     45.5156E-03    -290.796E-03     580.643E-03    -290.181E-03     42.2368E-03
             586     6.73326E-03     124.994E-03    -68.7741E+06    -46.6136E+06     15.5571E+06     2.50919E+06    -290.444E-03     580.842E-03    -290.398E-03     50.8969E-03    -290.941E-03     580.884E-03    -290.153E-03     46.6159E-03
             587     7.40706E-03     125.083E-03    -60.5784E+06    -6.77178E+06     30.8387E+06     3.87880E+06    -290.442E-03     580.818E-03    -290.376E-03     55.9864E-03    -291.048E-03     581.095E-03    -290.124E-03     50.5560E-03
             588     8.08034E-03     125.179E-03    -52.5462E+06     23.2544E+06     43.1990E+06     4.06583E+06    -290.448E-03     580.800E-03    -290.352E-03     60.9392E-03    -291.162E-03     581.285E-03    -290.094E-03     54.1983E-03
             589     8.75390E-03     125.280E-03    -45.8482E+06     41.8974E+06     52.8132E+06     1.72739E+06    -290.385E-03     580.715E-03    -290.330E-03     65.7728E-03    -291.210E-03     581.373E-03    -290.060E-03     57.5378E-03
             590     9.42841E-03     125.387E-03    -38.5644E+06     55.2202E+06     63.9364E+06     646.397E+03    -290.331E-03     580.650E-03    -290.320E-03     69.8448E-03    -291.276E-03     581.469E-03    -290.024E-03     60.0170E-03
             591     10.1022E-03     125.496E-03    -31.1920E+06     61.6111E+06     77.3618E+06     984.841E+03    -290.353E-03     580.688E-03    -290.335E-03     72.5313E-03    -291.414E-03     581.633E-03    -289.992E-03     61.1045E-03
             592     10.7752E-03     125.609E-03    -25.0534E+06     66.2659E+06     88.2387E+06    -11.4357E+03    -290.297E-03     580.648E-03    -290.351E-03     73.4486E-03    -291.466E-03     581.708E-03    -289.970E-03     60.4560E-03
             593     11.4484E-03     125.716E-03    -17.8507E+06     73.3593E+06     95.6846E+06     18.6599E+03    -290.200E-03     580.554E-03    -290.354E-03     71.2018E-03    -291.406E-03     581.679E-03    -289.956E-03     57.2019E-03
             594     12.1224E-03     125.819E-03    -10.3881E+06     82.2375E+06     100.195E+06     944.909E+03    -290.050E-03     580.397E-03    -290.348E-03     70.5170E-03    -291.381E-03     581.693E-03    -289.951E-03     54.6729E-03
             595     12.7969E-03     125.919E-03    -5.41329E+06     84.6935E+06     98.6021E+06     81.3967E+03    -289.727E-03     580.054E-03    -290.326E-03     57.0701E-03    -290.838E-03     581.159E-03    -289.948E-03     42.4003E-03
             596     673.210E-06     126.259E-03    -132.648E+06    -258.891E+06    -131.575E+06     719.527E+03    -290.311E-03     580.537E-03    -290.226E-03     5.62510E-03    -290.410E-03     579.627E-03    -290.316E-03     5.54614E-03
             597     1.34662E-03     126.274E-03    -130.410E+06    -246.186E+06    -122.620E+06     270.131E+03    -290.238E-03     580.516E-03    -290.278E-03     9.94965E-03    -290.359E-03     579.656E-03    -290.345E-03     9.81445E-03
             598     2.01960E-03     126.295E-03    -125.600E+06    -230.868E+06    -109.033E+06     441.872E+03    -290.262E-03     580.566E-03    -290.303E-03     14.6824E-03    -290.406E-03     579.760E-03    -290.331E-03     14.4128E-03
             599     2.69288E-03     126.326E-03    -119.617E+06    -211.490E+06    -91.6509E+06     828.346E+03    -290.271E-03     580.613E-03    -290.341E-03     19.5745E-03    -290.446E-03     579.878E-03    -290.320E-03     19.0891E-03
             600     3.36610E-03     126.365E-03    -112.097E+06    -189.802E+06    -72.4593E+06     838.815E+03    -290.298E-03     580.678E-03    -290.380E-03     24.6373E-03    -290.506E-03     580.024E-03    -290.305E-03     23.8536E-03
             601     4.03917E-03     126.413E-03    -104.022E+06    -165.814E+06    -53.8026E+06     929.630E+03    -290.261E-03     580.666E-03    -290.404E-03     29.7936E-03    -290.507E-03     580.110E-03    -290.282E-03     28.5893E-03
             602     4.71308E-03     126.469E-03    -95.9803E+06    -140.242E+06    -35.8888E+06     1.04147E+06    -290.258E-03     580.671E-03    -290.413E-03     34.9796E-03    -290.550E-03     580.228E-03    -290.250E-03     33.2332E-03
             603     5.38629E-03     126.534E-03    -87.3811E+06    -112.946E+06    -18.3897E+06     1.52247E+06    -290.352E-03     580.770E-03    -290.417E-03     40.2293E-03    -290.698E-03     580.458E-03    -290.219E-03     37.7953E-03
             604     6.05975E-03     126.607E-03    -79.2318E+06    -83.5518E+06    -2.28949E+06     2.10155E+06    -290.408E-03     580.824E-03    -290.416E-03     45.5712E-03    -290.822E-03     580.667E-03    -290.191E-03     42.2928E-03
             605     6.73336E-03     126.688E-03    -70.9652E+06    -50.0827E+06     13.2657E+06     2.98935E+06    -290.398E-03     580.801E-03    -290.403E-03     50.9022E-03    -290.897E-03     580.832E-03    -290.161E-03     46.6270E-03
             606     7.40668E-03     126.777E-03    -62.7758E+06    -10.8208E+06     28.7194E+06     3.81498E+06    -290.365E-03     580.741E-03    -290.377E-03     56.0823E-03    -290.973E-03     581.005E-03    -290.126E-03     50.6435E-03
             607     8.08056E-03     126.872E-03    -54.2705E+06     25.9581E+06     42.3378E+06     3.37803E+06    -290.293E-03     580.632E-03    -290.339E-03     61.0721E-03    -291.019E-03     581.135E-03    -290.086E-03     54.3021E-03
             608     8.75452E-03     126.973E-03    -45.2642E+06     46.4546E+06     53.3972E+06     2.17861E+06    -290.262E-03     580.571E-03    -290.309E-03     65.5126E-03    -291.092E-03     581.251E-03    -290.044E-03     57.2635E-03
             609     9.42808E-03     127.079E-03    -37.8368E+06     54.9320E+06     64.5494E+06     1.19707E+06    -290.425E-03     580.732E-03    -290.307E-03     69.2887E-03    -291.364E-03     581.545E-03    -290.009E-03     59.4594E-03
             610     10.1013E-03     127.191E-03    -30.7993E+06     61.2244E+06     78.0053E+06     885.764E+03    -290.560E-03     580.896E-03    -290.336E-03     72.1194E-03    -291.618E-03     581.836E-03    -289.990E-03     60.6781E-03
             611     10.7753E-03     127.301E-03    -23.3583E+06     67.6990E+06     90.3919E+06     1.20381E+06    -290.576E-03     580.947E-03    -290.371E-03     73.4768E-03    -291.741E-03     582.008E-03    -289.983E-03     60.5154E-03
             612     11.4491E-03     127.412E-03    -17.1307E+06     74.7737E+06     97.7958E+06     642.616E+03    -290.498E-03     580.888E-03    -290.390E-03     71.5085E-03    -291.706E-03     582.018E-03    -289.985E-03     57.5259E-03
             613     12.1218E-03     127.512E-03    -11.1396E+06     81.4860E+06     100.082E+06    -206.441E+03    -290.005E-03     580.388E-03    -290.383E-03     70.9687E-03    -291.347E-03     581.690E-03    -289.985E-03     55.0671E-03
             614     12.7943E-03     127.614E-03    -5.28183E+06     84.1742E+06     98.2132E+06     161.453E+03    -289.148E-03     579.489E-03    -290.340E-03     57.9001E-03    -290.267E-03     580.602E-03    -289.963E-03     43.2039E-03
             615     673.329E-06     127.953E-03    -133.145E+06    -260.982E+06    -131.450E+06    -67.3592E+03    -290.278E-03     580.451E-03    -290.173E-03     5.42155E-03    -290.376E-03     579.531E-03    -290.259E-03     5.35146E-03
             616     1.34628E-03     127.966E-03    -130.349E+06    -246.838E+06    -123.661E+06     708.477E+03    -290.300E-03     580.549E-03    -290.250E-03     9.92377E-03    -290.418E-03     579.687E-03    -290.321E-03     9.78675E-03
             617     2.01965E-03     127.989E-03    -126.300E+06    -232.114E+06    -109.313E+06     874.096E+03    -290.288E-03     580.594E-03    -290.305E-03     14.7692E-03    -290.433E-03     579.783E-03    -290.332E-03     14.5010E-03
             618     2.69277E-03     128.019E-03    -119.899E+06    -212.505E+06    -91.9339E+06     883.582E+03    -290.251E-03     580.595E-03    -290.344E-03     19.7140E-03    -290.425E-03     579.855E-03    -290.321E-03     19.2402E-03
             619     3.36625E-03     128.058E-03    -112.648E+06    -190.845E+06    -73.2723E+06     1.11383E+06    -290.223E-03     580.593E-03    -290.370E-03     24.7309E-03    -290.430E-03     579.936E-03    -290.296E-03     23.9528E-03
             620     4.03978E-03     128.106E-03    -104.759E+06    -167.283E+06    -54.5599E+06     1.46622E+06    -290.274E-03     580.665E-03    -290.391E-03     29.8525E-03    -290.521E-03     580.104E-03    -290.269E-03     28.6595E-03
             621     4.71268E-03     128.162E-03    -96.7701E+06    -141.356E+06    -36.5535E+06     1.86097E+06    -290.332E-03     580.739E-03    -290.407E-03     35.0891E-03    -290.626E-03     580.294E-03    -290.244E-03     33.3499E-03
             622     5.38628E-03     128.227E-03    -88.4838E+06    -114.758E+06    -19.4418E+06     2.15415E+06    -290.374E-03     580.792E-03    -290.417E-03     40.3839E-03    -290.722E-03     580.474E-03    -290.220E-03     37.9572E-03
             623     6.05974E-03     128.300E-03    -79.4113E+06    -85.7964E+06    -2.84665E+06     2.70838E+06    -290.419E-03     580.838E-03    -290.419E-03     45.6673E-03    -290.831E-03     580.671E-03    -290.194E-03     42.3899E-03
             624     6.73310E-03     128.381E-03    -71.2859E+06    -52.6786E+06     12.5526E+06     2.92456E+06    -290.367E-03     580.771E-03    -290.404E-03     50.9769E-03    -290.864E-03     580.792E-03    -290.162E-03     46.6794E-03
             625     7.40703E-03     128.469E-03    -62.6974E+06    -11.9180E+06     28.3581E+06     2.63873E+06    -290.287E-03     580.658E-03    -290.371E-03     56.1812E-03    -290.894E-03     580.918E-03    -290.121E-03     50.7182E-03
             626     8.08065E-03     128.565E-03    -53.9042E+06     27.3888E+06     43.1081E+06     2.13420E+06    -290.336E-03     580.671E-03    -290.335E-03     60.9328E-03    -291.063E-03     581.179E-03    -290.081E-03     54.1432E-03
             627     8.75428E-03     128.666E-03    -46.0296E+06     47.7792E+06     53.7823E+06     1.55323E+06    -290.501E-03     580.818E-03    -290.316E-03     65.2916E-03    -291.337E-03     581.503E-03    -290.050E-03     57.0292E-03
             628     9.42778E-03     128.774E-03    -38.3599E+06     55.0926E+06     64.2024E+06     1.54414E+06    -290.524E-03     580.848E-03    -290.325E-03     69.2819E-03    -291.464E-03     581.662E-03    -290.028E-03     59.4673E-03
             629     10.1019E-03     128.884E-03    -31.4971E+06     61.2614E+06     77.7976E+06     1.43711E+06    -290.549E-03     580.905E-03    -290.356E-03     72.2625E-03    -291.610E-03     581.846E-03    -290.010E-03     60.8408E-03
             630     10.7750E-03     128.996E-03    -24.7602E+06     67.3664E+06     90.1227E+06     1.09097E+06    -290.574E-03     580.965E-03    -290.390E-03     73.5241E-03    -291.744E-03     582.025E-03    -290.002E-03     60.5801E-03
             631     11.4478E-03     129.106E-03    -17.5164E+06     75.0564E+06     98.1327E+06     1.01804E+06    -290.111E-03     580.510E-03    -290.398E-03     71.8747E-03    -291.329E-03     581.647E-03    -289.991E-03     57.8694E-03
             632     12.1218E-03     129.207E-03    -11.3728E+06     81.7263E+06     100.661E+06     683.086E+03    -289.474E-03     579.840E-03    -290.365E-03     71.7358E-03    -290.824E-03     581.147E-03    -289.964E-03     55.8798E-03
             633     12.7973E-03     129.305E-03    -5.17725E+06     84.5073E+06     99.4954E+06     126.808E+03    -289.093E-03     579.402E-03    -290.309E-03     58.0874E-03    -290.211E-03     580.513E-03    -289.926E-03     43.4394E-03
             634     673.147E-06     129.645E-03    -133.511E+06    -262.678E+06    -132.157E+06     923.252E+03    -290.220E-03     580.505E-03    -290.285E-03     5.53277E-03    -290.316E-03     579.578E-03    -290.371E-03     5.51827E-03
             635     1.34657E-03     129.660E-03    -131.539E+06    -248.409E+06    -123.286E+06     576.120E+03    -290.252E-03     580.519E-03    -290.268E-03     9.96783E-03    -290.374E-03     579.650E-03    -290.333E-03     9.84101E-03
             636     2.01963E-03     129.681E-03    -126.237E+06    -233.676E+06    -109.265E+06     702.977E+03    -290.250E-03     580.550E-03    -290.300E-03     14.7830E-03    -290.392E-03     579.731E-03    -290.324E-03     14.5112E-03
             637     2.69305E-03     129.712E-03    -120.089E+06    -214.445E+06    -92.2838E+06     1.33646E+06    -290.235E-03     580.566E-03    -290.331E-03     19.6547E-03    -290.406E-03     579.817E-03    -290.308E-03     19.1894E-03
             638     3.36613E-03     129.751E-03    -112.890E+06    -192.446E+06    -73.5813E+06     1.79181E+06    -290.220E-03     580.578E-03    -290.358E-03     24.6662E-03    -290.426E-03     579.914E-03    -290.283E-03     23.9025E-03
             639     4.03944E-03     129.799E-03    -105.073E+06    -168.849E+06    -54.7662E+06     1.99817E+06    -290.259E-03     580.638E-03    -290.380E-03     29.8458E-03    -290.504E-03     580.070E-03    -290.256E-03     28.6619E-03
             640     4.71316E-03     129.855E-03    -96.1430E+06    -143.183E+06    -36.3342E+06     2.26680E+06    -290.333E-03     580.730E-03    -290.397E-03     35.0997E-03    -290.621E-03     580.274E-03    -290.232E-03     33.3686E-03
             641     5.38638E-03     129.920E-03    -87.8422E+06    -116.431E+06    -18.9799E+06     2.73915E+06    -290.375E-03     580.784E-03    -290.410E-03     40.4521E-03    -290.718E-03     580.457E-03    -290.208E-03     38.0367E-03
             642     6.05978E-03     129.993E-03    -80.1853E+06    -86.8944E+06    -2.84131E+06     2.53996E+06    -290.378E-03     580.787E-03    -290.409E-03     45.8044E-03    -290.792E-03     580.616E-03    -290.180E-03     42.5209E-03
             643     6.73343E-03     130.074E-03    -70.8550E+06    -53.2797E+06     13.1538E+06     2.25479E+06    -290.415E-03     580.811E-03    -290.396E-03     51.0424E-03    -290.911E-03     580.827E-03    -290.150E-03     46.7288E-03
             644     7.40687E-03     130.162E-03    -62.3986E+06    -12.6921E+06     28.8062E+06     2.55486E+06    -290.452E-03     580.824E-03    -290.373E-03     56.0491E-03    -291.056E-03     581.079E-03    -290.120E-03     50.5851E-03
             645     8.08062E-03     130.258E-03    -54.7050E+06     27.9377E+06     43.2556E+06     2.50128E+06    -290.464E-03     580.811E-03    -290.347E-03     60.8410E-03    -291.195E-03     581.322E-03    -290.092E-03     54.0613E-03
             646     8.75401E-03     130.360E-03    -47.0781E+06     49.0627E+06     54.2001E+06     1.81866E+06    -290.476E-03     580.809E-03    -290.333E-03     65.4310E-03    -291.319E-03     581.502E-03    -290.065E-03     57.1879E-03
             647     9.42769E-03     130.467E-03    -39.6677E+06     54.9877E+06     64.2450E+06     968.899E+03    -290.528E-03     580.868E-03    -290.340E-03     69.4822E-03    -291.476E-03     581.684E-03    -290.041E-03     59.6719E-03
             648     10.1009E-03     130.577E-03    -31.6826E+06     60.4993E+06     77.6100E+06     1.08464E+06    -290.465E-03     580.830E-03    -290.365E-03     72.6900E-03    -291.527E-03     581.769E-03    -290.019E-03     61.2855E-03
             649     10.7746E-03     130.691E-03    -24.0241E+06     67.3025E+06     89.9840E+06     1.52198E+06    -290.132E-03     580.511E-03    -290.378E-03     74.3585E-03    -291.305E-03     581.577E-03    -289.991E-03     61.4256E-03
             650     11.4490E-03     130.799E-03    -17.0845E+06     75.3552E+06     98.3731E+06     876.863E+03    -289.763E-03     580.126E-03    -290.363E-03     72.3992E-03    -290.984E-03     581.269E-03    -289.956E-03     58.3939E-03
             651     12.1236E-03     130.899E-03    -10.3538E+06     82.4935E+06     102.009E+06     649.310E+03    -289.547E-03     579.875E-03    -290.328E-03     71.2225E-03    -290.893E-03     581.181E-03    -289.922E-03     55.3321E-03
             652     12.7962E-03     130.999E-03    -5.00994E+06     85.4504E+06     100.569E+06     766.395E+03    -289.641E-03     579.932E-03    -290.291E-03     57.2885E-03    -290.755E-03     581.040E-03    -289.905E-03     42.6453E-03
             653     673.229E-06     131.339E-03    -134.396E+06    -264.713E+06    -132.299E+06    -154.740E+03    -290.139E-03     580.691E-03    -290.553E-03     5.31005E-03    -290.236E-03     579.756E-03    -290.635E-03     5.26527E-03
             654     1.34628E-03     131.352E-03    -130.540E+06    -250.604E+06    -123.212E+06      961.83E+03    -290.203E-03     580.535E-03    -290.333E-03     9.76456E-03    -290.317E-03     579.654E-03    -290.396E-03     9.63825E-03
             655     2.01969E-03     131.375E-03    -126.584E+06    -235.682E+06    -108.926E+06     1.53415E+06    -290.164E-03     580.485E-03    -290.322E-03     14.6708E-03    -290.305E-03     579.657E-03    -290.341E-03     14.4190E-03
             656     2.69277E-03     131.405E-03    -120.417E+06    -216.549E+06    -91.7920E+06     1.64404E+06    -290.164E-03     580.493E-03    -290.329E-03     19.6746E-03    -290.335E-03     579.734E-03    -290.299E-03     19.2068E-03
             657     3.36638E-03     131.444E-03    -112.810E+06    -194.150E+06    -73.3141E+06     1.78135E+06    -290.247E-03     580.596E-03    -290.349E-03     24.7767E-03    -290.451E-03     579.923E-03    -290.270E-03     24.0131E-03
             658     4.03970E-03     131.492E-03    -104.408E+06    -170.408E+06    -54.3441E+06     2.04812E+06    -290.304E-03     580.682E-03    -290.378E-03     29.8608E-03    -290.545E-03     580.104E-03    -290.251E-03     28.6801E-03
             659     4.71286E-03     131.548E-03    -96.2465E+06    -145.290E+06    -36.0524E+06     2.51693E+06    -290.300E-03     580.698E-03    -290.398E-03     35.0304E-03    -290.586E-03     580.231E-03    -290.228E-03     33.3064E-03
             660     5.38641E-03     131.613E-03    -87.5167E+06    -117.546E+06    -18.4605E+06     2.44518E+06    -290.316E-03     580.720E-03    -290.404E-03     40.3481E-03    -290.656E-03     580.386E-03    -290.199E-03     37.9331E-03
             661     6.06001E-03     131.686E-03    -78.3924E+06    -87.7435E+06    -1.78411E+06     2.52692E+06    -290.357E-03     580.756E-03    -290.400E-03     45.6664E-03    -290.762E-03     580.577E-03    -290.168E-03     42.3956E-03
             662     6.73349E-03     131.767E-03    -70.5457E+06    -54.9993E+06     13.6969E+06     3.26914E+06    -290.474E-03     580.864E-03    -290.390E-03     51.0034E-03    -290.965E-03     580.870E-03    -290.140E-03     46.7220E-03
             663     7.40689E-03     131.856E-03    -62.2811E+06    -13.1905E+06     29.5474E+06     3.26756E+06    -290.538E-03     580.912E-03    -290.374E-03     56.2533E-03    -291.143E-03     581.163E-03    -290.117E-03     50.7991E-03
             664     8.08014E-03     131.952E-03    -54.0421E+06     28.0352E+06     44.0849E+06     2.83468E+06    -290.430E-03     580.778E-03    -290.348E-03     61.2571E-03    -291.161E-03     581.289E-03    -290.090E-03     54.4790E-03
             665     8.75413E-03     132.054E-03    -46.2750E+06       50.51E+06     55.2337E+06     2.44399E+06    -290.420E-03     580.748E-03    -290.328E-03     65.8370E-03    -291.264E-03     581.447E-03    -290.058E-03     57.6124E-03
             666     9.42787E-03     132.160E-03    -38.8316E+06     56.7730E+06     65.4285E+06     1.69167E+06    -290.465E-03     580.795E-03    -290.330E-03     69.8914E-03    -291.415E-03     581.618E-03    -290.028E-03     60.1017E-03
             667     10.1016E-03     132.272E-03    -32.2221E+06     60.2162E+06     77.8138E+06     776.723E+03    -290.274E-03     580.621E-03    -290.346E-03     72.9608E-03    -291.342E-03     581.562E-03    -289.998E-03     61.5492E-03
             668     10.7760E-03     132.382E-03    -24.8939E+06     66.9040E+06     90.0609E+06     244.328E+03    -290.059E-03     580.412E-03    -290.353E-03     73.9337E-03    -291.235E-03     581.476E-03    -289.964E-03     60.9484E-03
             669     11.4499E-03     132.493E-03    -17.3176E+06     75.6291E+06     98.6994E+06     846.602E+03    -290.058E-03     580.406E-03    -290.348E-03     71.3522E-03    -291.276E-03     581.544E-03    -289.939E-03     57.2916E-03
             670     12.1223E-03     132.593E-03    -11.1988E+06     82.2967E+06     101.700E+06     1.28226E+06    -290.052E-03     580.389E-03    -290.337E-03     70.3239E-03    -291.396E-03     581.690E-03    -289.931E-03     54.3869E-03
             671     12.7967E-03     132.693E-03    -5.77146E+06     85.9007E+06     100.015E+06     957.108E+03    -289.576E-03     579.887E-03    -290.311E-03     56.9663E-03    -290.690E-03     580.996E-03    -289.927E-03     42.3302E-03
             672     672.822E-06     133.032E-03    -133.722E+06    -266.035E+06    -131.771E+06     686.445E+03    -290.258E-03     580.752E-03    -290.494E-03     5.50434E-03    -290.351E-03     579.808E-03    -290.573E-03     5.42756E-03
             673     1.34624E-03     133.045E-03    -131.795E+06    -254.302E+06    -124.213E+06     922.192E+03    -290.209E-03     580.565E-03    -290.356E-03     9.99580E-03    -290.323E-03     579.669E-03    -290.418E-03     9.85721E-03
             674     2.01946E-03     133.067E-03    -126.355E+06    -238.089E+06    -109.459E+06     1.58165E+06    -290.164E-03     580.499E-03    -290.336E-03     14.7251E-03    -290.300E-03     579.659E-03    -290.355E-03     14.4662E-03
             675     2.69318E-03     133.098E-03    -119.794E+06    -218.012E+06    -91.5339E+06     1.80863E+06    -290.190E-03     580.533E-03    -290.343E-03     19.5763E-03    -290.356E-03     579.765E-03    -290.311E-03     19.1185E-03
             676     3.36626E-03     133.137E-03    -112.499E+06    -195.872E+06    -72.9563E+06     2.04165E+06    -290.229E-03     580.592E-03    -290.363E-03     24.5923E-03    -290.429E-03     579.909E-03    -290.281E-03     23.8404E-03
             677     4.03953E-03     133.185E-03    -104.774E+06    -172.273E+06    -54.0597E+06     2.32776E+06    -290.251E-03     580.637E-03    -290.385E-03     29.7934E-03    -290.491E-03     580.049E-03    -290.254E-03     28.6288E-03
             678     4.71302E-03     133.242E-03    -95.8096E+06    -146.386E+06    -35.3090E+06     2.15452E+06    -290.309E-03     580.711E-03    -290.402E-03     35.1018E-03    -290.593E-03     580.237E-03    -290.227E-03     33.3727E-03
             679     5.38644E-03     133.306E-03    -86.7612E+06    -118.520E+06    -17.9961E+06     2.28478E+06    -290.329E-03     580.736E-03    -290.407E-03     40.3163E-03    -290.664E-03     580.395E-03    -290.199E-03     37.8957E-03
             680     6.05987E-03     133.380E-03    -78.6255E+06    -90.8115E+06    -1.87959E+06     3.09660E+06    -290.362E-03     580.767E-03    -290.405E-03     45.6169E-03    -290.763E-03     580.572E-03    -290.168E-03     42.3615E-03
             681     6.73337E-03     133.460E-03    -70.3687E+06    -56.8968E+06     14.0189E+06     3.50853E+06    -290.379E-03     580.769E-03    -290.390E-03     51.0842E-03    -290.867E-03     580.764E-03    -290.135E-03     46.8223E-03
             682     7.40706E-03     133.550E-03    -62.3041E+06    -13.6362E+06     29.9510E+06     3.54969E+06    -290.338E-03     580.697E-03    -290.359E-03     56.3744E-03    -290.943E-03     580.945E-03    -290.099E-03     50.9396E-03
             683     8.08105E-03     133.645E-03    -53.9755E+06     28.3682E+06     44.7268E+06     3.32105E+06    -290.407E-03     580.731E-03    -290.325E-03     61.3134E-03    -291.139E-03     581.243E-03    -290.064E-03     54.5515E-03
             684     8.75452E-03     133.747E-03    -46.0371E+06     51.3526E+06     55.8614E+06     2.78580E+06    -290.482E-03     580.789E-03    -290.307E-03     65.8275E-03    -291.328E-03     581.491E-03    -290.035E-03     57.6000E-03
             685     9.42794E-03     133.855E-03    -38.6955E+06     57.4453E+06     66.0059E+06     2.53665E+06    -290.448E-03     580.760E-03    -290.312E-03     69.6354E-03    -291.399E-03     581.586E-03    -290.010E-03     59.8308E-03
             686     10.1021E-03     133.963E-03    -31.3114E+06     62.0072E+06     79.3639E+06     2.21980E+06    -290.464E-03     580.804E-03    -290.340E-03     72.2736E-03    -291.530E-03     581.749E-03    -289.988E-03     60.8340E-03
             687     10.7750E-03     134.077E-03    -24.9465E+06     68.0189E+06     91.4422E+06     1.51913E+06    -290.351E-03     580.717E-03    -290.366E-03     73.3556E-03    -291.527E-03     581.781E-03    -289.972E-03     60.3749E-03
             688     11.4480E-03     134.185E-03    -19.4451E+06     74.5019E+06     97.9007E+06     867.681E+03    -290.119E-03     580.486E-03    -290.367E-03     71.7734E-03    -291.344E-03     581.622E-03    -289.957E-03     57.7777E-03
             689     12.1227E-03     134.288E-03    -12.5528E+06     81.7176E+06     100.558E+06     815.511E+03    -289.849E-03     580.195E-03    -290.346E-03     71.2977E-03    -291.198E-03     581.498E-03    -289.943E-03     55.4592E-03
             690     12.7949E-03     134.387E-03    -5.27236E+06     87.3951E+06     100.607E+06     448.614E+03    -289.216E-03     579.521E-03    -290.305E-03     57.7513E-03    -290.338E-03     580.644E-03    -289.921E-03     43.0726E-03
             691     673.449E-06     134.725E-03    -133.921E+06    -269.145E+06    -132.409E+06     391.289E+03    -290.516E-03     580.607E-03    -290.091E-03     5.16298E-03    -290.604E-03     579.649E-03    -290.169E-03     5.11123E-03
             692     1.34649E-03     134.739E-03    -130.726E+06    -257.001E+06    -122.808E+06     1.42245E+06    -290.280E-03     580.599E-03    -290.319E-03     9.85599E-03    -290.387E-03     579.685E-03    -290.371E-03     9.72605E-03
             693     2.01974E-03     134.760E-03    -126.129E+06    -239.730E+06    -109.599E+06     1.17807E+06    -290.272E-03     580.608E-03    -290.336E-03     14.6916E-03    -290.404E-03     579.759E-03    -290.354E-03     14.4211E-03
             694     2.69257E-03     134.791E-03    -119.704E+06    -220.365E+06    -92.0230E+06     1.58568E+06    -290.265E-03     580.631E-03    -290.366E-03     19.6819E-03    -290.426E-03     579.852E-03    -290.333E-03     19.2287E-03
             695     3.36601E-03     134.830E-03    -112.535E+06    -197.777E+06    -73.0773E+06     2.04196E+06    -290.210E-03     580.599E-03    -290.389E-03     24.6869E-03    -290.408E-03     579.907E-03    -290.304E-03     23.9303E-03
             696     4.03963E-03     134.878E-03    -104.096E+06    -173.444E+06    -53.7671E+06     1.97563E+06    -290.209E-03     580.610E-03    -290.401E-03     29.8037E-03    -290.444E-03     580.016E-03    -290.267E-03     28.6333E-03
             697     4.71304E-03     134.935E-03    -95.8150E+06    -148.144E+06    -35.5344E+06     2.36669E+06    -290.257E-03     580.665E-03    -290.408E-03     34.9959E-03    -290.537E-03     580.182E-03    -290.231E-03     33.2840E-03
             698     5.38635E-03     135.000E-03    -87.7403E+06    -120.546E+06    -18.2441E+06     2.92439E+06    -290.318E-03     580.727E-03    -290.410E-03     40.3274E-03    -290.655E-03     580.378E-03    -290.199E-03     37.9259E-03
             699     6.05990E-03     135.072E-03    -79.0127E+06    -92.8732E+06    -1.78470E+06     3.04139E+06    -290.359E-03     580.767E-03    -290.407E-03     45.7230E-03    -290.760E-03     580.563E-03    -290.167E-03     42.4593E-03
             700     6.73353E-03     135.154E-03    -70.5044E+06    -58.8068E+06     13.8839E+06     3.33459E+06    -290.338E-03     580.727E-03    -290.389E-03     51.0246E-03    -290.824E-03     580.714E-03    -290.132E-03     46.7492E-03
             701     7.40724E-03     135.242E-03    -62.2506E+06    -15.1934E+06     29.8144E+06     3.81119E+06    -290.368E-03     580.725E-03    -290.357E-03     56.0599E-03    -290.969E-03     580.964E-03    -290.096E-03     50.6416E-03
             702     8.08080E-03     135.338E-03    -54.1742E+06     28.2739E+06     44.6983E+06     4.06067E+06    -290.402E-03     580.726E-03    -290.324E-03     60.8350E-03    -291.132E-03     581.235E-03    -290.063E-03     54.1004E-03
             703     8.75429E-03     135.441E-03    -46.3634E+06     52.0354E+06     56.2308E+06     3.76943E+06    -290.414E-03     580.720E-03    -290.307E-03     65.3909E-03    -291.261E-03     581.424E-03    -290.034E-03     57.1719E-03
             704     9.42837E-03     135.546E-03    -39.0118E+06     57.7979E+06     66.8154E+06     3.08571E+06    -290.522E-03     580.838E-03    -290.316E-03     69.4657E-03    -291.475E-03     581.664E-03    -290.010E-03     59.6725E-03
             705     10.1011E-03     135.659E-03    -31.8644E+06     62.4535E+06     79.7854E+06     2.61034E+06    -290.477E-03     580.822E-03    -290.345E-03     72.6410E-03    -291.548E-03     581.770E-03    -289.990E-03     61.2398E-03
             706     10.7751E-03     135.769E-03    -24.2170E+06     67.9978E+06     91.6772E+06     2.88782E+06    -290.264E-03     580.629E-03    -290.365E-03     74.0355E-03    -291.437E-03     581.692E-03    -289.970E-03     61.1402E-03
             707     11.4498E-03     135.880E-03    -16.7440E+06     76.1787E+06     100.040E+06     2.54543E+06    -289.852E-03     580.209E-03    -290.357E-03     72.3120E-03    -291.070E-03     581.348E-03    -289.943E-03     58.3796E-03
             708     12.1225E-03     135.980E-03    -10.6422E+06     83.2309E+06     102.850E+06     793.654E+03    -289.351E-03     579.667E-03    -290.316E-03     71.7787E-03    -290.703E-03     580.978E-03    -289.907E-03     55.9266E-03
             709     12.7984E-03     136.080E-03    -4.85299E+06     88.0063E+06     101.467E+06    -74.6866E+03    -289.444E-03     579.709E-03    -290.265E-03     57.8509E-03    -290.572E-03     580.838E-03    -289.879E-03     43.1133E-03
             710     673.010E-06     136.419E-03    -134.639E+06    -271.083E+06    -130.947E+06     168.928E+03    -290.372E-03     580.640E-03    -290.269E-03     4.96772E-03    -290.463E-03     579.672E-03    -290.335E-03     4.90497E-03
             711     1.34622E-03     136.431E-03    -130.737E+06    -261.126E+06    -123.059E+06     1.01941E+06    -290.295E-03     580.631E-03    -290.336E-03     9.73560E-03    -290.396E-03     579.697E-03    -290.383E-03     9.60148E-03
             712     2.01947E-03     136.454E-03    -126.008E+06    -240.289E+06    -109.803E+06     1.59510E+06    -290.267E-03     580.612E-03    -290.345E-03     14.7462E-03    -290.398E-03     579.761E-03    -290.363E-03     14.4857E-03
             713     2.69302E-03     136.484E-03    -120.000E+06    -221.991E+06    -92.2006E+06     1.17508E+06    -290.259E-03     580.632E-03    -290.373E-03     19.7132E-03    -290.419E-03     579.845E-03    -290.338E-03     19.2498E-03
             714     3.36632E-03     136.523E-03    -112.043E+06    -200.010E+06    -73.3814E+06     1.46902E+06    -290.254E-03     580.650E-03    -290.396E-03     24.6817E-03    -290.445E-03     579.946E-03    -290.310E-03     23.9277E-03
             715     4.03936E-03     136.571E-03    -104.370E+06    -175.860E+06    -54.5331E+06     2.54976E+06    -290.233E-03     580.645E-03    -290.411E-03     29.8411E-03    -290.465E-03     580.040E-03    -290.278E-03     28.6696E-03
             716     4.71278E-03     136.628E-03    -96.5489E+06    -149.914E+06    -35.8736E+06     2.92370E+06    -290.217E-03     580.634E-03    -290.417E-03     35.0951E-03    -290.498E-03     580.144E-03    -290.239E-03     33.3849E-03
             717     5.38655E-03     136.692E-03    -87.5741E+06    -122.211E+06    -18.2112E+06     2.83584E+06    -290.283E-03     580.696E-03    -290.413E-03     40.3313E-03    -290.616E-03     580.338E-03    -290.200E-03     37.9369E-03
             718     6.05998E-03     136.766E-03    -78.7999E+06    -94.9473E+06    -2.08195E+06     3.31882E+06    -290.401E-03     580.811E-03    -290.410E-03     45.6141E-03    -290.797E-03     580.596E-03    -290.168E-03     42.3576E-03
             719     6.73341E-03     136.847E-03    -70.6926E+06    -60.9618E+06     13.5172E+06     3.94027E+06    -290.504E-03     580.906E-03    -290.402E-03     50.8033E-03    -290.987E-03     580.882E-03    -290.144E-03     46.5373E-03
             720     7.40693E-03     136.936E-03    -62.3178E+06    -17.1468E+06     29.6181E+06     4.36707E+06    -290.477E-03     580.859E-03    -290.383E-03     55.9660E-03    -291.074E-03     581.089E-03    -290.119E-03     50.5581E-03
             721     8.08025E-03     137.032E-03    -54.5206E+06     26.9808E+06     44.7389E+06     4.51996E+06    -290.358E-03     580.709E-03    -290.351E-03     60.8761E-03    -291.088E-03     581.212E-03    -290.088E-03     54.1513E-03
             722     8.75448E-03     137.133E-03    -47.0481E+06     52.4370E+06     56.3429E+06     4.35266E+06    -290.352E-03     580.678E-03    -290.326E-03     65.4099E-03    -291.202E-03     581.384E-03    -290.052E-03     57.2201E-03
             723     9.42754E-03     137.242E-03    -39.4297E+06     58.3770E+06     66.7356E+06     4.06778E+06    -290.332E-03     580.656E-03    -290.324E-03     69.4887E-03    -291.286E-03     581.484E-03    -290.018E-03     59.7450E-03
             724     10.1022E-03     137.350E-03    -32.2886E+06     63.1378E+06     80.1694E+06     3.58880E+06    -290.233E-03     580.573E-03    -290.340E-03     72.4643E-03    -291.303E-03     581.520E-03    -289.984E-03     61.1253E-03
             725     10.7761E-03     137.464E-03    -25.5223E+06     68.6151E+06     91.9249E+06     2.29406E+06    -290.142E-03     580.492E-03    -290.350E-03     73.6994E-03    -291.322E-03     581.559E-03    -289.953E-03     60.7856E-03
             726     11.4485E-03     137.572E-03    -18.3476E+06     76.9173E+06     100.175E+06     1.48724E+06    -289.837E-03     580.178E-03    -290.341E-03     71.5343E-03    -291.063E-03     581.322E-03    -289.925E-03     57.5243E-03
             727     12.1242E-03     137.672E-03    -10.7698E+06     85.2853E+06     104.690E+06     1.72488E+06    -289.603E-03     579.919E-03    -290.315E-03     70.4586E-03    -290.952E-03     581.228E-03    -289.900E-03     54.5775E-03
             728     12.7964E-03     137.773E-03    -5.57324E+06     89.4328E+06     103.322E+06     879.382E+03    -289.562E-03     579.842E-03    -290.280E-03     56.7704E-03    -290.684E-03     580.962E-03    -289.885E-03     42.1252E-03
             729     673.221E-06     138.111E-03    -133.535E+06    -275.010E+06    -131.010E+06     1.88550E+06    -290.217E-03     580.543E-03    -290.325E-03     5.53044E-03    -290.297E-03     579.553E-03    -290.388E-03     5.46439E-03
             730     1.34645E-03     138.124E-03    -130.545E+06    -261.974E+06    -122.524E+06     703.545E+03    -290.317E-03     580.615E-03    -290.297E-03     9.99837E-03    -290.416E-03     579.675E-03    -290.341E-03     9.86492E-03
             731     2.01964E-03     138.146E-03    -125.889E+06    -242.586E+06    -110.532E+06     621.848E+03    -290.315E-03     580.642E-03    -290.327E-03     14.8781E-03    -290.441E-03     579.780E-03    -290.345E-03     14.6328E-03
             732     2.69271E-03     138.177E-03    -119.741E+06    -223.579E+06    -92.6533E+06     1.62652E+06    -290.304E-03     580.674E-03    -290.370E-03     19.6888E-03    -290.460E-03     579.880E-03    -290.336E-03     19.2276E-03
             733     3.36590E-03     138.217E-03    -113.243E+06    -202.723E+06    -73.8319E+06     2.23249E+06    -290.230E-03     580.630E-03    -290.400E-03     24.6848E-03    -290.423E-03     579.915E-03    -290.311E-03     23.9238E-03
             734     4.03958E-03     138.264E-03    -105.153E+06    -178.379E+06    -54.9871E+06     2.32879E+06    -290.217E-03     580.628E-03    -290.411E-03     29.9056E-03    -290.448E-03     580.012E-03    -290.275E-03     28.7354E-03
             735     4.71312E-03     138.321E-03    -95.9273E+06    -151.699E+06    -36.3554E+06     2.69455E+06    -290.310E-03     580.728E-03    -290.418E-03     35.0891E-03    -290.584E-03     580.229E-03    -290.241E-03     33.3870E-03
             736     5.38624E-03     138.386E-03    -87.8212E+06    -124.600E+06    -18.9451E+06     3.66207E+06    -290.387E-03     580.815E-03    -290.427E-03     40.2331E-03    -290.718E-03     580.446E-03    -290.214E-03     37.8476E-03
             737     6.05984E-03     138.459E-03    -80.0211E+06    -96.7294E+06    -2.69919E+06     4.01391E+06    -290.459E-03     580.892E-03    -290.433E-03     45.4851E-03    -290.857E-03     580.670E-03    -290.190E-03     42.2495E-03
             738     6.73327E-03     138.540E-03    -71.2658E+06    -62.8018E+06     13.2492E+06     3.94062E+06    -290.530E-03     580.958E-03    -290.428E-03     50.8837E-03    -291.013E-03     580.926E-03    -290.167E-03     46.6328E-03
             739     7.40649E-03     138.629E-03    -63.0763E+06    -20.1678E+06     28.9864E+06     4.54542E+06    -290.479E-03     580.887E-03    -290.408E-03     56.0298E-03    -291.076E-03     581.104E-03    -290.142E-03     50.6155E-03
             740     8.08078E-03     138.724E-03    -54.9714E+06     25.3615E+06     44.1973E+06     5.30337E+06    -290.346E-03     580.718E-03    -290.372E-03     60.8334E-03    -291.075E-03     581.214E-03    -290.108E-03     54.1228E-03
             741     8.75370E-03     138.828E-03    -47.0566E+06     51.8747E+06     56.0412E+06     5.52069E+06    -290.229E-03     580.568E-03    -290.339E-03     65.4354E-03    -291.077E-03     581.270E-03    -290.066E-03     57.2888E-03
             742     9.42828E-03     138.933E-03    -40.0122E+06     58.5571E+06     66.6765E+06     5.22071E+06    -290.237E-03     580.565E-03    -290.329E-03     69.5210E-03    -291.194E-03     581.395E-03    -290.022E-03     59.8033E-03
             743     10.1014E-03     139.045E-03    -32.8713E+06     65.0173E+06     80.7566E+06     4.28222E+06    -290.273E-03     580.616E-03    -290.343E-03     72.4032E-03    -291.351E-03     581.574E-03    -289.986E-03     61.0498E-03
             744     10.7748E-03     139.156E-03    -25.4879E+06     71.7046E+06     93.7594E+06     3.01602E+06    -290.113E-03     580.472E-03    -290.359E-03     73.5468E-03    -291.300E-03     581.551E-03    -289.957E-03     60.6311E-03
             745     11.4502E-03     139.266E-03    -18.2855E+06     78.7067E+06     101.886E+06     1.97831E+06    -290.030E-03     580.386E-03    -290.356E-03     71.4260E-03    -291.257E-03     581.532E-03    -289.934E-03     57.4611E-03
             746     12.1215E-03     139.366E-03    -12.3581E+06     85.6280E+06     104.179E+06     1.07533E+06    -289.852E-03     580.186E-03    -290.334E-03     71.0574E-03    -291.211E-03     581.504E-03    -289.920E-03     55.1964E-03
             747     12.7961E-03     139.468E-03    -5.95141E+06     90.6340E+06     103.340E+06     532.286E+03    -289.273E-03     579.568E-03    -290.296E-03     57.8613E-03    -290.408E-03     580.704E-03    -289.902E-03     43.2312E-03
             748     673.471E-06     139.804E-03    -133.852E+06    -278.403E+06    -132.788E+06    -258.433E+03    -290.252E-03     580.439E-03    -290.188E-03     5.20798E-03    -290.326E-03     579.435E-03    -290.254E-03     5.14043E-03
             749     1.34650E-03     139.818E-03    -130.655E+06    -262.615E+06    -124.073E+06     612.848E+03    -290.320E-03     580.569E-03    -290.249E-03     9.91789E-03    -290.416E-03     579.629E-03    -290.299E-03     9.76820E-03
             750     2.01970E-03     139.839E-03    -126.781E+06    -245.189E+06    -110.191E+06     1.44286E+06    -290.335E-03     580.645E-03    -290.310E-03     14.7872E-03    -290.462E-03     579.771E-03    -290.322E-03     14.5452E-03
             751     2.69289E-03     139.871E-03    -121.133E+06    -226.993E+06    -93.1847E+06     1.90517E+06    -290.244E-03     580.598E-03    -290.354E-03     19.8021E-03    -290.401E-03     579.790E-03    -290.315E-03     19.3584E-03
             752     3.36634E-03     139.909E-03    -113.472E+06    -204.828E+06    -74.1236E+06     2.32303E+06    -290.309E-03     580.695E-03    -290.385E-03     24.8099E-03    -290.499E-03     579.970E-03    -290.294E-03     24.0508E-03
             753     4.03954E-03     139.957E-03    -105.381E+06    -180.204E+06    -55.3426E+06     2.95172E+06    -290.393E-03     580.812E-03    -290.419E-03     29.7207E-03    -290.622E-03     580.188E-03    -290.281E-03     28.5753E-03
             754     4.71271E-03     140.014E-03    -97.9079E+06    -154.363E+06    -37.3755E+06     3.52838E+06    -290.370E-03     580.814E-03    -290.444E-03     34.8462E-03    -290.648E-03     580.305E-03    -290.265E-03     33.1651E-03
             755     5.38632E-03     140.079E-03    -89.5822E+06    -127.732E+06    -19.9837E+06     3.77151E+06    -290.415E-03     580.872E-03    -290.457E-03     40.2292E-03    -290.748E-03     580.491E-03    -290.242E-03     37.8528E-03
             756     6.05949E-03     140.152E-03    -80.4906E+06    -98.7102E+06    -3.43718E+06     4.38243E+06    -290.479E-03     580.939E-03    -290.460E-03     45.5845E-03    -290.875E-03     580.709E-03    -290.217E-03     42.3669E-03
             757     6.73300E-03     140.234E-03    -72.7793E+06    -64.0091E+06     12.4776E+06     4.73593E+06    -290.431E-03     580.879E-03    -290.449E-03     50.9113E-03    -290.918E-03     580.844E-03    -290.188E-03     46.6795E-03
             758     7.40701E-03     140.323E-03    -64.8665E+06    -23.2522E+06     27.9958E+06     4.95115E+06    -290.426E-03     580.848E-03    -290.421E-03     56.1062E-03    -291.026E-03     581.053E-03    -290.153E-03     50.7082E-03
             759     8.07960E-03     140.419E-03    -56.8964E+06     22.3690E+06     43.0264E+06     5.72996E+06    -290.357E-03     580.739E-03    -290.382E-03     60.9633E-03    -291.091E-03     581.225E-03    -290.116E-03     54.2531E-03
             760     8.75446E-03     140.519E-03    -49.0009E+06     50.8327E+06     55.1042E+06     6.09554E+06    -290.289E-03     580.639E-03    -290.350E-03     65.3028E-03    -291.144E-03     581.340E-03    -290.077E-03     57.1499E-03
             761     9.42766E-03     140.627E-03    -40.7874E+06     58.9536E+06     66.4664E+06     5.72681E+06    -290.288E-03     580.631E-03    -290.344E-03     69.2032E-03    -291.246E-03     581.461E-03    -290.038E-03     59.5103E-03
             762     10.1019E-03     140.738E-03    -32.9184E+06     67.2909E+06     81.6537E+06     4.62035E+06    -290.195E-03     580.554E-03    -290.359E-03     72.2510E-03    -291.274E-03     581.519E-03    -290.001E-03     60.9287E-03
             763     10.7761E-03     140.850E-03    -25.4065E+06     74.7656E+06     95.0927E+06     3.17361E+06    -290.144E-03     580.517E-03    -290.373E-03     73.5018E-03    -291.335E-03     581.608E-03    -289.969E-03     60.5946E-03
             764     11.4480E-03     140.959E-03    -18.5428E+06     79.6359E+06     102.168E+06     1.93225E+06    -289.973E-03     580.341E-03    -290.367E-03     71.6737E-03    -291.207E-03     581.495E-03    -289.945E-03     57.6806E-03
             765     12.1239E-03     141.061E-03    -11.6409E+06     87.1970E+06     105.035E+06     968.550E+03    -289.577E-03     579.914E-03    -290.337E-03     70.9590E-03    -290.938E-03     581.239E-03    -289.921E-03     55.0570E-03
             766     12.7975E-03     141.159E-03    -4.58978E+06     92.7354E+06     104.598E+06     804.162E+03    -289.213E-03     579.503E-03    -290.290E-03     57.2411E-03    -290.341E-03     580.641E-03    -289.895E-03     42.6023E-03
             767     672.831E-06     141.496E-03    -135.490E+06    -278.970E+06    -133.165E+06     807.784E+03    -290.416E-03     580.662E-03    -290.246E-03     5.24107E-03    -290.497E-03     579.658E-03    -290.311E-03     5.17898E-03
             768     1.34653E-03     141.510E-03    -133.546E+06    -264.845E+06    -124.997E+06     512.054E+03    -290.281E-03     580.618E-03    -290.337E-03     9.86651E-03    -290.387E-03     579.672E-03    -290.384E-03     9.73846E-03
             769     2.01947E-03     141.533E-03    -128.037E+06    -249.168E+06    -110.622E+06     1.36173E+06    -290.239E-03     580.590E-03    -290.351E-03     14.5591E-03    -290.366E-03     579.699E-03    -290.357E-03     14.3080E-03
             770     2.69306E-03     141.562E-03    -121.352E+06    -229.649E+06    -93.0819E+06     2.36386E+06    -290.266E-03     580.640E-03    -290.374E-03     19.4087E-03    -290.420E-03     579.818E-03    -290.330E-03     18.9881E-03
             771     3.36628E-03     141.603E-03    -114.010E+06    -207.744E+06    -74.4204E+06     2.99438E+06    -290.380E-03     580.791E-03    -290.411E-03     24.4975E-03    -290.568E-03     580.052E-03    -290.316E-03     23.7897E-03
             772     4.03923E-03     141.650E-03    -106.273E+06    -183.061E+06    -55.7729E+06     3.50399E+06    -290.439E-03     580.890E-03    -290.451E-03     29.6961E-03    -290.668E-03     580.253E-03    -290.310E-03     28.5562E-03
             773     4.71263E-03     141.707E-03    -97.5698E+06    -157.099E+06    -37.2162E+06     4.02844E+06    -290.451E-03     580.932E-03    -290.481E-03     34.9489E-03    -290.724E-03     580.409E-03    -290.298E-03     33.2676E-03
             774     5.38592E-03     141.772E-03    -89.2181E+06    -130.547E+06    -19.7129E+06     4.86760E+06    -290.423E-03     580.918E-03    -290.496E-03     40.1690E-03    -290.750E-03     580.522E-03    -290.276E-03     37.8207E-03
             775     6.05961E-03     141.846E-03    -81.5437E+06    -101.148E+06    -3.74649E+06     5.17923E+06    -290.388E-03     580.877E-03    -290.489E-03     45.4801E-03    -290.785E-03     580.636E-03    -290.243E-03     42.2883E-03
             776     6.73305E-03     141.926E-03    -72.7438E+06    -66.5685E+06     12.1918E+06     5.62580E+06    -290.403E-03     580.871E-03    -290.468E-03     50.8588E-03    -290.885E-03     580.823E-03    -290.205E-03     46.6560E-03
             777     7.40621E-03     142.016E-03    -64.5356E+06    -24.5395E+06     28.5953E+06     5.83569E+06    -290.324E-03     580.759E-03    -290.435E-03     56.0583E-03    -290.920E-03     580.956E-03    -290.163E-03     50.6868E-03
             778     8.08110E-03     142.111E-03    -56.1373E+06     18.6233E+06     43.7698E+06     6.01723E+06    -290.395E-03     580.790E-03    -290.395E-03     60.8905E-03    -291.120E-03     581.254E-03    -290.122E-03     54.2018E-03
             779     8.75348E-03     142.214E-03    -48.2263E+06     49.1679E+06     55.8969E+06     6.69610E+06    -290.524E-03     580.893E-03    -290.370E-03     65.2620E-03    -291.373E-03     581.584E-03    -290.091E-03     57.1109E-03
             780     9.42743E-03     142.320E-03    -40.8318E+06     62.2542E+06     67.1909E+06     5.39316E+06    -290.416E-03     580.785E-03    -290.370E-03     69.1479E-03    -291.381E-03     581.632E-03    -290.065E-03     59.4196E-03
             781     10.1011E-03     142.431E-03    -32.7744E+06     68.0699E+06     81.5666E+06     4.02040E+06    -290.233E-03     580.622E-03    -290.389E-03     71.9690E-03    -291.311E-03     581.589E-03    -290.033E-03     60.6312E-03
             782     10.7744E-03     142.543E-03    -25.1857E+06     75.4214E+06     95.0661E+06     4.13262E+06    -289.938E-03     580.335E-03    -290.398E-03     73.2489E-03    -291.128E-03     581.428E-03    -289.995E-03     60.3584E-03
             783     11.4499E-03     142.653E-03    -18.3473E+06     83.8087E+06     103.796E+06     3.11594E+06    -289.684E-03     580.064E-03    -290.380E-03     71.6725E-03    -290.925E-03     581.236E-03    -289.955E-03     57.7056E-03
             784     12.1219E-03     142.753E-03    -11.8353E+06     89.7584E+06     106.720E+06     1.21297E+06    -289.587E-03     579.931E-03    -290.344E-03     70.9723E-03    -290.952E-03     581.264E-03    -289.923E-03     55.1092E-03
             785     12.7956E-03     142.853E-03    -6.06327E+06     92.9003E+06     105.007E+06     379.889E+03    -289.373E-03     579.674E-03    -290.301E-03     57.2306E-03    -290.510E-03     580.814E-03    -289.902E-03     42.5652E-03
             786     673.514E-06     143.190E-03    -135.612E+06    -282.010E+06    -134.961E+06     252.640E+03    -290.531E-03     580.846E-03    -290.315E-03     5.49922E-03    -290.606E-03     579.829E-03    -290.384E-03     5.41599E-03
             787     1.34585E-03     143.204E-03    -132.509E+06    -266.643E+06    -124.528E+06     1.35860E+06    -290.399E-03     580.834E-03    -290.435E-03     9.77599E-03    -290.498E-03     579.877E-03    -290.479E-03     9.66236E-03
             788     2.01968E-03     143.225E-03    -128.355E+06    -252.600E+06    -110.323E+06     1.58088E+06    -290.308E-03     580.760E-03    -290.452E-03     14.4439E-03    -290.432E-03     579.852E-03    -290.452E-03     14.2093E-03
             789     2.69246E-03     143.257E-03    -121.987E+06    -233.007E+06    -93.7625E+06     2.18543E+06    -290.392E-03     580.862E-03    -290.470E-03     19.3577E-03    -290.544E-03     580.025E-03    -290.424E-03     18.9364E-03
             790     3.36563E-03     143.295E-03    -114.363E+06    -210.519E+06    -75.1642E+06     2.73951E+06    -290.321E-03     580.816E-03    -290.495E-03     24.4117E-03    -290.505E-03     580.065E-03    -290.400E-03     23.6989E-03
             791     4.03942E-03     143.344E-03    -105.696E+06    -186.518E+06    -55.8786E+06     3.32436E+06    -290.307E-03     580.814E-03    -290.507E-03     29.5497E-03    -290.527E-03     580.159E-03    -290.363E-03     28.4238E-03
             792     4.71262E-03     143.400E-03    -97.4778E+06    -160.877E+06    -37.2307E+06     4.35361E+06    -290.427E-03     580.946E-03    -290.519E-03     34.8479E-03    -290.693E-03     580.404E-03    -290.331E-03     33.1934E-03
             793     5.38578E-03     143.466E-03    -88.8223E+06    -133.452E+06    -19.2641E+06     4.74397E+06    -290.446E-03     580.976E-03    -290.529E-03     40.1905E-03    -290.768E-03     580.564E-03    -290.303E-03     37.8396E-03
             794     6.05912E-03     143.538E-03    -79.3071E+06    -103.317E+06    -2.34232E+06     5.04647E+06    -290.422E-03     580.945E-03    -290.523E-03     45.5134E-03    -290.807E-03     580.688E-03    -290.270E-03     42.3084E-03
             795     6.73282E-03     143.621E-03    -70.6880E+06    -70.4314E+06     13.1567E+06     5.76315E+06    -290.444E-03     580.946E-03    -290.502E-03     50.7003E-03    -290.911E-03     580.874E-03    -290.232E-03     46.4938E-03
             796     7.40686E-03     143.708E-03    -61.6749E+06    -26.7845E+06     29.6845E+06     6.76282E+06    -290.478E-03     580.951E-03    -290.472E-03     55.5943E-03    -291.057E-03     581.129E-03    -290.196E-03     50.2424E-03
             797     8.07945E-03     143.805E-03    -54.1850E+06     15.1403E+06     44.1862E+06     7.79749E+06    -290.399E-03     580.835E-03    -290.437E-03     60.4278E-03    -291.106E-03     581.276E-03    -290.159E-03     53.7871E-03
             798     8.75409E-03     143.907E-03    -47.0790E+06     47.9400E+06     56.3083E+06     7.87311E+06    -290.378E-03     580.779E-03    -290.401E-03     65.0299E-03    -291.217E-03     581.458E-03    -290.121E-03     56.9320E-03
             799     9.42743E-03     144.013E-03    -39.9228E+06     66.6275E+06     68.5531E+06     6.93885E+06    -290.482E-03     580.875E-03    -290.393E-03     69.0995E-03    -291.451E-03     581.740E-03    -290.089E-03     59.3992E-03
             800     10.1008E-03     144.125E-03    -33.8106E+06     70.1649E+06     81.8568E+06     5.18365E+06    -290.309E-03     580.726E-03    -290.417E-03     72.1487E-03    -291.399E-03     581.707E-03    -290.060E-03     60.8059E-03
             801     10.7751E-03     144.235E-03    -26.4052E+06     75.4560E+06     94.9666E+06     3.58850E+06    -289.978E-03     580.406E-03    -290.429E-03     73.2630E-03    -291.174E-03     581.501E-03    -290.025E-03     60.3656E-03
             802     11.4481E-03     144.345E-03    -17.9850E+06     86.0983E+06     105.324E+06     3.21596E+06    -289.689E-03     580.103E-03    -290.414E-03     71.1756E-03    -290.930E-03     581.280E-03    -289.986E-03     57.2074E-03
             803     12.1238E-03     144.447E-03    -10.7039E+06     93.4624E+06     109.246E+06     2.53890E+06    -289.416E-03     579.791E-03    -290.375E-03     70.3519E-03    -290.779E-03     581.132E-03    -289.949E-03     54.5151E-03
             804     12.7976E-03     144.546E-03    -5.24764E+06      94.515E+06     106.460E+06     841.882E+03    -289.120E-03     579.439E-03    -290.319E-03     56.9196E-03    -290.254E-03     580.582E-03    -289.916E-03     42.2645E-03
             805     672.751E-06     144.884E-03    -136.897E+06    -284.309E+06    -134.644E+06     243.792E+03    -290.548E-03     581.039E-03    -290.491E-03     5.42327E-03    -290.626E-03     580.012E-03    -290.553E-03     5.33717E-03
             806     1.34648E-03     144.897E-03    -134.421E+06    -270.711E+06    -127.226E+06     1.04562E+06    -290.458E-03     580.976E-03    -290.519E-03     9.72262E-03    -290.556E-03     580.006E-03    -290.567E-03     9.61017E-03
             807     2.01886E-03     144.919E-03    -129.042E+06    -254.837E+06    -111.741E+06     1.84256E+06    -290.532E-03     581.082E-03    -290.550E-03     14.5419E-03    -290.653E-03     580.165E-03    -290.552E-03     14.3033E-03
             808     2.69244E-03     144.950E-03    -122.657E+06    -235.519E+06    -94.7032E+06     1.93032E+06    -290.427E-03     581.008E-03    -290.581E-03     19.3759E-03    -290.577E-03     580.161E-03    -290.535E-03     18.9431E-03
             809     3.36567E-03     144.990E-03    -115.142E+06    -213.221E+06    -76.2464E+06     2.26331E+06    -290.356E-03     580.946E-03    -290.590E-03     24.2797E-03    -290.539E-03     580.184E-03    -290.495E-03     23.5538E-03
             810     4.03862E-03     145.036E-03    -107.339E+06    -189.863E+06    -56.8644E+06     2.92901E+06    -290.325E-03     580.919E-03    -290.594E-03     29.4415E-03    -290.547E-03     580.251E-03    -290.448E-03     28.3151E-03
             811     4.71214E-03     145.095E-03    -98.3470E+06    -164.056E+06    -37.8455E+06     3.26498E+06    -290.334E-03     580.924E-03    -290.590E-03     34.6162E-03    -290.599E-03     580.368E-03    -290.399E-03     32.9531E-03
             812     5.38588E-03     145.158E-03    -88.9514E+06    -136.019E+06    -20.1406E+06     3.82804E+06    -290.431E-03     581.014E-03    -290.582E-03     39.7583E-03    -290.748E-03     580.590E-03    -290.357E-03     37.4017E-03
             813     6.05931E-03     145.233E-03    -80.5658E+06    -106.857E+06    -3.93501E+06     4.63434E+06    -290.529E-03     581.105E-03    -290.576E-03     45.0364E-03    -290.912E-03     580.834E-03    -290.324E-03     41.8326E-03
             814     6.73254E-03     145.313E-03    -72.0825E+06    -74.1533E+06     12.0070E+06     5.56138E+06    -290.600E-03     581.167E-03    -290.567E-03     50.2844E-03    -291.066E-03     581.079E-03    -290.295E-03     46.0863E-03
             815     7.40551E-03     145.403E-03    -64.7277E+06    -33.4452E+06     27.1072E+06     7.52898E+06    -290.594E-03     581.140E-03    -290.545E-03     55.3073E-03    -291.173E-03     581.291E-03    -290.267E-03     49.9707E-03
             816     8.07971E-03     145.498E-03    -56.9141E+06     11.3424E+06     41.5208E+06     9.24656E+06    -290.449E-03     580.956E-03    -290.507E-03     60.0034E-03    -291.159E-03     581.384E-03    -290.233E-03     53.3807E-03
             817     8.75296E-03     145.600E-03    -48.9430E+06     49.0112E+06     54.7497E+06     8.84038E+06    -290.270E-03     580.733E-03    -290.463E-03     64.4732E-03    -291.115E-03     581.420E-03    -290.190E-03     56.4002E-03
             818     9.42690E-03     145.708E-03    -41.3317E+06     67.9708E+06     67.6739E+06     7.54547E+06    -290.159E-03     580.599E-03    -290.440E-03     68.4748E-03    -291.130E-03     581.469E-03    -290.140E-03     58.8113E-03
             819     10.1009E-03     145.817E-03    -32.9272E+06     73.5101E+06     83.4443E+06     6.44775E+06    -290.160E-03     580.613E-03    -290.453E-03     71.5305E-03    -291.248E-03     581.603E-03    -290.095E-03     60.2222E-03
             820     10.7742E-03     145.930E-03    -25.6579E+06     79.2325E+06     97.7984E+06     4.63590E+06    -290.132E-03     580.601E-03    -290.470E-03     72.9799E-03    -291.331E-03     581.707E-03    -290.059E-03     60.0948E-03
             821     11.4483E-03     146.039E-03    -19.3900E+06     87.0476E+06     106.370E+06     2.63269E+06    -289.685E-03     580.141E-03    -290.456E-03     71.2697E-03    -290.935E-03     581.324E-03    -290.023E-03     57.3063E-03
             822     12.1207E-03     146.139E-03    -12.5254E+06     94.1243E+06     109.087E+06     1.98411E+06    -288.966E-03     579.365E-03    -290.399E-03     71.0745E-03    -290.348E-03     580.720E-03    -289.971E-03     55.2261E-03
             823     12.7947E-03     146.240E-03    -5.10063E+06     97.6604E+06     108.123E+06     1.59091E+06    -288.556E-03     578.872E-03    -290.316E-03     57.8856E-03    -289.706E-03     580.037E-03    -289.909E-03     43.2542E-03
             824     672.921E-06     146.576E-03    -136.954E+06    -286.991E+06    -136.068E+06     768.484E+03    -290.764E-03     581.406E-03    -290.642E-03     4.90300E-03    -290.836E-03     580.369E-03    -290.708E-03     4.84379E-03
             825     1.34580E-03     146.591E-03    -134.697E+06    -273.614E+06    -126.988E+06     1.31150E+06    -290.507E-03     581.187E-03    -290.680E-03     9.61434E-03    -290.603E-03     580.202E-03    -290.723E-03     9.50934E-03
             826     2.01930E-03     146.613E-03    -129.889E+06    -257.068E+06    -113.340E+06     1.30549E+06    -290.522E-03     581.178E-03    -290.656E-03     14.4693E-03    -290.643E-03     580.253E-03    -290.661E-03     14.2457E-03
             827     2.69180E-03     146.644E-03    -123.395E+06    -237.576E+06    -95.6447E+06     1.70807E+06    -290.496E-03     581.163E-03    -290.667E-03     19.4089E-03    -290.646E-03     580.308E-03    -290.622E-03     18.9631E-03
             828     3.36506E-03     146.682E-03    -116.559E+06    -215.984E+06    -77.1945E+06     2.18032E+06    -290.492E-03     581.172E-03    -290.680E-03     24.3762E-03    -290.676E-03     580.400E-03    -290.584E-03     23.6370E-03
             829     4.03856E-03     146.731E-03    -108.174E+06    -191.950E+06    -57.9319E+06     2.42145E+06    -290.552E-03     581.250E-03    -290.697E-03     29.3246E-03    -290.774E-03     580.574E-03    -290.552E-03     28.1860E-03
             830     4.71181E-03     146.787E-03    -99.6303E+06    -166.760E+06    -39.6861E+06     3.04184E+06    -290.539E-03     581.247E-03    -290.709E-03     34.2121E-03    -290.803E-03     580.682E-03    -290.521E-03     32.5438E-03
             831     5.38481E-03     146.853E-03    -91.5344E+06    -140.089E+06    -22.8577E+06     4.21259E+06    -290.535E-03     581.241E-03    -290.707E-03     39.2325E-03    -290.853E-03     580.804E-03    -290.485E-03     36.8897E-03
             832     6.05814E-03     146.925E-03    -83.6686E+06    -110.228E+06    -6.49519E+06     5.13962E+06    -290.601E-03     581.300E-03    -290.699E-03     44.3994E-03    -290.989E-03     581.018E-03    -290.450E-03     41.2297E-03
             833     6.73164E-03     147.008E-03    -76.0532E+06    -78.5534E+06     8.99332E+06     6.03658E+06    -290.613E-03     581.299E-03    -290.686E-03     49.7311E-03    -291.086E-03     581.197E-03    -290.417E-03     45.5538E-03
             834     7.40535E-03     147.096E-03    -67.4569E+06    -40.9611E+06     24.2514E+06     7.39511E+06    -290.565E-03     581.223E-03    -290.658E-03     54.8396E-03    -291.141E-03     581.344E-03    -290.379E-03     49.5032E-03
             835     8.07845E-03     147.192E-03    -58.5846E+06     7.02032E+06     39.8776E+06     8.74904E+06    -290.517E-03     581.130E-03    -290.614E-03     59.5578E-03    -291.225E-03     581.540E-03    -290.339E-03     52.9274E-03
             836     8.75200E-03     147.294E-03    -49.9554E+06     50.2613E+06     54.1941E+06     8.77522E+06    -290.271E-03     580.834E-03    -290.563E-03     64.0773E-03    -291.122E-03     581.528E-03    -290.292E-03     55.9843E-03
             837     9.42596E-03     147.400E-03    -42.0852E+06     69.8174E+06     66.9534E+06     7.46349E+06    -289.982E-03     580.508E-03    -290.526E-03     68.1035E-03    -290.957E-03     581.387E-03    -290.231E-03     58.4332E-03
             838     10.0999E-03     147.511E-03    -34.7572E+06     75.1710E+06     82.3774E+06     5.99585E+06    -289.841E-03     580.359E-03    -290.518E-03     71.2337E-03    -290.936E-03     581.359E-03    -290.165E-03     59.9366E-03
             839     10.7739E-03     147.622E-03    -26.6890E+06     81.3040E+06     98.0256E+06     5.42572E+06    -289.544E-03     580.052E-03    -290.508E-03     73.0326E-03    -290.751E-03     581.168E-03    -290.097E-03     60.1991E-03
             840     11.4477E-03     147.732E-03    -19.0834E+06     90.1571E+06     108.801E+06     4.81619E+06    -289.013E-03     579.476E-03    -290.463E-03     71.6167E-03    -290.271E-03     580.670E-03    -290.022E-03     57.7438E-03
             841     12.1236E-03     147.831E-03    -12.8878E+06     97.2448E+06     112.135E+06     2.50716E+06    -288.659E-03     579.039E-03    -290.380E-03     71.5722E-03    -290.052E-03     580.406E-03    -289.942E-03     55.8030E-03
             842     12.7990E-03     147.930E-03    -6.76909E+06     100.161E+06     109.634E+06     578.100E+03    -288.653E-03     578.941E-03    -290.288E-03     58.0159E-03    -289.817E-03     580.118E-03    -289.875E-03     43.3797E-03
             843     672.842E-06     148.273E-03    -138.456E+06    -288.755E+06    -135.394E+06    -274.732E+03    -290.681E-03     581.633E-03    -290.952E-03     4.90376E-03    -290.759E-03     580.588E-03    -291.010E-03     4.80491E-03
             844     1.34555E-03     148.284E-03    -134.545E+06    -276.909E+06    -127.725E+06     634.238E+03    -290.741E-03     581.557E-03    -290.816E-03     9.70643E-03    -290.830E-03     580.556E-03    -290.858E-03     9.55204E-03
             845     2.01848E-03     148.307E-03    -130.489E+06    -259.526E+06    -114.537E+06     1.79623E+06    -290.579E-03     581.377E-03    -290.798E-03     14.3420E-03    -290.697E-03     580.443E-03    -290.805E-03     14.0975E-03
             846     2.69217E-03     148.337E-03    -124.778E+06    -240.457E+06    -96.8828E+06     2.25367E+06    -290.637E-03     581.436E-03    -290.799E-03     18.9897E-03    -290.788E-03     580.570E-03    -290.753E-03     18.5725E-03
             847     3.36512E-03     148.377E-03    -117.053E+06    -217.711E+06    -77.7025E+06     2.37878E+06    -290.748E-03     581.575E-03    -290.827E-03     23.8191E-03    -290.931E-03     580.795E-03    -290.730E-03     23.1141E-03
             848     4.03783E-03     148.425E-03    -109.151E+06    -194.959E+06     -59.273E+06     3.06546E+06    -290.762E-03     581.621E-03    -290.859E-03     28.8010E-03    -290.981E-03     580.933E-03    -290.715E-03     27.6835E-03
             849     4.71059E-03     148.482E-03    -101.437E+06    -170.257E+06    -41.2437E+06     4.02580E+06    -290.747E-03     581.626E-03    -290.880E-03     33.9042E-03    -291.013E-03     581.048E-03    -290.692E-03     32.2403E-03
             850     5.38404E-03     148.546E-03    -93.0631E+06    -143.293E+06    -23.8189E+06     4.39437E+06    -290.744E-03     581.630E-03    -290.886E-03     39.1062E-03    -291.065E-03     581.180E-03    -290.662E-03     36.7640E-03
             851     6.05725E-03     148.620E-03    -84.0884E+06    -114.504E+06    -7.40090E+06     5.27744E+06    -290.745E-03     581.624E-03    -290.879E-03     44.2507E-03    -291.128E-03     581.323E-03    -290.628E-03     41.0760E-03
             852     6.73035E-03     148.701E-03    -75.5891E+06    -82.8071E+06     8.19311E+06     6.49946E+06    -290.667E-03     581.525E-03    -290.858E-03     49.3149E-03    -291.130E-03     581.401E-03    -290.587E-03     45.1334E-03
             853     7.40374E-03     148.790E-03    -67.1799E+06    -45.6183E+06     23.4596E+06     7.24195E+06    -290.566E-03     581.385E-03    -290.819E-03     54.3920E-03    -291.132E-03     581.482E-03    -290.538E-03     49.0583E-03
             854     8.07738E-03     148.886E-03    -58.7699E+06     2.03343E+06     39.3938E+06     8.01811E+06    -290.358E-03     581.116E-03    -290.758E-03     59.2182E-03    -291.059E-03     581.501E-03    -290.479E-03     52.5662E-03
             855     8.75127E-03     148.987E-03    -51.1267E+06     49.4930E+06     53.8994E+06     8.54759E+06    -290.102E-03     580.784E-03    -290.682E-03     63.7037E-03    -290.956E-03     581.475E-03    -290.410E-03     55.5957E-03
             856     9.42489E-03     149.094E-03    -43.3364E+06     71.7520E+06     66.1421E+06     8.12309E+06    -289.878E-03     580.500E-03    -290.622E-03     67.9122E-03    -290.860E-03     581.391E-03    -290.332E-03     58.2575E-03
             857     10.0989E-03     149.203E-03    -35.6152E+06     77.5114E+06     81.6539E+06     6.90599E+06    -289.459E-03     580.051E-03    -290.592E-03     71.1456E-03    -290.560E-03     581.063E-03    -290.244E-03     59.8732E-03
             858     10.7735E-03     149.315E-03    -28.3929E+06     83.5983E+06     97.4981E+06     4.75533E+06    -288.928E-03     579.478E-03    -290.549E-03     72.5068E-03    -290.145E-03     580.607E-03    -290.142E-03     59.6364E-03
             859     11.4489E-03     149.423E-03    -19.9229E+06     90.7329E+06     108.859E+06     3.27899E+06    -288.700E-03     579.181E-03    -290.481E-03     70.4064E-03    -289.958E-03     580.375E-03    -290.040E-03     56.4283E-03
             860     12.1226E-03     149.522E-03    -11.1872E+06     101.010E+06     115.181E+06     3.41616E+06    -288.560E-03     578.957E-03    -290.397E-03     69.6483E-03    -289.937E-03     580.319E-03    -289.952E-03     53.8779E-03
             861     12.7953E-03     149.624E-03    -5.64426E+06     104.429E+06     112.564E+06     1.52169E+06    -287.785E-03     578.067E-03    -290.282E-03     57.0913E-03    -288.941E-03     579.247E-03    -289.863E-03     42.5358E-03
             862     672.828E-06     149.966E-03    -138.794E+06    -288.986E+06    -137.032E+06     535.237E+03    -290.812E-03     581.852E-03    -291.040E-03     5.09575E-03    -290.889E-03     580.809E-03    -291.105E-03     4.98630E-03
             863     1.34582E-03     149.980E-03    -136.521E+06    -280.144E+06    -128.087E+06     443.123E+03    -291.032E-03     582.005E-03    -290.972E-03     9.39541E-03    -291.127E-03     580.991E-03    -291.009E-03     9.26503E-03
             864     2.01846E-03     150.001E-03    -131.632E+06    -263.880E+06    -115.121E+06     1.45230E+06    -291.033E-03     582.062E-03    -291.029E-03     13.8829E-03    -291.150E-03     581.109E-03    -291.031E-03     13.6398E-03
             865     2.69086E-03     150.032E-03    -125.126E+06    -242.798E+06    -97.8102E+06      2.3754E+06    -290.964E-03     582.034E-03    -291.070E-03     18.5366E-03    -291.111E-03     581.159E-03    -291.026E-03     18.1160E-03
             866     3.36359E-03     150.072E-03    -117.977E+06    -220.827E+06    -78.6663E+06     3.24383E+06    -290.930E-03     582.030E-03    -291.100E-03     23.3409E-03    -291.112E-03     581.237E-03    -291.002E-03     22.6300E-03
             867     4.03669E-03     150.120E-03    -110.417E+06    -198.030E+06    -59.5232E+06     3.72354E+06    -290.849E-03     581.964E-03    -291.116E-03     28.3230E-03    -291.070E-03     581.263E-03    -290.966E-03     27.2093E-03
             868     4.71015E-03     150.176E-03    -101.431E+06    -173.141E+06    -41.1670E+06     3.72389E+06    -290.868E-03     581.984E-03    -291.116E-03     33.4364E-03    -291.129E-03     581.390E-03    -290.924E-03     31.7775E-03
             869     5.38282E-03     150.241E-03    -92.6702E+06    -146.408E+06    -23.9026E+06     4.56323E+06    -290.936E-03     582.049E-03    -291.113E-03     38.5226E-03    -291.248E-03     581.582E-03    -290.886E-03     36.1845E-03
             870     6.05582E-03     150.315E-03    -84.5836E+06    -118.552E+06    -7.75018E+06     5.37301E+06    -290.835E-03     581.935E-03    -291.100E-03     43.6727E-03    -291.212E-03     581.614E-03    -290.844E-03     40.4860E-03
             871     6.72922E-03     150.396E-03    -75.4342E+06    -86.9789E+06     7.95875E+06     6.01876E+06    -290.740E-03     581.807E-03    -291.067E-03     48.9256E-03    -291.195E-03     581.662E-03    -290.791E-03     44.7404E-03
             872     7.40241E-03     150.485E-03    -66.9962E+06    -49.5195E+06     23.1674E+06     6.92319E+06    -290.519E-03     581.529E-03    -291.011E-03     54.0283E-03    -291.076E-03     581.606E-03    -290.726E-03     48.6865E-03
             873     8.07610E-03     150.579E-03    -58.8919E+06    -2.98628E+06     38.8894E+06     7.95566E+06    -290.150E-03     581.077E-03    -290.926E-03     58.8067E-03    -290.842E-03     581.436E-03    -290.642E-03     52.1515E-03
             874     8.74976E-03     150.681E-03    -50.4841E+06     46.7305E+06     54.6564E+06     8.92356E+06    -289.868E-03     580.691E-03    -290.823E-03     63.3545E-03    -290.714E-03     581.364E-03    -290.544E-03     55.2702E-03
             875     9.42407E-03     150.786E-03    -42.7341E+06     72.4392E+06     67.0812E+06     8.75980E+06    -289.580E-03     580.312E-03    -290.732E-03     67.4223E-03    -290.560E-03     581.202E-03    -290.439E-03     57.7596E-03
             876     10.0985E-03     150.896E-03    -34.8657E+06     80.3050E+06     82.0014E+06     7.38131E+06    -289.143E-03     579.813E-03    -290.670E-03     70.5451E-03    -290.243E-03     580.836E-03    -290.325E-03     59.2406E-03
             877     10.7727E-03     151.006E-03    -26.8381E+06     88.1669E+06     99.1155E+06     5.70059E+06    -288.671E-03     579.280E-03    -290.609E-03     72.0781E-03    -289.885E-03     580.424E-03    -290.202E-03     59.2313E-03
             878     11.4467E-03     151.114E-03    -19.9441E+06     93.5327E+06     109.852E+06     3.77868E+06    -288.322E-03     578.842E-03    -290.520E-03     71.1895E-03    -289.589E-03     580.051E-03    -290.077E-03     57.2773E-03
             879     12.1210E-03     151.216E-03    -12.9702E+06     101.394E+06     114.412E+06     2.03911E+06    -287.516E-03     577.905E-03    -290.389E-03     71.7060E-03    -288.926E-03     579.297E-03    -289.945E-03     55.8905E-03
             880     12.7981E-03     151.312E-03    -5.04110E+06     107.141E+06     113.720E+06     1.22773E+06    -286.518E-03     576.731E-03    -290.213E-03     58.9223E-03    -287.699E-03     577.945E-03    -289.792E-03     44.3377E-03
             881     672.653E-06     151.662E-03    -140.574E+06    -291.257E+06    -138.620E+06     219.886E+03    -291.368E-03     582.625E-03    -291.257E-03     4.84463E-03    -291.449E-03     581.575E-03    -291.324E-03     4.75787E-03
             882     1.34490E-03     151.675E-03    -137.287E+06    -282.564E+06    -128.854E+06     1.07427E+06    -291.422E-03     582.786E-03    -291.364E-03     8.94231E-03    -291.516E-03     581.763E-03    -291.399E-03     8.80887E-03
             883     2.01743E-03     151.698E-03    -132.541E+06    -266.777E+06    -115.003E+06     1.39681E+06    -291.352E-03     582.769E-03    -291.417E-03     13.4592E-03    -291.469E-03     581.802E-03    -291.413E-03     13.2233E-03
             884     2.69002E-03     151.728E-03    -126.332E+06    -246.206E+06    -98.3488E+06     1.99829E+06    -291.239E-03     582.676E-03    -291.436E-03     18.3961E-03    -291.387E-03     581.786E-03    -291.388E-03     17.9524E-03
             885     3.36291E-03     151.767E-03    -118.813E+06    -224.486E+06    -79.2532E+06     2.67172E+06    -291.161E-03     582.605E-03    -291.444E-03     23.2263E-03    -291.341E-03     581.797E-03    -291.343E-03     22.4941E-03
             886     4.03556E-03     151.816E-03    -110.136E+06    -200.640E+06    -59.7254E+06     3.24503E+06    -291.201E-03     582.652E-03    -291.451E-03     27.8069E-03    -291.417E-03     581.938E-03    -291.299E-03     26.6749E-03
             887     4.70803E-03     151.871E-03    -101.724E+06    -175.651E+06    -41.2604E+06     3.91258E+06    -291.146E-03     582.599E-03    -291.452E-03     32.6499E-03    -291.405E-03     581.993E-03    -291.257E-03     30.9897E-03
             888     5.38117E-03     151.937E-03    -93.1651E+06    -150.124E+06    -24.0449E+06     4.24217E+06    -290.976E-03     582.409E-03    -291.433E-03     37.6909E-03    -291.285E-03     581.924E-03    -291.201E-03     35.3417E-03
             889     6.05424E-03     152.009E-03    -83.9567E+06    -121.956E+06    -7.41391E+06     4.87989E+06    -290.858E-03     582.250E-03    -291.392E-03     42.8939E-03    -291.227E-03     581.909E-03    -291.130E-03     39.6957E-03
             890     6.72734E-03     152.091E-03    -75.5965E+06    -90.6464E+06     7.98945E+06     5.68331E+06    -290.654E-03     581.984E-03    -291.330E-03     48.1105E-03    -291.103E-03     581.819E-03    -291.049E-03     43.9162E-03
             891     7.40091E-03     152.179E-03    -66.9677E+06    -54.0433E+06     23.1848E+06     6.56656E+06    -290.329E-03     581.571E-03    -291.242E-03     53.1468E-03    -290.877E-03     581.622E-03    -290.950E-03     47.8066E-03
             892     8.07450E-03     152.273E-03    -58.6135E+06    -8.14505E+06     38.9949E+06     7.89130E+06    -289.967E-03     581.093E-03    -291.126E-03     58.0768E-03    -290.646E-03     581.422E-03    -290.834E-03     51.4367E-03
             893     8.74879E-03     152.373E-03    -51.0410E+06     42.2885E+06     54.8008E+06     9.35412E+06    -289.478E-03     580.466E-03    -290.988E-03     62.7152E-03    -290.316E-03     581.114E-03    -290.702E-03     54.6488E-03
             894     9.42275E-03     152.480E-03    -43.4236E+06     73.3489E+06     67.5829E+06     9.50727E+06    -288.987E-03     579.834E-03    -290.847E-03     67.0710E-03    -289.969E-03     580.726E-03    -290.552E-03     57.4564E-03
             895     10.0970E-03     152.587E-03    -35.9947E+06     84.3326E+06     82.0760E+06     7.49729E+06    -288.613E-03     579.348E-03    -290.734E-03     70.7133E-03    -289.725E-03     580.392E-03    -290.394E-03     59.4495E-03
             896     10.7722E-03     152.697E-03    -28.1016E+06     90.2559E+06     98.4808E+06     5.51415E+06    -288.205E-03     578.841E-03    -290.637E-03     72.6158E-03    -289.430E-03     580.001E-03    -290.234E-03     59.7987E-03
             897     11.4480E-03     152.805E-03    -19.7486E+06     96.6751E+06     110.989E+06     4.37126E+06    -287.174E-03     577.677E-03    -290.503E-03     71.3973E-03    -288.452E-03     578.906E-03    -290.060E-03     57.4968E-03
             898     12.1250E-03     152.904E-03    -12.4044E+06     105.612E+06     117.510E+06     2.55365E+06    -286.249E-03     576.564E-03    -290.315E-03     71.1720E-03    -287.670E-03     577.975E-03    -289.863E-03     55.3047E-03
             899     12.8002E-03     152.999E-03    -6.65520E+06     109.725E+06     115.327E+06     1.23017E+06    -286.416E-03     576.523E-03    -290.107E-03     57.8166E-03    -287.605E-03     577.743E-03    -289.680E-03     43.2274E-03
             900     672.102E-06     153.360E-03    -142.297E+06    -294.445E+06    -139.080E+06     1.11503E+06    -291.984E-03     583.823E-03    -291.839E-03     5.19107E-03    -292.068E-03     582.760E-03    -291.901E-03     5.11680E-03
             901     1.34425E-03     153.373E-03    -138.743E+06    -284.878E+06    -130.057E+06     1.07193E+06    -291.850E-03     583.777E-03    -291.927E-03     8.76379E-03    -291.945E-03     582.746E-03    -291.963E-03     8.64114E-03
             902     2.01647E-03     153.395E-03    -133.672E+06    -269.477E+06    -116.214E+06     1.47783E+06    -291.690E-03     583.611E-03    -291.921E-03     13.1897E-03    -291.808E-03     582.634E-03    -291.917E-03     12.9220E-03
             903     2.68903E-03     153.425E-03    -127.117E+06    -249.248E+06    -98.4157E+06     1.97683E+06    -291.661E-03     583.575E-03    -291.914E-03     17.6104E-03    -291.808E-03     582.671E-03    -291.861E-03     17.1534E-03
             904     3.36127E-03     153.464E-03    -119.288E+06    -226.911E+06    -79.1414E+06     2.43596E+06    -291.604E-03     583.522E-03    -291.917E-03     22.1147E-03    -291.783E-03     582.701E-03    -291.811E-03     21.3968E-03
             905     4.03373E-03     153.512E-03    -111.150E+06    -203.460E+06    -60.1793E+06     2.79944E+06    -291.519E-03     583.432E-03    -291.912E-03     26.9556E-03    -291.735E-03     582.705E-03    -291.757E-03     25.8218E-03
             906     4.70622E-03     153.569E-03    -102.119E+06    -178.725E+06    -41.3945E+06     3.28544E+06    -291.363E-03     583.255E-03    -291.891E-03     31.9242E-03    -291.620E-03     582.634E-03    -291.691E-03     30.2263E-03
             907     5.37883E-03     153.632E-03    -93.1541E+06    -152.548E+06    -23.6736E+06     3.89528E+06    -291.096E-03     582.939E-03    -291.843E-03     36.9103E-03    -291.402E-03     582.441E-03    -291.605E-03     34.5265E-03
             908     6.05199E-03     153.706E-03    -84.4933E+06    -125.216E+06    -7.32694E+06     4.31673E+06    -290.810E-03     582.576E-03    -291.765E-03     42.0167E-03    -291.176E-03     582.218E-03    -291.498E-03     38.8025E-03
             909     6.72513E-03     153.786E-03    -75.5348E+06    -94.8219E+06     8.12999E+06     5.18366E+06    -290.458E-03     582.116E-03    -291.658E-03     47.2442E-03    -290.899E-03     581.929E-03    -291.370E-03     43.0282E-03
             910     7.39868E-03     153.873E-03    -67.2545E+06    -58.6828E+06     23.1505E+06     6.45019E+06    -290.033E-03     581.555E-03    -291.521E-03     52.3780E-03    -290.573E-03     581.581E-03    -291.223E-03     47.0368E-03
             911     8.07272E-03     153.967E-03    -59.3193E+06    -14.8525E+06     38.4459E+06     8.24876E+06    -289.528E-03     580.883E-03    -291.356E-03     57.4238E-03    -290.196E-03     581.176E-03    -291.056E-03     50.8383E-03
             912     8.74654E-03     154.066E-03    -51.4810E+06     36.5700E+06     54.4530E+06     10.1526E+06    -288.905E-03     580.067E-03    -291.162E-03     62.2696E-03    -289.733E-03     580.684E-03    -290.868E-03     54.2563E-03
             913     9.42190E-03     154.170E-03    -43.6158E+06     74.8309E+06     67.7269E+06     10.0465E+06    -288.329E-03     579.286E-03    -290.958E-03     66.5643E-03    -289.309E-03     580.181E-03    -290.664E-03     56.9916E-03
             914     10.0977E-03     154.278E-03      -35.84E+06     88.9641E+06     82.1154E+06     8.12167E+06    -287.868E-03     578.655E-03    -290.787E-03     70.0268E-03    -288.978E-03     579.716E-03    -290.454E-03     58.8310E-03
             915     10.7726E-03     154.388E-03    -28.4488E+06     93.5984E+06     98.9842E+06     5.98891E+06    -287.209E-03     577.847E-03    -290.639E-03     72.0583E-03    -288.440E-03     579.023E-03    -290.238E-03     59.2336E-03
             916     11.4477E-03     154.493E-03    -21.0059E+06     100.551E+06     112.714E+06     3.91925E+06    -286.463E-03     576.927E-03    -290.464E-03     70.5423E-03    -287.753E-03     578.173E-03    -290.016E-03     56.5806E-03
             917     12.1234E-03     154.589E-03    -13.7241E+06     108.593E+06     119.066E+06     2.58858E+06    -286.034E-03     576.290E-03    -290.256E-03     70.6239E-03    -287.465E-03     577.712E-03    -289.798E-03     54.7492E-03
             918     12.7998E-03     154.690E-03    -6.59603E+06     112.063E+06     116.275E+06     1.80139E+06    -285.524E-03     575.544E-03    -290.019E-03     58.3352E-03    -286.726E-03     576.782E-03    -289.591E-03     43.6956E-03
             919     671.652E-06     155.059E-03    -142.678E+06    -297.878E+06    -141.635E+06     343.314E+03    -292.523E-03     585.110E-03    -292.587E-03     4.81117E-03    -292.600E-03     584.035E-03    -292.657E-03     4.79404E-03
             920     1.34338E-03     155.072E-03    -139.825E+06    -287.273E+06    -131.173E+06     1.08617E+06    -292.378E-03     584.927E-03    -292.549E-03     8.48583E-03    -292.474E-03     583.888E-03    -292.586E-03     8.35160E-03
             921     2.01537E-03     155.093E-03    -134.636E+06    -271.940E+06    -116.877E+06     1.41823E+06    -292.429E-03     584.972E-03    -292.543E-03     12.7241E-03    -292.547E-03     583.985E-03    -292.538E-03     12.4486E-03
             922     2.68691E-03     155.124E-03    -127.993E+06    -251.678E+06    -99.0453E+06     1.86948E+06    -292.329E-03     584.891E-03    -292.562E-03     17.0003E-03    -292.476E-03     583.977E-03    -292.506E-03     16.5457E-03
             923     3.35884E-03     155.163E-03    -120.518E+06    -229.052E+06    -79.8473E+06     2.14959E+06    -292.052E-03     584.604E-03    -292.552E-03     21.4834E-03    -292.233E-03     583.775E-03    -292.444E-03     20.7293E-03
             924     4.03106E-03     155.210E-03    -111.981E+06     -205.84E+06    -60.3625E+06     2.57827E+06    -291.702E-03     584.203E-03    -292.500E-03     26.2491E-03    -291.918E-03     583.465E-03    -292.341E-03     25.0913E-03
             925     4.70372E-03     155.266E-03    -103.383E+06    -181.016E+06    -41.6340E+06     2.88873E+06    -291.440E-03     583.858E-03    -292.418E-03     31.0856E-03    -291.698E-03     583.227E-03    -292.214E-03     29.3779E-03
             926     5.37643E-03     155.330E-03    -94.1765E+06    -155.463E+06    -24.0262E+06     3.26075E+06    -291.201E-03     583.520E-03    -292.319E-03     36.1236E-03    -291.506E-03     583.008E-03    -292.077E-03     33.7215E-03
             927     6.04906E-03     155.402E-03    -85.2123E+06    -128.351E+06    -7.48026E+06     4.06847E+06    -290.718E-03     582.911E-03    -292.193E-03     41.2302E-03    -291.082E-03     582.539E-03    -291.921E-03     37.9915E-03
             928     6.72277E-03     155.481E-03    -76.7103E+06    -98.5091E+06     7.80977E+06     4.61506E+06    -290.167E-03     582.195E-03    -292.028E-03     46.4421E-03    -290.605E-03     581.989E-03    -291.735E-03     42.2299E-03
             929     7.39650E-03     155.568E-03    -67.8460E+06    -64.5700E+06     22.4842E+06     5.81191E+06    -289.638E-03     581.468E-03    -291.830E-03     51.5961E-03    -290.168E-03     581.464E-03    -291.526E-03     46.2650E-03
             930     8.07065E-03     155.659E-03    -59.7625E+06    -22.4029E+06     37.5493E+06     7.92400E+06    -288.959E-03     580.562E-03    -291.603E-03     56.5423E-03    -289.613E-03     580.815E-03    -291.296E-03     49.9715E-03
             931     8.74615E-03     155.758E-03    -51.1503E+06     29.9616E+06     53.8608E+06     9.96749E+06    -288.294E-03     579.641E-03    -291.346E-03     61.2595E-03    -289.102E-03     580.217E-03    -291.046E-03     53.3222E-03
             932     9.42072E-03     155.861E-03    -43.0839E+06     75.5816E+06     67.8359E+06     10.5454E+06    -287.728E-03     578.808E-03    -291.080E-03     65.6842E-03    -288.698E-03     579.697E-03    -290.788E-03     56.1893E-03
             933     10.0953E-03     155.968E-03    -35.6357E+06     93.4894E+06     82.0887E+06     8.94554E+06    -286.922E-03     577.769E-03    -290.847E-03     69.4089E-03    -288.032E-03     578.846E-03    -290.520E-03     58.2751E-03
             934     10.7720E-03     156.075E-03    -27.4823E+06     97.2293E+06     99.4594E+06     6.92721E+06    -286.081E-03     576.715E-03    -290.634E-03     71.5715E-03    -287.306E-03     577.899E-03    -290.238E-03     58.8531E-03
             935     11.4496E-03     156.180E-03    -19.7337E+06     104.236E+06     113.946E+06     5.30677E+06    -285.696E-03     576.103E-03    -290.406E-03     70.6856E-03    -286.982E-03     577.358E-03    -289.959E-03     56.8536E-03
             936     12.1256E-03     156.278E-03    -12.8751E+06     111.689E+06     120.914E+06     3.70567E+06    -285.209E-03     575.368E-03    -290.159E-03     71.6509E-03    -286.648E-03     576.808E-03    -289.698E-03     55.8751E-03
             937     12.8021E-03     156.374E-03    -5.99855E+06     115.519E+06     118.734E+06     1.83707E+06    -284.570E-03     574.452E-03    -289.882E-03     59.1854E-03    -285.787E-03     575.714E-03    -289.447E-03     44.5312E-03
             938     671.009E-06     156.760E-03    -145.637E+06    -300.189E+06    -142.213E+06     469.111E+03    -293.267E-03     586.673E-03    -293.406E-03     4.38775E-03    -293.355E-03     585.591E-03    -293.470E-03     4.35473E-03
             939     1.34266E-03     156.773E-03    -142.028E+06    -290.380E+06    -133.851E+06     972.145E+03    -293.205E-03     586.543E-03    -293.338E-03     8.03372E-03    -293.304E-03     585.495E-03    -293.381E-03     7.88479E-03
             940     2.01358E-03     156.795E-03    -136.899E+06    -273.713E+06    -118.783E+06     1.37173E+06    -293.085E-03     586.409E-03    -293.324E-03     12.2216E-03    -293.208E-03     585.420E-03    -293.323E-03     11.9470E-03
             941     2.68503E-03     156.825E-03    -130.138E+06    -253.856E+06    -100.638E+06     1.45108E+06    -292.806E-03     586.101E-03    -293.295E-03     16.6175E-03    -292.958E-03     585.181E-03    -293.241E-03     16.1628E-03
             942     3.35673E-03     156.864E-03    -122.129E+06    -231.624E+06    -80.9414E+06     1.99660E+06    -292.486E-03     585.719E-03    -293.233E-03     21.0610E-03    -292.670E-03     584.881E-03    -293.124E-03     20.3021E-03
             943     4.02861E-03     156.910E-03    -113.738E+06    -207.763E+06    -61.0200E+06     2.32087E+06    -292.045E-03     585.182E-03    -293.137E-03     25.6238E-03    -292.266E-03     584.438E-03    -292.976E-03     24.4404E-03
             944     4.70083E-03     156.965E-03    -104.521E+06    -182.985E+06    -42.1538E+06     2.57976E+06    -291.548E-03     584.547E-03    -292.999E-03     30.4981E-03    -291.807E-03     583.908E-03    -292.793E-03     28.7929E-03
             945     5.37340E-03     157.028E-03    -95.7305E+06    -157.711E+06    -24.5778E+06     2.78474E+06    -291.044E-03     583.872E-03    -292.828E-03     35.4663E-03    -291.351E-03     583.351E-03    -292.584E-03     33.0819E-03
             946     6.04676E-03     157.098E-03    -86.5235E+06    -131.341E+06    -8.12676E+06     2.91118E+06    -290.543E-03     583.174E-03    -292.630E-03     40.5846E-03    -290.906E-03     582.787E-03    -292.355E-03     37.3600E-03
             947     6.71987E-03     157.176E-03    -77.5178E+06    -102.421E+06     6.96766E+06     3.99602E+06    -289.929E-03     582.332E-03    -292.403E-03     45.7767E-03    -290.361E-03     582.105E-03    -292.107E-03     41.5960E-03
             948     7.39408E-03     157.261E-03    -69.7784E+06    -69.7965E+06     21.2735E+06     5.21559E+06    -289.215E-03     581.360E-03    -292.145E-03     50.8665E-03    -289.741E-03     581.329E-03    -291.836E-03     45.5874E-03
             949     8.06872E-03     157.353E-03    -60.7086E+06    -29.7241E+06     36.0891E+06     6.73786E+06    -288.549E-03     580.408E-03    -291.859E-03     55.6881E-03    -289.189E-03     580.622E-03    -291.547E-03     49.1615E-03
             950     8.74308E-03     157.449E-03    -52.1261E+06     21.9302E+06     51.8775E+06     9.14047E+06    -287.700E-03     579.245E-03    -291.545E-03     60.4222E-03    -288.490E-03     579.778E-03    -291.242E-03     52.5492E-03
             951     9.41922E-03     157.552E-03    -43.9898E+06     73.9657E+06     66.8299E+06     10.7181E+06    -286.621E-03     577.822E-03    -291.201E-03     65.0900E-03    -287.583E-03     578.697E-03    -290.911E-03     55.7303E-03
             952     10.0964E-03     157.656E-03    -36.1443E+06     97.9364E+06     81.6279E+06     9.91653E+06    -285.770E-03     576.649E-03    -290.878E-03     69.0343E-03    -286.879E-03     577.741E-03    -290.560E-03     58.0444E-03
             953     10.7731E-03     157.761E-03    -29.1956E+06     100.896E+06     97.9811E+06     7.35103E+06    -285.217E-03     575.815E-03    -290.598E-03     71.3904E-03    -286.447E-03     577.015E-03    -290.212E-03     58.7751E-03
             954     11.4489E-03     157.866E-03    -21.3713E+06     106.561E+06     113.560E+06     5.19938E+06    -284.688E-03     575.012E-03    -290.324E-03     70.6204E-03    -285.982E-03     576.280E-03    -289.880E-03     56.8439E-03
             955     12.1272E-03     157.962E-03    -13.3061E+06     115.130E+06     123.114E+06     4.03394E+06    -284.313E-03     574.353E-03    -290.040E-03     70.6415E-03    -285.759E-03     575.804E-03    -289.572E-03     54.8115E-03
             956     12.8055E-03     158.058E-03    -6.56205E+06     120.248E+06     121.670E+06     2.55508E+06    -284.151E-03     573.891E-03    -289.740E-03     57.8726E-03    -285.374E-03     575.165E-03    -289.297E-03     43.1868E-03
             957     670.708E-06     158.465E-03    -146.958E+06    -303.479E+06    -145.873E+06     1.08258E+06    -294.326E-03     588.367E-03    -294.041E-03     4.41335E-03    -294.410E-03     587.276E-03    -294.117E-03     4.32830E-03
             958     1.34068E-03     158.478E-03    -144.292E+06    -291.963E+06    -135.264E+06     905.373E+03    -294.050E-03     588.238E-03    -294.188E-03     8.09876E-03    -294.156E-03     587.187E-03    -294.232E-03     7.94815E-03
             959     2.01174E-03     158.499E-03    -138.678E+06    -275.832E+06    -120.237E+06     923.864E+03    -293.607E-03     587.734E-03    -294.128E-03     12.0982E-03    -293.734E-03     586.739E-03    -294.128E-03     11.8362E-03
             960     2.68302E-03     158.528E-03    -132.003E+06    -255.960E+06    -101.786E+06     1.62517E+06    -293.204E-03     587.218E-03    -294.014E-03     16.3911E-03    -293.360E-03     586.292E-03    -293.960E-03     15.9433E-03
             961     3.35424E-03     158.566E-03    -124.217E+06    -233.390E+06    -81.9021E+06     1.69074E+06    -292.828E-03     586.711E-03    -293.883E-03     20.8297E-03    -293.018E-03     585.869E-03    -293.774E-03     20.0883E-03
             962     4.02590E-03     158.611E-03    -114.951E+06    -209.186E+06    -61.8957E+06     1.58216E+06    -292.373E-03     586.108E-03    -293.734E-03     25.3721E-03    -292.596E-03     585.359E-03    -293.574E-03     24.2097E-03
             963     4.69802E-03     158.665E-03    -106.076E+06    -185.121E+06    -43.3260E+06     1.89497E+06    -291.724E-03     585.272E-03    -293.549E-03     30.1156E-03    -291.985E-03     584.626E-03    -293.343E-03     28.4346E-03
             964     5.37090E-03     158.726E-03    -96.9270E+06    -159.756E+06    -25.6462E+06     2.38145E+06    -290.946E-03     584.262E-03    -293.316E-03     34.8808E-03    -291.252E-03     583.731E-03    -293.072E-03     32.5476E-03
             965     6.04391E-03     158.796E-03    -88.3872E+06    -133.518E+06    -9.26872E+06     3.01711E+06    -290.209E-03     583.251E-03    -293.042E-03     39.9569E-03    -290.572E-03     582.853E-03    -292.767E-03     36.8306E-03
             966     6.71790E-03     158.872E-03    -79.9562E+06    -106.104E+06     5.63929E+06     3.43255E+06    -289.546E-03     582.287E-03    -292.741E-03     45.2694E-03    -289.979E-03     582.043E-03    -292.443E-03     41.1796E-03
             967     7.39191E-03     158.955E-03    -70.8325E+06    -74.1648E+06     20.1956E+06     4.36276E+06    -288.820E-03     581.238E-03    -292.418E-03     50.5014E-03    -289.338E-03     581.183E-03    -292.107E-03     45.3229E-03
             968     8.06666E-03     159.045E-03    -62.6243E+06    -36.5666E+06     34.2406E+06     6.07425E+06    -287.961E-03     580.029E-03    -292.069E-03     55.6042E-03    -288.591E-03     580.208E-03    -291.754E-03     49.2213E-03
             969     8.74248E-03     159.140E-03    -54.1257E+06     13.1373E+06     49.7669E+06     8.38397E+06    -286.930E-03     578.617E-03    -291.687E-03     60.4904E-03    -287.709E-03     579.106E-03    -291.378E-03     52.7317E-03
             970     9.41848E-03     159.239E-03    -45.6764E+06     70.2160E+06     65.4792E+06     10.0431E+06    -285.820E-03     577.093E-03    -291.272E-03     64.7952E-03    -286.776E-03     577.945E-03    -290.981E-03     55.5303E-03
             971     10.0954E-03     159.342E-03    -37.4436E+06     100.297E+06     80.2059E+06     9.69882E+06    -284.981E-03     575.864E-03    -290.883E-03     68.2682E-03    -286.086E-03     576.959E-03    -290.573E-03     57.4013E-03
             972     10.7727E-03     159.447E-03    -29.6213E+06     105.320E+06     97.2250E+06     8.65496E+06    -284.401E-03     574.953E-03    -290.552E-03     70.5445E-03    -285.626E-03     576.165E-03    -290.176E-03     58.0511E-03
             973     11.4518E-03     159.550E-03    -22.6890E+06     111.035E+06     114.382E+06     6.61010E+06    -284.028E-03     574.277E-03    -290.249E-03     69.9490E-03    -285.329E-03     575.560E-03    -289.805E-03     56.2381E-03
             974     12.1285E-03     159.647E-03    -14.9447E+06     118.788E+06     124.728E+06     3.38540E+06    -283.686E-03     573.626E-03    -289.940E-03     70.5592E-03    -285.151E-03     575.098E-03    -289.467E-03     54.7041E-03
             975     12.8043E-03     159.742E-03     -6.5843E+06     124.177E+06     123.744E+06     1.45863E+06    -283.296E-03     572.903E-03    -289.607E-03     58.4346E-03    -284.538E-03     574.204E-03    -289.159E-03     43.6661E-03
             976     669.999E-06     160.173E-03    -150.395E+06    -305.665E+06    -147.369E+06    -331.989E+03    -294.748E-03     589.649E-03    -294.901E-03     4.53642E-03    -294.844E-03     588.554E-03    -294.976E-03     4.43436E-03
             977     1.34046E-03     160.185E-03    -145.909E+06    -293.934E+06    -137.555E+06     491.007E+03    -294.539E-03     589.335E-03    -294.796E-03     8.30225E-03    -294.646E-03     588.280E-03    -294.846E-03     8.15174E-03
             978     2.01068E-03     160.205E-03    -140.999E+06    -277.703E+06    -121.770E+06     1.26701E+06    -294.239E-03     588.955E-03    -294.716E-03     12.3167E-03    -294.372E-03     587.955E-03    -294.718E-03     12.0816E-03
             979     2.68119E-03     160.234E-03    -133.786E+06    -257.710E+06    -103.127E+06     1.24940E+06    -293.732E-03     588.334E-03    -294.602E-03     16.3569E-03    -293.892E-03     587.403E-03    -294.550E-03     15.9403E-03
             980     3.35263E-03     160.270E-03    -125.208E+06    -234.523E+06    -83.1290E+06     1.37352E+06    -293.066E-03     587.497E-03    -294.431E-03     20.6557E-03    -293.256E-03     586.652E-03    -294.325E-03     19.9693E-03
             981     4.02417E-03     160.315E-03    -117.038E+06    -210.752E+06    -63.3287E+06     1.61952E+06    -292.455E-03     586.673E-03    -294.219E-03     25.2585E-03    -292.682E-03     585.921E-03    -294.060E-03     24.1841E-03
             982     4.69603E-03     160.366E-03    -108.001E+06    -186.457E+06    -44.2025E+06     1.71585E+06    -291.776E-03     585.751E-03    -293.975E-03     30.0431E-03    -292.042E-03     585.100E-03    -293.769E-03     28.4403E-03
             983     5.36832E-03     160.426E-03    -98.7932E+06    -162.020E+06    -26.6725E+06     2.01816E+06    -290.894E-03     584.583E-03    -293.689E-03     34.9148E-03    -291.203E-03     584.043E-03    -293.444E-03     32.6637E-03
             984     6.04185E-03     160.492E-03    -89.3667E+06    -135.978E+06    -10.0205E+06     2.58072E+06    -289.979E-03     583.337E-03    -293.358E-03     39.9771E-03    -290.339E-03     582.927E-03    -293.081E-03     36.9710E-03
             985     6.71583E-03     160.567E-03    -80.3847E+06    -108.191E+06     5.50858E+06     3.12075E+06    -289.153E-03     582.148E-03    -292.995E-03     45.1008E-03    -289.580E-03     581.889E-03    -292.694E-03     41.1703E-03
             986     7.39060E-03     160.649E-03    -71.9019E+06    -78.5128E+06     19.4563E+06     3.83011E+06    -288.266E-03     580.873E-03    -292.606E-03     50.1704E-03    -288.776E-03     580.792E-03    -292.291E-03     45.1425E-03
             987     8.06592E-03     160.736E-03    -63.4992E+06    -42.4191E+06     33.3855E+06     5.07304E+06    -287.209E-03     579.398E-03    -292.188E-03     55.2194E-03    -287.826E-03     579.542E-03    -291.868E-03     48.9713E-03
             988     8.74193E-03     160.829E-03    -55.3414E+06     4.95242E+06     48.2839E+06     6.89819E+06    -286.232E-03     577.974E-03    -291.742E-03     59.9071E-03    -286.992E-03     578.415E-03    -291.428E-03     52.2929E-03
             989     9.41894E-03     160.926E-03    -46.4938E+06     64.5716E+06     64.5127E+06     9.14511E+06    -285.444E-03     576.728E-03    -291.284E-03     64.2628E-03    -286.383E-03     577.544E-03    -290.988E-03     55.1272E-03
             990     10.0958E-03     161.028E-03    -38.3734E+06     101.089E+06     79.7272E+06     9.87073E+06    -284.710E-03     575.576E-03    -290.866E-03     67.8872E-03    -285.811E-03     576.668E-03    -290.558E-03     57.1264E-03
             991     10.7739E-03     161.130E-03    -30.2602E+06     108.733E+06     96.0118E+06     8.07694E+06    -284.118E-03     574.630E-03    -290.512E-03     69.8808E-03    -285.340E-03     575.852E-03    -290.146E-03     57.4541E-03
             992     11.4505E-03     161.234E-03    -20.9796E+06     116.181E+06     114.777E+06     6.10118E+06    -283.416E-03     573.605E-03    -290.188E-03     69.0190E-03    -284.708E-03     574.901E-03    -289.753E-03     55.3385E-03
             993     12.1293E-03     161.329E-03    -12.7507E+06     124.098E+06     127.354E+06     4.53074E+06    -282.740E-03     572.592E-03    -289.852E-03     69.6639E-03    -284.196E-03     574.073E-03    -289.377E-03     53.8628E-03
             994     12.8103E-03     161.423E-03    -6.61287E+06     128.005E+06     126.267E+06     1.86265E+06    -282.530E-03     572.016E-03    -289.485E-03     57.2897E-03    -283.776E-03     573.326E-03    -289.030E-03     42.4780E-03
             995     669.656E-06     161.882E-03    -151.500E+06    -306.743E+06    -150.085E+06     773.382E+03    -294.907E-03     590.326E-03    -295.419E-03     4.58956E-03    -295.003E-03     589.231E-03    -295.505E-03     4.53351E-03
             996     1.33974E-03     161.893E-03    -149.730E+06    -296.108E+06    -139.868E+06     666.105E+03    -294.822E-03     589.949E-03    -295.127E-03     8.29490E-03    -294.941E-03     588.891E-03    -295.180E-03     8.22817E-03
             997     2.00996E-03     161.914E-03    -143.366E+06    -279.312E+06    -124.122E+06     607.942E+03    -294.586E-03     589.624E-03    -295.038E-03     12.4650E-03    -294.726E-03     588.623E-03    -295.045E-03     12.3001E-03
             998     2.68033E-03     161.940E-03    -135.659E+06    -258.863E+06    -105.044E+06     811.579E+03    -294.064E-03     588.992E-03    -294.928E-03     16.6197E-03    -294.229E-03     588.061E-03    -294.881E-03     16.2572E-03
             999     3.35082E-03     161.975E-03    -127.796E+06    -236.180E+06    -84.8822E+06     1.14894E+06    -293.278E-03     588.027E-03    -294.749E-03     21.0226E-03    -293.476E-03     587.178E-03    -294.645E-03     20.4023E-03
            1000     4.02253E-03     162.017E-03    -118.717E+06    -211.776E+06    -64.2348E+06     1.27561E+06    -292.390E-03     586.887E-03    -294.497E-03     25.6016E-03    -292.621E-03     586.132E-03    -294.339E-03     24.6267E-03
            1001     4.69484E-03     162.069E-03    -109.373E+06    -187.720E+06    -44.8405E+06     1.31188E+06    -291.527E-03     585.718E-03    -294.192E-03     30.3635E-03    -291.795E-03     585.062E-03    -293.985E-03     28.8855E-03
            1002     5.36787E-03     162.125E-03    -100.008E+06    -163.036E+06    -26.8934E+06     1.29768E+06    -290.773E-03     584.627E-03    -293.854E-03     35.2557E-03    -291.084E-03     584.082E-03    -293.607E-03     33.1381E-03
            1003     6.04115E-03     162.190E-03    -90.3343E+06    -137.567E+06    -10.4191E+06     1.26838E+06    -289.985E-03     583.481E-03    -293.496E-03     40.1528E-03    -290.344E-03     583.062E-03    -293.218E-03     37.2764E-03
            1004     6.71513E-03     162.263E-03    -81.1316E+06    -111.451E+06     4.66979E+06     1.92163E+06    -288.942E-03     582.050E-03    -293.108E-03     45.0574E-03    -289.361E-03     581.772E-03    -292.805E-03     41.2612E-03
            1005     7.38988E-03     162.342E-03    -72.3181E+06    -81.8312E+06     19.1519E+06     2.94130E+06    -287.826E-03     580.507E-03    -292.681E-03     49.9112E-03    -288.326E-03     580.404E-03    -292.362E-03     45.0368E-03
            1006     8.06564E-03     162.426E-03    -63.4674E+06    -46.6951E+06     33.1069E+06     3.79317E+06    -286.881E-03     579.107E-03    -292.226E-03     54.5593E-03    -287.482E-03     579.221E-03    -291.901E-03     48.4531E-03
            1007     8.74218E-03     162.517E-03    -54.3898E+06    -1.82247E+06     47.9921E+06     5.32781E+06    -285.974E-03     577.732E-03    -291.757E-03     58.9810E-03    -286.708E-03     578.127E-03    -291.436E-03     51.4996E-03
            1008     9.41870E-03     162.613E-03    -46.0324E+06     55.3798E+06     63.9098E+06     8.21671E+06    -285.055E-03     576.334E-03    -291.279E-03     63.1626E-03    -285.963E-03     577.090E-03    -290.973E-03     54.1687E-03
            1009     10.0966E-03     162.712E-03    -38.0140E+06     99.9884E+06     78.9663E+06     10.1979E+06    -284.451E-03     575.280E-03    -290.829E-03     66.8940E-03    -285.531E-03     576.351E-03    -290.524E-03     56.2886E-03
            1010     10.7733E-03     162.815E-03    -30.4396E+06     115.385E+06     95.1578E+06     8.38900E+06    -283.809E-03     574.260E-03    -290.450E-03     69.4474E-03    -285.030E-03     575.506E-03    -290.098E-03     57.1358E-03
            1011     11.4521E-03     162.916E-03    -23.3511E+06     120.059E+06     113.608E+06     4.96651E+06    -283.000E-03     573.115E-03    -290.115E-03     68.9893E-03    -284.307E-03     574.435E-03    -289.687E-03     55.2987E-03
            1012     12.1308E-03     163.008E-03    -15.3090E+06     126.816E+06     127.194E+06     3.28499E+06    -282.305E-03     572.072E-03    -289.767E-03     69.6188E-03    -283.788E-03     573.582E-03    -289.292E-03     53.6699E-03
            1013     12.8063E-03     163.105E-03    -6.59391E+06     132.243E+06     128.259E+06     2.35698E+06    -281.756E-03     571.135E-03    -289.379E-03     57.4732E-03    -283.021E-03     572.474E-03    -288.920E-03     42.5895E-03
            1014     669.966E-06     163.591E-03    -156.782E+06    -309.227E+06    -153.334E+06     170.935E+03    -295.023E-03     590.373E-03    -295.350E-03     4.44377E-03    -295.137E-03     589.278E-03    -295.441E-03     4.43486E-03
            1015     1.33972E-03     163.603E-03    -151.134E+06    -296.272E+06    -141.829E+06     229.458E+03    -294.939E-03     590.110E-03    -295.171E-03     8.52009E-03    -295.063E-03     589.057E-03    -295.231E-03     8.48735E-03
            1016     2.00980E-03     163.622E-03    -145.915E+06    -280.034E+06    -126.288E+06     232.200E+03    -294.354E-03     589.412E-03    -295.058E-03     12.7765E-03    -294.502E-03     588.414E-03    -295.071E-03     12.6776E-03
            1017     2.68033E-03     163.648E-03    -138.931E+06    -259.927E+06    -107.278E+06     186.876E+03    -293.790E-03     588.668E-03    -294.878E-03     17.3418E-03    -293.966E-03     587.739E-03    -294.836E-03     17.0668E-03
            1018     3.35162E-03     163.681E-03    -129.805E+06    -236.457E+06    -86.1105E+06    -13.3176E+03    -293.254E-03     587.929E-03    -294.675E-03     21.9359E-03    -293.459E-03     587.084E-03    -294.575E-03     21.4043E-03
            1019     4.02286E-03     163.722E-03    -120.303E+06    -212.536E+06    -65.3575E+06     93.6522E+03    -292.437E-03     586.873E-03    -294.435E-03     26.3567E-03    -292.674E-03     586.117E-03    -294.280E-03     25.4763E-03
            1020     4.69518E-03     163.769E-03    -110.814E+06    -188.170E+06    -45.6835E+06     179.146E+03    -291.522E-03     585.662E-03    -294.141E-03     30.7298E-03    -291.793E-03     585.005E-03    -293.935E-03     29.3869E-03
            1021     5.36807E-03     163.825E-03    -100.787E+06    -163.430E+06    -27.4246E+06    -13.9205E+03    -290.742E-03     584.548E-03    -293.806E-03     35.3147E-03    -291.052E-03     584.000E-03    -293.561E-03     33.3668E-03
            1022     6.04131E-03     163.888E-03    -91.4436E+06    -138.925E+06    -11.1386E+06     232.198E+03    -289.895E-03     583.342E-03    -293.447E-03     40.0900E-03    -290.253E-03     582.915E-03    -293.169E-03     37.3569E-03
            1023     6.71537E-03     163.958E-03    -82.3180E+06    -113.305E+06     4.03440E+06     529.984E+03    -288.851E-03     581.907E-03    -293.056E-03     44.8538E-03    -289.268E-03     581.619E-03    -292.752E-03     41.1799E-03
            1024     7.39053E-03     164.034E-03    -72.5137E+06    -84.1797E+06     18.7203E+06     758.153E+03    -287.846E-03     580.478E-03    -292.631E-03     49.5558E-03    -288.336E-03     580.357E-03    -292.311E-03     44.8197E-03
            1025     8.06611E-03     164.117E-03    -63.0212E+06    -51.2853E+06     32.5349E+06     2.02023E+06    -286.940E-03     579.125E-03    -292.185E-03     54.0170E-03    -287.521E-03     579.206E-03    -291.857E-03     48.0799E-03
            1026     8.74186E-03     164.206E-03    -54.9496E+06    -8.74262E+06     46.9377E+06     4.23948E+06    -285.986E-03     577.712E-03    -291.725E-03     58.3476E-03    -286.699E-03     578.062E-03    -291.398E-03     51.0390E-03
            1027     9.41922E-03     164.298E-03    -46.9805E+06     44.7546E+06     61.9708E+06     7.17262E+06    -285.066E-03     576.319E-03    -291.252E-03     62.4916E-03    -285.947E-03     577.012E-03    -290.939E-03     53.6660E-03
            1028     10.0962E-03     164.397E-03    -38.8337E+06     95.8039E+06     76.4382E+06     9.62447E+06    -284.082E-03     574.863E-03    -290.781E-03     66.2387E-03    -285.143E-03     575.904E-03    -290.481E-03     55.7826E-03
            1029     10.7751E-03     164.498E-03    -30.7026E+06     121.989E+06     93.4558E+06     8.94350E+06    -283.155E-03     573.517E-03    -290.362E-03     68.6009E-03    -284.373E-03     574.788E-03    -290.027E-03     56.3770E-03
            1030     11.4533E-03     164.596E-03    -22.5592E+06     126.170E+06     113.462E+06     6.00170E+06    -282.489E-03     572.493E-03    -290.005E-03     68.4747E-03    -283.793E-03     573.836E-03    -289.588E-03     54.8496E-03
            1031     12.1308E-03     164.691E-03    -14.9248E+06     130.863E+06     128.327E+06     3.03326E+06    -281.817E-03     571.463E-03    -289.645E-03     69.8041E-03    -283.311E-03     572.996E-03    -289.172E-03     53.8180E-03
            1032     12.8136E-03     164.780E-03    -6.82355E+06     135.477E+06     129.769E+06     1.36510E+06    -281.372E-03     570.617E-03    -289.245E-03     57.5812E-03    -282.650E-03     571.976E-03    -288.783E-03     42.6306E-03
            1033     669.945E-06     165.300E-03    -158.849E+06    -308.673E+06    -155.715E+06    -511.368E+03    -295.103E-03     589.779E-03    -294.676E-03     4.72240E-03    -295.225E-03     588.693E-03    -294.777E-03     4.69702E-03
            1034     1.33995E-03     165.312E-03    -154.748E+06    -297.035E+06    -144.817E+06     -274.14E+03    -294.405E-03     589.232E-03    -294.827E-03     8.77169E-03    -294.541E-03     588.184E-03    -294.896E-03     8.78969E-03
            1035     2.01046E-03     165.329E-03    -148.377E+06    -279.961E+06    -128.221E+06    -128.545E+03    -293.836E-03     588.486E-03    -294.650E-03     13.1505E-03    -293.993E-03     587.494E-03    -294.670E-03     13.0984E-03
            1036     2.68188E-03     165.353E-03    -140.555E+06    -258.961E+06    -108.295E+06    -588.976E+03    -293.322E-03     587.770E-03    -294.449E-03     17.7466E-03    -293.505E-03     586.850E-03    -294.411E-03     17.5704E-03
            1037     3.35293E-03     165.386E-03    -131.799E+06    -236.087E+06    -87.2761E+06    -870.540E+03    -292.851E-03     587.095E-03    -294.244E-03     22.2121E-03    -293.064E-03     586.255E-03    -294.147E-03     21.8151E-03
            1038     4.02473E-03     165.425E-03    -122.370E+06    -212.099E+06    -66.4069E+06    -1.20842E+06    -292.361E-03     586.395E-03    -294.034E-03     26.7115E-03    -292.605E-03     585.645E-03    -293.881E-03     25.9775E-03
            1039     4.69662E-03     165.471E-03    -112.106E+06    -187.667E+06    -46.5332E+06    -1.54900E+06    -291.751E-03     585.557E-03    -293.805E-03     31.2707E-03    -292.028E-03     584.904E-03    -293.603E-03     30.0618E-03
            1040     5.36910E-03     165.525E-03    -102.482E+06    -163.612E+06    -28.5547E+06    -1.41142E+06    -290.832E-03     584.365E-03    -293.533E-03     35.7950E-03    -291.146E-03     583.817E-03    -293.290E-03     33.9796E-03
            1041     6.04283E-03     165.585E-03    -92.8892E+06    -139.184E+06    -11.9920E+06    -1.55728E+06    -289.838E-03     583.044E-03    -293.206E-03     40.3126E-03    -290.198E-03     582.615E-03    -292.930E-03     37.7275E-03
            1042     6.71707E-03     165.653E-03    -82.7659E+06    -113.700E+06     3.51284E+06    -1.68707E+06    -289.067E-03     581.914E-03    -292.847E-03     44.7247E-03    -289.480E-03     581.619E-03    -292.544E-03     41.2062E-03
            1043     7.39156E-03     165.726E-03    -73.8034E+06    -86.0799E+06     17.3721E+06    -1.15575E+06    -288.216E-03     580.683E-03    -292.467E-03     49.0719E-03    -288.700E-03     580.549E-03    -292.148E-03     44.4862E-03
            1044     8.06682E-03     165.808E-03    -65.5008E+06    -55.8102E+06     30.4327E+06    -319.194E+03    -287.158E-03     579.220E-03    -292.062E-03     53.3690E-03    -287.733E-03     579.276E-03    -291.734E-03     47.5672E-03
            1045     8.74355E-03     165.893E-03    -55.9070E+06    -16.6911E+06     44.6126E+06     1.74774E+06    -286.192E-03     577.823E-03    -291.631E-03     57.5460E-03    -286.880E-03     578.124E-03    -291.303E-03     50.4202E-03
            1046     9.41971E-03     165.986E-03    -47.0965E+06     32.9869E+06     59.1732E+06     5.74585E+06    -285.101E-03     576.277E-03    -291.176E-03     61.6516E-03    -285.945E-03     576.900E-03    -290.860E-03     53.0059E-03
            1047     10.0974E-03     166.081E-03    -38.7617E+06     91.4561E+06     74.3388E+06     8.38699E+06    -283.739E-03     574.431E-03    -290.693E-03     65.4862E-03    -284.776E-03     575.441E-03    -290.398E-03     55.1382E-03
            1048     10.7753E-03     166.179E-03    -30.1014E+06     126.442E+06     91.5167E+06     7.58741E+06    -282.705E-03     572.947E-03    -290.242E-03     68.3838E-03    -283.911E-03     574.230E-03    -289.924E-03     56.2853E-03
            1049     11.4538E-03     166.278E-03    -21.8456E+06     130.892E+06     112.095E+06     6.04894E+06    -282.002E-03     571.867E-03    -289.865E-03     68.1659E-03    -283.297E-03     573.224E-03    -289.463E-03     54.6427E-03
            1050     12.1352E-03     166.367E-03    -13.5990E+06     136.407E+06     129.983E+06     4.27054E+06    -281.407E-03     570.908E-03    -289.501E-03     69.0462E-03    -282.893E-03     572.454E-03    -289.029E-03     53.1276E-03
            1051     12.8102E-03     166.462E-03    -7.32438E+06     139.416E+06     131.764E+06     1.59238E+06    -281.426E-03     570.533E-03    -289.107E-03     57.1955E-03    -282.710E-03     571.904E-03    -288.640E-03     42.2349E-03
            1052     670.196E-06     167.008E-03    -161.279E+06    -307.832E+06    -159.119E+06     235.295E+03    -294.050E-03     587.709E-03    -293.659E-03     5.01618E-03    -294.181E-03     586.636E-03    -293.774E-03     5.01219E-03
            1053     1.34132E-03     167.018E-03    -157.707E+06    -296.257E+06    -147.171E+06    -513.519E+03    -293.452E-03     587.262E-03    -293.810E-03     9.69847E-03    -293.601E-03     586.226E-03    -293.887E-03     9.71499E-03
            1054     2.01262E-03     167.034E-03    -150.957E+06    -278.517E+06    -130.134E+06    -1.34081E+06    -293.290E-03     587.004E-03    -293.714E-03     14.1129E-03    -293.460E-03     586.026E-03    -293.742E-03     14.1240E-03
            1055     2.68333E-03     167.058E-03    -142.962E+06    -257.430E+06    -110.137E+06    -1.59466E+06    -292.998E-03     586.635E-03    -293.637E-03     18.5270E-03    -293.193E-03     585.727E-03    -293.607E-03     18.4486E-03
            1056     3.35534E-03     167.089E-03    -134.260E+06    -234.530E+06    -88.8725E+06    -2.07813E+06    -292.515E-03     586.046E-03    -293.531E-03     22.7483E-03    -292.739E-03     585.219E-03    -293.441E-03     22.4684E-03
            1057     4.02737E-03     167.127E-03    -124.035E+06    -210.412E+06    -67.5786E+06    -2.56898E+06    -292.066E-03     585.454E-03    -293.388E-03     27.0486E-03    -292.318E-03     584.715E-03    -293.241E-03     26.4504E-03
            1058     4.69963E-03     167.173E-03    -114.299E+06    -186.360E+06    -47.7708E+06    -2.97793E+06    -291.538E-03     584.754E-03    -293.216E-03     31.6361E-03    -291.824E-03     584.110E-03    -293.018E-03     30.5719E-03
            1059     5.37239E-03     167.224E-03    -104.233E+06    -162.366E+06    -29.5381E+06    -3.59788E+06    -290.919E-03     583.928E-03    -293.008E-03     36.1925E-03    -291.241E-03     583.388E-03    -292.769E-03     34.5053E-03
            1060     6.04545E-03     167.282E-03    -93.8711E+06    -138.029E+06    -12.8574E+06    -3.87604E+06    -290.214E-03     582.978E-03    -292.764E-03     40.4867E-03    -290.576E-03     582.554E-03    -292.492E-03     38.0509E-03
            1061     6.71931E-03     167.348E-03    -84.4252E+06    -113.994E+06     1.99424E+06    -3.89092E+06    -289.448E-03     581.934E-03    -292.486E-03     44.8217E-03    -289.861E-03     581.637E-03    -292.188E-03     41.4781E-03
            1062     7.39352E-03     167.421E-03    -75.0696E+06    -87.6415E+06     15.8296E+06    -3.60295E+06    -288.651E-03     580.828E-03    -292.177E-03     49.0374E-03    -289.129E-03     580.682E-03    -291.862E-03     44.6241E-03
            1063     8.06878E-03     167.497E-03    -65.3902E+06    -59.0802E+06     29.2891E+06    -2.39441E+06    -287.731E-03     579.571E-03    -291.840E-03     53.0897E-03    -288.289E-03     579.603E-03    -291.513E-03     47.4532E-03
            1064     8.74388E-03     167.583E-03    -57.2911E+06    -23.9080E+06     42.2266E+06    -411.613E+03    -286.470E-03     577.931E-03    -291.461E-03     57.1283E-03    -287.140E-03     578.191E-03    -291.132E-03     50.1352E-03
            1065     9.42090E-03     167.671E-03    -49.1313E+06     21.9251E+06     56.0411E+06     2.27663E+06    -285.028E-03     576.056E-03    -291.028E-03     61.1603E-03    -285.847E-03     576.616E-03    -290.709E-03     52.6652E-03
            1066     10.0986E-03     167.764E-03    -39.9240E+06     85.4686E+06     71.9067E+06     5.40093E+06    -283.805E-03     574.356E-03    -290.550E-03     64.7873E-03    -284.819E-03     575.322E-03    -290.257E-03     54.6011E-03
            1067     10.7775E-03     167.860E-03    -31.6644E+06     128.185E+06     88.5929E+06     6.72714E+06    -282.776E-03     572.877E-03    -290.101E-03     67.1358E-03    -283.970E-03     574.156E-03    -289.798E-03     55.1354E-03
            1068     11.4573E-03     167.957E-03    -23.7341E+06     133.999E+06     109.294E+06     5.31405E+06    -282.008E-03     571.745E-03    -289.737E-03     66.5917E-03    -283.299E-03     573.110E-03    -289.350E-03     53.0427E-03
            1069     12.1336E-03     168.048E-03    -15.2616E+06     140.275E+06     129.376E+06     3.47428E+06    -281.424E-03     570.818E-03    -289.394E-03     67.5192E-03    -282.914E-03     572.376E-03    -288.928E-03     51.4982E-03
            1070     12.8175E-03     168.138E-03    -6.98008E+06     143.694E+06     133.662E+06     1.89001E+06    -281.087E-03     570.096E-03    -289.009E-03     56.1457E-03    -282.371E-03     571.477E-03    -288.539E-03     41.1633E-03
            1071     672.372E-06     168.711E-03    -164.886E+06    -305.596E+06    -161.843E+06    -1.39457E+06    -291.850E-03     584.298E-03    -292.448E-03     5.45872E-03    -291.997E-03     583.245E-03    -292.575E-03     5.44469E-03
            1072     1.34393E-03     168.720E-03    -159.140E+06    -293.562E+06    -149.347E+06    -1.65179E+06    -292.461E-03     584.708E-03    -292.247E-03     9.95188E-03    -292.618E-03     583.690E-03    -292.337E-03     10.0373E-03
            1073     2.01537E-03     168.737E-03    -153.341E+06    -275.850E+06    -132.458E+06    -2.08132E+06    -292.520E-03     584.905E-03    -292.385E-03     14.6130E-03    -292.701E-03     583.947E-03    -292.425E-03     14.6931E-03
            1074     2.68737E-03     168.760E-03    -145.468E+06    -254.778E+06    -111.912E+06    -2.90875E+06    -292.418E-03     584.894E-03    -292.475E-03     19.1189E-03    -292.627E-03     584.005E-03    -292.454E-03     19.1197E-03
            1075     3.35867E-03     168.791E-03    -135.741E+06    -231.520E+06    -89.8324E+06    -3.55131E+06    -292.172E-03     584.683E-03    -292.510E-03     23.6397E-03    -292.407E-03     583.874E-03    -292.427E-03     23.4412E-03
            1076     4.03050E-03     168.828E-03    -126.179E+06    -207.716E+06    -68.7106E+06    -4.26911E+06    -291.764E-03     584.247E-03    -292.484E-03     28.0349E-03    -292.028E-03     583.526E-03    -292.343E-03     27.5122E-03
            1077     4.70322E-03     168.871E-03    -115.689E+06    -183.325E+06    -48.6474E+06    -5.20334E+06    -291.352E-03     583.756E-03    -292.404E-03     32.2477E-03    -291.646E-03     583.130E-03    -292.214E-03     31.2978E-03
            1078     5.37621E-03     168.923E-03    -105.061E+06    -159.884E+06    -30.2987E+06    -5.91229E+06    -291.029E-03     583.322E-03    -292.292E-03     36.4409E-03    -291.354E-03     582.794E-03    -292.060E-03     34.8972E-03
            1079     6.04928E-03     168.980E-03    -95.1838E+06    -136.572E+06    -14.0192E+06    -6.31255E+06    -290.608E-03     582.763E-03    -292.155E-03     40.6505E-03    -290.972E-03     582.345E-03    -291.889E-03     38.3482E-03
            1080     6.72255E-03     169.044E-03    -85.2994E+06    -112.992E+06     897.788E+03    -6.33481E+06    -289.916E-03     581.897E-03    -291.981E-03     44.8495E-03    -290.327E-03     581.602E-03    -291.689E-03     41.6543E-03
            1081     7.39715E-03     169.113E-03    -75.5170E+06    -88.1658E+06     14.8928E+06    -5.93610E+06    -289.093E-03     580.854E-03    -291.761E-03     48.8437E-03    -289.563E-03     580.700E-03    -291.449E-03     44.6017E-03
            1082     8.07128E-03     169.191E-03    -66.6099E+06    -62.2093E+06     27.6757E+06    -5.04137E+06    -288.100E-03     579.594E-03    -291.494E-03     52.8979E-03    -288.646E-03     579.603E-03    -291.169E-03     47.4544E-03
            1083     8.74707E-03     169.271E-03    -57.4773E+06    -28.8448E+06     40.6945E+06    -3.58184E+06    -286.905E-03     578.079E-03    -291.174E-03     56.8919E-03    -287.556E-03     578.305E-03    -290.845E-03     50.0460E-03
            1084     9.42365E-03     169.357E-03    -48.0109E+06     13.3153E+06     54.0400E+06    -950.971E+03    -285.752E-03     576.556E-03    -290.804E-03     60.2545E-03    -286.535E-03     577.059E-03    -290.484E-03     51.8542E-03
            1085     10.1009E-03     169.448E-03    -40.2226E+06     74.7765E+06     69.0980E+06     3.09972E+06    -284.435E-03     574.824E-03    -290.389E-03     63.1447E-03    -285.408E-03     575.720E-03    -290.094E-03     53.0569E-03
            1086     10.7781E-03     169.542E-03    -32.5407E+06     126.360E+06     85.5907E+06     5.74515E+06    -283.099E-03     573.069E-03    -289.970E-03     65.8211E-03    -284.274E-03     574.329E-03    -289.678E-03     53.8663E-03
            1087     11.4552E-03     169.637E-03    -24.3327E+06     139.376E+06     106.428E+06     4.41687E+06    -282.079E-03     571.696E-03    -289.617E-03     66.2253E-03    -283.368E-03     573.085E-03    -289.252E-03     52.7104E-03
            1088     12.1372E-03     169.726E-03    -16.2742E+06     143.835E+06     127.837E+06     1.97939E+06    -281.298E-03     570.587E-03    -289.288E-03     67.8402E-03    -282.799E-03     572.169E-03    -288.834E-03     51.7853E-03
            1089     12.8111E-03     169.817E-03    -6.97899E+06     146.148E+06     134.418E+06     1.10397E+06    -280.725E-03     569.632E-03    -288.907E-03     56.7187E-03    -282.020E-03     571.032E-03    -288.437E-03     41.7058E-03
            1090     672.967E-06     170.406E-03    -165.332E+06    -300.868E+06    -162.371E+06    -1.24198E+06    -290.459E-03     581.325E-03    -290.866E-03     5.37722E-03    -290.615E-03     580.297E-03    -291.002E-03     5.39333E-03
            1091     1.34577E-03     170.418E-03    -162.264E+06    -289.592E+06    -150.886E+06    -2.10706E+06    -291.021E-03     581.792E-03    -290.771E-03     9.93135E-03    -291.197E-03     580.801E-03    -290.870E-03     10.1009E-03
            1092     2.01821E-03     170.435E-03    -155.035E+06    -271.928E+06    -133.629E+06    -3.05351E+06    -291.296E-03     582.250E-03    -290.954E-03     14.8858E-03    -291.489E-03     581.315E-03    -291.003E-03     15.0273E-03
            1093     2.69038E-03     170.459E-03    -146.981E+06    -250.135E+06    -112.714E+06    -3.93205E+06    -291.387E-03     582.506E-03    -291.119E-03     19.6325E-03    -291.608E-03     581.644E-03    -291.107E-03     19.6800E-03
            1094     3.36318E-03     170.490E-03    -137.870E+06    -227.002E+06    -90.8474E+06    -5.32290E+06    -291.416E-03     582.660E-03    -291.245E-03     24.2941E-03    -291.665E-03     581.878E-03    -291.170E-03     24.1461E-03
            1095     4.03600E-03     170.526E-03    -126.907E+06    -203.042E+06    -69.1711E+06    -6.71175E+06    -291.478E-03     582.818E-03    -291.340E-03     28.7182E-03    -291.752E-03     582.121E-03    -291.207E-03     28.2615E-03
            1096     4.70828E-03     170.570E-03    -116.336E+06    -179.218E+06    -49.2703E+06     -7.4335E+06    -291.455E-03     582.863E-03    -291.408E-03     32.8241E-03    -291.756E-03     582.257E-03    -291.226E-03     31.9425E-03
            1097     5.38070E-03     170.619E-03    -106.556E+06    -156.429E+06    -31.1953E+06    -8.00462E+06    -291.207E-03     582.646E-03    -291.438E-03     36.8955E-03    -291.541E-03     582.136E-03    -291.213E-03     35.4382E-03
            1098     6.05366E-03     170.677E-03    -96.3701E+06    -133.372E+06    -14.6958E+06    -8.74875E+06    -290.863E-03     582.284E-03    -291.421E-03     40.8557E-03    -291.234E-03     581.882E-03    -291.161E-03     38.6652E-03
            1099     6.72714E-03     170.739E-03    -86.0484E+06    -110.883E+06     156.197E+03    -9.33199E+06    -290.418E-03     581.776E-03    -291.358E-03     44.7807E-03    -290.830E-03     581.489E-03    -291.072E-03     41.6935E-03
            1100     7.40009E-03     170.808E-03    -76.3238E+06    -87.9627E+06     13.6788E+06    -9.53389E+06    -289.622E-03     580.865E-03    -291.243E-03     48.5966E-03    -290.087E-03     580.707E-03    -290.936E-03     44.4535E-03
            1101     8.07526E-03     170.881E-03    -66.7643E+06    -63.4935E+06     26.2451E+06    -9.09485E+06    -288.615E-03     579.680E-03    -291.064E-03     51.9372E-03    -289.147E-03     579.673E-03    -290.744E-03     46.5906E-03
            1102     8.75057E-03     170.961E-03    -56.9361E+06    -32.7899E+06     38.9235E+06    -7.64227E+06    -287.646E-03     578.474E-03    -290.828E-03     55.2533E-03    -288.266E-03     578.663E-03    -290.504E-03     48.5680E-03
            1103     9.42561E-03     171.045E-03    -48.1322E+06     3.94068E+06     50.9906E+06    -4.77488E+06    -286.469E-03     577.010E-03    -290.540E-03     58.9961E-03    -287.215E-03     577.450E-03    -290.221E-03     50.7533E-03
            1104     10.1014E-03     171.133E-03    -39.0641E+06     60.9749E+06     65.9652E+06     102.471E+03    -284.912E-03     575.099E-03    -290.187E-03     62.7168E-03    -285.839E-03     575.913E-03    -289.889E-03     52.7528E-03
            1105     10.7798E-03     171.224E-03    -30.2914E+06     121.645E+06     82.3764E+06     4.21413E+06    -283.283E-03     573.068E-03    -289.785E-03     65.7239E-03    -284.417E-03     574.288E-03    -289.506E-03     53.9429E-03
            1106     11.4602E-03     171.317E-03    -22.8265E+06     145.153E+06     103.006E+06     4.02880E+06    -281.948E-03     571.375E-03    -289.427E-03     66.3791E-03    -283.223E-03     572.785E-03    -289.089E-03     52.9893E-03
            1107     12.1361E-03     171.404E-03    -14.7162E+06     148.591E+06     127.413E+06     1.87883E+06    -281.139E-03     570.253E-03    -289.114E-03     68.4442E-03    -282.638E-03     571.858E-03    -288.671E-03     52.4403E-03
            1108     12.8215E-03     171.493E-03    -7.29681E+06     147.886E+06     135.660E+06     441.486E+03    -281.108E-03     569.870E-03    -288.762E-03     56.8586E-03    -282.412E-03     571.280E-03    -288.287E-03     41.7769E-03
            1109     673.509E-06     172.098E-03    -166.919E+06    -296.816E+06    -163.462E+06    -735.302E+03    -289.619E-03     578.609E-03    -288.990E-03     6.03194E-03    -289.787E-03     577.605E-03    -289.135E-03     6.08996E-03
            1110     1.34749E-03     172.110E-03    -162.339E+06    -283.658E+06    -151.207E+06    -2.19147E+06    -289.465E-03     578.835E-03    -289.370E-03     10.6955E-03    -289.649E-03     577.874E-03    -289.480E-03     10.8383E-03
            1111     2.02135E-03     172.128E-03    -156.014E+06    -265.994E+06    -133.415E+06    -3.76599E+06    -289.844E-03     579.358E-03    -289.514E-03     15.4748E-03    -290.051E-03     578.454E-03    -289.569E-03     15.6299E-03
            1112     2.69488E-03     172.153E-03    -147.179E+06    -244.028E+06    -112.413E+06    -5.52501E+06    -290.269E-03     579.981E-03    -289.712E-03     19.9978E-03    -290.500E-03     579.149E-03    -289.707E-03     20.0574E-03
            1113     3.36791E-03     172.184E-03    -137.269E+06    -220.691E+06    -90.2109E+06    -6.71016E+06    -290.639E-03     580.566E-03    -289.927E-03     24.4232E-03    -290.895E-03     579.812E-03    -289.859E-03     24.3003E-03
            1114     4.04048E-03     172.222E-03    -127.493E+06    -197.156E+06    -68.8248E+06    -7.76048E+06    -290.976E-03     581.112E-03    -290.135E-03     28.8677E-03    -291.261E-03     580.443E-03    -290.008E-03     28.4597E-03
            1115     4.71321E-03     172.266E-03    -117.484E+06    -173.823E+06    -49.0460E+06    -9.15304E+06    -291.226E-03     581.549E-03    -290.323E-03     33.2269E-03    -291.539E-03     580.970E-03    -290.146E-03     32.3869E-03
            1116     5.38599E-03     172.316E-03    -106.733E+06    -150.995E+06    -30.8713E+06    -10.5720E+06    -291.328E-03     581.808E-03    -290.480E-03     37.3377E-03    -291.669E-03     581.324E-03    -290.261E-03     35.9335E-03
            1117     6.05878E-03     172.372E-03    -96.0099E+06    -129.072E+06    -14.5465E+06    -11.5294E+06    -291.218E-03     581.812E-03    -290.594E-03     41.1747E-03    -291.590E-03     581.427E-03    -290.340E-03     39.0584E-03
            1118     6.73143E-03     172.435E-03    -86.3675E+06    -107.598E+06    -13.5761E+03    -12.0978E+06    -290.814E-03     581.466E-03    -290.652E-03     44.7505E-03    -291.226E-03     581.190E-03    -290.371E-03     41.7562E-03
            1119     7.40556E-03     172.501E-03    -77.3409E+06    -84.8435E+06     13.1703E+06    -12.8606E+06    -290.188E-03     580.833E-03    -290.645E-03     48.2122E-03    -290.653E-03     580.684E-03    -290.344E-03     44.1918E-03
            1120     8.07862E-03     172.574E-03    -68.0092E+06    -62.9658E+06     24.9729E+06    -13.1839E+06    -289.460E-03     580.035E-03    -290.576E-03     51.6725E-03    -289.986E-03     580.024E-03    -290.261E-03     46.4533E-03
            1121     8.75242E-03     172.651E-03    -59.1667E+06    -35.9564E+06     36.4376E+06    -12.2585E+06    -288.284E-03     578.719E-03    -290.436E-03     55.1177E-03    -288.894E-03     578.887E-03    -290.116E-03     48.5610E-03
            1122     9.42856E-03     172.733E-03    -50.2026E+06    -3.93001E+06     47.9191E+06    -9.91107E+06    -286.706E-03     576.916E-03    -290.211E-03     58.6215E-03    -287.428E-03     577.307E-03    -289.893E-03     50.5466E-03
            1123     10.1063E-03     172.818E-03    -41.1398E+06     45.4438E+06     61.0450E+06    -5.06837E+06    -285.226E-03     575.126E-03    -289.899E-03     61.9683E-03    -286.111E-03     575.849E-03    -289.600E-03     52.1751E-03
            1124     10.7830E-03     172.906E-03    -32.3215E+06     113.015E+06     77.0468E+06     108.062E+03    -283.797E-03     573.327E-03    -289.529E-03     64.6003E-03    -284.900E-03     574.492E-03    -289.261E-03     52.9073E-03
            1125     11.4596E-03     172.995E-03    -23.1657E+06     148.613E+06     99.2239E+06     1.94769E+06    -282.435E-03     571.641E-03    -289.206E-03     64.7624E-03    -283.690E-03     573.053E-03    -288.891E-03     51.3813E-03
            1126     12.1427E-03     173.081E-03    -14.9363E+06     151.502E+06     124.494E+06     1.67634E+06    -281.540E-03     570.477E-03    -288.937E-03     66.5227E-03    -283.016E-03     572.077E-03    -288.513E-03     50.5275E-03
            1127     12.8154E-03     173.172E-03    -7.79090E+06     148.817E+06     135.350E+06     595.972E+03    -281.331E-03     569.960E-03    -288.629E-03     55.7477E-03    -282.620E-03     571.358E-03    -288.157E-03     40.7310E-03
            1128     675.273E-06     173.786E-03    -165.172E+06    -290.405E+06    -163.461E+06    -1.78767E+06    -288.362E-03     575.739E-03    -287.377E-03     6.07937E-03    -288.530E-03     574.765E-03    -287.533E-03     6.18559E-03
            1129     1.34967E-03     173.797E-03    -160.606E+06    -277.146E+06    -150.157E+06    -3.00708E+06    -288.339E-03     576.334E-03    -287.995E-03     10.6894E-03    -288.525E-03     575.402E-03    -288.111E-03     10.8323E-03
            1130     2.02404E-03     173.817E-03    -153.915E+06    -258.636E+06    -131.775E+06    -4.49465E+06    -288.597E-03     576.807E-03    -288.210E-03     15.4061E-03    -288.807E-03     575.934E-03    -288.271E-03     15.5278E-03
            1131     2.69811E-03     173.843E-03    -145.669E+06    -236.914E+06    -110.527E+06    -5.89966E+06    -289.093E-03     577.525E-03    -288.432E-03     20.0566E-03    -289.329E-03     576.724E-03    -288.430E-03     20.1031E-03
            1132     3.37175E-03     173.876E-03    -136.528E+06    -213.809E+06    -88.1728E+06    -7.62973E+06    -289.700E-03     578.391E-03    -288.691E-03     24.8388E-03    -289.965E-03     577.668E-03    -288.624E-03     24.7057E-03
            1133     4.04544E-03     173.914E-03    -126.492E+06    -190.005E+06    -66.7349E+06    -9.40845E+06    -290.213E-03     579.174E-03    -288.961E-03     29.4986E-03    -290.504E-03     578.536E-03    -288.836E-03     29.0844E-03
            1134     4.71878E-03     173.960E-03    -115.569E+06    -166.730E+06    -46.9869E+06    -10.9635E+06    -290.742E-03     579.966E-03    -289.224E-03     33.8167E-03    -291.057E-03     579.415E-03    -289.049E-03     33.0090E-03
            1135     5.39156E-03     174.010E-03    -105.068E+06    -145.064E+06    -29.1011E+06    -12.0021E+06    -291.167E-03     580.642E-03    -289.475E-03     37.7917E-03    -291.508E-03     580.180E-03    -289.258E-03     36.4497E-03
            1136     6.06404E-03     174.067E-03    -95.9132E+06    -123.503E+06    -13.3218E+06    -12.9371E+06    -291.246E-03     580.938E-03    -289.692E-03     41.7424E-03    -291.623E-03     580.575E-03    -289.440E-03     39.7086E-03
            1137     6.73705E-03     174.129E-03    -86.4653E+06    -102.299E+06     976.715E+03    -14.2721E+06    -291.092E-03     580.944E-03    -289.853E-03     45.4229E-03    -291.508E-03     580.688E-03    -289.574E-03     42.5346E-03
            1138     7.40941E-03     174.195E-03    -77.0114E+06    -80.6829E+06     14.0001E+06    -14.7545E+06    -290.709E-03     580.662E-03    -289.953E-03     48.7586E-03    -291.173E-03     580.525E-03    -289.654E-03     44.8791E-03
            1139     8.08357E-03     174.267E-03    -68.9638E+06    -59.5166E+06     25.4084E+06    -15.1778E+06    -289.874E-03     579.854E-03    -289.980E-03     52.0249E-03    -290.400E-03     579.850E-03    -289.666E-03     46.9969E-03
            1140     8.75836E-03     174.342E-03    -60.4367E+06    -35.6121E+06     36.0911E+06    -15.6043E+06    -288.733E-03     578.652E-03    -289.919E-03     55.1440E-03    -289.336E-03     578.810E-03    -289.599E-03     48.7603E-03
            1141     9.43292E-03     174.420E-03    -51.5091E+06    -8.83638E+06     46.0998E+06    -14.3315E+06    -287.521E-03     577.297E-03    -289.776E-03     58.1481E-03    -288.221E-03     577.649E-03    -289.458E-03     50.2266E-03
            1142     10.1079E-03     174.503E-03    -42.8227E+06     33.6920E+06     57.4619E+06    -11.4197E+06    -286.102E-03     575.654E-03    -289.552E-03     61.0308E-03    -286.949E-03     576.302E-03    -289.252E-03     51.3773E-03
            1143     10.7854E-03     174.589E-03    -33.7109E+06     100.014E+06     72.7494E+06    -6.45893E+06    -284.537E-03     573.790E-03    -289.254E-03     63.4851E-03    -285.595E-03     574.873E-03    -288.986E-03     51.8891E-03
            1144     11.4647E-03     174.676E-03    -24.7812E+06     144.109E+06     93.5987E+06    -1.72997E+06    -283.336E-03     572.312E-03    -288.976E-03     64.2596E-03    -284.564E-03     573.692E-03    -288.681E-03     50.9648E-03
            1145     12.1382E-03     174.760E-03    -16.0451E+06     152.384E+06     119.449E+06    -177.776E+03    -282.125E-03     570.881E-03    -288.755E-03     66.9047E-03    -283.605E-03     572.498E-03    -288.356E-03     50.8144E-03
            1146     12.8237E-03     174.848E-03    -7.05973E+06     149.099E+06     135.958E+06     19.3595E+03    -281.293E-03     569.790E-03    -288.496E-03     56.6295E-03    -282.589E-03     571.196E-03    -288.023E-03     41.6071E-03
            1147     675.512E-06     175.468E-03    -162.898E+06    -281.974E+06    -159.128E+06    -2.28010E+06    -286.996E-03     573.794E-03    -286.797E-03     5.87202E-03    -287.171E-03     572.852E-03    -286.948E-03     6.04077E-03
            1148     1.35085E-03     175.482E-03    -157.815E+06    -269.718E+06    -147.203E+06    -3.54509E+06    -287.186E-03     574.174E-03    -286.987E-03     10.4627E-03    -287.374E-03     573.270E-03    -287.103E-03     10.5786E-03
            1149     2.02589E-03     175.501E-03    -151.436E+06    -251.222E+06    -128.851E+06    -4.97612E+06    -287.396E-03     574.540E-03    -287.144E-03     15.5079E-03    -287.608E-03     573.697E-03    -287.205E-03     15.5971E-03
            1150     2.70112E-03     175.529E-03    -143.187E+06    -228.961E+06    -107.254E+06    -6.76957E+06    -287.813E-03     575.135E-03    -287.322E-03     20.6338E-03    -288.053E-03     574.365E-03    -287.319E-03     20.6431E-03
            1151     3.37605E-03     175.563E-03    -133.179E+06    -205.338E+06    -84.6164E+06    -8.73132E+06    -288.546E-03     576.102E-03    -287.556E-03     25.4058E-03    -288.811E-03     575.410E-03    -287.488E-03     25.2585E-03
            1152     4.05008E-03     175.603E-03    -122.452E+06    -181.834E+06    -62.7420E+06    -10.4880E+06    -289.398E-03     577.245E-03    -287.847E-03     29.9561E-03    -289.686E-03     576.635E-03    -287.720E-03     29.5434E-03
            1153     4.72359E-03     175.650E-03    -112.006E+06    -159.716E+06    -42.9072E+06    -11.6850E+06    -290.041E-03     578.202E-03    -288.161E-03     34.3336E-03    -290.353E-03     577.673E-03    -287.981E-03     33.5466E-03
            1154     5.39686E-03     175.703E-03    -102.380E+06    -138.505E+06    -25.2842E+06    -12.9416E+06    -290.475E-03     578.931E-03    -288.456E-03     38.6040E-03    -290.815E-03     578.490E-03    -288.234E-03     37.3016E-03
            1155     6.07023E-03     175.760E-03    -92.0384E+06    -116.981E+06    -9.38099E+06    -14.2501E+06    -290.828E-03     579.547E-03    -288.719E-03     42.6054E-03    -291.196E-03     579.201E-03    -288.463E-03     40.6528E-03
            1156     6.74319E-03     175.822E-03    -82.6108E+06    -96.5228E+06     4.59748E+06    -14.8274E+06    -290.979E-03     579.925E-03    -288.946E-03     46.3417E-03    -291.384E-03     579.681E-03    -288.664E-03     43.5988E-03
            1157     7.41667E-03     175.889E-03    -74.0393E+06    -75.9928E+06     17.1790E+06    -15.5131E+06    -290.831E-03     579.957E-03    -289.125E-03     49.7920E-03    -291.284E-03     579.827E-03    -288.822E-03     46.0951E-03
            1158     8.08928E-03     175.959E-03    -65.0380E+06    -54.9258E+06     28.9855E+06    -16.0672E+06    -290.291E-03     579.532E-03    -289.241E-03     52.6320E-03    -290.798E-03     579.529E-03    -288.922E-03     47.8202E-03
            1159     8.76291E-03     176.032E-03    -57.6356E+06    -32.5411E+06     39.1129E+06    -16.2563E+06    -289.438E-03     578.717E-03    -289.279E-03     55.2532E-03    -290.020E-03     578.865E-03    -288.953E-03     49.1396E-03
            1160     9.43782E-03     176.109E-03    -50.7613E+06    -8.88514E+06     47.8166E+06    -16.4964E+06    -288.379E-03     577.616E-03    -289.237E-03     58.1614E-03    -289.057E-03     577.944E-03    -288.912E-03     50.5332E-03
            1161     10.1136E-03     176.189E-03    -43.0171E+06     29.0325E+06     57.8344E+06    -15.7885E+06    -286.977E-03     576.084E-03    -289.107E-03     61.3141E-03    -287.795E-03     576.684E-03    -288.798E-03     51.9542E-03
            1162     10.7891E-03     176.272E-03    -34.6052E+06     86.5758E+06     70.7407E+06    -12.4170E+06    -285.470E-03     574.361E-03    -288.892E-03     64.1676E-03    -286.487E-03     575.358E-03    -288.613E-03     52.8302E-03
            1163     11.4649E-03     176.357E-03    -25.5932E+06     133.977E+06     88.2408E+06    -7.15986E+06    -284.042E-03     572.701E-03    -288.659E-03     65.0247E-03    -285.235E-03     574.023E-03    -288.375E-03     51.9003E-03
            1164     12.1475E-03     176.441E-03    -16.5587E+06     149.958E+06     112.741E+06    -3.75744E+06    -282.796E-03     571.269E-03    -288.473E-03     67.3299E-03    -284.259E-03     572.878E-03    -288.102E-03     51.2528E-03
            1165     12.8200E-03     176.524E-03    -7.63495E+06     145.819E+06     134.448E+06    -1.55934E+06    -282.220E-03     570.515E-03    -288.295E-03     57.0682E-03    -283.512E-03     571.908E-03    -287.823E-03     41.9965E-03
            1166     675.672E-06     177.149E-03    -157.626E+06    -272.745E+06    -155.388E+06    -2.22256E+06    -286.230E-03     572.347E-03    -286.117E-03     6.45076E-03    -286.398E-03     571.438E-03    -286.270E-03     6.57146E-03
            1167     1.35178E-03     177.162E-03    -154.305E+06    -260.810E+06    -142.885E+06    -4.12718E+06    -286.026E-03     572.203E-03    -286.177E-03     10.8048E-03    -286.215E-03     571.333E-03    -286.290E-03     10.8790E-03
            1168     2.02812E-03     177.182E-03    -146.889E+06    -242.307E+06    -124.336E+06    -6.27865E+06    -286.267E-03     572.480E-03    -286.213E-03     15.7844E-03    -286.476E-03     571.668E-03    -286.270E-03     15.8386E-03
            1169     2.70384E-03     177.211E-03    -137.535E+06    -219.790E+06    -102.183E+06    -8.10524E+06    -286.775E-03     573.124E-03    -286.349E-03     20.8582E-03    -287.006E-03     572.383E-03    -286.342E-03     20.8606E-03
            1170     3.37918E-03     177.246E-03    -127.591E+06    -196.387E+06    -79.3557E+06    -9.66472E+06    -287.437E-03     573.999E-03    -286.561E-03     25.7712E-03    -287.694E-03     573.335E-03    -286.488E-03     25.6429E-03
            1171     4.05411E-03     177.289E-03    -117.157E+06    -173.677E+06    -57.3125E+06    -11.0593E+06    -288.180E-03     575.004E-03    -286.824E-03     30.7372E-03    -288.460E-03     574.418E-03    -286.689E-03     30.3525E-03
            1172     4.72846E-03     177.338E-03    -107.041E+06    -152.098E+06    -37.2711E+06    -12.7636E+06    -288.838E-03     575.946E-03    -287.108E-03     35.4565E-03    -289.142E-03     575.438E-03    -286.919E-03     34.6942E-03
            1173     5.40286E-03     177.391E-03    -96.1457E+06    -130.832E+06    -19.3946E+06    -14.3243E+06    -289.455E-03     576.846E-03    -287.390E-03     39.9218E-03    -289.781E-03     576.421E-03    -287.158E-03     38.6918E-03
            1174     6.07653E-03     177.451E-03    -86.1844E+06    -111.246E+06    -4.16307E+06    -15.0435E+06    -290.028E-03     577.692E-03    -287.664E-03     44.0005E-03    -290.379E-03     577.354E-03    -287.398E-03     42.1806E-03
            1175     6.74993E-03     177.513E-03    -76.9109E+06    -91.8058E+06     9.72921E+06    -15.3642E+06    -290.358E-03     578.277E-03    -287.920E-03     47.8050E-03    -290.742E-03     578.034E-03    -287.627E-03     45.2587E-03
            1176     7.42309E-03     177.580E-03    -68.0584E+06    -70.9445E+06     22.5727E+06    -15.6017E+06    -290.408E-03     578.546E-03    -288.138E-03     51.3067E-03    -290.836E-03     578.415E-03    -287.824E-03     47.8955E-03
            1177     8.09716E-03     177.651E-03    -60.4375E+06    -51.1021E+06     33.7467E+06    -15.8886E+06    -290.369E-03     578.684E-03    -288.315E-03     54.4503E-03    -290.852E-03     578.673E-03    -287.984E-03     50.0027E-03
            1178     8.77065E-03     177.723E-03    -52.5871E+06    -28.7549E+06     44.4217E+06    -16.0117E+06    -290.067E-03     578.512E-03    -288.446E-03     57.3147E-03    -290.620E-03     578.648E-03    -288.105E-03     51.6432E-03
            1179     9.44424E-03     177.798E-03    -45.5290E+06    -5.18569E+06     53.5124E+06    -16.1548E+06    -289.182E-03     577.692E-03    -288.510E-03     59.8169E-03    -289.827E-03     578.002E-03    -288.168E-03     52.6509E-03
            1180     10.1189E-03     177.876E-03    -39.0036E+06     28.9680E+06     62.5873E+06    -16.0359E+06    -287.860E-03     576.341E-03    -288.481E-03     62.2499E-03    -288.637E-03     576.902E-03    -288.154E-03     53.3474E-03
            1181     10.7954E-03     177.957E-03    -32.0253E+06     79.8456E+06     73.9584E+06    -14.7295E+06    -286.437E-03     574.799E-03    -288.363E-03     65.0740E-03    -287.406E-03     575.724E-03    -288.062E-03     54.1805E-03
            1182     11.4731E-03     178.041E-03    -24.5969E+06     124.668E+06     87.9720E+06    -12.4220E+06    -285.260E-03     573.470E-03    -288.210E-03     65.9703E-03    -286.410E-03     574.720E-03    -287.915E-03     53.1337E-03
            1183     12.1461E-03     178.119E-03    -15.8948E+06     140.123E+06     108.806E+06    -7.83109E+06    -284.486E-03     572.594E-03    -288.109E-03     67.9287E-03    -285.902E-03     574.136E-03    -287.745E-03     52.0347E-03
            1184     12.8293E-03     178.206E-03    -8.03501E+06     138.196E+06     131.351E+06    -2.91166E+06    -284.375E-03     572.426E-03    -288.051E-03     57.2293E-03    -285.642E-03     573.774E-03    -287.583E-03     42.1686E-03
            1185     676.588E-06     178.826E-03    -152.593E+06    -261.715E+06    -149.997E+06    -2.56119E+06    -285.105E-03     570.433E-03    -285.329E-03     6.16112E-03    -285.271E-03     569.564E-03    -285.478E-03     6.22042E-03
            1186     1.35316E-03     178.839E-03    -147.968E+06    -249.255E+06    -137.165E+06    -5.25137E+06    -285.195E-03     570.439E-03    -285.244E-03     11.1351E-03    -285.377E-03     569.609E-03    -285.354E-03     11.2212E-03
            1187     2.02956E-03     178.860E-03    -140.862E+06    -231.337E+06    -118.849E+06    -7.55347E+06    -285.460E-03     570.777E-03    -285.317E-03     16.2527E-03    -285.662E-03     570.002E-03    -285.371E-03     16.3494E-03
            1188     2.70595E-03     178.890E-03    -132.047E+06    -209.990E+06    -97.2027E+06    -9.54078E+06    -285.821E-03     571.276E-03    -285.455E-03     21.5031E-03    -286.045E-03     570.568E-03    -285.446E-03     21.5577E-03
            1189     3.38205E-03     178.926E-03    -121.939E+06    -187.370E+06    -74.1095E+06    -11.2823E+06    -286.172E-03     571.797E-03    -285.625E-03     26.7037E-03    -286.419E-03     571.161E-03    -285.547E-03     26.6385E-03
            1190     4.05807E-03     178.971E-03    -111.546E+06    -165.426E+06    -52.0016E+06    -12.8370E+06    -286.517E-03     572.315E-03    -285.797E-03     31.8434E-03    -286.786E-03     571.750E-03    -285.656E-03     31.5674E-03
            1191     4.73409E-03     179.021E-03    -100.581E+06    -143.848E+06    -31.6231E+06    -14.1086E+06    -287.152E-03     573.134E-03    -285.982E-03     36.9338E-03    -287.440E-03     572.646E-03    -285.786E-03     36.3452E-03
            1192     5.40894E-03     179.077E-03    -90.1956E+06    -124.030E+06    -13.7238E+06    -14.9711E+06    -287.925E-03     574.121E-03    -286.197E-03     41.9449E-03    -288.233E-03     573.709E-03    -285.955E-03     40.9278E-03
            1193     6.08373E-03     179.137E-03    -80.4988E+06    -105.741E+06     1.68579E+06    -15.6357E+06    -288.538E-03     574.965E-03    -286.427E-03     46.6795E-03    -288.870E-03     574.631E-03    -286.149E-03     45.1193E-03
            1194     6.75837E-03     179.202E-03    -70.9627E+06    -87.1357E+06     15.3358E+06    -16.1134E+06    -289.117E-03     575.775E-03    -286.658E-03     51.0233E-03    -289.477E-03     575.529E-03    -286.352E-03     48.8073E-03
            1195     7.43274E-03     179.269E-03    -61.9727E+06    -67.7575E+06     27.6774E+06    -16.0237E+06    -289.641E-03     576.527E-03    -286.885E-03     54.7450E-03    -290.039E-03     576.383E-03    -286.559E-03     51.7567E-03
            1196     8.10649E-03     179.339E-03    -53.7145E+06    -48.5637E+06     39.2249E+06    -15.2134E+06    -289.988E-03     577.094E-03    -287.106E-03     57.8124E-03    -290.433E-03     577.062E-03    -286.762E-03     53.9021E-03
            1197     8.78049E-03     179.413E-03    -46.4316E+06    -25.6411E+06     50.0662E+06    -14.5467E+06    -290.085E-03     577.389E-03    -287.304E-03     60.4452E-03    -290.599E-03     577.502E-03    -286.949E-03     55.4136E-03
            1198     9.45455E-03     179.487E-03    -39.8510E+06    -1.91989E+06     59.4948E+06    -14.3607E+06    -289.855E-03     577.319E-03    -287.464E-03     62.9434E-03    -290.459E-03     577.603E-03    -287.106E-03     56.4970E-03
            1199     10.1287E-03     179.564E-03    -33.8176E+06     31.6472E+06     68.8528E+06    -14.2951E+06    -289.235E-03     576.801E-03    -287.566E-03     65.3152E-03    -289.973E-03     577.331E-03    -287.218E-03     57.1050E-03
            1200     10.8029E-03     179.642E-03    -27.4846E+06     81.1475E+06     80.1942E+06    -14.6663E+06    -288.321E-03     575.921E-03    -287.600E-03     67.2126E-03    -289.245E-03     576.803E-03    -287.277E-03     56.9437E-03
            1201     11.4778E-03     179.724E-03    -20.7681E+06     119.203E+06     93.1412E+06    -13.6384E+06    -287.672E-03     575.289E-03    -287.617E-03     67.2070E-03    -288.768E-03     576.465E-03    -287.294E-03     54.8582E-03
            1202     12.1573E-03     179.805E-03    -14.7429E+06     126.044E+06     108.699E+06    -9.35573E+06    -287.540E-03     575.226E-03    -287.686E-03     68.4180E-03    -288.903E-03     576.669E-03    -287.304E-03     52.7417E-03
            1203     12.8269E-03     179.887E-03    -6.56622E+06     126.915E+06     127.870E+06    -3.95937E+06    -287.687E-03     575.482E-03    -287.794E-03     57.1583E-03    -288.906E-03     576.757E-03    -287.330E-03     42.1919E-03
            1204     677.234E-06     180.500E-03    -146.793E+06    -248.344E+06    -143.956E+06    -3.17303E+06    -283.861E-03     568.277E-03    -284.415E-03     6.37564E-03    -284.027E-03     567.457E-03    -284.562E-03     6.48340E-03
            1205     1.35462E-03     180.513E-03    -142.209E+06    -236.291E+06    -131.473E+06    -5.91769E+06    -284.288E-03     568.486E-03    -284.198E-03     11.4598E-03    -284.467E-03     567.703E-03    -284.307E-03     11.6698E-03
            1206     2.03164E-03     180.536E-03    -135.422E+06    -219.151E+06    -113.374E+06    -8.46668E+06    -284.474E-03     568.780E-03    -284.306E-03     17.0429E-03    -284.673E-03     568.049E-03    -284.359E-03     17.3125E-03
            1207     2.70860E-03     180.565E-03    -126.988E+06    -198.907E+06    -91.9776E+06    -10.7638E+06    -284.502E-03     568.912E-03    -284.410E-03     22.6808E-03    -284.723E-03     568.242E-03    -284.397E-03     22.9293E-03
            1208     3.38564E-03     180.604E-03    -117.243E+06    -177.550E+06    -69.3647E+06    -12.7174E+06    -284.494E-03     568.977E-03    -284.484E-03     28.3610E-03    -284.734E-03     568.372E-03    -284.403E-03     28.5266E-03
            1209     4.06272E-03     180.647E-03    -106.905E+06    -156.547E+06    -47.5207E+06    -14.3374E+06    -284.657E-03     569.200E-03    -284.542E-03     33.9940E-03    -284.916E-03     568.661E-03    -284.398E-03     34.0102E-03
            1210     4.73965E-03     180.699E-03    -96.4918E+06    -136.213E+06    -27.4312E+06    -15.3093E+06    -284.957E-03     569.563E-03    -284.607E-03     39.7564E-03    -285.233E-03     569.093E-03    -284.406E-03     39.5311E-03
            1211     5.41684E-03     180.756E-03    -86.2813E+06    -117.576E+06    -9.55552E+06    -16.0472E+06    -285.477E-03     570.168E-03    -284.691E-03     45.5038E-03    -285.771E-03     569.765E-03    -284.443E-03     44.9134E-03
            1212     6.09346E-03     180.818E-03    -76.2859E+06    -100.141E+06     5.90805E+06    -16.7089E+06    -286.286E-03     571.097E-03    -284.811E-03     50.9530E-03    -286.597E-03     570.764E-03    -284.526E-03     49.8946E-03
            1213     6.76947E-03     180.884E-03    -67.2529E+06    -83.2742E+06     18.9119E+06    -16.5257E+06    -287.238E-03     572.215E-03    -284.977E-03     55.8224E-03    -287.574E-03     571.961E-03    -284.664E-03     54.2141E-03
            1214     7.44492E-03     180.954E-03    -59.1951E+06    -66.1286E+06     30.4606E+06    -15.3815E+06    -288.286E-03     573.475E-03    -285.189E-03     60.0918E-03    -288.656E-03     573.312E-03    -284.855E-03     57.8129E-03
            1215     8.11971E-03     181.027E-03    -52.1169E+06    -47.7623E+06     41.3010E+06    -14.2657E+06    -289.222E-03     574.663E-03    -285.441E-03     63.6416E-03    -289.641E-03     574.608E-03    -285.090E-03     60.5196E-03
            1216     8.79399E-03     181.100E-03    -45.6382E+06    -24.3768E+06     51.7505E+06    -13.3019E+06    -289.917E-03     575.625E-03    -285.708E-03     66.3458E-03    -290.406E-03     575.715E-03    -285.348E-03     62.1740E-03
            1217     9.46811E-03     181.176E-03    -38.6086E+06     408.177E+03     62.2299E+06    -12.5387E+06    -290.618E-03     576.604E-03    -285.986E-03     68.1501E-03    -291.191E-03     576.861E-03    -285.620E-03     62.6798E-03
            1218     10.1420E-03     181.252E-03    -31.7482E+06     35.7519E+06     72.7774E+06    -12.5859E+06    -291.305E-03     577.570E-03    -286.265E-03     69.3799E-03    -292.003E-03     578.072E-03    -285.907E-03     62.1941E-03
            1219     10.8157E-03     181.331E-03    -26.0651E+06     86.0809E+06     84.7312E+06    -12.9670E+06    -291.624E-03     578.161E-03    -286.537E-03     70.1921E-03    -292.510E-03     579.015E-03    -286.201E-03     60.8127E-03
            1220     11.4890E-03     181.412E-03    -20.2253E+06     115.587E+06     95.9820E+06    -12.2269E+06    -291.513E-03     578.334E-03    -286.822E-03     69.5586E-03    -292.564E-03     579.446E-03    -286.480E-03     57.9318E-03
            1221     12.1580E-03     181.493E-03    -13.2655E+06     113.049E+06     107.211E+06    -8.85395E+06    -291.616E-03     578.752E-03    -287.136E-03     70.9050E-03    -292.918E-03     580.097E-03    -286.744E-03     55.7601E-03
            1222     12.8351E-03     181.580E-03    -6.85700E+06     115.519E+06     122.275E+06    -4.31485E+06    -292.282E-03     579.754E-03    -287.471E-03     59.1514E-03    -293.457E-03     580.960E-03    -287.017E-03     44.5218E-03
            1223     678.167E-06     182.171E-03    -142.447E+06    -234.197E+06    -139.485E+06    -3.24571E+06    -283.085E-03     565.798E-03    -282.712E-03     6.63804E-03    -283.256E-03     565.035E-03    -282.863E-03     6.89651E-03
            1224     1.35596E-03     182.185E-03    -138.329E+06    -222.827E+06    -127.359E+06    -5.76986E+06    -282.813E-03     565.723E-03    -282.909E-03     12.0977E-03    -282.998E-03     564.994E-03    -283.022E-03     12.5263E-03
            1225     2.03414E-03     182.207E-03    -132.132E+06    -206.428E+06    -109.497E+06    -8.27866E+06    -282.592E-03     565.481E-03    -282.889E-03     18.3659E-03    -282.796E-03     564.800E-03    -282.945E-03     18.9401E-03
            1226     2.71226E-03     182.237E-03    -124.323E+06    -186.961E+06    -88.4228E+06    -10.6634E+06    -282.329E-03     565.162E-03    -282.833E-03     24.8139E-03    -282.554E-03     564.537E-03    -282.824E-03     25.4610E-03
            1227     3.39098E-03     182.274E-03    -115.486E+06    -166.975E+06    -66.6341E+06    -12.6574E+06    -282.144E-03     564.901E-03    -282.757E-03     31.3774E-03    -282.387E-03     564.334E-03    -282.680E-03     32.0387E-03
            1228     4.06986E-03     182.319E-03    -106.312E+06    -147.353E+06    -45.6686E+06    -14.0282E+06    -282.076E-03     564.753E-03    -282.677E-03     37.9072E-03    -282.336E-03     564.244E-03    -282.538E-03     38.5141E-03
            1229     4.74873E-03     182.370E-03    -97.0391E+06    -128.761E+06    -26.4699E+06    -15.0515E+06    -282.133E-03     564.736E-03    -282.604E-03     44.5295E-03    -282.408E-03     564.286E-03    -282.408E-03     44.9847E-03
            1230     5.42778E-03     182.428E-03    -88.0199E+06    -111.456E+06    -9.54891E+06    -15.5364E+06    -282.524E-03     565.078E-03    -282.554E-03     51.0229E-03    -282.814E-03     564.687E-03    -282.313E-03     51.2359E-03
            1231     6.10662E-03     182.492E-03    -79.8806E+06    -95.4032E+06     4.94219E+06    -15.4456E+06    -283.418E-03     565.982E-03    -282.563E-03     57.1274E-03    -283.726E-03     565.652E-03    -282.284E-03     57.0031E-03
            1232     6.78478E-03     182.560E-03    -72.4205E+06    -80.4853E+06     17.3011E+06    -15.0067E+06    -284.741E-03     567.401E-03    -282.659E-03     62.8178E-03    -285.073E-03     567.139E-03    -282.351E-03     62.2268E-03
            1233     7.46203E-03     182.632E-03    -64.9085E+06    -64.8767E+06     28.1811E+06    -14.4875E+06    -286.294E-03     569.143E-03    -282.849E-03     67.7802E-03    -286.657E-03     568.963E-03    -282.519E-03     66.5642E-03
            1234     8.13854E-03     182.707E-03    -56.7825E+06    -46.3573E+06     38.9492E+06    -13.8280E+06    -288.148E-03     571.282E-03    -283.134E-03     71.5359E-03    -288.552E-03     571.207E-03    -282.790E-03     69.5305E-03
            1235     8.81384E-03     182.784E-03    -49.0892E+06    -23.4624E+06     49.7282E+06    -13.0556E+06    -290.308E-03     573.829E-03    -283.522E-03     73.7785E-03    -290.773E-03     573.893E-03    -283.168E-03     70.7689E-03
            1236     9.48766E-03     182.862E-03    -41.5337E+06     1.05871E+06     60.7175E+06    -12.0676E+06    -292.517E-03     576.527E-03    -284.011E-03     74.6849E-03    -293.060E-03     576.751E-03    -283.648E-03     70.4040E-03
            1237     10.1596E-03     182.943E-03    -34.1934E+06     42.4018E+06     73.5583E+06    -12.5515E+06    -294.427E-03     578.992E-03    -284.565E-03     74.6769E-03    -295.097E-03     579.478E-03    -284.209E-03     68.7441E-03
            1238     10.8297E-03     183.024E-03    -26.5868E+06     89.5722E+06     85.9606E+06    -13.8231E+06    -295.714E-03     580.865E-03    -285.151E-03     74.3077E-03    -296.553E-03     581.679E-03    -284.813E-03     66.1147E-03
            1239     11.4992E-03     183.107E-03    -18.4031E+06     110.525E+06     96.3253E+06    -12.1345E+06    -296.465E-03     582.234E-03    -285.769E-03     72.7792E-03    -297.449E-03     583.267E-03    -285.421E-03     62.0857E-03
            1240     12.1726E-03     183.188E-03    -11.7920E+06     103.063E+06     105.260E+06    -8.33178E+06    -297.299E-03     583.716E-03    -286.418E-03     73.2974E-03    -298.527E-03     584.964E-03    -286.024E-03     58.8564E-03
            1241     12.8375E-03     183.277E-03    -6.47792E+06     103.840E+06     116.320E+06    -3.72272E+06    -298.569E-03     585.646E-03    -287.077E-03     60.2318E-03    -299.681E-03     586.767E-03    -286.637E-03     45.9822E-03
            1242     678.967E-06     183.837E-03    -143.012E+06    -223.635E+06    -139.670E+06    -1.62235E+06    -280.862E-03     561.295E-03    -280.434E-03     7.60354E-03    -281.050E-03     560.586E-03    -280.600E-03     8.03869E-03
            1243     1.35856E-03     183.851E-03    -140.139E+06    -212.384E+06    -128.299E+06    -2.98991E+06    -280.166E-03     560.739E-03    -280.573E-03     14.3196E-03    -280.371E-03     560.064E-03    -280.703E-03     15.0796E-03
            1244     2.03838E-03     183.872E-03    -135.627E+06    -195.987E+06    -111.274E+06    -4.58836E+06    -279.604E-03     559.988E-03    -280.384E-03     21.4097E-03    -279.832E-03     559.360E-03    -280.459E-03     22.4828E-03
            1245     2.71932E-03     183.900E-03    -129.764E+06    -176.598E+06    -90.9799E+06    -6.29613E+06    -279.123E-03     559.290E-03    -280.167E-03     28.5672E-03    -279.375E-03     558.718E-03    -280.178E-03     29.9095E-03
            1246     3.40002E-03     183.937E-03    -123.070E+06    -157.033E+06    -69.8525E+06    -8.13446E+06    -278.734E-03     558.683E-03    -279.949E-03     35.9927E-03    -279.008E-03     558.164E-03    -279.892E-03     37.5161E-03
            1247     4.08107E-03     183.981E-03    -115.481E+06    -138.576E+06    -49.6699E+06     -9.9802E+06    -278.496E-03     558.233E-03    -279.737E-03     43.5489E-03    -278.785E-03     557.764E-03    -279.617E-03     45.1605E-03
            1248     4.76287E-03     184.032E-03    -107.437E+06    -121.523E+06    -31.4962E+06    -11.3502E+06    -278.687E-03     558.245E-03    -279.557E-03     51.0152E-03    -278.987E-03     557.821E-03    -279.383E-03     52.6232E-03
            1249     5.44423E-03     184.091E-03    -99.4106E+06    -105.546E+06    -15.4688E+06    -12.2310E+06    -279.300E-03     558.744E-03    -279.443E-03     58.2704E-03    -279.608E-03     558.368E-03    -279.223E-03     59.7613E-03
            1250     6.12547E-03     184.155E-03    -91.0991E+06    -90.3215E+06    -1.17623E+06    -12.9088E+06    -280.398E-03     559.817E-03    -279.419E-03     65.0473E-03    -280.715E-03     559.493E-03    -279.162E-03     66.2902E-03
            1251     6.80612E-03     184.227E-03    -82.5004E+06    -75.7139E+06     11.3805E+06    -14.0271E+06    -282.129E-03     561.642E-03    -279.512E-03     71.0101E-03    -282.459E-03     561.376E-03    -279.226E-03     71.8294E-03
            1252     7.48562E-03     184.302E-03    -73.4538E+06    -60.6976E+06     22.5118E+06    -15.0246E+06    -284.582E-03     564.335E-03    -279.752E-03     75.9355E-03    -284.931E-03     564.141E-03    -279.445E-03     76.1471E-03
            1253     8.16328E-03     184.382E-03    -64.2985E+06    -43.5949E+06     33.2736E+06    -15.3236E+06    -287.780E-03     567.950E-03    -280.169E-03     79.4856E-03    -288.161E-03     567.850E-03    -279.846E-03     78.9120E-03
            1254     8.83841E-03     184.465E-03    -55.1406E+06    -21.6028E+06     44.6669E+06    -15.2781E+06    -291.561E-03     572.341E-03    -280.780E-03     81.3489E-03    -291.994E-03     572.372E-03    -280.445E-03     79.7661E-03
            1255     9.51054E-03     184.550E-03    -46.0966E+06     4.46694E+06     56.9928E+06    -16.1664E+06    -295.378E-03     576.953E-03    -281.574E-03     81.6704E-03    -295.889E-03     577.151E-03    -281.229E-03     78.7187E-03
            1256     10.1806E-03     184.636E-03    -35.7447E+06     49.3517E+06     71.9452E+06    -17.3504E+06    -298.575E-03     581.066E-03    -282.491E-03     80.6315E-03    -299.207E-03     581.538E-03    -282.151E-03     75.9241E-03
            1257     10.8495E-03     184.722E-03    -26.0879E+06     91.3432E+06     84.9377E+06    -17.1155E+06    -301.195E-03     584.679E-03    -283.484E-03     78.3461E-03    -301.973E-03     585.443E-03    -283.154E-03     71.3589E-03
            1258     11.5167E-03     184.808E-03    -19.4931E+06     99.4016E+06     92.8740E+06    -13.3136E+06    -303.400E-03     587.949E-03    -284.550E-03     74.2348E-03    -304.299E-03     588.864E-03    -284.201E-03     64.5950E-03
            1259     12.1779E-03     184.893E-03    -13.6250E+06     91.8956E+06     100.390E+06    -7.46688E+06    -304.805E-03     590.448E-03    -285.644E-03     73.1027E-03    -305.945E-03     591.576E-03    -285.255E-03     59.3710E-03
            1260     12.8444E-03     184.988E-03    -7.39868E+06     95.4371E+06     111.221E+06    -3.83921E+06    -305.259E-03     591.958E-03    -286.699E-03     60.2244E-03    -306.305E-03     592.995E-03    -286.271E-03     46.4226E-03
            1261     682.207E-06     185.494E-03    -167.247E+06    -219.939E+06    -163.558E+06    -6.90210E+03    -276.234E-03     552.455E-03    -276.221E-03     9.52853E-03    -276.513E-03     551.831E-03    -276.477E-03     10.1746E-03
            1262     1.36448E-03     185.505E-03    -162.678E+06    -208.176E+06    -149.972E+06    -218.210E+03    -275.752E-03     551.907E-03    -276.155E-03     17.4349E-03    -276.039E-03     551.310E-03    -276.367E-03     18.6702E-03
            1263     2.04754E-03     185.525E-03     -156.05E+06    -191.142E+06    -130.254E+06    -574.019E+03    -275.315E-03     551.298E-03    -275.983E-03     25.6267E-03    -275.614E-03     550.740E-03    -276.131E-03     27.4284E-03
            1264     2.73031E-03     185.553E-03    -148.113E+06    -171.147E+06    -107.046E+06    -1.04949E+06    -274.764E-03     550.548E-03    -275.784E-03     33.8711E-03    -275.075E-03     550.034E-03    -275.856E-03     36.1580E-03
            1265     3.41436E-03     185.588E-03    -139.389E+06    -150.558E+06    -82.9596E+06    -1.80277E+06    -274.367E-03     549.928E-03    -275.561E-03     42.1541E-03    -274.686E-03     549.457E-03    -275.556E-03     44.8421E-03
            1266     4.09917E-03     185.631E-03    -130.731E+06    -130.960E+06    -60.5912E+06    -3.28767E+06    -274.477E-03     549.842E-03    -275.365E-03     50.2611E-03    -274.802E-03     549.411E-03    -275.288E-03     53.2412E-03
            1267     4.78334E-03     185.683E-03    -122.289E+06    -113.266E+06    -41.3999E+06    -5.63657E+06    -275.079E-03     550.319E-03    -275.240E-03     58.0511E-03    -275.405E-03     549.927E-03    -275.105E-03     61.1789E-03
            1268     5.46768E-03     185.741E-03    -113.495E+06    -96.3274E+06    -24.8893E+06    -8.64935E+06    -276.225E-03     551.440E-03    -275.215E-03     65.4062E-03    -276.548E-03     551.090E-03    -275.035E-03     68.5277E-03
            1269     6.15118E-03     185.809E-03    -104.010E+06    -79.9754E+06    -10.3166E+06    -12.7468E+06    -278.013E-03     553.332E-03    -275.319E-03     72.1256E-03    -278.334E-03     553.030E-03    -275.104E-03     75.0373E-03
            1270     6.83345E-03     185.883E-03    -92.7952E+06    -64.9110E+06     3.08659E+06    -17.2476E+06    -280.577E-03     556.162E-03    -275.585E-03     77.8244E-03    -280.894E-03     555.910E-03    -275.341E-03     80.3141E-03
            1271     7.51402E-03     185.964E-03    -80.5617E+06    -52.3462E+06     15.2755E+06    -20.9279E+06    -284.158E-03     560.209E-03    -276.052E-03     82.4335E-03    -284.473E-03     560.009E-03    -275.783E-03     84.2964E-03
            1272     8.19179E-03     186.052E-03    -68.0592E+06    -37.9152E+06     26.7998E+06    -23.3247E+06    -288.599E-03     565.348E-03    -276.749E-03     85.6708E-03    -288.927E-03     565.222E-03    -276.461E-03     86.6818E-03
            1273     8.86658E-03     186.143E-03    -54.6129E+06    -17.8786E+06     39.3813E+06    -24.4057E+06    -293.579E-03     571.264E-03    -277.684E-03     87.4692E-03    -293.940E-03     571.253E-03    -277.382E-03     87.3673E-03
            1274     9.53793E-03     186.239E-03    -42.2517E+06      7.9226E+06     53.5264E+06    -23.6932E+06    -298.834E-03     577.684E-03    -278.851E-03     87.3400E-03    -299.260E-03     577.835E-03    -278.533E-03     85.8165E-03
            1275     10.2053E-03     186.333E-03    -34.0548E+06     50.3974E+06     67.9804E+06    -21.0046E+06    -303.900E-03     584.099E-03    -280.199E-03     85.1468E-03    -304.458E-03     584.520E-03    -279.882E-03     81.7779E-03
            1276     10.8687E-03     186.428E-03    -28.3901E+06     86.8278E+06     80.0902E+06    -16.8457E+06    -308.236E-03     589.927E-03    -281.691E-03     81.2526E-03    -308.946E-03     590.615E-03    -281.376E-03     75.5456E-03
            1277     11.5284E-03     186.522E-03    -22.3625E+06     90.2732E+06     87.7186E+06    -13.6611E+06    -311.240E-03     594.514E-03    -283.274E-03     76.3975E-03    -312.069E-03     595.331E-03    -282.934E-03     67.8738E-03
            1278     12.1898E-03     186.613E-03    -14.2336E+06     82.4311E+06     96.5164E+06    -11.6304E+06    -312.385E-03     597.231E-03    -284.845E-03     75.2828E-03    -313.458E-03     598.267E-03    -284.462E-03     62.2136E-03
            1279     12.8459E-03     186.705E-03    -5.06255E+06     83.9541E+06     110.687E+06    -6.55809E+06    -312.086E-03     598.405E-03    -286.319E-03     62.0487E-03    -313.077E-03     599.356E-03    -285.880E-03     48.4935E-03
            1280     686.630E-06     187.131E-03    -235.096E+06    -211.275E+06    -231.920E+06    -4.13321E+06    -269.734E-03     539.097E-03    -269.363E-03     10.8032E-03    -270.265E-03     538.711E-03    -269.875E-03     11.6712E-03
            1281     1.37377E-03     187.142E-03    -225.815E+06    -199.712E+06    -213.458E+06    -7.25931E+06    -269.518E-03     539.090E-03    -269.572E-03     19.8243E-03    -270.036E-03     538.712E-03    -270.022E-03     21.4883E-03
            1282     2.06042E-03     187.162E-03    -212.008E+06    -183.645E+06    -186.720E+06    -10.0816E+06    -269.388E-03     538.970E-03    -269.581E-03     29.0426E-03    -269.885E-03     538.599E-03    -269.941E-03     31.4510E-03
            1283     2.74824E-03     187.188E-03    -194.137E+06    -164.611E+06    -154.573E+06    -12.2193E+06    -269.354E-03     538.930E-03    -269.576E-03     38.0565E-03    -269.816E-03     538.564E-03    -269.829E-03     41.1473E-03
            1284     3.43592E-03     187.222E-03    -173.881E+06    -144.900E+06    -121.412E+06    -13.4424E+06    -269.783E-03     539.381E-03    -269.598E-03     46.7410E-03    -270.199E-03     539.015E-03    -269.743E-03     50.4386E-03
            1285     4.12290E-03     187.266E-03    -152.572E+06    -124.873E+06    -89.7736E+06    -14.0547E+06    -270.703E-03     540.397E-03    -269.693E-03     54.8457E-03    -271.066E-03     540.033E-03    -269.740E-03     59.0448E-03
            1286     4.81014E-03     187.319E-03    -131.717E+06    -105.301E+06    -61.3729E+06    -14.8937E+06    -272.162E-03     542.049E-03    -269.888E-03     62.2822E-03    -272.471E-03     541.694E-03    -269.851E-03     66.8285E-03
            1287     5.49614E-03     187.380E-03    -112.541E+06    -85.3442E+06    -36.9523E+06    -16.8580E+06    -274.260E-03     544.465E-03    -270.205E-03     69.0859E-03    -274.525E-03     544.134E-03    -270.103E-03     73.7732E-03
            1288     6.18090E-03     187.451E-03    -95.9765E+06    -67.0733E+06    -16.6071E+06    -19.5748E+06    -277.070E-03     547.746E-03    -270.676E-03     75.0430E-03    -277.303E-03     547.449E-03    -270.523E-03     79.6498E-03
            1289     6.86394E-03     187.531E-03    -83.0865E+06    -52.5487E+06    -94.3388E+03    -21.8863E+06    -280.770E-03     552.107E-03    -271.337E-03     80.0985E-03    -280.990E-03     551.846E-03    -271.141E-03     84.3914E-03
            1290     7.54414E-03     187.620E-03    -73.2391E+06    -38.9165E+06     13.5775E+06    -25.0680E+06    -285.279E-03     557.493E-03    -272.214E-03     84.1618E-03    -285.509E-03     557.286E-03    -271.983E-03     87.8648E-03
            1291     8.22136E-03     187.717E-03    -65.4285E+06    -24.9961E+06     24.5689E+06    -29.7045E+06    -290.488E-03     563.806E-03    -273.318E-03     87.1197E-03    -290.750E-03     563.677E-03    -273.064E-03     89.9113E-03
            1292     8.89462E-03     187.821E-03    -58.3858E+06    -9.91570E+06     34.8760E+06    -33.0231E+06    -296.307E-03     570.965E-03    -274.658E-03     88.6764E-03    -296.623E-03     570.939E-03    -274.384E-03     90.2324E-03
            1293     9.56390E-03     187.927E-03    -49.7441E+06     9.34995E+06     46.7559E+06    -33.5229E+06    -302.589E-03     578.823E-03    -276.234E-03     88.4942E-03    -302.976E-03     578.934E-03    -275.942E-03     88.4942E-03
            1294     10.2285E-03     188.037E-03    -38.3971E+06     41.0297E+06     60.0935E+06    -29.5633E+06    -308.943E-03     586.957E-03    -278.014E-03     86.7190E-03    -309.429E-03     587.280E-03    -277.717E-03     84.7934E-03
            1295     10.8884E-03     188.144E-03    -26.3905E+06     71.5860E+06     74.6014E+06    -21.6529E+06    -314.362E-03     594.324E-03    -279.962E-03     83.5854E-03    -314.967E-03     594.874E-03    -279.654E-03     79.2598E-03
            1296     11.5457E-03     188.247E-03    -16.3815E+06     84.8798E+06     86.1887E+06    -15.4240E+06    -318.006E-03     599.994E-03    -281.987E-03     78.7117E-03    -318.733E-03     600.715E-03    -281.656E-03     71.3938E-03
            1297     12.1987E-03     188.340E-03    -10.3980E+06     77.6579E+06     95.0461E+06    -12.6061E+06    -319.478E-03     603.466E-03    -283.987E-03     76.0931E-03    -320.447E-03     604.399E-03    -283.610E-03     64.0006E-03
            1298     12.8554E-03     188.439E-03    -6.83136E+06     66.7740E+06     110.227E+06    -7.99499E+06    -319.391E-03     605.286E-03    -285.895E-03     62.4395E-03    -320.312E-03     606.101E-03    -285.431E-03     49.4405E-03
            1299     692.507E-06     188.744E-03    -268.565E+06    -180.220E+06    -264.627E+06    -10.7509E+06    -262.948E-03     525.295E-03    -262.348E-03     9.92604E-03    -263.643E-03     525.161E-03    -263.020E-03     10.8894E-03
            1300     1.38414E-03     188.756E-03    -259.706E+06    -170.190E+06    -247.084E+06    -19.6613E+06    -262.936E-03     525.673E-03    -262.737E-03     18.4362E-03    -263.617E-03     525.542E-03    -263.349E-03     20.2077E-03
            1301     2.07645E-03     188.775E-03    -246.384E+06    -156.405E+06    -221.353E+06    -28.2980E+06    -263.355E-03     526.272E-03    -262.917E-03     26.9588E-03    -264.013E-03     526.139E-03    -263.440E-03     29.5374E-03
            1302     2.76783E-03     188.802E-03    -229.301E+06    -141.492E+06    -191.469E+06    -35.8378E+06    -264.311E-03     527.494E-03    -263.183E-03     35.3116E-03    -264.929E-03     527.349E-03    -263.603E-03     38.6866E-03
            1303     3.45852E-03     188.839E-03    -209.249E+06    -126.056E+06    -160.326E+06    -41.7397E+06    -265.723E-03     529.289E-03    -263.566E-03     43.3930E-03    -266.287E-03     529.126E-03    -263.882E-03     47.4985E-03
            1304     4.14887E-03     188.885E-03    -186.986E+06    -110.354E+06    -129.879E+06    -45.9116E+06    -267.612E-03     531.677E-03    -264.065E-03     50.9780E-03    -268.108E-03     531.493E-03    -264.283E-03     55.7234E-03
            1305     4.83731E-03     188.942E-03    -163.104E+06    -93.9743E+06    -100.419E+06    -48.2177E+06    -270.188E-03     534.888E-03    -264.700E-03     57.8819E-03    -270.610E-03     534.688E-03    -264.829E-03     63.1597E-03
            1306     5.52429E-03     189.009E-03    -138.887E+06    -75.8043E+06    -71.1897E+06    -48.5452E+06    -273.441E-03     538.942E-03    -265.501E-03     63.8988E-03    -273.795E-03     538.740E-03    -265.545E-03     69.5538E-03
            1307     6.20923E-03     189.086E-03    -115.645E+06    -61.1211E+06    -42.9931E+06    -46.7858E+06    -277.409E-03     543.903E-03    -266.493E-03     69.0352E-03    -277.700E-03     543.691E-03    -266.452E-03     74.8710E-03
            1308     6.89115E-03     189.174E-03    -93.7995E+06    -49.0396E+06    -17.3932E+06    -43.8489E+06    -282.062E-03     549.743E-03    -267.681E-03     73.4209E-03    -282.298E-03     549.523E-03    -267.561E-03     79.1957E-03
            1309     7.57011E-03     189.272E-03    -74.3175E+06    -33.7052E+06     5.32983E+06    -40.1141E+06    -287.237E-03     556.297E-03    -269.059E-03     76.9382E-03    -287.442E-03     556.104E-03    -268.876E-03     82.3542E-03
            1310     8.24548E-03     189.381E-03    -58.1640E+06    -17.4081E+06     25.1589E+06    -36.3229E+06    -292.855E-03     563.482E-03    -270.627E-03     79.6384E-03    -293.056E-03     563.343E-03    -270.392E-03     84.3452E-03
            1311     8.91716E-03     189.496E-03    -46.1598E+06     158.344E+03     41.4444E+06    -35.1823E+06    -298.880E-03     571.255E-03    -272.375E-03     81.6466E-03    -299.109E-03     571.202E-03    -272.101E-03     85.2288E-03
            1312     9.58402E-03     189.618E-03    -37.3493E+06     18.4745E+06     53.4489E+06    -37.2253E+06    -305.207E-03     579.497E-03    -274.289E-03     83.1287E-03    -305.493E-03     579.561E-03    -273.995E-03     85.1094E-03
            1313     10.2464E-03     189.742E-03    -30.0936E+06     31.2896E+06     61.8752E+06    -36.6743E+06    -311.625E-03     587.989E-03    -276.364E-03     83.5304E-03    -311.981E-03     588.172E-03    -276.056E-03     83.4736E-03
            1314     10.9049E-03     189.864E-03    -23.0444E+06     50.4725E+06     73.5778E+06    -29.4351E+06    -317.744E-03     596.332E-03    -278.588E-03     81.7039E-03    -318.213E-03     596.687E-03    -278.260E-03     79.1361E-03
            1315     11.5585E-03     189.978E-03    -16.0026E+06     70.9951E+06     84.1276E+06    -20.1237E+06    -322.615E-03     603.507E-03    -280.892E-03     77.3638E-03    -323.226E-03     604.071E-03    -280.551E-03     71.6510E-03
            1316     12.2104E-03     190.083E-03    -9.02069E+06     62.8839E+06     91.8374E+06    -11.3297E+06    -325.360E-03     608.574E-03    -283.214E-03     74.7044E-03    -326.188E-03     609.328E-03    -282.833E-03     64.0977E-03
            1317     12.8579E-03     190.178E-03    -2.83105E+06     50.8219E+06     113.060E+06    -4.37059E+06    -325.942E-03     611.437E-03    -285.495E-03     61.7986E-03    -326.744E-03     612.083E-03    -284.999E-03     49.8097E-03
            1318     695.192E-06     190.338E-03    -201.463E+06    -129.582E+06    -197.853E+06    -13.7525E+06    -259.627E-03     518.911E-03    -259.284E-03     5.23002E-03    -260.160E-03     518.841E-03    -259.793E-03     5.97943E-03
            1319     1.39097E-03     190.350E-03    -195.778E+06    -121.317E+06    -183.617E+06    -24.8123E+06    -259.940E-03     519.544E-03    -259.604E-03     9.25162E-03    -260.476E-03     519.485E-03    -260.062E-03     10.6526E-03
            1320     2.08573E-03     190.371E-03    -188.080E+06    -110.478E+06    -164.541E+06    -35.6142E+06    -260.842E-03     520.770E-03    -259.928E-03     13.6889E-03    -261.380E-03     520.724E-03    -260.317E-03     15.7975E-03
            1321     2.77989E-03     190.401E-03    -178.852E+06    -99.2455E+06    -143.507E+06    -45.6381E+06    -262.317E-03     522.728E-03    -260.411E-03     18.3764E-03    -262.853E-03     522.691E-03    -260.725E-03     21.1792E-03
            1322     3.47285E-03     190.441E-03    -168.232E+06    -88.4044E+06    -122.156E+06    -54.7241E+06    -264.204E-03     525.255E-03    -261.051E-03     22.9336E-03    -264.729E-03     525.223E-03    -261.290E-03     26.4005E-03
            1323     4.16386E-03     190.492E-03    -157.020E+06    -78.1962E+06    -101.967E+06    -62.4361E+06    -266.561E-03     528.391E-03    -261.831E-03     27.5074E-03    -267.069E-03     528.360E-03    -261.999E-03     31.6269E-03
            1324     4.85348E-03     190.555E-03    -145.204E+06    -68.6295E+06    -82.6928E+06    -68.4141E+06    -269.470E-03     532.227E-03    -262.757E-03     32.1192E-03    -269.957E-03     532.194E-03    -262.860E-03     36.8798E-03
            1325     5.54038E-03     190.629E-03    -131.970E+06    -59.1727E+06     -63.059E+06    -71.7486E+06    -273.026E-03     536.872E-03    -263.847E-03     36.7812E-03    -273.484E-03     536.835E-03    -263.885E-03     42.1509E-03
            1326     6.22408E-03     190.715E-03    -117.007E+06    -52.3095E+06    -42.6242E+06    -72.3271E+06    -277.270E-03     542.389E-03    -265.119E-03     41.6708E-03    -277.688E-03     542.330E-03    -265.087E-03     47.5697E-03
            1327     6.90481E-03     190.813E-03    -100.704E+06    -45.8744E+06    -22.4352E+06    -71.0292E+06    -282.015E-03     548.581E-03    -266.567E-03     46.5588E-03    -282.384E-03     548.496E-03    -266.466E-03     52.8317E-03
            1328     7.58199E-03     190.923E-03    -84.0744E+06    -37.8218E+06    -3.79923E+06    -67.2445E+06    -287.083E-03     555.249E-03    -268.166E-03     51.4093E-03    -287.402E-03     555.148E-03    -268.008E-03     57.8398E-03
            1329     8.25546E-03     191.043E-03    -66.7748E+06    -25.9362E+06     15.1764E+06    -60.4000E+06    -292.511E-03     562.419E-03    -269.908E-03     56.3791E-03    -292.784E-03     562.320E-03    -269.697E-03     62.6909E-03
            1330     8.92515E-03     191.172E-03    -49.9964E+06    -4.11321E+06     36.1718E+06    -52.3358E+06    -298.270E-03     570.053E-03    -271.783E-03     61.0613E-03    -298.521E-03     570.009E-03    -271.524E-03     66.8491E-03
            1331     9.59196E-03     191.307E-03    -37.4969E+06     17.2134E+06     57.1226E+06    -44.0843E+06    -304.233E-03     578.031E-03    -273.798E-03     64.9577E-03    -304.498E-03     578.059E-03    -273.483E-03     69.6312E-03
            1332     10.2552E-03     191.445E-03    -30.1863E+06     20.5668E+06     72.2043E+06    -35.2535E+06    -310.416E-03     586.358E-03    -275.943E-03     67.9294E-03    -310.709E-03     586.410E-03    -275.568E-03     70.7172E-03
            1333     10.9135E-03     191.583E-03    -25.5952E+06     33.3314E+06     81.6910E+06    -27.5448E+06    -316.553E-03     594.720E-03    -278.167E-03     69.7028E-03    -316.928E-03     594.888E-03    -277.770E-03     69.7432E-03
            1334     11.5673E-03     191.714E-03    -20.7282E+06     55.8514E+06     86.4107E+06    -21.5656E+06    -322.372E-03     602.822E-03    -280.450E-03     69.2561E-03    -322.881E-03     603.207E-03    -280.069E-03     65.6952E-03
            1335     12.2166E-03     191.826E-03    -14.8680E+06     39.9845E+06     90.9803E+06    -14.6736E+06    -326.861E-03     609.695E-03    -282.835E-03     68.5530E-03    -327.525E-03     610.186E-03    -282.416E-03     60.3181E-03
            1336     12.8654E-03     191.935E-03    -8.02643E+06     31.6156E+06     112.431E+06    -6.32681E+06    -328.692E-03     613.929E-03    -285.237E-03     58.3764E-03    -329.351E-03     614.347E-03    -284.709E-03     48.6358E-03
            1337     693.272E-06     191.930E-03    -93.7463E+06    -74.5501E+06    -90.6886E+06    -12.9809E+06    -265.046E-03     530.035E-03    -264.989E-03    -4.98108E-03    -265.285E-03     529.925E-03    -265.198E-03    -4.65751E-03
            1338     1.38537E-03     191.944E-03    -90.1944E+06    -69.2667E+06    -80.0996E+06    -22.8710E+06    -265.460E-03     530.704E-03    -265.245E-03    -9.35160E-03    -265.708E-03     530.605E-03    -265.414E-03    -8.81106E-03
            1339     2.07742E-03     191.966E-03    -84.8848E+06    -61.9470E+06    -64.5925E+06    -32.4134E+06    -266.293E-03     531.948E-03    -265.655E-03    -13.2365E-03    -266.555E-03     531.861E-03    -265.765E-03    -12.4309E-03
            1340     2.76826E-03     192.000E-03    -78.2685E+06    -53.9016E+06    -47.0541E+06    -40.8211E+06    -267.471E-03     533.708E-03    -266.237E-03    -16.9472E-03    -267.746E-03     533.636E-03    -266.281E-03    -15.8624E-03
            1341     3.45774E-03     192.044E-03    -71.8765E+06    -46.8102E+06    -30.3389E+06    -47.9687E+06    -268.897E-03     535.862E-03    -266.965E-03    -20.5503E-03    -269.188E-03     535.806E-03    -266.945E-03    -19.1156E-03
            1342     4.14603E-03     192.100E-03    -65.9887E+06    -40.6753E+06    -15.2368E+06    -53.8965E+06    -270.435E-03     538.246E-03    -267.810E-03    -23.5578E-03    -270.745E-03     538.208E-03    -267.732E-03    -21.6767E-03
            1343     4.83218E-03     192.167E-03    -61.1659E+06    -36.0094E+06    -2.37584E+06    -58.5439E+06    -271.964E-03     540.701E-03    -268.738E-03    -25.7235E-03    -272.296E-03     540.684E-03    -268.609E-03    -23.3057E-03
            1344     5.51690E-03     192.249E-03    -58.2084E+06    -33.0157E+06     7.28067E+06    -61.9774E+06    -273.612E-03     543.334E-03    -269.722E-03    -26.4487E-03    -273.972E-03     543.340E-03    -269.553E-03    -23.3970E-03
            1345     6.19996E-03     192.342E-03    -56.4348E+06    -31.6883E+06     14.7759E+06    -64.2318E+06    -275.510E-03     546.271E-03    -270.761E-03    -25.3389E-03    -275.898E-03     546.298E-03    -270.560E-03    -21.5760E-03
            1346     6.88031E-03     192.450E-03    -55.8416E+06    -31.0041E+06     21.0786E+06    -65.0654E+06    -277.816E-03     549.676E-03    -271.860E-03    -22.1094E-03    -278.233E-03     549.721E-03    -271.629E-03    -17.6145E-03
            1347     7.55820E-03     192.569E-03    -55.8166E+06    -30.0888E+06     27.1780E+06    -64.9625E+06    -280.729E-03     553.759E-03    -273.031E-03    -17.1321E-03    -281.170E-03     553.817E-03    -272.770E-03    -11.9632E-03
            1348     8.23393E-03     192.700E-03    -55.1629E+06    -26.0209E+06     34.2715E+06    -63.9777E+06    -284.136E-03     558.416E-03    -274.280E-03    -10.7221E-03    -284.593E-03     558.488E-03    -273.991E-03    -5.00314E-03
            1349     8.90674E-03     192.840E-03    -52.5075E+06    -14.8839E+06     44.8594E+06    -59.4704E+06    -287.886E-03     563.489E-03    -275.603E-03    -2.69759E-03    -288.353E-03     563.592E-03    -275.281E-03     3.36770E-03
            1350     9.57517E-03     192.988E-03    -46.1922E+06    -364.592E+03     61.8498E+06    -50.5245E+06    -292.142E-03     569.145E-03    -277.003E-03     7.39087E-03    -292.601E-03     569.268E-03    -276.626E-03     13.4433E-03
            1351     10.2395E-03     193.140E-03    -36.0677E+06     1.91521E+06     78.1784E+06    -40.4945E+06    -296.846E-03     575.304E-03    -278.458E-03     19.7202E-03    -297.248E-03     575.368E-03    -278.017E-03     25.0700E-03
            1352     10.9010E-03     193.293E-03    -24.5505E+06     14.7206E+06     91.4672E+06    -30.4645E+06    -302.099E-03     582.025E-03    -279.926E-03     33.5943E-03    -302.452E-03     582.086E-03    -279.454E-03     37.4756E-03
            1353     11.5601E-03     193.437E-03    -14.8640E+06     39.6420E+06     102.851E+06    -21.2865E+06    -309.370E-03     590.849E-03    -281.479E-03     47.4971E-03    -309.731E-03     591.006E-03    -281.001E-03     48.7817E-03
            1354     12.2139E-03     193.572E-03    -8.67340E+06     20.3847E+06     104.766E+06    -12.0193E+06    -318.337E-03     601.603E-03    -283.266E-03     57.6887E-03    -318.729E-03     601.736E-03    -282.759E-03     54.7849E-03
            1355     12.8633E-03     193.680E-03    -2.91028E+06     13.4570E+06     113.236E+06    -4.78990E+06    -324.605E-03     609.867E-03    -285.262E-03     52.9607E-03    -324.991E-03     609.964E-03    -284.711E-03     47.9662E-03
            1356     679.797E-06     193.560E-03     7.96825E+06    -29.4755E+06     9.99942E+06    -8.34520E+06    -283.614E-03     567.261E-03    -283.646E-03    -17.6908E-03    -283.574E-03     567.055E-03    -283.565E-03    -17.9755E-03
            1357     1.36039E-03     193.573E-03     7.29690E+06    -27.3242E+06     16.4396E+06    -14.7949E+06    -284.043E-03     568.073E-03    -284.030E-03    -33.2725E-03    -284.015E-03     567.863E-03    -283.919E-03    -33.7510E-03
            1358     2.03971E-03     193.598E-03     7.68467E+06    -23.7933E+06     26.6192E+06    -20.6149E+06    -284.443E-03     569.032E-03    -284.588E-03    -49.6086E-03    -284.428E-03     568.817E-03    -284.432E-03    -50.2519E-03
            1359     2.71822E-03     193.634E-03     8.02620E+06    -20.0633E+06     38.3327E+06    -25.1698E+06    -284.473E-03     569.717E-03    -285.244E-03    -65.8924E-03    -284.473E-03     569.499E-03    -285.035E-03    -66.6038E-03
            1360     3.39571E-03     193.681E-03     7.75765E+06    -16.4970E+06     49.6606E+06    -28.4735E+06    -284.194E-03     570.134E-03    -285.940E-03    -81.5923E-03    -284.215E-03     569.919E-03    -285.679E-03    -82.2778E-03
            1361     4.07173E-03     193.739E-03     6.67433E+06    -13.9503E+06     59.6743E+06    -30.6471E+06    -283.466E-03     570.114E-03    -286.648E-03    -96.3965E-03    -283.514E-03     569.904E-03    -286.339E-03    -96.9601E-03
            1362     4.74731E-03     193.809E-03     4.79793E+06    -12.3259E+06     68.0512E+06    -31.9550E+06    -282.186E-03     569.517E-03    -287.331E-03    -109.924E-03    -282.268E-03     569.319E-03    -286.979E-03    -110.261E-03
            1363     5.42234E-03     193.890E-03     2.24774E+06    -11.3304E+06     74.9233E+06    -32.6173E+06    -280.302E-03     568.262E-03    -287.960E-03    -121.994E-03    -280.427E-03     568.085E-03    -287.572E-03    -121.999E-03
            1364     6.09702E-03     193.985E-03    -860.258E+03    -11.8176E+06     80.3472E+06    -32.9095E+06    -277.722E-03     566.228E-03    -288.506E-03    -132.405E-03    -277.898E-03     566.077E-03    -288.086E-03    -131.977E-03
            1365     6.77307E-03     194.091E-03    -3.88298E+06    -13.1488E+06     84.7537E+06    -33.1342E+06    -274.675E-03     563.624E-03    -288.949E-03    -140.570E-03    -274.908E-03     563.506E-03    -288.500E-03    -139.611E-03
            1366     7.44955E-03     194.214E-03    -6.14556E+06    -13.6974E+06     89.6626E+06    -33.3640E+06    -271.522E-03     560.811E-03    -289.289E-03    -145.718E-03    -271.810E-03     560.734E-03    -288.812E-03    -144.189E-03
            1367     8.12504E-03     194.347E-03    -8.30655E+06    -12.4955E+06     94.7729E+06    -33.5691E+06    -268.347E-03     557.856E-03    -289.509E-03    -146.868E-03    -268.681E-03     557.822E-03    -289.005E-03    -144.819E-03
            1368     8.80091E-03     194.491E-03    -10.6471E+06    -10.4915E+06     98.3340E+06    -33.4620E+06    -265.103E-03     554.665E-03    -289.561E-03    -143.005E-03    -265.472E-03     554.666E-03    -289.039E-03    -140.482E-03
            1369     9.47952E-03     194.643E-03    -12.7015E+06    -6.86654E+06     100.964E+06    -31.7620E+06    -262.090E-03     551.500E-03    -289.410E-03    -133.296E-03    -262.471E-03     551.524E-03    -288.876E-03    -130.329E-03
            1370     10.1604E-03     194.803E-03    -14.9671E+06    -4.79981E+06     102.893E+06    -29.5433E+06    -260.476E-03     549.552E-03    -289.077E-03    -118.187E-03    -260.840E-03     549.563E-03    -288.534E-03    -114.966E-03
            1371     10.8433E-03     194.961E-03    -15.0123E+06    -1.43124E+06     105.326E+06    -25.0672E+06    -261.449E-03     550.102E-03    -288.654E-03    -99.3058E-03    -261.760E-03     550.071E-03    -288.103E-03    -96.1168E-03
            1372     11.5242E-03     195.123E-03    -11.1514E+06     17.3736E+06     114.222E+06    -16.6761E+06    -265.119E-03     553.373E-03    -288.255E-03    -75.1705E-03    -265.388E-03     553.366E-03    -287.692E-03    -72.6555E-03
            1373     12.2000E-03     195.281E-03    -6.86622E+06     5.26833E+06     110.658E+06    -7.79166E+06    -271.528E-03     559.444E-03    -287.916E-03    -42.2931E-03    -271.729E-03     559.368E-03    -287.360E-03    -42.0197E-03
            1374     12.8620E-03     195.426E-03    -840.436E+03     1.20121E+06     97.5675E+06    -2.22609E+06    -277.156E-03     564.700E-03    -287.543E-03    -7.96492E-03    -277.315E-03     564.622E-03    -287.056E-03    -8.92238E-03
            1375     12.7976E-03     97.1254E-03    -4.70667E+06     86.1503E+06     95.4054E+06     255.655E+03    -289.346E-03     579.682E-03    -290.336E-03     57.3110E-03    -290.448E-03     580.796E-03    -289.977E-03     42.6924E-03
            1376     12.1211E-03     97.0277E-03    -10.2360E+06     83.6925E+06     96.7387E+06     113.809E+03    -289.518E-03     579.903E-03    -290.385E-03     70.9246E-03    -290.841E-03     581.207E-03    -290.008E-03     55.1776E-03
            1377     11.4478E-03     96.9260E-03    -16.7731E+06     75.5560E+06      93.609E+06          378.25    -289.881E-03     580.307E-03    -290.426E-03     71.2905E-03    -291.078E-03     581.441E-03    -290.043E-03     57.3476E-03
            1378     10.7740E-03     96.8170E-03    -23.1233E+06     68.0837E+06     86.3722E+06     335.840E+03    -290.247E-03     580.688E-03    -290.441E-03     73.1234E-03    -291.399E-03     581.750E-03    -290.074E-03     60.1910E-03
            1379     10.1002E-03     96.7062E-03    -30.3065E+06     60.1329E+06     74.4587E+06     434.877E+03    -290.437E-03     580.869E-03    -290.432E-03     72.3622E-03    -291.484E-03     581.806E-03    -290.103E-03     60.9533E-03
            1380     9.42692E-03     96.5964E-03    -37.7585E+06     51.7590E+06     61.3848E+06     381.071E+03    -290.452E-03     580.874E-03    -290.422E-03     69.6217E-03    -291.382E-03     581.675E-03    -290.135E-03     59.7948E-03
            1381     8.75320E-03     96.4902E-03    -45.1367E+06     36.9517E+06     50.0564E+06     212.015E+03    -290.423E-03     580.859E-03    -290.437E-03     65.6792E-03    -291.234E-03     581.496E-03    -290.174E-03     57.4038E-03
            1382     8.07925E-03     96.3898E-03    -52.6772E+06     22.0898E+06     40.7165E+06    -58.2028E+03    -290.497E-03     580.959E-03    -290.462E-03     61.0702E-03    -291.206E-03     581.442E-03    -290.214E-03     54.2600E-03
            1383     7.40602E-03     96.2936E-03    -60.5026E+06     153.921E+03     30.1287E+06     95.3054E+03    -290.514E-03     581.002E-03    -290.488E-03     56.0267E-03    -291.128E-03     581.315E-03    -290.250E-03     50.5438E-03
            1384     6.73264E-03     96.2058E-03    -69.0449E+06    -37.3759E+06     15.2826E+06     343.749E+03    -290.436E-03     580.953E-03    -290.518E-03     50.8060E-03    -290.947E-03     581.043E-03    -290.287E-03     46.4847E-03
            1385     6.05908E-03     96.1247E-03    -77.6673E+06    -71.8532E+06    -605.069E+03     405.567E+03    -290.386E-03     580.929E-03    -290.542E-03     45.5590E-03    -290.812E-03     580.826E-03    -290.329E-03     42.2543E-03
            1386     5.38544E-03     96.0525E-03    -86.2630E+06    -100.645E+06    -17.1177E+06     518.294E+03    -290.372E-03     580.930E-03    -290.557E-03     40.2531E-03    -290.732E-03     580.676E-03    -290.372E-03     37.8112E-03
            1387     4.71194E-03     95.9875E-03    -94.2639E+06    -127.558E+06    -34.3221E+06     200.929E+03    -290.400E-03     580.961E-03    -290.561E-03     35.0122E-03    -290.704E-03     580.577E-03    -290.411E-03     33.2543E-03
            1388     4.03883E-03     95.9315E-03    -102.458E+06    -153.695E+06    -52.3511E+06    -186.605E+03    -290.399E-03     580.953E-03    -290.554E-03     29.8783E-03    -290.657E-03     580.454E-03    -290.445E-03     28.6530E-03
            1389     3.36533E-03     95.8841E-03    -111.033E+06    -177.881E+06    -71.5366E+06    -78.5496E+03    -290.385E-03     580.922E-03    -290.537E-03     24.7211E-03    -290.606E-03     580.325E-03    -290.476E-03     23.9177E-03
            1390     2.69208E-03     95.8454E-03    -118.175E+06    -199.427E+06    -90.2493E+06    -25.5940E+03    -290.407E-03     580.918E-03    -290.512E-03     19.5843E-03    -290.594E-03     580.239E-03    -290.502E-03     19.0933E-03
            1391     2.01948E-03     95.8141E-03    -124.507E+06    -218.962E+06    -107.413E+06     126.154E+03    -290.384E-03     580.873E-03    -290.489E-03     14.5394E-03    -290.542E-03     580.123E-03    -290.528E-03     14.2723E-03
            1392     1.34645E-03     95.7927E-03    -128.761E+06    -233.849E+06    -121.073E+06     302.107E+03    -290.408E-03     580.888E-03    -290.481E-03     9.73343E-03    -290.541E-03     580.085E-03    -290.560E-03     9.58225E-03
            1393     673.192E-06     95.7786E-03    -131.957E+06    -246.438E+06    -130.184E+06    -243.537E+03    -290.571E-03     580.952E-03    -290.381E-03     5.24192E-03    -290.686E-03     580.101E-03    -290.484E-03     5.20183E-03
            1394     12.7934E-03     95.4334E-03    -5.15767E+06     85.9165E+06     95.2202E+06    -319.137E+03    -289.513E-03     579.862E-03    -290.349E-03     57.2771E-03    -290.620E-03     580.979E-03    -289.990E-03     42.5925E-03
            1395     12.1221E-03     95.3330E-03    -10.6462E+06     83.6008E+06     96.6929E+06     234.606E+03    -289.804E-03     580.189E-03    -290.385E-03     70.4898E-03    -291.133E-03     581.497E-03    -290.008E-03     54.6327E-03
            1396     11.4484E-03     95.2327E-03    -16.5960E+06     75.9286E+06     93.7511E+06     480.076E+03    -289.833E-03     580.251E-03    -290.418E-03     71.4587E-03    -291.033E-03     581.390E-03    -290.035E-03     57.4984E-03
            1397     10.7746E-03     95.1241E-03    -23.7895E+06     67.5950E+06     85.8579E+06     282.022E+03    -290.009E-03     580.451E-03    -290.441E-03     73.5387E-03    -291.166E-03     581.514E-03    -290.076E-03     60.6325E-03
            1398     10.1005E-03     95.0129E-03    -30.5095E+06     60.1740E+06     74.3606E+06     495.762E+03    -290.249E-03     580.697E-03    -290.448E-03     72.2835E-03    -291.296E-03     581.634E-03    -290.119E-03     60.8911E-03
            1399     9.42645E-03     94.9025E-03    -37.4754E+06     52.3462E+06     61.4693E+06     448.182E+03    -290.377E-03     580.824E-03    -290.447E-03     69.2585E-03    -291.304E-03     581.625E-03    -290.161E-03     59.4472E-03
            1400     8.75258E-03     94.7974E-03    -44.4369E+06     37.5774E+06     50.4191E+06     504.743E+03    -290.577E-03     581.037E-03    -290.460E-03     65.2484E-03    -291.383E-03     581.672E-03    -290.198E-03     56.9991E-03
            1401     8.07950E-03     94.6948E-03    -51.6677E+06     23.0293E+06     41.4408E+06     527.891E+03    -290.585E-03     581.062E-03    -290.477E-03     60.7536E-03    -291.291E-03     581.546E-03    -290.228E-03     53.9505E-03
            1402     7.40592E-03     94.6004E-03     -60.351E+06     81.1515E+03     30.2858E+06     223.497E+03    -290.436E-03     580.940E-03    -290.503E-03     56.0908E-03    -291.051E-03     581.252E-03    -290.265E-03     50.5958E-03
            1403     6.73219E-03     94.5117E-03    -68.9667E+06    -37.4925E+06     15.3195E+06     110.173E+03    -290.451E-03     580.989E-03    -290.537E-03     51.0273E-03    -290.963E-03     581.078E-03    -290.306E-03     46.6912E-03
            1404     6.05868E-03     94.4317E-03    -77.3298E+06    -71.4195E+06    -224.660E+03     69.5734E+03    -290.494E-03     581.052E-03    -290.558E-03     45.5932E-03    -290.920E-03     580.950E-03    -290.344E-03     42.2810E-03
            1405     5.38546E-03     94.3582E-03    -85.4398E+06    -100.151E+06    -16.2543E+06    -124.532E+03    -290.476E-03     581.039E-03    -290.563E-03     40.1640E-03    -290.834E-03     580.786E-03    -290.375E-03     37.7088E-03
            1406     4.71226E-03     94.2943E-03    -93.9429E+06    -127.050E+06    -33.5425E+06     47.5568E+03    -290.380E-03     580.941E-03    -290.561E-03     34.8206E-03    -290.684E-03     580.558E-03    -290.409E-03     33.0568E-03
            1407     4.03865E-03     94.2375E-03    -102.554E+06    -153.400E+06     -52.318E+06     279.811E+03    -290.353E-03     580.909E-03    -290.556E-03     29.5818E-03    -290.611E-03     580.410E-03    -290.447E-03     28.3693E-03
            1408     3.36562E-03     94.1906E-03    -110.307E+06    -177.320E+06    -71.3536E+06     57.3587E+03    -290.445E-03     580.980E-03    -290.535E-03     24.4661E-03    -290.663E-03     580.384E-03    -290.475E-03     23.6759E-03
            1409     2.69279E-03     94.1506E-03    -117.658E+06    -199.186E+06    -90.2248E+06    -125.469E+03    -290.430E-03     580.929E-03    -290.499E-03     19.5219E-03    -290.614E-03     580.250E-03    -290.491E-03     19.0352E-03
            1410     2.01919E-03     94.1214E-03    -123.871E+06    -218.982E+06    -107.275E+06    -253.830E+03    -290.345E-03     580.824E-03    -290.479E-03     14.8089E-03    -290.499E-03     580.072E-03    -290.518E-03     14.5103E-03
            1411     1.34588E-03     94.0983E-03    -129.113E+06    -233.963E+06    -121.148E+06    -295.686E+03    -290.358E-03     580.851E-03    -290.492E-03     10.1678E-03    -290.493E-03     580.047E-03    -290.572E-03     9.99499E-03
            1412     672.915E-06     94.0859E-03    -131.239E+06    -245.732E+06    -129.598E+06     203.372E+03    -290.484E-03     581.011E-03    -290.527E-03     5.50965E-03    -290.597E-03     580.162E-03    -290.628E-03     5.49115E-03
            1413     12.7972E-03     93.7376E-03    -5.52710E+06     85.9907E+06     95.0826E+06    -152.458E+03    -289.367E-03     579.719E-03    -290.352E-03     57.2027E-03    -290.474E-03     580.836E-03    -289.993E-03     42.5615E-03
            1414     12.1219E-03     93.6399E-03    -11.0936E+06     82.4940E+06     96.1307E+06    -154.844E+03    -289.661E-03     580.059E-03    -290.397E-03     71.1317E-03    -290.996E-03     581.368E-03    -290.020E-03     55.2697E-03
            1415     11.4477E-03     93.5400E-03    -17.0115E+06     75.8286E+06     93.5354E+06     421.408E+03    -289.954E-03     580.387E-03    -290.433E-03     71.8329E-03    -291.157E-03     581.528E-03    -290.050E-03     57.8949E-03
            1416     10.7735E-03     93.4309E-03    -23.2708E+06     68.3516E+06     86.2945E+06     633.926E+03    -290.167E-03     580.616E-03    -290.450E-03     73.4463E-03    -291.321E-03     581.680E-03    -290.083E-03     60.5426E-03
            1417     10.1002E-03     93.3189E-03    -30.3940E+06     60.4958E+06     74.2863E+06     194.770E+03    -290.275E-03     580.723E-03    -290.449E-03     72.0643E-03    -291.321E-03     581.661E-03    -290.121E-03     60.6538E-03
            1418     9.42653E-03     93.2101E-03    -37.3187E+06     52.7067E+06     61.2074E+06     228.061E+03    -290.463E-03     580.905E-03    -290.442E-03     69.0931E-03    -291.387E-03     581.706E-03    -290.158E-03     59.2955E-03
            1419     8.75327E-03     93.1021E-03    -44.4624E+06     37.8059E+06     50.0319E+06     112.465E+03    -290.562E-03     581.013E-03    -290.451E-03     65.1921E-03    -291.366E-03     581.649E-03    -290.192E-03     56.9491E-03
            1420     8.07949E-03     93.0020E-03    -51.9283E+06     22.8889E+06     41.6360E+06     18.6596E+03    -290.460E-03     580.938E-03    -290.478E-03     60.6825E-03    -291.166E-03     581.420E-03    -290.228E-03     53.8762E-03
            1421     7.40556E-03     92.9066E-03    -59.4760E+06     316.247E+03     31.4720E+06     516.975E+03    -290.428E-03     580.940E-03    -290.512E-03     55.7990E-03    -291.039E-03     581.250E-03    -290.269E-03     50.3052E-03
            1422     6.73212E-03     92.8183E-03    -67.2867E+06    -36.5016E+06     16.6790E+06     571.574E+03    -290.493E-03     581.035E-03    -290.542E-03     50.5902E-03    -290.998E-03     581.123E-03    -290.308E-03     46.2660E-03
            1423     6.05891E-03     92.7371E-03    -75.6530E+06    -70.2084E+06     838.724E+03     73.6677E+03    -290.505E-03     581.063E-03    -290.558E-03     45.3352E-03    -290.925E-03     580.963E-03    -290.342E-03     42.0179E-03
            1424     5.38553E-03     92.6649E-03    -84.7772E+06    -100.065E+06    -16.0987E+06    -12.7846E+03    -290.455E-03     581.017E-03    -290.561E-03     40.1840E-03    -290.811E-03     580.763E-03    -290.374E-03     37.7167E-03
            1425     4.71212E-03     92.5999E-03    -93.5448E+06    -127.327E+06    -33.7847E+06     27.8783E+03    -290.438E-03     580.994E-03    -290.556E-03     34.9554E-03    -290.739E-03     580.610E-03    -290.405E-03     33.1886E-03
            1426     4.03905E-03     92.5447E-03    -101.966E+06    -152.837E+06    -52.0958E+06    -97.1890E+03    -290.402E-03     580.946E-03    -290.543E-03     29.7656E-03    -290.659E-03     580.449E-03    -290.434E-03     28.5518E-03
            1427     3.36568E-03     92.4957E-03    -110.070E+06    -176.907E+06    -70.8452E+06     13.1652E+03    -290.308E-03     580.842E-03    -290.534E-03     24.7375E-03    -290.527E-03     580.247E-03    -290.472E-03     23.9407E-03
            1428     2.69210E-03     92.4582E-03    -117.512E+06    -199.059E+06    -89.5985E+06     37.0835E+03    -290.326E-03     580.856E-03    -290.530E-03     19.7583E-03    -290.511E-03     580.177E-03    -290.519E-03     19.2529E-03
            1429     2.01923E-03     92.4267E-03    -124.095E+06    -218.633E+06    -107.021E+06     49.9157E+03    -290.452E-03     580.964E-03    -290.512E-03     14.7780E-03    -290.609E-03     580.215E-03    -290.550E-03     14.4814E-03
            1430     1.34617E-03     92.4059E-03    -128.496E+06    -233.725E+06    -121.031E+06     78.4821E+03    -290.490E-03     580.963E-03    -290.473E-03     9.77833E-03    -290.621E-03     580.160E-03    -290.553E-03     9.64336E-03
            1431     672.952E-06     92.3902E-03    -131.403E+06    -246.001E+06    -129.953E+06    -295.566E+03    -290.434E-03     580.896E-03    -290.462E-03     5.18258E-03    -290.547E-03     580.046E-03    -290.564E-03     5.13252E-03
            1432     12.7938E-03     92.0462E-03    -5.26742E+06     86.3417E+06     94.8541E+06     221.695E+03    -289.209E-03     579.566E-03    -290.358E-03     57.6546E-03    -290.312E-03     580.683E-03    -290.001E-03     43.1085E-03
            1433     12.1205E-03     91.9461E-03    -10.7803E+06     82.0375E+06     95.9414E+06    -201.100E+03    -289.820E-03     580.224E-03    -290.404E-03     70.2933E-03    -291.142E-03     581.521E-03    -290.028E-03     54.4643E-03
            1434     11.4476E-03     91.8457E-03    -16.6605E+06     75.4275E+06     93.4385E+06    -160.613E+03    -290.109E-03     580.537E-03    -290.428E-03     70.6939E-03    -291.302E-03     581.668E-03    -290.046E-03     56.7146E-03
            1435     10.7748E-03     91.7369E-03    -23.3507E+06     68.4677E+06     85.9916E+06     4.06978E+03    -290.161E-03     580.598E-03    -290.437E-03     72.9966E-03    -291.315E-03     581.662E-03    -290.072E-03     60.0550E-03
            1436     10.1005E-03     91.6266E-03    -30.0726E+06     61.0664E+06     74.3694E+06     318.026E+03    -290.351E-03     580.783E-03    -290.432E-03     71.9349E-03    -291.395E-03     581.721E-03    -290.105E-03     60.5457E-03
            1437     9.42686E-03     91.5151E-03     -37.195E+06     53.1202E+06     61.5560E+06     90.5677E+03    -290.462E-03     580.885E-03    -290.423E-03     69.0737E-03    -291.387E-03     581.688E-03    -290.139E-03     59.2710E-03
            1438     8.75293E-03     91.4096E-03    -44.4868E+06     38.2024E+06     50.4142E+06     24.5798E+03    -290.411E-03     580.848E-03    -290.437E-03     65.0871E-03    -291.217E-03     581.486E-03    -290.176E-03     56.8301E-03
            1439     8.07921E-03     91.3078E-03    -52.1084E+06     23.0427E+06     41.4855E+06     124.875E+03    -290.463E-03     580.928E-03    -290.466E-03     60.5441E-03    -291.169E-03     581.412E-03    -290.216E-03     53.7420E-03
            1440     7.40616E-03     91.2130E-03    -59.9693E+06     106.803E+03     31.0183E+06    -99.5558E+03    -290.519E-03     581.012E-03    -290.493E-03     55.6900E-03    -291.132E-03     581.322E-03    -290.251E-03     50.1882E-03
            1441     6.73268E-03     91.1243E-03    -68.4760E+06    -36.0748E+06     16.0820E+06    -44.5054E+03    -290.447E-03     580.965E-03    -290.518E-03     50.6633E-03    -290.958E-03     581.059E-03    -290.286E-03     46.3348E-03
            1442     6.05892E-03     91.0438E-03    -77.0011E+06    -69.5933E+06     157.884E+03     240.478E+03    -290.378E-03     580.919E-03    -290.541E-03     45.3990E-03    -290.804E-03     580.824E-03    -290.327E-03     42.0943E-03
            1443     5.38543E-03     90.9709E-03    -85.2134E+06    -99.7320E+06    -16.3317E+06     62.6679E+03    -290.362E-03     580.919E-03    -290.557E-03     40.1123E-03    -290.720E-03     580.668E-03    -290.371E-03     37.6494E-03
            1444     4.71202E-03     90.9067E-03    -93.5528E+06    -126.693E+06    -33.5986E+06    -237.321E+03    -290.369E-03     580.932E-03    -290.564E-03     34.9727E-03    -290.672E-03     580.551E-03    -290.412E-03     33.1982E-03
            1445     4.03876E-03     90.8498E-03    -101.860E+06    -152.631E+06    -51.9720E+06    -296.602E+03    -290.377E-03     580.936E-03    -290.560E-03     29.8378E-03    -290.633E-03     580.441E-03    -290.451E-03     28.6057E-03
            1446     3.36545E-03     90.8038E-03    -110.515E+06    -177.379E+06    -71.0092E+06    -214.599E+03    -290.351E-03     580.902E-03    -290.551E-03     24.6372E-03    -290.571E-03     580.306E-03    -290.489E-03     23.8276E-03
            1447     2.69233E-03     90.7632E-03    -117.726E+06    -198.963E+06    -89.2560E+06     163.740E+03    -290.386E-03     580.924E-03    -290.538E-03     19.5122E-03    -290.573E-03     580.246E-03    -290.525E-03     19.0194E-03
            1448     2.01903E-03     90.7338E-03    -123.394E+06    -217.969E+06    -106.598E+06     75.6380E+03    -290.533E-03     581.028E-03    -290.495E-03     14.6595E-03    -290.688E-03     580.280E-03    -290.533E-03     14.3817E-03
            1449     1.34632E-03     90.7101E-03    -128.461E+06    -233.499E+06    -120.944E+06    -125.194E+03    -290.569E-03     580.972E-03    -290.402E-03     9.78831E-03    -290.701E-03     580.169E-03    -290.482E-03     9.63902E-03
            1450     673.458E-06     90.6993E-03    -131.194E+06    -245.584E+06    -129.145E+06     276.229E+03    -290.394E-03     580.681E-03    -290.288E-03     5.37384E-03    -290.507E-03     579.832E-03    -290.387E-03     5.27171E-03
            1451     12.7962E-03     90.3524E-03    -4.92555E+06     86.9079E+06     95.3116E+06     128.402E+03    -289.674E-03     580.018E-03    -290.344E-03     56.8020E-03    -290.776E-03     581.135E-03    -289.987E-03     42.1550E-03
            1452     12.1229E-03     90.2511E-03    -9.88281E+06     83.1717E+06     96.6757E+06     279.919E+03    -289.758E-03     580.136E-03    -290.378E-03     70.2738E-03    -291.082E-03     581.440E-03    -290.001E-03     54.4043E-03
            1453     11.4489E-03     90.1529E-03    -16.8101E+06     75.4813E+06     92.9683E+06    -20.8882E+03    -289.899E-03     580.305E-03    -290.406E-03     71.1454E-03    -291.097E-03     581.442E-03    -290.026E-03     57.1524E-03
            1454     10.7738E-03     90.0439E-03    -23.6285E+06     68.3734E+06     85.7069E+06    -89.1861E+03    -290.199E-03     580.620E-03    -290.421E-03     73.3552E-03    -291.355E-03     581.686E-03    -290.057E-03     60.4268E-03
            1455     10.1007E-03     89.9323E-03    -30.3488E+06     61.0218E+06     74.3955E+06    -139.861E+03    -290.420E-03     580.834E-03    -290.414E-03     72.0829E-03    -291.466E-03     581.773E-03    -290.086E-03     60.6785E-03
            1456     9.42705E-03     89.8222E-03    -37.0018E+06     53.5343E+06     61.9366E+06     92.4493E+03    -290.368E-03     580.773E-03    -290.406E-03     69.1097E-03    -291.293E-03     581.578E-03    -290.120E-03     59.2954E-03
            1457     8.75347E-03     89.7160E-03    -44.0616E+06     38.5440E+06     50.7714E+06     129.155E+03    -290.393E-03     580.816E-03    -290.422E-03     65.2245E-03    -291.199E-03     581.455E-03    -290.161E-03     56.9744E-03
            1458     8.07994E-03     89.6144E-03    -51.8762E+06     23.0572E+06     41.3625E+06     252.785E+03    -290.430E-03     580.881E-03    -290.451E-03     60.8105E-03    -291.136E-03     581.364E-03    -290.202E-03     54.0209E-03
            1459     7.40591E-03     89.5189E-03    -59.9592E+06     1.11614E+06     30.6317E+06     301.559E+03    -290.411E-03     580.894E-03    -290.483E-03     55.9975E-03    -291.025E-03     581.210E-03    -290.244E-03     50.5092E-03
            1460     6.73234E-03     89.4311E-03    -67.9716E+06    -35.6616E+06     16.0150E+06    -328.026E+03    -290.441E-03     580.957E-03    -290.516E-03     50.8831E-03    -290.951E-03     581.052E-03    -290.285E-03     46.5428E-03
            1461     6.05903E-03     89.3501E-03    -76.4666E+06    -70.1080E+06     583.579E+03    -594.508E+03    -290.421E-03     580.961E-03    -290.540E-03     45.5565E-03    -290.845E-03     580.863E-03    -290.325E-03     42.2322E-03
            1462     5.38559E-03     89.2776E-03    -85.0291E+06    -99.0717E+06    -15.6541E+06    -368.630E+03    -290.399E-03     580.951E-03    -290.552E-03     40.1616E-03    -290.757E-03     580.701E-03    -290.363E-03     37.6900E-03
            1463     4.71225E-03     89.2127E-03    -93.8397E+06    -126.576E+06    -33.3905E+06    -135.036E+03    -290.324E-03     580.881E-03    -290.557E-03     34.8329E-03    -290.629E-03     580.501E-03    -290.405E-03     33.0536E-03
            1464     4.03860E-03     89.1571E-03    -102.159E+06    -152.723E+06    -51.9476E+06     142.325E+03    -290.338E-03     580.896E-03    -290.558E-03     29.6202E-03    -290.596E-03     580.400E-03    -290.448E-03     28.4043E-03
            1465     3.36559E-03     89.1084E-03    -109.457E+06    -176.646E+06    -70.8982E+06    -23.3692E+03    -290.478E-03     581.012E-03    -290.535E-03     24.4567E-03    -290.694E-03     580.418E-03    -290.474E-03     23.6615E-03
            1466     2.69248E-03     89.0708E-03    -117.533E+06    -199.319E+06    -89.6888E+06    -451.438E+03    -290.503E-03     580.990E-03    -290.487E-03     19.4844E-03    -290.687E-03     580.309E-03    -290.476E-03     18.9931E-03
            1467     2.01950E-03     89.0386E-03    -124.255E+06    -218.105E+06    -106.435E+06     69.3330E+03    -290.386E-03     580.828E-03    -290.442E-03     14.5915E-03    -290.545E-03     580.080E-03    -290.478E-03     14.3084E-03
            1468     1.34608E-03     89.0179E-03    -128.588E+06    -233.043E+06    -120.527E+06     477.395E+03    -290.316E-03     580.748E-03    -290.432E-03     9.78763E-03    -290.450E-03     579.948E-03    -290.510E-03     9.61017E-03
            1469     672.937E-06     89.0037E-03    -132.630E+06    -244.741E+06    -130.281E+06     240.256E+03    -290.319E-03     580.866E-03    -290.547E-03     5.49965E-03    -290.439E-03     580.025E-03    -290.652E-03     5.37647E-03
            1470     12.7959E-03     88.6583E-03    -5.22489E+06     86.4835E+06     93.9468E+06    -467.438E+03    -289.385E-03     579.713E-03    -290.328E-03     57.4951E-03    -290.492E-03     580.836E-03    -289.976E-03     42.8480E-03
            1471     12.1212E-03     88.5592E-03    -10.6813E+06     82.3869E+06     95.2982E+06     137.818E+03    -289.467E-03     579.848E-03    -290.381E-03     71.4382E-03    -290.797E-03     581.156E-03    -290.008E-03     55.6532E-03
            1472     11.4471E-03     88.4587E-03    -16.3001E+06     76.3620E+06     93.3125E+06     450.006E+03    -290.051E-03     580.471E-03    -290.420E-03     71.6169E-03    -291.250E-03     581.613E-03    -290.041E-03     57.6657E-03
            1473     10.7750E-03     88.3506E-03    -23.1565E+06     69.1505E+06     86.0819E+06     292.451E+03    -290.362E-03     580.790E-03    -290.428E-03     73.5728E-03    -291.519E-03     581.860E-03    -290.064E-03     60.6540E-03
            1474     10.1009E-03     88.2383E-03    -30.2429E+06     61.3372E+06     74.5109E+06     60.4936E+03    -290.364E-03     580.783E-03    -290.419E-03     72.5227E-03    -291.415E-03     581.728E-03    -290.091E-03     61.0988E-03
            1475     9.42711E-03     88.1294E-03    -37.3374E+06     53.4417E+06     61.7458E+06    -184.475E+03    -290.464E-03     580.874E-03    -290.410E-03     69.5515E-03    -291.394E-03     581.682E-03    -290.125E-03     59.7282E-03
            1476     8.75312E-03     88.0222E-03    -44.6852E+06     38.3067E+06     50.2700E+06     52.3119E+03    -290.489E-03     580.910E-03    -290.421E-03     65.4825E-03    -291.298E-03     581.551E-03    -290.160E-03     57.2274E-03
            1477     8.07939E-03     87.9209E-03    -52.1531E+06     23.3188E+06     41.1504E+06     154.060E+03    -290.383E-03     580.831E-03    -290.448E-03     60.8700E-03    -291.091E-03     581.317E-03    -290.200E-03     54.0691E-03
            1478     7.40593E-03     87.8257E-03    -59.7706E+06     2.79504E+06     31.2353E+06    -448.478E+03    -290.330E-03     580.817E-03    -290.486E-03     55.9641E-03    -290.947E-03     581.141E-03    -290.248E-03     50.4629E-03
            1479     6.73243E-03     87.7369E-03    -67.8872E+06    -34.6233E+06     16.5308E+06    -806.528E+03    -290.400E-03     580.926E-03    -290.526E-03     50.8476E-03    -290.912E-03     581.026E-03    -290.295E-03     46.4998E-03
            1480     6.05884E-03     87.6568E-03    -76.1514E+06    -70.6505E+06     500.955E+03    -562.945E+03    -290.458E-03     581.009E-03    -290.551E-03     45.6245E-03    -290.880E-03     580.908E-03    -290.335E-03     42.2946E-03
            1481     5.38552E-03     87.5833E-03    -84.7605E+06    -99.7654E+06    -16.2296E+06    -179.175E+03    -290.430E-03     580.988E-03    -290.558E-03     40.3449E-03    -290.786E-03     580.736E-03    -290.372E-03     37.8720E-03
            1482     4.71213E-03     87.5196E-03    -93.2102E+06    -126.481E+06    -33.7566E+06    -96.1797E+03    -290.460E-03     581.013E-03    -290.553E-03     35.0371E-03    -290.762E-03     580.633E-03    -290.403E-03     33.2577E-03
            1483     4.03915E-03     87.4629E-03    -102.092E+06    -152.848E+06    -52.0586E+06    -143.995E+03    -290.423E-03     580.961E-03    -290.538E-03     29.7566E-03    -290.680E-03     580.464E-03    -290.429E-03     28.5417E-03
            1484     3.36560E-03     87.4155E-03    -110.603E+06    -176.563E+06    -70.8787E+06     308.780E+03    -290.409E-03     580.922E-03    -290.513E-03     24.6596E-03    -290.630E-03     580.330E-03    -290.451E-03     23.8794E-03
            1485     2.69258E-03     87.3756E-03    -117.429E+06    -198.030E+06    -89.7605E+06     487.504E+03    -290.486E-03     580.952E-03    -290.466E-03     19.5992E-03    -290.672E-03     580.278E-03    -290.457E-03     19.1120E-03
            1486     2.01945E-03     87.3463E-03    -124.208E+06    -218.492E+06    -107.390E+06    -277.920E+03    -290.355E-03     580.777E-03    -290.422E-03     14.6489E-03    -290.512E-03     580.028E-03    -290.462E-03     14.3465E-03
            1487     1.34627E-03     87.3238E-03    -129.928E+06    -233.743E+06    -121.081E+06    -142.920E+03    -290.253E-03     580.688E-03    -290.435E-03     9.78748E-03    -290.392E-03     579.887E-03    -290.513E-03     9.62664E-03
            1488     672.813E-06     87.3113E-03    -131.760E+06    -242.838E+06    -129.560E+06     468.076E+03    -290.181E-03     580.902E-03    -290.721E-03     5.31796E-03    -290.301E-03     580.068E-03    -290.826E-03     5.21178E-03
            1489     12.7950E-03     86.9664E-03    -4.57131E+06     87.4943E+06     95.2781E+06     206.638E+03    -289.314E-03     579.665E-03    -290.351E-03     57.2007E-03    -290.421E-03     580.790E-03    -289.995E-03     42.5140E-03
            1490     12.1216E-03     86.8655E-03    -10.6375E+06     82.7307E+06     95.7256E+06     168.428E+03    -289.685E-03     580.082E-03    -290.397E-03     70.5408E-03    -291.006E-03     581.381E-03    -290.023E-03     54.7658E-03
            1491     11.4484E-03     86.7650E-03    -17.3835E+06     75.4853E+06     92.3587E+06    -392.285E+03    -289.968E-03     580.396E-03    -290.428E-03     71.3199E-03    -291.166E-03     581.532E-03    -290.051E-03     57.3794E-03
            1492     10.7736E-03     86.6558E-03    -23.6980E+06     68.8440E+06     85.2831E+06    -239.092E+03    -290.251E-03     580.691E-03    -290.441E-03     73.4824E-03    -291.410E-03     581.764E-03    -290.080E-03     60.5223E-03
            1493     10.1002E-03     86.5462E-03    -30.1827E+06     61.6738E+06     73.9950E+06     152.921E+03    -290.429E-03     580.862E-03    -290.433E-03     72.3544E-03    -291.479E-03     581.809E-03    -290.109E-03     60.9261E-03
            1494     9.42640E-03     86.4344E-03    -36.9634E+06     54.0347E+06     61.6810E+06     304.220E+03    -290.536E-03     580.958E-03    -290.422E-03     69.3627E-03    -291.465E-03     581.768E-03    -290.138E-03     59.5328E-03
            1495     8.75349E-03     86.3290E-03    -44.0557E+06     39.1085E+06     50.8254E+06    -272.291E+03    -290.528E-03     580.959E-03    -290.431E-03     65.3873E-03    -291.337E-03     581.603E-03    -290.169E-03     57.1006E-03
            1496     8.07982E-03     86.2275E-03    -50.9733E+06     24.7920E+06     42.0588E+06    -1.18575E+06    -290.435E-03     580.890E-03    -290.455E-03     61.0007E-03    -291.142E-03     581.382E-03    -290.207E-03     54.1595E-03
            1497     7.40610E-03     86.1319E-03    -58.8020E+06     2.70843E+06     31.5155E+06    -1.16577E+06    -290.380E-03     580.870E-03    -290.489E-03     56.0957E-03    -290.993E-03     581.192E-03    -290.251E-03     50.5774E-03
            1498     6.73223E-03     86.0441E-03    -67.5213E+06    -35.8279E+06     16.0745E+06    -137.264E+03    -290.401E-03     580.927E-03    -290.526E-03     50.8683E-03    -290.908E-03     581.021E-03    -290.296E-03     46.5381E-03
            1499     6.05887E-03     85.9622E-03    -76.0885E+06    -70.8482E+06    -101.150E+03     481.717E+03    -290.389E-03     580.942E-03    -290.554E-03     45.4745E-03    -290.808E-03     580.841E-03    -290.341E-03     42.1717E-03
            1500     5.38532E-03     85.8906E-03    -84.9731E+06    -99.6762E+06    -16.8454E+06     352.377E+03    -290.388E-03     580.957E-03    -290.568E-03     40.2498E-03    -290.744E-03     580.706E-03    -290.385E-03     37.7967E-03
            1501     4.71202E-03     85.8248E-03    -93.9105E+06    -126.158E+06    -34.2624E+06     238.348E+03    -290.409E-03     580.982E-03    -290.572E-03     35.1434E-03    -290.714E-03     580.605E-03    -290.425E-03     33.3819E-03
            1502     4.03872E-03     85.7693E-03    -102.861E+06    -152.595E+06    -52.7344E+06     298.644E+03    -290.478E-03     581.038E-03    -290.560E-03     30.0325E-03    -290.739E-03     580.546E-03    -290.453E-03     28.8167E-03
            1503     3.36575E-03     85.7217E-03    -111.206E+06    -176.840E+06    -71.9109E+06     136.480E+03    -290.437E-03     580.968E-03    -290.532E-03     24.9209E-03    -290.659E-03     580.377E-03    -290.474E-03     24.1279E-03
            1504     2.69237E-03     85.6820E-03    -118.392E+06    -197.592E+06    -90.2630E+06     155.103E+03    -290.320E-03     580.833E-03    -290.513E-03     19.8119E-03    -290.511E-03     580.164E-03    -290.506E-03     19.3187E-03
            1505     2.01928E-03     85.6523E-03    -124.607E+06    -217.199E+06    -107.400E+06     525.392E+03    -290.431E-03     580.927E-03    -290.496E-03     14.8067E-03    -290.592E-03     580.186E-03    -290.538E-03     14.5106E-03
            1506     1.34609E-03     85.6310E-03    -129.529E+06    -233.238E+06    -121.902E+06    -62.9772E+03    -290.530E-03     580.969E-03    -290.439E-03     9.97028E-03    -290.667E-03     580.171E-03    -290.522E-03     9.81732E-03
            1507     673.473E-06     85.6166E-03    -133.374E+06    -243.333E+06    -131.134E+06    -960.212E+03    -290.327E-03     580.779E-03    -290.452E-03     5.37526E-03    -290.452E-03     579.947E-03    -290.562E-03     5.26036E-03
            1508     12.7954E-03     85.2707E-03    -4.91598E+06     87.6278E+06     95.7323E+06    -133.937E+03    -289.522E-03     579.880E-03    -290.358E-03     57.1449E-03    -290.629E-03     581.004E-03    -290.000E-03     42.4788E-03
            1509     12.1221E-03     85.1724E-03    -10.8150E+06     83.0903E+06     96.4037E+06     113.783E+03    -289.896E-03     580.289E-03    -290.393E-03     70.7342E-03    -291.228E-03     581.598E-03    -290.015E-03     54.8575E-03
            1510     11.4474E-03     85.0719E-03    -16.8512E+06     76.3064E+06     93.4392E+06     263.190E+03    -289.910E-03     580.329E-03    -290.419E-03     71.2112E-03    -291.111E-03     581.471E-03    -290.038E-03     57.2272E-03
            1511     10.7743E-03     84.9629E-03    -23.6647E+06     69.1056E+06     85.8540E+06    -301.690E+03    -290.095E-03     580.531E-03    -290.435E-03     72.9584E-03    -291.250E-03     581.598E-03    -290.072E-03     60.0269E-03
            1512     10.1006E-03     84.8514E-03    -30.7636E+06     61.3391E+06     73.7532E+06    -468.104E+03    -290.355E-03     580.787E-03    -290.431E-03     72.0452E-03    -291.404E-03     581.730E-03    -290.107E-03     60.6236E-03
            1513     9.42733E-03     84.7415E-03    -37.7143E+06     53.5413E+06     60.9230E+06    -162.697E+03    -290.384E-03     580.809E-03    -290.425E-03     69.4361E-03    -291.316E-03     581.621E-03    -290.144E-03     59.5900E-03
            1514     8.75275E-03     84.6351E-03    -44.7370E+06     42.2106E+06     50.5495E+06    -459.144E+03    -290.403E-03     580.846E-03    -290.442E-03     65.6111E-03    -291.221E-03     581.508E-03    -290.186E-03     57.3192E-03
            1515     8.07933E-03     84.5336E-03    -52.9709E+06     26.3187E+06     40.6662E+06    -1.28952E+06    -290.442E-03     580.914E-03    -290.471E-03     61.2030E-03    -291.161E-03     581.420E-03    -290.229E-03     54.3554E-03
            1516     7.40564E-03     84.4389E-03    -61.4406E+06    -289.486E+03     28.6616E+06    -718.218E+03    -290.463E-03     580.967E-03    -290.504E-03     56.3565E-03    -291.081E-03     581.283E-03    -290.272E-03     50.8489E-03
            1517     6.73257E-03     84.3494E-03    -69.8465E+06    -37.2198E+06     13.8171E+06     120.755E+03    -290.466E-03     581.003E-03    -290.537E-03     51.1128E-03    -290.981E-03     581.097E-03    -290.313E-03     46.7870E-03
            1518     6.05887E-03     84.2699E-03    -78.7353E+06    -70.9830E+06    -1.72318E+06     182.080E+03    -290.425E-03     580.988E-03    -290.562E-03     45.7341E-03    -290.856E-03     580.892E-03    -290.354E-03     42.4248E-03
            1519     5.38547E-03     84.1958E-03    -86.9766E+06    -99.0401E+06    -17.4701E+06     356.896E+03    -290.402E-03     580.980E-03    -290.578E-03     40.3641E-03    -290.767E-03     580.736E-03    -290.396E-03     37.9147E-03
            1520     4.71202E-03     84.1322E-03    -95.4497E+06    -125.951E+06    -34.8670E+06     597.038E+03    -290.357E-03     580.943E-03    -290.586E-03     35.0057E-03    -290.669E-03     580.570E-03    -290.439E-03     33.2564E-03
            1521     4.03843E-03     84.0751E-03    -103.275E+06    -151.838E+06    -53.1841E+06     533.703E+03    -290.369E-03     580.956E-03    -290.587E-03     29.8571E-03    -290.632E-03     580.467E-03    -290.483E-03     28.6560E-03
            1522     3.36538E-03     84.0271E-03    -110.994E+06    -175.458E+06    -72.1828E+06     153.894E+03    -290.363E-03     580.944E-03    -290.581E-03     24.7497E-03    -290.587E-03     580.360E-03    -290.526E-03     23.9393E-03
            1523     2.69221E-03     83.9895E-03    -119.245E+06    -198.079E+06     -91.474E+06     14.3687E+03    -290.325E-03     580.907E-03    -290.582E-03     19.8068E-03    -290.517E-03     580.238E-03    -290.579E-03     19.2992E-03
            1524     2.01872E-03     83.9578E-03    -125.370E+06    -216.890E+06    -108.035E+06     39.5026E+03    -290.439E-03     581.028E-03    -290.589E-03     14.8636E-03    -290.604E-03     580.291E-03    -290.633E-03     14.5695E-03
            1525     1.34621E-03     83.9365E-03    -129.824E+06    -231.430E+06    -121.682E+06     210.842E+03    -290.550E-03     581.125E-03    -290.576E-03     10.0632E-03    -290.691E-03     580.337E-03    -290.660E-03     9.88100E-03
            1526     672.796E-06     83.9235E-03    -132.521E+06    -244.179E+06    -131.122E+06     300.851E+03    -290.888E-03     581.119E-03    -290.231E-03     5.49363E-03    -291.008E-03     580.281E-03    -290.340E-03     5.40598E-03
            1527     12.7951E-03     83.5773E-03    -4.87505E+06     87.8852E+06     95.3895E+06     278.873E+03    -289.306E-03     579.654E-03    -290.348E-03     57.3115E-03    -290.411E-03     580.777E-03    -289.991E-03     42.7241E-03
            1528     12.1211E-03     83.4780E-03    -10.9817E+06     83.1036E+06     96.0246E+06    -606.630E+03    -289.803E-03     580.194E-03    -290.391E-03     70.6452E-03    -291.137E-03     581.505E-03    -290.015E-03     54.7401E-03
            1529     11.4489E-03     83.3779E-03    -17.0026E+06     76.4301E+06     93.6943E+06    -299.345E+03    -290.120E-03     580.536E-03    -290.417E-03     71.3733E-03    -291.324E-03     581.680E-03    -290.034E-03     57.3624E-03
            1530     10.7745E-03     83.2702E-03    -23.2155E+06     69.8316E+06     86.9341E+06     311.460E+03    -290.157E-03     580.584E-03    -290.427E-03     73.4065E-03    -291.315E-03     581.656E-03    -290.060E-03     60.4839E-03
            1531     10.1005E-03     83.1578E-03    -30.5778E+06     61.8084E+06     74.9429E+06     305.457E+03    -290.126E-03     580.557E-03    -290.431E-03     72.2709E-03    -291.177E-03     581.502E-03    -290.102E-03     60.8655E-03
            1532     9.42609E-03     83.0486E-03    -38.4775E+06     53.0494E+06     60.8754E+06     157.416E+03    -290.203E-03     580.639E-03    -290.436E-03     69.4751E-03    -291.137E-03     581.449E-03    -290.153E-03     59.6480E-03
            1533     8.75315E-03     82.9412E-03    -46.6369E+06     43.6720E+06     49.3021E+06     437.691E+03    -290.343E-03     580.799E-03    -290.456E-03     65.6036E-03    -291.170E-03     581.472E-03    -290.205E-03     57.3445E-03
            1534     8.07910E-03     82.8407E-03    -55.0097E+06     27.8307E+06     39.1942E+06     331.169E+03    -290.452E-03     580.938E-03    -290.486E-03     60.9742E-03    -291.179E-03     581.455E-03    -290.251E-03     54.1716E-03
            1535     7.40572E-03     82.7441E-03    -63.2766E+06    -1.04855E+06     27.4474E+06    -478.164E+03    -290.434E-03     580.959E-03    -290.525E-03     56.1191E-03    -291.058E-03     581.274E-03    -290.294E-03     50.6152E-03
            1536     6.73171E-03     82.6567E-03    -71.1400E+06    -37.5470E+06     13.2464E+06    -835.530E+03    -290.424E-03     580.987E-03    -290.564E-03     51.0615E-03    -290.943E-03     581.083E-03    -290.340E-03     46.7109E-03
            1537     6.05851E-03     82.5749E-03    -79.0119E+06    -70.9514E+06    -2.13330E+06    -758.107E+03    -290.496E-03     581.084E-03    -290.589E-03     45.7927E-03    -290.928E-03     580.991E-03    -290.382E-03     42.4515E-03
            1538     5.38519E-03     82.5030E-03    -87.5862E+06    -99.7134E+06    -18.3860E+06    -521.878E+03    -290.496E-03     581.092E-03    -290.597E-03     40.4315E-03    -290.863E-03     580.848E-03    -290.417E-03     37.9589E-03
            1539     4.71189E-03     82.4375E-03    -95.4042E+06    -125.907E+06    -35.2055E+06    -165.789E+03    -290.474E-03     581.067E-03    -290.593E-03     35.1071E-03    -290.785E-03     580.695E-03    -290.448E-03     33.3333E-03
            1540     4.03904E-03     82.3818E-03    -103.746E+06    -151.408E+06    -53.5083E+06     23.3623E+03    -290.293E-03     580.886E-03    -290.593E-03     29.8373E-03    -290.559E-03     580.402E-03    -290.491E-03     28.6060E-03
            1541     3.36518E-03     82.3338E-03    -112.161E+06    -175.264E+06    -72.7521E+06     282.505E+03    -290.243E-03     580.851E-03    -290.608E-03     24.7301E-03    -290.472E-03     580.271E-03    -290.555E-03     23.9145E-03
            1542     2.69197E-03     82.2949E-03    -118.801E+06    -196.775E+06    -91.1702E+06     142.174E+03    -290.455E-03     581.066E-03    -290.612E-03     19.6495E-03    -290.647E-03     580.403E-03    -290.610E-03     19.1410E-03
            1543     2.01927E-03     82.2644E-03    -125.234E+06    -216.792E+06    -108.474E+06    -205.795E+03    -290.435E-03     581.043E-03    -290.608E-03     14.6713E-03    -290.598E-03     580.306E-03    -290.655E-03     14.3799E-03
            1544     1.34544E-03     82.2421E-03    -130.206E+06    -231.772E+06    -122.367E+06    -114.858E+03    -290.446E-03     581.088E-03    -290.642E-03     9.73372E-03    -290.587E-03     580.299E-03    -290.729E-03     9.58599E-03
            1545     672.867E-06     82.2292E-03    -132.482E+06    -243.067E+06    -130.729E+06     73.1178E+03    -290.962E-03     581.339E-03    -290.377E-03     5.49570E-03    -291.084E-03     580.507E-03    -290.486E-03     5.40788E-03
            1546     12.7959E-03     81.8850E-03    -4.87631E+06     88.2845E+06     96.0605E+06     125.861E+03    -289.436E-03     579.769E-03    -290.333E-03     57.1144E-03    -290.539E-03     580.890E-03    -289.974E-03     42.5304E-03
            1547     12.1222E-03     81.7839E-03    -10.1424E+06     84.2237E+06     97.1699E+06     361.433E+03    -289.566E-03     579.944E-03    -290.378E-03     70.2284E-03    -290.887E-03     581.246E-03    -290.000E-03     54.4471E-03
            1548     11.4470E-03     81.6848E-03    -16.6032E+06     76.1928E+06     93.6128E+06    -185.180E+03    -289.721E-03     580.139E-03    -290.418E-03     71.0717E-03    -290.920E-03     581.278E-03    -290.036E-03     57.0873E-03
            1549     10.7743E-03     81.5754E-03    -23.8777E+06     68.5674E+06     85.7128E+06     15.5461E+03    -290.019E-03     580.462E-03    -290.443E-03     73.7594E-03    -291.182E-03     581.535E-03    -290.079E-03     60.8036E-03
            1550     10.1006E-03     81.4661E-03    -30.4122E+06     61.6576E+06     74.2383E+06     741.081E+03    -290.276E-03     580.724E-03    -290.448E-03     72.5945E-03    -291.326E-03     581.670E-03    -290.122E-03     61.2070E-03
            1551     9.42714E-03     81.3546E-03    -37.1506E+06     54.0866E+06     61.4050E+06     1.04587E+06    -290.354E-03     580.802E-03    -290.448E-03     69.5599E-03    -291.282E-03     581.612E-03    -290.166E-03     59.7880E-03
            1552     8.75243E-03     81.2488E-03    -43.5816E+06     43.1051E+06     51.2705E+06     1.02350E+06    -290.416E-03     580.884E-03    -290.468E-03     65.5317E-03    -291.227E-03     581.545E-03    -290.211E-03     57.3075E-03
            1553     8.07926E-03     81.1455E-03    -50.6267E+06     28.8426E+06     42.4646E+06     1.17187E+06    -290.395E-03     580.897E-03    -290.502E-03     60.9832E-03    -291.106E-03     581.408E-03    -290.258E-03     54.1913E-03
            1554     7.40551E-03     81.0517E-03    -59.2521E+06     1.92450E+06     30.4270E+06     724.298E+03    -290.429E-03     580.971E-03    -290.542E-03     56.1365E-03    -291.042E-03     581.292E-03    -290.306E-03     50.6351E-03
            1555     6.73224E-03     80.9622E-03    -68.1020E+06    -37.0543E+06     15.0272E+06     26.6150E+03    -290.500E-03     581.078E-03    -290.578E-03     50.9347E-03    -291.008E-03     581.169E-03    -290.350E-03     46.5778E-03
            1556     6.05854E-03     80.8818E-03    -76.8865E+06    -70.6920E+06    -1.02525E+06    -47.7203E+03    -290.483E-03     581.082E-03    -290.599E-03     45.5401E-03    -290.907E-03     580.985E-03    -290.390E-03     42.2022E-03
            1557     5.38512E-03     80.8083E-03    -85.3836E+06    -99.5088E+06    -17.5755E+06    -248.810E+03    -290.489E-03     581.097E-03    -290.608E-03     40.2721E-03    -290.846E-03     580.849E-03    -290.428E-03     37.7840E-03
            1558     4.71196E-03     80.7441E-03    -94.8902E+06    -126.489E+06    -35.1318E+06    -418.047E+03    -290.419E-03     581.030E-03    -290.611E-03     35.0863E-03    -290.728E-03     580.654E-03    -290.465E-03     33.2791E-03
            1559     4.03826E-03     80.6875E-03    -103.670E+06    -151.552E+06    -53.6301E+06    -221.677E+03    -290.407E-03     581.013E-03    -290.607E-03     29.8066E-03    -290.672E-03     580.528E-03    -290.505E-03     28.5471E-03
            1560     3.36537E-03     80.6412E-03    -111.420E+06    -175.053E+06    -72.4003E+06    -304.149E+03    -290.422E-03     581.017E-03    -290.595E-03     24.6423E-03    -290.648E-03     580.436E-03    -290.542E-03     23.8263E-03
            1561     2.69215E-03     80.5997E-03    -118.951E+06    -196.725E+06    -90.7571E+06    -103.341E+03    -290.384E-03     580.970E-03    -290.586E-03     19.5452E-03    -290.578E-03     580.306E-03    -290.582E-03     19.0461E-03
            1562     2.01886E-03     80.5709E-03    -124.906E+06    -215.940E+06    -107.839E+06     152.187E+03    -290.463E-03     581.039E-03    -290.577E-03     14.5888E-03    -290.626E-03     580.306E-03    -290.622E-03     14.3010E-03
            1563     1.34638E-03     80.5480E-03    -129.549E+06    -231.430E+06    -122.259E+06    -328.407E+03    -290.495E-03     581.063E-03    -290.568E-03     9.84930E-03    -290.633E-03     580.274E-03    -290.656E-03     9.69971E-03
            1564     672.986E-06     80.5346E-03    -133.557E+06    -243.904E+06    -130.696E+06    -384.756E+03    -290.510E-03     581.132E-03    -290.622E-03     5.56111E-03    -290.636E-03     580.297E-03    -290.728E-03     5.49673E-03
            1565     12.7958E-03     80.1913E-03    -4.97601E+06     88.3979E+06     95.5788E+06    -606.862E+03    -289.448E-03     579.773E-03    -290.325E-03     57.3508E-03    -290.560E-03     580.904E-03    -289.968E-03     42.6447E-03
            1566     12.1220E-03     80.0908E-03    -11.0360E+06     83.5726E+06     96.1273E+06    -355.618E+03    -289.203E-03     579.582E-03    -290.380E-03     71.1476E-03    -290.537E-03     580.895E-03    -290.004E-03     55.3339E-03
            1567     11.4492E-03     79.9924E-03    -17.0108E+06     76.0658E+06     93.1764E+06     613.338E+03    -289.560E-03     579.999E-03    -290.439E-03     71.9913E-03    -290.766E-03     581.145E-03    -290.059E-03     58.0495E-03
            1568     10.7734E-03     79.8836E-03    -23.2204E+06     69.4643E+06     85.9313E+06     876.352E+03    -290.044E-03     580.516E-03    -290.472E-03     73.8612E-03    -291.203E-03     581.590E-03    -290.109E-03     60.9638E-03
            1569     10.0996E-03     79.7706E-03    -30.7165E+06     61.5936E+06     73.6166E+06     163.838E+03    -290.397E-03     580.869E-03    -290.473E-03     72.4814E-03    -291.447E-03     581.816E-03    -290.149E-03     61.0802E-03
            1570     9.42585E-03     79.6622E-03    -37.4365E+06     54.0886E+06     61.1675E+06     47.8603E+03    -290.631E-03     581.092E-03    -290.462E-03     69.5867E-03    -291.562E-03     581.905E-03    -290.180E-03     59.7601E-03
            1571     8.75331E-03     79.5537E-03    -44.4655E+06     43.1394E+06     51.2548E+06     187.320E+03    -290.491E-03     580.962E-03    -290.471E-03     65.5304E-03    -291.309E-03     581.626E-03    -290.212E-03     57.2505E-03
            1572     8.07906E-03     79.4537E-03    -52.1784E+06     28.2310E+06     42.0695E+06     564.408E+03    -290.357E-03     580.859E-03    -290.503E-03     60.9553E-03    -291.076E-03     581.371E-03    -290.258E-03     54.1313E-03
            1573     7.40530E-03     79.3567E-03    -59.5815E+06     2.90481E+06     30.7010E+06     1.27036E+06    -290.453E-03     580.994E-03    -290.541E-03     56.0213E-03    -291.070E-03     581.320E-03    -290.305E-03     50.5211E-03
            1574     6.73184E-03     79.2687E-03    -67.8645E+06    -35.2119E+06     15.5940E+06     1.25834E+06    -290.522E-03     581.096E-03    -290.573E-03     50.8344E-03    -291.033E-03     581.195E-03    -290.346E-03     46.4917E-03
            1575     6.05866E-03     79.1876E-03    -76.5733E+06    -69.7383E+06    -171.184E+03     581.614E+03    -290.482E-03     581.078E-03    -290.595E-03     45.6082E-03    -290.907E-03     580.984E-03    -290.384E-03     42.2727E-03
            1576     5.38528E-03     79.1148E-03    -85.7117E+06    -98.9222E+06    -16.6676E+06     478.868E+03    -290.395E-03     581.006E-03    -290.611E-03     40.3190E-03    -290.756E-03     580.761E-03    -290.427E-03     37.8307E-03
            1577     4.71172E-03     79.0500E-03    -94.1880E+06    -125.741E+06    -34.4325E+06     333.551E+03    -290.389E-03     581.009E-03    -290.620E-03     34.9833E-03    -290.696E-03     580.635E-03    -290.473E-03     33.1841E-03
            1578     4.03865E-03     78.9944E-03    -102.337E+06    -151.088E+06    -52.8567E+06    -295.463E+03    -290.499E-03     581.110E-03    -290.611E-03     29.8031E-03    -290.760E-03     580.625E-03    -290.508E-03     28.5483E-03
            1579     3.36557E-03     78.9452E-03    -110.581E+06    -175.009E+06    -71.5010E+06    -278.073E+03    -290.533E-03     581.115E-03    -290.582E-03     24.7100E-03    -290.756E-03     580.532E-03    -290.526E-03     23.8712E-03
            1580     2.69244E-03     78.9083E-03    -118.282E+06    -197.094E+06    -90.3345E+06    -151.401E+03    -290.443E-03     580.991E-03    -290.548E-03     19.6495E-03    -290.634E-03     580.324E-03    -290.542E-03     19.1437E-03
            1581     2.01914E-03     78.8753E-03    -124.763E+06    -215.826E+06    -106.912E+06    -56.5351E+03    -290.442E-03     580.964E-03    -290.523E-03     14.5767E-03    -290.606E-03     580.229E-03    -290.563E-03     14.2929E-03
            1582     1.34583E-03     78.8550E-03    -129.747E+06    -230.824E+06    -120.985E+06     388.066E+03    -290.495E-03     580.981E-03    -290.486E-03     9.76465E-03    -290.637E-03     580.194E-03    -290.568E-03     9.61041E-03
            1583     672.947E-06     78.8402E-03    -132.536E+06    -243.910E+06    -131.542E+06     572.909E+03    -290.351E-03     580.911E-03    -290.560E-03     5.43385E-03    -290.471E-03     580.076E-03    -290.671E-03     5.39190E-03
            1584     12.7960E-03     78.4971E-03    -5.08375E+06     88.4685E+06     94.8921E+06    -64.1085E+03    -289.031E-03     579.392E-03    -290.361E-03     57.7235E-03    -290.147E-03     580.529E-03    -290.007E-03     43.0351E-03
            1585     12.1213E-03     78.4004E-03    -10.8789E+06     83.8250E+06     95.4002E+06     450.397E+03    -289.345E-03     579.770E-03    -290.425E-03     71.5178E-03    -290.681E-03     581.088E-03    -290.054E-03     55.7134E-03
            1586     11.4453E-03     78.2982E-03    -17.9289E+06     76.1315E+06     91.9398E+06    -20.3134E+03    -289.946E-03     580.417E-03    -290.471E-03     71.9557E-03    -291.153E-03     581.564E-03    -290.096E-03     58.0043E-03
            1587     10.7741E-03     78.1890E-03    -24.4334E+06     69.4235E+06     85.3289E+06    -240.415E+03    -290.361E-03     580.848E-03    -290.487E-03     73.5841E-03    -291.526E-03     581.925E-03    -290.125E-03     60.6199E-03
            1588     10.1001E-03     78.0788E-03    -30.5005E+06     62.6417E+06     74.7801E+06     235.682E+03    -290.536E-03     581.013E-03    -290.478E-03     72.2436E-03    -291.589E-03     581.964E-03    -290.150E-03     60.8109E-03
            1589     9.42685E-03     77.9661E-03    -37.8078E+06     54.5580E+06     61.9905E+06     -61.415E+03    -290.529E-03     580.993E-03    -290.464E-03     69.1797E-03    -291.464E-03     581.807E-03    -290.178E-03     59.3255E-03
            1590     8.75246E-03     77.8615E-03    -45.3552E+06     42.3388E+06     50.8085E+06     48.4734E+03    -290.529E-03     580.998E-03    -290.470E-03     65.3851E-03    -291.350E-03     581.662E-03    -290.211E-03     57.0711E-03
            1591     8.07923E-03     77.7590E-03    -52.6250E+06     27.6356E+06     41.2887E+06     582.955E+03    -290.553E-03     581.041E-03    -290.488E-03     60.8659E-03    -291.272E-03     581.551E-03    -290.246E-03     54.0328E-03
            1592     7.40596E-03     77.6636E-03    -60.7833E+06     2.69411E+06     30.0887E+06     558.017E+03    -290.411E-03     580.931E-03    -290.520E-03     55.9198E-03    -291.032E-03     581.258E-03    -290.285E-03     50.4030E-03
            1593     6.73222E-03     77.5747E-03    -69.0238E+06    -33.9778E+06     15.6897E+06     439.500E+03    -290.376E-03     580.936E-03    -290.560E-03     50.7994E-03    -290.894E-03     581.042E-03    -290.332E-03     46.4557E-03
            1594     6.05857E-03     77.4937E-03    -77.2384E+06    -68.8292E+06    -4.85925E+03     493.318E+03    -290.391E-03     580.984E-03    -290.593E-03     45.5465E-03    -290.821E-03     580.896E-03    -290.381E-03     42.2040E-03
            1595     5.38512E-03     77.4211E-03    -85.4262E+06    -98.4234E+06    -16.5917E+06     270.283E+03    -290.365E-03     580.979E-03    -290.614E-03     40.3487E-03    -290.726E-03     580.736E-03    -290.430E-03     37.8514E-03
            1596     4.71182E-03     77.3564E-03    -93.6341E+06    -124.727E+06    -33.6960E+06     96.6269E+03    -290.439E-03     581.063E-03    -290.624E-03     35.1543E-03    -290.746E-03     580.693E-03    -290.476E-03     33.3603E-03
            1597     4.03858E-03     77.2995E-03    -102.143E+06    -150.651E+06    -51.9714E+06     366.352E+03    -290.458E-03     581.077E-03    -290.618E-03     29.9358E-03    -290.720E-03     580.592E-03    -290.512E-03     28.6887E-03
            1598     3.36514E-03     77.2526E-03    -110.113E+06    -174.721E+06    -71.0019E+06     283.121E+03    -290.478E-03     581.076E-03    -290.599E-03     24.8196E-03    -290.700E-03     580.493E-03    -290.541E-03     23.9922E-03
            1599     2.69219E-03     77.2123E-03    -117.426E+06    -196.345E+06    -89.8933E+06    -58.8073E+03    -290.566E-03     581.122E-03    -290.556E-03     19.7904E-03    -290.754E-03     580.457E-03    -290.551E-03     19.2676E-03
            1600     2.01945E-03     77.1832E-03    -124.200E+06    -216.395E+06    -107.286E+06    -106.791E+03    -290.479E-03     580.988E-03    -290.509E-03     14.8660E-03    -290.639E-03     580.250E-03    -290.551E-03     14.5655E-03
            1601     1.34638E-03     77.1599E-03    -128.753E+06    -230.838E+06    -120.464E+06     49.6255E+03    -290.469E-03     580.942E-03    -290.473E-03     10.0631E-03    -290.607E-03     580.153E-03    -290.554E-03     9.91441E-03
            1602     673.399E-06     77.1475E-03    -131.911E+06    -242.580E+06    -129.036E+06     123.136E+03    -290.379E-03     580.899E-03    -290.519E-03     5.50505E-03    -290.501E-03     580.066E-03    -290.622E-03     5.40777E-03
            1603     12.7933E-03     76.8047E-03    -5.61081E+06     88.0813E+06     93.7950E+06     370.574E+03    -289.168E-03     579.555E-03    -290.388E-03     56.9798E-03    -290.270E-03     580.679E-03    -290.038E-03     42.4062E-03
            1604     12.1202E-03     76.7060E-03    -10.9534E+06     84.0941E+06     95.3759E+06     185.312E+03    -289.979E-03     580.412E-03    -290.433E-03     69.9593E-03    -291.304E-03     581.720E-03    -290.062E-03     54.0924E-03
            1605     11.4493E-03     76.6042E-03    -16.1983E+06     78.1100E+06     93.4989E+06     294.380E+03    -290.028E-03     580.486E-03    -290.458E-03     70.8945E-03    -291.227E-03     581.634E-03    -290.080E-03     56.8974E-03
            1606     10.7730E-03     76.4963E-03    -23.2304E+06     69.9064E+06     85.6417E+06    -347.246E+03    -290.252E-03     580.720E-03    -290.468E-03     73.1844E-03    -291.410E-03     581.796E-03    -290.108E-03     60.2086E-03
            1607     10.1002E-03     76.3824E-03    -30.4914E+06     61.9607E+06     74.0263E+06    -635.218E+03    -290.447E-03     580.909E-03    -290.462E-03     72.2608E-03    -291.500E-03     581.859E-03    -290.137E-03     60.7941E-03
            1608     9.42634E-03     76.2747E-03    -36.7876E+06     55.7182E+06     62.1243E+06    -452.182E+03    -290.480E-03     580.933E-03    -290.453E-03     69.3926E-03    -291.412E-03     581.752E-03    -290.170E-03     59.5474E-03
            1609     8.75302E-03     76.1666E-03    -43.2614E+06     40.6373E+06     51.1475E+06    -246.965E+03    -290.627E-03     581.088E-03    -290.461E-03     65.3640E-03    -291.434E-03     581.738E-03    -290.202E-03     57.0927E-03
            1610     8.07957E-03     76.0652E-03    -50.1708E+06     25.8722E+06     42.5235E+06     833.305E+03    -290.541E-03     581.022E-03    -290.481E-03     60.8374E-03    -291.247E-03     581.518E-03    -290.233E-03     54.0113E-03
            1611     7.40567E-03     75.9701E-03    -58.3772E+06     4.44318E+06     31.8136E+06     1.26689E+06    -290.387E-03     580.898E-03    -290.511E-03     56.1161E-03    -291.002E-03     581.230E-03    -290.274E-03     50.5972E-03
            1612     6.73217E-03     75.8813E-03    -67.3922E+06    -33.1322E+06     16.4197E+06     798.878E+03    -290.320E-03     580.873E-03    -290.554E-03     51.0537E-03    -290.833E-03     580.982E-03    -290.326E-03     46.7027E-03
            1613     6.05871E-03     75.8002E-03    -75.8846E+06    -68.0957E+06     434.545E+03     528.069E+03    -290.330E-03     580.923E-03    -290.593E-03     45.7091E-03    -290.755E-03     580.835E-03    -290.382E-03     42.3745E-03
            1614     5.38514E-03     75.7275E-03    -84.6263E+06    -97.4270E+06    -16.1442E+06     288.496E+03    -290.418E-03     581.034E-03    -290.616E-03     40.3858E-03    -290.778E-03     580.794E-03    -290.433E-03     37.8953E-03
            1615     4.71178E-03     75.6621E-03    -93.6901E+06    -124.823E+06    -33.7174E+06     308.947E+03    -290.392E-03     581.018E-03    -290.627E-03     35.1432E-03    -290.699E-03     580.648E-03    -290.478E-03     33.3562E-03
            1616     4.03843E-03     75.6060E-03    -101.878E+06    -150.222E+06    -51.8131E+06     167.338E+03    -290.399E-03     581.030E-03    -290.631E-03     29.9367E-03    -290.661E-03     580.546E-03    -290.524E-03     28.6956E-03
            1617     3.36548E-03     75.5580E-03    -109.908E+06    -173.968E+06    -70.4585E+06     25.3990E+03    -290.445E-03     581.069E-03    -290.624E-03     24.8453E-03    -290.668E-03     580.489E-03    -290.565E-03     24.0273E-03
            1618     2.69217E-03     75.5189E-03    -117.376E+06    -196.165E+06    -89.4443E+06     226.075E+03    -290.431E-03     581.042E-03    -290.611E-03     19.8429E-03    -290.620E-03     580.377E-03    -290.604E-03     19.3252E-03
            1619     2.01887E-03     75.4882E-03    -123.391E+06    -215.425E+06    -107.079E+06    -32.0984E+03    -290.493E-03     581.090E-03    -290.597E-03     14.9774E-03    -290.651E-03     580.356E-03    -290.641E-03     14.6611E-03
            1620     1.34577E-03     75.4672E-03    -128.543E+06    -231.217E+06    -121.074E+06    -528.236E+03    -290.532E-03     581.120E-03    -290.588E-03     10.3341E-03    -290.667E-03     580.330E-03    -290.672E-03     10.1550E-03
            1621     672.669E-06     75.4520E-03    -130.989E+06    -242.737E+06    -129.599E+06    -460.699E+03    -290.488E-03     581.168E-03    -290.680E-03     5.42012E-03    -290.605E-03     580.334E-03    -290.786E-03     5.32107E-03
            1622     12.7958E-03     75.1108E-03    -5.60506E+06     88.4626E+06     94.7783E+06     541.817E+03    -289.516E-03     579.883E-03    -290.366E-03     56.6842E-03    -290.622E-03     581.007E-03    -290.013E-03     42.0874E-03
            1623     12.1229E-03     75.0099E-03    -10.5111E+06     84.8672E+06     96.2036E+06    -209.679E+03    -289.738E-03     580.144E-03    -290.406E-03     70.4735E-03    -291.072E-03     581.463E-03    -290.033E-03     54.5560E-03
            1624     11.4465E-03     74.9130E-03    -16.6059E+06     78.0515E+06     93.4369E+06    -598.530E+03    -290.096E-03     580.530E-03    -290.433E-03     71.5710E-03    -291.303E-03     581.683E-03    -290.055E-03     57.5552E-03
            1625     10.7751E-03     74.8007E-03    -22.8397E+06     70.5254E+06     86.0305E+06    -88.3287E+03    -290.144E-03     580.590E-03    -290.446E-03     73.5548E-03    -291.302E-03     581.667E-03    -290.085E-03     60.6246E-03
            1626     10.1002E-03     74.6915E-03    -29.4671E+06     63.1069E+06     73.9849E+06    -345.869E+03    -290.237E-03     580.682E-03    -290.445E-03     72.1883E-03    -291.285E-03     581.635E-03    -290.124E-03     60.7518E-03
            1627     9.42643E-03     74.5792E-03    -37.1211E+06     55.5444E+06     60.8584E+06    -754.915E+03    -290.531E-03     580.969E-03    -290.439E-03     69.3475E-03    -291.462E-03     581.790E-03    -290.161E-03     59.4888E-03
            1628     8.75311E-03     74.4731E-03    -44.9559E+06     39.5081E+06     49.5312E+06    -395.046E+03    -290.524E-03     580.973E-03    -290.449E-03     65.4242E-03    -291.337E-03     581.623E-03    -290.194E-03     57.1214E-03
            1629     8.07924E-03     74.3717E-03    -52.9009E+06     23.7134E+06     40.4982E+06    -67.0958E+03    -290.354E-03     580.835E-03    -290.481E-03     61.0418E-03    -291.069E-03     581.329E-03    -290.236E-03     54.1991E-03
            1630     7.40584E-03     74.2763E-03    -60.1644E+06     4.08951E+06     30.8323E+06     776.870E+03    -290.327E-03     580.852E-03    -290.525E-03     56.3251E-03    -290.950E-03     581.186E-03    -290.289E-03     50.8040E-03
            1631     6.73219E-03     74.1877E-03    -67.8454E+06    -31.4835E+06     16.2016E+06     1.12375E+06    -290.375E-03     580.942E-03    -290.568E-03     51.2124E-03    -290.892E-03     581.061E-03    -290.343E-03     46.8629E-03
            1632     6.05838E-03     74.1070E-03    -76.4372E+06    -66.9668E+06     372.008E+03     598.737E+03    -290.412E-03     581.015E-03    -290.603E-03     45.8595E-03    -290.842E-03     580.935E-03    -290.393E-03     42.5352E-03
            1633     5.38517E-03     74.0329E-03    -84.8864E+06    -96.7598E+06    -15.9399E+06     373.236E+03    -290.407E-03     581.032E-03    -290.626E-03     40.5398E-03    -290.769E-03     580.796E-03    -290.442E-03     38.0620E-03
            1634     4.71189E-03     73.9690E-03    -93.2123E+06    -123.989E+06    -33.4713E+06     9.84755E+03    -290.389E-03     581.027E-03    -290.638E-03     35.2912E-03    -290.696E-03     580.660E-03    -290.491E-03     33.4964E-03
            1635     4.03846E-03     73.9119E-03    -102.077E+06    -150.021E+06    -51.8297E+06    -76.1230E+03    -290.379E-03     581.027E-03    -290.647E-03     30.0968E-03    -290.642E-03     580.545E-03    -290.541E-03     28.8601E-03
            1636     3.36504E-03     73.8641E-03    -110.305E+06    -173.956E+06    -70.7846E+06     200.983E+03    -290.374E-03     581.027E-03    -290.653E-03     24.9114E-03    -290.599E-03     580.448E-03    -290.595E-03     24.0861E-03
            1637     2.69193E-03     73.8250E-03    -117.566E+06    -195.757E+06    -89.4907E+06     70.0097E+03    -290.408E-03     581.068E-03    -290.660E-03     19.8302E-03    -290.599E-03     580.406E-03    -290.653E-03     19.3117E-03
            1638     2.01880E-03     73.7945E-03    -124.079E+06    -214.882E+06    -106.463E+06     137.854E+03    -290.545E-03     581.203E-03    -290.658E-03     14.7845E-03    -290.708E-03     580.471E-03    -290.699E-03     14.4786E-03
            1639     1.34598E-03     73.7719E-03    -128.600E+06    -230.214E+06    -120.650E+06     289.380E+03    -290.588E-03     581.233E-03    -290.645E-03     9.85132E-03    -290.726E-03     580.448E-03    -290.728E-03     9.68248E-03
            1640     673.057E-06     73.7591E-03    -132.462E+06    -243.708E+06    -130.066E+06    -219.632E+03    -290.469E-03     581.271E-03    -290.802E-03     5.46201E-03    -290.591E-03     580.434E-03    -290.907E-03     5.38235E-03
            1641     12.7958E-03     73.4181E-03    -4.92311E+06     88.8065E+06     95.1116E+06    -89.6334E+03    -289.305E-03     579.655E-03    -290.350E-03     57.4659E-03    -290.410E-03     580.782E-03    -289.996E-03     42.9159E-03
            1642     12.1198E-03     73.3187E-03    -10.0747E+06     85.5079E+06     96.4186E+06     24.2803E+03    -289.663E-03     580.060E-03    -290.398E-03     70.8300E-03    -290.991E-03     581.377E-03    -290.025E-03     55.0292E-03
            1643     11.4490E-03     73.2162E-03    -16.3742E+06     78.4572E+06     93.2552E+06     97.3383E+03    -290.019E-03     580.448E-03    -290.428E-03     71.2389E-03    -291.222E-03     581.600E-03    -290.052E-03     57.2411E-03
            1644     10.7734E-03     73.1095E-03    -23.7557E+06     70.7386E+06     85.4076E+06    -372.605E+03    -290.206E-03     580.646E-03    -290.440E-03     73.5564E-03    -291.371E-03     581.730E-03    -290.081E-03     60.5866E-03
            1645     10.1004E-03     72.9966E-03    -30.4606E+06     63.3792E+06     74.0843E+06    -157.274E+03    -290.394E-03     580.830E-03    -290.435E-03     72.4318E-03    -291.448E-03     581.786E-03    -290.113E-03     61.0092E-03
            1646     9.42707E-03     72.8863E-03    -37.6275E+06     55.3229E+06     61.0767E+06     479.653E+03    -290.324E-03     580.755E-03    -290.431E-03     69.5113E-03    -291.259E-03     581.576E-03    -290.151E-03     59.6756E-03
            1647     8.75287E-03     72.7794E-03    -45.1691E+06     39.6841E+06     49.3708E+06     419.447E+03    -290.251E-03     580.709E-03    -290.458E-03     65.6690E-03    -291.068E-03     581.363E-03    -290.203E-03     57.3573E-03
            1648     8.07934E-03     72.6785E-03    -53.0216E+06     24.0874E+06     39.9760E+06     111.179E+03    -290.327E-03     580.828E-03    -290.501E-03     61.2259E-03    -291.043E-03     581.325E-03    -290.259E-03     54.3847E-03
            1649     7.40529E-03     72.5827E-03    -61.6115E+06     3.42991E+06     29.5903E+06    -560.940E+03    -290.357E-03     580.903E-03    -290.546E-03     56.3815E-03    -290.984E-03     581.238E-03    -290.314E-03     50.8548E-03
            1650     6.73164E-03     72.4942E-03    -69.1595E+06    -31.4321E+06     15.8310E+06    -659.183E+03    -290.439E-03     581.028E-03    -290.590E-03     51.1979E-03    -290.962E-03     581.149E-03    -290.365E-03     46.8372E-03
            1651     6.05868E-03     72.4125E-03    -76.9310E+06    -66.5372E+06     285.800E+03    -282.983E+03    -290.419E-03     581.042E-03    -290.623E-03     45.9216E-03    -290.852E-03     580.965E-03    -290.413E-03     42.5708E-03
            1652     5.38496E-03     72.3401E-03    -85.3180E+06     -96.435E+06    -16.2559E+06    -124.564E+03    -290.345E-03     580.995E-03    -290.650E-03     40.7050E-03    -290.710E-03     580.762E-03    -290.468E-03     38.2024E-03
            1653     4.71141E-03     72.2743E-03    -93.7872E+06    -123.482E+06    -33.5599E+06     191.609E+03    -290.384E-03     581.056E-03    -290.673E-03     35.4763E-03    -290.694E-03     580.693E-03    -290.525E-03     33.6785E-03
            1654     4.03838E-03     72.2184E-03    -102.057E+06    -149.820E+06    -52.0440E+06     267.382E+03    -290.400E-03     581.086E-03    -290.686E-03     30.2512E-03    -290.663E-03     580.606E-03    -290.581E-03     29.0044E-03
            1655     3.36516E-03     72.1700E-03    -110.225E+06    -173.742E+06    -71.2240E+06     39.4944E+03    -290.418E-03     581.111E-03    -290.693E-03     25.0373E-03    -290.642E-03     580.533E-03    -290.637E-03     24.2111E-03
            1656     2.69187E-03     72.1311E-03    -117.670E+06    -195.180E+06    -89.6493E+06     30.8667E+03    -290.548E-03     581.235E-03    -290.687E-03     19.8775E-03    -290.740E-03     580.576E-03    -290.681E-03     19.3623E-03
            1657     2.01899E-03     72.0996E-03    -123.736E+06    -214.718E+06    -106.782E+06    -72.5948E+03    -290.615E-03     581.275E-03    -290.660E-03     14.8925E-03    -290.776E-03     580.544E-03    -290.703E-03     14.5953E-03
            1658     1.34592E-03     72.0780E-03    -128.719E+06    -229.798E+06    -121.150E+06    -179.402E+03    -290.619E-03     581.241E-03    -290.623E-03     9.91434E-03    -290.757E-03     580.458E-03    -290.709E-03     9.73222E-03
            1659     672.821E-06     72.0646E-03    -130.335E+06    -243.611E+06    -129.120E+06    -148.919E+03    -290.587E-03     581.218E-03    -290.632E-03     5.51906E-03    -290.699E-03     580.378E-03    -290.735E-03     5.43808E-03
            1660     12.7941E-03     71.7241E-03    -4.37828E+06     89.5362E+06     94.9304E+06    -168.620E+03    -289.504E-03     579.839E-03    -290.335E-03     56.6312E-03    -290.605E-03     580.967E-03    -289.984E-03     41.9895E-03
            1661     12.1235E-03     71.6235E-03    -10.5383E+06     85.2345E+06     95.3596E+06    -504.567E+03    -289.563E-03     579.939E-03    -290.376E-03     70.3000E-03    -290.891E-03     581.256E-03    -290.008E-03     54.4297E-03
            1662     11.4469E-03     71.5245E-03    -16.9147E+06     78.1340E+06     92.3979E+06    -102.486E+03    -289.747E-03     580.165E-03    -290.417E-03     71.4489E-03    -290.953E-03     581.320E-03    -290.044E-03     57.4545E-03
            1663     10.7746E-03     71.4151E-03    -23.0223E+06     71.6672E+06     85.6238E+06     606.724E+03    -290.181E-03     580.621E-03    -290.439E-03     73.5857E-03    -291.343E-03     581.706E-03    -290.082E-03     60.6500E-03
            1664     10.1007E-03     71.3030E-03    -30.6966E+06     62.7076E+06     73.5770E+06     481.757E+03    -290.262E-03     580.703E-03    -290.441E-03     72.6644E-03    -291.318E-03     581.659E-03    -290.120E-03     61.2422E-03
            1665     9.42644E-03     71.1933E-03    -37.6466E+06     54.9385E+06     61.1746E+06     331.285E+03    -290.210E-03     580.660E-03    -290.450E-03     69.8450E-03    -291.147E-03     581.481E-03    -290.169E-03     60.0006E-03
            1666     8.75269E-03     71.0865E-03    -44.3150E+06     40.6662E+06     50.3405E+06     298.779E+03    -290.285E-03     580.768E-03    -290.482E-03     65.8195E-03    -291.100E-03     581.423E-03    -290.225E-03     57.5386E-03
            1667     8.07869E-03     70.9846E-03    -51.4326E+06     25.5356E+06     41.4078E+06    -162.431E+03    -290.375E-03     580.900E-03    -290.525E-03     61.1917E-03    -291.086E-03     581.399E-03    -290.281E-03     54.3520E-03
            1668     7.40545E-03     70.8892E-03    -58.5608E+06     4.89210E+06     31.5548E+06    -517.754E+03    -290.431E-03     580.999E-03    -290.568E-03     56.3510E-03    -291.048E-03     581.334E-03    -290.332E-03     50.8172E-03
            1669     6.73212E-03     70.7999E-03    -67.0644E+06    -32.1340E+06     16.7796E+06    -672.390E+03    -290.392E-03     581.005E-03    -290.613E-03     51.2782E-03    -290.906E-03     581.118E-03    -290.385E-03     46.9070E-03
            1670     6.05803E-03     70.7192E-03    -76.1933E+06    -67.1614E+06     367.812E+03    -426.916E+03    -290.378E-03     581.030E-03    -290.652E-03     46.0261E-03    -290.807E-03     580.949E-03    -290.442E-03     42.6595E-03
            1671     5.38480E-03     70.6458E-03    -85.1294E+06    -96.5788E+06    -16.4511E+06     2.76453E+03    -290.413E-03     581.093E-03    -290.680E-03     40.6953E-03    -290.777E-03     580.859E-03    -290.499E-03     38.1894E-03
            1672     4.71153E-03     70.5810E-03    -93.8635E+06    -123.806E+06    -34.0636E+06     145.128E+03    -290.366E-03     581.069E-03    -290.703E-03     35.3887E-03    -290.676E-03     580.704E-03    -290.557E-03     33.5891E-03
            1673     4.03791E-03     70.5237E-03    -102.360E+06    -149.320E+06    -52.4773E+06     131.188E+03    -290.401E-03     581.122E-03    -290.721E-03     30.1606E-03    -290.666E-03     580.646E-03    -290.619E-03     28.9061E-03
            1674     3.36472E-03     70.4763E-03    -110.157E+06    -173.027E+06    -71.1579E+06     65.2652E+03    -290.516E-03     581.242E-03    -290.726E-03     25.0303E-03    -290.741E-03     580.668E-03    -290.671E-03     24.2030E-03
            1675     2.69185E-03     70.4359E-03    -117.449E+06    -194.882E+06    -89.7254E+06    -55.2675E+03    -290.547E-03     581.264E-03    -290.717E-03     20.0002E-03    -290.738E-03     580.607E-03    -290.713E-03     19.4813E-03
            1676     2.01880E-03     70.4058E-03    -124.059E+06    -214.443E+06    -107.420E+06     37.9745E+03    -290.574E-03     581.283E-03    -290.709E-03     15.0646E-03    -290.737E-03     580.555E-03    -290.755E-03     14.7662E-03
            1677     1.34581E-03     70.3832E-03    -128.387E+06    -229.369E+06    -121.739E+06    -194.858E+03    -290.696E-03     581.381E-03    -290.685E-03     10.1188E-03    -290.833E-03     580.600E-03    -290.775E-03     9.95369E-03
            1678     673.182E-06     70.3703E-03    -131.221E+06    -244.445E+06    -129.963E+06    -628.586E+03    -290.809E-03     581.343E-03    -290.533E-03     5.49516E-03    -290.923E-03     580.500E-03    -290.638E-03     5.39024E-03
            1679     12.7980E-03     70.0298E-03    -5.09448E+06     89.6722E+06     94.8766E+06    -309.696E+03    -289.419E-03     579.758E-03    -290.339E-03     57.8358E-03    -290.534E-03     580.898E-03    -289.987E-03     43.1906E-03
            1680     12.1206E-03     69.9325E-03     -10.402E+06     85.6260E+06     95.8396E+06     137.215E+03    -289.552E-03     579.938E-03    -290.386E-03     71.3554E-03    -290.889E-03     581.264E-03    -290.016E-03     55.5239E-03
            1681     11.4487E-03     69.8309E-03    -17.2318E+06     78.0697E+06     92.2602E+06     69.7007E+03    -289.847E-03     580.273E-03    -290.426E-03     71.9522E-03    -291.056E-03     581.430E-03    -290.053E-03     57.9836E-03
            1682     10.7738E-03     69.7212E-03    -24.2137E+06     70.7111E+06     84.7531E+06    -38.4318E+03    -290.032E-03     580.482E-03    -290.450E-03     73.8956E-03    -291.198E-03     581.568E-03    -290.094E-03     60.9661E-03
            1683     10.0998E-03     69.6105E-03    -30.2037E+06     63.3742E+06     73.6349E+06     155.600E+03    -290.146E-03     580.608E-03    -290.462E-03     72.6500E-03    -291.200E-03     581.566E-03    -290.142E-03     61.2281E-03
            1684     9.42617E-03     69.4996E-03    -36.5354E+06     55.6366E+06     61.3521E+06    -210.251E+03    -290.280E-03     580.753E-03    -290.473E-03     69.7039E-03    -291.213E-03     581.576E-03    -290.194E-03     59.8380E-03
            1685     8.75255E-03     69.3929E-03    -43.3170E+06     41.2428E+06     50.9868E+06    -536.734E+03    -290.397E-03     580.900E-03    -290.503E-03     65.8018E-03    -291.209E-03     581.557E-03    -290.245E-03     57.4934E-03
            1686     8.07910E-03     69.2912E-03    -50.7183E+06     26.5034E+06     42.0330E+06    -641.586E+03    -290.390E-03     580.933E-03    -290.542E-03     61.3362E-03    -291.102E-03     581.437E-03    -290.297E-03     54.4795E-03
            1687     7.40517E-03     69.1950E-03    -59.3158E+06     4.44940E+06     31.1562E+06    -281.022E+03    -290.332E-03     580.923E-03    -290.590E-03     56.5502E-03    -290.953E-03     581.258E-03    -290.355E-03     51.0077E-03
            1688     6.73129E-03     69.1067E-03    -68.0966E+06    -32.4235E+06     16.0766E+06     409.072E+03    -290.390E-03     581.032E-03    -290.641E-03     51.3894E-03    -290.909E-03     581.146E-03    -290.415E-03     47.0261E-03
            1689     6.05820E-03     69.0253E-03    -76.7477E+06    -67.2428E+06    -187.641E+03     543.299E+03    -290.444E-03     581.123E-03    -290.680E-03     46.0268E-03    -290.875E-03     581.044E-03    -290.472E-03     42.6780E-03
            1690     5.38465E-03     68.9517E-03    -85.3164E+06    -96.4676E+06    -16.7034E+06     264.112E+03    -290.448E-03     581.154E-03    -290.706E-03     40.7311E-03    -290.812E-03     580.921E-03    -290.526E-03     38.2266E-03
            1691     4.71130E-03     68.8868E-03    -93.8813E+06    -123.287E+06    -34.2438E+06     12.3606E+03    -290.477E-03     581.198E-03    -290.721E-03     35.4383E-03    -290.788E-03     580.837E-03    -290.577E-03     33.6215E-03
            1692     4.03817E-03     68.8303E-03    -102.163E+06    -148.995E+06    -52.4204E+06    -60.8768E+03    -290.489E-03     581.217E-03    -290.728E-03     30.1249E-03    -290.753E-03     580.741E-03    -290.626E-03     28.8717E-03
            1693     3.36504E-03     68.7811E-03    -110.554E+06    -172.804E+06    -71.3036E+06     89.7208E+03    -290.468E-03     581.198E-03    -290.730E-03     24.9243E-03    -290.694E-03     580.626E-03    -290.676E-03     24.0979E-03
            1694     2.69173E-03     68.7424E-03    -118.301E+06    -194.733E+06    -90.3558E+06     310.243E+03    -290.502E-03     581.234E-03    -290.733E-03     19.8916E-03    -290.696E-03     580.579E-03    -290.731E-03     19.3721E-03
            1695     2.01853E-03     68.7108E-03    -124.076E+06    -213.906E+06    -107.399E+06     122.604E+03    -290.583E-03     581.318E-03    -290.735E-03     14.8627E-03    -290.746E-03     580.593E-03    -290.782E-03     14.5510E-03
            1696     1.34565E-03     68.6889E-03    -128.787E+06    -228.892E+06    -121.470E+06     181.637E+03    -290.627E-03     581.373E-03    -290.746E-03     9.98640E-03    -290.766E-03     580.595E-03    -290.835E-03     9.83257E-03
            1697     672.631E-06     68.6748E-03    -131.535E+06    -244.473E+06    -130.080E+06     394.627E+03    -290.745E-03     581.525E-03    -290.779E-03     5.41811E-03    -290.861E-03     580.683E-03    -290.885E-03     5.30420E-03
            1698     12.7920E-03     68.3370E-03    -5.06097E+06     89.8612E+06     94.6833E+06    -113.392E+03    -289.105E-03     579.467E-03    -290.362E-03     57.2414E-03    -290.214E-03     580.602E-03    -290.011E-03     42.6040E-03
            1699     12.1220E-03     68.2372E-03    -11.3056E+06     84.9905E+06     95.4102E+06    -88.8271E+03    -289.668E-03     580.084E-03    -290.416E-03     70.7664E-03    -291.003E-03     581.403E-03    -290.046E-03     54.9198E-03
            1700     11.4470E-03     68.1376E-03    -17.0741E+06     78.5076E+06     93.0797E+06     275.478E+03    -289.942E-03     580.395E-03    -290.453E-03     71.9258E-03    -291.153E-03     581.554E-03    -290.077E-03     57.9435E-03
            1701     10.7739E-03     68.0286E-03    -23.3793E+06     71.8054E+06     85.9779E+06    -92.8887E+03    -290.068E-03     580.543E-03    -290.475E-03     73.8554E-03    -291.235E-03     581.633E-03    -290.115E-03     60.8896E-03
            1702     10.1001E-03     67.9166E-03    -30.5961E+06     63.9148E+06     74.1394E+06    -675.870E+03    -290.194E-03     580.677E-03    -290.483E-03     72.5700E-03    -291.253E-03     581.640E-03    -290.161E-03     61.0959E-03
            1703     9.42636E-03     67.8065E-03    -37.9353E+06     55.1721E+06     60.8812E+06    -293.748E+03    -290.293E-03     580.785E-03    -290.491E-03     69.8730E-03    -291.233E-03     581.609E-03    -290.212E-03     60.0092E-03
            1704     8.75231E-03     67.6994E-03    -45.9624E+06     42.3944E+06     49.4279E+06    -54.8731E+03    -290.357E-03     580.875E-03    -290.518E-03     66.0080E-03    -291.183E-03     581.545E-03    -290.266E-03     57.7022E-03
            1705     8.07854E-03     67.5971E-03    -54.1476E+06     27.2863E+06     39.9296E+06    -513.751E+03    -290.334E-03     580.896E-03    -290.562E-03     61.4878E-03    -291.062E-03     581.413E-03    -290.323E-03     54.6291E-03
            1706     7.40491E-03     67.5022E-03    -61.8555E+06     2.96443E+06     29.1334E+06    -520.721E+03    -290.353E-03     580.968E-03    -290.615E-03     56.5847E-03    -290.981E-03     581.303E-03    -290.384E-03     51.0404E-03
            1707     6.73152E-03     67.4123E-03    -69.9648E+06    -33.0571E+06     14.6192E+06    -283.004E+03    -290.449E-03     581.114E-03    -290.665E-03     51.3774E-03    -290.974E-03     581.231E-03    -290.442E-03     46.9943E-03
            1708     6.05783E-03     67.3313E-03    -78.1889E+06    -67.2225E+06    -1.05895E+06    -112.787E+03    -290.488E-03     581.190E-03    -290.701E-03     46.0329E-03    -290.926E-03     581.114E-03    -290.496E-03     42.6579E-03
            1709     5.38451E-03     67.2579E-03    -86.3100E+06    -96.0862E+06    -17.3390E+06     79.2041E+03    -290.486E-03     581.211E-03    -290.724E-03     40.7242E-03    -290.856E-03     580.983E-03    -290.547E-03     38.2084E-03
            1710     4.71115E-03     67.1926E-03    -94.1797E+06    -122.463E+06    -34.4293E+06     17.8980E+03    -290.537E-03     581.273E-03    -290.735E-03     35.4581E-03    -290.850E-03     580.917E-03    -290.593E-03     33.6398E-03
            1711     4.03812E-03     67.1353E-03    -102.833E+06    -148.840E+06    -52.7660E+06    -70.7814E+03    -290.538E-03     581.274E-03    -290.736E-03     30.2671E-03    -290.805E-03     580.801E-03    -290.635E-03     28.9853E-03
            1712     3.36483E-03     67.0879E-03    -111.189E+06    -173.169E+06    -72.0661E+06     58.3143E+03    -290.519E-03     581.248E-03    -290.729E-03     25.1081E-03    -290.748E-03     580.677E-03    -290.677E-03     24.2580E-03
            1713     2.69176E-03     67.0474E-03    -118.037E+06    -194.141E+06    -90.3773E+06    -131.935E+03    -290.585E-03     581.300E-03    -290.715E-03     19.9362E-03    -290.779E-03     580.648E-03    -290.715E-03     19.4080E-03
            1714     2.01903E-03     67.0167E-03    -124.514E+06    -213.713E+06    -107.336E+06    -72.1808E+03    -290.617E-03     581.312E-03    -290.694E-03     14.8394E-03    -290.783E-03     580.588E-03    -290.741E-03     14.5214E-03
            1715     1.34591E-03     66.9941E-03    -129.169E+06    -229.111E+06    -121.967E+06     299.027E+03    -290.593E-03     581.276E-03    -290.683E-03     9.83951E-03    -290.734E-03     580.498E-03    -290.773E-03     9.67746E-03
            1716     672.798E-06     66.9809E-03    -130.943E+06    -243.136E+06    -129.926E+06     322.357E+03    -290.678E-03     581.384E-03    -290.705E-03     5.21906E-03    -290.793E-03     580.547E-03    -290.813E-03     5.15120E-03
            1717     12.7984E-03     66.6444E-03    -5.05554E+06     90.1194E+06     95.2499E+06     486.219E+03    -289.173E-03     579.539E-03    -290.366E-03     57.3376E-03    -290.283E-03     580.675E-03    -290.013E-03     42.7449E-03
            1718     12.1205E-03     66.5443E-03    -10.4592E+06     86.0114E+06     96.2545E+06     182.390E+03    -289.532E-03     579.954E-03    -290.422E-03     70.8170E-03    -290.865E-03     581.275E-03    -290.050E-03     55.0060E-03
            1719     11.4476E-03     66.4442E-03    -16.9863E+06     78.8284E+06     93.3068E+06    -497.634E+03    -289.873E-03     580.337E-03    -290.464E-03     71.4101E-03    -291.081E-03     581.494E-03    -290.087E-03     57.4061E-03
            1720     10.7735E-03     66.3343E-03    -23.6448E+06     71.8165E+06     86.1989E+06    -284.009E+03    -289.978E-03     580.469E-03    -290.491E-03     73.6570E-03    -291.148E-03     581.560E-03    -290.130E-03     60.6573E-03
            1721     10.0997E-03     66.2239E-03    -30.8258E+06     63.8926E+06     74.1320E+06     469.819E+03    -290.098E-03     580.603E-03    -290.505E-03     72.8068E-03    -291.159E-03     581.567E-03    -290.183E-03     61.3660E-03
            1722     9.42558E-03     66.1129E-03    -38.2939E+06     54.9080E+06     60.4825E+06     663.955E+03    -290.296E-03     580.814E-03    -290.518E-03     70.0803E-03    -291.236E-03     581.638E-03    -290.239E-03     60.2504E-03
            1723     8.75226E-03     66.0056E-03    -45.1648E+06     43.1493E+06     49.9170E+06     483.843E+03    -290.363E-03     580.911E-03    -290.548E-03     66.1193E-03    -291.188E-03     581.584E-03    -290.296E-03     57.8172E-03
            1724     8.07839E-03     65.9042E-03    -52.6641E+06     28.9675E+06     40.8771E+06     181.751E+03    -290.421E-03     581.012E-03    -290.591E-03     61.5099E-03    -291.146E-03     581.534E-03    -290.352E-03     54.6460E-03
            1725     7.40478E-03     65.8074E-03    -61.1328E+06     3.52329E+06     29.3867E+06    -549.728E+03    -290.492E-03     581.128E-03    -290.636E-03     56.5594E-03    -291.119E-03     581.465E-03    -290.406E-03     50.9937E-03
            1726     6.73116E-03     65.7190E-03    -69.5581E+06    -33.5300E+06     14.5335E+06    -799.094E+03    -290.491E-03     581.171E-03    -290.679E-03     51.3783E-03    -291.014E-03     581.286E-03    -290.457E-03     46.9649E-03
            1727     6.05784E-03     65.6368E-03    -77.5783E+06    -67.3191E+06    -1.18511E+06    -671.042E+03    -290.513E-03     581.226E-03    -290.713E-03     46.0073E-03    -290.948E-03     581.150E-03    -290.508E-03     42.6056E-03
            1728     5.38449E-03     65.5639E-03    -85.6480E+06    -96.0388E+06    -17.4032E+06    -739.642E+03    -290.555E-03     581.287E-03    -290.732E-03     40.7068E-03    -290.922E-03     581.059E-03    -290.555E-03     38.1623E-03
            1729     4.71135E-03     65.4979E-03    -94.9741E+06    -123.110E+06    -34.7750E+06    -415.716E+03    -290.504E-03     581.248E-03    -290.743E-03     35.4853E-03    -290.820E-03     580.890E-03    -290.601E-03     33.6416E-03
            1730     4.03784E-03     65.4417E-03    -103.508E+06    -149.022E+06    -53.2712E+06     48.0117E+03    -290.535E-03     581.281E-03    -290.746E-03     30.1947E-03    -290.805E-03     580.809E-03    -290.646E-03     28.9024E-03
            1731     3.36487E-03     65.3927E-03    -110.634E+06    -172.325E+06    -71.9858E+06    -193.273E+03    -290.591E-03     581.324E-03    -290.733E-03     25.0379E-03    -290.819E-03     580.756E-03    -290.682E-03     24.1739E-03
            1732     2.69197E-03     65.3533E-03    -118.354E+06    -194.273E+06    -90.8117E+06    -186.252E+03    -290.544E-03     581.262E-03    -290.718E-03     20.1236E-03    -290.739E-03     580.611E-03    -290.719E-03     19.5826E-03
            1733     2.01867E-03     65.3219E-03    -124.933E+06    -214.139E+06    -108.034E+06    -14.1891E+03    -290.588E-03     581.299E-03    -290.711E-03     15.2165E-03    -290.755E-03     580.575E-03    -290.759E-03     14.8994E-03
            1734     1.34589E-03     65.3001E-03    -129.475E+06    -228.686E+06    -121.879E+06    -331.568E+03    -290.688E-03     581.377E-03    -290.688E-03     10.2588E-03    -290.831E-03     580.602E-03    -290.778E-03     10.0829E-03
            1735     673.225E-06     65.2860E-03    -132.144E+06    -243.031E+06    -130.333E+06    -446.001E+03    -290.717E-03     581.346E-03    -290.629E-03     5.79845E-03    -290.837E-03     580.513E-03    -290.737E-03     5.68804E-03
            1736     12.7918E-03     64.9505E-03    -5.07662E+06     90.3109E+06     95.5093E+06    -19.5047E+03    -289.207E-03     579.574E-03    -290.367E-03     57.2487E-03    -290.314E-03     580.706E-03    -290.013E-03     42.6794E-03
            1737     12.1218E-03     64.8509E-03    -10.5238E+06     86.1559E+06     96.5146E+06     189.815E+03    -289.472E-03     579.895E-03    -290.423E-03     70.8442E-03    -290.802E-03     581.214E-03    -290.050E-03     55.0596E-03
            1738     11.4475E-03     64.7500E-03    -16.7859E+06     79.2016E+06     93.3653E+06     613.858E+03    -289.653E-03     580.126E-03    -290.472E-03     71.7463E-03    -290.865E-03     581.288E-03    -290.096E-03     57.7570E-03
            1739     10.7737E-03     64.6424E-03    -24.1582E+06     71.4513E+06     85.1868E+06     337.003E+03    -289.874E-03     580.382E-03    -290.508E-03     73.9407E-03    -291.046E-03     581.475E-03    -290.150E-03     60.9679E-03
            1740     10.0993E-03     64.5304E-03    -31.3431E+06     63.5774E+06     73.3172E+06     238.111E+03    -290.198E-03     580.723E-03    -290.525E-03     72.7720E-03    -291.259E-03     581.686E-03    -290.205E-03     61.3436E-03
            1741     9.42590E-03     64.4192E-03    -37.7741E+06     55.6469E+06     61.0268E+06     132.811E+03    -290.327E-03     580.864E-03    -290.538E-03     69.8086E-03    -291.267E-03     581.691E-03    -290.258E-03     59.9425E-03
            1742     8.75154E-03     64.3125E-03    -44.7371E+06     43.8017E+06     50.6333E+06    -44.4553E+03    -290.417E-03     580.984E-03    -290.566E-03     65.8923E-03    -291.242E-03     581.658E-03    -290.312E-03     57.5604E-03
            1743     8.07820E-03     64.2093E-03    -51.9024E+06     29.5449E+06     41.7790E+06    -147.045E+03    -290.508E-03     581.112E-03    -290.604E-03     61.3281E-03    -291.232E-03     581.635E-03    -290.363E-03     54.4418E-03
            1744     7.40469E-03     64.1141E-03    -59.4023E+06     4.49631E+06     30.5913E+06     10.6426E+03    -290.491E-03     581.136E-03    -290.645E-03     56.4193E-03    -291.113E-03     581.474E-03    -290.412E-03     50.8350E-03
            1745     6.73135E-03     64.0241E-03    -67.6408E+06    -32.8472E+06     15.3016E+06    -186.257E+03    -290.492E-03     581.179E-03    -290.687E-03     51.3416E-03    -291.009E-03     581.295E-03    -290.465E-03     46.9147E-03
            1746     6.05781E-03     63.9435E-03    -76.2857E+06    -67.1712E+06    -527.422E+03    -452.274E+03    -290.514E-03     581.237E-03    -290.723E-03     46.1796E-03    -290.945E-03     581.160E-03    -290.518E-03     42.7628E-03
            1747     5.38450E-03     63.8688E-03    -85.8540E+06    -96.5258E+06    -17.0834E+06    -142.995E+03    -290.517E-03     581.266E-03    -290.748E-03     40.9052E-03    -290.886E-03     581.036E-03    -290.569E-03     38.3459E-03
            1748     4.71107E-03     63.8046E-03    -94.4882E+06    -123.451E+06    -34.8396E+06    -43.3106E+03    -290.539E-03     581.299E-03    -290.760E-03     35.6613E-03    -290.853E-03     580.940E-03    -290.618E-03     33.7995E-03
            1749     4.03812E-03     63.7465E-03    -102.449E+06    -148.611E+06    -53.0227E+06    -482.817E+03    -290.553E-03     581.315E-03    -290.762E-03     30.4793E-03    -290.819E-03     580.844E-03    -290.663E-03     29.1771E-03
            1750     3.36499E-03     63.6988E-03    -111.129E+06    -172.702E+06    -71.8353E+06    -245.222E+03    -290.545E-03     581.304E-03    -290.760E-03     25.2840E-03    -290.775E-03     580.735E-03    -290.707E-03     24.4108E-03
            1751     2.69158E-03     63.6589E-03    -118.578E+06    -194.538E+06    -90.8178E+06     112.720E+03    -290.556E-03     581.311E-03    -290.754E-03     20.1789E-03    -290.752E-03     580.658E-03    -290.754E-03     19.6286E-03
            1752     2.01864E-03     63.6279E-03    -124.468E+06    -213.482E+06    -107.780E+06    -92.5292E+03    -290.582E-03     581.339E-03    -290.758E-03     15.1229E-03    -290.747E-03     580.617E-03    -290.807E-03     14.8058E-03
            1753     1.34555E-03     63.6046E-03    -129.139E+06    -228.493E+06    -121.667E+06    -171.386E+03    -290.666E-03     581.437E-03    -290.771E-03     10.1623E-03    -290.808E-03     580.662E-03    -290.861E-03     9.96787E-03
            1754     672.462E-06     63.5921E-03    -133.054E+06    -243.763E+06    -130.753E+06    -135.077E+03    -290.862E-03     581.560E-03    -290.697E-03     5.47677E-03    -290.986E-03     580.725E-03    -290.805E-03     5.38135E-03
            1755     12.7987E-03     63.2582E-03    -5.34592E+06     90.1927E+06     95.1772E+06     231.195E+03    -289.190E-03     579.558E-03    -290.368E-03     57.2357E-03    -290.304E-03     580.697E-03    -290.016E-03     42.5664E-03
            1756     12.1208E-03     63.1578E-03    -11.0197E+06     85.7687E+06     95.8540E+06     846.819E+03    -289.166E-03     579.600E-03    -290.434E-03     71.2649E-03    -290.504E-03     580.925E-03    -290.063E-03     55.4727E-03
            1757     11.4469E-03     63.0577E-03    -17.0962E+06     79.0780E+06     92.9501E+06     757.693E+03    -289.588E-03     580.083E-03    -290.495E-03     71.9181E-03    -290.802E-03     581.247E-03    -290.121E-03     57.9295E-03
            1758     10.7725E-03     62.9488E-03    -23.5494E+06     72.3082E+06     85.7941E+06     769.707E+03    -290.170E-03     580.697E-03    -290.527E-03     73.7303E-03    -291.337E-03     581.789E-03    -290.169E-03     60.7803E-03
            1759     10.0996E-03     62.8361E-03    -30.2118E+06     64.9240E+06     74.3685E+06     109.992E+03    -290.363E-03     580.893E-03    -290.530E-03     72.4980E-03    -291.424E-03     581.862E-03    -290.209E-03     61.0119E-03
            1760     9.42540E-03     62.7264E-03    -37.3406E+06     56.3318E+06     61.4328E+06    -433.871E+03    -290.410E-03     580.942E-03    -290.532E-03     69.6635E-03    -291.351E-03     581.772E-03    -290.252E-03     59.7480E-03
            1761     8.75236E-03     62.6179E-03    -44.5060E+06     44.0637E+06     50.7491E+06    -497.827E+03    -290.472E-03     581.026E-03    -290.553E-03     65.7491E-03    -291.297E-03     581.701E-03    -290.299E-03     57.4026E-03
            1762     8.07846E-03     62.5163E-03    -51.9213E+06     29.3118E+06     41.4797E+06    -373.383E+03    -290.360E-03     580.953E-03    -290.593E-03     61.2340E-03    -291.083E-03     581.475E-03    -290.352E-03     54.3381E-03
            1763     7.40486E-03     62.4192E-03    -60.2764E+06     4.30963E+06     29.9877E+06    -294.502E+03    -290.290E-03     580.938E-03    -290.648E-03     56.6043E-03    -290.917E-03     581.279E-03    -290.417E-03     51.0001E-03
            1764     6.73107E-03     62.3312E-03    -68.9120E+06    -32.5625E+06     15.0842E+06    -41.7345E+03    -290.385E-03     581.094E-03    -290.709E-03     51.7381E-03    -290.910E-03     581.215E-03    -290.486E-03     47.3001E-03
            1765     6.05770E-03     62.2483E-03    -77.8021E+06    -67.4067E+06    -767.126E+03     268.429E+03    -290.482E-03     581.239E-03    -290.756E-03     46.5330E-03    -290.921E-03     581.165E-03    -290.550E-03     43.1083E-03
            1766     5.38419E-03     62.1758E-03    -86.1528E+06    -96.4200E+06    -17.2520E+06     174.483E+03    -290.530E-03     581.316E-03    -290.785E-03     41.1647E-03    -290.901E-03     581.088E-03    -290.607E-03     38.5937E-03
            1767     4.71103E-03     62.1091E-03    -94.1369E+06    -122.458E+06    -34.5585E+06    -158.398E+03    -290.534E-03     581.337E-03    -290.803E-03     35.8774E-03    -290.848E-03     580.982E-03    -290.662E-03     34.0042E-03
            1768     4.03768E-03     62.0530E-03    -103.067E+06    -148.655E+06    -53.1123E+06     17.9002E+03    -290.512E-03     581.330E-03    -290.819E-03     30.7218E-03    -290.782E-03     580.860E-03    -290.719E-03     29.4012E-03
            1769     3.36435E-03     62.0038E-03    -111.121E+06    -172.916E+06    -72.0706E+06     12.3506E+03    -290.638E-03     581.459E-03    -290.821E-03     25.4986E-03    -290.868E-03     580.889E-03    -290.769E-03     24.6184E-03
            1770     2.69172E-03     61.9645E-03    -117.967E+06    -193.965E+06    -90.2925E+06    -309.654E+03    -290.766E-03     581.559E-03    -290.793E-03     20.1723E-03    -290.960E-03     580.908E-03    -290.792E-03     19.6030E-03
            1771     2.01877E-03     61.9327E-03    -124.416E+06    -213.546E+06    -107.542E+06    -153.762E+03    -290.747E-03     581.493E-03    -290.746E-03     15.0443E-03    -290.912E-03     580.770E-03    -290.794E-03     14.7088E-03
            1772     1.34579E-03     61.9110E-03    -129.282E+06    -228.843E+06    -121.980E+06     219.575E+03    -290.749E-03     581.434E-03    -290.685E-03     9.89863E-03    -290.891E-03     580.658E-03    -290.775E-03     9.72934E-03
            1773     673.149E-06     61.8956E-03    -130.798E+06    -243.199E+06    -130.219E+06     562.159E+03    -290.890E-03     581.310E-03    -290.420E-03     4.90575E-03    -291.004E-03     580.474E-03    -290.528E-03     4.89829E-03
            1774     12.7917E-03     61.5648E-03    -4.95201E+06     89.3267E+06     94.1234E+06     270.717E+03    -288.994E-03     579.384E-03    -290.390E-03     57.8666E-03    -290.107E-03     580.524E-03    -290.041E-03     43.2485E-03
            1775     12.1211E-03     61.4654E-03    -10.0368E+06     86.2988E+06     96.0495E+06     675.167E+03    -289.697E-03     580.148E-03    -290.451E-03     71.0184E-03    -291.027E-03     581.470E-03    -290.081E-03     55.2418E-03
            1776     11.4466E-03     61.3649E-03    -16.3366E+06     80.0978E+06     93.7690E+06     415.303E+03    -289.970E-03     580.458E-03    -290.488E-03     71.0172E-03    -291.171E-03     581.614E-03    -290.112E-03     57.0719E-03
            1777     10.7738E-03     61.2539E-03    -22.8749E+06     73.2024E+06     86.8644E+06     241.561E+03    -290.068E-03     580.578E-03    -290.510E-03     73.1711E-03    -291.232E-03     581.670E-03    -290.149E-03     60.2015E-03
            1778     10.0994E-03     61.1435E-03    -29.6662E+06     65.6920E+06     75.0768E+06     192.951E+03    -290.241E-03     580.759E-03    -290.517E-03     72.3462E-03    -291.301E-03     581.728E-03    -290.194E-03     60.8640E-03
            1779     9.42620E-03     61.0318E-03    -36.5966E+06     57.2254E+06     61.7841E+06     200.502E+03    -290.386E-03     580.907E-03    -290.521E-03     69.8517E-03    -291.327E-03     581.741E-03    -290.242E-03     59.9425E-03
            1780     8.75203E-03     60.9248E-03    -43.9928E+06     44.4801E+06     50.6514E+06     16.2634E+03    -290.290E-03     580.840E-03    -290.550E-03     66.1784E-03    -291.117E-03     581.521E-03    -290.297E-03     57.8067E-03
            1781     8.07859E-03     60.8220E-03    -52.3482E+06     28.9525E+06     41.1171E+06     40.2922E+03    -290.162E-03     580.770E-03    -290.608E-03     61.8908E-03    -290.891E-03     581.296E-03    -290.368E-03     54.9656E-03
            1782     7.40444E-03     60.7270E-03    -60.9182E+06     4.57258E+06     29.8188E+06     139.925E+03    -290.218E-03     580.897E-03    -290.680E-03     57.1026E-03    -290.850E-03     581.243E-03    -290.449E-03     51.4997E-03
            1783     6.73080E-03     60.6363E-03    -69.1778E+06    -32.9828E+06     15.3365E+06     145.029E+03    -290.360E-03     581.112E-03    -290.752E-03     51.9404E-03    -290.887E-03     581.231E-03    -290.527E-03     47.5009E-03
            1784     6.05715E-03     60.5552E-03    -77.0346E+06    -67.3084E+06    -405.874E+03     131.948E+03    -290.461E-03     581.266E-03    -290.806E-03     46.6313E-03    -290.897E-03     581.192E-03    -290.598E-03     43.1952E-03
            1785     5.38396E-03     60.4802E-03    -85.3491E+06    -95.2601E+06    -16.9397E+06    -131.978E+03    -290.508E-03     581.351E-03    -290.842E-03     41.3620E-03    -290.878E-03     581.128E-03    -290.665E-03     38.7691E-03
            1786     4.71062E-03     60.4156E-03    -94.6412E+06    -122.847E+06    -34.5597E+06     56.3499E+03    -290.563E-03     581.433E-03    -290.871E-03     36.0650E-03    -290.880E-03     581.079E-03    -290.728E-03     34.1679E-03
            1787     4.03738E-03     60.3579E-03    -102.595E+06    -148.219E+06    -52.7698E+06     159.238E+03    -290.680E-03     581.559E-03    -290.879E-03     30.6688E-03    -290.949E-03     581.091E-03    -290.780E-03     29.3465E-03
            1788     3.36449E-03     60.3096E-03    -110.205E+06    -171.961E+06    -71.6554E+06    -162.957E+03    -290.714E-03     581.583E-03    -290.869E-03     25.3978E-03    -290.941E-03     581.017E-03    -290.818E-03     24.5161E-03
            1789     2.69140E-03     60.2684E-03    -118.101E+06    -194.313E+06    -90.2854E+06    -30.0605E+03    -290.749E-03     581.598E-03    -290.849E-03     20.3236E-03    -290.944E-03     580.946E-03    -290.848E-03     19.7483E-03
            1790     2.01865E-03     60.2390E-03    -124.591E+06    -213.601E+06    -107.472E+06     129.761E+03    -290.842E-03     581.648E-03    -290.806E-03     15.4393E-03    -291.009E-03     580.926E-03    -290.853E-03     15.0700E-03
            1791     1.34612E-03     60.2147E-03    -129.276E+06    -228.756E+06    -121.923E+06    -98.2721E+03    -290.764E-03     581.518E-03    -290.754E-03     10.5635E-03    -290.906E-03     580.742E-03    -290.844E-03     10.3689E-03
            1792     673.104E-06     60.2035E-03    -132.470E+06    -242.528E+06    -130.064E+06    -115.209E+03    -290.754E-03     581.474E-03    -290.719E-03     5.84450E-03    -290.878E-03     580.643E-03    -290.826E-03     5.76537E-03
            1793     12.7967E-03     59.8719E-03    -5.21735E+06     89.4449E+06     94.5439E+06    -57.3265E+03    -289.425E-03     579.812E-03    -290.386E-03     56.7669E-03    -290.529E-03     580.940E-03    -290.036E-03     42.1696E-03
            1794     12.1205E-03     59.7700E-03    -10.6211E+06     86.0278E+06     95.9354E+06    -107.250E+03    -289.839E-03     580.266E-03    -290.427E-03     70.0017E-03    -291.167E-03     581.583E-03    -290.056E-03     54.1401E-03
            1795     11.4485E-03     59.6705E-03    -16.5733E+06     80.0246E+06     93.3229E+06    -206.832E+03    -289.838E-03     580.297E-03    -290.459E-03     71.2482E-03    -291.045E-03     581.459E-03    -290.084E-03     57.2487E-03
            1796     10.7735E-03     59.5622E-03    -23.1575E+06     73.0875E+06     86.2506E+06    -71.6730E+03    -289.901E-03     580.390E-03    -290.489E-03     73.8871E-03    -291.072E-03     581.489E-03    -290.131E-03     60.9107E-03
            1797     10.0999E-03     59.4494E-03    -29.9211E+06     65.5975E+06     74.6367E+06     365.205E+03    -290.045E-03     580.555E-03    -290.510E-03     72.7948E-03    -291.106E-03     581.527E-03    -290.189E-03     61.3406E-03
            1798     9.42559E-03     59.3387E-03    -37.0886E+06     57.5823E+06     61.6416E+06     447.485E+03    -290.024E-03     580.560E-03    -290.536E-03     70.3260E-03    -290.971E-03     581.401E-03    -290.258E-03     60.4172E-03
            1799     8.75208E-03     59.2311E-03    -44.4878E+06     44.7506E+06     50.7773E+06     578.809E+03    -290.026E-03     580.620E-03    -290.593E-03     66.7229E-03    -290.860E-03     581.307E-03    -290.340E-03     58.3413E-03
            1800     8.07748E-03     59.1296E-03    -51.9518E+06     29.2286E+06     41.5711E+06     556.620E+03    -290.211E-03     580.877E-03    -290.666E-03     62.2882E-03    -290.941E-03     581.406E-03    -290.425E-03     55.3565E-03
            1801     7.40411E-03     59.0320E-03    -59.6465E+06     5.43231E+06     30.6566E+06     382.206E+03    -290.384E-03     581.118E-03    -290.734E-03     57.2895E-03    -291.014E-03     581.466E-03    -290.502E-03     51.6802E-03
            1802     6.73054E-03     58.9433E-03    -67.6657E+06    -32.5705E+06     15.7768E+06     95.4846E+03    -290.440E-03     581.239E-03    -290.799E-03     52.1149E-03    -290.962E-03     581.359E-03    -290.574E-03     47.6503E-03
            1803     6.05718E-03     58.8601E-03    -76.4861E+06    -67.3003E+06    -253.648E+03     29.0677E+03    -290.427E-03     581.285E-03    -290.857E-03     46.8244E-03    -290.862E-03     581.210E-03    -290.650E-03     43.3607E-03
            1804     5.38350E-03     58.7869E-03    -85.3352E+06    -95.2622E+06    -16.7948E+06     439.730E+03    -290.481E-03     581.387E-03    -290.906E-03     41.4829E-03    -290.852E-03     581.165E-03    -290.728E-03     38.8820E-03
            1805     4.71015E-03     58.7203E-03    -93.3943E+06    -122.262E+06    -34.1758E+06     293.942E+03    -290.668E-03     581.604E-03    -290.937E-03     36.1647E-03    -290.981E-03     581.251E-03    -290.795E-03     34.2589E-03
            1806     4.03733E-03     58.6631E-03    -101.986E+06    -147.565E+06    -52.3994E+06    -34.3115E+03    -290.754E-03     581.698E-03    -290.944E-03     30.9122E-03    -291.022E-03     581.232E-03    -290.844E-03     29.5661E-03
            1807     3.36441E-03     58.6139E-03    -110.727E+06    -171.986E+06    -71.4898E+06     234.131E+03    -290.699E-03     581.643E-03    -290.944E-03     25.7583E-03    -290.930E-03     581.077E-03    -290.891E-03     24.8462E-03
            1808     2.69122E-03     58.5752E-03    -118.247E+06    -194.254E+06    -90.3075E+06     224.552E+03    -290.720E-03     581.668E-03    -290.948E-03     20.6489E-03    -290.916E-03     581.017E-03    -290.947E-03     20.0622E-03
            1809     2.01823E-03     58.5418E-03    -124.373E+06    -213.106E+06    -107.186E+06    -16.7322E+03    -290.730E-03     581.697E-03    -290.968E-03     15.4523E-03    -290.896E-03     580.977E-03    -291.014E-03     15.0696E-03
            1810     1.34503E-03     58.5220E-03    -129.660E+06    -228.368E+06    -121.592E+06     223.696E+03    -290.720E-03     581.765E-03    -291.045E-03     10.5195E-03    -290.865E-03     580.992E-03    -291.133E-03     10.2918E-03
            1811     672.023E-06     58.5060E-03    -132.094E+06    -242.191E+06    -130.705E+06    -34.5862E+03    -290.926E-03     582.215E-03    -291.289E-03     5.87759E-03    -291.047E-03     581.386E-03    -291.399E-03     5.78816E-03
            1812     12.7940E-03     58.1778E-03    -5.16119E+06     90.2405E+06     94.9632E+06    -169.542E+03    -289.563E-03     579.908E-03    -290.345E-03     56.8224E-03    -290.668E-03     581.040E-03    -289.994E-03     42.2197E-03
            1813     12.1229E-03     58.0768E-03    -10.8833E+06     85.8169E+06     95.7870E+06    -516.837E+03    -289.074E-03     579.476E-03    -290.402E-03     70.9128E-03    -290.411E-03     580.801E-03    -290.032E-03     55.0662E-03
            1814     11.4464E-03     57.9788E-03    -16.9587E+06     79.7979E+06     92.7319E+06     67.8454E+03    -289.424E-03     579.891E-03    -290.467E-03     72.0329E-03    -290.641E-03     581.062E-03    -290.095E-03     58.0169E-03
            1815     10.7735E-03     57.8676E-03    -23.6016E+06     72.8253E+06     85.4128E+06    -45.0141E+03    -289.826E-03     580.340E-03    -290.514E-03     74.4110E-03    -291.003E-03     581.444E-03    -290.159E-03     61.4223E-03
            1816     10.0995E-03     57.7571E-03    -30.4348E+06     64.7900E+06     73.7870E+06    -190.915E+03    -289.852E-03     580.401E-03    -290.549E-03     73.6077E-03    -290.923E-03     581.380E-03    -290.229E-03     62.0990E-03
            1817     9.42552E-03     57.6456E-03    -37.1726E+06     57.1843E+06     61.1577E+06     358.645E+03    -289.926E-03     580.517E-03    -290.591E-03     70.8571E-03    -290.877E-03     581.361E-03    -290.314E-03     60.9326E-03
            1818     8.75060E-03     57.5389E-03    -44.3386E+06     45.1638E+06     50.7104E+06     435.235E+03    -290.141E-03     580.794E-03    -290.653E-03     66.8487E-03    -290.975E-03     581.484E-03    -290.401E-03     58.4701E-03
            1819     8.07754E-03     57.4346E-03    -51.8224E+06     29.8861E+06     41.5012E+06     269.218E+03    -290.308E-03     581.030E-03    -290.722E-03     62.3161E-03    -291.039E-03     581.563E-03    -290.482E-03     55.3780E-03
            1820     7.40364E-03     57.3388E-03    -59.7561E+06     5.82221E+06     30.4080E+06     196.685E+03    -290.357E-03     581.150E-03    -290.792E-03     57.5158E-03    -290.990E-03     581.503E-03    -290.562E-03     51.8659E-03
            1821     6.73013E-03     57.2480E-03    -68.4152E+06    -32.4232E+06     15.5027E+06     447.637E+03    -290.405E-03     581.273E-03    -290.868E-03     52.4914E-03    -290.933E-03     581.399E-03    -290.645E-03     47.9861E-03
            1822     6.05647E-03     57.1668E-03    -76.9232E+06    -67.3071E+06    -479.096E+03     799.721E+03    -290.473E-03     581.408E-03    -290.935E-03     47.2926E-03    -290.912E-03     581.337E-03    -290.729E-03     43.7938E-03
            1823     5.38323E-03     57.0917E-03    -85.1492E+06    -94.6049E+06    -16.9275E+06     499.606E+03    -290.580E-03     581.565E-03    -290.985E-03     41.9696E-03    -290.952E-03     581.348E-03    -290.809E-03     39.3329E-03
            1824     4.71016E-03     57.0258E-03    -93.9797E+06    -121.378E+06    -34.3313E+06     227.349E+03    -290.642E-03     581.668E-03    -291.025E-03     36.7167E-03    -290.961E-03     581.321E-03    -290.885E-03     34.7800E-03
            1825     4.03683E-03     56.9675E-03    -103.151E+06    -147.902E+06    -52.9479E+06     420.579E+03    -290.682E-03     581.740E-03    -291.058E-03     31.3260E-03    -290.955E-03     581.276E-03    -290.959E-03     29.9426E-03
            1826     3.36345E-03     56.9199E-03    -111.100E+06    -171.614E+06    -71.7214E+06     414.194E+03    -290.790E-03     581.869E-03    -291.078E-03     26.0049E-03    -291.023E-03     581.306E-03    -291.027E-03     25.0678E-03
            1827     2.69089E-03     56.8782E-03    -118.139E+06    -193.129E+06    -90.3225E+06     181.764E+03    -290.812E-03     581.906E-03    -291.094E-03     20.8348E-03    -291.009E-03     581.260E-03    -291.094E-03     20.2135E-03
            1828     2.01802E-03     56.8486E-03    -124.791E+06    -213.127E+06    -107.913E+06     130.331E+03    -290.830E-03     581.961E-03    -291.130E-03     15.5748E-03    -290.998E-03     581.242E-03    -291.180E-03     15.1848E-03
            1829     1.34526E-03     56.8247E-03    -128.897E+06    -227.667E+06    -121.642E+06    -46.7082E+03    -291.052E-03     582.220E-03    -291.168E-03     10.3973E-03    -291.194E-03     581.449E-03    -291.259E-03     10.1789E-03
            1830     672.845E-06     56.8117E-03    -130.750E+06    -242.058E+06    -129.827E+06     38.9089E+03    -291.085E-03     582.372E-03    -291.287E-03     5.86743E-03    -291.201E-03     581.541E-03    -291.396E-03     5.80953E-03
            1831     12.7976E-03     56.4829E-03    -4.59670E+06     90.3065E+06     94.4434E+06     172.990E+03    -288.951E-03     579.306E-03    -290.356E-03     57.5799E-03    -290.060E-03     580.446E-03    -290.008E-03     42.9840E-03
            1832     12.1200E-03     56.3880E-03    -11.2091E+06     85.6081E+06     94.8557E+06    -444.426E+03    -289.147E-03     579.575E-03    -290.428E-03     71.3669E-03    -290.486E-03     580.904E-03    -290.062E-03     55.5412E-03
            1833     11.4477E-03     56.2833E-03    -17.1243E+06     79.8514E+06     92.9314E+06    -239.107E+03    -289.377E-03     579.878E-03    -290.501E-03     72.2209E-03    -290.594E-03     581.048E-03    -290.127E-03     58.2384E-03
            1834     10.7727E-03     56.1768E-03    -23.0299E+06     73.5769E+06     86.2047E+06     336.555E+03    -289.510E-03     580.072E-03    -290.562E-03     74.2948E-03    -290.687E-03     581.179E-03    -290.205E-03     61.2981E-03
            1835     10.0982E-03     56.0630E-03    -30.4351E+06     64.9875E+06     73.8995E+06     275.857E+03    -289.765E-03     580.376E-03    -290.611E-03     73.5198E-03    -290.837E-03     581.356E-03    -290.291E-03     62.0062E-03
            1836     9.42399E-03     55.9535E-03    -38.3926E+06     55.6302E+06     60.3880E+06     518.726E+03    -290.157E-03     580.808E-03    -290.651E-03     70.7198E-03    -291.111E-03     581.648E-03    -290.374E-03     60.7657E-03
            1837     8.75123E-03     55.8437E-03    -46.1798E+06     46.6484E+06     49.8976E+06     889.311E+03    -290.286E-03     580.985E-03    -290.699E-03     66.8605E-03    -291.133E-03     581.689E-03    -290.450E-03     58.4429E-03
            1838     8.07681E-03     55.7422E-03    -54.0113E+06     32.1189E+06     40.4788E+06    -105.830E+03    -290.183E-03     580.951E-03    -290.769E-03     62.4960E-03    -290.930E-03     581.503E-03    -290.535E-03     55.5076E-03
            1839     7.40315E-03     55.6437E-03    -61.8397E+06     4.88882E+06     28.9494E+06    -664.506E+03    -290.144E-03     581.006E-03    -290.862E-03     57.8397E-03    -290.788E-03     581.363E-03    -290.634E-03     52.1249E-03
            1840     6.72932E-03     55.5550E-03    -69.6795E+06    -33.4071E+06     14.4273E+06    -101.902E+03    -290.285E-03     581.248E-03    -290.963E-03     52.8537E-03    -290.819E-03     581.374E-03    -290.741E-03     48.2954E-03
            1841     6.05586E-03     55.4714E-03    -77.7316E+06    -67.2344E+06    -1.01309E+06     146.089E+03    -290.484E-03     581.531E-03    -291.048E-03     47.7393E-03    -290.929E-03     581.465E-03    -290.843E-03     44.1961E-03
            1842     5.38251E-03     55.3973E-03    -86.4508E+06    -93.9933E+06    -17.2234E+06     365.660E+03    -290.591E-03     581.704E-03    -291.113E-03     42.5266E-03    -290.972E-03     581.495E-03    -290.937E-03     39.8361E-03
            1843     4.70907E-03     55.3303E-03    -95.0053E+06    -121.282E+06    -34.7528E+06     583.850E+03    -290.640E-03     581.812E-03    -291.172E-03     37.1726E-03    -290.964E-03     581.469E-03    -291.032E-03     35.1887E-03
            1844     4.03596E-03     55.2730E-03    -102.722E+06    -147.020E+06    -52.9999E+06     217.501E+03    -290.790E-03     582.011E-03    -291.220E-03     31.7473E-03    -291.064E-03     581.551E-03    -291.123E-03     30.3289E-03
            1845     3.36350E-03     55.2231E-03    -110.915E+06    -171.211E+06    -71.8708E+06    -115.908E+03    -290.929E-03     582.180E-03    -291.251E-03     26.3139E-03    -291.163E-03     581.621E-03    -291.201E-03     25.3311E-03
            1846     2.69028E-03     55.1838E-03    -118.810E+06    -193.264E+06    -90.6074E+06     212.861E+03    -290.975E-03     582.249E-03    -291.274E-03     20.9531E-03    -291.176E-03     581.605E-03    -291.275E-03     20.3113E-03
            1847     2.01738E-03     55.1516E-03    -124.400E+06    -212.112E+06    -107.532E+06     241.095E+03    -291.152E-03     582.438E-03    -291.285E-03     15.7515E-03    -291.321E-03     581.723E-03    -291.335E-03     15.3626E-03
            1848     1.34499E-03     55.1290E-03    -128.474E+06    -226.778E+06    -121.608E+06    -148.239E+03    -291.290E-03     582.549E-03    -291.258E-03     10.7169E-03    -291.432E-03     581.782E-03    -291.351E-03     10.4892E-03
            1849     672.580E-06     55.1139E-03    -132.651E+06    -242.952E+06    -130.079E+06    -89.0778E+03    -291.213E-03     582.481E-03    -291.268E-03     6.15562E-03    -291.336E-03     581.649E-03    -291.374E-03     6.01135E-03
            1850     12.7917E-03     54.7920E-03    -4.82241E+06     90.7511E+06     95.0503E+06     256.142E+03    -288.842E-03     579.225E-03    -290.383E-03     56.7272E-03    -289.945E-03     580.358E-03    -290.033E-03     42.1347E-03
            1851     12.1217E-03     54.6914E-03    -10.2821E+06     87.0725E+06     96.0876E+06     331.022E+03    -289.225E-03     579.681E-03    -290.456E-03     70.4535E-03    -290.554E-03     581.004E-03    -290.087E-03     54.6569E-03
            1852     11.4462E-03     54.5934E-03    -17.0000E+06     79.5739E+06     92.6742E+06    -168.163E+03    -289.252E-03     579.779E-03    -290.526E-03     71.9519E-03    -290.467E-03     580.947E-03    -290.154E-03     57.9514E-03
            1853     10.7723E-03     54.4823E-03    -24.2955E+06     72.4435E+06     85.4296E+06     76.7435E+03    -289.482E-03     580.075E-03    -290.594E-03     74.1562E-03    -290.661E-03     581.178E-03    -290.237E-03     61.1562E-03
            1854     10.0984E-03     54.3722E-03    -31.2016E+06     64.9642E+06     74.1453E+06     1.13511E+06    -289.879E-03     580.522E-03    -290.643E-03     73.1452E-03    -290.951E-03     581.499E-03    -290.321E-03     61.6697E-03
            1855     9.42470E-03     54.2579E-03    -38.1726E+06     55.9518E+06     60.9840E+06     1.20848E+06    -290.015E-03     580.701E-03    -290.686E-03     70.6466E-03    -290.970E-03     581.542E-03    -290.407E-03     60.7009E-03
            1856     8.74998E-03     54.1516E-03    -44.7411E+06     47.5671E+06     51.1050E+06     642.062E+03    -290.042E-03     580.794E-03    -290.752E-03     67.1372E-03    -290.888E-03     581.503E-03    -290.501E-03     58.6821E-03
            1857     8.07664E-03     54.0470E-03    -51.8007E+06     34.5594E+06     42.1856E+06     466.323E+03    -290.015E-03     580.859E-03    -290.844E-03     62.9381E-03    -290.762E-03     581.423E-03    -290.608E-03     55.8958E-03
            1858     7.40250E-03     53.9516E-03    -60.3306E+06     5.47169E+06     29.5411E+06     13.3716E+03    -290.058E-03     581.014E-03    -290.955E-03     58.2830E-03    -290.700E-03     581.375E-03    -290.728E-03     52.5325E-03
            1859     6.72862E-03     53.8597E-03    -69.1606E+06    -34.0971E+06     14.4646E+06    -389.703E+03    -290.249E-03     581.324E-03    -291.074E-03     53.2854E-03    -290.783E-03     581.449E-03    -290.852E-03     48.6862E-03
            1860     6.05501E-03     53.7776E-03    -77.7771E+06    -67.5927E+06    -1.00152E+06    -193.726E+03    -290.431E-03     581.609E-03    -291.178E-03     48.0458E-03    -290.878E-03     581.543E-03    -290.973E-03     44.4573E-03
            1861     5.38148E-03     53.7016E-03    -85.9850E+06    -94.3210E+06    -17.2504E+06    -57.8504E+03    -290.568E-03     581.833E-03    -291.265E-03     42.7250E-03    -290.948E-03     581.623E-03    -291.090E-03     39.9924E-03
            1862     4.70846E-03     53.6355E-03    -94.3555E+06    -120.913E+06    -34.5337E+06    -158.770E+03    -290.747E-03     582.087E-03    -291.340E-03     37.3339E-03    -291.070E-03     581.746E-03    -291.200E-03     35.3007E-03
            1863     4.03541E-03     53.5766E-03    -103.104E+06    -146.588E+06    -52.9214E+06     106.448E+03    -290.887E-03     582.288E-03    -291.401E-03     31.9779E-03    -291.164E-03     581.832E-03    -291.303E-03     30.5251E-03
            1864     3.36211E-03     53.5273E-03    -110.881E+06    -170.920E+06    -71.9387E+06     285.450E+03    -291.059E-03     582.503E-03    -291.444E-03     26.5034E-03    -291.293E-03     581.946E-03    -291.395E-03     25.4893E-03
            1865     2.68976E-03     53.4871E-03    -117.734E+06    -192.801E+06    -90.5235E+06    -102.796E+03    -291.298E-03     582.755E-03    -291.457E-03     21.0892E-03    -291.495E-03     582.112E-03    -291.459E-03     20.4218E-03
            1866     2.01751E-03     53.4549E-03    -124.323E+06    -211.726E+06    -107.452E+06    -274.771E+03    -291.399E-03     582.836E-03    -291.437E-03     15.8812E-03    -291.568E-03     582.123E-03    -291.487E-03     15.4645E-03
            1867     1.34496E-03     53.4319E-03    -129.965E+06    -227.280E+06    -121.910E+06     248.341E+03    -291.368E-03     582.781E-03    -291.414E-03     10.6322E-03    -291.516E-03     582.015E-03    -291.505E-03     10.3938E-03
            1868     672.185E-06     53.4182E-03    -131.302E+06    -242.047E+06    -130.578E+06     485.871E+03    -291.703E-03     582.823E-03    -291.119E-03     5.90758E-03    -291.821E-03     581.994E-03    -291.231E-03     5.72945E-03
            1869     12.7983E-03     53.0985E-03    -5.13328E+06     90.6310E+06     94.8629E+06    -117.816E+03    -288.788E-03     579.174E-03    -290.386E-03     57.0790E-03    -289.895E-03     580.309E-03    -290.036E-03     42.4747E-03
            1870     12.1201E-03     53.0005E-03    -10.0762E+06     87.4448E+06     96.6305E+06     1.04269E+06    -288.895E-03     579.368E-03    -290.473E-03     70.8754E-03    -290.225E-03     580.692E-03    -290.102E-03     55.1315E-03
            1871     11.4469E-03     52.8997E-03    -16.8753E+06     79.9339E+06     92.9847E+06     1.08510E+06    -289.260E-03     579.813E-03    -290.553E-03     72.0251E-03    -290.475E-03     580.983E-03    -290.180E-03     58.0513E-03
            1872     10.7722E-03     52.7914E-03    -24.2067E+06     72.0366E+06     85.1167E+06     763.167E+03    -289.646E-03     580.262E-03    -290.616E-03     74.4831E-03    -290.828E-03     581.367E-03    -290.260E-03     61.4705E-03
            1873     10.0982E-03     52.6766E-03    -30.9561E+06     64.6219E+06     73.8418E+06     398.496E+03    -289.779E-03     580.445E-03    -290.666E-03     73.6529E-03    -290.857E-03     581.429E-03    -290.345E-03     62.0936E-03
            1874     9.42379E-03     52.5673E-03    -37.3713E+06     56.9412E+06     61.4191E+06     222.177E+03    -289.714E-03     580.442E-03    -290.727E-03     71.2231E-03    -290.674E-03     581.292E-03    -290.449E-03     61.2262E-03
            1875     8.75004E-03     52.4567E-03    -44.5231E+06     48.0725E+06     51.4438E+06     265.932E+03    -289.693E-03     580.518E-03    -290.825E-03     67.6368E-03    -290.544E-03     581.233E-03    -290.573E-03     59.1563E-03
            1876     8.07532E-03     52.3551E-03    -52.1078E+06     34.5750E+06     42.3037E+06     414.097E+03    -289.840E-03     580.787E-03    -290.946E-03     63.3818E-03    -290.593E-03     581.355E-03    -290.709E-03     56.3082E-03
            1877     7.40147E-03     52.2562E-03    -59.8955E+06     6.82236E+06     30.3816E+06     594.977E+03    -290.095E-03     581.170E-03    -291.075E-03     58.7607E-03    -290.742E-03     581.540E-03    -290.846E-03     52.9789E-03
            1878     6.72784E-03     52.1665E-03    -68.1240E+06    -33.2300E+06     15.3857E+06     330.113E+03    -290.318E-03     581.520E-03    -291.202E-03     53.7201E-03    -290.853E-03     581.651E-03    -290.978E-03     49.0848E-03
            1879     6.05420E-03     52.0818E-03    -76.4783E+06    -67.6499E+06    -416.493E+03     77.3683E+03    -290.475E-03     581.791E-03    -291.316E-03     48.4015E-03    -290.919E-03     581.725E-03    -291.109E-03     44.7646E-03
            1880     5.38094E-03     52.0072E-03    -85.1526E+06    -93.8928E+06    -16.9287E+06    -17.4599E+03    -290.629E-03     582.042E-03    -291.413E-03     43.0157E-03    -291.008E-03     581.835E-03    -291.238E-03     40.2383E-03
            1881     4.70748E-03     51.9389E-03    -94.1833E+06    -121.085E+06    -34.6243E+06    -4.39435E+03    -290.803E-03     582.305E-03    -291.502E-03     37.6511E-03    -291.127E-03     581.965E-03    -291.363E-03     35.5806E-03
            1882     4.03461E-03     51.8808E-03    -102.623E+06    -147.015E+06    -53.0732E+06     69.8717E+03    -290.990E-03     582.568E-03    -291.578E-03     32.2242E-03    -291.265E-03     582.111E-03    -291.482E-03     30.7266E-03
            1883     3.36206E-03     51.8306E-03    -110.399E+06    -170.433E+06    -71.7788E+06    -28.4846E+03    -291.182E-03     582.818E-03    -291.637E-03     26.8034E-03    -291.415E-03     582.263E-03    -291.589E-03     25.7623E-03
            1884     2.68933E-03     51.7892E-03    -117.879E+06    -192.196E+06    -90.2762E+06     65.5163E+03    -291.433E-03     583.102E-03    -291.668E-03     21.5471E-03    -291.633E-03     582.462E-03    -291.670E-03     20.8467E-03
            1885     2.01682E-03     51.7578E-03    -124.709E+06    -212.054E+06    -107.866E+06     301.726E+03    -291.636E-03     583.291E-03    -291.655E-03     16.2428E-03    -291.806E-03     582.578E-03    -291.706E-03     15.7867E-03
            1886     1.34452E-03     51.7346E-03    -129.011E+06    -226.875E+06    -122.221E+06    -5.91406E+03    -291.708E-03     583.295E-03    -291.588E-03     10.7917E-03    -291.851E-03     582.530E-03    -291.683E-03     10.5188E-03
            1887     672.629E-06     51.7208E-03    -131.392E+06    -241.583E+06    -130.084E+06    -573.962E+03    -291.817E-03     583.100E-03    -291.283E-03     6.07560E-03    -291.936E-03     582.273E-03    -291.393E-03     5.89238E-03
            1888     12.7913E-03     51.4069E-03    -5.46474E+06     89.4884E+06     93.7472E+06     24.2515E+03    -288.555E-03     578.951E-03    -290.397E-03     56.9260E-03    -289.656E-03     580.079E-03    -290.050E-03     42.3825E-03
            1889     12.1208E-03     51.3072E-03    -11.2008E+06     86.4069E+06     95.2668E+06     299.043E+03    -288.855E-03     579.346E-03    -290.491E-03     70.6921E-03    -290.185E-03     580.667E-03    -290.124E-03     54.9517E-03
            1890     11.4454E-03     51.2081E-03    -16.6087E+06     80.1959E+06     93.4219E+06     834.857E+03    -289.299E-03     579.876E-03    -290.578E-03     72.0032E-03    -290.515E-03     581.047E-03    -290.203E-03     58.0111E-03
            1891     10.7720E-03     51.0965E-03    -22.5456E+06     73.1822E+06     86.2826E+06     959.638E+03    -289.445E-03     580.093E-03    -290.647E-03     74.5277E-03    -290.625E-03     581.201E-03    -290.289E-03     61.5047E-03
            1892     10.0976E-03     50.9860E-03    -29.5401E+06     66.1427E+06     74.4586E+06     598.210E+03    -289.384E-03     580.101E-03    -290.717E-03     73.9996E-03    -290.463E-03     581.094E-03    -290.398E-03     62.4228E-03
            1893     9.42345E-03     50.8725E-03    -37.0486E+06     57.2246E+06     61.2740E+06     325.583E+03    -289.478E-03     580.284E-03    -290.806E-03     71.7717E-03    -290.444E-03     581.144E-03    -290.529E-03     61.7160E-03
            1894     8.74862E-03     50.7658E-03    -44.3027E+06     48.2789E+06     51.5574E+06     226.560E+03    -289.605E-03     580.530E-03    -290.925E-03     68.2602E-03    -290.463E-03     581.253E-03    -290.673E-03     59.7123E-03
            1895     8.07468E-03     50.6603E-03    -51.9918E+06     34.5046E+06     42.5232E+06     182.313E+03    -289.804E-03     580.867E-03    -291.063E-03     63.8878E-03    -290.562E-03     581.439E-03    -290.825E-03     56.7702E-03
            1896     7.40060E-03     50.5633E-03    -59.7814E+06     6.83313E+06     30.3640E+06     240.240E+03    -290.073E-03     581.278E-03    -291.205E-03     59.1584E-03    -290.723E-03     581.652E-03    -290.977E-03     53.3311E-03
            1897     6.72676E-03     50.4705E-03    -67.6894E+06    -32.4570E+06     15.4133E+06     381.357E+03    -290.329E-03     581.676E-03    -291.347E-03     54.2061E-03    -290.867E-03     581.813E-03    -291.124E-03     49.5171E-03
            1898     6.05336E-03     50.3877E-03    -76.5655E+06    -67.4263E+06    -536.899E+03     343.277E+03    -290.552E-03     582.026E-03    -291.474E-03     49.0174E-03    -291.001E-03     581.966E-03    -291.268E-03     45.3197E-03
            1899     5.37986E-03     50.3105E-03    -85.4669E+06    -93.8168E+06    -16.8303E+06     494.835E+03    -290.728E-03     582.313E-03    -291.584E-03     43.6416E-03    -291.113E-03     582.109E-03    -291.409E-03     40.8046E-03
            1900     4.70700E-03     50.2436E-03     -93.642E+06    -120.456E+06    -34.0520E+06     537.341E+03    -290.883E-03     582.571E-03    -291.688E-03     38.1957E-03    -291.208E-03     582.235E-03    -291.548E-03     36.0819E-03
            1901     4.03381E-03     50.1835E-03    -102.016E+06    -146.386E+06    -52.5563E+06     195.444E+03    -291.078E-03     582.861E-03    -291.783E-03     32.8155E-03    -291.353E-03     582.407E-03    -291.686E-03     31.2743E-03
            1902     3.36101E-03     50.1334E-03    -110.762E+06    -170.532E+06    -71.7166E+06     150.768E+03    -291.312E-03     583.176E-03    -291.864E-03     27.3881E-03    -291.549E-03     582.622E-03    -291.815E-03     26.3008E-03
            1903     2.68839E-03     50.0920E-03    -118.419E+06    -192.385E+06    -90.4474E+06     335.707E+03    -291.531E-03     583.457E-03    -291.926E-03     21.9791E-03    -291.733E-03     582.818E-03    -291.928E-03     21.2475E-03
            1904     2.01622E-03     50.0588E-03    -124.089E+06    -211.304E+06    -107.657E+06     151.464E+03    -291.744E-03     583.712E-03    -291.967E-03     16.5096E-03    -291.913E-03     583.002E-03    -292.019E-03     16.0305E-03
            1905     1.34436E-03     50.0366E-03    -128.333E+06    -226.133E+06    -121.495E+06    -42.4588E+03    -291.912E-03     583.899E-03    -291.987E-03     11.3459E-03    -292.054E-03     583.136E-03    -292.081E-03     11.0395E-03
            1906     672.089E-06     50.0221E-03    -131.916E+06    -241.533E+06    -130.118E+06     230.097E+03    -291.792E-03     583.995E-03    -292.203E-03     6.21994E-03    -291.915E-03     583.169E-03    -292.312E-03     6.04392E-03
            1907     12.7979E-03     49.7137E-03    -4.64689E+06     89.8045E+06     94.7719E+06     207.875E+03    -288.705E-03     579.110E-03    -290.405E-03     56.5350E-03    -289.803E-03     580.235E-03    -290.054E-03     41.9568E-03
            1908     12.1198E-03     49.6167E-03    -9.91163E+06     86.5279E+06     95.9233E+06     263.100E+03    -288.797E-03     579.292E-03    -290.495E-03     70.4145E-03    -290.122E-03     580.610E-03    -290.126E-03     54.6321E-03
            1909     11.4467E-03     49.5136E-03    -16.4931E+06     79.7044E+06     92.7047E+06    -39.9456E+03    -288.861E-03     579.452E-03    -290.591E-03     72.1682E-03    -290.077E-03     580.624E-03    -290.220E-03     58.1630E-03
            1910     10.7715E-03     49.4060E-03    -23.2056E+06     72.7503E+06     85.6694E+06     139.201E+03    -288.940E-03     579.634E-03    -290.694E-03     74.8428E-03    -290.124E-03     580.746E-03    -290.337E-03     61.8231E-03
            1911     10.0969E-03     49.2924E-03    -29.8905E+06     66.1368E+06     74.4821E+06     818.700E+03    -289.071E-03     579.868E-03    -290.797E-03     74.4631E-03    -290.156E-03     580.866E-03    -290.478E-03     62.8985E-03
            1912     9.42188E-03     49.1817E-03     -36.627E+06     58.4131E+06     61.8582E+06     868.847E+03    -289.324E-03     580.234E-03    -290.910E-03     72.2373E-03    -290.296E-03     581.104E-03    -290.632E-03     62.1664E-03
            1913     8.74787E-03     49.0712E-03    -44.0198E+06     49.2562E+06     51.8045E+06     369.826E+03    -289.627E-03     580.669E-03    -291.042E-03     68.6595E-03    -290.491E-03     581.402E-03    -290.791E-03     60.0578E-03
            1914     8.07350E-03     48.9678E-03    -51.8798E+06     34.6271E+06     42.2478E+06     168.115E+03    -289.806E-03     580.995E-03    -291.189E-03     64.4248E-03    -290.570E-03     581.575E-03    -290.953E-03     57.2334E-03
            1915     7.39952E-03     48.8678E-03    -59.8645E+06     6.56361E+06     29.8989E+06     344.919E+03    -289.991E-03     581.340E-03    -291.349E-03     59.8116E-03    -290.646E-03     581.719E-03    -291.122E-03     53.9112E-03
            1916     6.72573E-03     48.7768E-03    -68.6957E+06    -32.7795E+06     14.7277E+06     606.464E+03    -290.280E-03     581.794E-03    -291.514E-03     54.8375E-03    -290.826E-03     581.937E-03    -291.293E-03     50.0793E-03
            1917     6.05198E-03     48.6910E-03    -77.4218E+06    -67.0881E+06    -991.333E+03     704.501E+03    -290.549E-03     582.214E-03    -291.665E-03     49.6192E-03    -291.006E-03     582.161E-03    -291.461E-03     45.8623E-03
            1918     5.37889E-03     48.6152E-03    -85.5998E+06    -93.3627E+06    -16.8296E+06     443.133E+03    -290.766E-03     582.566E-03    -291.800E-03     44.3245E-03    -291.155E-03     582.369E-03    -291.625E-03     41.4238E-03
            1919     4.70551E-03     48.5460E-03    -94.2294E+06    -119.894E+06    -33.9276E+06     361.531E+03    -291.023E-03     582.949E-03    -291.926E-03     38.9541E-03    -291.355E-03     582.620E-03    -291.785E-03     36.7693E-03
            1920     4.03288E-03     48.4870E-03    -103.113E+06    -145.849E+06    -52.6970E+06     678.276E+03    -291.273E-03     583.307E-03    -292.034E-03     33.3884E-03    -291.556E-03     582.859E-03    -291.937E-03     31.7999E-03
            1921     3.36012E-03     48.4351E-03    -110.870E+06    -169.911E+06     -71.821E+06     634.348E+03    -291.534E-03     583.657E-03    -292.123E-03     27.7720E-03    -291.773E-03     583.108E-03    -292.075E-03     26.6545E-03
            1922     2.68802E-03     48.3933E-03    -117.575E+06    -191.659E+06    -90.1019E+06     165.373E+03    -291.727E-03     583.929E-03    -292.201E-03     22.2265E-03    -291.928E-03     583.293E-03    -292.204E-03     21.4535E-03
            1923     2.01556E-03     48.3603E-03    -124.297E+06    -211.009E+06    -107.199E+06     104.612E+03    -291.850E-03     584.142E-03    -292.292E-03     16.7329E-03    -292.021E-03     583.434E-03    -292.342E-03     16.2248E-03
            1924     1.34300E-03     48.3370E-03    -129.704E+06    -226.577E+06    -121.288E+06     535.566E+03    -292.101E-03     584.505E-03    -292.404E-03     11.1617E-03    -292.250E-03     583.741E-03    -292.494E-03     10.8640E-03
            1925     671.239E-06     48.3223E-03    -132.241E+06    -239.273E+06    -130.297E+06     777.404E+03    -292.230E-03     584.920E-03    -292.690E-03     5.66993E-03    -292.357E-03     584.106E-03    -292.803E-03     5.56083E-03
            1926     12.7916E-03     48.0216E-03    -4.88599E+06     89.4194E+06     94.4424E+06    -289.477E+03    -288.442E-03     578.851E-03    -290.409E-03     56.9142E-03    -289.541E-03     579.977E-03    -290.059E-03     42.3853E-03
            1927     12.1212E-03     47.9229E-03    -10.4834E+06     85.7364E+06     95.5685E+06     83.6036E+03    -288.643E-03     579.156E-03    -290.513E-03     70.9482E-03    -289.972E-03     580.474E-03    -290.144E-03     55.1961E-03
            1928     11.4451E-03     47.8242E-03    -16.3853E+06     80.6447E+06     93.1535E+06     585.325E+03    -288.448E-03     579.077E-03    -290.629E-03     72.4103E-03    -289.665E-03     580.252E-03    -290.257E-03     58.4676E-03
            1929     10.7705E-03     47.7130E-03    -23.4003E+06     72.8197E+06     85.5345E+06     312.442E+03    -288.516E-03     579.276E-03    -290.760E-03     75.1523E-03    -289.705E-03     580.392E-03    -290.404E-03     62.1298E-03
            1930     10.0956E-03     47.6018E-03    -30.4549E+06     65.1125E+06     73.9347E+06     99.3310E+03    -288.915E-03     579.803E-03    -290.888E-03     74.7110E-03    -290.008E-03     580.805E-03    -290.569E-03     63.0772E-03
            1931     9.42132E-03     47.4881E-03    -37.3230E+06     58.6791E+06     61.4563E+06     488.155E+03    -289.253E-03     580.268E-03    -291.014E-03     72.5901E-03    -290.235E-03     581.147E-03    -290.738E-03     62.4548E-03
            1932     8.74658E-03     47.3787E-03    -44.5432E+06     50.2708E+06     51.4710E+06     733.841E+03    -289.478E-03     580.641E-03    -291.164E-03     69.1546E-03    -290.353E-03     581.388E-03    -290.915E-03     60.4937E-03
            1933     8.07251E-03     47.2731E-03    -52.4769E+06     35.0109E+06     41.8177E+06     711.318E+03    -289.661E-03     580.997E-03    -291.335E-03     65.0246E-03    -290.436E-03     581.588E-03    -291.101E-03     57.7644E-03
            1934     7.39824E-03     47.1744E-03    -61.1872E+06     6.25083E+06     29.3490E+06     799.222E+03    -289.918E-03     581.439E-03    -291.521E-03     60.5413E-03    -290.586E-03     581.827E-03    -291.295E-03     54.5666E-03
            1935     6.72430E-03     47.0807E-03    -69.2883E+06    -32.5212E+06     14.6073E+06     727.361E+03    -290.245E-03     581.957E-03    -291.712E-03     55.6052E-03    -290.801E-03     582.109E-03    -291.491E-03     50.7681E-03
            1936     6.05092E-03     46.9959E-03    -77.2361E+06    -66.0395E+06    -858.038E+03     427.793E+03    -290.533E-03     582.422E-03    -291.889E-03     50.3588E-03    -290.996E-03     582.379E-03    -291.686E-03     46.5260E-03
            1937     5.37724E-03     46.9180E-03    -86.2350E+06    -92.9892E+06    -17.2784E+06     326.278E+03    -290.857E-03     582.907E-03    -292.050E-03     44.9861E-03    -291.253E-03     582.716E-03    -291.876E-03     42.0135E-03
            1938     4.70441E-03     46.8492E-03    -94.8982E+06    -120.198E+06    -34.7377E+06     509.227E+03    -291.250E-03     583.439E-03    -292.189E-03     39.4228E-03    -291.586E-03     583.113E-03    -292.051E-03     37.1782E-03
            1939     4.03153E-03     46.7879E-03    -102.568E+06    -145.266E+06    -53.0025E+06     304.589E+03    -291.581E-03     583.878E-03    -292.298E-03     33.7227E-03    -291.864E-03     583.436E-03    -292.203E-03     32.0666E-03
            1940     3.35939E-03     46.7369E-03    -110.532E+06    -169.084E+06    -71.7817E+06     73.0132E+03    -291.787E-03     584.175E-03    -292.388E-03     28.1569E-03    -292.027E-03     583.630E-03    -292.341E-03     26.9780E-03
            1941     2.68685E-03     46.6934E-03    -118.522E+06    -191.490E+06    -90.2692E+06     300.223E+03    -291.999E-03     584.468E-03    -292.469E-03     22.4413E-03    -292.205E-03     583.835E-03    -292.471E-03     21.6294E-03
            1942     2.01494E-03     46.6613E-03    -124.808E+06    -210.733E+06    -107.188E+06     545.359E+03    -292.275E-03     584.802E-03    -292.527E-03     16.7069E-03    -292.450E-03     584.096E-03    -292.576E-03     16.1987E-03
            1943     1.34359E-03     46.6356E-03    -129.313E+06    -225.610E+06    -120.935E+06     365.224E+03    -292.442E-03     585.002E-03    -292.559E-03     11.0282E-03    -292.591E-03     584.241E-03    -292.649E-03     10.7447E-03
            1944     671.991E-06     46.6220E-03    -132.699E+06    -238.228E+06    -130.328E+06    -204.368E+03    -292.501E-03     585.132E-03    -292.632E-03     5.92198E-03    -292.631E-03     584.324E-03    -292.745E-03     5.82004E-03
            1945     12.7971E-03     46.3300E-03    -4.56452E+06     89.7949E+06     94.2601E+06     152.696E+03    -288.048E-03     578.457E-03    -290.409E-03     56.3473E-03    -289.137E-03     579.575E-03    -290.061E-03     41.9142E-03
            1946     12.1186E-03     46.2310E-03    -11.2377E+06     85.1223E+06     94.6798E+06    -729.136E+03    -288.017E-03     578.557E-03    -290.540E-03     70.3888E-03    -289.343E-03     579.870E-03    -290.174E-03     54.6504E-03
            1947     11.4455E-03     46.1323E-03    -17.1499E+06     80.0886E+06     92.8479E+06    -152.205E+03    -288.242E-03     578.926E-03    -290.684E-03     72.2641E-03    -289.467E-03     580.105E-03    -290.311E-03     58.2592E-03
            1948     10.7700E-03     46.0233E-03    -23.0630E+06     73.3056E+06     86.0990E+06     589.220E+03    -288.440E-03     579.268E-03    -290.827E-03     75.2817E-03    -289.637E-03     580.393E-03    -290.470E-03     62.2012E-03
            1949     10.0950E-03     45.9089E-03    -30.2503E+06     65.4433E+06     74.0174E+06     611.489E+03    -288.714E-03     579.681E-03    -290.967E-03     74.9172E-03    -289.812E-03     580.689E-03    -290.648E-03     63.2547E-03
            1950     9.42008E-03     45.7963E-03    -37.5026E+06     58.0763E+06     61.0117E+06     661.320E+03    -288.955E-03     580.072E-03    -291.117E-03     72.9747E-03    -289.943E-03     580.956E-03    -290.842E-03     62.7942E-03
            1951     8.74566E-03     45.6852E-03    -44.8879E+06     50.0860E+06     51.1095E+06     941.911E+03    -289.130E-03     580.431E-03    -291.301E-03     69.8683E-03    -290.016E-03     581.187E-03    -291.053E-03     61.1491E-03
            1952     8.07086E-03     45.5799E-03    -52.5841E+06     35.6162E+06     41.9887E+06     1.08042E+06    -289.475E-03     580.985E-03    -291.510E-03     65.8879E-03    -290.260E-03     581.588E-03    -291.276E-03     58.5619E-03
            1953     7.39675E-03     45.4793E-03    -60.4203E+06     6.97811E+06     29.8193E+06     759.662E+03    -289.856E-03     581.583E-03    -291.727E-03     61.3852E-03    -290.529E-03     581.980E-03    -291.500E-03     55.3322E-03
            1954     6.72287E-03     45.3858E-03    -68.9499E+06    -31.7073E+06     14.9211E+06     435.098E+03    -290.217E-03     582.162E-03    -291.945E-03     56.5096E-03    -290.780E-03     582.325E-03    -291.725E-03     51.5824E-03
            1955     6.04898E-03     45.2993E-03    -77.3435E+06    -65.4538E+06    -739.938E+03     486.787E+03    -290.672E-03     582.818E-03    -292.146E-03     51.1650E-03    -291.142E-03     582.783E-03    -291.942E-03     47.2435E-03
            1956     5.37599E-03     45.2211E-03    -85.3330E+06    -92.4453E+06    -17.1382E+06     447.810E+03    -291.128E-03     583.442E-03    -292.314E-03     45.6315E-03    -291.525E-03     583.258E-03    -292.142E-03     42.5872E-03
            1957     4.70305E-03     45.1502E-03    -93.8532E+06    -119.740E+06    -34.6765E+06      -4.993E+03    -291.494E-03     583.952E-03    -292.458E-03     40.0342E-03    -291.829E-03     583.629E-03    -292.321E-03     37.7099E-03
            1958     4.03080E-03     45.0892E-03    -102.836E+06    -145.140E+06    -52.9444E+06    -86.3896E+03    -291.825E-03     584.401E-03    -292.576E-03     34.3564E-03    -292.112E-03     583.961E-03    -292.481E-03     32.6197E-03
            1959     3.35829E-03     45.0365E-03    -111.283E+06    -169.253E+06    -71.9200E+06     292.447E+03    -292.142E-03     584.804E-03    -292.662E-03     28.5362E-03    -292.387E-03     584.262E-03    -292.615E-03     27.2896E-03
            1960     2.68651E-03     44.9940E-03    -118.131E+06    -191.091E+06    -90.1942E+06     381.420E+03    -292.395E-03     585.112E-03    -292.717E-03     22.7285E-03    -292.600E-03     584.481E-03    -292.719E-03     21.8830E-03
            1961     2.01486E-03     44.9589E-03    -123.963E+06    -209.892E+06    -107.148E+06     73.9589E+03    -292.588E-03     585.329E-03    -292.741E-03     17.1438E-03    -292.760E-03     584.627E-03    -292.792E-03     16.5938E-03
            1962     1.34302E-03     44.9357E-03    -129.170E+06    -225.126E+06    -121.693E+06    -206.859E+03    -292.685E-03     585.428E-03    -292.744E-03     11.5851E-03    -292.833E-03     584.672E-03    -292.838E-03     11.2493E-03
            1963     671.202E-06     44.9200E-03    -131.100E+06    -238.196E+06    -129.600E+06    -102.666E+03    -292.705E-03     585.497E-03    -292.792E-03     6.38730E-03    -292.829E-03     584.686E-03    -292.904E-03     6.20073E-03
            1964     12.7927E-03     44.6394E-03    -4.91966E+06     90.5797E+06     94.6573E+06     62.8791E+03    -287.964E-03     578.389E-03    -290.425E-03     56.5143E-03    -289.062E-03     579.517E-03    -290.076E-03     41.9753E-03
            1965     12.1208E-03     44.5414E-03    -9.84929E+06     86.7390E+06     95.8960E+06     497.601E+03    -287.410E-03     577.988E-03    -290.578E-03     70.9858E-03    -288.739E-03     579.311E-03    -290.210E-03     55.2904E-03
            1966     11.4435E-03     44.4413E-03    -16.9279E+06     78.9308E+06     92.0280E+06     26.3781E+03    -287.850E-03     578.601E-03    -290.751E-03     73.2430E-03    -289.084E-03     579.788E-03    -290.381E-03     59.1914E-03
            1967     10.7693E-03     44.3312E-03    -24.0184E+06     72.4334E+06     84.9015E+06     65.7951E+03    -288.391E-03     579.306E-03    -290.914E-03     76.1947E-03    -289.602E-03     580.442E-03    -290.560E-03     63.0483E-03
            1968     10.0943E-03     44.2184E-03    -30.4377E+06     65.5257E+06     73.9579E+06     626.280E+03    -288.517E-03     579.592E-03    -291.075E-03     76.1486E-03    -289.630E-03     580.615E-03    -290.756E-03     64.4389E-03
            1969     9.41934E-03     44.1036E-03    -37.3880E+06     57.8300E+06     61.2486E+06     854.053E+03    -288.662E-03     579.918E-03    -291.256E-03     74.0610E-03    -289.663E-03     580.813E-03    -290.979E-03     63.8232E-03
            1970     8.74393E-03     43.9936E-03    -44.4285E+06     50.0707E+06     51.5817E+06     981.261E+03    -288.933E-03     580.406E-03    -291.473E-03     70.8763E-03    -289.827E-03     581.171E-03    -291.223E-03     62.0968E-03
            1971     8.06935E-03     43.8854E-03    -51.6671E+06     36.2567E+06     42.5876E+06     790.474E+03    -289.324E-03     581.037E-03    -291.714E-03     66.8392E-03    -290.116E-03     581.651E-03    -291.478E-03     59.4264E-03
            1972     7.39497E-03     43.7848E-03    -59.6421E+06     7.92178E+06     30.3281E+06     691.790E+03    -289.803E-03     581.763E-03    -291.961E-03     62.2310E-03    -290.484E-03     582.173E-03    -291.734E-03     56.0760E-03
            1973     6.72083E-03     43.6898E-03    -68.0167E+06    -31.2564E+06     15.0682E+06     753.150E+03    -290.335E-03     582.536E-03    -292.201E-03     57.2372E-03    -290.901E-03     582.706E-03    -291.982E-03     52.2202E-03
            1974     6.04754E-03     43.6023E-03    -76.8339E+06    -65.0872E+06    -715.761E+03     431.187E+03    -290.865E-03     583.281E-03    -292.416E-03     51.9429E-03    -291.339E-03     583.253E-03    -292.214E-03     47.9254E-03
            1975     5.37442E-03     43.5222E-03    -85.5737E+06    -91.7960E+06    -16.7663E+06     287.204E+03    -291.325E-03     583.924E-03    -292.599E-03     46.4399E-03    -291.730E-03     583.748E-03    -292.426E-03     43.2950E-03
            1976     4.70182E-03     43.4516E-03    -94.0509E+06    -118.996E+06    -34.1317E+06     514.555E+03    -291.696E-03     584.454E-03    -292.759E-03     40.8327E-03    -292.038E-03     584.139E-03    -292.620E-03     38.4177E-03
            1977     4.02910E-03     43.3888E-03    -102.302E+06    -145.025E+06    -52.6480E+06     515.867E+03    -292.080E-03     584.970E-03    -292.890E-03     35.1036E-03    -292.368E-03     584.533E-03    -292.795E-03     33.2979E-03
            1978     3.35741E-03     43.3359E-03    -110.044E+06    -168.635E+06    -71.5519E+06     171.284E+03    -292.438E-03     585.425E-03    -292.987E-03     29.3329E-03    -292.680E-03     584.886E-03    -292.941E-03     28.0160E-03
            1979     2.68573E-03     43.2917E-03    -118.035E+06    -190.701E+06    -90.0921E+06    -62.7694E+03    -292.692E-03     585.747E-03    -293.055E-03     23.6787E-03    -292.900E-03     585.120E-03    -293.058E-03     22.7524E-03
            1980     2.01393E-03     43.2584E-03    -124.767E+06    -209.925E+06    -107.243E+06     180.752E+03    -292.891E-03     585.988E-03    -293.097E-03     17.8878E-03    -293.068E-03     585.288E-03    -293.148E-03     17.2706E-03
            1981     1.34257E-03     43.2326E-03    -128.623E+06    -224.132E+06    -121.714E+06      129.59E+03    -293.067E-03     586.170E-03    -293.102E-03     11.8682E-03    -293.215E-03     585.418E-03    -293.199E-03     11.4727E-03
            1982     671.593E-06     43.2189E-03    -131.867E+06    -239.024E+06    -130.376E+06    -479.531E+03    -293.174E-03     586.207E-03    -293.033E-03     6.39197E-03    -293.300E-03     585.394E-03    -293.147E-03     6.11849E-03
            1983     12.7957E-03     42.9449E-03    -5.65865E+06     89.7289E+06     93.4485E+06    -427.458E+03    -287.287E-03     577.760E-03    -290.474E-03     56.4340E-03    -288.385E-03     578.886E-03    -290.128E-03     41.9092E-03
            1984     12.1175E-03     42.8549E-03    -11.3552E+06     85.9896E+06     94.6237E+06     174.220E+03    -287.467E-03     578.114E-03    -290.646E-03     71.1277E-03    -288.802E-03     579.439E-03    -290.281E-03     55.4168E-03
            1985     11.4434E-03     42.7491E-03    -16.5359E+06     80.1684E+06     92.6561E+06     975.845E+03    -287.527E-03     578.364E-03    -290.836E-03     73.5791E-03    -288.762E-03     579.555E-03    -290.465E-03     59.6019E-03
            1986     10.7674E-03     42.6414E-03    -23.1413E+06     73.2515E+06     85.1799E+06     405.600E+03    -287.848E-03     578.880E-03    -291.032E-03     76.3865E-03    -289.056E-03     580.018E-03    -290.679E-03     63.2919E-03
            1987     10.0922E-03     42.5253E-03    -30.3117E+06     64.8439E+06     73.4787E+06     5.69408E+03    -288.207E-03     579.436E-03    -291.229E-03     76.7445E-03    -289.327E-03     580.466E-03    -290.912E-03     64.9711E-03
            1988     9.41688E-03     42.4132E-03    -37.1561E+06     57.2138E+06     61.2250E+06     356.010E+03    -288.562E-03     580.002E-03    -291.440E-03     74.9943E-03    -289.574E-03     580.908E-03    -291.163E-03     64.6512E-03
            1989     8.74229E-03     42.2994E-03    -44.1514E+06     50.3654E+06     52.0818E+06     584.884E+03    -288.954E-03     580.633E-03    -291.679E-03     71.8418E-03    -289.863E-03     581.413E-03    -291.427E-03     62.9232E-03
            1990     8.06753E-03     42.1927E-03    -51.8096E+06     36.4080E+06     42.6715E+06     901.075E+03    -289.314E-03     581.252E-03    -291.938E-03     67.7549E-03    -290.119E-03     581.879E-03    -291.702E-03     60.2245E-03
            1991     7.39297E-03     42.0889E-03    -60.0053E+06     8.10749E+06     30.0513E+06     1.19619E+06    -289.843E-03     582.048E-03    -292.205E-03     63.0878E-03    -290.535E-03     582.469E-03    -291.980E-03     56.8388E-03
            1992     6.71938E-03     41.9936E-03    -68.2757E+06    -30.2014E+06     15.2121E+06     877.623E+03    -290.448E-03     582.914E-03    -292.466E-03     58.0944E-03    -291.025E-03     583.098E-03    -292.247E-03     52.9699E-03
            1993     6.04577E-03     41.9041E-03    -76.6594E+06    -63.8354E+06    -479.993E+03     519.558E+03    -290.943E-03     583.646E-03    -292.703E-03     52.9311E-03    -291.426E-03     583.632E-03    -292.502E-03     48.8045E-03
            1994     5.37273E-03     41.8237E-03    -85.2945E+06    -91.9435E+06    -16.9111E+06     322.265E+03    -291.429E-03     584.344E-03    -292.915E-03     47.4324E-03    -291.838E-03     584.173E-03    -292.743E-03     44.1720E-03
            1995     4.70000E-03     41.7510E-03    -93.8977E+06    -119.137E+06    -34.1572E+06     316.418E+03    -291.940E-03     585.039E-03    -293.100E-03     41.7200E-03    -292.286E-03     584.728E-03    -292.962E-03     39.1948E-03
            1996     4.02813E-03     41.6881E-03    -102.058E+06    -144.203E+06    -52.2295E+06     355.868E+03    -292.295E-03     585.550E-03    -293.255E-03     35.9180E-03    -292.587E-03     585.119E-03    -293.159E-03     34.0195E-03
            1997     3.35589E-03     41.6335E-03    -110.460E+06    -168.338E+06    -71.3430E+06     491.173E+03    -292.597E-03     585.990E-03    -293.392E-03     30.0813E-03    -292.845E-03     585.455E-03    -293.345E-03     28.6922E-03
            1998     2.68401E-03     41.5900E-03    -117.871E+06    -190.044E+06    -90.2894E+06     581.331E+03    -292.974E-03     586.478E-03    -293.505E-03     24.2093E-03    -293.182E-03     585.856E-03    -293.510E-03     23.2225E-03
            1999     2.01300E-03     41.5540E-03    -123.927E+06    -209.247E+06    -107.450E+06    -4.71628E+03    -293.266E-03     586.857E-03    -293.590E-03     18.3814E-03    -293.441E-03     586.160E-03    -293.644E-03     17.6980E-03
            2000     1.34200E-03     41.5301E-03    -129.010E+06    -224.025E+06    -121.247E+06    -144.412E+03    -293.491E-03     587.147E-03    -293.656E-03     12.5970E-03    -293.642E-03     586.396E-03    -293.751E-03     12.1543E-03
            2001     670.766E-06     41.5139E-03    -131.474E+06    -238.334E+06    -130.194E+06     464.205E+03    -293.802E-03     587.378E-03    -293.576E-03     6.78555E-03    -293.927E-03     586.568E-03    -293.691E-03     6.49796E-03
            2002     12.7906E-03     41.2589E-03    -5.08611E+06     89.5747E+06     93.2758E+06     566.071E+03    -286.480E-03     576.997E-03    -290.517E-03     56.2644E-03    -287.566E-03     578.112E-03    -290.173E-03     41.9439E-03
            2003     12.1184E-03     41.1596E-03    -10.5532E+06     86.1871E+06     94.5628E+06     76.9468E+03    -287.342E-03     578.059E-03    -290.718E-03     70.9273E-03    -288.673E-03     579.384E-03    -290.355E-03     55.2119E-03
            2004     11.4423E-03     41.0630E-03    -16.7075E+06     80.1704E+06     92.3645E+06    -339.100E+03    -287.509E-03     578.425E-03    -290.916E-03     73.3377E-03    -288.746E-03     579.620E-03    -290.546E-03     59.2999E-03
            2005     10.7666E-03     40.9488E-03    -22.9060E+06     73.6120E+06     85.6900E+06     187.235E+03    -287.347E-03     578.482E-03    -291.135E-03     76.3791E-03    -288.560E-03     579.627E-03    -290.780E-03     63.2459E-03
            2006     10.0909E-03     40.8368E-03    -29.5210E+06     65.4725E+06     74.1864E+06     369.160E+03    -287.716E-03     579.088E-03    -291.372E-03     76.5861E-03    -288.839E-03     580.124E-03    -291.053E-03     64.7636E-03
            2007     9.41541E-03     40.7192E-03    -36.7006E+06     56.6664E+06     61.1520E+06     157.750E+03    -288.270E-03     579.889E-03    -291.619E-03     75.2521E-03    -289.288E-03     580.801E-03    -291.342E-03     64.8208E-03
            2008     8.74022E-03     40.6076E-03    -44.1789E+06     49.4554E+06     51.4362E+06     665.145E+03    -288.808E-03     580.696E-03    -291.887E-03     72.3999E-03    -289.726E-03     581.483E-03    -291.638E-03     63.3826E-03
            2009     8.06547E-03     40.4972E-03    -51.9445E+06     36.3440E+06     42.3521E+06     1.18149E+06    -289.348E-03     581.518E-03    -292.171E-03     68.5679E-03    -290.164E-03     582.157E-03    -291.936E-03     60.9325E-03
            2010     7.39143E-03     40.3942E-03    -60.2076E+06     8.90136E+06     30.2264E+06     855.415E+03    -289.852E-03     582.314E-03    -292.462E-03     64.1008E-03    -290.558E-03     582.750E-03    -292.237E-03     57.7228E-03
            2011     6.71716E-03     40.2957E-03    -68.4719E+06    -29.4127E+06     15.3211E+06     604.928E+03    -290.428E-03     583.181E-03    -292.753E-03     59.2839E-03    -291.019E-03     583.380E-03    -292.535E-03     54.0225E-03
            2012     6.04389E-03     40.2064E-03    -76.3715E+06    -63.3266E+06    -355.733E+03     748.645E+03    -291.031E-03     584.053E-03    -293.022E-03     53.9724E-03    -291.523E-03     584.050E-03    -292.821E-03     49.7172E-03
            2013     5.37076E-03     40.1236E-03    -84.9615E+06    -91.3318E+06    -16.8882E+06     706.436E+03    -291.558E-03     584.823E-03    -293.265E-03     48.4619E-03    -291.973E-03     584.661E-03    -293.093E-03     45.0865E-03
            2014     4.69840E-03     40.0502E-03    -93.8209E+06    -118.821E+06    -34.3388E+06     428.028E+03    -292.076E-03     585.561E-03    -293.485E-03     42.7531E-03    -292.428E-03     585.257E-03    -293.348E-03     40.1188E-03
            2015     4.02603E-03     39.9855E-03    -102.895E+06    -144.375E+06    -52.8552E+06     486.838E+03    -292.537E-03     586.214E-03    -293.677E-03     36.8185E-03    -292.837E-03     585.789E-03    -293.582E-03     34.8022E-03
            2016     3.35438E-03     39.9315E-03    -110.766E+06    -168.023E+06    -71.8952E+06     526.640E+03    -292.992E-03     586.829E-03    -293.836E-03     30.8336E-03    -293.244E-03     586.300E-03    -293.792E-03     29.3471E-03
            2017     2.68328E-03     39.8849E-03    -117.553E+06    -188.982E+06    -90.1958E+06     199.106E+03    -293.361E-03     587.328E-03    -293.967E-03     24.6530E-03    -293.572E-03     586.712E-03    -293.974E-03     23.5848E-03
            2018     2.01183E-03     39.8506E-03    -123.858E+06    -208.345E+06    -107.136E+06     385.212E+03    -293.609E-03     587.700E-03    -294.091E-03     18.5465E-03    -293.786E-03     587.009E-03    -294.145E-03     17.8090E-03
            2019     1.34060E-03     39.8239E-03    -128.535E+06    -223.556E+06    -121.306E+06     299.458E+03    -293.915E-03     588.132E-03    -294.217E-03     12.5618E-03    -294.065E-03     587.383E-03    -294.313E-03     12.0988E-03
            2020     670.316E-06     39.8087E-03    -131.532E+06    -237.680E+06    -129.235E+06    -329.325E+03    -294.341E-03     588.572E-03    -294.231E-03     6.58218E-03    -294.469E-03     587.764E-03    -294.341E-03     6.28193E-03
            2021     12.7953E-03     39.5704E-03    -4.88123E+06     90.0494E+06     93.8719E+06     208.048E+03    -286.426E-03     576.951E-03    -290.525E-03     55.6618E-03    -287.500E-03     578.056E-03    -290.179E-03     41.4354E-03
            2022     12.1158E-03     39.4709E-03    -9.83849E+06     87.1018E+06     95.3815E+06     223.329E+03    -286.412E-03     577.166E-03    -290.754E-03     70.5950E-03    -287.737E-03     578.488E-03    -290.389E-03     54.9381E-03
            2023     11.4414E-03     39.3700E-03    -15.9639E+06     80.1606E+06     92.3532E+06    -118.862E+03    -286.895E-03     577.891E-03    -290.996E-03     73.4648E-03    -288.139E-03     579.095E-03    -290.627E-03     59.3309E-03
            2024     10.7659E-03     39.2617E-03    -23.1409E+06     72.6098E+06     84.8812E+06    -462.378E+03    -287.190E-03     578.434E-03    -291.244E-03     77.2940E-03    -288.420E-03     579.594E-03    -290.891E-03     64.0139E-03
            2025     10.0897E-03     39.1448E-03    -30.0280E+06     65.0581E+06     73.4927E+06     130.058E+03    -287.493E-03     578.997E-03    -291.503E-03     77.8240E-03    -288.635E-03     580.050E-03    -291.187E-03     65.9074E-03
            2026     9.41407E-03     39.0291E-03    -36.9571E+06     56.5248E+06     60.6606E+06     647.077E+03    -288.009E-03     579.790E-03    -291.781E-03     76.1627E-03    -289.040E-03     580.714E-03    -291.506E-03     65.6749E-03
            2027     8.73853E-03     38.9137E-03    -44.1274E+06     48.7954E+06     51.0666E+06     706.311E+03    -288.546E-03     580.633E-03    -292.087E-03     73.2581E-03    -289.473E-03     581.428E-03    -291.838E-03     64.1810E-03
            2028     8.06377E-03     38.8030E-03    -51.6003E+06     36.4028E+06     42.4238E+06     626.936E+03    -289.119E-03     581.531E-03    -292.412E-03     69.5754E-03    -289.948E-03     582.182E-03    -292.178E-03     61.8212E-03
            2029     7.38905E-03     38.6976E-03    -59.1305E+06     9.45603E+06     30.5883E+06     873.307E+03    -289.754E-03     582.498E-03    -292.744E-03     65.3312E-03    -290.470E-03     582.949E-03    -292.519E-03     58.8120E-03
            2030     6.71527E-03     38.5990E-03    -67.5085E+06    -29.4348E+06     15.1857E+06     1.15848E+06    -290.459E-03     583.529E-03    -293.070E-03     60.5200E-03    -291.057E-03     583.738E-03    -292.853E-03     55.1227E-03
            2031     6.04163E-03     38.5065E-03    -76.8582E+06    -63.2084E+06    -790.551E+03     1.14520E+06    -291.097E-03     584.472E-03    -293.375E-03     55.1815E-03    -291.601E-03     584.481E-03    -293.176E-03     50.7838E-03
            2032     5.36890E-03     38.4236E-03    -85.6620E+06    -90.4432E+06    -16.9741E+06     1.12923E+06    -291.675E-03     585.331E-03    -293.656E-03     49.6923E-03    -292.104E-03     585.184E-03    -293.485E-03     46.1686E-03
            2033     4.69615E-03     38.3480E-03    -94.4372E+06    -118.009E+06    -34.5163E+06     1.18093E+06    -292.243E-03     586.159E-03    -293.916E-03     43.8915E-03    -292.606E-03     585.867E-03    -293.780E-03     41.1193E-03
            2034     4.02429E-03     38.2828E-03    -102.389E+06    -143.647E+06    -52.8343E+06     847.967E+03    -292.913E-03     587.050E-03    -294.137E-03     37.7479E-03    -293.217E-03     586.634E-03    -294.045E-03     35.6040E-03
            2035     3.35284E-03     38.2261E-03    -110.319E+06    -166.870E+06    -71.8596E+06     464.318E+03    -293.454E-03     587.763E-03    -294.309E-03     31.5904E-03    -293.709E-03     587.242E-03    -294.266E-03     29.9776E-03
            2036     2.68158E-03     38.1800E-03    -118.175E+06    -188.368E+06    -90.8962E+06     398.156E+03    -293.828E-03     588.272E-03    -294.444E-03     25.3243E-03    -294.044E-03     587.663E-03    -294.454E-03     24.1532E-03
            2037     2.01107E-03     38.1439E-03    -124.358E+06    -207.901E+06    -107.812E+06     113.143E+03    -294.212E-03     588.759E-03    -294.547E-03     19.0226E-03    -294.392E-03     588.073E-03    -294.605E-03     18.2129E-03
            2038     1.34094E-03     38.1173E-03    -128.671E+06    -222.664E+06    -121.171E+06     191.614E+03    -294.417E-03     589.048E-03    -294.631E-03     12.8715E-03    -294.569E-03     588.304E-03    -294.727E-03     12.3714E-03
            2039     670.272E-06     38.1006E-03    -131.008E+06    -237.240E+06    -130.429E+06     479.251E+03    -294.593E-03     589.357E-03    -294.764E-03     7.07915E-03    -294.717E-03     588.552E-03    -294.883E-03     6.80962E-03
            2040     12.7915E-03     37.8794E-03    -5.27507E+06     90.6256E+06     93.7841E+06    -465.360E+03    -286.296E-03     576.831E-03    -290.534E-03     55.9316E-03    -287.381E-03     577.946E-03    -290.189E-03     41.6035E-03
            2041     12.1188E-03     37.7858E-03    -10.5041E+06     87.2321E+06     95.2607E+06    -76.8716E+03    -285.703E-03     576.492E-03    -290.789E-03     71.3804E-03    -287.040E-03     577.825E-03    -290.424E-03     55.7203E-03
            2042     11.4399E-03     37.6811E-03    -16.3844E+06     80.4473E+06     92.3941E+06     547.970E+03    -285.896E-03     576.982E-03    -291.086E-03     74.3640E-03    -287.149E-03     578.194E-03    -290.717E-03     60.3051E-03
            2043     10.7635E-03     37.5714E-03    -23.0413E+06     72.6818E+06     84.5513E+06     395.977E+03    -286.793E-03     578.176E-03    -291.383E-03     77.9070E-03    -288.029E-03     579.344E-03    -291.032E-03     64.6416E-03
            2044     10.0879E-03     37.4548E-03    -30.3262E+06     64.0597E+06     72.4357E+06     91.1368E+03    -287.448E-03     579.116E-03    -291.668E-03     78.8256E-03    -288.604E-03     580.182E-03    -291.354E-03     66.8107E-03
            2045     9.41213E-03     37.3371E-03    -37.2333E+06     56.4310E+06     60.0603E+06     318.062E+03    -287.889E-03     579.857E-03    -291.968E-03     77.3553E-03    -288.936E-03     580.798E-03    -291.695E-03     66.7573E-03
            2046     8.73693E-03     37.2209E-03    -44.2714E+06     48.8921E+06     50.9781E+06     460.604E+03    -288.329E-03     580.636E-03    -292.308E-03     74.7121E-03    -289.275E-03     581.452E-03    -292.060E-03     65.4795E-03
            2047     8.06150E-03     37.1087E-03    -52.2520E+06     35.9020E+06     41.6929E+06     795.638E+03    -288.881E-03     581.555E-03    -292.674E-03     71.0139E-03    -289.728E-03     582.223E-03    -292.442E-03     63.1106E-03
            2048     7.38685E-03     37.0016E-03    -61.0657E+06     8.66197E+06     29.0010E+06     1.34332E+06    -289.663E-03     582.711E-03    -293.048E-03     66.6778E-03    -290.400E-03     583.178E-03    -292.827E-03     60.0172E-03
            2049     6.71274E-03     36.9003E-03    -69.5715E+06    -28.8843E+06     14.3045E+06     1.51059E+06    -290.419E-03     583.837E-03    -293.418E-03     61.8367E-03    -291.041E-03     584.068E-03    -293.203E-03     56.2732E-03
            2050     6.03941E-03     36.8074E-03    -77.6246E+06    -61.9691E+06    -944.868E+03     1.25949E+06    -291.112E-03     584.881E-03    -293.769E-03     56.6395E-03    -291.634E-03     584.910E-03    -293.571E-03     52.0647E-03
            2051     5.36621E-03     36.7215E-03    -86.1597E+06    -90.0118E+06    -17.4320E+06     1.04987E+06    -291.846E-03     585.938E-03    -294.092E-03     51.0036E-03    -292.288E-03     585.805E-03    -293.923E-03     47.3132E-03
            2052     4.69409E-03     36.6455E-03    -94.4013E+06    -117.025E+06    -34.8769E+06     735.183E+03    -292.557E-03     586.940E-03    -294.384E-03     45.1171E-03    -292.928E-03     586.663E-03    -294.252E-03     42.1769E-03
            2053     4.02222E-03     36.5773E-03    -103.010E+06    -142.602E+06    -53.2638E+06     530.632E+03    -293.206E-03     587.846E-03    -294.640E-03     39.0735E-03    -293.520E-03     587.443E-03    -294.550E-03     36.7829E-03
            2054     3.35116E-03     36.5202E-03    -111.023E+06    -166.484E+06    -72.2576E+06     547.527E+03    -293.836E-03     588.688E-03    -294.851E-03     32.7966E-03    -294.100E-03     588.176E-03    -294.810E-03     31.0497E-03
            2055     2.68045E-03     36.4730E-03    -117.618E+06    -187.628E+06    -90.7555E+06     375.448E+03    -294.440E-03     589.441E-03    -295.001E-03     26.3901E-03    -294.657E-03     588.838E-03    -295.013E-03     25.1057E-03
            2056     2.00995E-03     36.4352E-03    -123.605E+06    -206.584E+06    -107.579E+06     159.565E+03    -294.865E-03     589.948E-03    -295.083E-03     19.7867E-03    -295.045E-03     589.268E-03    -295.142E-03     18.8947E-03
            2057     1.33963E-03     36.4091E-03    -128.621E+06    -223.835E+06    -120.738E+06     161.022E+03    -295.055E-03     590.173E-03    -295.118E-03     13.3212E-03    -295.207E-03     589.424E-03    -295.210E-03     12.7583E-03
            2058     669.689E-06     36.3921E-03    -131.420E+06    -235.087E+06    -128.676E+06     949.984E+03    -294.929E-03     590.249E-03    -295.320E-03     7.28877E-03    -295.061E-03     589.453E-03    -295.432E-03     7.01581E-03
            2059     12.7940E-03     36.1919E-03    -5.09188E+06     90.5939E+06     93.0952E+06    -97.4904E+03    -285.173E-03     575.765E-03    -290.591E-03     56.6388E-03    -286.264E-03     576.889E-03    -290.250E-03     42.3489E-03
            2060     12.1144E-03     36.0971E-03    -11.2035E+06     86.4381E+06     93.6777E+06    -455.468E+03    -285.635E-03     576.517E-03    -290.881E-03     72.3493E-03    -286.985E-03     577.861E-03    -290.522E-03     56.6648E-03
            2061     11.4395E-03     35.9958E-03    -17.0891E+06     79.9033E+06     91.5073E+06    -139.559E+03    -285.862E-03     577.055E-03    -291.193E-03     75.2087E-03    -287.130E-03     578.280E-03    -290.826E-03     61.0804E-03
            2062     10.7624E-03     35.8814E-03    -23.3004E+06     72.6619E+06     84.6591E+06     736.873E+03    -286.282E-03     577.802E-03    -291.519E-03     78.5545E-03    -287.532E-03     578.981E-03    -291.168E-03     65.2442E-03
            2063     10.0861E-03     35.7644E-03    -30.1893E+06     65.0536E+06     73.3838E+06     898.246E+03    -287.026E-03     578.873E-03    -291.848E-03     79.3962E-03    -288.196E-03     579.955E-03    -291.531E-03     67.3186E-03
            2064     9.41022E-03     35.6454E-03    -37.7228E+06     56.7251E+06     60.3555E+06     458.007E+03    -287.530E-03     579.719E-03    -292.189E-03     78.4620E-03    -288.601E-03     580.682E-03    -291.915E-03     67.7203E-03
            2065     8.73426E-03     35.5282E-03    -45.4060E+06     47.9367E+06     49.8895E+06     824.702E+03    -288.073E-03     580.642E-03    -292.570E-03     76.1569E-03    -289.044E-03     581.478E-03    -292.324E-03     66.7588E-03
            2066     8.05911E-03     35.4142E-03    -53.2999E+06     35.1747E+06     40.8996E+06     1.58140E+06    -288.810E-03     581.788E-03    -292.978E-03     72.6907E-03    -289.681E-03     582.476E-03    -292.747E-03     64.6171E-03
            2067     7.38447E-03     35.3047E-03    -61.3309E+06     9.14607E+06     29.2978E+06     1.49365E+06    -289.555E-03     582.952E-03    -293.397E-03     68.4396E-03    -290.315E-03     583.441E-03    -293.175E-03     61.5803E-03
            2068     6.71031E-03     35.2022E-03    -69.3966E+06    -27.8144E+06     14.5993E+06     974.435E+03    -290.347E-03     584.163E-03    -293.816E-03     63.6233E-03    -290.988E-03     584.416E-03    -293.602E-03     57.8564E-03
            2069     6.03653E-03     35.1067E-03    -77.6973E+06    -61.1903E+06    -1.09108E+06     723.886E+03    -291.231E-03     585.445E-03    -294.214E-03     58.3510E-03    -291.769E-03     585.493E-03    -294.018E-03     53.5751E-03
            2070     5.36391E-03     35.0193E-03    -85.9314E+06    -89.1728E+06    -17.3655E+06     550.140E+03    -292.082E-03     586.661E-03    -294.579E-03     52.6359E-03    -292.536E-03     586.544E-03    -294.412E-03     48.7509E-03
            2071     4.69159E-03     34.9406E-03    -94.4805E+06    -116.414E+06    -34.8254E+06     443.494E+03    -292.849E-03     587.760E-03    -294.911E-03     46.6621E-03    -293.232E-03     587.496E-03    -294.779E-03     43.5366E-03
            2072     4.02005E-03     34.8717E-03    -102.802E+06    -142.057E+06    -53.1859E+06     434.488E+03    -293.538E-03     588.748E-03    -295.210E-03     40.4265E-03    -293.860E-03     588.355E-03    -295.121E-03     37.9650E-03
            2073     3.34861E-03     34.8124E-03    -110.671E+06    -165.793E+06    -72.0977E+06     178.278E+03    -294.287E-03     589.751E-03    -295.463E-03     33.9148E-03    -294.555E-03     589.246E-03    -295.423E-03     32.0418E-03
            2074     2.67829E-03     34.7630E-03    -118.022E+06    -187.262E+06    -90.6135E+06     63.7753E+03    -294.939E-03     590.594E-03    -295.655E-03     27.3229E-03    -295.163E-03     589.997E-03    -295.665E-03     25.9267E-03
            2075     2.00866E-03     34.7254E-03    -124.114E+06    -206.294E+06    -107.664E+06     199.313E+03    -295.418E-03     591.201E-03    -295.783E-03     20.7197E-03    -295.603E-03     590.526E-03    -295.842E-03     19.7332E-03
            2076     1.33923E-03     34.6979E-03    -128.325E+06    -223.272E+06    -120.586E+06     114.641E+03    -295.836E-03     591.664E-03    -295.827E-03     14.0346E-03    -295.988E-03     590.917E-03    -295.921E-03     13.4016E-03
            2077     670.000E-06     34.6813E-03    -132.449E+06    -234.665E+06    -129.226E+06    -559.849E+03    -295.570E-03     591.632E-03    -296.062E-03     7.57138E-03    -295.707E-03     590.841E-03    -296.176E-03     7.24865E-03
            2078     12.7891E-03     34.5074E-03    -4.67847E+06     91.1057E+06     93.6826E+06     558.661E+03    -284.428E-03     575.072E-03    -290.643E-03     55.8947E-03    -285.512E-03     576.190E-03    -290.300E-03     41.6693E-03
            2079     12.1148E-03     34.4084E-03    -10.3050E+06     87.4389E+06     94.2738E+06     448.696E+03    -285.067E-03     576.037E-03    -290.969E-03     71.5768E-03    -286.412E-03     577.382E-03    -290.610E-03     55.8954E-03
            2080     11.4374E-03     34.3066E-03    -17.4200E+06     79.0786E+06     90.4221E+06    -385.558E+03    -285.629E-03     576.933E-03    -291.304E-03     75.2380E-03    -286.907E-03     578.168E-03    -290.942E-03     60.9857E-03
            2081     10.7613E-03     34.1944E-03    -24.1358E+06     71.3602E+06     83.4811E+06    -198.030E+03    -285.862E-03     577.523E-03    -291.661E-03     79.9105E-03    -287.137E-03     578.723E-03    -291.312E-03     66.4473E-03
            2082     10.0843E-03     34.0738E-03    -30.4338E+06     64.9298E+06     72.7126E+06     665.871E+03    -286.326E-03     578.367E-03    -292.041E-03     81.0072E-03    -287.521E-03     579.474E-03    -291.728E-03     68.8064E-03
            2083     9.40780E-03     33.9548E-03    -36.9180E+06     57.6271E+06     60.5258E+06     976.016E+03    -287.091E-03     579.535E-03    -292.444E-03     80.0471E-03    -288.183E-03     580.525E-03    -292.171E-03     69.1696E-03
            2084     8.73181E-03     33.8352E-03    -43.6856E+06     46.3209E+06     50.8481E+06     1.19880E+06    -287.891E-03     580.771E-03    -292.880E-03     77.8449E-03    -288.877E-03     581.618E-03    -292.630E-03     68.2851E-03
            2085     8.05630E-03     33.7191E-03    -50.7529E+06     34.4502E+06     42.5474E+06     1.65751E+06    -288.627E-03     581.964E-03    -293.337E-03     74.5265E-03    -289.511E-03     582.667E-03    -293.101E-03     66.2465E-03
            2086     7.38129E-03     33.6078E-03    -58.5630E+06     10.7058E+06     31.2845E+06     1.75893E+06    -289.410E-03     583.220E-03    -293.810E-03     70.3745E-03    -290.184E-03     583.734E-03    -293.584E-03     63.2926E-03
            2087     6.70689E-03     33.5032E-03    -67.2779E+06    -26.6561E+06     15.8915E+06     1.61542E+06    -290.385E-03     584.668E-03    -294.283E-03     65.6742E-03    -291.039E-03     584.942E-03    -294.067E-03     59.6888E-03
            2088     6.03362E-03     33.4048E-03    -76.3303E+06    -59.7646E+06    -174.880E+03     1.03950E+06    -291.380E-03     586.110E-03    -294.731E-03     60.3654E-03    -291.932E-03     586.180E-03    -294.534E-03     55.3737E-03
            2089     5.36070E-03     33.3157E-03    -85.1998E+06    -88.4490E+06    -16.6157E+06     540.829E+03    -292.304E-03     587.451E-03    -295.148E-03     54.6694E-03    -292.772E-03     587.352E-03    -294.979E-03     50.5573E-03
            2090     4.68872E-03     33.2346E-03    -93.8845E+06    -115.938E+06    -34.2585E+06     467.380E+03    -293.236E-03     588.762E-03    -295.526E-03     48.5156E-03    -293.630E-03     588.511E-03    -295.393E-03     45.1769E-03
            2091     4.01729E-03     33.1641E-03    -102.335E+06    -141.491E+06    -52.6719E+06     347.819E+03    -294.143E-03     589.995E-03    -295.852E-03     41.9800E-03    -294.473E-03     589.612E-03    -295.762E-03     39.3343E-03
            2092     3.34706E-03     33.1023E-03    -110.261E+06    -165.052E+06    -71.4976E+06     402.383E+03    -294.849E-03     590.974E-03    -296.125E-03     35.2161E-03    -295.124E-03     590.479E-03    -296.083E-03     33.1829E-03
            2093     2.67684E-03     33.0523E-03    -117.724E+06    -186.930E+06    -90.3050E+06     272.755E+03    -295.398E-03     591.760E-03    -296.362E-03     28.2428E-03    -295.625E-03     591.168E-03    -296.372E-03     26.7244E-03
            2094     2.00663E-03     33.0127E-03    -123.895E+06    -205.819E+06    -107.179E+06    -54.1942E+03    -295.974E-03     592.537E-03    -296.563E-03     21.4016E-03    -296.162E-03     591.866E-03    -296.621E-03     20.3185E-03
            2095     1.33735E-03     32.9841E-03    -128.937E+06    -223.132E+06    -120.765E+06    -135.330E+03    -296.428E-03     593.148E-03    -296.720E-03     14.4744E-03    -296.585E-03     592.405E-03    -296.813E-03     13.7642E-03
            2096     668.372E-06     32.9675E-03    -131.636E+06    -234.129E+06    -130.119E+06     531.808E+03    -296.428E-03     593.567E-03    -297.139E-03     7.69158E-03    -296.561E-03     592.779E-03    -297.260E-03     7.33844E-03
            2097     12.7939E-03     32.8220E-03    -5.45492E+06     90.4041E+06     92.6881E+06    -8.08321E+03    -284.000E-03     574.661E-03    -290.661E-03     56.2723E-03    -285.091E-03     575.785E-03    -290.321E-03     42.0394E-03
            2098     12.1139E-03     32.7229E-03    -10.3344E+06     87.5681E+06     94.6901E+06     847.770E+03    -284.158E-03     575.191E-03    -291.033E-03     72.8215E-03    -285.517E-03     576.550E-03    -290.672E-03     57.1721E-03
            2099     11.4366E-03     32.6200E-03    -16.2346E+06     80.3130E+06     91.6399E+06     1.32801E+06    -284.698E-03     576.127E-03    -291.430E-03     76.1476E-03    -285.987E-03     577.378E-03    -291.064E-03     61.9228E-03
            2100     10.7589E-03     32.5056E-03    -23.4999E+06     72.0261E+06     83.3617E+06     601.976E+03    -285.270E-03     577.109E-03    -291.839E-03     80.8435E-03    -286.562E-03     578.332E-03    -291.493E-03     67.3070E-03
            2101     10.0818E-03     32.3864E-03    -30.5254E+06     64.2776E+06     71.7796E+06    -208.080E+03    -285.834E-03     578.104E-03    -292.270E-03     82.3920E-03    -287.052E-03     579.233E-03    -291.960E-03     70.0427E-03
            2102     9.40467E-03     32.2628E-03    -37.2355E+06     56.8120E+06     59.6544E+06     83.3570E+03    -286.635E-03     579.364E-03    -292.729E-03     81.5961E-03    -287.753E-03     580.378E-03    -292.459E-03     70.5342E-03
            2103     8.72868E-03     32.1424E-03    -44.1466E+06     45.9814E+06     50.1153E+06     354.803E+03    -287.522E-03     580.747E-03    -293.225E-03     79.6610E-03    -288.537E-03     581.624E-03    -292.977E-03     69.8625E-03
            2104     8.05300E-03     32.0236E-03    -51.7429E+06     33.0727E+06     41.5984E+06     703.994E+03    -288.371E-03     582.116E-03    -293.745E-03     76.5751E-03    -289.286E-03     582.845E-03    -293.510E-03     68.0356E-03
            2105     7.37785E-03     31.9109E-03    -59.8992E+06     10.0345E+06     30.7289E+06     1.71844E+06    -289.372E-03     583.649E-03    -294.278E-03     72.3992E-03    -290.176E-03     584.188E-03    -294.052E-03     65.0823E-03
            2106     6.70359E-03     31.8026E-03    -67.9537E+06    -24.9589E+06     16.5247E+06     1.74870E+06    -290.436E-03     585.242E-03    -294.806E-03     67.6435E-03    -291.120E-03     585.548E-03    -294.589E-03     61.4134E-03
            2107     6.02987E-03     31.7026E-03    -76.1405E+06    -57.8269E+06     719.447E+03     1.21147E+06    -291.494E-03     586.804E-03    -295.311E-03     62.3313E-03    -292.070E-03     586.903E-03    -295.113E-03     57.0925E-03
            2108     5.35722E-03     31.6102E-03    -84.6158E+06    -87.5351E+06    -16.0488E+06     822.677E+03    -292.620E-03     588.400E-03    -295.781E-03     56.4662E-03    -293.103E-03     588.320E-03    -295.611E-03     52.1241E-03
            2109     4.68530E-03     31.5272E-03    -93.1758E+06    -115.406E+06    -33.7146E+06     524.856E+03    -293.713E-03     589.914E-03    -296.201E-03     50.1475E-03    -294.118E-03     589.677E-03    -296.067E-03     46.5984E-03
            2110     4.01455E-03     31.4532E-03    -101.537E+06    -141.192E+06    -52.2752E+06     463.286E+03    -294.661E-03     591.226E-03    -296.565E-03     43.5771E-03    -294.998E-03     590.853E-03    -296.474E-03     40.7250E-03
            2111     3.34406E-03     31.3906E-03    -109.500E+06    -164.660E+06    -71.2181E+06     311.543E+03    -295.426E-03     592.305E-03    -296.879E-03     36.7553E-03    -295.706E-03     591.818E-03    -296.838E-03     34.5009E-03
            2112     2.67432E-03     31.3387E-03    -116.566E+06    -186.136E+06    -89.6956E+06     251.539E+03    -296.189E-03     593.329E-03    -297.140E-03     29.6479E-03    -296.418E-03     592.744E-03    -297.150E-03     27.9487E-03
            2113     2.00570E-03     31.2978E-03    -122.757E+06    -204.973E+06    -106.673E+06     162.785E+03    -296.773E-03     594.115E-03    -297.343E-03     22.1844E-03    -296.960E-03     593.448E-03    -297.401E-03     20.9793E-03
            2114     1.33685E-03     31.2682E-03    -127.342E+06    -223.475E+06    -119.539E+06      75.748E+03    -297.110E-03     594.650E-03    -297.540E-03     14.7329E-03    -297.260E-03     593.902E-03    -297.629E-03     13.9593E-03
            2115     668.203E-06     31.2507E-03    -129.833E+06    -233.723E+06    -127.289E+06     18.2096E+03    -297.402E-03     595.287E-03    -297.885E-03     7.83734E-03    -297.531E-03     594.495E-03    -297.995E-03     7.43747E-03
            2116     12.7884E-03     31.1377E-03    -4.91418E+06     89.9245E+06     92.4698E+06     358.284E+03    -283.355E-03     574.043E-03    -290.688E-03     56.1860E-03    -284.442E-03     575.163E-03    -290.349E-03     42.0009E-03
            2117     12.1127E-03     31.0385E-03    -11.1788E+06     85.7026E+06     92.7410E+06    -61.1715E+03    -283.268E-03     574.368E-03    -291.100E-03     72.9638E-03    -284.637E-03     575.733E-03    -290.744E-03     57.2394E-03
            2118     11.4345E-03     30.9338E-03    -16.5774E+06     79.8511E+06     90.9252E+06     388.094E+03    -283.625E-03     575.189E-03    -291.563E-03     77.0881E-03    -284.935E-03     576.459E-03    -291.200E-03     62.7668E-03
            2119     10.7569E-03     30.8193E-03    -22.0190E+06     73.5289E+06     84.5423E+06     1.21882E+06    -284.564E-03     576.608E-03    -292.044E-03     82.1116E-03    -285.877E-03     577.858E-03    -291.696E-03     68.4758E-03
            2120     10.0793E-03     30.6969E-03    -29.2693E+06     65.6551E+06     73.2339E+06     1.23175E+06    -285.478E-03     578.007E-03    -292.529E-03     83.7139E-03    -286.721E-03     579.167E-03    -292.216E-03     71.2219E-03
            2121     9.40248E-03     30.5734E-03    -37.1260E+06     57.0507E+06     60.4890E+06     507.034E+03    -286.134E-03     579.176E-03    -293.042E-03     83.2948E-03    -287.285E-03     580.222E-03    -292.769E-03     72.0323E-03
            2122     8.72529E-03     30.4491E-03    -44.9015E+06     45.6606E+06     49.5154E+06     398.822E+03    -287.034E-03     580.635E-03    -293.601E-03     81.5231E-03    -288.083E-03     581.543E-03    -293.355E-03     71.5110E-03
            2123     8.04915E-03     30.3289E-03    -52.7480E+06     32.2614E+06     40.5260E+06     783.375E+03    -288.164E-03     582.352E-03    -294.188E-03     78.3732E-03    -289.109E-03     583.107E-03    -293.955E-03     69.6186E-03
            2124     7.37398E-03     30.2120E-03    -60.3870E+06     9.61909E+06     30.5189E+06     382.091E+03    -289.339E-03     584.120E-03    -294.782E-03     74.4369E-03    -290.172E-03     584.685E-03    -294.555E-03     66.8465E-03
            2125     6.69969E-03     30.1020E-03    -67.9409E+06    -24.5990E+06     16.5796E+06     264.106E+03    -290.604E-03     585.965E-03    -295.361E-03     69.6238E-03    -291.313E-03     586.297E-03    -295.144E-03     63.1170E-03
            2126     6.02624E-03     29.9988E-03    -75.9016E+06    -57.3560E+06     749.855E+03     512.394E+03    -291.863E-03     587.768E-03    -295.905E-03     64.0199E-03    -292.459E-03     587.888E-03    -295.708E-03     58.5301E-03
            2127     5.35370E-03     29.9032E-03    -84.1066E+06    -86.9139E+06    -15.7474E+06     602.630E+03    -293.034E-03     589.443E-03    -296.409E-03     57.8788E-03    -293.533E-03     589.380E-03    -296.239E-03     53.3009E-03
            2128     4.68232E-03     29.8174E-03    -92.4819E+06    -114.962E+06    -33.2397E+06     631.012E+03    -294.092E-03     590.962E-03    -296.870E-03     51.4883E-03    -294.508E-03     590.738E-03    -296.736E-03     47.7149E-03
            2129     4.01138E-03     29.7412E-03    -100.946E+06    -140.506E+06    -51.7054E+06     477.919E+03    -295.051E-03     592.340E-03    -297.289E-03     44.7456E-03    -295.398E-03     591.979E-03    -297.197E-03     41.6771E-03
            2130     3.34144E-03     29.6766E-03    -108.983E+06    -164.069E+06    -70.7140E+06     326.515E+03    -296.007E-03     593.662E-03    -297.655E-03     37.6904E-03    -296.293E-03     593.184E-03    -297.613E-03     35.2646E-03
            2131     2.67230E-03     29.6221E-03    -116.314E+06    -185.744E+06    -89.3576E+06     283.213E+03    -296.863E-03     594.821E-03    -297.958E-03     30.6075E-03    -297.097E-03     594.242E-03    -297.967E-03     28.7485E-03
            2132     2.00349E-03     29.5794E-03    -122.171E+06    -204.213E+06    -106.558E+06     123.066E+03    -297.547E-03     595.741E-03    -298.194E-03     23.2322E-03    -297.737E-03     595.081E-03    -298.254E-03     21.8736E-03
            2133     1.33540E-03     29.5502E-03    -126.506E+06    -222.659E+06    -119.299E+06    -278.010E+03    -298.101E-03     596.472E-03    -298.371E-03     15.7090E-03    -298.251E-03     595.728E-03    -298.461E-03     14.8514E-03
            2134     667.663E-06     29.5302E-03    -129.838E+06    -234.983E+06    -127.570E+06    -587.398E+03    -298.632E-03     596.886E-03    -298.254E-03     8.55421E-03    -298.759E-03     596.088E-03    -298.363E-03     8.11399E-03
            2135     12.7932E-03     29.4534E-03    -4.78804E+06     89.9889E+06     92.4923E+06     115.161E+03    -282.573E-03     573.304E-03    -290.731E-03     56.5512E-03    -283.671E-03     574.437E-03    -290.392E-03     42.3111E-03
            2136     12.1128E-03     29.3562E-03    -9.54741E+06     86.4642E+06     93.8806E+06     349.019E+03    -282.341E-03     573.537E-03    -291.197E-03     74.0726E-03    -283.728E-03     574.926E-03    -290.839E-03     58.2546E-03
            2137     11.4333E-03     29.2509E-03    -16.1563E+06     79.2419E+06     90.5148E+06     200.217E+03    -282.825E-03     574.541E-03    -291.716E-03     78.7710E-03    -284.158E-03     575.835E-03    -291.355E-03     64.3655E-03
            2138     10.7541E-03     29.1329E-03    -23.3944E+06     72.0161E+06     83.3457E+06     243.048E+03    -283.825E-03     576.084E-03    -292.259E-03     83.6818E-03    -285.170E-03     577.360E-03    -291.913E-03     69.9134E-03
            2139     10.0765E-03     29.0081E-03    -29.3938E+06     65.4705E+06     72.8441E+06     915.979E+03    -284.755E-03     577.568E-03    -292.813E-03     85.4868E-03    -286.032E-03     578.762E-03    -292.501E-03     72.8134E-03
            2140     9.39862E-03     28.8835E-03    -35.2389E+06     58.9033E+06     61.2440E+06     1.18326E+06    -285.812E-03     579.202E-03    -293.390E-03     85.3796E-03    -286.992E-03     580.289E-03    -293.118E-03     73.9223E-03
            2141     8.72182E-03     28.7567E-03    -41.9624E+06     45.1639E+06     51.2152E+06     1.03024E+06    -286.978E-03     580.983E-03    -294.005E-03     83.5048E-03    -288.046E-03     581.914E-03    -293.754E-03     73.2868E-03
            2142     8.04572E-03     28.6328E-03    -48.9346E+06     32.5123E+06     42.9733E+06     875.757E+03    -288.158E-03     582.795E-03    -294.637E-03     80.0887E-03    -289.116E-03     583.570E-03    -294.399E-03     71.1112E-03
            2143     7.37027E-03     28.5135E-03    -56.9276E+06     11.1580E+06     32.2528E+06     724.420E+03    -289.483E-03     584.751E-03    -295.268E-03     75.8314E-03    -290.328E-03     585.340E-03    -295.040E-03     68.0143E-03
            2144     6.69572E-03     28.3996E-03    -66.1978E+06    -24.8535E+06     16.9198E+06     608.650E+03    -290.922E-03     586.799E-03    -295.877E-03     70.7405E-03    -291.643E-03     587.147E-03    -295.660E-03     64.0114E-03
            2145     6.02282E-03     28.2927E-03    -75.2007E+06    -57.2921E+06     880.776E+03     608.440E+03    -292.272E-03     588.715E-03    -296.443E-03     65.0837E-03    -292.882E-03     588.852E-03    -296.246E-03     59.3682E-03
            2146     5.35080E-03     28.1950E-03    -84.0312E+06    -86.9350E+06    -15.8420E+06     655.832E+03    -293.436E-03     590.403E-03    -296.968E-03     58.9518E-03    -293.949E-03     590.356E-03    -296.799E-03     54.1572E-03
            2147     4.67925E-03     28.1059E-03    -92.8042E+06    -114.430E+06    -33.4349E+06     665.274E+03    -294.467E-03     591.925E-03    -297.458E-03     52.3501E-03    -294.897E-03     591.716E-03    -297.325E-03     48.3781E-03
            2148     4.00883E-03     28.0277E-03    -101.148E+06    -139.858E+06    -51.8288E+06     613.775E+03    -295.507E-03     593.415E-03    -297.909E-03     45.4714E-03    -295.863E-03     593.067E-03    -297.818E-03     42.2446E-03
            2149     3.33915E-03     27.9596E-03    -109.077E+06    -163.276E+06    -70.6724E+06     419.117E+03    -296.554E-03     594.857E-03    -298.302E-03     38.3398E-03    -296.847E-03     594.388E-03    -298.261E-03     35.7884E-03
            2150     2.67022E-03     27.9036E-03    -116.487E+06    -185.286E+06    -89.2768E+06     16.5517E+03    -297.394E-03     596.030E-03    -298.637E-03     30.8595E-03    -297.633E-03     595.457E-03    -298.645E-03     28.8957E-03
            2151     2.00181E-03     27.8596E-03    -122.501E+06    -204.102E+06    -106.052E+06    -39.0419E+03    -298.107E-03     597.028E-03    -298.921E-03     23.2521E-03    -298.300E-03     596.370E-03    -298.978E-03     21.8320E-03
            2152     1.33422E-03     27.8267E-03    -127.053E+06    -222.076E+06    -119.265E+06     296.007E+03    -298.821E-03     597.952E-03    -299.132E-03     15.6863E-03    -298.975E-03     597.213E-03    -299.222E-03     14.7780E-03
            2153     667.112E-06     27.8087E-03    -130.308E+06    -234.975E+06    -128.528E+06     269.565E+03    -299.509E-03     598.421E-03    -298.912E-03     8.73339E-03    -299.638E-03     597.626E-03    -299.025E-03     8.21338E-03
            2154     12.7871E-03     27.7714E-03    -4.71066E+06     89.9080E+06     91.9947E+06    -350.555E+03    -281.117E-03     571.926E-03    -290.809E-03     57.5076E-03    -282.223E-03     573.068E-03    -290.473E-03     43.3549E-03
            2155     12.1093E-03     27.6745E-03    -10.9737E+06     85.2543E+06     92.7968E+06    -370.622E+03    -281.800E-03     573.137E-03    -291.337E-03     75.1222E-03    -283.209E-03     574.541E-03    -290.981E-03     59.2573E-03
            2156     11.4305E-03     27.5676E-03    -16.5283E+06     79.1446E+06     90.8811E+06     678.993E+03    -282.500E-03     574.397E-03    -291.897E-03     79.9463E-03    -283.861E-03     575.716E-03    -291.533E-03     65.4297E-03
            2157     10.7524E-03     27.4471E-03    -22.6221E+06     72.6380E+06     83.7550E+06     516.784E+03    -283.119E-03     575.603E-03    -292.484E-03     84.9893E-03    -284.492E-03     576.911E-03    -292.138E-03     71.0718E-03
            2158     10.0730E-03     27.3224E-03    -29.6724E+06     65.1157E+06     72.3505E+06    -319.887E+03    -284.128E-03     577.228E-03    -293.100E-03     86.7595E-03    -285.435E-03     578.451E-03    -292.789E-03     73.9062E-03
            2159     9.39505E-03     27.1921E-03    -36.9320E+06     57.3794E+06     59.9492E+06     71.8454E+03    -285.626E-03     579.355E-03    -293.729E-03     86.5859E-03    -286.839E-03     580.468E-03    -293.459E-03     74.9234E-03
            2160     8.71827E-03     27.0634E-03    -44.0865E+06     46.2661E+06     49.7296E+06     472.271E+03    -287.147E-03     581.517E-03    -294.370E-03     84.5102E-03    -288.251E-03     582.484E-03    -294.124E-03     74.0793E-03
            2161     8.04208E-03     26.9363E-03    -51.9940E+06     32.9194E+06     41.0869E+06     147.254E+03    -288.552E-03     583.563E-03    -295.012E-03     80.9827E-03    -289.546E-03     584.370E-03    -294.778E-03     71.7850E-03
            2162     7.36715E-03     26.8133E-03    -60.2038E+06     10.2620E+06     30.3893E+06     609.431E+03    -289.981E-03     585.620E-03    -295.639E-03     76.3119E-03    -290.855E-03     586.228E-03    -295.415E-03     68.3222E-03
            2163     6.69362E-03     26.6959E-03    -68.0119E+06    -24.0353E+06     16.0530E+06     932.772E+03    -291.294E-03     587.537E-03    -296.242E-03     71.0020E-03    -292.036E-03     587.905E-03    -296.029E-03     64.1246E-03
            2164     6.02032E-03     26.5862E-03    -76.3162E+06    -56.9675E+06     252.894E+03     709.971E+03    -292.517E-03     589.332E-03    -296.815E-03     65.2050E-03    -293.141E-03     589.483E-03    -296.621E-03     59.3476E-03
            2165     5.34817E-03     26.4846E-03    -84.7042E+06    -86.6178E+06    -16.3445E+06     539.709E+03    -293.755E-03     591.106E-03    -297.350E-03     58.9536E-03    -294.279E-03     591.069E-03    -297.184E-03     54.0289E-03
            2166     4.67737E-03     26.3934E-03    -92.8793E+06    -114.027E+06    -33.7667E+06     380.437E+03    -294.974E-03     592.807E-03    -297.834E-03     52.1955E-03    -295.409E-03     592.606E-03    -297.703E-03     48.1081E-03
            2167     4.00704E-03     26.3120E-03    -100.904E+06    -139.263E+06    -51.9510E+06     280.410E+03    -296.035E-03     594.293E-03    -298.258E-03     45.0232E-03    -296.394E-03     593.950E-03    -298.170E-03     41.7141E-03
            2168     3.33770E-03     26.2414E-03    -108.761E+06    -162.797E+06    -70.7095E+06     214.582E+03    -296.933E-03     595.561E-03    -298.629E-03     37.7202E-03    -297.226E-03     595.096E-03    -298.588E-03     35.1103E-03
            2169     2.66918E-03     26.1830E-03    -115.666E+06    -183.901E+06    -89.1991E+06     11.4813E+03    -297.797E-03     596.738E-03    -298.940E-03     30.2609E-03    -298.035E-03     596.171E-03    -298.952E-03     28.2599E-03
            2170     2.00156E-03     26.1369E-03    -121.579E+06    -204.824E+06    -105.729E+06    -145.619E+03    -298.533E-03     597.721E-03    -299.188E-03     22.8221E-03    -298.722E-03     597.057E-03    -299.243E-03     21.3762E-03
            2171     1.33382E-03     26.1038E-03    -126.380E+06    -222.811E+06    -118.529E+06     357.507E+03    -299.057E-03     598.430E-03    -299.373E-03     15.3187E-03    -299.208E-03     597.685E-03    -299.459E-03     14.3633E-03
            2172     666.795E-06     26.0819E-03    -129.275E+06    -232.636E+06    -126.707E+06     574.988E+03    -299.392E-03     598.894E-03    -299.501E-03     8.19471E-03    -299.522E-03     598.107E-03    -299.610E-03     7.69374E-03
            2173     12.7898E-03     26.0936E-03    -4.44579E+06     90.2055E+06     92.7608E+06     510.444E+03    -280.391E-03     571.236E-03    -290.846E-03     55.4511E-03    -281.477E-03     572.359E-03    -290.506E-03     41.3800E-03
            2174     12.1086E-03     25.9917E-03    -10.4198E+06     85.7283E+06     93.1028E+06     226.915E+03    -280.640E-03     572.063E-03    -291.423E-03     74.0069E-03    -282.040E-03     573.461E-03    -291.067E-03     58.1964E-03
            2175     11.4296E-03     25.8847E-03    -17.1435E+06     78.6299E+06     89.9128E+06    -580.324E+03    -281.583E-03     573.627E-03    -292.044E-03     80.0630E-03    -282.963E-03     574.965E-03    -291.684E-03     65.4005E-03
            2176     10.7491E-03     25.7635E-03    -23.5019E+06     72.7775E+06     83.5533E+06    -399.376E+03    -282.697E-03     575.383E-03    -292.687E-03     85.8646E-03    -284.100E-03     576.719E-03    -292.340E-03     71.7831E-03
            2177     10.0709E-03     25.6349E-03    -30.2428E+06     65.5615E+06     72.8090E+06     412.622E+03    -284.320E-03     577.647E-03    -293.327E-03     87.4772E-03    -285.651E-03     578.893E-03    -293.014E-03     74.4989E-03
            2178     9.39291E-03     25.5024E-03    -37.5300E+06     56.8862E+06     60.0527E+06     319.890E+03    -285.943E-03     579.897E-03    -293.954E-03     86.6045E-03    -287.170E-03     581.019E-03    -293.682E-03     74.8357E-03
            2179     8.71576E-03     25.3687E-03    -44.8580E+06     45.9296E+06     49.4396E+06     362.160E+03    -287.549E-03     582.129E-03    -294.580E-03     83.8740E-03    -288.660E-03     583.100E-03    -294.334E-03     73.3661E-03
            2180     8.04041E-03     25.2386E-03    -52.3755E+06     33.4432E+06     40.5273E+06     788.418E+03    -289.142E-03     584.331E-03    -295.189E-03     79.9645E-03    -290.136E-03     585.140E-03    -294.959E-03     70.7351E-03
            2181     7.36604E-03     25.1115E-03    -60.3173E+06     10.3738E+06     29.8368E+06     207.793E+03    -290.459E-03     586.238E-03    -295.779E-03     75.2715E-03    -291.331E-03     586.846E-03    -295.557E-03     67.2349E-03
            2182     6.69211E-03     24.9918E-03    -68.5169E+06    -23.9350E+06     15.6198E+06    -250.592E+03    -291.698E-03     588.044E-03    -296.346E-03     69.9290E-03    -292.440E-03     588.413E-03    -296.134E-03     63.0076E-03
            2183     6.01973E-03     24.8784E-03    -76.4087E+06    -56.4914E+06     100.943E+03    -253.971E+03    -292.948E-03     589.825E-03    -296.877E-03     63.9312E-03    -293.570E-03     589.975E-03    -296.684E-03     58.0555E-03
            2184     5.34800E-03     24.7745E-03    -84.4451E+06    -86.4681E+06    -16.3639E+06    -317.578E+03    -294.145E-03     591.504E-03    -297.359E-03     57.2983E-03    -294.662E-03     591.462E-03    -297.193E-03     52.3793E-03
            2185     4.67696E-03     24.6790E-03    -92.5211E+06    -113.758E+06    -33.7711E+06    -281.347E+03    -295.277E-03     593.060E-03    -297.783E-03     50.4885E-03    -295.707E-03     592.855E-03    -297.652E-03     46.4310E-03
            2186     4.00764E-03     24.5951E-03    -100.569E+06    -139.118E+06    -52.0727E+06    -268.977E+03    -296.329E-03     594.466E-03    -298.137E-03     43.5142E-03    -296.683E-03     594.120E-03    -298.049E-03     40.2184E-03
            2187     3.33858E-03     24.5230E-03    -108.030E+06    -162.573E+06    -70.7164E+06    -257.633E+03    -297.110E-03     595.535E-03    -298.425E-03     36.3067E-03    -297.398E-03     595.068E-03    -298.386E-03     33.7005E-03
            2188     2.66995E-03     24.4619E-03    -114.960E+06    -183.392E+06    -89.0697E+06    -260.780E+03    -297.705E-03     596.373E-03    -298.668E-03     29.0990E-03    -297.939E-03     595.806E-03    -298.681E-03     27.1130E-03
            2189     2.00167E-03     24.4146E-03    -121.041E+06    -205.563E+06    -105.086E+06     59.2707E+03    -298.355E-03     597.221E-03    -298.867E-03     22.0038E-03    -298.540E-03     596.552E-03    -298.919E-03     20.5614E-03
            2190     1.33470E-03     24.3790E-03    -125.481E+06    -223.095E+06    -117.720E+06     272.434E+03    -298.778E-03     597.777E-03    -298.999E-03     14.8008E-03    -298.925E-03     597.028E-03    -299.082E-03     13.8437E-03
            2191     667.187E-06     24.3592E-03    -128.468E+06    -230.646E+06    -126.667E+06     129.833E+03    -298.807E-03     598.084E-03    -299.277E-03     8.01424E-03    -298.936E-03     597.305E-03    -299.389E-03     7.52759E-03
            2192     12.7895E-03     24.4163E-03    -5.03822E+06     89.6181E+06     91.9006E+06    -56.0550E+03    -279.984E-03     570.862E-03    -290.878E-03     57.5532E-03    -281.095E-03     572.007E-03    -290.541E-03     43.4080E-03
            2193     12.1092E-03     24.3145E-03    -9.50611E+06     86.6385E+06     93.9248E+06     907.707E+03    -280.126E-03     571.619E-03    -291.493E-03     76.6102E-03    -281.552E-03     573.047E-03    -291.135E-03     60.8314E-03
            2194     11.4272E-03     24.2035E-03    -15.7515E+06     79.9523E+06     91.0282E+06     708.114E+03    -281.246E-03     573.394E-03    -292.148E-03     81.1235E-03    -282.641E-03     574.753E-03    -291.786E-03     66.4257E-03
            2195     10.7483E-03     24.0802E-03    -23.2242E+06     72.6091E+06     83.2688E+06     241.211E+03    -283.128E-03     575.919E-03    -292.791E-03     85.7789E-03    -284.535E-03     577.260E-03    -292.446E-03     71.6444E-03
            2196     10.0692E-03     23.9462E-03    -30.4241E+06     64.9907E+06     71.9247E+06     18.0845E+03    -285.095E-03     578.489E-03    -293.394E-03     86.8693E-03    -286.424E-03     579.733E-03    -293.085E-03     73.8427E-03
            2197     9.39251E-03     23.8106E-03    -36.6506E+06     57.7831E+06     60.2737E+06     53.4293E+03    -286.932E-03     580.892E-03    -293.960E-03     85.2926E-03    -288.146E-03     582.006E-03    -293.689E-03     73.5284E-03
            2198     8.71671E-03     23.6742E-03    -43.0046E+06     45.0547E+06     50.3474E+06    -7.18734E+03    -288.450E-03     582.961E-03    -294.511E-03     82.2121E-03    -289.537E-03     583.909E-03    -294.262E-03     71.7388E-03
            2199     8.04157E-03     23.5391E-03    -49.9664E+06     32.4300E+06     42.0701E+06     420.956E+03    -289.741E-03     584.786E-03    -295.045E-03     77.8930E-03    -290.707E-03     585.568E-03    -294.809E-03     68.7330E-03
            2200     7.36730E-03     23.4104E-03    -57.6444E+06     12.6352E+06     31.8341E+06     731.478E+03    -290.981E-03     586.537E-03    -295.555E-03     72.8108E-03    -291.828E-03     587.131E-03    -295.331E-03     64.8844E-03
            2201     6.69435E-03     23.2866E-03    -66.0596E+06    -22.2225E+06     17.0293E+06    -95.0765E+03    -292.217E-03     588.248E-03    -296.031E-03     67.1655E-03    -292.933E-03     588.602E-03    -295.818E-03     60.3587E-03
            2202     6.02186E-03     23.1709E-03    -74.7477E+06    -56.3759E+06     904.048E+03    -677.938E+03    -293.384E-03     589.841E-03    -296.457E-03     61.1298E-03    -293.985E-03     589.973E-03    -296.262E-03     55.3566E-03
            2203     5.35077E-03     23.0629E-03    -83.2798E+06    -86.5131E+06    -15.8102E+06    -595.214E+03    -294.433E-03     591.255E-03    -296.823E-03     54.6810E-03    -294.934E-03     591.200E-03    -296.656E-03     49.8506E-03
            2204     4.68063E-03     22.9664E-03    -91.8093E+06    -113.899E+06    -33.3624E+06    -522.947E+03    -295.286E-03     592.417E-03    -297.131E-03     47.9596E-03    -295.703E-03     592.201E-03    -296.999E-03     43.9806E-03
            2205     4.01006E-03     22.8792E-03    -100.098E+06    -139.276E+06    -51.7949E+06    -450.971E+03    -296.008E-03     593.392E-03    -297.384E-03     41.1524E-03    -296.353E-03     593.038E-03    -297.296E-03     37.9303E-03
            2206     3.34112E-03     22.8045E-03    -108.053E+06    -162.625E+06    -70.6455E+06    -373.216E+03    -296.670E-03     594.250E-03    -297.580E-03     34.2853E-03    -296.955E-03     593.779E-03    -297.540E-03     31.7275E-03
            2207     2.67248E-03     22.7437E-03    -115.151E+06    -183.744E+06    -89.1829E+06    -94.4911E+03    -297.159E-03     594.877E-03    -297.717E-03     27.5018E-03    -297.391E-03     594.306E-03    -297.730E-03     25.5548E-03
            2208     2.00422E-03     22.6933E-03    -120.961E+06    -206.097E+06    -104.962E+06     34.7848E+03    -297.412E-03     595.253E-03    -297.841E-03     20.6849E-03    -297.595E-03     594.579E-03    -297.892E-03     19.2744E-03
            2209     1.33550E-03     22.6583E-03    -125.820E+06    -222.743E+06    -117.498E+06     146.221E+03    -297.703E-03     595.660E-03    -297.958E-03     13.9453E-03    -297.852E-03     594.913E-03    -298.040E-03     13.0300E-03
            2210     667.785E-06     22.6361E-03    -128.792E+06    -229.438E+06    -126.527E+06     301.941E+03    -297.850E-03     595.999E-03    -298.149E-03     7.52594E-03    -297.982E-03     595.226E-03    -298.262E-03     7.03333E-03
            2211     12.7854E-03     22.7345E-03    -5.15340E+06     89.5480E+06     91.3826E+06    -169.706E+03    -279.316E-03     570.247E-03    -290.931E-03     56.8484E-03    -280.425E-03     571.390E-03    -290.596E-03     42.7065E-03
            2212     12.1059E-03     22.6360E-03    -11.0080E+06     85.3219E+06     92.2321E+06    -508.137E+03    -280.714E-03     572.258E-03    -291.544E-03     75.6409E-03    -282.152E-03     573.692E-03    -291.191E-03     59.6419E-03
            2213     11.4274E-03     22.5218E-03    -16.3589E+06     79.4670E+06     90.4949E+06    -77.4050E+03    -282.337E-03     574.490E-03    -292.153E-03     80.8214E-03    -283.739E-03     575.854E-03    -291.792E-03     66.0075E-03
            2214     10.7483E-03     22.3939E-03    -21.7749E+06     73.2462E+06     84.0896E+06     635.102E+03    -284.476E-03     577.195E-03    -292.718E-03     84.8923E-03    -285.870E-03     578.527E-03    -292.372E-03     70.7479E-03
            2215     10.0717E-03     22.2576E-03    -28.3496E+06     66.0892E+06     72.9700E+06     463.751E+03    -286.485E-03     579.704E-03    -293.218E-03     85.2005E-03    -287.790E-03     580.931E-03    -292.908E-03     72.1994E-03
            2216     9.39497E-03     22.1171E-03    -35.7377E+06     58.5651E+06     60.6269E+06    -257.033E+03    -288.131E-03     581.800E-03    -293.669E-03     83.0680E-03    -289.320E-03     582.894E-03    -293.399E-03     71.3492E-03
            2217     8.72005E-03     21.9775E-03    -43.1259E+06     44.8950E+06     49.9620E+06    -442.941E+03    -289.503E-03     583.600E-03    -294.097E-03     79.6546E-03    -290.566E-03     584.524E-03    -293.850E-03     69.2719E-03
            2218     8.04580E-03     21.8411E-03    -50.6216E+06     31.4032E+06     41.7248E+06    -346.949E+03    -290.610E-03     585.113E-03    -294.504E-03     75.1479E-03    -291.555E-03     585.869E-03    -294.267E-03     66.0804E-03
            2219     7.37247E-03     21.7081E-03    -58.2800E+06     13.2359E+06     32.0636E+06    -355.662E+03    -291.728E-03     586.601E-03    -294.873E-03     69.8183E-03    -292.559E-03     587.179E-03    -294.648E-03     61.9934E-03
            2220     6.69981E-03     21.5825E-03    -65.9938E+06    -20.4655E+06     17.5437E+06    -240.118E+03    -292.852E-03     588.041E-03    -295.189E-03     63.9597E-03    -293.554E-03     588.385E-03    -294.976E-03     57.2695E-03
            2221     6.02835E-03     21.4637E-03    -74.2380E+06    -55.9450E+06     1.33863E+06    -219.852E+03    -293.705E-03     589.151E-03    -295.446E-03     57.6974E-03    -294.289E-03     589.269E-03    -295.250E-03     52.0400E-03
            2222     5.35696E-03     21.3541E-03    -82.9869E+06    -86.3944E+06    -15.4551E+06    -208.663E+03    -294.350E-03     589.996E-03    -295.646E-03     51.2384E-03    -294.839E-03     589.928E-03    -295.478E-03     46.5121E-03
            2223     4.68610E-03     21.2544E-03    -91.5351E+06    -113.745E+06    -32.9682E+06    -183.545E+03    -294.929E-03     590.720E-03    -295.790E-03     44.6701E-03    -295.338E-03     590.495E-03    -295.658E-03     40.7682E-03
            2224     4.01684E-03     21.1668E-03    -100.003E+06    -139.159E+06    -51.4407E+06    -162.135E+03    -295.275E-03     591.161E-03    -295.885E-03     37.9782E-03    -295.615E-03     590.800E-03    -295.796E-03     34.8260E-03
            2225     3.34638E-03     21.0908E-03    -107.925E+06    -162.830E+06    -70.4416E+06    -124.827E+03    -295.568E-03     591.506E-03    -295.938E-03     31.3337E-03    -295.847E-03     591.028E-03    -295.898E-03     28.8522E-03
            2226     2.67693E-03     21.0271E-03    -114.921E+06    -184.027E+06    -88.8718E+06    -87.9859E+03    -295.881E-03     591.818E-03    -295.937E-03     24.7713E-03    -296.108E-03     591.242E-03    -295.948E-03     22.8743E-03
            2227     2.00758E-03     20.9783E-03    -121.048E+06    -206.018E+06    -104.959E+06     87.1479E+03    -295.907E-03     591.810E-03    -295.904E-03     18.2539E-03    -296.088E-03     591.135E-03    -295.954E-03     16.8795E-03
            2228     1.33842E-03     20.9419E-03    -125.566E+06    -222.265E+06    -117.721E+06     62.0431E+03    -295.785E-03     591.677E-03    -295.892E-03     12.1911E-03    -295.932E-03     590.930E-03    -295.976E-03     11.3069E-03
            2229     669.110E-06     20.9184E-03    -128.688E+06    -229.072E+06    -126.686E+06    -119.151E+03    -295.943E-03     591.770E-03    -295.827E-03     6.44445E-03    -296.075E-03     590.998E-03    -295.941E-03     5.97702E-03
            2230     12.7899E-03     21.0606E-03    -4.94588E+06     90.0120E+06     92.4626E+06    -27.1862E+03    -280.018E-03     570.877E-03    -290.859E-03     54.8835E-03    -281.116E-03     572.008E-03    -290.520E-03     40.7159E-03
            2231     12.1086E-03     20.9542E-03    -10.0636E+06     86.2938E+06     93.2770E+06    -136.375E+03    -281.132E-03     572.564E-03    -291.432E-03     74.4296E-03    -282.562E-03     573.994E-03    -291.076E-03     58.4088E-03
            2232     11.4290E-03     20.8389E-03    -16.5832E+06     79.2336E+06     89.7900E+06    -685.786E+03    -283.962E-03     575.924E-03    -291.962E-03     79.7701E-03    -285.357E-03     577.282E-03    -291.604E-03     64.8937E-03
            2233     10.7519E-03     20.7059E-03    -23.3923E+06     72.1838E+06     82.7473E+06    -1.02385E+06    -286.407E-03     578.804E-03    -292.397E-03     83.1690E-03    -287.792E-03     580.122E-03    -292.054E-03     68.9556E-03
            2234     10.0756E-03     20.5657E-03    -29.2550E+06     65.7828E+06     72.9443E+06    -691.025E+03    -288.160E-03     580.909E-03    -292.749E-03     82.7647E-03    -289.447E-03     582.115E-03    -292.437E-03     69.7540E-03
            2235     9.40134E-03     20.4234E-03    -35.3755E+06     58.9858E+06     61.9216E+06    -43.2461E+03    -289.478E-03     582.526E-03    -293.048E-03     80.4296E-03    -290.645E-03     583.597E-03    -292.772E-03     68.7738E-03
            2236     8.72685E-03     20.2811E-03    -42.4537E+06     45.4807E+06     51.2212E+06    -12.0913E+03    -290.694E-03     584.007E-03    -293.313E-03     76.6051E-03    -291.733E-03     584.908E-03    -293.061E-03     66.3149E-03
            2237     8.05365E-03     20.1418E-03    -49.8737E+06     32.5262E+06     42.2417E+06    -663.488E+03    -291.836E-03     585.364E-03    -293.528E-03     71.7388E-03    -292.760E-03     586.104E-03    -293.291E-03     62.7409E-03
            2238     7.38095E-03     20.0074E-03    -57.7195E+06     13.1907E+06     32.1392E+06    -990.314E+03    -292.738E-03     586.420E-03    -293.682E-03     66.0183E-03    -293.548E-03     586.980E-03    -293.457E-03     58.2406E-03
            2239     6.70921E-03     19.8786E-03    -66.3368E+06    -21.1297E+06     17.3041E+06    -480.396E+03    -293.451E-03     587.222E-03    -293.771E-03     59.8099E-03    -294.137E-03     587.548E-03    -293.558E-03     53.1848E-03
            2240     6.03783E-03     19.7586E-03    -75.0746E+06    -55.4143E+06     1.04670E+06     35.3983E+03    -293.965E-03     587.753E-03    -293.789E-03     53.3085E-03    -294.540E-03     587.862E-03    -293.594E-03     47.7191E-03
            2241     5.36719E-03     19.6482E-03    -83.4937E+06    -85.8266E+06    -15.6313E+06     11.1751E+03    -294.190E-03     587.930E-03    -293.740E-03     46.6807E-03    -294.670E-03     587.855E-03    -293.573E-03     42.0193E-03
            2242     4.69667E-03     19.5474E-03    -91.8881E+06    -113.300E+06    -32.9615E+06    -60.1824E+03    -294.191E-03     587.832E-03    -293.641E-03     39.9812E-03    -294.591E-03     587.599E-03    -293.508E-03     36.1503E-03
            2243     4.02524E-03     19.4588E-03    -99.9575E+06    -138.852E+06    -51.2411E+06    -64.2245E+03    -294.152E-03     587.645E-03    -293.493E-03     33.3365E-03    -294.484E-03     587.278E-03    -293.403E-03     30.2393E-03
            2244     3.35537E-03     19.3827E-03    -107.748E+06    -162.470E+06    -70.0027E+06    -40.4680E+03    -293.934E-03     587.240E-03    -293.306E-03     27.0528E-03    -294.208E-03     586.757E-03    -293.264E-03     24.6193E-03
            2245     2.68459E-03     19.3189E-03    -114.755E+06    -184.046E+06    -88.3165E+06     31.5265E+03    -293.570E-03     586.679E-03    -293.108E-03     21.1045E-03    -293.794E-03     586.097E-03    -293.117E-03     19.2370E-03
            2246     2.01398E-03     19.2693E-03    -120.740E+06    -205.762E+06    -104.629E+06    -27.2299E+03    -293.345E-03     586.254E-03    -292.909E-03     15.5070E-03    -293.524E-03     585.576E-03    -292.959E-03     14.1322E-03
            2247     1.34313E-03     19.2343E-03    -125.859E+06    -221.901E+06    -117.770E+06    -3.75597E+03    -293.027E-03     585.721E-03    -292.694E-03     10.3551E-03    -293.176E-03     584.976E-03    -292.778E-03     9.46244E-03
            2248     671.428E-06     19.2120E-03    -128.385E+06    -228.946E+06    -126.899E+06         352.938    -292.295E-03     585.130E-03    -292.835E-03     5.89284E-03    -292.425E-03     584.358E-03    -292.951E-03     5.41423E-03
            2249     12.7903E-03     19.3827E-03    -4.93038E+06     90.1228E+06     91.9358E+06    -508.857E+03    -281.692E-03     572.473E-03    -290.781E-03     58.5420E-03    -282.838E-03     573.655E-03    -290.445E-03     44.0818E-03
            2250     12.1110E-03     19.2759E-03    -10.5090E+06     86.8212E+06     93.2995E+06    -345.110E+03    -284.182E-03     575.407E-03    -291.225E-03     77.1216E-03    -285.659E-03     576.884E-03    -290.869E-03     60.8236E-03
            2251     11.4335E-03     19.1511E-03    -16.2994E+06     80.6158E+06     91.1288E+06    -115.755E+03    -286.658E-03     578.236E-03    -291.578E-03     79.5798E-03    -288.070E-03     579.612E-03    -291.216E-03     64.5036E-03
            2252     10.7584E-03     19.0152E-03    -22.7231E+06     73.1796E+06     83.7096E+06    -605.575E+03    -288.672E-03     580.496E-03    -291.824E-03     81.4073E-03    -290.053E-03     581.814E-03    -291.479E-03     67.0530E-03
            2253     10.0843E-03     18.8735E-03    -30.1787E+06     65.1117E+06     72.0516E+06    -1.25765E+06    -290.136E-03     582.116E-03    -291.980E-03     80.3823E-03    -291.413E-03     583.309E-03    -291.670E-03     67.3198E-03
            2254     9.40984E-03     18.7282E-03    -37.3726E+06     57.2519E+06     60.2574E+06    -1.10667E+06    -291.390E-03     583.457E-03    -292.067E-03     77.0970E-03    -292.542E-03     584.505E-03    -291.795E-03     65.4406E-03
            2255     8.73724E-03     18.5845E-03    -44.3625E+06     46.8430E+06     50.0631E+06    -854.282E+03    -292.466E-03     584.555E-03    -292.089E-03     72.4888E-03    -293.494E-03     585.447E-03    -291.842E-03     62.2073E-03
            2256     8.06500E-03     18.4426E-03    -51.7941E+06     34.1987E+06     41.0501E+06    -1.38703E+06    -293.334E-03     585.369E-03    -292.035E-03     66.8591E-03    -294.248E-03     586.102E-03    -291.804E-03     57.8632E-03
            2257     7.39406E-03     18.3066E-03    -59.7108E+06     12.0817E+06     30.4334E+06    -1.28832E+06    -293.927E-03     585.824E-03    -291.897E-03     60.6114E-03    -294.725E-03     586.365E-03    -291.676E-03     52.8414E-03
            2258     6.72310E-03     18.1777E-03    -67.7103E+06    -21.6443E+06     16.1317E+06    -738.178E+03    -294.188E-03     585.859E-03    -291.671E-03     53.9325E-03    -294.862E-03     586.169E-03    -291.461E-03     47.3014E-03
            2259     6.05238E-03     18.0570E-03    -75.6075E+06    -55.0475E+06     594.230E+03    -689.507E+03    -294.129E-03     585.489E-03    -291.360E-03     47.0297E-03    -294.691E-03     585.586E-03    -291.168E-03     41.4227E-03
            2260     5.38163E-03     17.9459E-03    -83.6182E+06    -85.2623E+06    -15.7470E+06    -573.626E+03    -293.830E-03     584.801E-03    -290.971E-03     40.2200E-03    -294.298E-03     584.716E-03    -290.805E-03     35.5489E-03
            2261     4.71066E-03     17.8467E-03    -91.7046E+06    -113.013E+06    -33.0498E+06    -442.253E+03    -293.165E-03     583.689E-03    -290.524E-03     33.5881E-03    -293.555E-03     583.447E-03    -290.392E-03     29.7459E-03
            2262     4.04014E-03     17.7583E-03    -99.6929E+06    -138.541E+06    -51.0221E+06    -361.728E+03    -292.242E-03     582.296E-03    -290.054E-03     27.5052E-03    -292.566E-03     581.922E-03    -289.964E-03     24.4063E-03
            2263     3.36789E-03     17.6830E-03    -107.335E+06    -162.268E+06    -69.2714E+06    -252.566E+03    -291.279E-03     580.873E-03    -289.594E-03     22.0198E-03    -291.548E-03     580.384E-03    -289.549E-03     19.5631E-03
            2264     2.69547E-03     17.6216E-03    -114.435E+06    -183.970E+06    -87.5261E+06    -213.417E+03    -290.246E-03     579.425E-03    -289.179E-03     17.0625E-03    -290.467E-03     578.839E-03    -289.184E-03     15.1697E-03
            2265     2.02183E-03     17.5726E-03    -120.538E+06    -205.563E+06    -103.969E+06     42.1907E+03    -289.436E-03     578.285E-03    -288.849E-03     12.5612E-03    -289.614E-03     577.605E-03    -288.896E-03     11.1838E-03
            2266     1.34807E-03     17.5382E-03    -125.070E+06    -221.492E+06    -117.143E+06     78.5540E+03    -289.027E-03     577.577E-03    -288.550E-03     8.33561E-03    -289.173E-03     576.831E-03    -288.633E-03     7.40627E-03
            2267     674.870E-06     17.5170E-03    -128.750E+06    -228.977E+06    -125.905E+06     10.4105E+03    -287.848E-03     576.742E-03    -288.893E-03     4.28689E-03    -287.982E-03     575.969E-03    -289.004E-03     3.76875E-03
            2268     12.7868E-03     17.6951E-03    -4.84714E+06     90.6299E+06     92.5656E+06    -117.946E+03    -284.327E-03     574.973E-03    -290.646E-03     56.6818E-03    -285.469E-03     576.151E-03    -290.307E-03     42.0449E-03
            2269     12.1136E-03     17.5867E-03    -10.9299E+06     86.9347E+06     93.1053E+06    -821.251E+03    -287.549E-03     578.451E-03    -290.902E-03     75.3592E-03    -289.044E-03     579.946E-03    -290.547E-03     58.6154E-03
            2270     11.4407E-03     17.4595E-03    -16.7862E+06     80.5090E+06     90.5455E+06    -1.03975E+06    -289.779E-03     580.815E-03    -291.036E-03     79.4586E-03    -291.223E-03     582.223E-03    -290.676E-03     63.9978E-03
            2271     10.7668E-03     17.3233E-03    -23.3167E+06     73.0188E+06     83.7607E+06    -733.732E+03    -291.704E-03     582.758E-03    -291.054E-03     80.6622E-03    -293.105E-03     584.093E-03    -290.707E-03     66.0667E-03
            2272     10.0938E-03     17.1775E-03     -29.824E+06     65.9698E+06     73.2899E+06    -150.318E+03    -293.377E-03     584.317E-03    -290.940E-03     77.7319E-03    -294.654E-03     585.510E-03    -290.626E-03     64.5167E-03
            2273     9.42311E-03     17.0325E-03    -36.7213E+06     58.2170E+06     60.8576E+06    -840.731E+03    -294.428E-03     585.132E-03    -290.703E-03     72.8445E-03    -295.569E-03     586.172E-03    -290.430E-03     61.0474E-03
            2274     8.75217E-03     16.8860E-03    -43.7858E+06     47.2424E+06     50.0366E+06    -1.48211E+06    -295.122E-03     585.491E-03    -290.369E-03     67.1022E-03    -296.133E-03     586.370E-03    -290.123E-03     56.6827E-03
            2275     8.08241E-03     16.7445E-03    -51.1013E+06     34.5828E+06     41.0033E+06    -1.18847E+06    -295.440E-03     585.374E-03    -289.934E-03     60.4473E-03    -296.334E-03     586.092E-03    -289.705E-03     51.3396E-03
            2276     7.41201E-03     16.6078E-03    -59.0877E+06     12.7906E+06     30.1697E+06    -1.29684E+06    -295.452E-03     584.844E-03    -289.392E-03     53.2505E-03    -296.230E-03     585.371E-03    -289.174E-03     45.3643E-03
            2277     6.74244E-03     16.4792E-03    -66.9831E+06    -21.2277E+06     15.8913E+06    -1.87215E+06    -295.129E-03     583.867E-03    -288.737E-03     45.8032E-03    -295.783E-03     584.161E-03    -288.530E-03     39.0310E-03
            2278     6.07267E-03     16.3599E-03    -74.6943E+06    -55.1649E+06     636.822E+03    -1.71152E+06    -294.253E-03     582.236E-03    -287.983E-03     38.4600E-03    -294.795E-03     582.316E-03    -287.791E-03     32.7225E-03
            2279     5.40217E-03     16.2511E-03    -82.6638E+06    -85.3819E+06    -15.5042E+06    -1.24161E+06    -292.874E-03     580.036E-03    -287.162E-03     31.6927E-03    -293.325E-03     579.935E-03    -286.996E-03     26.8990E-03
            2280     4.73113E-03     16.1532E-03    -90.7354E+06    -112.688E+06    -32.5319E+06    -846.739E+03    -291.237E-03     577.553E-03    -286.316E-03     25.6667E-03    -291.613E-03     577.301E-03    -286.184E-03     21.6946E-03
            2281     4.05793E-03     16.0694E-03    -98.8012E+06    -138.435E+06    -50.4914E+06    -605.473E+03    -289.411E-03     574.897E-03    -285.485E-03     20.3754E-03    -289.725E-03     574.514E-03    -285.394E-03     17.1479E-03
            2282     3.38410E-03     15.9966E-03    -106.655E+06    -162.353E+06    -68.7896E+06    -433.900E+03    -287.540E-03     572.258E-03    -284.718E-03     15.5978E-03    -287.801E-03     571.762E-03    -284.672E-03     13.0396E-03
            2283     2.70883E-03     15.9377E-03    -113.984E+06    -184.001E+06    -87.2578E+06    -209.157E+03    -285.903E-03     569.950E-03    -284.047E-03     11.4318E-03    -286.120E-03     569.359E-03    -284.051E-03     9.45998E-03
            2284     2.03277E-03     15.8921E-03    -119.975E+06    -205.723E+06    -103.551E+06    -250.957E+03    -284.538E-03     568.045E-03    -283.507E-03     8.06751E-03    -284.712E-03     567.361E-03    -283.552E-03     6.63192E-03
            2285     1.35564E-03     15.8576E-03    -124.400E+06    -221.552E+06    -116.143E+06    -29.2782E+03    -283.459E-03     566.606E-03    -283.147E-03     5.02882E-03    -283.603E-03     565.855E-03    -283.226E-03     4.07827E-03
            2286     677.356E-06     15.8385E-03    -127.137E+06    -228.664E+06    -125.510E+06     218.342E+03    -282.906E-03     565.969E-03    -283.063E-03     2.32920E-03    -283.032E-03     565.194E-03    -283.175E-03     1.81400E-03
            2287     12.7994E-03     16.0139E-03    -4.24623E+06     91.8530E+06     94.0536E+06     31.3251E+03    -288.037E-03     578.420E-03    -290.383E-03     59.0270E-03    -289.222E-03     579.643E-03    -290.040E-03     44.0777E-03
            2288     12.1214E-03     15.8928E-03    -9.65927E+06     87.9509E+06     94.4824E+06     106.391E+03    -290.303E-03     580.750E-03    -290.448E-03     77.4344E-03    -291.846E-03     582.298E-03    -290.089E-03     60.4137E-03
            2289     11.4469E-03     15.7675E-03    -16.7487E+06     80.4037E+06     90.3610E+06    -127.545E+03    -293.601E-03     583.955E-03    -290.355E-03     78.8807E-03    -295.072E-03     585.391E-03    -289.995E-03     63.0893E-03
            2290     10.7761E-03     15.6234E-03    -23.2154E+06     73.6737E+06     83.3477E+06    -761.718E+03    -296.138E-03     586.196E-03    -290.057E-03     77.9586E-03    -297.552E-03     587.547E-03    -289.714E-03     62.9917E-03
            2291     10.1081E-03     15.4790E-03    -29.6654E+06     66.5739E+06     73.0232E+06    -1.85153E+06    -297.650E-03     587.217E-03    -289.567E-03     73.4091E-03    -298.934E-03     588.421E-03    -289.255E-03     59.7511E-03
            2292     9.43936E-03     15.3312E-03    -35.6280E+06     59.7048E+06     62.3232E+06    -2.00152E+06    -298.517E-03     587.428E-03    -288.911E-03     67.5672E-03    -299.659E-03     588.475E-03    -288.634E-03     55.3592E-03
            2293     8.77210E-03     15.1873E-03    -41.7337E+06     46.6890E+06     51.4976E+06    -1.78026E+06    -298.866E-03     586.968E-03    -288.102E-03     60.4897E-03    -299.865E-03     587.837E-03    -287.852E-03     49.6731E-03
            2294     8.10414E-03     15.0452E-03    -48.6345E+06     33.4756E+06     41.8420E+06    -1.23886E+06    -298.626E-03     585.767E-03    -287.141E-03     52.2984E-03    -299.497E-03     586.464E-03    -286.910E-03     42.8300E-03
            2295     7.43720E-03     14.9114E-03    -55.9166E+06     15.0840E+06     31.9384E+06    -1.11864E+06    -297.702E-03     583.742E-03    -286.040E-03     43.6665E-03    -298.455E-03     584.258E-03    -285.821E-03     35.4427E-03
            2296     6.76894E-03     14.7846E-03    -64.0121E+06    -19.4994E+06     17.4216E+06    -1.30966E+06    -296.081E-03     580.907E-03    -284.826E-03     35.4362E-03    -296.708E-03     581.188E-03    -284.618E-03     28.3522E-03
            2297     6.09988E-03     14.6694E-03    -72.8467E+06    -55.0242E+06     1.17792E+06    -1.22556E+06    -293.967E-03     577.498E-03    -283.531E-03     28.0362E-03    -294.486E-03     577.560E-03    -283.339E-03     21.9852E-03
            2298     5.42936E-03     14.5652E-03    -81.4250E+06    -85.2934E+06    -15.2603E+06    -1.09581E+06    -291.374E-03     573.570E-03    -282.196E-03     21.4208E-03    -291.808E-03     573.456E-03    -282.031E-03     16.2918E-03
            2299     4.75608E-03     14.4737E-03    -89.6985E+06    -112.924E+06    -32.2060E+06    -868.358E+03    -288.475E-03     569.354E-03    -280.879E-03     15.6214E-03    -288.836E-03     569.088E-03    -280.746E-03     11.3516E-03
            2300     4.08200E-03     14.3932E-03    -97.6214E+06    -138.317E+06    -49.8949E+06    -425.132E+03    -285.578E-03     565.205E-03    -279.627E-03     10.8360E-03    -285.878E-03     564.811E-03    -279.534E-03     7.32882E-03
            2301     3.40549E-03     14.3270E-03    -105.336E+06    -162.276E+06    -68.9040E+06    -51.1824E+03    -282.781E-03     561.265E-03    -278.484E-03     7.25996E-03    -283.030E-03     560.761E-03    -278.440E-03     4.43270E-03
            2302     2.72688E-03     14.2719E-03    -111.990E+06    -183.555E+06    -86.9705E+06     123.323E+03    -280.367E-03     557.857E-03    -277.490E-03     4.63914E-03    -280.571E-03     557.261E-03    -277.497E-03     2.44006E-03
            2303     2.04682E-03     14.2296E-03    -117.887E+06    -205.068E+06    -102.394E+06     82.1419E+03    -278.339E-03     555.025E-03    -276.686E-03     2.75219E-03    -278.504E-03     554.336E-03    -276.730E-03     1.13234E-03
            2304     1.36531E-03     14.1994E-03    -123.162E+06    -221.991E+06    -115.347E+06    -239.098E+03    -276.717E-03     552.843E-03    -276.127E-03     1.45393E-03    -276.854E-03     552.086E-03    -276.203E-03     366.920E-06
            2305     682.881E-06     14.1810E-03    -126.407E+06    -228.646E+06    -123.593E+06    -270.365E+03    -275.939E-03     551.751E-03    -275.811E-03     787.546E-06    -276.066E-03     550.970E-03    -275.914E-03     209.991E-06
            2306     12.7932E-03     14.3172E-03    -5.52817E+06     91.1680E+06     92.5112E+06    -179.220E+03    -292.549E-03     582.732E-03    -290.183E-03     62.8453E-03    -293.810E-03     584.028E-03    -289.844E-03     47.3096E-03
            2307     12.1246E-03     14.1996E-03    -10.7556E+06     87.7672E+06     94.0847E+06    -239.045E+03    -296.480E-03     586.424E-03    -289.944E-03     78.9531E-03    -298.107E-03     588.052E-03    -289.585E-03     61.1395E-03
            2308     11.4572E-03     14.0629E-03    -15.9044E+06     82.1715E+06     92.2730E+06    -731.105E+03    -299.600E-03     589.061E-03    -289.461E-03     76.6984E-03    -301.116E-03     590.546E-03    -289.096E-03     60.1549E-03
            2309     10.7916E-03     13.9206E-03    -21.6248E+06     76.0060E+06     85.1161E+06    -1.33922E+06    -301.434E-03     590.168E-03    -288.733E-03     73.3438E-03    -302.866E-03     591.546E-03    -288.387E-03     57.7357E-03
            2310     10.1251E-03     13.7731E-03    -28.1033E+06     68.5813E+06     73.3484E+06    -1.95222E+06    -302.587E-03     590.367E-03    -287.780E-03     67.8803E-03    -303.879E-03     591.590E-03    -287.472E-03     53.6506E-03
            2311     9.46115E-03     13.6282E-03    -35.6499E+06     59.9537E+06     61.0251E+06    -2.63555E+06    -303.622E-03     590.222E-03    -286.599E-03     60.6369E-03    -304.772E-03     591.282E-03    -286.329E-03     47.7736E-03
            2312     8.79687E-03     13.4833E-03    -43.0779E+06     46.0071E+06     49.8516E+06    -2.70888E+06    -303.745E-03     588.931E-03    -285.186E-03     51.5475E-03    -304.746E-03     589.800E-03    -284.941E-03     40.0589E-03
            2313     8.13381E-03     13.3464E-03    -50.1080E+06     32.3807E+06      39.979E+06    -2.50090E+06    -302.547E-03     586.108E-03    -283.562E-03     42.0353E-03    -303.414E-03     586.799E-03    -283.336E-03     31.8924E-03
            2314     7.46890E-03     13.2151E-03    -57.3107E+06     14.5600E+06     30.2122E+06    -1.87617E+06    -300.254E-03     582.036E-03    -281.782E-03     32.7356E-03    -301.002E-03     582.547E-03    -281.569E-03     23.8385E-03
            2315     6.80297E-03     13.0971E-03    -64.9428E+06    -18.3280E+06     16.4599E+06    -922.191E+03    -297.168E-03     577.068E-03    -279.900E-03     24.0016E-03    -297.791E-03     577.350E-03    -279.697E-03     16.2454E-03
            2316     6.13404E-03     12.9877E-03    -72.5540E+06    -53.5640E+06     667.400E+03    -769.592E+03    -293.430E-03     571.394E-03    -277.964E-03     16.1653E-03    -293.938E-03     571.454E-03    -277.778E-03     9.45924E-03
            2317     5.46268E-03     12.8919E-03    -80.2528E+06    -84.4930E+06    -15.6612E+06    -712.648E+03    -289.308E-03     565.342E-03    -276.034E-03     9.54749E-03    -289.725E-03     565.219E-03    -275.873E-03     3.80006E-03
            2318     4.78951E-03     12.8078E-03    -88.3615E+06    -112.651E+06    -32.7471E+06    -458.731E+03    -284.931E-03     559.110E-03    -274.178E-03     4.67725E-03    -285.276E-03     558.835E-03    -274.051E-03    -204.272E-06
            2319     4.11197E-03     12.7367E-03    -96.6396E+06    -138.507E+06    -50.8053E+06    -39.6996E+03    -280.609E-03     553.078E-03    -272.469E-03     1.41971E-03    -280.897E-03     552.677E-03    -272.382E-03    -2.67095E-03
            2320     3.43163E-03     12.6769E-03    -104.019E+06    -161.686E+06    -69.1524E+06     438.416E+03    -276.825E-03     547.773E-03    -270.947E-03    -617.179E-06    -277.065E-03     547.266E-03    -270.908E-03    -3.97169E-03
            2321     2.74903E-03     12.6289E-03    -110.808E+06    -183.269E+06    -86.9327E+06     809.022E+03    -273.510E-03     543.153E-03    -269.643E-03    -1.66012E-03    -273.706E-03     542.553E-03    -269.652E-03    -4.29451E-03
            2322     2.06383E-03     12.5914E-03    -116.752E+06    -203.578E+06    -102.355E+06     1.09793E+06    -270.813E-03     539.410E-03    -268.597E-03    -2.01163E-03    -270.973E-03     538.725E-03    -268.645E-03    -3.96422E-03
            2323     1.37684E-03     12.5660E-03    -121.206E+06    -220.069E+06    -114.372E+06     668.680E+03    -268.951E-03     536.739E-03    -267.788E-03    -1.72754E-03    -269.083E-03     535.986E-03    -267.865E-03    -3.04259E-03
            2324     688.943E-06     12.5482E-03    -124.236E+06    -229.202E+06    -123.092E+06    -40.9563E+03    -267.502E-03     534.779E-03    -267.277E-03    -1.02366E-03    -267.619E-03     533.991E-03    -267.380E-03    -1.74241E-03
            2325     12.8008E-03     12.6150E-03    -5.28333E+06     92.5957E+06     94.1819E+06    -159.660E+03    -299.276E-03     589.138E-03    -289.862E-03     59.3750E-03    -300.554E-03     590.453E-03    -289.517E-03     43.1802E-03
            2326     12.1343E-03     12.4875E-03    -10.0692E+06     89.4679E+06     95.1177E+06    -1.00464E+06    -302.856E-03     592.080E-03    -289.224E-03     75.8409E-03    -304.527E-03     593.757E-03    -288.864E-03     57.1384E-03
            2327     11.4715E-03     12.3524E-03    -15.6156E+06     83.2825E+06     92.3346E+06    -2.13207E+06    -305.900E-03     594.210E-03    -288.310E-03     74.5871E-03    -307.465E-03     595.748E-03    -287.946E-03     57.2556E-03
            2328     10.8088E-03     12.2083E-03    -22.3561E+06     76.0389E+06     85.3057E+06    -2.68430E+06    -307.964E-03     595.065E-03    -287.100E-03     70.3675E-03    -309.454E-03     596.499E-03    -286.752E-03     53.8466E-03
            2329     10.1485E-03     12.0650E-03    -29.0451E+06      68.381E+06     73.8835E+06    -1.95024E+06    -309.730E-03     595.294E-03    -285.564E-03     62.3519E-03    -311.062E-03     596.553E-03    -285.251E-03     47.1939E-03
            2330     9.48790E-03     11.9165E-03    -35.2605E+06     60.7198E+06     61.0152E+06    -1.48016E+06    -310.256E-03     593.950E-03    -283.694E-03     51.7858E-03    -311.410E-03     595.020E-03    -283.426E-03     38.0679E-03
            2331     8.82962E-03     11.7776E-03    -42.1560E+06     46.7898E+06     48.4960E+06    -1.61339E+06    -309.114E-03     590.660E-03    -281.546E-03     40.8884E-03    -310.108E-03     591.532E-03    -281.310E-03     28.4996E-03
            2332     8.16928E-03     11.6447E-03    -49.4768E+06     32.5846E+06     38.3803E+06    -2.02108E+06    -306.535E-03     585.717E-03    -279.182E-03     30.5657E-03    -307.397E-03     586.410E-03    -278.965E-03     19.3997E-03
            2333     7.50763E-03     11.5249E-03    -57.0926E+06     14.3760E+06     28.1957E+06    -2.21687E+06    -302.679E-03     579.343E-03    -276.664E-03     20.7020E-03    -303.419E-03     579.853E-03    -276.461E-03     10.7357E-03
            2334     6.84265E-03     11.4136E-03    -64.6235E+06    -18.1134E+06     13.9328E+06    -1.91667E+06    -297.862E-03     571.929E-03    -274.067E-03     11.9624E-03    -298.473E-03     572.208E-03    -273.877E-03     3.16118E-03
            2335     6.17544E-03     11.3180E-03    -72.0439E+06    -53.1041E+06    -1.72691E+06    -1.05591E+06    -292.160E-03     563.639E-03    -271.479E-03     5.08948E-03    -292.659E-03     563.699E-03    -271.306E-03    -2.62950E-03
            2336     5.50366E-03     11.2326E-03    -80.2234E+06    -84.1668E+06    -17.8651E+06     76.1404E+03    -286.041E-03     555.041E-03    -269.000E-03     447.570E-06    -286.455E-03     554.923E-03    -268.851E-03    -6.25942E-03
            2337     4.82646E-03     11.1614E-03    -88.8489E+06    -112.088E+06    -35.0182E+06     1.05197E+06    -280.213E-03     546.912E-03    -266.699E-03    -2.65179E-03    -280.561E-03     546.646E-03    -266.583E-03    -8.43049E-03
            2338     4.14586E-03     11.1012E-03    -97.1639E+06    -137.665E+06    -53.0275E+06     1.37764E+06    -274.852E-03     539.466E-03    -264.614E-03    -4.49793E-03    -275.143E-03     539.075E-03    -264.539E-03    -9.37883E-03
            2339     3.46134E-03     11.0512E-03    -105.021E+06    -161.230E+06    -70.7140E+06     1.56745E+06    -270.005E-03     532.795E-03    -262.790E-03    -5.25654E-03    -270.249E-03     532.295E-03    -262.757E-03    -9.26547E-03
            2340     2.77322E-03     11.0111E-03    -112.272E+06    -182.536E+06    -88.0299E+06     2.03837E+06    -265.922E-03     527.181E-03    -261.259E-03    -5.18067E-03    -266.127E-03     526.590E-03    -261.271E-03    -8.35583E-03
            2341     2.08235E-03     10.9814E-03    -118.329E+06    -201.242E+06    -103.905E+06     1.95820E+06    -262.754E-03     522.783E-03    -260.029E-03    -4.36842E-03    -262.925E-03     522.115E-03    -260.085E-03    -6.73072E-03
            2342     1.38980E-03     10.9584E-03    -122.735E+06    -217.046E+06    -115.687E+06     1.47438E+06    -260.424E-03     519.524E-03    -259.100E-03    -3.16896E-03    -260.567E-03     518.790E-03    -259.186E-03    -4.75706E-03
            2343     695.454E-06     10.9473E-03    -125.533E+06    -226.893E+06    -123.422E+06     1.09964E+06    -258.883E-03     517.339E-03    -258.456E-03    -1.82457E-03    -259.009E-03     516.566E-03    -258.562E-03    -2.70001E-03
            2344     12.8088E-03     10.9028E-03    -4.65945E+06     94.3563E+06     94.7276E+06    -1.09782E+06    -306.898E-03     596.348E-03    -289.450E-03     64.6904E-03    -308.284E-03     597.777E-03    -289.106E-03     47.5973E-03
            2345     12.1463E-03     10.7729E-03    -9.68419E+06     91.8652E+06     95.6869E+06    -1.35589E+06    -310.373E-03     598.755E-03    -288.381E-03     79.6369E-03    -312.171E-03     600.567E-03    -288.022E-03     59.9392E-03
            2346     11.4855E-03     10.6316E-03    -15.9644E+06     84.1558E+06     91.8038E+06    -1.18366E+06    -313.665E-03     600.636E-03    -286.971E-03     73.5561E-03    -315.317E-03     602.265E-03    -286.611E-03     55.1387E-03
            2347     10.8285E-03     10.4894E-03    -22.7958E+06     76.6681E+06     84.3733E+06    -1.50082E+06    -316.956E-03     602.098E-03    -285.143E-03     65.4761E-03    -318.492E-03     603.583E-03    -284.799E-03     47.8197E-03
            2348     10.1741E-03     10.3400E-03    -29.5013E+06     68.5152E+06     72.9877E+06    -2.63868E+06    -318.801E-03     601.655E-03    -282.854E-03     54.3513E-03    -320.155E-03     602.939E-03    -282.546E-03     37.9285E-03
            2349     9.52292E-03     10.2004E-03    -36.0508E+06     59.4524E+06     60.5537E+06    -2.73464E+06    -317.827E-03     598.002E-03    -280.175E-03     41.5254E-03    -318.994E-03     599.080E-03    -279.906E-03     26.4552E-03
            2350     8.86777E-03     10.0671E-03    -41.7916E+06     46.2825E+06     48.3459E+06    -1.89217E+06    -314.618E-03     591.840E-03    -277.222E-03     29.3999E-03    -315.613E-03     592.714E-03    -276.987E-03     15.6251E-03
            2351     8.21174E-03     9.94609E-03    -47.8943E+06     33.0310E+06     36.8087E+06    -1.28055E+06    -309.847E-03     583.938E-03    -274.091E-03     18.4031E-03    -310.692E-03     584.627E-03    -273.885E-03     5.92776E-03
            2352     7.55219E-03     9.83639E-03    -55.3953E+06     15.3549E+06     25.4901E+06    -651.962E+03    -303.548E-03     574.443E-03    -270.895E-03     9.57671E-03    -304.270E-03     574.952E-03    -270.710E-03    -1.59126E-03
            2353     6.88899E-03     9.74227E-03    -64.2139E+06    -17.4456E+06     10.7321E+06     264.190E+03    -296.149E-03     563.911E-03    -267.762E-03     3.63458E-03    -296.762E-03     564.204E-03    -267.590E-03    -6.29853E-03
            2354     6.21899E-03     9.66032E-03    -73.7638E+06    -53.5639E+06    -5.55494E+06     1.29697E+06    -288.506E-03     553.298E-03    -264.792E-03     14.0673E-06    -289.024E-03     553.380E-03    -264.635E-03    -8.74628E-03
            2355     5.54346E-03     9.59361E-03    -83.0235E+06    -84.4355E+06    -21.8544E+06     2.36427E+06    -281.200E-03     543.244E-03    -262.044E-03    -2.01822E-03    -281.642E-03     543.154E-03    -261.911E-03    -9.64141E-03
            2356     4.86326E-03     9.53501E-03    -91.5785E+06    -111.195E+06    -38.0461E+06     2.95743E+06    -274.458E-03     534.015E-03    -259.556E-03    -3.17564E-03    -274.836E-03     533.781E-03    -259.452E-03    -9.69064E-03
            2357     4.17816E-03     9.48815E-03    -99.9479E+06    -135.727E+06    -54.7052E+06     3.25146E+06    -268.463E-03     525.813E-03    -257.350E-03    -3.44551E-03    -268.787E-03     525.456E-03    -257.282E-03    -8.92545E-03
            2358     3.48872E-03     9.44971E-03    -108.203E+06    -159.294E+06    -72.0657E+06     3.15939E+06    -263.207E-03     518.655E-03    -255.448E-03    -3.14669E-03    -263.483E-03     518.188E-03    -255.420E-03    -7.63814E-03
            2359     2.79542E-03     9.42002E-03    -115.374E+06    -180.041E+06    -88.7228E+06     2.48091E+06    -258.862E-03     512.729E-03    -253.867E-03    -2.66007E-03    -259.095E-03     512.168E-03    -253.882E-03    -6.19748E-03
            2360     2.09950E-03     9.39600E-03    -121.300E+06    -198.218E+06    -104.224E+06     1.93058E+06    -255.428E-03     508.046E-03    -252.618E-03    -2.04621E-03    -255.623E-03     507.406E-03    -252.676E-03    -4.67794E-03
            2361     1.40063E-03     9.38116E-03    -126.110E+06    -213.805E+06    -117.653E+06     1.21265E+06    -252.893E-03     504.630E-03    -251.737E-03    -1.35237E-03    -253.057E-03     503.925E-03    -251.833E-03    -3.13365E-03
            2362     700.448E-06     9.37026E-03    -128.896E+06    -223.676E+06    -126.507E+06     344.392E+03    -251.701E-03     502.728E-03    -251.026E-03    -916.566E-06    -251.844E-03     501.982E-03    -251.148E-03    -1.89606E-03
            2363     12.8056E-03     9.17017E-03    -4.60651E+06     95.6634E+06     94.2118E+06    -856.419E+03    -314.762E-03     603.879E-03    -289.118E-03     67.5500E-03    -316.238E-03     605.406E-03    -288.779E-03     49.5204E-03
            2364     12.1535E-03     9.04030E-03    -11.4200E+06     91.6152E+06     93.4643E+06    -2.27718E+06    -321.416E-03     608.922E-03    -287.506E-03     79.4528E-03    -323.346E-03     610.866E-03    -287.155E-03     58.0621E-03
            2365     11.5031E-03     8.89974E-03    -16.8903E+06     84.6264E+06     91.1090E+06    -1.79990E+06    -326.171E-03     611.526E-03    -285.356E-03     68.7713E-03    -327.890E-03     613.223E-03    -284.998E-03     48.7187E-03
            2366     10.8552E-03     8.75163E-03    -22.4012E+06     78.1522E+06     83.5051E+06    -1.27579E+06    -328.286E-03     610.952E-03    -282.667E-03     55.9801E-03    -329.816E-03     612.442E-03    -282.330E-03     36.9263E-03
            2367     10.2095E-03     8.60768E-03    -28.5983E+06     70.6659E+06     70.8391E+06    -1.52611E+06    -327.566E-03     607.081E-03    -279.515E-03     42.5102E-03    -328.908E-03     608.371E-03    -279.222E-03     24.5265E-03
            2368     9.56080E-03     8.47407E-03    -35.4547E+06     60.6994E+06     58.6322E+06    -2.51449E+06    -324.202E-03     600.242E-03    -276.039E-03     29.0628E-03    -325.353E-03     601.317E-03    -275.783E-03     12.3370E-03
            2369     8.91270E-03     8.35578E-03    -42.8182E+06     44.1291E+06     44.6639E+06    -2.55526E+06    -318.199E-03     590.574E-03    -272.375E-03     17.9957E-03    -319.173E-03     591.427E-03    -272.153E-03     2.76675E-03
            2370     8.25895E-03     8.24904E-03    -50.4428E+06     29.0705E+06     31.3816E+06    -21.4955E+03    -309.747E-03     578.450E-03    -268.702E-03     10.2187E-03    -310.586E-03     579.124E-03    -268.514E-03    -3.37230E-03
            2371     7.59912E-03     8.16037E-03    -58.8978E+06     13.6429E+06     20.7166E+06     2.86498E+06    -300.180E-03     565.390E-03    -265.211E-03     5.99234E-03    -300.928E-03     565.919E-03    -265.041E-03    -6.03311E-03
            2372     6.93086E-03     8.08491E-03    -67.9557E+06    -16.2809E+06     7.99066E+06     4.51571E+06    -290.855E-03     552.857E-03    -262.002E-03     4.30472E-03    -291.516E-03     553.196E-03    -261.840E-03    -6.26044E-03
            2373     6.25663E-03     8.02424E-03    -76.9090E+06    -52.0788E+06    -6.78797E+06     4.99444E+06    -282.404E-03     541.502E-03    -259.098E-03     3.74717E-03    -282.974E-03     541.633E-03    -258.945E-03    -5.40839E-03
            2374     5.57673E-03     7.97118E-03    -85.5988E+06    -82.6117E+06    -21.7635E+06     4.69712E+06    -274.813E-03     531.310E-03    -256.497E-03     3.85417E-03    -275.307E-03     531.269E-03    -256.362E-03    -3.99193E-03
            2375     4.89126E-03     7.93058E-03    -94.3814E+06    -108.790E+06    -36.8599E+06     4.30933E+06    -267.955E-03     522.172E-03    -254.216E-03     4.46036E-03    -268.386E-03     521.987E-03    -254.106E-03    -2.15162E-03
            2376     4.20062E-03     7.89554E-03    -102.839E+06    -132.815E+06    -52.2739E+06     3.68771E+06    -262.100E-03     514.370E-03    -252.270E-03     5.06656E-03    -262.474E-03     514.058E-03    -252.189E-03    -403.641E-06
            2377     3.50630E-03     7.86940E-03    -110.470E+06    -155.166E+06    -68.6002E+06     2.50386E+06    -257.428E-03     508.058E-03    -250.630E-03     5.28745E-03    -257.748E-03     507.633E-03    -250.587E-03     860.196E-06
            2378     2.80909E-03     7.84755E-03    -117.377E+06    -176.329E+06    -85.9077E+06     1.03703E+06    -253.612E-03     502.883E-03    -249.272E-03     5.06796E-03    -253.879E-03     502.357E-03    -249.275E-03     1.59783E-03
            2379     2.10878E-03     7.83275E-03    -123.562E+06    -196.210E+06    -103.228E+06    -7.42333E+03    -250.579E-03     498.790E-03    -248.211E-03     4.23819E-03    -250.798E-03     498.172E-03    -248.263E-03     1.67236E-03
            2380     1.40709E-03     7.82114E-03    -128.128E+06    -212.088E+06    -118.344E+06    -162.121E+03    -248.487E-03     495.942E-03    -247.455E-03     3.03902E-03    -248.665E-03     495.255E-03    -247.553E-03     1.34230E-03
            2381     703.929E-06     7.81537E-03    -131.406E+06    -222.786E+06    -128.619E+06    -78.3616E+03    -247.457E-03     494.254E-03    -246.797E-03     1.79549E-03    -247.611E-03     493.522E-03    -246.926E-03     889.422E-06
            2382     12.8180E-03     7.43511E-03    -5.11627E+06     97.1933E+06     95.7224E+06    -459.832E+03    -327.756E-03     616.328E-03    -288.572E-03     65.1062E-03    -329.259E-03     617.880E-03    -288.227E-03     46.0262E-03
            2383     12.1668E-03     7.28623E-03    -10.1034E+06     93.6067E+06     95.0046E+06     116.184E+03    -334.680E-03     620.878E-03    -286.199E-03     70.7709E-03    -336.540E-03     622.761E-03    -285.845E-03     48.5672E-03
            2384     11.5272E-03     7.14011E-03    -16.6088E+06     85.8786E+06     90.5742E+06    -1.49819E+06    -339.118E-03     622.303E-03    -283.185E-03     57.8948E-03    -340.789E-03     623.960E-03    -282.833E-03     36.5418E-03
            2385     10.8901E-03     6.99918E-03    -23.2169E+06     77.8631E+06     83.8031E+06    -2.71104E+06    -339.537E-03     619.144E-03    -279.606E-03     45.2230E-03    -341.074E-03     620.636E-03    -279.267E-03     24.2198E-03
            2386     10.2498E-03     6.86566E-03    -29.4165E+06     69.4374E+06     69.9016E+06    -1.65689E+06    -334.738E-03     610.373E-03    -275.634E-03     29.9956E-03    -336.035E-03     611.615E-03    -275.343E-03     10.3924E-03
            2387     9.60844E-03     6.74713E-03    -35.9338E+06     59.1928E+06     53.5342E+06     932.055E+03    -325.736E-03     597.300E-03    -271.563E-03     19.0807E-03    -326.827E-03     598.321E-03    -271.329E-03     1.42222E-03
            2388     8.95870E-03     6.64695E-03    -44.8558E+06     43.3421E+06     39.5721E+06     3.52607E+06    -314.929E-03     582.585E-03    -267.656E-03     13.7909E-03    -315.881E-03     583.419E-03    -267.456E-03    -1.78396E-03
            2389     8.30150E-03     6.56740E-03    -54.5485E+06     26.1322E+06     29.0209E+06     4.18762E+06    -303.436E-03     567.503E-03    -264.067E-03     12.6510E-03    -304.299E-03     568.182E-03    -263.881E-03    -918.446E-06
            2390     7.63427E-03     6.50181E-03    -62.8927E+06     11.3146E+06     21.0422E+06     4.83642E+06    -292.627E-03     553.495E-03    -260.868E-03     13.2690E-03    -293.422E-03     554.046E-03    -260.688E-03     1.55862E-03
            2391     6.96046E-03     6.44900E-03    -70.3026E+06    -14.5578E+06     11.0721E+06     5.49932E+06    -283.200E-03     541.265E-03    -258.065E-03     14.1328E-03    -283.906E-03     541.638E-03    -257.886E-03     4.17664E-03
            2392     6.28004E-03     6.40414E-03    -77.6016E+06    -48.4649E+06    -984.216E+03      5.0825E+06    -274.996E-03     530.635E-03    -255.639E-03     15.3102E-03    -275.608E-03     530.803E-03    -255.461E-03     6.89745E-03
            2393     5.59384E-03     6.36983E-03    -85.0612E+06    -78.8261E+06    -13.3195E+06     4.09881E+06    -267.985E-03     521.556E-03    -253.570E-03     16.2833E-03    -268.517E-03     521.544E-03    -253.399E-03     9.22979E-03
            2394     4.90281E-03     6.34105E-03    -92.5129E+06    -104.758E+06    -27.2292E+06     2.63327E+06    -262.281E-03     514.101E-03    -251.820E-03     16.5458E-03    -262.739E-03     513.938E-03    -251.670E-03     10.6961E-03
            2395     4.20845E-03     6.31942E-03    -99.4525E+06    -127.879E+06    -42.9550E+06     482.303E+03    -257.667E-03     508.019E-03    -250.352E-03     15.9513E-03    -258.056E-03     507.726E-03    -250.237E-03     11.1816E-03
            2396     3.51083E-03     6.30026E-03    -106.111E+06    -151.771E+06    -60.9573E+06    -1.52311E+06    -253.940E-03     503.086E-03    -249.146E-03     14.6060E-03    -254.260E-03     502.667E-03    -249.077E-03     10.7884E-03
            2397     2.81098E-03     6.28702E-03    -112.326E+06    -174.721E+06    -80.5969E+06    -2.48934E+06    -251.089E-03     499.274E-03    -248.184E-03     12.6248E-03    -251.345E-03     498.744E-03    -248.171E-03     9.65579E-03
            2398     2.10985E-03     6.27656E-03    -117.790E+06    -197.404E+06    -98.6563E+06    -2.28858E+06    -249.052E-03     496.505E-03    -247.453E-03     10.1959E-03    -249.249E-03     495.869E-03    -247.489E-03     8.02620E-03
            2399     1.40709E-03     6.27000E-03    -122.728E+06    -214.466E+06    -113.228E+06    -1.38746E+06    -247.661E-03     494.581E-03    -246.920E-03     7.26860E-03    -247.817E-03     493.869E-03    -246.997E-03     5.83510E-03
            2400     703.844E-06     6.26509E-03    -126.061E+06    -223.990E+06    -123.309E+06    -557.958E+03    -246.389E-03     493.352E-03    -246.963E-03     4.46702E-03    -246.522E-03     492.600E-03    -247.072E-03     3.68746E-03
            2401     12.8240E-03     5.66441E-03    -7.17064E+06     97.4332E+06     92.0983E+06    -273.542E+03    -346.316E-03     634.119E-03    -287.803E-03     67.5478E-03    -347.820E-03     635.676E-03    -287.473E-03     48.1296E-03
            2402     12.1958E-03     5.50984E-03    -11.6298E+06     93.6193E+06     92.9265E+06    -646.915E+03    -352.114E-03     636.562E-03    -284.449E-03     68.9300E-03    -354.029E-03     638.502E-03    -284.103E-03     45.2057E-03
            2403     11.5612E-03     5.37194E-03    -15.3316E+06     87.7751E+06     91.7499E+06    -578.514E+03    -352.408E-03     632.885E-03    -280.478E-03     49.3254E-03    -354.101E-03     634.575E-03    -280.124E-03     25.8486E-03
            2404     10.9279E-03     5.22804E-03    -21.6884E+06     78.5502E+06     84.9352E+06     310.877E+03    -345.854E-03     621.999E-03    -276.145E-03     32.7730E-03    -347.275E-03     623.383E-03    -275.803E-03     10.8270E-03
            2405     10.2959E-03     5.11777E-03    -30.2830E+06     65.6312E+06     69.9506E+06     1.62483E+06    -333.413E-03     605.229E-03    -271.816E-03     22.7938E-03    -334.583E-03     606.326E-03    -271.518E-03     3.59166E-03
            2406     9.64974E-03     5.03165E-03    -38.7674E+06     53.3724E+06     54.8633E+06     3.75161E+06    -318.868E-03     586.701E-03    -267.833E-03     21.3452E-03    -319.896E-03     587.625E-03    -267.580E-03     4.93941E-03
            2407     8.99251E-03     4.96069E-03    -44.6534E+06     41.6012E+06     44.9706E+06     5.60060E+06    -305.038E-03     569.398E-03    -264.360E-03     22.3013E-03    -305.953E-03     570.174E-03    -264.131E-03     8.53352E-03
            2408     8.32423E-03     4.90765E-03    -50.3445E+06     28.3430E+06     37.9657E+06     6.48578E+06    -293.377E-03     554.775E-03    -261.399E-03     23.8194E-03    -294.195E-03     555.406E-03    -261.177E-03     12.3466E-03
            2409     7.65005E-03     4.86334E-03    -57.6757E+06     13.7270E+06     32.4907E+06     5.37208E+06    -283.704E-03     542.590E-03    -258.887E-03     25.7807E-03    -284.453E-03     543.091E-03    -258.660E-03     16.2050E-03
            2410     6.96922E-03     4.82893E-03    -65.4657E+06    -10.7084E+06     23.6475E+06     3.30805E+06    -275.561E-03     532.325E-03    -256.763E-03     27.0035E-03    -276.230E-03     532.656E-03    -256.535E-03     19.0389E-03
            2411     6.28287E-03     4.80142E-03    -72.3075E+06    -42.9228E+06     10.4244E+06     745.529E+03    -268.822E-03     523.808E-03    -254.985E-03     27.4111E-03    -269.398E-03     523.945E-03    -254.766E-03     20.7878E-03
            2412     5.59216E-03     4.77928E-03    -77.6976E+06    -74.0832E+06    -4.61792E+06    -2.28792E+06    -263.537E-03     517.044E-03    -253.507E-03     26.6324E-03    -264.016E-03     516.998E-03    -253.310E-03     21.1440E-03
            2413     4.89861E-03     4.76096E-03    -81.9248E+06    -100.908E+06    -20.8840E+06    -4.92561E+06    -259.460E-03     511.732E-03    -252.272E-03     24.9693E-03    -259.849E-03     511.533E-03    -252.111E-03     20.4248E-03
            2414     4.20265E-03     4.74618E-03    -86.0223E+06    -126.448E+06    -38.5991E+06    -6.09503E+06    -256.221E-03     507.463E-03    -251.242E-03     22.6081E-03    -256.526E-03     507.126E-03    -251.127E-03     18.8860E-03
            2415     3.50501E-03     4.73511E-03    -90.4878E+06    -152.806E+06    -56.9709E+06    -5.85232E+06    -253.578E-03     503.991E-03    -250.413E-03     19.6681E-03    -253.805E-03     503.520E-03    -250.345E-03     16.6947E-03
            2416     2.80540E-03     4.72600E-03    -95.6697E+06    -178.992E+06    -73.7635E+06    -4.48665E+06    -251.605E-03     501.393E-03    -249.789E-03     16.2069E-03    -251.767E-03     500.795E-03    -249.759E-03     13.9141E-03
            2417     2.10448E-03     4.71941E-03    -100.881E+06    -202.762E+06    -87.8021E+06    -2.35667E+06    -250.314E-03     499.650E-03    -249.336E-03     12.4814E-03    -250.426E-03     498.938E-03    -249.335E-03     10.7993E-03
            2418     1.40349E-03     4.71431E-03    -105.189E+06    -217.866E+06    -98.9900E+06    -855.320E+03    -249.461E-03     498.466E-03    -249.005E-03     8.48761E-03    -249.542E-03     497.686E-03    -249.031E-03     7.37955E-03
            2419     701.675E-06     4.71215E-03    -108.152E+06    -226.047E+06    -106.446E+06    -223.825E+03    -248.526E-03     497.705E-03    -249.179E-03     4.36960E-03    -248.589E-03     496.891E-03    -249.227E-03     3.77874E-03
            2420     12.8370E-03     3.85420E-03    -7.09469E+06     100.789E+06     92.7252E+06     18.0955E+03    -373.538E-03     660.831E-03    -287.293E-03     78.7053E-03    -375.335E-03     662.690E-03    -286.965E-03     56.5026E-03
            2421     12.2106E-03     3.70600E-03    -8.74271E+06     94.4534E+06     91.2731E+06    -2.31537E+06    -373.556E-03     656.212E-03    -282.656E-03     64.3905E-03    -375.564E-03     658.267E-03    -282.324E-03     37.9030E-03
            2422     11.5967E-03     3.56399E-03    -14.3228E+06     82.0283E+06     86.3604E+06    -184.784E+03    -360.686E-03     638.475E-03    -277.789E-03     41.1348E-03    -362.158E-03     639.948E-03    -277.456E-03     18.2334E-03
            2423     10.9742E-03     3.46716E-03    -21.2615E+06     74.1147E+06     81.3657E+06     4.77719E+06    -341.247E-03     614.507E-03    -273.260E-03     31.7796E-03    -342.391E-03     615.610E-03    -272.930E-03     13.1660E-03
            2424     10.3251E-03     3.39241E-03    -27.8178E+06     66.3998E+06     73.1174E+06     6.01755E+06    -322.522E-03     591.868E-03    -269.346E-03     30.1224E-03    -323.479E-03     592.753E-03    -269.037E-03     15.3044E-03
            2425     9.66733E-03     3.34002E-03    -33.9675E+06     56.1432E+06     62.9034E+06     3.73385E+06    -307.401E-03     573.462E-03    -266.060E-03     31.3971E-03    -308.239E-03     574.199E-03    -265.778E-03     19.4562E-03
            2426     8.99944E-03     3.29849E-03    -40.1165E+06     40.2194E+06     50.6779E+06     2.12026E+06    -295.146E-03     558.460E-03    -263.314E-03     32.5411E-03    -295.879E-03     559.049E-03    -263.061E-03     22.8891E-03
            2427     8.32574E-03     3.26594E-03    -45.4153E+06     27.7094E+06     40.6453E+06     2.76160E+06    -285.301E-03     546.331E-03    -261.029E-03     32.4301E-03    -285.944E-03     546.795E-03    -260.800E-03     24.6604E-03
            2428     7.64472E-03     3.24031E-03    -49.9775E+06     19.1878E+06     31.8499E+06     2.65869E+06    -277.273E-03     536.409E-03    -259.136E-03     31.9312E-03    -277.849E-03     536.785E-03    -258.932E-03     25.6010E-03
            2429     6.95917E-03     3.21993E-03    -54.6054E+06    -2.30665E+06     18.4444E+06    -815.663E+03    -271.017E-03     528.589E-03    -257.572E-03     30.9720E-03    -271.516E-03     528.833E-03    -257.397E-03     25.7177E-03
            2430     6.27048E-03     3.20405E-03    -58.8803E+06    -35.3439E+06     1.96165E+06    -5.68341E+06    -266.406E-03     522.674E-03    -256.268E-03     29.1814E-03    -266.810E-03     522.739E-03    -256.122E-03     24.7707E-03
            2431     5.57948E-03     3.19028E-03    -62.7319E+06    -69.8750E+06    -14.6235E+06    -9.39827E+06    -262.669E-03     517.840E-03    -255.170E-03     26.7553E-03    -262.982E-03     517.724E-03    -255.051E-03     23.0327E-03
            2432     4.88614E-03     3.17939E-03    -66.7866E+06    -102.357E+06    -31.2665E+06    -10.5267E+06    -259.573E-03     513.829E-03    -254.256E-03     24.0121E-03    -259.805E-03     513.551E-03    -254.167E-03     20.8953E-03
            2433     4.19084E-03     3.17037E-03    -71.2257E+06    -132.506E+06    -46.4566E+06    -9.10695E+06    -257.160E-03     510.675E-03    -253.515E-03     20.9556E-03    -257.323E-03     510.249E-03    -253.452E-03     18.3872E-03
            2434     3.49397E-03     3.16353E-03    -75.7782E+06    -160.646E+06    -59.3021E+06    -6.18954E+06    -255.381E-03     508.302E-03    -252.922E-03     17.6113E-03    -255.487E-03     507.741E-03    -252.875E-03     15.5472E-03
            2435     2.79643E-03     3.15830E-03    -79.9274E+06    -187.371E+06    -69.0014E+06    -2.80778E+06    -254.007E-03     506.463E-03    -252.456E-03     14.1507E-03    -254.065E-03     505.771E-03    -252.413E-03     12.5663E-03
            2436     2.09833E-03     3.15358E-03    -83.4841E+06    -207.955E+06    -76.5522E+06    -510.242E+03    -252.910E-03     505.016E-03    -252.106E-03     10.6314E-03    -252.932E-03     504.225E-03    -252.066E-03     9.48076E-03
            2437     1.39903E-03     3.15075E-03    -86.0982E+06    -219.203E+06    -82.7957E+06     436.362E+03    -252.177E-03     504.046E-03    -251.869E-03     7.24418E-03    -252.177E-03     503.202E-03    -251.841E-03     6.48898E-03
            2438     699.959E-06     3.14836E-03    -87.6259E+06    -226.140E+06    -86.7931E+06     502.279E+03    -251.899E-03     503.551E-03    -251.651E-03     3.94091E-03    -251.886E-03     502.675E-03    -251.630E-03     3.55500E-03
            2439     12.8301E-03     1.97621E-03    -3.13117E+06     104.019E+06     97.1043E+06    -1.25103E+06    -417.664E-03     705.294E-03    -287.630E-03     79.1458E-03    -419.171E-03     706.889E-03    -287.291E-03     59.9475E-03
            2440     12.2448E-03     1.84521E-03    -7.22683E+06     94.0436E+06     91.7260E+06     1.26399E+06    -388.638E-03     670.215E-03    -281.577E-03     51.7951E-03    -389.906E-03     671.545E-03    -281.244E-03     34.0036E-03
            2441     11.6254E-03     1.77729E-03    -14.1867E+06     77.0660E+06     83.9204E+06     3.84169E+06    -357.464E-03     633.868E-03    -276.403E-03     37.9261E-03    -358.305E-03     634.700E-03    -276.075E-03     24.6854E-03
            2442     10.9765E-03     1.72622E-03    -20.5669E+06     71.8360E+06     80.0614E+06     2.68994E+06    -332.364E-03     604.596E-03    -272.232E-03     33.3885E-03    -333.081E-03     605.268E-03    -271.906E-03     23.3861E-03
            2443     10.3250E-03     1.69506E-03    -24.2738E+06     68.7863E+06     72.6616E+06     2.02499E+06    -313.936E-03     582.804E-03    -268.868E-03     30.1635E-03    -314.541E-03     583.361E-03    -268.569E-03     22.6696E-03
            2444     9.65986E-03     1.66683E-03    -28.5402E+06     58.5870E+06     55.6129E+06     3.09569E+06    -300.319E-03     566.413E-03    -266.094E-03     27.7577E-03    -300.828E-03     566.871E-03    -265.859E-03     21.9869E-03
            2445     8.98935E-03     1.64870E-03    -34.1741E+06     43.8981E+06     34.3431E+06     2.56775E+06    -290.008E-03     553.793E-03    -263.786E-03     26.0201E-03    -290.446E-03     554.169E-03    -263.628E-03     21.4204E-03
            2446     8.31161E-03     1.63203E-03    -39.2448E+06     30.0117E+06     17.6979E+06    -672.919E+03    -281.887E-03     543.765E-03    -261.879E-03     24.5057E-03    -282.272E-03     544.068E-03    -261.777E-03     20.7182E-03
            2447     7.63066E-03     1.62200E-03    -42.5624E+06     20.7587E+06     4.07337E+06    -2.42811E+06    -275.507E-03     535.796E-03    -260.289E-03     22.3482E-03    -275.847E-03     536.047E-03    -260.237E-03     19.2488E-03
            2448     6.94526E-03     1.61215E-03    -45.4178E+06     6.03197E+06    -12.0453E+06    -3.67552E+06    -270.549E-03     529.495E-03    -258.946E-03     20.3364E-03    -270.837E-03     529.678E-03    -258.949E-03     17.7644E-03
            2449     6.25736E-03     1.60330E-03    -48.9832E+06    -27.9927E+06    -26.1169E+06    -7.06271E+06    -266.683E-03     524.528E-03    -257.845E-03     18.1427E-03    -266.903E-03     524.550E-03    -257.864E-03     15.9464E-03
            2450     5.56707E-03     1.59716E-03    -53.3124E+06    -71.2054E+06    -35.9381E+06    -8.59693E+06    -263.542E-03     520.491E-03    -256.949E-03     16.1849E-03    -263.695E-03     520.306E-03    -256.948E-03     14.2734E-03
            2451     4.87470E-03     1.59208E-03    -58.2383E+06    -108.652E+06    -44.7496E+06    -7.10401E+06    -260.972E-03     517.173E-03    -256.201E-03     14.2026E-03    -261.072E-03     516.810E-03    -256.183E-03     12.5962E-03
            2452     4.18083E-03     1.58783E-03    -63.3993E+06    -140.845E+06    -52.5175E+06    -4.95293E+06    -258.927E-03     514.511E-03    -255.585E-03     12.0499E-03    -258.986E-03     513.997E-03    -255.551E-03     10.7359E-03
            2453     3.48594E-03     1.58426E-03    -67.7009E+06    -169.400E+06    -58.7433E+06    -2.71214E+06    -257.362E-03     512.444E-03    -255.082E-03     9.94664E-03    -257.385E-03     511.795E-03    -255.032E-03     8.89125E-03
            2454     2.79007E-03     1.58135E-03    -70.6161E+06    -193.807E+06    -63.7483E+06    -878.842E+03    -256.153E-03     510.824E-03    -254.671E-03     7.97343E-03    -256.143E-03     510.060E-03    -254.606E-03     7.15303E-03
            2455     2.09303E-03     1.57979E-03    -72.2669E+06    -210.277E+06    -67.6770E+06     183.859E+03    -255.179E-03     509.520E-03    -254.341E-03     6.04852E-03    -255.143E-03     508.677E-03    -254.270E-03     5.45298E-03
            2456     1.39575E-03     1.57796E-03    -73.2940E+06    -218.988E+06    -70.9754E+06     491.606E+03    -254.450E-03     508.553E-03    -254.103E-03     4.03055E-03    -254.399E-03     507.670E-03    -254.034E-03     3.65258E-03
            2457     697.384E-06     1.57703E-03    -74.2892E+06    -224.731E+06    -73.2203E+06     328.762E+03    -254.163E-03     508.014E-03    -253.851E-03     2.14567E-03    -254.103E-03     507.105E-03    -253.784E-03     1.94626E-03


